
units lj                  # Use reduced LJ style units
atom_style atomic         # Uncharged point particles
atom_modify map hash      # Needed for indexing of clusters etc
                          # Used to be able to find where atoms are in relation to each other.

lattice fcc 1.0 spacing 1 1 1
Lattice spacing in x,y,z = 1.5874011 1.5874011 1.5874011
region box block 0 10 0 10 0 10 units lattice
create_box 2 box
Created orthogonal box = (0.0000000 0.0000000 0.0000000) to (15.874011 15.874011 15.874011)
  3 by 4 by 4 MPI processor grid
create_atoms 1 box
Created 4000 atoms
  using lattice units in orthogonal box = (0.0000000 0.0000000 0.0000000) to (15.874011 15.874011 15.874011)
  create_atoms CPU = 0.002 seconds
set type 1 type/fraction 2 0.75 78393
Setting atom values ...
  3002 settings made for type/fraction
mass 1 1.0
mass 2 1.0
pair_style lj/cut  3.5
pair_modify tail  yes
pair_coeff 1  1  1.0  1.0   # Intearaction between 1 and 1 set with epsilon = 1 and sigma = 1
pair_coeff 1  2  1.5  0.8
pair_coeff 2  2  0.5  0.88

write_data data.0
System init for write_data ...
Neighbor list info ...
  update every 1 steps, delay 10 steps, check yes
  max neighbors/atom: 2000, page size: 100000
  master list distance cutoff = 3.8
  ghost atom cutoff = 3.8
  binsize = 1.9, bins = 9 9 9
  1 neighbor lists, perpetual/occasional/extra = 1 0 0
  (1) pair lj/cut, perpetual
      attributes: half, newton on
      pair build: half/bin/atomonly/newton
      stencil: half/bin/3d
      bin: standard
WARNING: Not all mixed pair coeffs generated from mixing. Use write_data with 'pair ij' option to store all pair coeffs. (../write_data.cpp:312)


#############################
#   M E L T   S Y S T E M   #
#############################

velocity all create 2.4 6583654 mom yes dist gaussian # Assign velocities
                                                    # Temperature 2.4, random number seed, zero linear momentum
                                                                                # Gaussian distribution

timestep 0.002   # simulation timestep
thermo 1000       # output thermodynamic data every 1000 steps bf 100

# Define a fix  in this case with index 1 applied to all
# particles in the simulation. This fix is for simulations
# in the anisotropic NPT ensemble. Note that we use the MTK
# correction.
fix 1 all npt temp 2.4 2.4 0.1 iso 5.68 5.68 0.5 mtk yes tchain 5 pchain 5 # Use NPT ensemble
                                                                         # Set temperature and pressure and damping
                                                                         # Numbers of thermostats in chain and in barostat
run 10000          # run for 10000 steps
Per MPI rank memory allocation (min/avg/max) = 3.642 | 3.644 | 3.648 Mbytes
Step Temp E_pair E_mol TotEng Press Volume 
       0          2.4    -3.937065            0  -0.33796495   -3.5201857         4000 
    1000    2.3797952   -3.4360114            0     0.132789    5.5786665    3723.8866 
    2000    2.3875813   -3.4270362            0   0.15344037    5.7113256    3725.1838 
    3000    2.3952695   -3.4092014            0   0.18280468    5.7506095    3716.3706 
    4000     2.385421   -3.4722594            0   0.10497762    5.6644452    3686.5929 
    5000     2.467368   -3.3949925            0   0.30513423    5.8867724    3719.8269 
    6000    2.4228803   -3.4030944            0   0.23031742    6.0378772    3693.9553 
    7000    2.4170993   -3.4387609            0    0.1859817    5.7214307    3713.9052 
    8000    2.3439258   -3.4463947            0  0.068615002    5.7251955    3706.2596 
    9000    2.3624762   -3.4564669            0  0.086361581    5.6880023    3697.8753 
   10000    2.4119772   -3.4945693            0   0.12249197     5.534381     3699.399 
Loop time of 2.59134 on 48 procs for 10000 steps with 4000 atoms

Performance: 666837.544 tau/day, 3859.014 timesteps/s
99.6% CPU use with 48 MPI tasks x no OpenMP threads

MPI task timing breakdown:
Section |  min time  |  avg time  |  max time  |%varavg| %total
---------------------------------------------------------------
Pair    | 1.1373     | 1.238      | 1.3201     |   2.9 | 47.77
Neigh   | 0.21353    | 0.22195    | 0.23252    |   0.7 |  8.57
Comm    | 0.78961    | 0.87248    | 0.96365    |   3.8 | 33.67
Output  | 0.00024948 | 0.00025357 | 0.00032243 |   0.0 |  0.01
Modify  | 0.22787    | 0.24311    | 0.2635     |   1.9 |  9.38
Other   |            | 0.01556    |            |       |  0.60

Nlocal:        83.3333 ave          96 max          70 min
Histogram: 1 1 1 12 7 13 6 2 3 2
Nghost:        1732.40 ave        1766 max        1713 min
Histogram: 7 5 6 12 7 4 3 2 1 1
Neighs:        10321.8 ave       12168 max        8731 min
Histogram: 1 3 7 10 7 8 4 4 2 2

Total # of neighbors = 495447
Ave neighs/atom = 123.86175
Neighbor list builds = 908
Dangerous builds = 219

# Equilibrate just above the melting temperature to avoid step fn in T

fix 1 all npt temp 1.25 1.25 0.1 iso 5.68 5.68 0.5 mtk yes tchain 5 pchain 5
run 2000
Per MPI rank memory allocation (min/avg/max) = 3.644 | 3.646 | 3.649 Mbytes
Step Temp E_pair E_mol TotEng Press Volume 
   10000    2.4119772   -3.4945693            0   0.12249197     5.534381     3699.399 
   11000    1.2550514   -5.0994741            0   -3.2173677    5.5979392    2835.5364 
   12000    1.2527554   -5.1079511            0   -3.2292878    5.7656295     2826.053 
Loop time of 0.645741 on 48 procs for 2000 steps with 4000 atoms

Performance: 535199.342 tau/day, 3097.218 timesteps/s
99.6% CPU use with 48 MPI tasks x no OpenMP threads

MPI task timing breakdown:
Section |  min time  |  avg time  |  max time  |%varavg| %total
---------------------------------------------------------------
Pair    | 0.29489    | 0.3176     | 0.34119    |   2.4 | 49.18
Neigh   | 0.040855   | 0.043644   | 0.046262   |   0.7 |  6.76
Comm    | 0.20772    | 0.23412    | 0.26244    |   3.3 | 36.26
Output  | 5.2236e-05 | 5.3375e-05 | 6.8947e-05 |   0.0 |  0.01
Modify  | 0.041041   | 0.045465   | 0.050059   |   1.2 |  7.04
Other   |            | 0.004861   |            |       |  0.75

Nlocal:        83.3333 ave          91 max          78 min
Histogram: 6 5 6 12 5 2 4 2 3 3
Nghost:        2082.35 ave        2102 max        2064 min
Histogram: 2 1 7 8 9 10 3 1 3 4
Neighs:        13509.9 ave       15067 max       12316 min
Histogram: 4 6 5 6 10 5 4 5 1 2

Total # of neighbors = 648475
Ave neighs/atom = 162.11875
Neighbor list builds = 144
Dangerous builds = 11

#############################
# L I N E A R  Q U E N C H  #
#############################

# Define solid atoms. This closely follows ten Wolde  Ruiz-Montero and Frenkel  Faraday Discuss  1996  104  93-110
# Compute components of the per-atom q6 vector
compute q6 all orientorder/atom degrees 1 6 components 6 nnn NULL cutoff 1.3 # compute the Q6 parameter.
                                                                             # Use all neighbours within 1.3 unit cell.

# get number of connections
compute coord_number all coord/atom orientorder q6 0.5

# An atom is solid if it has 8 or more connections (of a possible 14)
variable is_solid atom c_coord_number>=8
group solid dynamic all var is_solid    # Must be dynamic to update
dynamic group solid defined

# do clustering
compute cluster solid cluster/atom 1.3 # Create a cluster where all atoms within are solid and max 1.3 units from another member

# define chunks one chunk per cluster
compute clus_chunks solid chunk/atom c_cluster nchunk every compress yes  # Says which atoms are in which chunk

# count the size of each chunk
compute size_chunks solid property/chunk clus_chunks count


# Find the maximum entry in the vector of chunk sizes
variable max_n equal max(c_size_chunks)


# Thermo style which includes this variable
# thermo_style custom step temp pe vol v_max_n

thermo ${N}  # Print the thermo information every 100 steps
thermo 1000  

# Reset the npt fix at a lower temperature (below freezing)
fix 1  all npt temp  ${temp} ${temp}  0.1  iso  5.68  5.68  0.5  mtk yes tchain  5  pchain  5
fix 1  all npt temp  0.45 ${temp}  0.1  iso  5.68  5.68  0.5  mtk yes tchain  5  pchain  5
fix 1  all npt temp  0.45 0.45  0.1  iso  5.68  5.68  0.5  mtk yes tchain  5  pchain  5

dump dmp2 all dcd ${N} traj.dcd
dump dmp2 all dcd 1000 traj.dcd


compute msd all msd com yes
variable twopoint equal c_msd[4]/6/(step*dt+1.0e-6)
fix 9 all vector 10 c_msd[4]
variable fit equal slope(f_9)/6/(10*dt)
thermo_style custom step temp pe c_msd[4] v_twopoint v_fit v_max_n

fix 1 all npt temp 1.25 ${temp} 0.1 iso 5.68 5.68 0.5 mtk yes tchain 5 pchain 5
fix 1 all npt temp 1.25 0.45 0.1 iso 5.68 5.68 0.5 mtk yes tchain 5 pchain 5
run 5000000 # 5000000  # Run for this many steps
Neighbor list info ...
  update every 1 steps, delay 10 steps, check yes
  max neighbors/atom: 2000, page size: 100000
  master list distance cutoff = 3.8
  ghost atom cutoff = 3.8
  binsize = 1.9, bins = 8 8 8
  4 neighbor lists, perpetual/occasional/extra = 1 3 0
  (1) pair lj/cut, perpetual
      attributes: half, newton on
      pair build: half/bin/atomonly/newton
      stencil: half/bin/3d
      bin: standard
  (2) compute orientorder/atom, occasional
      attributes: full, newton on
      pair build: full/bin/atomonly
      stencil: full/bin/3d
      bin: standard
  (3) compute coord/atom, occasional
      attributes: full, newton on
      pair build: full/bin/atomonly
      stencil: full/bin/3d
      bin: standard
  (4) compute cluster/atom, occasional
      attributes: full, newton on
      pair build: full/bin/atomonly
      stencil: full/bin/3d
      bin: standard
Per MPI rank memory allocation (min/avg/max) = 9.843 | 9.847 | 9.853 Mbytes
Step Temp PotEng c_msd[4] v_twopoint v_fit v_max_n 
   12000    1.2527554   -5.1079511 8.3500927e-31 5.7986752e-33 8.3333333e+20            1 
   13000    1.2450623   -5.0775617   0.67839041 0.0043486563  0.057028684            1 
   14000    1.2445682   -5.1166365    1.3468566 0.0080170035  0.056053576            3 
   15000    1.2423792   -5.0954189    2.0009966  0.011116647  0.055438652            2 
   16000    1.2580248   -5.0482482    2.6255511  0.013674745  0.054730702            1 
   17000     1.252622   -5.1032926    3.3074262  0.016212873  0.054553198            1 
   18000    1.2413693   -5.1181173    3.9856323  0.018452001  0.054922585            4 
   19000    1.2760943   -5.0994713    4.6779578  0.020517358  0.055178265            2 
   20000    1.2512346   -5.1060078    5.3251279  0.022188032  0.055295009            8 
   21000    1.2398072   -5.1259525    6.0825813  0.024137227  0.055581845            1 
   22000    1.2682961   -5.0966699    6.8066929  0.025782927  0.056081277            4 
   23000    1.2441735   -5.1464966    7.4893034  0.027135157  0.056541118            2 
   24000    1.2438581   -5.0972063    8.0909922  0.028093722  0.056652752            2 
   25000    1.2605557   -5.1277411    8.6965247  0.028988415   0.05654678            2 
   26000    1.2554636   -5.1115233     9.438015  0.030250048  0.056469381            1 
   27000    1.2364164    -5.138443    10.170295  0.031389799  0.056541548            2 
   28000    1.2495788   -5.1178598    11.012938  0.032776601  0.056801834            2 
   29000    1.2376891   -5.1564496    11.626538  0.033409592   0.05712732            3 
   30000     1.266159   -5.1213172    12.372151  0.034367086   0.05730486            1 
   31000    1.2557587   -5.0695056    13.058877  0.035104507  0.057382563            2 
   32000    1.2418276   -5.0872432     13.82309  0.035997629  0.057472161            5 
   33000    1.2687052   -5.0768103    14.426776  0.036431253  0.057536846            5 
   34000    1.2227916   -5.1357649    15.014746  0.036800847  0.057533874            2 
   35000    1.2592726   -5.0759459    15.855821  0.037751955  0.057508373            4 
   36000    1.2522577   -5.1202655    16.467977  0.038120316  0.057497715            1 
   37000     1.243119   -5.0873246    17.220831  0.038785655  0.057515898            2 
   38000    1.2716876   -5.0928354    17.931517  0.039323501  0.057538584            2 
   39000    1.2765344   -5.1389561     18.68546  0.039926197  0.057566768            3 
   40000    1.2460352   -5.0821561    19.400128  0.040416933  0.057647308            2 
   41000    1.2498274   -5.0860838    20.087163  0.040827567  0.057730129            2 
   42000    1.2514745   -5.1270082    20.846791  0.041362681  0.057825978            1 
   43000    1.2790042   -5.1205874    21.653688  0.041964511  0.057953176            3 
   44000    1.2522192   -5.1103477    22.315199  0.042263634  0.058101392            2 
   45000    1.2540898    -5.092796    22.968891  0.042534983  0.058173464            3 
   46000    1.2601472   -5.0620026    23.719769  0.042970596   0.05823759            2 
   47000     1.264165   -5.1072846    24.208304  0.042922525  0.058261467            1 
   48000    1.2591881   -5.1088384    25.052207  0.043493415   0.05824862            2 
   49000    1.2248165   -5.1119704    25.487409  0.043345933  0.058231414            3 
   50000    1.2672966   -5.1091094    26.198785  0.043664641  0.058184611            3 
   51000    1.2418475    -5.122575    26.748957  0.043707445  0.058151938            4 
   52000     1.244889   -5.1058013     27.55224   0.04415423  0.058089459            2 
   53000     1.272775   -5.1435093    28.295717  0.044490121  0.058045984            2 
   54000    1.2486415   -5.1066725    29.053747  0.044836028  0.058027208            1 
   55000    1.2403916   -5.1285103     29.56507   0.04479556  0.057988567            4 
   56000    1.2399875   -5.1075844    30.311576  0.045106511  0.057947885            2 
   57000    1.2089403   -5.0901254    30.941254   0.04523575  0.057911359            2 
   58000    1.2775991   -5.1174474    31.513776  0.045278413  0.057862673            5 
   59000    1.2755983   -5.0641644    32.217685  0.045505204  0.057791129            1 
   60000    1.2203575   -5.0677847    32.870131  0.045652959  0.057738309            3 
   61000    1.2123688   -5.0961263    33.464458  0.045716473  0.057662586            2 
   62000    1.2178677   -5.1321636    33.961077  0.045646608  0.057601559            3 
   63000    1.2677578   -5.1375742    34.609452  0.045779698  0.057509735            2 
   64000    1.2380024   -5.1363175    35.062645  0.045654485  0.057395559            2 
   65000    1.2363472   -5.0969611    35.520182  0.045538695  0.057263669            3 
   66000    1.2425708   -5.1141491    36.449538  0.046022144  0.057148392            4 
   67000    1.2143083   -5.0908803    37.220642  0.046294331  0.057038113            2 
   68000    1.2570106   -5.1461387    37.664954  0.046158032  0.056932573            3 
   69000     1.253324   -5.0999453    38.439966  0.046425079  0.056853864            1 
   70000    1.2557047   -5.1363018    39.295179  0.046779975  0.056786972            2 
   71000    1.2258981    -5.119426    39.803257  0.046717438  0.056722852            3 
   72000     1.231949   -5.1053668    40.490367  0.046863851     0.056643            1 
   73000    1.2319095   -5.1234605    41.203985  0.047036513  0.056579816            2 
   74000    1.2258148   -5.0954767    41.953464  0.047244891  0.056534218            1 
   75000    1.2387607   -5.0815844    42.641921  0.047379912  0.056507082            2 
   76000     1.223389   -5.1241815    43.489256  0.047685587  0.056484609            3 
   77000    1.2617087   -5.0799636    43.998008  0.047616892  0.056468819            2 
   78000      1.25554   -5.1150547    44.682123   0.04773731  0.056443153            3 
   79000    1.2294017   -5.1553339     45.10854  0.047582848  0.056405385            2 
   80000    1.2341677   -5.1047673    46.030402  0.047948335  0.056376496            2 
   81000    1.2489603   -5.0872671    46.883401  0.048233952  0.056361393            1 
   82000    1.2486615   -5.1067373    47.609099   0.04838323  0.056354692            1 
   83000    1.2351626    -5.115542    47.947032  0.048139591  0.056339568            5 
   84000     1.238834   -5.1023724    48.595421  0.048209743  0.056304391            3 
   85000    1.2314465   -5.1020977    49.459161  0.048489373  0.056277486            3 
   86000    1.2579551   -5.1050041    50.096064  0.048542697  0.056253348            2 
   87000    1.2433992   -5.1348872    50.568857  0.048437602  0.056236609            2 
   88000    1.2075612   -5.1149288    51.121654  0.048410656  0.056203718            3 
   89000    1.2471909   -5.1368652    51.472255  0.048194995  0.056159204            2 
   90000     1.266258   -5.1153041    52.421942  0.048538835  0.056125555            2 
   91000    1.2411136   -5.1431102    53.147375  0.048669757   0.05609449            1 
   92000    1.2451308   -5.1222743    53.535522  0.048492321  0.056058493            3 
   93000    1.2321596   -5.1392365    54.351933  0.048702448  0.056034714            2 
   94000    1.2601186      -5.1493    55.004675   0.04876301  0.056007521            2 
   95000    1.2376001   -5.1037096    55.781503  0.048931143  0.055977303            4 
   96000    1.2470292   -5.1434759    56.526728   0.04906834  0.055954299            2 
   97000    1.2045469   -5.1047086    57.208163  0.049147906  0.055938797            3 
   98000    1.2378128   -5.1356516    57.857071   0.04919819   0.05592791            3 
   99000    1.2340942   -5.1104386    58.519917  0.049259189  0.055917147            3 
  100000    1.2459031    -5.163987    59.208821  0.049340684  0.055899705            2 
  101000    1.2372921    -5.091333    60.264048  0.049722812  0.055906278            4 
  102000    1.2370026   -5.0993017    60.715006  0.049603762  0.055911072            1 
  103000    1.2389949   -5.1277661     61.63113  0.049863374  0.055915303            3 
  104000    1.2390202   -5.0903639    62.274327    0.0498993   0.05591381            2 
  105000    1.2380375   -5.1544001    62.633288  0.049708959  0.055917086            2 
  106000    1.2213747   -5.1404237    63.726969  0.050099818  0.055926246            4 
  107000    1.2279431   -5.1349314    64.209553   0.05000744  0.055936245            2 
  108000    1.2373288   -5.1477534    64.610965   0.04985414  0.055936831            5 
  109000    1.2416522   -5.1366798    65.438834  0.050029689  0.055937909            1 
  110000     1.243961   -5.1292228    66.080236  0.050060785  0.055937572            2 
  111000    1.2464879   -5.1030661    66.960074  0.050270326  0.055943965            2 
  112000    1.2506416   -5.0949032    67.832591  0.050470678  0.055952589            3 
  113000    1.2321956   -5.1237856    68.276568  0.050351451   0.05596168            1 
  114000     1.247604   -5.1522154    68.510614  0.050080858  0.055961079            2 
  115000    1.2262393   -5.1691141    69.473916  0.050343417  0.055959108            2 
  116000     1.200985   -5.1361708    70.031374  0.050309895  0.055954194            3 
  117000    1.2060742   -5.1298575    70.839119  0.050455213  0.055958567            2 
  118000    1.2358746   -5.1409453    72.087581  0.050909309  0.055970203            6 
  119000    1.2193124   -5.1176332    72.750545  0.050945759  0.055989825            3 
  120000    1.2290782   -5.1196085    73.634413  0.051135009  0.056012706            2 
  121000    1.2480407   -5.1096359    74.022964  0.050980003  0.056038397            3 
  122000    1.2430552   -5.1545217    74.729461  0.051044713  0.056055207            1 
  123000    1.2217049   -5.1546001    75.434946  0.051107687  0.056075004            1 
  124000    1.1991787   -5.1201038     76.35743  0.051315477  0.056105928            3 
  125000    1.2469837    -5.141035    77.023842  0.051349228  0.056137629            2 
  126000    1.2144016   -5.0991937    77.757023  0.051426602  0.056161973            1 
  127000    1.2372802   -5.0816969    78.403992  0.051446189  0.056184181            3 
  128000    1.2343779   -5.1817458    79.052089  0.051466204  0.056206619            4 
  129000    1.2461643   -5.1344399    79.975172  0.051663548  0.056233707            2 
  130000    1.2192966    -5.153094    80.543904  0.051630708  0.056265623            4 
  131000    1.2276028   -5.1349999    81.299391   0.05171717  0.056294334            3 
  132000     1.238537   -5.1386224     82.27676  0.051942399  0.056329097            2 
  133000    1.2395606   -5.1175154    83.030025  0.052023825  0.056362977            2 
  134000    1.2048002   -5.1248821    83.817642  0.052125399  0.056398414            1 
  135000    1.2438293    -5.130306    84.433061  0.052119174  0.056433296            1 
  136000    1.2415888   -5.1119997    85.174072  0.052189995  0.056473474            2 
  137000    1.2244632   -5.1244097    85.868623  0.052231522  0.056514655            1 
  138000    1.2266249   -5.1242276    86.546192  0.052262193   0.05654488            2 
  139000    1.2389793   -5.1007278    87.341787  0.052363182  0.056571667            2 
  140000    1.2393749   -5.1498805    87.857389  0.052296065  0.056603564            2 
  141000    1.2167188   -5.1046503    88.765906  0.052462119  0.056639376            2 
  142000    1.2116763   -5.0649793    89.688753  0.052634244  0.056675409            2 
  143000    1.2362591   -5.0989866    90.410896  0.052687002  0.056707702            2 
  144000     1.223981   -5.1462596    90.568166  0.052412133  0.056735726            3 
  145000    1.2214478   -5.1340872    91.303889  0.052473499  0.056751489            2 
  146000    1.2426452   -5.1364205    92.092338   0.05256412  0.056774144            3 
  147000    1.2106977   -5.1355389    92.432965   0.05239964  0.056793129            2 
  148000      1.19665   -5.1560874    93.337674  0.052554996   0.05681388            2 
  149000    1.2635701   -5.0872116    94.170969  0.052668327  0.056831923            3 
  150000    1.2148288   -5.1331836    94.487083  0.052492824  0.056845585            3 
  151000    1.2463064   -5.1189846    95.625921  0.052773687  0.056862563            2 
  152000    1.2141393   -5.1274513    96.517577  0.052915338  0.056883314            2 
  153000     1.220453    -5.194242    96.735269  0.052688055  0.056900757            2 
  154000    1.2194996   -5.1504088    97.743433  0.052891468  0.056916156            1 
  155000    1.2438987   -5.1628042     98.02916  0.052703849  0.056930008            4 
  156000    1.2494396   -5.1362245    98.995157  0.052882028  0.056947097            2 
  157000    1.2224848   -5.1544348    99.726603  0.052933441  0.056965399            3 
  158000    1.2269439   -5.1443983    100.33964  0.052921751  0.056982117            3 
  159000    1.2070562   -5.1416857    100.72402  0.052790364  0.056991995            2 
  160000    1.2064361    -5.128991      101.852  0.053047914  0.056997743            1 
  161000    1.2107551   -5.1666238    102.16671  0.052881318  0.057004388            2 
  162000    1.2039807   -5.1165945    103.27601   0.05312552  0.057015106            2 
  163000    1.2267436   -5.1429995     103.3586   0.05284182  0.057024521            2 
  164000    1.2125867   -5.1314828    104.02213  0.052856772  0.057036224            4 
  165000    1.2175361   -5.1422282    104.57398   0.05281514  0.057043606            2 
  166000    1.2145114   -5.1539498      104.846  0.052633535  0.057045093            2 
  167000    1.2154496   -5.1207489    105.88113  0.052834894  0.057046572            2 
  168000    1.2232762   -5.1474434    106.80638  0.052979353  0.057045294            3 
  169000    1.2316363   -5.1063619    107.59981  0.053057107  0.057050148            2 
  170000    1.2140167   -5.1488445    107.76783  0.052827366  0.057052668            1 
  171000    1.2136585   -5.1692083     108.4735  0.052862327  0.057056571            2 
  172000     1.205079   -5.1496782    109.89558  0.053243984   0.05705869            2 
  173000    1.2196335   -5.1500617     110.2855  0.053124035  0.057064313            2 
  174000    1.2368927   -5.1467199    110.69069   0.05301278  0.057070075            3 
  175000    1.2440888   -5.1013486    112.05138  0.053357798  0.057078677            2 
  176000    1.2458407   -5.1744931     112.2908  0.053167994  0.057083527            4 
  177000    1.2102307   -5.1612678    112.55103  0.052990126   0.05708463            2 
  178000    1.1871985   -5.1387679    113.47893  0.053126839  0.057083704            2 
  179000    1.2266905   -5.1397229    114.44879  0.053281561  0.057084954            2 
  180000    1.2461996   -5.1842851    115.40567  0.053428552  0.057088366            2 
  181000     1.213384   -5.1298222    116.88308  0.053813574  0.057098388            3 
  182000     1.225892   -5.1589617    116.85253  0.053503906  0.057110554            4 
  183000    1.2139222   -5.1665465    117.42986  0.053474437  0.057120825            2 
  184000    1.2102605   -5.1767772    118.33575  0.053594088  0.057133168            1 
  185000     1.208601   -5.1468328    119.00794   0.05360718  0.057143568            2 
  186000    1.2094452   -5.1663412    119.96481  0.053747673   0.05715106            1 
  187000    1.2083503    -5.173197    120.05272  0.053499427  0.057160663            3 
  188000    1.2187818   -5.1363559    121.28591  0.053761486  0.057171928            2 
  189000    1.2503076   -5.1511242    121.89166  0.053744118  0.057185462            3 
  190000    1.2048903   -5.1883958    122.34167  0.053658629  0.057195672            4 
  191000    1.1966468   -5.1783516    123.64817  0.053947717  0.057206967            4 
  192000    1.2429073   -5.1859984    124.25104  0.053928404   0.05721988            1 
  193000    1.2050693   -5.1490006    124.34721  0.053690504  0.057236557            2 
  194000    1.2370828   -5.1434895    125.23724  0.053796065  0.057248074            1 
  195000     1.209013   -5.1373642     126.3044  0.053976238  0.057258313            3 
  196000    1.2132216   -5.1859863      126.452  0.053763603  0.057263355            2 
  197000    1.2558702   -5.1806238    127.24176  0.053824769  0.057268956            6 
  198000    1.2296887   -5.1284514    128.44641  0.054059937  0.057278692            3 
  199000    1.2517511   -5.1441704    128.94233  0.053995951  0.057289713            1 
  200000     1.256816   -5.1795873    129.11864  0.053799434  0.057299209            2 
  201000    1.2103107    -5.222365    129.77829   0.05380526   0.05730602            1 
  202000    1.2274131   -5.1675799    130.33756  0.053769621  0.057309307            1 
  203000    1.2587649   -5.1793451    131.56013  0.054006621  0.057315479            2 
  204000    1.2574755   -5.1122236    131.54709  0.053736556   0.05731637            1 
  205000    1.2231422   -5.1272306    132.16969  0.053727516  0.057313841            3 
  206000    1.2454961    -5.154438    132.81683  0.053728493  0.057307872            2 
  207000    1.2161691   -5.1302695     133.3489  0.053683133  0.057299768            2 
  208000    1.2123301   -5.1358955     133.5001  0.053485616  0.057291737           11 
  209000    1.2078942   -5.1696761    134.11855  0.053476295  0.057281571            1 
  210000    1.2113639   -5.1581573    135.29832   0.05368981  0.057271764            2 
  211000    1.2344604   -5.1762019     135.4035  0.053476895  0.057262444            5 
  212000    1.1829745   -5.1849346    135.81826  0.053387681  0.057253262            2 
  213000    1.2195241     -5.20258    136.32188  0.053334068   0.05723952            2 
  214000    1.1951559   -5.1729417    138.05447  0.053759529  0.057226258            3 
  215000    1.2234211   -5.1786683     138.7718  0.053787518  0.057220256            3 
  216000    1.2328571   -5.1709013    139.32737  0.053752844  0.057214377            2 
  217000    1.2052294   -5.1578438     140.1878  0.053835559  0.057209685            2 
  218000    1.1892164   -5.1754596    140.25695  0.053615043  0.057206659            3 
  219000    1.2140419   -5.1571812    142.06544  0.054058386  0.057200968            2 
  220000    1.1935144   -5.1673185    141.74495  0.053691269  0.057197047            1 
  221000    1.2245419   -5.1728695    142.73647  0.053822198  0.057194876            2 
  222000    1.2170323   -5.1603568     144.2275  0.054139452  0.057194556            2 
  223000    1.1901414   -5.1198057    144.62446  0.054045015  0.057195047            1 
  224000    1.1816893   -5.1822974    145.08665  0.053975687  0.057197167            3 
  225000     1.204307   -5.1466965    145.76651  0.053987594  0.057197756            2 
  226000    1.2184178   -5.1284194    146.69829  0.054092289  0.057195678            3 
  227000    1.1939815   -5.1777116    146.87876  0.053920251   0.05719763            1 
  228000    1.2181533   -5.2052095    147.25511  0.053821311  0.057196525            2 
  229000    1.2104264   -5.1632645    148.54913   0.05405718  0.057191028            5 
  230000    1.2376987   -5.1518456    149.16446  0.054045093  0.057186445            2 
  231000    1.2288651   -5.1681826    149.54371  0.053947949  0.057183399            2 
  232000    1.2046629   -5.1629512    150.76167  0.054152898  0.057181931            4 
  233000    1.2126659   -5.1495745    150.95563  0.053989854  0.057180012            2 
  234000    1.2188705   -5.1578629     152.1656  0.054190029  0.057181308            3 
  235000     1.216083   -5.1975338    152.17695  0.053963459  0.057181203            4 
  236000    1.2124676   -5.1525844    153.41166  0.054170783  0.057181173            2 
  237000    1.2236783   -5.1506041     154.6287  0.054370147   0.05718383            4 
  238000    1.2214306   -5.1943161    154.85688  0.054221598  0.057184377            3 
  239000    1.2098269   -5.1848658    155.54728  0.054235454  0.057185441            4 
  240000    1.2185336   -5.2140087    155.98947   0.05416301  0.057186321            3 
  241000    1.2115649   -5.1637481    156.99606  0.054286329   0.05718616            1 
  242000    1.2355935   -5.1561921     157.3952  0.054199448  0.057186441            2 
  243000    1.2091812   -5.1513217    158.76124  0.054444871  0.057189167            2 
  244000    1.2139984   -5.1995907    158.62298  0.054174515  0.057189366            2 
  245000    1.1872682   -5.1856663     158.5571  0.053930986  0.057185845            3 
  246000    1.2203244   -5.2088035    159.88877  0.054162861    0.0571822            1 
  247000    1.2042426   -5.1765699    160.89525  0.054283148  0.057178481            2 
  248000    1.2062797   -5.1818461    161.89645  0.054400687  0.057175058            4 
  249000    1.2072398   -5.1404554    162.17725  0.054276189  0.057171922            2 
  250000    1.2069379    -5.154526    162.39054   0.05413018  0.057169745            2 
  251000    1.2142725   -5.1407329    163.88618  0.054411081  0.057168686            4 
  252000    1.2170296   -5.1754358    163.94467  0.054214507  0.057167255            2 
  253000    1.2255512    -5.145796    165.11534  0.054385816   0.05716451            2 
  254000    1.1990208   -5.1699408    164.95524  0.054119173  0.057160656            3 
  255000    1.2214984   -5.1725472    165.92863  0.054225043  0.057157615            3 
  256000    1.1915721   -5.1865972    165.73089  0.053948856   0.05715021            2 
  257000    1.2135768   -5.1447463     166.6245  0.054028697  0.057143293            1 
  258000    1.2285981   -5.1852114    166.79825  0.053875405   0.05713227            3 
  259000     1.223518   -5.1678848    167.70845  0.053960249  0.057120748            7 
  260000    1.2276371   -5.1917591    168.04484  0.053860527  0.057111244            3 
  261000    1.2385142   -5.1940329    168.64728  0.053846512   0.05709923            4 
  262000    1.2090833   -5.1833144    168.82428  0.053697289  0.057086573            2 
  263000    1.2018734   -5.1635777    170.12253  0.053904477  0.057073921            3 
  264000    1.2234786   -5.1681282    171.25363  0.054057332  0.057060809            3 
  265000    1.2358358   -5.1311928    172.18366  0.054145805  0.057048668            4 
  266000    1.1956771   -5.1443864    172.19753  0.053946596  0.057038035            3 
  267000    1.2277677   -5.1876635    172.86937  0.053954235  0.057023877            6 
  268000    1.2190634   -5.2013964    173.56684  0.053969788  0.057011243            1 
  269000    1.2063698   -5.1719799     175.1679   0.05426515  0.057000548            2 
  270000    1.2051508   -5.1866205    174.95875  0.053999615  0.056993497            2 
  271000    1.1780367   -5.1867884    175.91688  0.054094981  0.056986483            4 
  272000     1.220773    -5.182337    177.23806  0.054300877  0.056980655            1 
  273000      1.24201   -5.1907379    176.94398  0.054012204  0.056973776            4 
  274000    1.2479733   -5.1408523    178.91118  0.054413375  0.056966701            2 
  275000    1.2018049   -5.1537561    178.74643  0.054165584   0.05696004            3 
  276000    1.2205799   -5.1602724    179.34914   0.05415131  0.056952145            3 
  277000    1.2147962   -5.1884609    179.85053  0.054106657  0.056943614            2 
  278000    1.2145748   -5.1855824    180.26038  0.054034885  0.056937509            4 
  279000    1.2253021   -5.2009963    181.11529  0.054096561  0.056929925            2 
  280000    1.2124038   -5.2221361    181.58817  0.054044098  0.056924243            3 
  281000    1.2223046   -5.2151708    182.30776  0.054065171  0.056918825            3 
  282000    1.2302997   -5.1918327    183.74328  0.054297658  0.056911627            2 
  283000    1.2330974   -5.1703051    183.83201  0.054131923   0.05690479            4 
  284000     1.223273   -5.1936012     184.0989  0.054019629  0.056897677            6 
  285000     1.205505   -5.1542672    185.63065  0.054277968  0.056890485            2 
  286000     1.186048   -5.1754361    186.43109  0.054321413   0.05688361            2 
  287000    1.1978623   -5.1850544    185.88346  0.053973131  0.056872607            1 
  288000    1.2019642   -5.2176749    186.15572  0.053864503  0.056862135            1 
  289000    1.1838662   -5.2199628    186.22271  0.053697436  0.056851095            3 
  290000    1.2094233   -5.1756043     188.0859  0.054047672  0.056839939            2 
  291000    1.2034397   -5.1697526    187.88449  0.053804264  0.056828742            2 
  292000    1.2061463   -5.1932488    188.35477  0.053754215  0.056814954            2 
  293000    1.1782454   -5.1815758    190.09086  0.054064523  0.056801232            1 
  294000     1.198616   -5.1790597     190.8868  0.054106235  0.056786898            3 
  295000    1.1987373   -5.1578104    190.65805  0.053858207  0.056772942            5 
  296000    1.2036581   -5.2255779    190.38987  0.053600752  0.056756413            3 
  297000    1.2069146   -5.2199027    190.58883  0.053476101  0.056741077            2 
  298000    1.2073523   -5.1821738    192.04859  0.053704864  0.056721538            3 
  299000    1.2104528    -5.177394    192.51184  0.053654358  0.056703077            4 
  300000    1.1922861   -5.1978403    192.89155  0.053580986    0.0566848            1 
  301000    1.2075302   -5.1865984    192.98657  0.053429282  0.056665332            4 
  302000    1.2103825   -5.1804679    194.67895  0.053719357  0.056644749            4 
  303000    1.1892586   -5.1967922    195.65532  0.053810594   0.05662497            3 
  304000    1.1970643   -5.2027749     196.2929   0.05380836  0.056606604            2 
  305000    1.1818926   -5.2220986     196.9862  0.053821366  0.056590745            4 
  306000    1.2125165     -5.19262    197.90126  0.053894679  0.056576061            3 
  307000     1.185405   -5.1784335    198.58353  0.053904325  0.056561299            2 
  308000    1.2001732   -5.2143271    198.20855  0.053627855  0.056546617            2 
  309000    1.2066766   -5.1601136    199.66172  0.053846203  0.056531711            3 
  310000    1.2109169   -5.1736756    200.43688  0.053880882  0.056516553            1 
  311000    1.1973501   -5.1802721    201.48313  0.053987978   0.05650255            2 
  312000    1.1989974   -5.2034004    201.11123  0.053715606  0.056488007            2 
  313000      1.22665   -5.1933332    201.98881  0.053777639  0.056473572            5 
  314000    1.1830531    -5.191173    202.65364  0.053782814  0.056458802            4 
  315000    1.1968593   -5.1999084    203.13093  0.053738342  0.056444512            2 
  316000    1.2136573   -5.1866761    203.81255  0.053748036  0.056427106            2 
  317000    1.2127883   -5.2354554    203.68607  0.053545233  0.056408504            3 
  318000    1.2119652   -5.1835168    203.87311  0.053425868  0.056388901            2 
  319000    1.1798031   -5.1695489    204.69185   0.05347227  0.056370272            1 
  320000    1.1827613   -5.2103729    205.13233  0.053419879  0.056352384            2 
  321000    1.1898698   -5.2105104     205.0322  0.053227466  0.056333264            2 
  322000    1.1882981   -5.1937108     207.2639  0.053639726  0.056315395            4 
  323000    1.1595853   -5.1329724    209.06046  0.053937167  0.056298248            2 
  324000    1.1773533   -5.2286049    207.01308  0.053244105  0.056281047            2 
  325000    1.1889474   -5.1880962    208.13726  0.053368528  0.056262133            2 
  326000      1.21837   -5.1840483    210.08118  0.053701732  0.056247105            5 
  327000    1.1970846   -5.2177974    209.59746  0.053414236  0.056230591            1 
  328000     1.204206   -5.1751016    210.06483   0.05337013  0.056213563            2 
  329000    1.1801536   -5.1773068    210.28519  0.053263726  0.056194821            2 
  330000    1.1822764    -5.169976     211.9446  0.053521363  0.056177005            2 
  331000    1.1877926    -5.179024    212.10725  0.053400615  0.056159447            3 
  332000    1.2109703   -5.2203956    212.68257  0.053384179  0.056142498            1 
  333000    1.1794467   -5.2080894    213.65636  0.053467558  0.056125485            3 
  334000     1.218234    -5.192039     214.4981  0.053517491   0.05610782            3 
  335000    1.2049752    -5.185529    215.27922  0.053552045   0.05608959            3 
  336000    1.1864666   -5.1856712     214.7696  0.053266269  0.056071554            2 
  337000    1.2213908   -5.2002175     215.2094  0.053216964  0.056052549            2 
  338000    1.1941754   -5.1892073    215.79952  0.053205009  0.056032386            3 
  339000    1.1967779   -5.1820294    216.60254  0.053245462  0.056010508            1 
  340000     1.182043   -5.1873227    216.60472  0.053089393  0.055989332            2 
  341000    1.2004259   -5.2446498    216.75966  0.052971569  0.055967354            1 
  342000    1.2224244   -5.2124336    217.80329  0.053070977  0.055943734            1 
  343000     1.189051   -5.1770836    218.81112  0.053161109  0.055921208            3 
  344000     1.221173    -5.240471     218.4813  0.052926672  0.055898821            3 
  345000    1.2306245    -5.186704     219.6236  0.053049179  0.055874873            2 
  346000    1.2081371   -5.1883321    219.56044  0.052880644   0.05585271            3 
  347000    1.1848387    -5.201765    220.07504  0.052851834  0.055830026            2 
  348000    1.1996303   -5.2558734    220.72455  0.052855496   0.05580784            2 
  349000     1.194117   -5.1958672    223.12388  0.053276953   0.05578476            2 
  350000    1.1862285   -5.1778878    223.06434  0.053110558  0.055765308            4 
  351000     1.195374   -5.2070281    223.63264  0.053094168  0.055745503            4 
  352000    1.2063788   -5.1866767    224.01402  0.053033623  0.055724224            2 
  353000    1.1862808   -5.1916233    225.16658  0.053155472  0.055703937            1 
  354000    1.1739467   -5.1894955    225.15481  0.053002544   0.05568363            2 
  355000    1.2050088   -5.2028384    225.54035  0.052943744  0.055662561            2 
  356000    1.2070369   -5.2118697    226.17599  0.052943818  0.055642876            1 
  357000    1.2108173   -5.1988197    227.08456  0.053007599   0.05562245            2 
  358000     1.175199   -5.2116689     227.8578  0.053039525   0.05560337            2 
  359000    1.2108126   -5.1767559    229.13209   0.05318758  0.055584511            2 
  360000    1.1920255   -5.2051543    228.82239  0.052968145  0.055567585            2 
  361000    1.1751902   -5.1963158    229.65642  0.053013946  0.055551138            1 
  362000    1.2016843    -5.201577    230.00552  0.052947864   0.05553365            3 
  363000    1.1944873   -5.1935967    231.52601  0.053151059  0.055515972            6 
  364000    1.1575976     -5.23537    230.67066  0.052809218  0.055497857            4 
  365000    1.1934271   -5.2054037    232.29161  0.053034614  0.055478448            1 
  366000    1.1858817   -5.1871108    232.63438  0.052967755  0.055459602            1 
  367000    1.2022862   -5.2231198    233.53841  0.053028704  0.055440787            4 
  368000    1.2125312    -5.236548    234.17392  0.053028514  0.055422663            2 
  369000    1.1920263   -5.2335827    234.17383  0.052884786  0.055404475            1 
  370000     1.189951    -5.230382    234.76303  0.052874555   0.05538654            4 
  371000    1.1795855   -5.2069344    235.20744   0.05283186   0.05536915            2 
  372000    1.1922788   -5.2307432    236.30818  0.052936421  0.055351834            1 
  373000    1.1724102   -5.2605462     236.4105  0.052817358  0.055332165            5 
  374000    1.2023149   -5.2286538      236.883  0.052781417  0.055312958            5 
  375000    1.1975554    -5.198197    237.75934  0.052835408  0.055294975            6 
  376000    1.1918856   -5.1796469    238.51147  0.052861586  0.055276169            3 
  377000    1.2054854   -5.2118341    239.31334  0.052898616  0.055258555            2 
  378000      1.19917    -5.250823    239.82189  0.052870786  0.055241483            1 
  379000    1.2009645   -5.2313821    240.88552  0.052965154  0.055222772            1 
  380000    1.1873466   -5.2447465    241.06284  0.052864658  0.055204117            4 
  381000    1.1808814   -5.2536602     241.0955   0.05273305  0.055185176            1 
  382000    1.2059758   -5.1770775    243.47692  0.053114512  0.055168491            1 
  383000    1.1798339   -5.2544937    242.67546   0.05280145  0.055151237            4 
  384000    1.2089173   -5.1790746    243.53849  0.052851234  0.055133182            4 
  385000    1.1734077   -5.2392408    243.74551  0.052758769  0.055113799            5 
  386000    1.1876088   -5.1962014    244.43026  0.052769919  0.055093412            3 
  387000     1.178352   -5.2080102    244.95743  0.052747078  0.055073362            4 
  388000    1.2041756   -5.1979018    244.53973   0.05252142   0.05505241            4 
  389000    1.1975547   -5.2312225     246.0851  0.052717458  0.055031021            4 
  390000    1.1761672   -5.2211624    246.60192  0.052692719  0.055012027            3 
  391000    1.1670367   -5.2480604    247.25894  0.052697983   0.05499388            1 
  392000    1.1772358   -5.2258912    247.65473  0.052647689  0.054974817            3 
  393000    1.1758209   -5.2027144    247.61714  0.052505755  0.054955352            1 
  394000    1.1996832   -5.2177521    249.59352  0.052790507  0.054937582            3 
  395000    1.1714746   -5.2433459    249.01477  0.052534761  0.054918944            2 
  396000    1.1710221   -5.2518118     249.8021  0.052567782  0.054899734            2 
  397000    1.1906305   -5.1993365    251.32704  0.052755465   0.05488053            3 
  398000    1.1880489   -5.2145656    251.00037  0.052554516  0.054859624            2 
  399000    1.1727638   -5.2355545    251.27869  0.052480929  0.054838479            5 
  400000    1.1861202   -5.2514122    251.72091  0.052441856   0.05481797            2 
  401000    1.1864064   -5.2092093     252.8519  0.052546115  0.054799849            2 
  402000    1.1830621   -5.2301969    253.15087  0.052477379  0.054781698            1 
  403000    1.1909317   -5.2328723    254.59277   0.05264532  0.054762899            6 
  404000    1.1904199   -5.2346488    255.07694  0.052614881  0.054744511            4 
  405000    1.1886152   -5.2104457    255.86929  0.052648002  0.054725425            1 
  406000    1.2113884    -5.211411    256.72901  0.052694788  0.054708078            3 
  407000    1.1852464   -5.2455595    255.94812  0.052405429  0.054690104            2 
  408000    1.1959122   -5.1790031    257.96913  0.052689773  0.054673643            2 
  409000    1.2006285   -5.2432528     258.1877  0.052605481  0.054658243            2 
  410000    1.2122263   -5.2075069    259.24834  0.052692753  0.054642451            2 
  411000    1.2050459   -5.2301698    259.41242  0.052597815  0.054625767            1 
  412000    1.1763433   -5.2102261    259.16235  0.052419568  0.054609229            1 
  413000    1.1806823   -5.2365995    260.08249  0.052478308  0.054591731            3 
  414000     1.172034   -5.2250449     260.9738  0.052530957  0.054575136            3 
  415000     1.186838   -5.2250933    261.58544  0.052527196  0.054560033            8 
  416000    1.1684532   -5.1806224    264.31929  0.052948577  0.054544637            2 
  417000    1.2019588   -5.2237489     263.3366   0.05262522  0.054529024            7 
  418000    1.1727283   -5.2400566    263.58702  0.052549247  0.054512309            2 
  419000    1.2109332   -5.2004791    263.33242  0.052373194  0.054497844            5 
  420000    1.1762165   -5.2648396    263.92774  0.052366615   0.05448183            4 
  421000    1.1701468   -5.2363665    265.17081  0.052488284  0.054465792            2 
  422000    1.1865633    -5.238933    266.55577  0.052637396  0.054450055            3 
  423000    1.1785531   -5.2058416    267.59946   0.05271857  0.054435863            3 
  424000    1.1812806   -5.2589285    266.38132   0.05235482   0.05442078            4 
  425000    1.1685875   -5.2136674    269.02122  0.052749259  0.054406163            2 
  426000    1.1929424   -5.2063937    268.65876  0.052554531  0.054391297            2 
  427000    1.1722399   -5.2382954    268.45319  0.052391334  0.054376389            5 
  428000    1.1949132   -5.2235756    269.99925  0.052569947   0.05436087            2 
  429000    1.1827371   -5.2209082    270.64006  0.052571884  0.054346298            2 
  430000    1.1727477   -5.2462675    270.91162  0.052502252  0.054332358            5 
  431000    1.1791441   -5.2509908    270.29499  0.052261212  0.054318627            2 
  432000    1.1952067   -5.2705551     272.5919  0.052583314  0.054305171            4 
  433000    1.1844906    -5.230418    273.51761  0.052640033  0.054291379            4 
  434000    1.1881904   -5.2294713    272.70231  0.052362194  0.054276599            1 
  435000    1.1989487   -5.2139488    274.50816   0.05258777  0.054263121            3 
  436000    1.1726746   -5.2146954    275.51113  0.052658856  0.054247865            2 
  437000    1.1749753   -5.2703762    273.60951  0.052175726  0.054233222            2 
  438000    1.1752911   -5.2326974    275.81801   0.05247679  0.054220298            4 
  439000    1.1927941   -5.2308451    275.84003  0.052361434  0.054205242            5 
  440000    1.2064041   -5.2240174    276.67252  0.052400098  0.054191476            4 
  441000    1.1731565   -5.2383463    276.55106  0.052258326   0.05417664            2 
  442000    1.1736098    -5.239832    277.53049  0.052324753  0.054161811            3 
  443000    1.1820067   -5.2355463    278.28368  0.052348322   0.05414797            1 
  444000     1.183328   -5.2409154    279.90152  0.052534069  0.054134384            2 
  445000     1.197306    -5.275454     278.9796   0.05224337  0.054119342            2 
  446000    1.1438494   -5.2424633    280.79454  0.052465347  0.054105199            5 
  447000    1.1975863   -5.2366758    280.37957  0.052270613   0.05409001            1 
  448000    1.1465103    -5.185283    282.15565   0.05248431  0.054074868            2 
  449000    1.1869105   -5.2367153    280.89469  0.052133387  0.054058217            3 
  450000    1.1996368   -5.2447981    281.65457  0.052158254  0.054041002            3 
  451000    1.1959613   -5.2255686    283.14156  0.052317362  0.054025815            4 
  452000    1.1735158   -5.2037686    283.83614  0.052329671  0.054010675            5 
  453000    1.1803337   -5.2256138     285.8032  0.052576011  0.053997069            4 
  454000    1.1793991   -5.2146005    286.68147  0.052621416  0.053983757            2 
  455000    1.1761363   -5.2606741     286.8665  0.052539651   0.05397153            2 
  456000    1.1840947   -5.2477853    286.05133  0.052275463  0.053958081            3 
  457000    1.2012031   -5.2679307    286.44123  0.052232171  0.053946254            2 
  458000    1.1696255   -5.2733465    286.52935  0.052134162  0.053933594            2 
  459000    1.1734905   -5.2194619    289.19712  0.052504924   0.05391972            1 
  460000     1.164356   -5.2226071    289.75173  0.052491255  0.053907901            4 
  461000    1.1828797   -5.2263274    290.83764  0.052573687  0.053896994            5 
  462000    1.1723234   -5.2578121    289.78706  0.052270393  0.053886057            5 
  463000    1.1930982   -5.2902067    290.45076  0.052276954    0.0538761            2 
  464000    1.1851527   -5.2360479    292.39118  0.052512785  0.053865844            9 
  465000    1.1701144   -5.2196251    292.72173  0.052459091  0.053856048            2 
  466000    1.1842285   -5.2394367    293.38031   0.05246429  0.053845105            3 
  467000    1.1604427   -5.2476602    294.56478  0.052563308  0.053833674            3 
  468000    1.1694882   -5.2673773    294.08837  0.052366163  0.053823528            4 
  469000    1.1933143   -5.2486479    294.16656    0.0522684    0.0538138            3 
  470000    1.1523536   -5.2633782     296.6913  0.052604841  0.053804433            2 
  471000     1.177036   -5.2237841    296.54911  0.052467996  0.053794557            7 
  472000    1.1890068   -5.2225111    297.92018  0.052598902  0.053785509           11 
  473000    1.1677196   -5.2231516    299.02737  0.052682764  0.053777358            2 
  474000    1.2049581   -5.2212724    299.01195  0.052568908  0.053769738            2 
  475000    1.1809881   -5.2561387    298.36541  0.052344809  0.053760484            2 
  476000    1.1661254   -5.2651812    298.31645  0.052226269  0.053751055            2 
  477000    1.1726866    -5.246092    300.37694  0.052476755  0.053741136            3 
  478000    1.1959748   -5.2400066    301.81304  0.052617336  0.053731511            2 
  479000    1.1669473   -5.2328225    301.69901   0.05248765  0.053720681            2 
  480000     1.190727   -5.2554128    301.57197  0.052356245  0.053709974            2 
  481000    1.1863802   -5.2676993    301.99364   0.05232045  0.053698299            2 
  482000    1.1528149   -5.2733683    302.44138  0.052289313  0.053686774            2 
  483000    1.1630511   -5.2577475    301.73035  0.052058376  0.053675071            2 
  484000     1.187758   -5.2356259    304.20279  0.052376514  0.053663808            3 
  485000    1.1744527   -5.2628463    303.75455  0.052191503  0.053650962            1 
  486000    1.1641563   -5.1919348    304.87265  0.052275831  0.053638145            3 
  487000    1.1969174   -5.2561954    304.35564  0.052080021  0.053625191            1 
  488000    1.1655691   -5.2617972    303.07793   0.05175511  0.053612482            2 
  489000    1.1732584   -5.2673619    305.68101  0.052092878  0.053599155            1 
  490000    1.1912881   -5.2589201     306.1609   0.05206818  0.053585527            2 
  491000    1.1833037   -5.2800035    305.73306  0.051889521  0.053571692            4 
  492000    1.1701887   -5.2226106    306.91118    0.0519836  0.053557779            3 
  493000    1.1583058   -5.2317701    307.97891  0.052058639  0.053543782            5 
  494000    1.1761444    -5.253514    308.53133  0.052046445   0.05352952            2 
  495000    1.1804795   -5.2535477    310.17493  0.052218002  0.053516083            4 
  496000    1.1700692   -5.2188803     310.4877  0.052165272  0.053502818            2 
  497000    1.1789822   -5.2259898    309.98133  0.051975408  0.053489658            5 
  498000     1.170136   -5.2328578    311.12334  0.052062139  0.053476153            2 
  499000    1.1669808   -5.2371282    311.40758  0.052005274  0.053462689            3 
  500000    1.1918882   -5.2476262    311.00522  0.051834204  0.053447944            2 
  501000    1.1678145    -5.236999     312.5883  0.051994062  0.053431947            3 
  502000    1.1641536   -5.2084642    312.15206  0.051818071  0.053416775            2 
  503000    1.1761547   -5.2575474    312.58409  0.051786628  0.053401309            3 
  504000    1.1731066   -5.2300655    313.53525  0.051841146  0.053386166            3 
  505000    1.1769455   -5.2431699    314.02314     0.051819  0.053370676            3 
  506000    1.1750269   -5.2384696    314.26231   0.05175598  0.053354797            4 
  507000    1.1653872   -5.2380297    315.20267  0.051808459  0.053340192            3 
  508000    1.1817455   -5.2554555     313.4467  0.051418423  0.053324324            4 
  509000    1.1472679   -5.2525716    315.43272  0.051642554  0.053307701            2 
  510000    1.1793865   -5.2742866    315.53239  0.051557581  0.053290632            2 
  511000     1.178856    -5.245184     316.4794  0.051611123  0.053274103            2 
  512000    1.1499807   -5.2368959    317.92281  0.051745249   0.05325966            4 
  513000    1.1807739   -5.2501815    317.35734  0.051552524  0.053244718            1 
  514000    1.1659009   -5.2611074    317.63358  0.051497013  0.053229268            4 
  515000    1.1421654   -5.2207927    321.08418  0.051955369  0.053214674            2 
  516000    1.1596277   -5.2405547    320.27266  0.051723621  0.053200249            4 
  517000    1.1952534   -5.2646919    320.35559  0.051636942  0.053184568            3 
  518000    1.1610998   -5.2685776    320.46641  0.051555085  0.053169059            2 
  519000    1.1809599   -5.2973963    320.48158  0.051458186  0.053152617            3 
  520000    1.1624856   -5.2675647    320.98035  0.051439158  0.053135219            2 
  521000    1.1802838   -5.2805469    321.05404  0.051352213  0.053119314            2 
  522000    1.1946902   -5.2222123    323.63299  0.051665548  0.053103535            1 
  523000    1.1802773   -5.2367616    323.61369  0.051563685  0.053087443            2 
  524000    1.1634181   -5.2271866    324.00886  0.051528127  0.053071321            3 
  525000    1.1611285    -5.249058    324.68642  0.051537528  0.053055302            2 
  526000    1.2013229    -5.242612    324.87529   0.05146947   0.05303901            3 
  527000    1.1519159   -5.2510286     326.0135  0.051551787  0.053022912            2 
  528000    1.1758396   -5.2124403    325.75087  0.051412701  0.053005937            1 
  529000    1.1816104   -5.2680307    325.28965  0.051242855  0.052987718            1 
  530000    1.1674415   -5.2455046    325.85361  0.051234845  0.052970227            4 
  531000    1.1784458   -5.2718943    326.94793  0.051310095  0.052953731            3 
  532000    1.1679214    -5.235316     328.2304  0.051414537   0.05293713            2 
  533000    1.1598431    -5.251776    329.79311    0.0515624  0.052921217            3 
  534000    1.1720349   -5.2333039    329.50614  0.051421058  0.052905598            2 
  535000    1.1359237   -5.3023385    328.66652  0.051194162  0.052889805            6 
  536000    1.1759557   -5.2692737    330.45398  0.051376552  0.052874171            4 
  537000    1.1588711   -5.2288568    331.47802  0.051439791  0.052858417            2 
  538000    1.1669198   -5.2449836    331.34432  0.051323469  0.052843385            5 
  539000    1.1401161    -5.265662    331.28984  0.051219827   0.05282671            1 
  540000    1.1727753   -5.2482156    331.45475  0.051150425  0.052810317            3 
  541000    1.1849855   -5.2682065    332.75199  0.051255698  0.052793546            2 
  542000    1.1451195   -5.2844602    333.65411  0.051299832  0.052777233            4 
  543000    1.1579706   -5.3217227    331.86902  0.050931403  0.052760338            3 
  544000    1.1804643   -5.2691225    333.42449  0.051076055  0.052743708            4 
  545000    1.1642637   -5.2547218    334.14996  0.051093266  0.052727977            4 
  546000     1.169305    -5.263863    335.49609  0.051205141  0.052711257            2 
  547000     1.176062   -5.2613205    336.56859  0.051274922  0.052695944            3 
  548000    1.1730956   -5.2491209    338.05914   0.05140802  0.052681185            2 
  549000    1.1777328   -5.2774463    336.41852  0.051065349  0.052665341            2 
  550000    1.1678731   -5.2492835    338.64832  0.051310352  0.052649811            3 
  551000    1.1560405   -5.2608998    339.52982  0.051350547  0.052634236            2 
  552000    1.1551903   -5.3336133    337.71276  0.050983207  0.052617613            4 
  553000    1.1782335   -5.2834648     338.5871   0.05102277  0.052601456            3 
  554000    1.1320931    -5.276048    339.49425  0.051067126   0.05258417            3 
  555000    1.1451542   -5.2727185    340.42125  0.051114302  0.052567701            4 
  556000    1.1773328   -5.2791091    340.88105  0.051091285  0.052552242            2 
  557000    1.1641023   -5.2912073    341.26761  0.051057393  0.052537245            2 
  558000    1.1408069   -5.2879254    341.17198   0.05095161  0.052522578            3 
  559000    1.1807044    -5.283182     342.5654  0.051068187  0.052507222            4 
  560000    1.1532363   -5.2673606     344.1788  0.051217083  0.052492757            3 
  561000    1.1769332   -5.2785092    343.25655  0.050988793  0.052477757            3 
  562000    1.1443407   -5.2965983    343.59753  0.050948626  0.052462193            2 
  563000    1.1806715   -5.2732476    344.49796  0.050991409  0.052447179            3 
  564000    1.1652651   -5.2517172    345.17264  0.051000685  0.052431573            2 
  565000    1.1249336   -5.2509815     346.7086  0.051136961  0.052416276            1 
  566000    1.1528182    -5.301761     345.1819  0.050821834  0.052400541            3 
  567000    1.1614929   -5.2552987    347.71392  0.051104339  0.052384899            3 
  568000    1.1668048   -5.3053056    347.43908  0.050974044   0.05236944            2 
  569000    1.1630673   -5.2673771    349.64588  0.051207657  0.052354876            2 
  570000    1.2035801   -5.2640921    348.31344  0.050923017  0.052340866            3 
  571000    1.1520541   -5.2448768    349.55953  0.051015693  0.052325618            2 
  572000    1.1887622   -5.2529621    348.51869  0.050774867  0.052311185            1 
  573000    1.1800861   -5.2767667    351.13272  0.051066423   0.05229616            6 
  574000    1.1317582   -5.2881282    350.92699  0.050947589  0.052281282            2 
  575000    1.1714654   -5.2774798      351.264  0.050907826  0.052266352            5 
  576000     1.186767   -5.2491247     353.8921  0.051199667  0.052252508            4 
  577000    1.1743117   -5.2749641    352.18369  0.050864195  0.052238307            3 
  578000     1.151243   -5.2980543    353.59136  0.050979147  0.052223675            3 
  579000    1.1897557   -5.2852983    352.43103  0.050724097  0.052209279            2 
  580000    1.1471872   -5.2723622    353.67987  0.050816073     0.052194            2 
  581000     1.160511   -5.2962042    355.08337  0.050929916  0.052179909            2 
  582000    1.1476307   -5.2942091    354.93316  0.050820899  0.052165715            4 
  583000    1.1587035   -5.2797842    355.77251  0.050853703  0.052150296            2 
  584000    1.1544203   -5.3126183    355.12695  0.050674507  0.052136446            3 
  585000    1.1476202   -5.3063418    355.96029  0.050706594  0.052122087            2 
  586000    1.1922726   -5.2717994    357.15398  0.050789815  0.052108413            2 
  587000    1.1752736   -5.2820893    358.97248  0.050961454  0.052094718            3 
  588000    1.1614134   -5.2743158    359.69401  0.050977042   0.05208183            3 
  589000    1.1558535   -5.2631272    360.30045  0.050976294  0.052069221            2 
  590000    1.1533023   -5.2739952    359.52126  0.050779839  0.052056092            2 
  591000    1.1536863   -5.3065155    360.81847  0.050876829  0.052042247            2 
  592000    1.1502663   -5.2716153    361.06798   0.05082601  0.052029109            1 
  593000    1.1619611   -5.2489851    362.52069  0.050944447  0.052015782            5 
  594000    1.1608171   -5.3024989    361.99657  0.050785153  0.052002152            3 
  595000    1.1387689   -5.3050153    362.71583  0.050800537  0.051988593            6 
  596000     1.173993   -5.2629901    364.58575  0.050976755  0.051975574            2 
  597000    1.1606506   -5.2636932    364.84361   0.05092736  0.051962259            3 
  598000    1.1729024   -5.2948001    364.44809  0.050787081  0.051948664            3 
  599000    1.1349943    -5.265389     364.7022  0.050737647   0.05193489            2 
  600000     1.184875   -5.2543852    366.52082  0.050905669  0.051921284            1 
  601000     1.184759   -5.2600059    365.98723  0.050746981  0.051906696            4 
  602000    1.1806028   -5.2801873    365.75367  0.050630353  0.051893288            4 
  603000    1.1434772    -5.295546    366.56535  0.050658562  0.051880026            1 
  604000    1.1653023   -5.2899573    368.93334  0.050901398  0.051867529            3 
  605000    1.1613712   -5.2589183    369.29588    0.0508672  0.051854699            3 
  606000    1.1659339   -5.2582828    369.31305  0.050785623  0.051841099            3 
  607000    1.1578132   -5.3158919    370.15761  0.050817904  0.051827532            2 
  608000    1.1371229     -5.28776    369.85507  0.050692855   0.05181418            2 
  609000    1.1689834   -5.3040445    370.51092  0.050699359  0.051801569            2 
  610000    1.1734854   -5.2448616    372.73157  0.050919613  0.051789431            2 
  611000    1.1762327   -5.2596885    372.13439  0.050754827    0.0517777            3 
  612000    1.1328371   -5.2788473    372.95949  0.050784245  0.051765309            6 
  613000    1.1405856   -5.2954022    373.82674  0.050819296  0.051752659            7 
  614000    1.1640088   -5.2727928    374.30459  0.050801383  0.051740521            2 
  615000    1.1569266   -5.2983423    372.91078  0.050529915  0.051727205            2 
  616000    1.1587915   -5.2870843    375.67228  0.050821466   0.05171453            2 
  617000    1.1397028   -5.2915235    374.51666  0.050583018  0.051701999            4 
  618000    1.1359052    -5.284549    376.09372  0.050713824  0.051689983            4 
  619000    1.1626048   -5.3051948    377.85564  0.050869095  0.051678054            2 
  620000    1.1236747   -5.2875899    377.38909  0.050724339  0.051666593            2 
  621000    1.1709871   -5.2849887    378.23081   0.05075561  0.051655199            2 
  622000     1.148172   -5.3130917    378.85534  0.050757683  0.051644067            2 
  623000    1.1400239   -5.2563841     379.1569  0.050716547  0.051632998            8 
  624000    1.1481117   -5.2959049     379.6911   0.05070661  0.051622259            2 
  625000    1.1383348   -5.3051534    382.60349  0.051013798  0.051611611            1 
  626000    1.1405809   -5.2864786    380.81281  0.050693931   0.05160068            4 
  627000    1.1740798    -5.294511    380.29952  0.050544859  0.051589265            3 
  628000    1.1749216   -5.2919328    381.60102  0.050637078  0.051578226            8 
  629000    1.1623403   -5.2530027    382.51999  0.050678325  0.051567853            1 
  630000    1.1429206   -5.2772511    383.47001  0.050723546  0.051556973            4 
  631000     1.148282   -5.3240117     382.2554  0.050482752  0.051545233            5 
  632000    1.1292822   -5.3418281    382.13979  0.050387631  0.051534487            5 
  633000     1.147919   -5.2828688     383.6895  0.050512046  0.051522035            2 
  634000    1.1562836   -5.3259474    385.46183   0.05066533   0.05151047            4 
  635000     1.147382   -5.2785351     386.2782  0.050692678  0.051498686            3 
  636000     1.145467   -5.3290319    385.84021  0.050555583  0.051486275            5 
  637000    1.1312527   -5.3208871    385.47736  0.050428749  0.051474079            6 
  638000    1.1572548   -5.2528414    387.62456  0.050630166  0.051462284            4 
  639000    1.1507218   -5.2896819    386.86624   0.05045204  0.051452031            4 
  640000    1.1561337   -5.3028023    388.57457  0.050595648  0.051440264            1 
  641000    1.1408278    -5.256493    391.04347  0.050837684  0.051429581            2 
  642000    1.1223993   -5.2621896     391.2579  0.050786332  0.051420489            3 
  643000    1.1575577   -5.2751003    391.52182  0.050741553  0.051410184            2 
  644000    1.1526548   -5.3136377    392.10351  0.050738032  0.051400031            1 
  645000    1.1540576   -5.2794525    391.98155  0.050643611  0.051390101            2 
  646000    1.1626686   -5.2827086    392.55981   0.05063981  0.051380277            2 
  647000    1.1355893   -5.3281497    393.49775  0.050682348  0.051370759            3 
  648000    1.1651757   -5.3067631    393.02441  0.050543263  0.051361359            2 
  649000    1.1591018   -5.3054127     395.0512  0.050725629  0.051351721            3 
  650000    1.1472426   -5.3268167    393.62175  0.050464327  0.051341843            5 
  651000    1.1497494   -5.3022419    394.43176  0.050490497  0.051332486            3 
  652000    1.1355079    -5.279591    395.50358  0.050550048  0.051322527            2 
  653000    1.1508513   -5.2962343    396.65004  0.050618944  0.051312881            2 
  654000    1.1562011   -5.2980673    397.84327  0.050693586   0.05130246            3 
  655000    1.1448726   -5.2969223    397.04762  0.050514965  0.051293094            2 
  656000    1.1622912   -5.2770697    398.34391   0.05060263  0.051283899            4 
  657000    1.1337165   -5.3303818    399.10589  0.050622259  0.051274632            1 
  658000    1.1705274   -5.2990611    399.04595  0.050537734  0.051265181            3 
  659000    1.1339645    -5.341561    399.34304  0.050498614  0.051255981            3 
  660000    1.1604421    -5.296811    399.48812  0.050440419  0.051246762            2 
  661000    1.1402914    -5.285823    401.59846  0.050630164     0.051237            6 
  662000    1.1376151   -5.3194442    400.05389  0.050359251  0.051227631            2 
  663000    1.1542126   -5.3013296    401.24417  0.050432902  0.051217422            3 
  664000    1.1286286   -5.3113431    402.59944  0.050527038  0.051207661            5 
  665000    1.1361102   -5.3104965    404.09487  0.050638455  0.051196902            3 
  666000    1.1576682   -5.2940965    403.23303  0.050454583  0.051187635            3 
  667000    1.1411663   -5.3060026    404.00518  0.050475409  0.051177684            4 
  668000    1.1344502   -5.2925868    406.61422  0.050725327  0.051169135            3 
  669000    1.1629583   -5.3202846    405.86314  0.050555946  0.051159244            2 
  670000    1.1508676   -5.2785401    406.05204  0.050503985  0.051149562            3 
  671000    1.1624455    -5.289726    406.25182   0.05045353  0.051140502            3 
  672000    1.1618079   -5.3216186    407.56171  0.050540886  0.051131334            2 
  673000    1.1656186   -5.3162086    407.30424  0.050433908  0.051121252            2 
  674000    1.1449245   -5.3381651    407.29119  0.050357467  0.051111676            2 
  675000    1.1359354   -5.3092881    408.68219  0.050454591  0.051102083            3 
  676000    1.1366525   -5.3178226     410.3473   0.05058522  0.051093048            4 
  677000    1.1556789   -5.2953988    409.47406  0.050403011  0.051083439            2 
  678000    1.1310473   -5.3082317    409.52659  0.050335127  0.051073943            2 
  679000    1.1457611   -5.2663001    411.49966  0.050503149  0.051064696            4 
  680000    1.1376721   -5.3308909    411.75189  0.050459791  0.051054516           10 
  681000    1.1121466   -5.2810478    411.90984  0.050405022  0.051045007            5 
  682000     1.155991   -5.3160411    411.94747  0.050335712   0.05103516            2 
  683000    1.1474635   -5.2846224    412.68795  0.050352361  0.051025334            2 
  684000    1.1437873   -5.3259642    412.79355  0.050291612  0.051016325            6 
  685000    1.1516529   -5.2867123    413.72871   0.05033196  0.051006644            5 
  686000    1.1259798   -5.3016335    413.76238   0.05026268  0.050996609            3 
  687000    1.1495434   -5.3159755    413.27944  0.050130937  0.050986945            3 
  688000    1.1150814   -5.3118451    414.06438  0.050153147  0.050976979            3 
  689000    1.1064146   -5.3363758     415.7223  0.050280878  0.050966395            2 
  690000     1.170353   -5.3048857    415.94904  0.050235392  0.050956704            2 
  691000    1.1236563   -5.3898394    415.33407  0.050088528  0.050946617            4 
  692000     1.144018   -5.3198559    418.43591  0.050389681  0.050936251            4 
  693000    1.1492877   -5.3058035    418.27205  0.050297265  0.050926004            3 
  694000    1.1495961   -5.2878455    417.41132  0.050121436  0.050915802            4 
  695000    1.1364698   -5.3106796    417.28035  0.050033616  0.050905146            2 
  696000    1.1687364   -5.3147967    418.69766  0.050131424  0.050894753            5 
  697000    1.1624681   -5.3396342     419.3833  0.050141475  0.050883976            2 
  698000    1.1429019   -5.3235791    419.65976  0.050102645  0.050873075            2 
  699000    1.1688918   -5.3083841    419.64957  0.050029753   0.05086251            3 
  700000    1.1424269   -5.3044211    420.16798  0.050019997  0.050851354            2 
  701000    1.1340304    -5.307272    420.47973  0.049985702  0.050840657            2 
  702000    1.1358824   -5.3205883    421.85558  0.050077823   0.05082978            3 
  703000     1.143305   -5.3071133    423.63352  0.050217345  0.050819429            2 
  704000    1.1415038   -5.2987025    422.48603  0.050010183  0.050808243            4 
  705000    1.1183001   -5.3137055    422.40609  0.049929798  0.050797166            3 
  706000    1.1402428   -5.2758087    425.68339  0.050245915  0.050786656            4 
  707000    1.1328236   -5.3025858     426.6611  0.050290087  0.050776579            3 
  708000    1.1278994   -5.3361142    424.78409  0.049998127  0.050765877            2 
  709000    1.1286727   -5.3137023     426.3086  0.050106793  0.050755845            2 
  710000    1.1496527   -5.3056087    427.68687  0.050197989  0.050746107            5 
  711000    1.1405227   -5.3423755    427.40181  0.050093976  0.050736227            3 
  712000    1.1491964   -5.3629915    426.39329  0.049905581  0.050726087            3 
  713000    1.1566004   -5.3460747    427.08939  0.049916946  0.050716435            8 
  714000      1.13588   -5.3291553    427.72162  0.049920824  0.050706733            2 
  715000     1.132729   -5.3021303    429.62793  0.050073185  0.050697008            3 
  716000    1.1086021   -5.3154534    430.04331  0.050051596  0.050687887            2 
  717000    1.1320336   -5.3366467     431.4954  0.050150558  0.050678974            1 
  718000    1.1505173   -5.3125968    430.98865  0.050021895  0.050669554            2 
  719000    1.1127155   -5.2870686    431.22819  0.049980087  0.050659684            3 
  720000    1.1292678   -5.3005518    431.56111  0.049949203   0.05065042            3 
  721000    1.1250488   -5.3579452    431.90104  0.049919214  0.050640934            3 
  722000    1.1304478   -5.3481437    433.28975  0.050010359  0.050631157            3 
  723000     1.110382   -5.3051032    434.46776  0.050076966   0.05062129            3 
  724000    1.1499831   -5.3273672    433.62834  0.049911181  0.050612003            4 
  725000    1.1320453   -5.3428541    434.94167  0.049993295  0.050602749            4 
  726000    1.1294042   -5.3067945    436.61062  0.050116003  0.050593567            2 
  727000    1.1465963   -5.3014152    437.22046  0.050116972  0.050584595            2 
  728000    1.1221685   -5.3243762    437.26622  0.050053368  0.050575084            3 
  729000    1.1063161   -5.3511237    436.64757  0.049913988  0.050565513            2 
  730000    1.1166893   -5.3155122    436.59711  0.049839852  0.050555638            3 
  731000    1.1456148   -5.2919446    438.21212  0.049955782  0.050546028            3 
  732000    1.1195425   -5.3270139    438.30387  0.049897982  0.050536217            2 
  733000    1.1360186    -5.324061    438.79127  0.049885319  0.050526109            3 
  734000    1.1472699   -5.3263673    439.68435   0.04991875  0.050516647            5 
  735000    1.1428303   -5.3334289    439.78997  0.049862808   0.05050722            1 
  736000    1.1359904   -5.3262862    440.20424  0.049841966  0.050497721            5 
  737000    1.1338628    -5.321626     443.0679  0.050098134  0.050488578            3 
  738000    1.1379494   -5.2589432    443.90011  0.050124222  0.050479465            3 
  739000    1.1362229    -5.323547    442.71949  0.049923263  0.050470366            1 
  740000    1.1385991     -5.32239    443.90055    0.0499888   0.05046128            3 
  741000    1.1430023   -5.3339355    444.43019  0.049980904  0.050452358            1 
  742000    1.1175592   -5.2825243    445.95669  0.050084983  0.050443719            4 
  743000    1.1200824   -5.3039733    446.42875   0.05007052  0.050434552            2 
  744000    1.1389279   -5.3481658     444.6401  0.049802878  0.050425305            3 
  745000    1.1573886   -5.3499972    443.43564  0.049601302  0.050415988            3 
  746000    1.1154067   -5.2861866    446.26642  0.049851029    0.0504066            2 
  747000     1.125625   -5.3246526    446.22063  0.049779186  0.050397172            1 
  748000    1.1058895   -5.2752775     448.6539  0.049983723  0.050386684            2 
  749000    1.1624693   -5.3652694    446.59294  0.049687688  0.050376263            3 
  750000    1.1356495   -5.3600983    446.86019  0.049651132   0.05036571            3 
  751000    1.1330567   -5.3128502     449.4632  0.049873857  0.050355471            4 
  752000    1.1660526    -5.358386    449.16551  0.049774546  0.050345491            2 
  753000    1.1542219   -5.3640521    448.08256  0.049588597  0.050335568            4 
  754000    1.1114833   -5.3199266    449.87608  0.049721052  0.050325199            3 
  755000    1.1497242   -5.2924897    451.24038  0.049805782  0.050315967            2 
  756000    1.1191719   -5.3624465    451.51919  0.049770634  0.050306832            2 
  757000    1.1145959   -5.3224628    452.30197  0.049791058  0.050297122            2 
  758000    1.0948385   -5.3408052    453.76882  0.049886634  0.050287491            3 
  759000    1.1298611   -5.3791346    450.30087  0.049440148  0.050278063            2 
  760000    1.1140374   -5.3481952    451.98647   0.04955992   0.05026836            3 
  761000    1.1170517   -5.2840138    454.19928  0.049737109  0.050258718            2 
  762000    1.1411505   -5.3555298    454.71188  0.049727896  0.050249466            2 
  763000    1.1155715   -5.2968563    455.59826  0.049759531  0.050239973            1 
  764000    1.1105437    -5.359325    454.90283  0.049618546  0.050230206            4 
  765000    1.1228104    -5.312097    457.02545  0.049784907  0.050220989            2 
  766000    1.1283887   -5.3184817    457.61232  0.049783759  0.050211525            2 
  767000    1.1165086    -5.353059    456.81192   0.04963189  0.050202195            3 
  768000    1.1543267   -5.3440675    459.14567  0.049820494   0.05019239            5 
  769000    1.1296085   -5.3911422    458.29953  0.049664015  0.050183104            2 
  770000    1.1057774   -5.3115563    458.48992  0.049620121  0.050173706            2 
  771000    1.1185974   -5.3613413    459.21962  0.049634632  0.050164956            2 
  772000    1.1170649   -5.3662263    459.02521  0.049549353  0.050156106            3 
  773000    1.1527513     -5.34172    461.68633  0.049772135  0.050146828            4 
  774000    1.1273512   -5.3493745    461.71599  0.049711023  0.050138479            2 
  775000    1.1317568   -5.3642966      461.747  0.049650215  0.050129087            2 
  776000    1.1292382   -5.3679359    462.48722  0.049665724  0.050119882            2 
  777000    1.1377205   -5.3366959    462.40648  0.049593145  0.050110474            2 
  778000    1.1282502    -5.336805    463.15666  0.049609754  0.050100643            4 
  779000     1.116964   -5.3660106    462.44831  0.049470294  0.050090969            5 
  780000    1.1309627   -5.2797773    465.74777  0.049759377   0.05008193            2 
  781000    1.1299273    -5.364713    463.07742  0.049410736  0.050072407            1 
  782000     1.117617   -5.3122538    465.35357  0.049590108  0.050062869            3 
  783000    1.1214115   -5.3451658    465.81716  0.049576113   0.05005309            2 
  784000    1.1342748   -5.3584547    465.10354  0.049437026  0.050043252            4 
  785000    1.1346018   -5.3250727    466.83744  0.049558115  0.050033445            3 
  786000    1.1555118   -5.3849795    464.59309  0.049257113  0.050023865            4 
  787000    1.1402564   -5.3233401    466.87306  0.049435944   0.05001407            2 
  788000     1.109371   -5.3100264     469.8518  0.049688219  0.050004242            3 
  789000    1.1169482   -5.3340799    467.39484  0.049365741  0.049994856            3 
  790000    1.1355408   -5.3296415    467.24929  0.049287899  0.049984683            5 
  791000    1.1350562   -5.3067243    468.47947  0.049355191   0.04997428            2 
  792000     1.132387   -5.3691292    468.29677   0.04927365  0.049963869            2 
  793000     1.152875   -5.3295262    466.90494  0.049065252  0.049953512            2 
  794000    1.1167436   -5.3542729    469.88205  0.049315916  0.049943081            3 
  795000    1.1321857   -5.3346351    469.75522  0.049240589  0.049932946            2 
  796000    1.1004429   -5.3537401    470.22025  0.049227413  0.049921957            5 
  797000    1.1285759   -5.3535609      470.673  0.049212986  0.049911448            2 
  798000    1.1402804   -5.3699201    471.62511  0.049250743  0.049900467            2 
  799000    1.1384953   -5.3642301    470.41803  0.049063207   0.04988953            2 
  800000    1.1263964   -5.3165873     473.7192   0.04934575  0.049877996            2 
  801000    1.1195391   -5.3621227    471.18475  0.049020469   0.04986695            4 
  802000    1.1262526   -5.3478001    473.90177  0.049241664  0.049856184            2 
  803000     1.126961   -5.3432265    473.97146  0.049187574  0.049845676            4 
  804000    1.1428768   -5.3596255    473.94513  0.049123666  0.049834836            4 
  805000    1.1239179   -5.3450168      474.194  0.049088406  0.049823835            2 
  806000    1.1175904   -5.3327958    474.58916  0.049068358  0.049813833            1 
  807000    1.1137923   -5.3684641    476.02649  0.049155978  0.049803743            1 
  808000    1.1226055   -5.3489407    477.25521  0.049221866  0.049792881            2 
  809000    1.1137491   -5.3252183    479.62501  0.049405131  0.049782621            5 
  810000    1.1425037   -5.3456356     478.7371  0.049252789  0.049772687            2 
  811000    1.1303069   -5.3529721    478.06959  0.049123468  0.049762812            3 
  812000     1.110685    -5.388033    479.08995  0.049167688  0.049752877            2 
  813000    1.1355602   -5.3937687    478.39526  0.049036004  0.049743564            4 
  814000    1.0931214   -5.3688242    480.36195  0.049177104  0.049733603            1 
  815000    1.1460164    -5.388538    477.76321  0.048851043  0.049723981            2 
  816000     1.106001   -5.3686246    480.72667  0.049093819  0.049713455            3 
  817000    1.1168317   -5.3396293    482.12946  0.049176811  0.049703223            2 
  818000    1.1390467    -5.356506    481.09271  0.049011074  0.049693146            5 
  819000    1.0998609   -5.3581808    481.33027  0.048975404  0.049682402            2 
  820000    1.0987452   -5.3117724    482.74791  0.049059747  0.049672007            1 
  821000    1.1024735   -5.3415697    481.84281  0.048908122  0.049660885            4 
  822000    1.1104734    -5.408729    479.07447  0.048567971  0.049649037            4 
  823000    1.1253901   -5.3993655    480.37744  0.048640891  0.049636796            4 
  824000    1.1096212   -5.3445255    482.92353  0.048839354  0.049624784            2 
  825000    1.0899301   -5.3788306    483.23778  0.048811897  0.049613075            3 
  826000    1.1305916   -5.3893194    482.52148  0.048680537  0.049600906            2 
  827000    1.1079185   -5.4080218    483.12622   0.04868261  0.049588439            4 
  828000    1.1184068   -5.3408024    484.38978  0.048750984  0.049576412            2 
  829000    1.1205247   -5.3490626    486.88082  0.048942583  0.049564818            2 
  830000    1.1307927   -5.3431378    486.72135  0.048867605  0.049553151            1 
  831000    1.1304218   -5.3528135    487.36657  0.048873503   0.04954163            4 
  832000    1.0976548   -5.3856564    486.12481  0.048690385  0.049530168            2 
  833000    1.1120243   -5.3718584    487.40439  0.048759943  0.049518773            1 
  834000    1.1069232   -5.3590921     486.8572  0.048646802  0.049507065            1 
  835000    1.1332222   -5.3795498    487.34428  0.048637154    0.0494958            1 
  836000    1.0926376    -5.351166    488.41802  0.048686007  0.049484596            9 
  837000     1.117937   -5.3641617    488.94884  0.048680689  0.049472927            4 
  838000    1.1325643   -5.3159485    490.65689  0.048792451  0.049461246            5 
  839000    1.1600099   -5.3789197    490.16485  0.048685424  0.049450167            2 
  840000    1.1323785   -5.3561686    491.15275  0.048725471  0.049438879            3 
  841000    1.1189072   -5.3727431    493.25794  0.048876134  0.049427699            6 
  842000    1.1450458   -5.3809894    493.08496  0.048800966   0.04941724            3 
  843000    1.1401859   -5.3595516    492.74476  0.048709446  0.049407296            3 
  844000    1.1205614   -5.3334321    494.70783   0.04884556  0.049396935            3 
  845000    1.1163236    -5.350796    494.05035  0.048722914  0.049386614            1 
  846000    1.1189378   -5.3468338    494.34671  0.048694514  0.049376205            4 
  847000    1.1384556    -5.342997     496.6545   0.04886408  0.049365593            3 
  848000    1.1166334   -5.3454847    496.17007  0.048758851   0.04935499            5 
  849000    1.1426006   -5.3426266    497.44505  0.048826565  0.049344236            2 
  850000    1.1258531   -5.3667336    495.88862  0.048616531  0.049333441            2 
  851000    1.1078853   -5.3655579    498.23288  0.048788962  0.049323081            3 
  852000    1.1077043   -5.3729169    497.08575  0.048619498  0.049312269            4 
  853000    1.1230849   -5.3577432    497.91992  0.048643994  0.049301747            5 
  854000    1.1130484   -5.3394003    499.46699  0.048737996   0.04929106            6 
  855000    1.1357544   -5.3594213    499.78557  0.048712044  0.049279958            2 
  856000    1.1301548   -5.4087734     497.9017  0.048471739  0.049268814            1 
  857000    1.1102668   -5.3605276    500.79934  0.048696941  0.049257522            3 
  858000    1.1023138   -5.3686797    500.18336  0.048580358  0.049246156            2 
  859000    1.1377269   -5.3765261    499.46362  0.048453979  0.049235041            6 
  860000    1.0865199   -5.3154711    501.36987  0.048582352  0.049223777            2 
  861000    1.1197358   -5.3988334    499.64211  0.048358702  0.049211608            3 
  862000    1.1045196   -5.3885267    500.52411  0.048387868  0.049199431            2 
  863000    1.1319702    -5.360563    500.82523  0.048360875  0.049187394            4 
  864000     1.078542    -5.399509    500.18161  0.048242825  0.049174625            1 
  865000    1.1268946   -5.3621292    501.75384   0.04833852  0.049162037            1 
  866000    1.0927916   -5.3768851    501.92807  0.048299468  0.049149031            2 
  867000    1.1216946   -5.3831443    501.39459  0.048192482  0.049135946            7 
  868000    1.0913053   -5.3925379    501.54695  0.048151588  0.049123036            2 
  869000    1.1312575   -5.3826328    503.68935  0.048301625  0.049109828            4 
  870000    1.1169301   -5.3930349     502.4479  0.048127194  0.049097407            2 
  871000    1.0951164   -5.4056583    503.59638   0.04818182  0.049085291            6 
  872000    1.1005748   -5.3732938    504.14376  0.048178877  0.049072897            4 
  873000    1.1254629    -5.384318    503.84242  0.048094923  0.049060525            2 
  874000    1.0934882    -5.375946      504.514  0.048103928  0.049048026            3 
  875000     1.125083   -5.3835094    504.95801  0.048091239  0.049035057            3 
  876000    1.0887163    -5.395704    504.72528  0.048014201  0.049021768            2 
  877000    1.1096661   -5.3978271    507.46546  0.048219827  0.049009115            2 
  878000    1.1276021   -5.4104869    505.72927  0.048000121   0.04899582            3 
  879000    1.1148531   -5.3738531    505.61355  0.047934542  0.048982639            3 
  880000    1.0879798   -5.3800969    508.17024  0.048122181   0.04896935            2 
  881000    1.1107884    -5.381806    506.90832  0.047948196  0.048955865            3 
  882000    1.1070174   -5.3541512    509.27147  0.048117108  0.048942589            4 
  883000    1.1065094   -5.3678099    509.13592  0.048049822   0.04892943            4 
  884000    1.1239906   -5.3408639    509.23502   0.04800481  0.048916102            2 
  885000     1.113644    -5.349511    510.60753  0.048079805  0.048903421            5 
  886000    1.0985135   -5.3781386    510.52459  0.048017738  0.048890769            5 
  887000    1.1049441   -5.3896907    510.86555  0.047995636  0.048878156            3 
  888000    1.1348163   -5.3749304    511.56482  0.048007209  0.048865549            2 
  889000    1.1259605   -5.3429022    514.52422  0.048230617  0.048853335            6 
  890000    1.0897149   -5.3754941    511.25149  0.047869989  0.048841139           13 
  891000    1.0989966   -5.3711919     516.5379   0.04831069  0.048829383            3 
  892000    1.0981026   -5.3599566    515.13496  0.048125464  0.048817981            2 
  893000    1.1158526   -5.3896351    514.34724  0.047998063  0.048806348            2 
  894000     1.093584    -5.376726    515.46951  0.048048985  0.048794299            3 
  895000    1.1190397   -5.4063459    514.24325  0.047881122  0.048782453            6 
  896000    1.1111702    -5.357883    517.70958  0.048150072  0.048770179            2 
  897000    1.1322726   -5.3786542    515.06189  0.047850417  0.048758005            6 
  898000    1.1141368   -5.4208521    515.34155  0.047823084  0.048745739            2 
  899000    1.1101032   -5.3887432    517.14248  0.047936826  0.048733147            4 
  900000    1.0903697   -5.3580619    518.11963   0.04797404  0.048720659            3 
  901000    1.1145171   -5.3841461    517.00948  0.047818117  0.048708188            2 
  902000    1.1326531   -5.3982045    516.71343  0.047737752  0.048695521            1 
  903000    1.0885346     -5.37035    518.89589  0.047886295  0.048682866            3 
  904000    1.1117755    -5.402023      517.776  0.047730089  0.048670132            3 
  905000    1.0812477   -5.3937867    520.22446  0.047902805  0.048657393            2 
  906000    1.1082997   -5.4140267    518.48648  0.047690074  0.048644529            2 
  907000     1.097487   -5.3891645    519.56471  0.047736559  0.048631926            3 
  908000    1.1059396   -5.3947194    520.17275   0.04773979  0.048619057            4 
  909000    1.0995454   -5.3759536    518.78935  0.047560447  0.048606461            4 
  910000    1.0944207   -5.3987258    522.72099  0.047868223  0.048593848            2 
  911000    1.1203012   -5.3840308    523.06909  0.047847521  0.048581683            2 
  912000    1.0844614   -5.3823741    522.89585  0.047779226  0.048569401            3 
  913000    1.1122344   -5.3294209    526.97631  0.048099335  0.048557276            2 
  914000    1.0931989   -5.3971955    523.83699  0.047760484  0.048544693            2 
  915000    1.1065346   -5.4023961    522.22604   0.04756157  0.048531807            2 
  916000    1.0829885   -5.4477701    522.27484  0.047514086  0.048519094            3 
  917000    1.1079411   -5.4141679    523.34382  0.047559416  0.048506349            6 
  918000    1.1017916   -5.3989421    525.48527  0.047702003  0.048493828            3 
  919000    1.1141055   -5.3762314    527.89701  0.047868789  0.048481681            3 
  920000    1.0953694   -5.3758201    525.18516   0.04757112   0.04846924            4 
  921000    1.1079471   -5.4123412    525.45423  0.047543814  0.048456872            2 
  922000    1.1011856   -5.3289513    530.11619   0.04791361  0.048444388            3 
  923000    1.0791143   -5.3763447    528.54978  0.047720276   0.04843222            9 
  924000    1.1089356   -5.4122009    527.66485  0.047588821  0.048420207            3 
  925000    1.1218869    -5.389224    528.12025  0.047578401  0.048408026            5 
  926000    1.1318697   -5.4218062    528.34327  0.047547091  0.048395952            2 
  927000    1.1118624   -5.3655142    529.32681  0.047584216    0.0483837            3 
  928000    1.1018899     -5.41784    528.92039  0.047496443  0.048371377            3 
  929000    1.1240526   -5.4193832     531.7455  0.047698735  0.048359237            3 
  930000    1.1061033   -5.3808995    531.28559  0.047606235  0.048347092            4 
  931000    1.1264887   -5.4080926    531.85892   0.04760642  0.048335066            6 
  932000    1.0830502   -5.3940258     533.9195  0.047739583  0.048323102            4 
  933000    1.0965527   -5.3895605    533.55409  0.047655778  0.048311193            3 
  934000    1.1030907   -5.4215016    531.43072  0.047415303  0.048299394            3 
  935000    1.1148954   -5.4010769    534.81216  0.047665968  0.048287582            2 
  936000     1.102398   -5.4241498    533.52608  0.047500542  0.048276154            4 
  937000    1.1064352   -5.3858438    536.42127  0.047707335  0.048264801            3 
  938000    1.1171986   -5.3835654    539.34898  0.047916576  0.048253921            2 
  939000    1.0899207   -5.4621755    535.06392  0.047485261  0.048242831            2 
  940000    1.0994657   -5.3903525     536.4073  0.047553839  0.048231885            4 
  941000    1.1120605   -5.4299193    538.63824  0.047700872  0.048220911            5 
  942000     1.091656   -5.3868542     539.3218  0.047710704  0.048209889            2 
  943000    1.0880297   -5.3918544    539.09354  0.047639939  0.048199016            3 
  944000    1.0886252     -5.37472    541.73326  0.047822498  0.048187912            3 
  945000    1.0894454   -5.3888433    541.05837  0.047712379   0.04817714            2 
  946000    1.0976006   -5.3738194    541.53653  0.047704064   0.04816681            5 
  947000    1.1193583    -5.391136    541.79026  0.047676017  0.048156143            4 
  948000    1.0975364   -5.4326132    541.31894  0.047584295   0.04814609            3 
  949000    1.1133559   -5.4036363    544.67721  0.047829049  0.048136386            4 
  950000    1.0695778   -5.3595933    543.98831  0.047718273  0.048125793            2 
  951000    1.1066405    -5.379717    544.29178  0.047694688  0.048115155            3 
  952000    1.1080833    -5.427318    543.34324  0.047561558  0.048104915            2 
  953000    1.0978643   -5.3930727    546.20706  0.047762072  0.048094287            4 
  954000    1.1116305   -5.4118386    545.41259  0.047642609  0.048084093            4 
  955000    1.1157226   -5.4146032    545.73704  0.047621033  0.048074058            2 
  956000    1.0934238   -5.4163379     545.7408  0.047571548  0.048063826            3 
  957000    1.1003122   -5.4355477    546.40965  0.047580081  0.048053407            3 
  958000    1.1059887    -5.435996    546.12825  0.047505937  0.048042938            2 
  959000    1.1053328   -5.4392834    546.65889  0.047502511  0.048032691            4 
  960000    1.0794293    -5.401782    549.90219  0.047734565  0.048022539            4 
  961000    1.1038237   -5.4018735     548.6773  0.047578676  0.048012795            2 
  962000    1.1124802   -5.4341823    550.97594  0.047728339  0.048003015            3 
  963000    1.1295135   -5.4352742    550.53723  0.047640813   0.04799361            4 
  964000    1.0860031   -5.3691532     551.8386   0.04770389  0.047983624            2 
  965000     1.084682    -5.408355    551.05034  0.047586385  0.047973855            2 
  966000    1.0910313   -5.3717519    554.56408  0.047840242  0.047964494            3 
  967000    1.0810078   -5.4388964     552.2052  0.047587487   0.04795447            3 
  968000    1.0758612    -5.428198    552.63646  0.047575453  0.047944704            3 
  969000    1.1156216   -5.4068118    552.04166  0.047475203  0.047935229            5 
  970000    1.0988037   -5.4176231     552.9281  0.047502414  0.047925423            3 
  971000    1.0937832   -5.4090592    552.70409  0.047434268  0.047915633            5 
  972000    1.1009075   -5.4352795    555.16529  0.047596476  0.047905986            5 
  973000    1.0950903   -5.4108475     554.5339  0.047493482  0.047896357            3 
  974000    1.0956055   -5.4120759    557.05079  0.047660061   0.04788691            4 
  975000    1.0936765   -5.4543905    555.19717   0.04745275  0.047877169            2 
  976000    1.1214259   -5.4297471    555.11404  0.047397032  0.047867315            2 
  977000    1.0760819   -5.3877489    558.36847  0.047626106  0.047857164            1 
  978000    1.0688657   -5.4098171    556.47948  0.047416452  0.047847265            5 
  979000    1.1048713   -5.3932755    558.28844  0.047521998  0.047837791            3 
  980000    1.1290351   -5.4198822    557.28704  0.047388354  0.047827922            2 
  981000    1.1081153    -5.405953    559.12516  0.047496191  0.047817586            2 
  982000    1.1177895   -5.4018454    559.44053  0.047474587   0.04780801            2 
  983000    1.0823903   -5.4132762    559.02928  0.047391428  0.047798219           10 
  984000     1.090403   -5.3729975    556.93422  0.047165838  0.047788069            4 
  985000    1.1016445   -5.4472797    558.87962   0.04728254  0.047777723            5 
  986000    1.0920469   -5.4043445       561.74  0.047476336  0.047768101            4 
  987000    1.0754447   -5.4002113    562.93196  0.047528872  0.047758312            8 
  988000     1.104445   -5.4667706    560.69693  0.047292251  0.047748444            2 
  989000    1.0984491   -5.4235471    562.98604  0.047437314  0.047738487            1 
  990000    1.0914354   -5.3900683     562.1898  0.047322374  0.047728558            3 
  991000    1.0936964   -5.3975572    563.16875  0.047356942   0.04771859            4 
  992000    1.0846103   -5.4200064    565.11357  0.047472578  0.047708666            2 
  993000    1.1132246   -5.4077653    563.65424  0.047302303  0.047698716            1 
  994000    1.0844915   -5.3900984    565.75425  0.047430772  0.047688903            3 
  995000    1.0870588   -5.4173846    565.39286  0.047352835  0.047679356            3 
  996000     1.093977   -5.4046411    565.83667  0.047342426  0.047669708            3 
  997000    1.1001393   -5.3925138     565.8549  0.047296465  0.047659757            2 
  998000    1.1129631   -5.4039717    567.17592  0.047359379   0.04764981            3 
  999000    1.1128124   -5.4163379    566.84959  0.047284751  0.047640215            2 
 1000000     1.103444   -5.4230986     567.0639  0.047255325  0.047630028            2 
 1001000    1.0921301   -5.4067457    566.38412  0.047151525  0.047619983            2 
 1002000    1.1108618   -5.4117993    567.41602  0.047190288  0.047609779            3 
 1003000    1.0858674   -5.3867599    567.93357  0.047186239  0.047599575            5 
 1004000     1.096471    -5.415539    568.57595  0.047192559  0.047589363            2 
 1005000     1.118616   -5.4059876    568.27447  0.047120603  0.047579126            8 
 1006000    1.0737892    -5.369529    569.69477  0.047191416  0.047568957            4 
 1007000    1.0874295   -5.3864138    571.64472  0.047305919  0.047558609            6 
 1008000    1.0860089   -5.4326893    568.80638  0.047024337  0.047547658            3 
 1009000     1.092876   -5.4451088     570.2394  0.047096085  0.047537171            3 
 1010000    1.0958918   -5.4305034     570.2623  0.047051345   0.04752628            1 
 1011000     1.092741       -5.396    573.04948  0.047234543  0.047516006            2 
 1012000    1.0869659   -5.3956951    571.29862  0.047043694  0.047505573            5 
 1013000    1.0812359   -5.4410816    569.63605  0.046860484  0.047495214            2 
 1014000    1.0894502   -5.4721751    570.54912   0.04688931  0.047483962            2 
 1015000     1.088544   -5.4143325    569.33914  0.046743772  0.047473055            2 
 1016000    1.0913549   -5.4233624    573.85685  0.047068311  0.047462181            3 
 1017000    1.0837785   -5.4555365     571.8481  0.046857432  0.047451631            2 
 1018000    1.0876133   -5.4455475    571.95187  0.046819898  0.047440459            3 
 1019000    1.0946721   -5.4266212    573.57496  0.046906686  0.047429141            2 
 1020000    1.0669301   -5.4330746    574.27177  0.046917628   0.04741822            2 
 1021000    1.0919603   -5.4172635    575.45856  0.046968541  0.047406972            3 
 1022000    1.0984049   -5.4082401    575.51921  0.046927529  0.047395595            1 
 1023000    1.1101455   -5.4555394    573.81706  0.046742999  0.047384414            3 
 1024000    1.0954531   -5.4074864    576.70688  0.046932526  0.047373362            3 
 1025000    1.0853282   -5.4166764    575.59985  0.046796735  0.047362601            5 
 1026000    1.0710305   -5.3946255    574.99415  0.046701929  0.047351448            6 
 1027000    1.0717084   -5.4797921    574.96628  0.046654194  0.047339688            4 
 1028000    1.0987191   -5.4571424    574.58816  0.046578158  0.047327699            5 
 1029000    1.0708608   -5.4766133    575.62664  0.046616994  0.047315565            5 
 1030000    1.0885371   -5.4446929    576.49827  0.046642255   0.04730349            4 
 1031000    1.0720187   -5.4395318    575.66544    0.0465297  0.047291943            3 
 1032000    1.0863874   -5.4440762     577.7732  0.046654812  0.047280193            1 
 1033000    1.0977181   -5.3886593    578.12587  0.046638099  0.047268363            2 
 1034000    1.0608069    -5.405694    580.38321   0.04677492  0.047257179            3 
 1035000    1.0944145   -5.4218272    578.11058  0.046546746  0.047245697            3 
 1036000    1.1030077   -5.4220287    578.46801  0.046530567  0.047233575            5 
 1037000    1.0908392   -5.4614253    578.76661  0.046509692  0.047221525            4 
 1038000    1.1159706   -5.4307466    580.12946  0.046574298  0.047209595            4 
 1039000    1.0947968    -5.419391    580.58789  0.046566241  0.047197703            2 
 1040000     1.091878   -5.4484588     580.8473  0.046542252  0.047185956            3 
 1041000    1.0536215   -5.4291523     584.1161  0.046759214  0.047174381            2 
 1042000     1.061547   -5.4024398    583.28096  0.046647549  0.047162624            1 
 1043000    1.0971875   -5.4270825    584.74887  0.046720108  0.047151092            3 
 1044000    1.0657477   -5.4350039    582.99891  0.046535673  0.047140035            2 
 1045000    1.0725132   -5.4486414     583.6458  0.046542727  0.047128278            3 
 1046000    1.0887494   -5.4003361    585.17295  0.046619897  0.047116803            2 
 1047000    1.1152134   -5.4402632    584.71822  0.046539177  0.047105355            3 
 1048000    1.0869057   -5.4329201    583.94753  0.046433486  0.047094052            1 
 1049000    1.0880826   -5.4325184    585.40721  0.046505181  0.047082627            4 
 1050000    1.0812896   -5.4260227    586.01525  0.046509147  0.047070931            5 
 1051000    1.0875652   -5.4215339    586.49048  0.046502575  0.047059305            3 
 1052000    1.0701804   -5.4105006    584.91607  0.046333656  0.047047638            3 
 1053000    1.0781037   -5.4231939    585.41186   0.04632889  0.047036252            4 
 1054000    1.0772919   -5.4426255    586.65301  0.046383065  0.047024056            2 
 1055000    1.0784292   -5.4099715    587.20738  0.046382889  0.047012015            3 
 1056000    1.0836379   -5.3756371    588.56457  0.046446068  0.047000209            3 
 1057000    1.0850255   -5.4298874    588.45816  0.046393737  0.046988823            6 
 1058000    1.0792875   -5.4280047    589.87578  0.046461545  0.046977494            4 
 1059000    1.0893027   -5.4173151    590.89994  0.046498264  0.046966456            7 
 1060000    1.1004791   -5.4370353    591.27534  0.046483911  0.046955327            3 
 1061000    1.1023713   -5.4277665      592.889  0.046566839  0.046944445            6 
 1062000    1.0866623   -5.4243015    591.07937  0.046380992  0.046933167            2 
 1063000    1.1040436   -5.4090812    591.71492  0.046387184  0.046921958            3 
 1064000     1.072187    -5.425252    591.83484  0.046352979  0.046910572            2 
 1065000    1.0765707   -5.4419891    593.22045  0.046417876  0.046899152            3 
 1066000    1.1005692   -5.4586446    591.65026  0.046251584  0.046887711            3 
 1067000    1.0892682   -5.4460941    595.06689  0.046475077  0.046876369            8 
 1068000    1.0876027   -5.4408484    592.50634  0.046231768  0.046864759            3 
 1069000    1.0978878   -5.4731237    594.48092  0.046342448  0.046853663            2 
 1070000    1.0760528   -5.4293792    594.23899  0.046280295  0.046842346            5 
 1071000     1.088416   -5.4358984    594.82196  0.046282443  0.046831024            2 
 1072000      1.07402    -5.440793    595.30476  0.046276801  0.046819565            2 
 1073000    1.1184996   -5.4435078    597.55152  0.046408164  0.046808257            2 
 1074000    1.1013302   -5.4586889     594.3374  0.046115565  0.046796752            6 
 1075000    1.0709755   -5.4299646    595.84565  0.046189585  0.046785147            4 
 1076000    1.0639342   -5.4339276    596.85462    0.0462248  0.046773278            5 
 1077000    1.0829655   -5.4152339    598.74908  0.046328465  0.046761466            2 
 1078000    1.0908916   -5.4348666    598.08641  0.046234262  0.046749827            2 
 1079000    1.0744044   -5.4731237     596.5029  0.046069115  0.046737807            4 
 1080000    1.0986505   -5.4762283    596.36903  0.046016129  0.046725413            4 
 1081000    1.1103369   -5.4088406     597.4098  0.046053792  0.046713361            4 
 1082000    1.0977515   -5.4597364    599.01423  0.046134799  0.046701567            3 
 1083000    1.0699773   -5.4847722    595.37121  0.045811881  0.046689594            7 
 1084000    1.0892693    -5.437966    600.14881  0.046136901  0.046677467            3 
 1085000    1.0789077   -5.4660758    596.89253   0.04584428  0.046665405            5 
 1086000    1.0922765   -5.4532448    599.36259  0.045991605  0.046653354            4 
 1087000    1.0953345   -5.5282334    597.30678  0.045791688  0.046641479            3 
 1088000    1.0733891   -5.4371877    601.50017  0.046070785  0.046629414            2 
 1089000    1.0753955   -5.3809747     602.7408  0.046123416  0.046617886            4 
 1090000    1.0825882   -5.4464833     601.9597  0.046021384  0.046606415            6 
 1091000    1.0618837   -5.4374308    602.96148  0.046055719  0.046594782            2 
 1092000    1.0651328   -5.4542412    603.14402  0.046027474  0.046583246            3 
 1093000    1.0996594   -5.4479462    603.26662   0.04599471  0.046571886            5 
 1094000    1.0854116   -5.4200621    607.03427  0.046239661  0.046560329            2 
 1095000    1.0568005   -5.4349038    604.11933  0.045975596  0.046548965            2 
 1096000    1.0949747   -5.4460968    605.28232  0.046022074  0.046537729            5 
 1097000    1.0901969    -5.480183    604.93391  0.045953655  0.046526546            3 
 1098000    1.0948994   -5.4389077    604.32797  0.045865814  0.046514814            3 
 1099000    1.0681015   -5.4447591    608.73369  0.046158151  0.046503628            4 
 1100000    1.0704028   -5.4617352    605.96296  0.045906285  0.046492334            3 
 1101000    1.0933223   -5.4245454    605.24887  0.045810541  0.046480699            2 
 1102000    1.0585065   -5.4820257    604.87053   0.04574036  0.046468635            2 
 1103000     1.078543   -5.4077625    606.69572  0.045836788  0.046456541            2 
 1104000     1.062485   -5.4323638    608.25093  0.045912661  0.046445153            3 
 1105000     1.074494   -5.4298039    611.09485  0.046085585  0.046433624            2 
 1106000    1.0676893   -5.4621637    609.88173  0.045952512  0.046422479            4 
 1107000    1.0816171   -5.4746164     610.5156  0.045958717  0.046411294            3 
 1108000    1.0853514   -5.4396641     613.0315   0.04610646    0.0464002            4 
 1109000    1.0739955   -5.4478345    610.35882  0.045864053  0.046389258            4 
 1110000    1.0596285   -5.4636065    613.52263  0.046060258  0.046378402            5 
 1111000    1.0812653   -5.4060724    614.48911  0.046091293  0.046367476            2 
 1112000    1.0781502   -5.4354267    614.90036  0.046080663  0.046356591            6 
 1113000    1.0974939   -5.4534484    612.91186  0.045890376  0.046345924            3 
 1114000    1.0962736   -5.4911745    611.86956  0.045771212  0.046334963            5 
 1115000    1.0744193   -5.4715296    613.28895  0.045836244  0.046323846            6 
 1116000    1.0667521   -5.4374078    615.37384  0.045950854  0.046312774            4 
 1117000    1.0702274   -5.4227415    614.20291   0.04582236  0.046301801            3 
 1118000    1.0923391   -5.4454585    614.54014   0.04580651  0.046290714            5 
 1119000    1.0809037   -5.4737289     613.8338  0.045712973   0.04627971            4 
 1120000    1.0705114   -5.4478513    614.99862  0.045758826  0.046268681            4 
 1121000    1.0537733   -5.4382576    616.37852  0.045820586  0.046257548            5 
 1122000    1.0653366   -5.4577885    617.11809  0.045834677  0.046246398            4 
 1123000    1.0779271   -5.4699074    616.96883  0.045782786  0.046235212            4 
 1124000    1.0566315    -5.428305    619.16571  0.045904931  0.046224473            3 
 1125000    1.0544407   -5.4673782    617.41358  0.045734339  0.046213524            3 
 1126000    1.0706681   -5.4614822     616.4878  0.045625207  0.046202323            3 
 1127000    1.1001137   -5.4308855    620.72542  0.045898064  0.046190941            5 
 1128000    1.0624516   -5.4470132    615.83401  0.045496011  0.046179523            4 
 1129000    1.0731839   -5.4634499    617.79171  0.045600215  0.046167887            8 
 1130000    1.0764863    -5.461191    616.49337  0.045464113  0.046156523            3 
 1131000    1.0744795   -5.4470177    618.72089  0.045588041    0.0461448            3 
 1132000    1.0557584   -5.4730492     618.5104  0.045532273  0.046133037            8 
 1133000    1.0785164    -5.438142    619.42889  0.045559641   0.04612182            2 
 1134000    1.0847399   -5.4390541    622.41434  0.045738855  0.046110388            3 
 1135000    1.0739651   -5.4311417    621.65766     0.045643  0.046098845            3 
 1136000    1.0924411   -5.4537851    623.04944  0.045704918  0.046087495            3 
 1137000    1.0736149    -5.459326    621.19304   0.04552866  0.046076227            4 
 1138000    1.0815268   -5.4569518    624.04956  0.045697829   0.04606534            2 
 1139000    1.0627491   -5.4497889    623.69432  0.045631718   0.04605438            3 
 1140000    1.0450173   -5.4449845    624.48917  0.045649793  0.046043381            4 
 1141000    1.0707231   -5.4452967    623.71852    0.0455535  0.046032342            4 
 1142000    1.0652859    -5.450468    625.04744  0.045610584  0.046021222            3 
 1143000    1.0864102   -5.4829906    622.69387  0.045399087  0.046009659            3 
 1144000    1.0749988   -5.5242929    622.90899  0.045375072  0.045997961            3 
 1145000     1.069329   -5.4449445     627.3532  0.045658894  0.045986701            1 
 1146000    1.0627753   -5.4548013    624.85038  0.045437055  0.045975497            4 
 1147000    1.0830393     -5.48513    626.60064  0.045524603  0.045964057            4 
 1148000    1.0456204   -5.4561642    625.14316  0.045379149  0.045952213            2 
 1149000    1.0582171   -5.4845075     623.8935  0.045249021  0.045940351            5 
 1150000    1.0593621   -5.4761364    627.60476  0.045478605  0.045928582            3 
 1151000    1.0626872   -5.4891146    627.16766  0.045407447  0.045917321            3 
 1152000     1.078048   -5.4620453    625.39239  0.045239612  0.045906371            2 
 1153000    1.0874869   -5.4865469    628.84082  0.045449611  0.045895028            9 
 1154000    1.0949166   -5.4581886    629.60151  0.045465158  0.045883484            7 
 1155000    1.0755644   -5.4308701    629.38638  0.045410273  0.045872359            4 
 1156000    1.0509927   -5.4953384    628.69304  0.045321009  0.045860522            2 
 1157000    1.0548068   -5.4974509    629.52526  0.045341779   0.04584831            1 
 1158000    1.0740278   -5.4889569    628.62805  0.045238057  0.045836279            2 
 1159000    1.0516116   -5.4744757    628.31306  0.045176378  0.045824631            2 
 1160000    1.0658499   -5.4400863    630.49384  0.045294098  0.045813266            3 
 1161000    1.0469171   -5.4961779    632.48156  0.045397758  0.045801633            2 
 1162000    1.0614638   -5.4826376    632.00074  0.045324207  0.045789956            2 
 1163000    1.0803144   -5.4701726    632.22307  0.045301166  0.045778655            2 
 1164000    1.0751685   -5.5053375    632.37005   0.04527277  0.045767301            5 
 1165000    1.0616297   -5.4692703    631.82123  0.045194651  0.045756043            7 
 1166000    1.0561469   -5.4494133    635.18464  0.045396272  0.045744938            3 
 1167000    1.0683731   -5.4529001      632.687   0.04517902  0.045733547            4 
 1168000    1.0780476   -5.4782285    633.26125  0.045181311  0.045722503            4 
 1169000    1.0865933   -5.4824128    634.41425  0.045224854  0.045711172            3 
 1170000    1.0583539   -5.4713651    635.25794  0.045246292   0.04569983            2 
 1171000    1.0794398   -5.4786381    635.74237  0.045242127  0.045688502            2 
 1172000    1.0713512   -5.4536443    637.41931  0.045322761  0.045677755            1 
 1173000    1.0556705   -5.4156135    640.33408  0.045491196  0.045666955            2 
 1174000    1.0644879   -5.4746185    639.20854  0.045372554  0.045656547            4 
 1175000    1.0707875   -5.5040197    637.32697  0.045200495  0.045645798            4 
 1176000    1.0484398   -5.4857542    638.62626  0.045254128  0.045634845            2 
 1177000    1.0714232   -5.4631017    640.35497  0.045338075  0.045624543            2 
 1178000    1.0474927   -5.4784191      639.632  0.045248444  0.045614173            6 
 1179000    1.0640466   -5.4561223    641.79184  0.045362725  0.045603624            7 
 1180000    1.0644265   -5.4519392    641.75376  0.045321593  0.045593178            7 
 1181000    1.0649249   -5.4572021    643.04072  0.045374028  0.045582334            4 
 1182000    1.0477742   -5.4829976    640.40206   0.04514961  0.045571722            4 
 1183000    1.0615086   -5.4880983    641.40007  0.045181747  0.045560938            6 
 1184000    1.0393239   -5.4745007    642.57897  0.045226561  0.045550166            3 
 1185000     1.062808   -5.4766204    644.07827  0.045293831  0.045539344            5 
 1186000    1.0718201   -5.4787991     643.2261  0.045195763   0.04552851            3 
 1187000    1.0592623   -5.5190511    642.08376  0.045077489  0.045517705            4 
 1188000    1.0615127   -5.4670344    642.26324  0.045052136  0.045506821            2 
 1189000    1.0545098   -5.4786398    644.88348  0.045197889   0.04549581            3 
 1190000     1.077887   -5.4739527    642.38533  0.044984967  0.045485069            1 
 1191000    1.0507732   -5.4938708    643.52593  0.045027003  0.045474198            3 
 1192000    1.0787045   -5.4462644    647.90416  0.045295313  0.045463483            3 
 1193000    1.0624351   -5.4777376    647.13997  0.045203965  0.045452988            3 
 1194000    1.0477992   -5.4532571    646.29371  0.045107043  0.045442571            4 
 1195000    1.0736591   -5.4551018    648.39917  0.045216121  0.045432051            4 
 1196000    1.0830102   -5.4882754    648.30393  0.045171678   0.04542149            1 
 1197000    1.0636467   -5.4720337    647.58685  0.045084019  0.045411017            4 
 1198000    1.0496859   -5.4860162    648.02518  0.045076877  0.045400308            3 
 1199000    1.0656064   -5.4792202    649.48566  0.045140788  0.045389959            6 
 1200000    1.0735758   -5.4795734    650.06925  0.045143698   0.04537948            2 
 1201000    1.0907144   -5.4595432    653.44041  0.045340023  0.045369112           13 
 1202000    1.0396774   -5.4723781    651.76056   0.04518584  0.045358978            9 
 1203000    1.0815792   -5.4929913     652.3216  0.045187143  0.045348902            2 
 1204000    1.0473134   -5.5157772    653.08237  0.045202268  0.045339073            1 
 1205000    1.0416974   -5.5002517      653.292  0.045179253  0.045329136            2 
 1206000    1.0677657   -5.4759769    652.04926  0.045055919    0.0453192            2 
 1207000    1.0637321   -5.4934579    654.96738  0.045220062  0.045309675            5 
 1208000    1.0770827   -5.4407956    655.78031  0.045238708  0.045300009            4 
 1209000    1.0850895   -5.4829156    654.95978  0.045144733  0.045290375            2 
 1210000    1.0585083   -5.4669212    658.23866  0.045333241  0.045280875            5 
 1211000    1.0738791   -5.5118737    654.83447  0.045061552  0.045270966            3 
 1212000    1.0535379   -5.4536655    657.19767  0.045186859  0.045261363            5 
 1213000    1.0490483   -5.4862192    655.91989  0.045061822  0.045251907            3 
 1214000    1.0475615   -5.4901784    656.16122   0.04504127  0.045242476            4 
 1215000    1.0650023   -5.4512087    660.04262  0.045270413  0.045232841            4 
 1216000    1.0472561   -5.4888455    658.83077  0.045150135  0.045223397            4 
 1217000    1.0397859    -5.479294    659.15661  0.045135347  0.045213599            6 
 1218000    1.0642494   -5.5081237    657.96388  0.045016686  0.045203695            9 
 1219000    1.0497665   -5.4843506    656.00694  0.044845976  0.045193753            4 
 1220000    1.0489659   -5.5200775    657.87681   0.04493694  0.045183817            4 
 1221000    1.0360455    -5.481838    661.49761  0.045147257  0.045174113            1 
 1222000     1.048114   -5.5020836    659.90375  0.045001619   0.04516457            2 
 1223000    1.0652943   -5.4833218    661.32614  0.045061743  0.045155013            3 
 1224000    1.0553348   -5.4702868     662.3839  0.045096943  0.045145437            1 
 1225000    1.0625962    -5.477942    662.00945  0.045034657  0.045136332            3 
 1226000    1.0705918   -5.4798308    662.92395  0.045060084  0.045126788            3 
 1227000    1.0558709   -5.5266554    663.71807  0.045077294   0.04511749            3 
 1228000    1.0778496   -5.5126299    661.13171  0.044865073  0.045107954            3 
 1229000    1.0781521   -5.4685025    663.11545  0.044963076  0.045098544            4 
 1230000    1.0629608   -5.4957177    663.89043  0.044979027  0.045089435            4 
 1231000    1.0750982    -5.495662    664.15374  0.044960313  0.045080034            5 
 1232000     1.057123   -5.5244353    662.90684  0.044839478  0.045070353            3 
 1233000    1.0617435   -5.4580082    663.46138   0.04484059  0.045060824            1 
 1234000    1.0489651   -5.5025616    666.67016  0.045020945   0.04505125            3 
 1235000    1.0503677   -5.5238858    663.83003  0.044792849  0.045041868            4 
 1236000    1.0619474   -5.5401009    664.38984  0.044794353  0.045032031            4 
 1237000    1.0536237   -5.4550782     670.4694  0.045167704  0.045022514            4 
 1238000    1.0488293   -5.4852236    668.57153  0.045003468   0.04501351            3 
 1239000    1.0496534   -5.5286968    667.51163  0.044895859   0.04500426            3 
 1240000    1.0823233   -5.4670268    666.20877  0.044772095  0.044994552            5 
 1241000    1.0795134   -5.4595262    669.00693  0.044923914  0.044985042            4 
 1242000    1.0327484   -5.5126294    666.47468  0.044717839  0.044975571            3 
 1243000    1.0671791    -5.514935    668.74011  0.044833743  0.044965718            2 
 1244000    1.0488493   -5.4531827    670.51393  0.044916528  0.044956187            4 
 1245000     1.059081   -5.5033524    668.04996  0.044715526  0.044946906            5 
 1246000    1.0473668   -5.5012845    670.09021  0.044816092  0.044937435            2 
 1247000    1.0779427   -5.5287887    668.66468  0.044684889  0.044927912            5 
 1248000    1.0722084   -5.4890718    672.43151  0.044900609  0.044918752            3 
 1249000    1.0526727   -5.4758689    673.07005  0.044907263  0.044909892            3 
 1250000    1.0742763   -5.5435411    668.89749  0.044593166  0.044900722            2 
 1251000    1.0646544    -5.502808    673.34904  0.044854053  0.044891358            3 
 1252000    1.0284252   -5.4707993     675.2324  0.044943584  0.044882252            4 
 1253000    1.0474094   -5.4880467    673.65603  0.044802875  0.044873162            3 
 1254000    1.0341806   -5.5198938    674.27639  0.044808373  0.044863888            4 
 1255000    1.0438668   -5.4815809    676.06227  0.044891253  0.044854592            4 
 1256000    1.0435662   -5.4836612     676.6169   0.04489231    0.0448456            3 
 1257000    1.0404175   -5.5044897    676.08202  0.044821136  0.044836342            4 
 1258000    1.0501289    -5.482581     678.2953  0.044932121  0.044827318            5 
 1259000    1.0536125   -5.5223497    676.49358  0.044777176  0.044818181            2 
 1260000    1.0568002   -5.5232587    677.19887  0.044788285  0.044808797            3 
 1261000    1.0543926   -5.5408285    675.52618  0.044642227  0.044799401            4 
 1262000    1.0579718   -5.4981956    679.59023  0.044875213  0.044790396            2 
 1263000    1.0265389   -5.4950887    679.39502  0.044826803   0.04478108            1 
 1264000    1.0684316   -5.5268118    678.27852   0.04471773  0.044771932            3 
 1265000    1.0594889   -5.5190071    681.08025  0.044866947  0.044762797            3 
 1266000    1.0530023   -5.4998108     678.6388    0.0446708  0.044753758            4 
 1267000    1.0457889   -5.5010168    678.89233  0.044652218  0.044744618            8 
 1268000    1.0367187   -5.5146105    681.03915  0.044758093  0.044735667            2 
 1269000    1.0333913   -5.5117174    678.84769  0.044578913  0.044726468            4 
 1270000    1.0284622    -5.541221     679.2815  0.044572277  0.044717461            2 
 1271000    1.0572224   -5.5220672    681.63276  0.044691369  0.044708231            5 
 1272000    1.0563926   -5.4983155    683.84006  0.044800843  0.044699416            5 
 1273000    1.0512921   -5.4732348    683.21432  0.044724687  0.044690581            3 
 1274000    1.0516251   -5.5082325    684.49923  0.044773628  0.044681842            3 
 1275000    1.0568798   -5.5216853    683.68443  0.044685257  0.044672634            4 
 1276000    1.0558235   -5.5492781    681.80386   0.04452742  0.044663723            2 
 1277000    1.0394945   -5.5231512    683.14935  0.044580355  0.044654707            7 
 1278000     1.048397   -5.5068394    682.96512  0.044533458  0.044645478            3 
 1279000    1.0506507   -5.5175712    685.06783  0.044635642  0.044636616            4 
 1280000    1.0558439   -5.4932615    685.49621  0.044628659  0.044627705            6 
 1281000    1.0513748   -5.4851976    686.04118  0.044629273  0.044618829            3 
 1282000    1.0576252   -5.5402048    685.40112  0.044552855  0.044609853            4 
 1283000    1.0441308   -5.5373117    683.87658  0.044419108  0.044600759            9 
 1284000    1.0600548   -5.5364379    687.33093  0.044608705  0.044591625            3 
 1285000    1.0586093    -5.483299    689.12132  0.044690099  0.044582635            3 
 1286000    1.0626931   -5.5183671    687.75897  0.044567066  0.044573891            4 
 1287000    1.0434364   -5.5393268    688.30642  0.044567885  0.044564946            4 
 1288000    1.0467003   -5.5546268    684.71565  0.044300961  0.044555652            3 
 1289000      1.05017   -5.5291784    688.76802  0.044528577  0.044546471            4 
 1290000    1.0346063   -5.4954363    688.81943  0.044497379   0.04453721            3 
 1291000    1.0354207   -5.4968165    690.84742  0.044593818  0.044527843            2 
 1292000    1.0441917   -5.5348729    689.72685  0.044487026  0.044518523            3 
 1293000    1.0435042   -5.5505251    687.32395  0.044297754  0.044509254            3 
 1294000    1.0278246   -5.5259565    689.22094  0.044385686  0.044499813            3 
 1295000    1.0578656   -5.5472775    691.81789  0.044518526  0.044490441            6 
 1296000    1.0450883   -5.5227243    688.45944  0.044268225  0.044480841            4 
 1297000    1.0372696   -5.5287648    691.76789  0.044446664  0.044471458            4 
 1298000    1.0676148    -5.477536    691.03374  0.044365289  0.044462225            4 
 1299000    1.0517644    -5.530199    691.04449  0.044331825  0.044452675            2 
 1300000    1.0268423   -5.4904486    691.46211  0.044324494   0.04444363            5 
 1301000    1.0393458     -5.52147    690.66025  0.044239063   0.04443448            2 
 1302000    1.0205776   -5.5062952     694.9292  0.044478315  0.044425244            5 
 1303000    1.0497376   -5.5183923    695.96086   0.04451016  0.044416077            3 
 1304000    1.0520494   -5.5167082    695.10395  0.044421265   0.04440699            3 
 1305000     1.038854   -5.5118651    693.97456  0.044315106  0.044397898            6 
 1306000    1.0484959   -5.5192238    692.79332  0.044205802  0.044388686            6 
 1307000    1.0515118   -5.5278736    694.70961   0.04429416  0.044379205            3 
 1308000    1.0384308   -5.4876007    695.76586  0.044327591  0.044369903            3 
 1309000    1.0586676   -5.5005522    694.45146  0.044210049  0.044360857            4 
 1310000    1.0684433   -5.5125305    694.95929  0.044208606  0.044351341            2 
 1311000    1.0338226   -5.5514963    697.01214  0.044305374  0.044341947            1 
 1312000    1.0607816   -5.5033188    699.78571  0.044447771  0.044332833            2 
 1313000    1.0462952    -5.505914    698.04953  0.044303728  0.044323301            2 
 1314000    1.0446341   -5.5510596    694.42473  0.044040127  0.044314042            7 
 1315000    1.0657455   -5.4644726    700.82649  0.044412325  0.044304828            2 
 1316000    1.0527433   -5.5356039    698.64339  0.044240336  0.044295624            3 
 1317000    1.0436775    -5.463094    702.70033  0.044463448  0.044286697            6 
 1318000    1.0354074    -5.528846    699.36032  0.044218533  0.044277577            3 
 1319000    1.0268647   -5.5398755    697.43125  0.044063132  0.044268353            3 
 1320000    1.0498564   -5.5416051    699.29551  0.044147444   0.04425889            5 
 1321000    1.0402182   -5.5280835    700.91911  0.044216446  0.044249516            2 
 1322000    1.0169805   -5.5344183    699.48979  0.044092901  0.044240297            3 
 1323000    1.0245338   -5.5115194    701.30605  0.044173977  0.044231114            2 
 1324000    1.0239524   -5.5150116    702.65888   0.04422576  0.044222182            2 
 1325000    1.0335855   -5.4800002    705.48845  0.044370343   0.04421331            3 
 1326000    1.0133149   -5.5054333    704.81042   0.04429427  0.044204287            5 
 1327000    1.0444128   -5.5176087    702.56579  0.044119931  0.044195068            4 
 1328000    1.0259785   -5.5278536    702.45123   0.04407952  0.044185498            4 
 1329000    1.0280927   -5.5308161    703.47627  0.044110626  0.044176205            4 
 1330000    1.0559247   -5.5514833    704.11218  0.044117304  0.044167044            6 
 1331000    1.0386619   -5.5287649    703.79837  0.044064511  0.044157683            2 
 1332000    1.0547703   -5.5440918    704.68357   0.04408681  0.044148604            3 
 1333000    1.0276929   -5.5019612    707.57728  0.044234639  0.044139384            5 
 1334000     1.035004    -5.527863    706.39645  0.044127714  0.044130163            4 
 1335000    1.0572777   -5.5149013    705.90509  0.044063988  0.044121172            3 
 1336000    1.0492196   -5.5517913     705.8596  0.044028169  0.044112488            2 
 1337000    1.0251209   -5.5179418    710.26373  0.044269741  0.044103601            2 
 1338000    1.0379141   -5.4905712    709.52413  0.044190591  0.044094886            3 
 1339000    1.0568792   -5.4931361    713.40358  0.044399028   0.04408625            4 
 1340000    1.0255918   -5.5187129    713.08349  0.044345988  0.044077531            3 
 1341000    1.0517623   -5.5060889    710.12907  0.044129324  0.044068737            2 
 1342000     1.028579   -5.5421123    708.82543  0.044015489  0.044060038            2 
 1343000    1.0261614   -5.5421991    710.50214  0.044086755  0.044051191            7 
 1344000    1.0421914   -5.5470663    709.91947  0.044017824  0.044042043            3 
 1345000    1.0330678   -5.5222915    710.13267  0.043998307  0.044032738            6 
 1346000    1.0183139   -5.5642391    711.55894  0.044053922  0.044023757            3 
 1347000    1.0425373   -5.5499429     708.2762  0.043818126   0.04401433            5 
 1348000    1.0594289   -5.5404415    711.79917  0.044003411  0.044005021            5 
 1349000    1.0223223   -5.5234842    713.28074  0.044062314  0.043995714            2 
 1350000     1.013638   -5.5074114    712.80431  0.044000266  0.043986643            4 
 1351000    1.0380629   -5.5459227    712.89857  0.043973511  0.043977938            4 
 1352000    1.0402679   -5.5342275    714.44089  0.044036051  0.043968942            3 
 1353000     1.040748   -5.5324776    713.71329   0.04395869  0.043959907            4 
 1354000    1.0152453    -5.504284    713.97943  0.043942604   0.04395088            2 
 1355000    1.0334988   -5.5259713    715.43323  0.043999584  0.043941822            5 
 1356000    1.0347937    -5.502771    714.24462  0.043894089  0.043932375            7 
 1357000    1.0390014   -5.5129894    715.83236  0.043959246  0.043923103            3 
 1358000    1.0217769   -5.5928814    712.81171  0.043741514  0.043913569            4 
 1359000    1.0373351   -5.5255116    714.08149   0.04378719  0.043904052            6 
 1360000     1.025754   -5.5457255    714.04527  0.043752774  0.043894769            2 
 1361000    1.0286656   -5.5052238    720.05503  0.044088601  0.043885643            2 
 1362000    1.0552013   -5.5695658    716.60828  0.043845343  0.043876467            3 
 1363000    1.0372283   -5.5558717    719.62507   0.04399762  0.043867175            3 
 1364000    1.0331019   -5.5136313    717.60806  0.043842134  0.043858208            5 
 1365000    1.0444676   -5.4955209    717.61278  0.043810304  0.043849081            2 
 1366000    1.0264969   -5.5496981    719.81095  0.043912333  0.043840035            2 
 1367000     1.045583   -5.5490561    718.46516  0.043798169   0.04383074            2 
 1368000    1.0251205   -5.4945331    721.18926  0.043932094  0.043821409            5 
 1369000    1.0381157    -5.566842    718.11021  0.043712577  0.043811884            3 
 1370000    1.0447216   -5.5199011    719.99901   0.04379556  0.043802518            3 
 1371000    1.0175723   -5.5427104    721.00527  0.043824779  0.043793156            1 
 1372000    1.0360913   -5.5282238    720.74181  0.043776835  0.043783844            2 
 1373000    1.0304138   -5.5093372    722.94216    0.0438785  0.043774682            3 
 1374000    1.0294246   -5.5117396    719.84041  0.043658443  0.043765338            3 
 1375000    1.0450841   -5.5350371    722.20225  0.043769834  0.043756062            3 
 1376000    1.0193963     -5.52675     723.4816  0.043815504  0.043746848            1 
 1377000    1.0269122    -5.577384    722.42113  0.043719507  0.043737567            6 
 1378000     1.010574   -5.5656938    721.63378  0.043640166  0.043728151            3 
 1379000    1.0196826   -5.5227289    722.65627  0.043670309  0.043718839            3 
 1380000    1.0473581   -5.5495509    721.96318   0.04359681  0.043709742            6 
 1381000    1.0275813   -5.5204266    726.59189   0.04384455  0.043700691            3 
 1382000    1.0274479   -5.5178557    727.91965  0.043892888  0.043691777            3 
 1383000    1.0235763   -5.5575704    726.82019  0.043794901  0.043682925            6 
 1384000    1.0438625   -5.5459959    726.64246  0.043752557   0.04367395            2 
 1385000    1.0515998   -5.5302688    729.02516  0.043864329  0.043665227           13 
 1386000    1.0313984   -5.5383223    727.00478  0.043711206  0.043656288            3 
 1387000    1.0100873   -5.5235723    726.75211   0.04366451  0.043647698            2 
 1388000    1.0186364   -5.5666212    728.25616  0.043723352  0.043639206            2 
 1389000    1.0581347   -5.5466936    727.34241  0.043637054  0.043630361            3 
 1390000    1.0288132   -5.5803821    729.59827  0.043740903  0.043621561            3 
 1391000    1.0206256   -5.5093626    730.30902  0.043752038  0.043613034            4 
 1392000    1.0366546    -5.569933    728.20964  0.043594926  0.043604563            3 
 1393000     1.031896   -5.5808558     730.8227  0.043719951  0.043595874            3 
 1394000    1.0425785   -5.5216263     733.2064  0.043831085  0.043587268            3 
 1395000    1.0259532   -5.5468201    730.59047  0.043643397  0.043578869            3 
 1396000    1.0052514   -5.5369626    731.82579  0.043685875  0.043570464            3 
 1397000     1.018174   -5.5646743    732.19919  0.043676878  0.043561922            2 
 1398000    1.0353806   -5.5285878    734.85795  0.043804122  0.043553367            4 
 1399000    1.0411933   -5.5567764    732.08132  0.043607417  0.043544711            7 
 1400000    1.0014538   -5.5465536    732.55511  0.043604471  0.043535917            5 
 1401000    1.0229704   -5.5444183     732.8354  0.043590019  0.043527313            3 
 1402000    1.0015537   -5.5663033     733.5574  0.043601843   0.04351872            3 
 1403000    1.0172311   -5.5735238    734.22646  0.043610505  0.043510066            4 
 1404000    1.0093416   -5.5312439    736.62303   0.04372169  0.043501543            1 
 1405000    1.0230079   -5.5803402    733.64525  0.043513953   0.04349295            3 
 1406000    1.0094293   -5.5333687    736.53531  0.043654298   0.04348422            2 
 1407000    1.0162262   -5.5428245    736.24382  0.043606007  0.043475607            2 
 1408000    1.0213174   -5.5539027    735.62274  0.043538277  0.043466901            3 
 1409000    1.0309369   -5.5853857    737.34741  0.043609381  0.043458155            3 
 1410000    1.0189188   -5.5579354    737.67527  0.043597829  0.043449546            3 
 1411000      1.04236   -5.5541003    737.46134  0.043554296  0.043441125            3 
 1412000    1.0268725   -5.5203058    739.41523  0.043638765  0.043432397            3 
 1413000    1.0071494    -5.531301     737.9719  0.043522759  0.043423961            2 
 1414000   0.97826524   -5.5398178    742.37106  0.043751241  0.043415344            3 
 1415000     1.017975   -5.5789852    738.26244  0.043478354  0.043406788            2 
 1416000    1.0508008   -5.5205267    740.60274  0.043585378  0.043398438            4 
 1417000   0.99872451   -5.5178869    743.73726  0.043738959  0.043390264            2 
 1418000    1.0392525   -5.5503049    740.19346  0.043499851   0.04338186            2 
 1419000    1.0221164   -5.5405955    743.66053  0.043672805  0.043373543            3 
 1420000    1.0324346   -5.5518419    744.18737  0.043672968   0.04336546            3 
 1421000    1.0139413   -5.6082736    741.57956  0.043489301  0.043357412            2 
 1422000    1.0415133   -5.5517205     742.1025  0.043489364  0.043349223            5 
 1423000    1.0078133    -5.518963    745.93568  0.043683279  0.043341247            2 
 1424000    1.0355386   -5.5821884    744.90543  0.043592312  0.043333284            5 
 1425000    1.0433182   -5.5424042     742.5967  0.043426707  0.043325015            3 
 1426000    1.0271869   -5.5417631    745.77991  0.043582276  0.043316865            5 
 1427000    1.0102608   -5.5806473    744.89608  0.043500121  0.043308688            5 
 1428000    1.0185573    -5.529538    749.64915  0.043747033  0.043300627            5 
 1429000    1.0234362   -5.5732842    746.15788  0.043512822  0.043292503            3 
 1430000    1.0289709   -5.5718752    744.94198  0.043411537  0.043284512            3 
 1431000    1.0222677   -5.5424596     748.1618  0.043568705  0.043276432            3 
 1432000    1.0188074   -5.5802017    746.32001  0.043431099  0.043268316            4 
 1433000    1.0231962   -5.5605121    748.78482  0.043544127  0.043260198            5 
 1434000     1.033393   -5.5425657     751.2527  0.043657177  0.043252259            3 
 1435000    1.0205513   -5.5652828    748.97217  0.043494319  0.043244185            2 
 1436000    1.0203928   -5.6019471    745.79389   0.04327959  0.043236107            6 
 1437000    1.0181722   -5.5704677    747.14599  0.043327881  0.043227985            2 
 1438000    1.0243505   -5.5679834    746.97777  0.043288002  0.043219856            2 
 1439000    1.0269558   -5.5537621     750.2301  0.043446265  0.043211884           12 
 1440000    1.0283288   -5.5752683    748.40654  0.043310564  0.043203661            5 
 1441000    1.0090271   -5.5575979    750.78314  0.043417947  0.043195568            4 
 1442000    1.0201568   -5.5875888     747.9142  0.043222041  0.043187166            3 
 1443000    1.0233154   -5.5949392    751.15255  0.043379103  0.043178194            4 
 1444000    1.0110158   -5.5639733     749.6521  0.043262471  0.043169709            4 
 1445000    1.0157565   -5.5729668    750.02153  0.043253837  0.043161258            4 
 1446000    1.0265252   -5.5302546    751.69077  0.043320123  0.043152699            2 
 1447000    1.0338137   -5.5604624    752.63803  0.043344738   0.04314432            4 
 1448000    1.0197028    -5.548766    750.71377  0.043204061  0.043135686            5 
 1449000    1.0076301   -5.5487583    752.18767   0.04325901  0.043127306            1 
 1450000    1.0041126    -5.519364    753.67888  0.043314878  0.043118768            2 
 1451000    1.0408572   -5.6060219    753.19391  0.043257174  0.043110273            4 
 1452000    1.0128525   -5.5398515    753.92422  0.043269297  0.043101828            4 
 1453000    1.0043247   -5.5428992    751.80356  0.043117892  0.043093189            4 
 1454000     1.004362   -5.5371651    753.90395  0.043208617   0.04308483            2 
 1455000   0.99882294   -5.5801833    752.22318  0.043082656  0.043076336            3 
 1456000    1.0137178   -5.5997383    751.06094  0.042986546  0.043067512            6 
 1457000    1.0093994   -5.5903383    754.42995  0.043149734   0.04305874            3 
 1458000    1.0059832   -5.5946744    753.48743  0.043066268  0.043050147            2 
 1459000    1.0312046   -5.5797405    754.50976  0.043095143   0.04304142            4 
 1460000     1.011739   -5.5630126    754.53914  0.043067302  0.043032661            3 
 1461000     1.036903   -5.5950922    754.17324  0.043016954  0.043024038            3 
 1462000    1.0175635   -5.5755206    754.96897  0.043032887   0.04301517            5 
 1463000    1.0236796   -5.5623403     758.1035  0.043182018  0.043006684            6 
 1464000    1.0109854   -5.5529171    757.72886  0.043131196  0.042998344            3 
 1465000    1.0086895   -5.5590355    758.73846  0.043159184  0.042989761            3 
 1466000    1.0126355   -5.5416015    760.78078  0.043245838  0.042981477            2 
 1467000     1.039552   -5.5868278    758.36897  0.043079355  0.042973215            3 
 1468000    1.0201368   -5.6077472    757.41439  0.042995821  0.042964552            2 
 1469000     1.025192   -5.5762106    757.76847  0.042986639  0.042956127            2 
 1470000    1.0126014   -5.5927295    759.91309  0.043078973  0.042947526            5 
 1471000     1.034483   -5.5660201    758.01708  0.042942277  0.042939152            3 
 1472000    1.0306506    -5.568309    759.82382  0.043015388  0.042930379            4 
 1473000   0.99894723   -5.5693015     761.4119   0.04307603  0.042921809            3 
 1474000    1.0073153   -5.5622174    762.14561  0.043088286  0.042913099            3 
 1475000    1.0106071   -5.5788825    760.87743  0.042987425  0.042904348            3 
 1476000    1.0383525   -5.5881886    760.60883  0.042943136  0.042895972            3 
 1477000    1.0113967   -5.5870807    761.88294  0.042985948  0.042887139            4 
 1478000      1.01177   -5.5972532    761.43826  0.042931792  0.042878343            3 
 1479000   0.98542902   -5.5847951    762.10073  0.042940091  0.042869789            2 
 1480000    1.0164876   -5.5948443    763.30682  0.042978987  0.042861143            2 
 1481000    1.0098101   -5.5732116    762.65947  0.042913542  0.042852709            2 
 1482000      1.00384   -5.5928705    764.08827  0.042964928  0.042844348            4 
 1483000    1.0051623   -5.5983435    762.12642  0.042825715  0.042835779            2 
 1484000    1.0308377   -5.5580384    765.97828  0.043013156   0.04282751            6 
 1485000    1.0236749   -5.5717835    768.50332  0.043125888  0.042818954            2 
 1486000    1.0072483   -5.6027134    765.43792  0.042924962  0.042810549            3 
 1487000   0.99663966    -5.558248    768.47065  0.043066053  0.042802328            3 
 1488000    1.0190161   -5.5700498    765.95762  0.042896372  0.042794008            4 
 1489000   0.99737785   -5.6271894    765.78553  0.042857932  0.042785514            4 
 1490000    1.0287735   -5.5558733     769.4592  0.043034631  0.042777125            4 
 1491000    1.0002656   -5.5626883    767.56435  0.042899863  0.042768453            3 
 1492000    1.0251744   -5.5714471    767.04485  0.042842094  0.042759972            4 
 1493000    1.0040128   -5.5640347    768.36924  0.042887321   0.04275146            5 
 1494000    1.0165237   -5.5732846    770.35169  0.042969193  0.042742836            4 
 1495000    1.0213237   -5.5583243    768.37075  0.042830031  0.042734465            2 
 1496000     1.005836   -5.5378695    771.90565  0.042998309  0.042726049            4 
 1497000    1.0001688   -5.5912464    768.53832  0.042782138  0.042717691            3 
 1498000    1.0038354   -5.5698023    769.40846  0.042801984  0.042709228            5 
 1499000    1.0186036   -5.5965065    770.15647  0.042815014  0.042700719            5 
 1500000    1.0032046   -5.5700664    771.51115  0.042861731  0.042692136            3 
 1501000     1.017747   -5.5792747    772.52301  0.042889352  0.042683824            4 
 1502000    1.0070247   -5.5899868    770.88429  0.042769878  0.042675409            4 
 1503000   0.98386304   -5.6016683    771.84247  0.042794548  0.042666804            3 
 1504000    1.0177576   -5.5666244    772.33835   0.04279357   0.04265797            3 
 1505000    1.0441643   -5.5885541    771.18753  0.042701414  0.042649219            5 
 1506000    1.0055753   -5.5798472    772.00056  0.042718048   0.04264039            2 
 1507000    1.0002183   -5.5771794    772.53786  0.042719413  0.042631525           10 
 1508000    1.0092442   -5.5958269    774.47254  0.042797996  0.042622755            3 
 1509000   0.99988105   -5.5913371    774.96784  0.042796987  0.042613973            4 
 1510000    1.0066098     -5.57965    775.38605  0.042791725  0.042605466            7 
 1511000    1.0050504   -5.5867236    774.50653  0.042714898  0.042596769            3 
 1512000    1.0198791   -5.6338756    772.85931  0.042595861  0.042587957            6 
 1513000    1.0115095     -5.61664    772.89564  0.042569709  0.042578963            4 
 1514000    1.0235834   -5.5802003    775.76687  0.042699629   0.04257009            4 
 1515000    1.0034178   -5.5923833    777.62338  0.042773563  0.042561253            3 
 1516000     1.020966   -5.5581226    777.72837   0.04275112  0.042552724            5 
 1517000     1.019577   -5.5922044    776.02285  0.042629249  0.042544135            5 
 1518000   0.99366554   -5.6172824    777.89563  0.042703976  0.042535458            4 
 1519000    1.0139761   -5.6011317    776.84737  0.042618355  0.042526713            2 
 1520000    1.0060682   -5.5910048    775.04628  0.042491572  0.042518157            6 
 1521000    1.0160843   -5.5691964    774.86447  0.042453675  0.042509228            6 
 1522000     1.025217   -5.5603853    780.71117  0.042745903  0.042500773            5 
 1523000    1.0102363   -5.6301635    774.59941  0.042383422  0.042491945            3 
 1524000    1.0044473   -5.6016103    779.17844  0.042605995  0.042482981            4 
 1525000   0.98482098   -5.6442154    775.91894  0.042399942  0.042474038            3 
 1526000    1.0274534   -5.5940257    779.50126  0.042567784  0.042465123            4 
 1527000    1.0234672   -5.5528808    783.59688  0.042763419  0.042456459            3 
 1528000   0.97937512   -5.5965071    778.59508  0.042462646  0.042447839            5 
 1529000    1.0020201   -5.5718962    782.68161  0.042657598  0.042439228            4 
 1530000    1.0118956   -5.5777186    780.92862  0.042534238  0.042430819            2 
 1531000    1.0213655   -5.5708428    784.14204  0.042681365  0.042422477            2 
 1532000    1.0100807   -5.6134176    783.50047  0.042618607  0.042413849            5 
 1533000    1.0089439   -5.6095034    782.09741  0.042514537  0.042405322            3 
 1534000   0.97946293   -5.5896756    780.93201  0.042423512  0.042396922            3 
 1535000    1.0235818   -5.5506787     784.5067   0.04258994  0.042388745            3 
 1536000    1.0100296   -5.5694588    785.41177  0.042611316  0.042380438            7 
 1537000     1.008501   -5.6026687    782.38172  0.042419308  0.042371837            2 
 1538000    1.0090869   -5.6006368    784.55933  0.042509717  0.042363142            2 
 1539000    1.0038939   -5.5889314    786.11104  0.042566117  0.042354463            3 
 1540000   0.98506543   -5.6184976    784.05877  0.042427422  0.042345882            2 
 1541000    1.0176631   -5.5955309    785.68512  0.042487839  0.042337249            3 
 1542000    0.9849724   -5.6240032    784.07247  0.042373134  0.042328514            3 
 1543000   0.99869586   -5.5825446    785.47133  0.042421221  0.042319892            4 
 1544000    1.0102684   -5.5883447    785.51916  0.042396327  0.042311265            2 
 1545000   0.99176503   -5.6414817    785.92049  0.042390533  0.042302624            2 
 1546000    1.0166958   -5.6080284    784.26947   0.04227412  0.042294048            4 
 1547000   0.99969814   -5.5913834    785.87555  0.042333309  0.042285376           10 
 1548000    1.0302626   -5.6034176    785.42055  0.042281468   0.04227687            6 
 1549000   0.98621391   -5.5834562    788.63066   0.04242687  0.042268324            3 
 1550000   0.99072155   -5.5390107    790.80762  0.042516539  0.042259635            4 
 1551000    1.0117188   -5.5880018    788.21514  0.042349836  0.042250887            2 
 1552000    1.0157166   -5.6058232    788.34554   0.04232955  0.042242054            3 
 1553000   0.99147161   -5.5998034    790.67299  0.042427183  0.042233183            4 
 1554000   0.99949454   -5.5898098    788.72173  0.042295245   0.04222445            4 
 1555000   0.98364711   -5.6120096     786.4681  0.042147272  0.042215882            4 
 1556000   0.99014232   -5.6019308    792.05375  0.042419331  0.042207116            4 
 1557000    0.9951434    -5.650458    787.25283  0.042135133  0.042198215            2 
 1558000    1.0079205    -5.604619    791.98486  0.042361193   0.04218949            4 
 1559000   0.99283009   -5.5729838    789.21428  0.042185925   0.04218053            4 
 1560000   0.99658635   -5.6110445    789.90508  0.042195784  0.042171713            4 
 1561000   0.97790977   -5.5846462    790.68612  0.042210448  0.042163007            3 
 1562000   0.99551314   -5.6055605    790.90479  0.042195091  0.042153864            1 
 1563000     1.021455   -5.6244478    791.84568   0.04221826  0.042144729            4 
 1564000    1.0177857   -5.6394564    791.98689   0.04219879   0.04213581            4 
 1565000    1.0073135   -5.5760982    794.09176  0.042283906   0.04212699            7 
 1566000    1.0045026   -5.6083267    790.00012  0.042039172  0.042118062            3 
 1567000    1.0103718   -5.6131527    790.35703  0.042031325   0.04210914            6 
 1568000   0.98643274   -5.6429661    791.74798  0.042078443  0.042100134            2 
 1569000    1.0014219   -5.6135001    792.64012  0.042099008  0.042091238            2 
 1570000   0.97379894   -5.5888819    792.41645  0.042060321   0.04208237            7 
 1571000   0.99649179    -5.580492    793.77272  0.042105491  0.042073333            3 
 1572000   0.99243822   -5.6359678    793.46394  0.042062338  0.042064377            5 
 1573000    0.9770224   -5.6230742    793.56564  0.042040985  0.042055347            4 
 1574000    1.0046889   -5.6184355    795.86701  0.042136118  0.042046347            4 
 1575000   0.99101563   -5.5817747     795.4309  0.042086291  0.042037176            2 
 1576000    0.9789121   -5.6017795    794.45359   0.04200791  0.042028376            4 
 1577000    1.0141797   -5.6001023    795.99136  0.042062532  0.042019441            2 
 1578000    1.0074056   -5.6393207    793.77231   0.04191869  0.042010247            4 
 1579000    1.0124484   -5.5831512    799.29672  0.042183699  0.042001276            3 
 1580000   0.98667056   -5.6146294    792.83164  0.041816015  0.041992343            3 
 1581000   0.99412527   -5.6095982    796.74995  0.041996097  0.041983331            5 
 1582000   0.99445866   -5.6105779    795.52214  0.041904875  0.041974471            3 
 1583000   0.98978195   -5.5989083     798.5549  0.042038055  0.041965643            2 
 1584000   0.99684431   -5.6046293    796.11019  0.041882901  0.041956587            2 
 1585000   0.97544605   -5.6450953    796.10231  0.041856063  0.041947421            2 
 1586000   0.99099739    -5.570993    800.54889  0.042063309  0.041938562            5 
 1587000   0.99259725   -5.6221696     799.3649  0.041974633   0.04192969           12 
 1588000   0.98167062   -5.6125906    798.89557  0.041923571  0.041920784            5 
 1589000    1.0013409    -5.595179    802.35675  0.042078705  0.041911842            2 
 1590000   0.98060477   -5.6346052    798.78689  0.041865141  0.041903065            5 
 1591000   0.98673972   -5.6270504    797.81456  0.041787899  0.041893935            4 
 1592000   0.99412913   -5.6246833    799.29532   0.04183916  0.041884916            4 
 1593000   0.99609613   -5.6264797    801.21568  0.041913354  0.041875832            5 
 1594000    1.0109272   -5.6075693    800.81672  0.041866202   0.04186678            6 
 1595000   0.97296951    -5.588427    801.93547  0.041898405  0.041857968            8 
 1596000   0.99718315   -5.6282002     801.4095   0.04184469  0.041849179            7 
 1597000    1.0086205   -5.6157165     801.4159  0.041818822  0.041840308            2 
 1598000    1.0109885   -5.6298328    801.42592  0.041793175   0.04183115           11 
 1599000   0.98330067   -5.6065144    803.61696  0.041881226  0.041821952            2 
 1600000   0.99786817   -5.5833489    802.45311  0.041794433  0.041813046            3 
 1601000   0.99746483   -5.6343359    803.74857  0.041835757  0.041804064            5 
 1602000   0.98797449   -5.6166413     805.2321  0.041886813  0.041795056            6 
 1603000   0.97126509   -5.6435413    804.36826  0.041815776  0.041786091            3 
 1604000    1.0072407   -5.6446883      803.397  0.041739246  0.041777033            6 
 1605000   0.99083656   -5.6113159     804.0038  0.041744746  0.041767981            6 
 1606000   0.99572482   -5.6485948    804.48069  0.041743498  0.041759008            4 
 1607000    1.0063332   -5.5826152    809.14268  0.041959276  0.041750337            3 
 1608000    1.0126686   -5.6537631    806.55288  0.041798968  0.041741643            3 
 1609000   0.98608936   -5.6447223    805.31118  0.041708679  0.041732839            7 
 1610000   0.99481425   -5.6475858    806.31293  0.041734624  0.041723832            3 
 1611000   0.98209839   -5.6076065    809.90794  0.041894679  0.041715375            4 
 1612000   0.98832894   -5.5996037    807.40372  0.041739233  0.041706966            2 
 1613000   0.97589638   -5.6104459    812.03269  0.041952505  0.041698357            6 
 1614000    1.0030056   -5.6093644    809.72785   0.04180751  0.041689668            3 
 1615000   0.99958807    -5.613728    807.80226  0.041682263  0.041681232            9 
 1616000   0.99153823   -5.5866627    812.22495  0.041884537  0.041672736            6 
 1617000    1.0012791   -5.5967917    811.71475  0.041832342  0.041664296            8 
 1618000   0.98558424   -5.6000166    812.89766  0.041867411  0.041655821            7 
 1619000     1.006765    -5.625101    809.56096  0.041669804  0.041647549            6 
 1620000   0.97966771   -5.6422527    811.83933  0.041761282  0.041639095            3 
 1621000   0.97293038   -5.6434542    811.08801  0.041696895   0.04163047            2 
 1622000   0.99295222   -5.6088519    815.56877  0.041901396  0.041621978            3 
 1623000    1.0119627   -5.6688257     809.3594  0.041556757  0.041613256            4 
 1624000   0.98708649   -5.6314932    812.30739   0.04168244  0.041604666            5 
 1625000   0.97769245   -5.6451766    813.41864  0.041713776  0.041595995            5 
 1626000    1.0146349   -5.6442357    811.67325   0.04159867  0.041587315            9 
 1627000   0.98577384   -5.6159296    817.68502  0.041881019  0.041578486            3 
 1628000    1.0045646   -5.6624894    814.21028   0.04167743   0.04156995            6 
 1629000   0.98211825    -5.667667    811.85245  0.041531228  0.041561194            5 
 1630000   0.97747642    -5.616605    814.89696  0.041661399  0.041552463            3 
 1631000   0.98396852   -5.6277381    815.98262  0.041691325   0.04154385            2 
 1632000   0.99147755   -5.6534628    815.76606  0.041654721   0.04153528            3 
 1633000   0.98820918   -5.6353509    815.58199   0.04161982  0.041526716            2 
 1634000   0.99878024   -5.6310828    814.55308  0.041541875  0.041518114            6 
 1635000     0.974431   -5.5803955    821.67987  0.041879708  0.041509441            3 
 1636000   0.97017885   -5.6287295    817.55783  0.041644144    0.0415008            6 
 1637000    1.0054071   -5.5732575    818.53522   0.04166846  0.041492272            5 
 1638000     0.969616   -5.6414086    818.59213  0.041645916  0.041483808            4 
 1639000   0.98631564   -5.6595767    816.09232  0.041493406  0.041475379            4 
 1640000    1.0018993    -5.619662    819.46126  0.041639292  0.041466773            4 
 1641000   0.98155016   -5.6860136    817.28392  0.041503347  0.041458381            6 
 1642000   0.98888489   -5.6395408    820.03478  0.041617681  0.041450071            7 
 1643000   0.98058467   -5.6305421    821.52372   0.04166787  0.041441788            3 
 1644000   0.95965082   -5.6280942    820.53396  0.041592354  0.041433651            6 
 1645000   0.98414407   -5.6546695    819.78365   0.04152906  0.041425371            6 
 1646000    1.0156425   -5.6681131    820.39307  0.041534683  0.041417089            5 
 1647000   0.97053019    -5.662707    820.82425  0.041531282  0.041408791            4 
 1648000    0.9701118    -5.639109    821.90767  0.041560865  0.041400642            2 
 1649000    1.0109396   -5.6311675    822.69585  0.041575493  0.041392414            3 
 1650000    1.0006729    -5.653845    822.96036  0.041563654  0.041383842            4 
 1651000   0.98143893   -5.6738503    823.01664   0.04154132  0.041375173            5 
 1652000   0.98401139   -5.6228944    823.90166  0.041560818  0.041366692            5 
 1653000   0.99356032   -5.6513347    820.60914  0.041369688  0.041358213            4 
 1654000   0.99353972   -5.6786371    820.53718  0.041341051  0.041349426            6 
 1655000   0.98031062   -5.6796116    824.33001   0.04150705  0.041340716           11 
 1656000   0.97987444   -5.6684433     824.4121  0.041486116  0.041332331            4 
 1657000   0.98705614   -5.6342966    825.06139  0.041493733  0.041323738           11 
 1658000    1.0004626   -5.6519874    824.76049  0.041453583  0.041315545            3 
 1659000   0.99059576   -5.6114723    829.72132  0.041677784  0.041307355            3 
 1660000   0.96502326   -5.6438927    825.29745  0.041430595  0.041298961            2 
 1661000   0.98520631   -5.6676205    826.73551    0.0414778  0.041290531            2 
 1662000   0.97216672    -5.656835    823.84313  0.041307818  0.041282007            6 
 1663000    0.9867712   -5.6401967     827.9358  0.041488064  0.041273555            2 
 1664000   0.99957033   -5.6098705    827.83708  0.041458187  0.041265147            2 
 1665000    1.0117778   -5.6642818    828.86887  0.041484929  0.041256816            5 
 1666000    1.0035095   -5.6371031     829.5958  0.041496389  0.041248466            4 
 1667000    1.0087335   -5.6290786    830.46079  0.041514737  0.041240306            2 
 1668000    0.9821086   -5.6736654    828.04245  0.041369027  0.041231857            6 
 1669000   0.98261887   -5.6681928    828.67929  0.041376038  0.041223727            4 
 1670000   0.99875157   -5.6134476    829.76328  0.041405353  0.041215241            5 
 1671000   0.98660393   -5.6510501    830.17833  0.041401273  0.041207052            5 
 1672000   0.96743699   -5.6262551    832.14163  0.041474363  0.041198828            3 
 1673000   0.98365068   -5.6532383    830.43683  0.041364656  0.041190758            4 
 1674000   0.97748748   -5.6254787    830.86235  0.041361129  0.041182417            8 
 1675000   0.98429599    -5.638384     833.0656   0.04144605  0.041174157            3 
 1676000   0.98467138   -5.6450186    832.93615  0.041414884  0.041165839            3 
 1677000   0.98307454   -5.6308731    832.24421  0.041355805  0.041157472            4 
 1678000    1.0021256   -5.6323707     831.3185  0.041285186  0.041149116            3 
 1679000   0.99442977    -5.638502    830.82761  0.041236232   0.04114057            3 
 1680000   0.96466508   -5.6638667    833.07057  0.041322945  0.041132024            4 
 1681000   0.97390467     -5.62642    830.65118  0.041178425  0.041123544            6 
 1682000   0.99362399   -5.6755129    833.58141  0.041299119  0.041115165            3 
 1683000   0.97962184   -5.6546945    833.86318  0.041288531  0.041106696            5 
 1684000   0.98100142   -5.6397771    834.24291  0.041282804  0.041098514            5 
 1685000   0.99472373    -5.689555    832.46553  0.041170402    0.0410901            5 
 1686000   0.99090531   -5.6609777    833.96399  0.041220047  0.041081907            4 
 1687000   0.98232103   -5.6760953    835.71306  0.041282013  0.041073743            4 
 1688000   0.98015409   -5.6411728    835.25595   0.04123499  0.041065486            7 
 1689000   0.97957017   -5.6246509    835.12449   0.04120409  0.041057186            6 
 1690000   0.97616013   -5.6283862    835.43062  0.041194804  0.041048922            6 
 1691000   0.96732327   -5.6419401    836.92442  0.041244058  0.041040878            8 
 1692000    1.0026213   -5.6817277    836.60713  0.041204055  0.041032514            3 
 1693000   0.98459098   -5.6506112    838.87811    0.0412915  0.041024181            8 
 1694000   0.96998151    -5.649166    837.62323  0.041205393  0.041015861            2 
 1695000   0.96977148   -5.6437887    839.12231  0.041254784  0.041007452            5 
 1696000   0.97371586   -5.6279355    840.01772  0.041274456  0.040999363            4 
 1697000   0.97119296   -5.6453524    840.87888  0.041292422  0.040991231            5 
 1698000   0.97194276   -5.6002709    843.69972  0.041406543  0.040983142            3 
 1699000   0.96871999   -5.6463282    839.93317  0.041197429  0.040974959            3 
 1700000   0.97132754   -5.6441772    842.82007  0.041314709  0.040966842            6 
 1701000    0.9755887   -5.6762047     837.3727   0.04102355  0.040958674            5 
 1702000   0.97623894   -5.6708875    840.36691  0.041146049  0.040950486            3 
 1703000   0.97167718   -5.6842349    842.15708  0.041209487  0.040942472            3 
 1704000   0.97418571   -5.6296484    842.05169  0.041180149  0.040934231            2 
 1705000   0.97374152   -5.6426684    841.28939  0.041118739  0.040926071            5 
 1706000   0.97347233   -5.6441536    841.40959  0.041100508    0.0409179            6 
 1707000   0.97813253   -5.6591889     844.8898  0.041246329   0.04090977            7 
 1708000   0.99457416    -5.663238    842.18957  0.041090436  0.040901654            5 
 1709000   0.99044591   -5.6580974    844.92147  0.041199604  0.040893312           10 
 1710000   0.97838534   -5.6920464     843.3137  0.041097159   0.04088509            4 
 1711000   0.97272516   -5.7119896    842.73686  0.041045045  0.040876751           12 
 1712000   0.98181302   -5.6584981    843.52665  0.041059514  0.040868362            8 
 1713000   0.99092909   -5.6692998    843.37351  0.041028095  0.040860061            2 
 1714000   0.98627613   -5.6302662     845.7597  0.041120172  0.040851884            2 
 1715000   0.99018974   -5.6583258    842.91859  0.040958143  0.040843589            4 
 1716000   0.97201002   -5.6263109     846.3288  0.041099883  0.040835325            8 
 1717000   0.99236631   -5.6485837    843.82711  0.040954529  0.040827061            4 
 1718000   0.98054576   -5.6434554    847.59757   0.04111358  0.040818871            3 
 1719000   0.99081171   -5.6145092    848.21291  0.041119493  0.040810639            6 
 1720000   0.97983584   -5.6525305    846.82974  0.041028572   0.04080263            7 
 1721000   0.97600246   -5.6629491    845.71817  0.040950909  0.040794328            5 
 1722000   0.98304471   -5.6799148    847.90305  0.041032862  0.040786209            5 
 1723000   0.97841649   -5.6679384    848.47777  0.041036843  0.040778066            8 
 1724000   0.98203447   -5.6461488    846.35666  0.040910511  0.040769984            3 
 1725000   0.96957408   -5.6364106    850.69183  0.041096223  0.040761944            2 
 1726000   0.97574965   -5.6706419    848.26066  0.040955034  0.040753882            7 
 1727000   0.97208818   -5.6581384    847.91221  0.040914505  0.040745425            3 
 1728000   0.98655281   -5.6256155    849.22199  0.040953993  0.040737261            5 
 1729000   0.97411567   -5.6384698    851.59951  0.041044896   0.04072924            6 
 1730000   0.96421763   -5.7107326    846.84693  0.040792241  0.040721172            8 
 1731000   0.96856134   -5.6335026    851.17283  0.040976932  0.040712959            3 
 1732000    0.9815166   -5.6492051    852.31234    0.0410081   0.04070479            4 
 1733000   0.99389879   -5.6827853    848.29844  0.040791423  0.040696616            3 
 1734000   0.97442077   -5.6726322    851.28652  0.040911501  0.040688276            7 
 1735000   0.95338852    -5.652506    851.85625  0.040915286  0.040679904            4 
 1736000   0.97093918   -5.6527479    851.21906   0.04086113  0.040671872            8 
 1737000   0.94341875   -5.6822585    853.25052  0.040935066  0.040663722            4 
 1738000   0.96073995   -5.6546388    850.74931  0.040791586  0.040655435            3 
 1739000   0.98743803   -5.6584221    855.14813  0.040978921  0.040647344            3 
 1740000    0.9784689   -5.6762235     856.2837  0.041009756  0.040639275            2 
 1741000   0.96471615   -5.6546981    853.69293  0.040862193  0.040631213            5 
 1742000   0.95398879   -5.6750684     855.0579  0.040904033  0.040623095            2 
 1743000   0.97417413   -5.6693472    857.32252  0.040988837  0.040614986           10 
 1744000   0.96391992   -5.6498049    854.37489  0.040824488  0.040606886            4 
 1745000   0.98326659   -5.6778193    854.39914  0.040802251  0.040598685            4 
 1746000   0.98965895   -5.6703342    855.06178  0.040810509  0.040590695            5 
 1747000   0.96963536   -5.6522191    855.70145  0.040817661  0.040582617            5 
 1748000   0.99804916   -5.6378208    856.98544  0.040855522  0.040574425            6 
 1749000   0.96559448   -5.6801553    855.47428  0.040760162  0.040566252            5 
 1750000   0.96816171   -5.6533763    858.09695  0.040861759  0.040558048            4 
 1751000   0.98493857   -5.6502852    858.29292   0.04084775  0.040549867            2 
 1752000    0.9751972   -5.6861604    858.03722  0.040812273  0.040541777            5 
 1753000   0.98971539   -5.6591896    859.92939  0.040878941  0.040533465            5 
 1754000    1.0053745   -5.7007677    856.06701  0.040672131  0.040525465            4 
 1755000   0.96501268   -5.6977322    855.11528  0.040603765  0.040517238            4 
 1756000   0.95808532   -5.6820115    858.43972  0.040738407  0.040509084           14 
 1757000   0.96951641    -5.672944     857.9478   0.04069189  0.040500943            4 
 1758000   0.97979164   -5.6678701    861.86973  0.040854652  0.040492659            2 
 1759000    0.9510745   -5.6964095    855.99483    0.0405531  0.040484375            6 
 1760000    0.9614124   -5.6881667    855.57317  0.040510093  0.040475786            2 
 1761000    0.9339659    -5.687455    856.93936  0.040551739   0.04046736            4 
 1762000   0.96967684   -5.6783992    857.58273  0.040559153  0.040458971           11 
 1763000   0.99060025   -5.6700853    858.83135  0.040595167  0.040450714            5 
 1764000   0.95565756   -5.6635836    861.24032  0.040685956  0.040442366            4 
 1765000   0.96897887   -5.6944456    856.72544  0.040449738  0.040433685            3 
 1766000    0.9775559   -5.6465579    860.79925  0.040619066  0.040425004            2 
 1767000   0.97375635   -5.6579298    859.97257  0.040557092  0.040416618            4 
 1768000   0.96699824   -5.7076421    859.91785  0.040531573  0.040408104            3 
 1769000    0.9668796    -5.701735    857.70942  0.040404627  0.040399562            8 
 1770000   0.97151449    -5.728042     858.4203  0.040415268  0.040390828            4 
 1771000   0.96338585   -5.6703408    860.87385  0.040507898  0.040382101            3 
 1772000   0.95481584   -5.6898058    858.83035  0.040388937  0.040373471            4 
 1773000   0.96076208    -5.650019    861.30773  0.040482597  0.040364822            6 
 1774000   0.96289816   -5.7041272    859.22281  0.040361838  0.040356227            4 
 1775000   0.96470752   -5.7022387    861.36006  0.040439439  0.040347505            5 
 1776000   0.97160885   -5.6824942    861.08771   0.04040389  0.040338699            3 
 1777000   0.96541926   -5.6691331    863.31997  0.040485836  0.040329879            4 
 1778000   0.97239065   -5.6767099    860.85268  0.040347426  0.040321205            5 
 1779000   0.98392616   -5.7081516    858.63388  0.040220811  0.040312509            3 
 1780000   0.97150146   -5.6813097    862.78019  0.040392331  0.040303722            3 
 1781000   0.97975592   -5.6544319    863.32998  0.040395376  0.040295099            4 
 1782000   0.95569225   -5.6674019    863.61895  0.040386221  0.040286371            1 
 1783000   0.96687576   -5.6856857    862.22002  0.040298188  0.040277701            3 
 1784000   0.96815065   -5.7081223    862.30854  0.040279734  0.040269053            2 
 1785000   0.97268795   -5.6749577     863.4018  0.040308207  0.040260239            6 
 1786000    0.9751753    -5.677094    863.11152  0.040272094   0.04025143            4 
 1787000   0.94510467   -5.6694856    867.50406  0.040454395  0.040242739            3 
 1788000   0.97329176   -5.6613541    862.78876  0.040212004  0.040234123            5 
 1789000   0.94856364   -5.6970685    864.31947  0.040260829  0.040225409            6 
 1790000   0.95453886   -5.6674517    866.58337  0.040343732  0.040216738            2 
 1791000   0.97863539   -5.6806511    862.52442  0.040132348  0.040208011            4 
 1792000   0.96242967   -5.6988995    864.27749  0.040191476  0.040199332            4 
 1793000   0.96136167   -5.7031676    863.62042  0.040138521  0.040190424            4 
 1794000   0.97290938   -5.6888635     867.5536  0.040298848  0.040181696            2 
 1795000   0.95619552   -5.6794298    868.12354  0.040302857     0.040173            5 
 1796000   0.97696811    -5.674894    867.79319  0.040265089  0.040164378            2 
 1797000   0.95118114   -5.6873497    866.22034  0.040169743  0.040155682            4 
 1798000   0.96030158   -5.6798634    869.71415  0.040309332  0.040146969            4 
 1799000   0.95059503   -5.7172939    868.80155  0.040244652  0.040138263            3 
 1800000   0.96032015   -5.7009895    867.31878  0.040153647   0.04012954            4 
 1801000   0.95592209   -5.7143716    868.55688   0.04018864  0.040120761            2 
 1802000   0.95139239   -5.7238881    864.58383  0.039982604  0.040111832            5 
 1803000   0.95190211   -5.6793798    870.92711   0.04025361  0.040103153            4 
 1804000    1.0007943   -5.6561051    870.75343  0.040223274  0.040094599            4 
 1805000   0.95603887   -5.6870602    869.88159  0.040160738  0.040085834            3 
 1806000   0.97881481   -5.6496619    872.62471  0.040265075  0.040077109            8 
 1807000   0.96573317   -5.6911463    870.18465  0.040130264  0.040068505            7 
 1808000    0.9589656   -5.6780089    871.92206  0.040188148  0.040059923            3 
 1809000   0.95766156   -5.6623814    871.91642  0.040165673  0.040051422            3 
 1810000    0.9510989   -5.7376163    870.81402  0.040092726  0.040042827            3 
 1811000   0.95214277   -5.7162544    872.58042  0.040151869  0.040034207            4 
 1812000   0.94555534   -5.7042913    869.97007  0.040009661  0.040025537            3 
 1813000   0.95923203   -5.6771112    873.95499  0.040170757  0.040017102            2 
 1814000   0.96838199   -5.7267788    869.59917   0.03994851  0.040008662            5 
 1815000   0.95909417   -5.6933171    874.14785  0.040135347  0.040000086            3 
 1816000   0.95679533   -5.7153289    871.47822  0.039990741  0.039991509            5 
 1817000    0.9576571   -5.6674113    873.42968  0.040058231  0.039982891            3 
 1818000   0.93750416   -5.7004141    874.28752  0.040075519  0.039974293            4 
 1819000   0.95449982    -5.679342    874.66536  0.040070797  0.039965382            6 
 1820000   0.96298083   -5.7203042    872.45316  0.039947489  0.039956552            3 
 1821000   0.98417243   -5.6888045    874.13102  0.040002335  0.039947865            4 
 1822000   0.94459659   -5.6964038    874.11715  0.039979745  0.039939099            5 
 1823000   0.97849353   -5.6973488    875.89073  0.040038889  0.039930389            7 
 1824000   0.97630819   -5.6728054    877.80904   0.04010458  0.039921822            4 
 1825000    0.9330937   -5.7302552    874.59887  0.039936021   0.03991298            4 
 1826000   0.97979378   -5.7035563    878.10043  0.040073952  0.039904194            4 
 1827000   0.93306614   -5.6834898    875.96217  0.039954487  0.039895385            7 
 1828000   0.92109007   -5.7068325     874.3082   0.03985723  0.039886544            5 
 1829000   0.95626482    -5.734808    871.96466  0.039728662  0.039877551            6 
 1830000   0.96473665   -5.7215978    874.90725  0.039840949  0.039868454            5 
 1831000   0.97261534   -5.6642229    877.64858  0.039943955  0.039859565            6 
 1832000   0.97157763   -5.7178572    873.66898  0.039741129  0.039850775            3 
 1833000   0.95315605   -5.7382825    874.41087  0.039753177  0.039841901            4 
 1834000   0.95348603   -5.7053569    874.28984  0.039726002  0.039832859            7 
 1835000   0.94813158   -5.7256214    878.51832  0.039896381   0.03982399            8 
 1836000   0.92709852   -5.6931339     876.9072  0.039801525  0.039815235            6 
 1837000   0.96509676   -5.7089127     876.3921  0.039756491  0.039806491            4 
 1838000   0.92543711   -5.6945434     881.3104  0.039957853  0.039797683            4 
 1839000    0.9531617   -5.6862392    881.22405  0.039932212  0.039788919            8 
 1840000   0.96154326   -5.7231996    878.05852  0.039767143   0.03978041            4 
 1841000   0.93823388    -5.689246    883.66991  0.039999543  0.039771983            3 
 1842000   0.95921448   -5.6980908    881.79689  0.039893091  0.039763333            3 
 1843000   0.94938507   -5.6832816    881.19903  0.039844413   0.03975464            2 
 1844000   0.97365689   -5.7272257    880.70627  0.039800536  0.039745796            2 
 1845000   0.95545165   -5.6869679    882.79214  0.039873177  0.039737086            6 
 1846000   0.94497786   -5.7316678    882.26193  0.039827642  0.039728404            4 
 1847000   0.95861525   -5.7114117     880.6515  0.039733419  0.039719397            5 
 1848000   0.98013792   -5.7357872    876.77643  0.039537177  0.039710462            4 
 1849000   0.95227918   -5.6984299    881.40624  0.039724457  0.039701579            6 
 1850000   0.93727356   -5.6799206    880.04708   0.03964176  0.039692842            5 
 1851000   0.96257066   -5.6814273    884.75288  0.039832203  0.039684222            4 
 1852000   0.95282191   -5.6925755    883.55725  0.039756896  0.039675476            3 
 1853000   0.95374234   -5.6876242    882.47717  0.039686867  0.039666653            3 
 1854000   0.94668498   -5.7030182    882.48144  0.039665653  0.039657969            7 
 1855000   0.94129834   -5.7204831    880.88124  0.039572383  0.039649024            6 
 1856000   0.93702977   -5.6982891    883.71835  0.039678446  0.039640133            2 
 1857000   0.95086626   -5.6850761    884.63085  0.039698028  0.039631375            3 
 1858000   0.95960275    -5.709416     885.5534  0.039718039   0.03962247            4 
 1859000   0.96297963   -5.7062627    881.46103  0.039513225  0.039613439            7 
 1860000   0.95565214   -5.7248081    886.50451  0.039717944  0.039604458            5 
 1861000   0.94852108   -5.7349314    881.27444  0.039462405  0.039595432            3 
 1862000   0.94083589   -5.6960768    885.34209  0.039623259  0.039586571            3 
 1863000   0.93284382   -5.7129215    884.86698  0.039580738   0.03957784            3 
 1864000    0.9613213   -5.7099596    884.84631   0.03955858  0.039568961            7 
 1865000    0.9533998   -5.6854034    888.34853  0.039693858  0.039560133            8 
 1866000   0.93300936   -5.6912154    884.83032  0.039515466  0.039551361            6 
 1867000   0.94577875   -5.7199542    884.67316  0.039487286  0.039542524            5 
 1868000   0.96662032   -5.7041769    887.00293  0.039570081   0.03953364            5 
 1869000   0.94280428    -5.706472     889.8902  0.039677644  0.039524817            3 
 1870000   0.93535058   -5.7003133    887.51795  0.039550711  0.039515903            3 
 1871000   0.93391949   -5.7073679    890.17066  0.039647722  0.039507128            3 
 1872000   0.93923837   -5.6916534       891.57  0.039688836  0.039498337            4 
 1873000    0.9326554   -5.6726027    889.79584   0.03958871  0.039489632            6 
 1874000    0.9565796   -5.6948636    886.69103  0.039429519  0.039480793            5 
 1875000   0.94104631   -5.7421481    887.29975  0.039435544   0.03947215            4 
 1876000   0.94688006   -5.7163215    891.26248  0.039590551  0.039463457            5 
 1877000   0.93372777   -5.7333211    891.41952  0.039576431  0.039454915            5 
 1878000   0.93672362   -5.7345861    891.90721  0.039576997  0.039446246            2 
 1879000   0.93655255   -5.7295206    891.87755  0.039554619  0.039437399            7 
 1880000   0.93580073   -5.7182525    891.70298  0.039525841  0.039428871            2 
 1881000   0.94746219   -5.7390634    890.73944  0.039462141  0.039420389            4 
 1882000    0.9330728   -5.7177356     894.3753  0.039602165  0.039411797            2 
 1883000   0.97003144   -5.7149348     893.8472  0.039557763  0.039403301            6 
 1884000    0.9485878   -5.6933643    895.63439  0.039615817  0.039394876            3 
 1885000   0.93400998    -5.718173    893.62392  0.039505921   0.03938646            6 
 1886000    0.9591118   -5.7081153    895.58947  0.039571822  0.039377807            3 
 1887000   0.93708385    -5.729674    892.87522  0.039430985  0.039369271            3 
 1888000   0.92592508   -5.7080631    894.31114  0.039473479  0.039360587            3 
 1889000   0.96169611   -5.7017453    895.36878   0.03949924  0.039352013            6 
 1890000   0.96312521    -5.711079    896.07606  0.039509526  0.039343419            3 
 1891000    0.9424373   -5.7220048     894.8218   0.03943336  0.039334814            3 
 1892000   0.94372976   -5.7088268    895.43327   0.03943945  0.039326113            5 
 1893000   0.94612416   -5.7634512    892.13866  0.039273581  0.039317387            5 
 1894000   0.94183648   -5.7264966    894.20592  0.039343802  0.039308721            3 
 1895000   0.93001655   -5.7372107    894.82966  0.039350469   0.03929995            8 
 1896000   0.95041137   -5.7297027    897.94563  0.039466668  0.039291168            5 
 1897000    0.9472275   -5.7708999    894.11865  0.039277748  0.039282517            7 
 1898000   0.93727595   -5.7125115    898.11984  0.039432729  0.039273915            4 
 1899000   0.93574875   -5.7483638    894.85862  0.039268853  0.039265256            6 
 1900000   0.95942447   -5.7246967    895.21302  0.039263729  0.039256626            6 
 1901000   0.96008981   -5.7666606     894.4419  0.039209271  0.039247961            4 
 1902000   0.95661262   -5.7184737    895.56255  0.039237756  0.039239208            4 
 1903000   0.94699906   -5.7442832    897.41393   0.03929821   0.03923047            3 
 1904000   0.94144448   -5.7372043    898.07723  0.039306602  0.039221703            3 
 1905000   0.96372888   -5.7193247     898.0371  0.039284213  0.039212943            8 
 1906000   0.92780529   -5.7465625    897.67361  0.039247709  0.039204207            3 
 1907000   0.92713939   -5.7272438    897.19351  0.039206149  0.039195417            8 
 1908000   0.94337725   -5.7676383    895.78422  0.039124049  0.039186583            3 
 1909000   0.94566334   -5.7562635    897.87019  0.039194613  0.039177883            4 
 1910000   0.93440112   -5.6960239     901.1478  0.039317094  0.039169052            5 
 1911000   0.94693878   -5.7527622    897.19096  0.039123973  0.039160319            4 
 1912000   0.93610579   -5.7318641    899.50887  0.039204536  0.039151615            3 
 1913000   0.94183685   -5.7196996    901.43193  0.039267814  0.039143007            7 
 1914000   0.95656988   -5.7486914    900.79635  0.039219625   0.03913437            5 
 1915000   0.95591747   -5.7085383    902.13331  0.039257324  0.039125808            6 
 1916000   0.93728932   -5.7517989    900.45123  0.039163676  0.039117185            6 
 1917000   0.95286541   -5.7224102    900.27205  0.039135457   0.03910846            5 
 1918000   0.98292677   -5.7535015    900.77099  0.039136731  0.039099893            4 
 1919000   0.91827751   -5.7515966       902.71  0.039200538  0.039091179            8 
 1920000   0.95641032   -5.6992246    904.38825  0.039252962  0.039082483            4 
 1921000    0.9488187   -5.7029607    904.75177  0.039248298  0.039073784            5 
 1922000   0.95224612   -5.7310903    903.72697  0.039183445  0.039065077            5 
 1923000   0.93887635   -5.7309189    903.27234  0.039143367   0.03905634            4 
 1924000   0.92412163   -5.7125012    903.86834  0.039148837  0.039047808            3 
 1925000   0.92759732   -5.7494662    901.55971  0.039028559  0.039039258            4 
 1926000   0.91443567   -5.7377882    901.79121  0.039018311  0.039030715            8 
 1927000   0.94939423     -5.74208    902.41101  0.039024866  0.039022002            5 
 1928000   0.94324695    -5.756135    903.36385   0.03904581  0.039013275            3 
 1929000   0.96893479   -5.7818451    902.62285  0.038993557  0.039004597            6 
 1930000   0.92828726   -5.7125604    906.78207  0.039152939  0.038996082            5 
 1931000   0.95572978     -5.75161    902.91995  0.038965991  0.038987409            4 
 1932000   0.94973297   -5.7368087    906.35223  0.039093868  0.038978645            4 
 1933000   0.92868445   -5.7516889     906.8956  0.039097068  0.038970008            3 
 1934000    0.9616831   -5.7543187    906.67082  0.039067167   0.03896136            4 
 1935000   0.95325625   -5.7524063    906.69679  0.039048096  0.038952581            3 
 1936000   0.92941928   -5.7420472    907.27019  0.039052608  0.038943962            8 
 1937000   0.92982931   -5.7357387    907.96551   0.03906236   0.03893534            3 
 1938000   0.94392437   -5.7562004    907.14968  0.039007124  0.038926667            7 
 1939000   0.94789964   -5.7619298    906.27234  0.038949301  0.038918013            6 
 1940000   0.93585064   -5.7429144    908.02109  0.039004342  0.038909358            7 
 1941000    0.9333675   -5.7370453    909.05968  0.039028837  0.038900904            4 
 1942000   0.93980607   -5.7555258    911.20335  0.039100727  0.038892567            3 
 1943000   0.94930482   -5.7283367    908.98112  0.038985294  0.038884086            5 
 1944000   0.92855985   -5.7075831    910.84739  0.039045241  0.038875636            4 
 1945000   0.94041503   -5.7273511    907.60406  0.038886206  0.038867099            5 
 1946000   0.94559929   -5.7243917    911.22277  0.039021187  0.038858626            5 
 1947000   0.94013819   -5.7497563    911.32984  0.039005729  0.038850178            4 
 1948000   0.95389406   -5.7609221    908.45238   0.03886261  0.038841584            4 
 1949000    0.9575953   -5.7488194    909.73609  0.038897558  0.038832927            4 
 1950000   0.94192714   -5.7520937    909.98848  0.038888397  0.038824396            4 
 1951000   0.95160763   -5.7341446    914.67861  0.039068794  0.038815763            2 
 1952000   0.92380112   -5.7289153    913.97504  0.039018743  0.038807306            2 
 1953000   0.92805253   -5.7405937    911.22281  0.038881328  0.038798877            4 
 1954000   0.95042633   -5.7423733    912.58069   0.03891934  0.038790215            4 
 1955000    0.9455276   -5.7444348    913.13486  0.038923055  0.038781543            6 
 1956000   0.93629893     -5.71608    914.98302  0.038981894  0.038772877            6 
 1957000   0.94086428   -5.7246541    915.97065   0.03900403  0.038764382            5 
 1958000     0.953473   -5.7364359    915.47108  0.038962848  0.038755924            5 
 1959000     0.915707   -5.7377929    913.54846  0.038861173  0.038747588            5 
 1960000   0.94891048     -5.75145    912.70963  0.038805682  0.038739013            5 
 1961000    0.9221906   -5.7743225    914.32774  0.038854655  0.038730454            6 
 1962000   0.94872909   -5.7500894    914.08253  0.038824436  0.038722081            3 
 1963000   0.94913114   -5.7217687    915.76244  0.038875974  0.038713506            3 
 1964000   0.92047456   -5.7439993    915.84154  0.038859536  0.038704972            4 
 1965000   0.93499101   -5.7727035    915.49347  0.038824999  0.038696625            6 
 1966000   0.95280121   -5.7891894     916.9586  0.038867353  0.038688064            4 
 1967000   0.93515964   -5.7451988    914.88609   0.03875979  0.038679612            4 
 1968000   0.95181456   -5.7371194    917.34455  0.038844197  0.038671179           10 
 1969000   0.94736014   -5.7533334    917.02908  0.038811117  0.038662814            4 
 1970000   0.93065412   -5.7475159    914.01019  0.038663714  0.038654286            2 
 1971000   0.94186473   -5.7241736    921.78955  0.038973006  0.038645966            6 
 1972000   0.92149234   -5.7467565      918.769    0.0388256  0.038637519            3 
 1973000   0.93239779   -5.7205238    918.03344  0.038774854   0.03862906            4 
 1974000   0.91202947   -5.7307609    920.04202  0.038840004  0.038620789            3 
 1975000   0.92458175   -5.7568915    919.23476  0.038786277  0.038612387            8 
 1976000   0.91964648   -5.7999447    919.43728  0.038775189  0.038603979            3 
 1977000   0.94760536   -5.7667733    918.55628   0.03871844  0.038595455            5 
 1978000   0.93802525   -5.7623145    921.55533  0.038825216  0.038586945            5 
 1979000   0.94066839   -5.7745462    919.66029    0.0387258  0.038578365            5 
 1980000   0.93984332   -5.7299736    920.03813  0.038722144  0.038570046           10 
 1981000    0.9365688   -5.7672785    921.19091   0.03875109  0.038561619            5 
 1982000   0.93142551   -5.7636595    920.45514  0.038700603  0.038553187            6 
 1983000   0.93634083   -5.7463405    920.98505  0.038703356  0.038544781            4 
 1984000   0.93458778   -5.7522557     922.5035  0.038747627  0.038536413            5 
 1985000   0.95234292   -5.7481331    921.81685   0.03869928  0.038528002            2 
 1986000   0.91822015   -5.7827248    921.62536  0.038671759  0.038519489            5 
 1987000    0.9301175   -5.7677278    922.74412  0.038699217  0.038511144            5 
 1988000   0.92877461   -5.7230563    924.29798  0.038744885  0.038503019            5 
 1989000    0.9170268   -5.7668875    921.70378  0.038616716  0.038494753            4 
 1990000   0.91043856   -5.7545098    923.79799  0.038685008  0.038486382            4 
 1991000   0.91810158   -5.7532046    923.25896  0.038643017   0.03847801            7 
 1992000   0.92356565    -5.744685    924.53829  0.038677137  0.038469688            4 
 1993000   0.95212516   -5.7642376    924.49437  0.038655894  0.038461442            5 
 1994000   0.93827928   -5.7691208     923.7338  0.038604722  0.038453129            3 
 1995000   0.92499141    -5.735865    926.35241  0.038694754  0.038444897            6 
 1996000   0.92419169   -5.7286643    927.15528  0.038708888  0.038436613            2 
 1997000   0.92638232   -5.7746551    924.80292  0.038591342  0.038428307            4 
 1998000   0.93770558   -5.7341161    929.47278  0.038766799   0.03842005            4 
 1999000   0.91467693    -5.729811    925.66723  0.038588762  0.038411901            5 
 2000000   0.91472438   -5.7425274    927.09764  0.038629068  0.038403614            5 
 2001000   0.93627191   -5.7689746    924.58992  0.038505327  0.038395371            7 
 2002000    0.9596083   -5.7575984    926.40884  0.038561806  0.038386982            4 
 2003000   0.92653858   -5.7777411    924.01768  0.038443072  0.038378627            6 
 2004000   0.92103413   -5.7536432    926.91298  0.038544286   0.03837024            4 
 2005000   0.91588807   -5.7920689    924.11688  0.038408848  0.038361711            5 
 2006000   0.95092961   -5.7252038    926.32512  0.038481436  0.038353369            2 
 2007000   0.92945362   -5.7474708    927.28521  0.038502126  0.038345108            7 
 2008000   0.93467487   -5.7963001    925.76075  0.038419686  0.038336618            3 
 2009000   0.93838241   -5.7620744    927.44178  0.038470291  0.038328348            5 
 2010000   0.92006822   -5.7675749    929.33046  0.038529455  0.038319979            4 
 2011000   0.93035612   -5.7582331    928.01916  0.038455957  0.038311596            5 
 2012000   0.92781616     -5.79087     929.8023  0.038510698   0.03830319            5 
 2013000    0.9260026   -5.7648511    927.82678  0.038409785  0.038294741            3 
 2014000   0.91853286   -5.7886433    927.02256  0.038357438   0.03828626            5 
 2015000   0.93231973   -5.7719628     930.7276  0.038491629  0.038277831            3 
 2016000   0.94247042   -5.7602871    928.88529  0.038396383  0.038269481            3 
 2017000   0.93017828   -5.7785162    928.75653  0.038372027  0.038261183           11 
 2018000   0.92583616   -5.7754437      931.639  0.038472043  0.038252818            5 
 2019000   0.92779578   -5.7931912    931.16816  0.038433555  0.038244565            5 
 2020000   0.91786883   -5.7709658    931.40197  0.038424174  0.038236332            5 
 2021000    0.9259258   -5.7520459    932.68971   0.03845826  0.038228033            6 
 2022000   0.93826913   -5.7552672    933.69502  0.038480672  0.038219771            4 
 2023000   0.93414033   -5.7977558     932.2389  0.038401668   0.03821171            4 
 2024000   0.92129638   -5.7551994     937.3756  0.038594186  0.038203459            5 
 2025000   0.90982481   -5.7972244    931.94217  0.038351529   0.03819522            2 
 2026000   0.91125121   -5.7660424    931.75899  0.038325065  0.038186975           10 
 2027000   0.96276181    -5.751136    937.74588  0.038552289  0.038178838            4 
 2028000   0.91302494   -5.8021452    932.36372  0.038312119  0.038170712            6 
 2029000   0.94758143   -5.7658928    935.56207  0.038424596  0.038162621            7 
 2030000   0.92403926   -5.7763833    934.05835  0.038343939  0.038154438            5 
 2031000   0.92098933   -5.7673364    934.95873  0.038362003  0.038146233            5 
 2032000   0.92930907   -5.7615091    935.24488  0.038354859  0.038138085            6 
 2033000   0.91837882   -5.7410635    936.03216  0.038368264  0.038129894            6 
 2034000   0.92166013   -5.7910024    935.04625  0.038309007  0.038121739            6 
 2035000   0.91005764   -5.7628503    935.52339  0.038309721  0.038113447           10 
 2036000   0.94671706   -5.7668467    937.25078  0.038361607  0.038105015            2 
 2037000   0.93649636   -5.7993335    933.76669  0.038200241  0.038096676            5 
 2038000   0.92966348   -5.7666321    938.20218  0.038362863  0.038088361            6 
 2039000   0.91821882   -5.8034465    936.33172  0.038267603  0.038080068            3 
 2040000   0.91684491   -5.7665766    938.04249  0.038318729  0.038071738            3 
 2041000    0.9414551   -5.7996698    938.60895  0.038323083   0.03806338            6 
 2042000   0.94553945   -5.7699379    938.14633  0.038285436  0.038055268            8 
 2043000    0.9281011   -5.7703302    936.83872  0.038213359  0.038047232            5 
 2044000   0.92590417   -5.7599066    940.02596  0.038324607  0.038039125            4 
 2045000   0.94606082   -5.7594451    940.31694  0.038317724  0.038030975            9 
 2046000   0.92512783   -5.7804296    939.49232  0.038265409  0.038022958            5 
 2047000   0.92339207   -5.7612665    940.07465  0.038270422  0.038014811            4 
 2048000   0.92593461   -5.7872516    939.53414  0.038229742   0.03800654            3 
 2049000   0.93168654   -5.8075078    937.88601  0.038144055  0.037998244            3 
 2050000   0.92776747   -5.7951546    936.13411  0.038054232  0.037989896            2 
 2051000   0.91408679   -5.7902669    940.37496  0.038207986  0.037981594            2 
 2052000   0.90078843   -5.8005573    937.47555  0.038071619  0.037973238            6 
 2053000   0.93239239   -5.7617237    940.77893  0.038187162  0.037964974            7 
 2054000    0.9191721    -5.770128    942.57244  0.038241336  0.037956755            2 
 2055000    0.9322942   -5.7734867    939.26625  0.038088656  0.037948585            6 
 2056000   0.92754969   -5.7922025    940.35652  0.038114321  0.037940364            3 
 2057000   0.92519368   -5.7663395    941.27845  0.038133141  0.037932155            5 
 2058000    0.9253493    -5.778068    940.05229  0.038064962  0.037923857            5 
 2059000   0.92694273   -5.7692793    942.22145  0.038134266  0.037915653            7 
 2060000   0.93094635   -5.7809331    943.92309  0.038184591  0.037907464            4 
 2061000   0.89736083   -5.7577877     944.8604  0.038203962  0.037899289            3 
 2062000   0.93406344   -5.8151432    942.04532  0.038071667  0.037891158            4 
 2063000   0.92858021   -5.7386428    946.01394  0.038213522  0.037882997            4 
 2064000   0.92002307   -5.7734034    946.85111  0.038228808  0.037874863            3 
 2065000   0.92523162   -5.8296414    942.75203  0.038044876  0.037866676            7 
 2066000   0.92864148   -5.8154089     942.5339  0.038017663  0.037858424            5 
 2067000   0.92114185   -5.7114827    949.39668  0.038275951  0.037850448            2 
 2068000    0.9348853   -5.7762983    945.25027  0.038090356  0.037842446            3 
 2069000   0.91197207   -5.7853005    946.79317  0.038134089  0.037834341            4 
 2070000   0.91135553   -5.7701609    948.47774  0.038183484  0.037826231            6 
 2071000   0.91933829   -5.7872895    945.35564  0.038039419   0.03781812           12 
 2072000   0.93119293   -5.7556793    948.70003  0.038155567  0.037810081            4 
 2073000   0.93151086   -5.8013696    944.90234  0.037984497  0.037801844            7 
 2074000   0.91734753   -5.7678071    949.03801  0.038132353  0.037793803            8 
 2075000   0.91020479   -5.7895341    947.97112  0.038071129  0.037785688           10 
 2076000   0.93559602   -5.7970796    948.01893   0.03805471  0.037777558            8 
 2077000   0.94152278   -5.7734152    947.14618  0.038001371  0.037769458            6 
 2078000   0.92558568   -5.7886327    949.65351  0.038083634  0.037761442            3 
 2079000   0.90613543   -5.7938282    944.04215  0.037840394  0.037753345            4 
 2080000   0.89307259    -5.791002    948.41337   0.03799733  0.037745154            4 
 2081000   0.91693761   -5.7816736     949.8159  0.038035235   0.03773696            5 
 2082000   0.92009193   -5.8158699    945.38499  0.037839617  0.037728685            8 
 2083000   0.91925706   -5.8037595    947.61038  0.037910481  0.037720301            4 
 2084000   0.91478781   -5.7826313    946.37917  0.037843057  0.037712044            3 
 2085000   0.91423168    -5.769937    949.02632  0.037930708  0.037703809            3 
 2086000   0.92597932   -5.8177157    947.93839  0.037869063  0.037695428            3 
 2087000   0.90929772   -5.7959009    948.85328  0.037887449  0.037687143            3 
 2088000   0.92187603   -5.7627476    951.43651  0.037972402  0.037678851            3 
 2089000   0.91848488   -5.8167892    950.52008  0.037917667  0.037670528            3 
 2090000   0.91334264   -5.7860408    948.02766  0.037800146  0.037662167            7 
 2091000   0.91828011    -5.795799    944.92818  0.037658544  0.037653695            3 
 2092000   0.92280902   -5.8068928       947.45  0.037740997  0.037645254            5 
 2093000   0.90259571   -5.7960708    950.58792  0.037847903   0.03763691            4 
 2094000   0.90493319   -5.7808136    950.80586  0.037838501  0.037628509            3 
 2095000   0.92010015   -5.7993238    948.69941  0.037736651  0.037619973            3 
 2096000   0.90736535    -5.778568    950.80142  0.037802219  0.037611562            6 
 2097000   0.93715871    -5.800794    949.91359  0.037748911  0.037603128            8 
 2098000   0.90329765   -5.7579404    947.86264  0.037649454  0.037594705            6 
 2099000   0.93349444   -5.8058193     951.0506  0.037758083  0.037586393            3 
 2100000   0.90037469   -5.7864415    950.80841  0.037730492   0.03757802            2 
 2101000   0.92102485   -5.7813942    949.27479  0.037651705  0.037569693            4 
 2102000   0.91780162   -5.7931737    948.48967  0.037602667  0.037561235            5 
 2103000   0.90000342   -5.7901281    950.11157  0.037649056  0.037552889            3 
 2104000   0.89612874   -5.7807627    954.24804  0.037794995  0.037544546            6 
 2105000   0.91176966   -5.8011521     951.2066  0.037656635  0.037536076            7 
 2106000   0.91652037   -5.7813621    952.98167  0.037708993  0.037527617            2 
 2107000   0.92450092   -5.7923221    952.45522  0.037670274  0.037519331            5 
 2108000   0.89871969   -5.8435293    951.01122   0.03759532  0.037510869           13 
 2109000   0.90863211   -5.8130378    951.85049  0.037610656  0.037502204            5 
 2110000    0.9158266   -5.8313834      947.739   0.03743045  0.037493467            6 
 2111000   0.93399967   -5.8042774    952.91923  0.037617212  0.037484738            7 
 2112000   0.91028478   -5.7831584    953.15044  0.037608524  0.037476146            5 
 2113000   0.92355374    -5.805418    953.40558  0.037600788  0.037467588            4 
 2114000   0.90050798      -5.7879    954.45885  0.037624521  0.037459177            3 
 2115000   0.90787569   -5.7861487    956.25161  0.037677369  0.037450674            3 
 2116000   0.90587109   -5.7954631    956.78378  0.037680521  0.037442234            4 
 2117000   0.92068081   -5.7877233    953.28683  0.037525068  0.037433769            3 
 2118000   0.90180278    -5.799521    952.19327  0.037464325   0.03742525            3 
 2119000   0.89852813   -5.7999494    955.50142  0.037576743  0.037416766            5 
 2120000   0.91594218   -5.7782628     954.0179  0.037500704  0.037408292            4 
 2121000   0.91783517   -5.8299131    953.57093  0.037465462  0.037399917           11 
 2122000   0.90074928   -5.8377458    952.97075  0.037424236  0.037391343            5 
 2123000   0.93543776    -5.820238    955.06317  0.037488741  0.037382931            7 
 2124000   0.90579508   -5.8384754     957.3538  0.037560962  0.037374374            6 
 2125000   0.91867183   -5.8088432    958.64233  0.037593817  0.037365851            4 
 2126000   0.92712674   -5.8081889    955.53171  0.037454206  0.037357399            3 
 2127000   0.91905643   -5.8176601    957.63212  0.037518889  0.037348967            4 
 2128000   0.90976335   -5.8625003    953.25284  0.037329763  0.037340481            7 
 2129000   0.91190608    -5.785753    957.01059  0.037459316  0.037332072            5 
 2130000   0.91167265   -5.8040967    960.24932   0.03756844    0.0373236           12 
 2131000   0.90332844   -5.8042858    959.25253  0.037511831   0.03731509            6 
 2132000   0.91028714   -5.8025116     959.8102  0.037516033   0.03730674            7 
 2133000   0.91077041   -5.7928195    959.08683  0.037470184  0.037298357            3 
 2134000   0.92062776   -5.8520415    954.51493  0.037274091  0.037289711            4 
 2135000   0.92191846   -5.8016097    960.40321  0.037486464  0.037281116            3 
 2136000   0.92517237   -5.8241453    957.18143   0.03734322  0.037272725            6 
 2137000    0.9201946   -5.8401065    956.66309  0.037305533  0.037264278            6 
 2138000   0.91069361   -5.7767754    960.17552  0.037424989  0.037255772            5 
 2139000   0.91379955   -5.7978438    959.21419   0.03737004  0.037247269            4 
 2140000    0.8991127   -5.8278337    957.86363  0.037299986  0.037238802            6 
 2141000   0.91073282   -5.8229264    959.72014  0.037354824   0.03723036            7 
 2142000   0.91305689   -5.7771027    963.09973  0.037468866  0.037221961            5 
 2143000   0.91145613   -5.8296319     960.0756  0.037333785  0.037213535            8 
 2144000    0.9140715    -5.787761    961.88007  0.037386508  0.037205173            3 
 2145000   0.92729343   -5.8133723    961.34282  0.037348206  0.037196734           15 
 2146000   0.88397847   -5.8148321    961.27022  0.037327983  0.037188245            5 
 2147000   0.90861221   -5.8207388    960.43027  0.037277995   0.03717986            3 
 2148000   0.91149399   -5.8262909    962.93836  0.037357944  0.037171461            5 
 2149000   0.92271029   -5.8161668    964.19965   0.03738947  0.037163219            7 
 2150000   0.91215119   -5.8510179    961.05523  0.037250203  0.037154886            3 
 2151000   0.89780291   -5.8090616     963.6964  0.037335209  0.037146605            8 
 2152000   0.92110292    -5.838079     960.6461  0.037199741  0.037138247            5 
 2153000   0.90809522   -5.7924291     965.1275  0.037355918  0.037129892            6 
 2154000   0.91589554   -5.7757572    967.17905  0.037417945  0.037121701           11 
 2155000   0.90705647   -5.8124575    962.57239  0.037222443  0.037113439            3 
 2156000   0.92374803   -5.8264411    963.48641  0.037240507  0.037105084            3 
 2157000   0.92794677   -5.8188024    964.87459  0.037276873  0.037096665           12 
 2158000   0.91161686   -5.8121221    965.15792  0.037270541  0.037088384            4 
 2159000   0.92023217   -5.8091712    966.78854  0.037316217  0.037080148            5 
 2160000   0.89944032   -5.8493798    964.39797  0.037206712  0.037071899            3 
 2161000   0.91819434   -5.8525607    964.39818  0.037189503  0.037063431           13 
 2162000   0.90545345   -5.8436069    963.41678  0.037134473  0.037055035            4 
 2163000   0.90384192   -5.8044824    967.95515  0.037292154  0.037046774            4 
 2164000   0.91452849   -5.8083391     967.6305  0.037262419   0.03703852            4 
 2165000   0.90366447   -5.8007175    965.67775  0.037170044  0.037030264            9 
 2166000   0.90214565   -5.8506839    966.84524  0.037197801  0.037021949            5 
 2167000   0.89004336   -5.8030383    969.29753   0.03727494  0.037013567            6 
 2168000   0.90299682   -5.8459228    964.63088   0.03707837  0.037005234            3 
 2169000   0.89022812    -5.834991    968.53978  0.037211456  0.036996897            5 
 2170000   0.90268465   -5.8334083    965.64428  0.037083114  0.036988585            6 
 2171000   0.88576046   -5.8319559    966.45384  0.037097107  0.036980142            6 
 2172000   0.90055914   -5.8223771    969.35592  0.037191372   0.03697174            7 
 2173000   0.92817396   -5.8869022    964.97121  0.037006105   0.03696317            6 
 2174000   0.90609868    -5.817799      967.411  0.037082605  0.036954693            3 
 2175000   0.88887657   -5.7953711    971.97478  0.037240413  0.036946373            4 
 2176000   0.89771108   -5.7838306    970.52367  0.037167726  0.036938049            5 
 2177000    0.8833328   -5.8117968    971.77767  0.037198655  0.036929805            7 
 2178000   0.90040269   -5.8462021    968.44932  0.037054229  0.036921406            4 
 2179000    0.8916568   -5.8373029    968.56476  0.037041638  0.036912992            2 
 2180000   0.89929192   -5.7963876    972.54876   0.03717694  0.036904383            4 
 2181000   0.91468319   -5.8122468    969.05639  0.037026455  0.036896001            4 
 2182000   0.90568101   -5.8341058    967.26672  0.036941136   0.03688758            8 
 2183000   0.91398457    -5.808728    970.54589  0.037049393  0.036879186            5 
 2184000   0.89438288   -5.7901735    973.75584  0.037154908  0.036870676            4 
 2185000   0.90921256   -5.8135504    970.69495  0.037021165  0.036862205            2 
 2186000   0.91538678    -5.847892    971.19799  0.037023406  0.036853682            5 
 2187000   0.92096316   -5.8284794    969.23104  0.036931529   0.03684514            4 
 2188000   0.89896473   -5.8250785    970.34621  0.036957123  0.036836564            4 
 2189000   0.89282325   -5.8249097    970.62744  0.036950946  0.036828061            5 
 2190000   0.90207471   -5.8497517    967.82467  0.036827423  0.036819632            4 
 2191000   0.89832969   -5.8480395    970.32269  0.036905625  0.036811072            4 
 2192000     0.924489   -5.8271206    973.97914  0.037027796  0.036802562            3 
 2193000    0.8888574    -5.863345    969.46127  0.036839234  0.036794028            5 
 2194000   0.87267896   -5.8179733    974.69795  0.037021344  0.036785547            4 
 2195000       0.9036   -5.8153719    971.69787   0.03689058   0.03677701            5 
 2196000   0.88787897   -5.8111667    974.55561  0.036982226  0.036768373            8 
 2197000   0.90442955   -5.8407513     970.3434  0.036805621   0.03675986            5 
 2198000   0.88354324   -5.8660996    969.39213   0.03675281  0.036751112            4 
 2199000   0.90253492   -5.8139386    972.96583  0.036871526   0.03674253            3 
 2200000   0.89230224   -5.8465763    972.71413  0.036845232  0.036733885            6 
 2201000   0.90013443   -5.8442323    971.72658  0.036791102  0.036725237            8 
 2202000   0.90126906   -5.8531336    969.41527  0.036686924  0.036716537            3 
 2203000   0.91830958   -5.8379787    974.17216   0.03685021  0.036707871            9 
 2204000   0.90377868   -5.8429747    972.08423  0.036754546  0.036699254            7 
 2205000   0.91569744   -5.8210052     974.2866  0.036821111  0.036690623            7 
 2206000   0.92262156   -5.8464158    971.48986  0.036698771  0.036681989            3 
 2207000   0.92237596   -5.8710228    968.23145  0.036559109  0.036673344            5 
 2208000   0.90119941   -5.8267334    973.97698  0.036759397  0.036664763            5 
 2209000   0.89036808   -5.8460154    976.42486  0.036835101   0.03665616            7 
 2210000   0.89842704   -5.8162295    977.02642  0.036841117  0.036647605            4 
 2211000   0.89766215   -5.8394949    974.41573  0.036726056  0.036639037            5 
 2212000   0.88622029   -5.8246458    976.62059  0.036792518    0.0366304            3 
 2213000    0.8898476   -5.8629436    972.52471  0.036621657  0.036621661            6 
 2214000   0.91454546   -5.8503415    974.66878  0.036685817  0.036612949            7 
 2215000   0.91987483    -5.838162    975.03678  0.036683099  0.036604241            3 
 2216000   0.90520879   -5.8191537    973.59577  0.036612356  0.036595645            6 
 2217000   0.91584939   -5.8649237    974.26533  0.036621009  0.036587101            6 
 2218000   0.89190237   -5.8540399    977.36311  0.036720886  0.036578548            9 
 2219000   0.89201849   -5.8297255    977.64553  0.036714944  0.036569923            3 
 2220000   0.89190872   -5.8339975    978.68863  0.036737561   0.03656138            5 
 2221000   0.89403519   -5.8385964    975.09206  0.036586075  0.036552667            7 
 2222000   0.89658686   -5.8219395    977.96528  0.036677366  0.036543975            5 
 2223000   0.88433521   -5.8574044    975.96864  0.036586019   0.03653544            4 
 2224000   0.88198727    -5.841153    977.10081  0.036611991  0.036526815            3 
 2225000   0.87889968   -5.8290804    978.85015  0.036661054  0.036518221            5 
 2226000   0.88883391   -5.8717931    974.72488   0.03649015  0.036509599            7 
 2227000   0.90033085   -5.8723785    978.10669   0.03660031  0.036500919            8 
 2228000   0.91528807   -5.8362435    977.13025  0.036547361  0.036492312            5 
 2229000   0.89676087   -5.8466364    976.21016  0.036496566  0.036483696            5 
 2230000     0.914737    -5.835727    979.71773  0.036611275     0.036475            6 
 2231000   0.89496661   -5.8305986    978.06613  0.036533174  0.036466292            4 
 2232000    0.9109069   -5.8690334    976.01916  0.036440381  0.036457481            6 
 2233000   0.91011815   -5.8277291     977.5841  0.036482464  0.036448759            4 
 2234000   0.90867069   -5.8522302    978.31518  0.036493404  0.036439996            7 
 2235000   0.89643907   -5.8563446    977.01158  0.036428471  0.036431208            6 
 2236000   0.88216473   -5.8396601    977.66036  0.036436358   0.03642241            3 
 2237000   0.88855606   -5.8496466    977.39665  0.036410246  0.036413656           13 
 2238000   0.90261889   -5.8340207    978.88473  0.036449387  0.036404907            3 
 2239000   0.91264363   -5.8515265    980.90305  0.036508227  0.036396107            2 
 2240000   0.89445442   -5.8547744    981.73531  0.036522891  0.036387435            8 
 2241000   0.89726072   -5.8565278    980.13441  0.036447063  0.036378748            2 
 2242000   0.89846733    -5.834503    986.38742  0.036663226   0.03637016            2 
 2243000   0.89027713   -5.8261731    981.79752  0.036476353  0.036361582            5 
 2244000   0.89784636   -5.8958203     978.4893  0.036337244  0.036352897           12 
 2245000   0.89004156   -5.8752679    978.82692   0.03633359  0.036344137            5 
 2246000   0.89920663   -5.9011004    979.51873  0.036343082  0.036335392            5 
 2247000   0.89459363   -5.8708816    979.52483  0.036327134  0.036326663           10 
 2248000   0.88661361   -5.8409189    982.78032  0.036431655  0.036317976            9 
 2249000    0.9114872   -5.8640534    979.24958  0.036284629  0.036309293            6 
 2250000   0.88175978   -5.8480978    980.74778  0.036323992  0.036300636            4 
 2251000   0.89765595    -5.855711    978.07903  0.036209056  0.036291919            7 
 2252000   0.89320664   -5.8274407    982.89609  0.036371229  0.036283153            2 
 2253000    0.8887658   -5.8407393    980.16405  0.036254033  0.036274446            9 
 2254000   0.90119143   -5.8542665    983.07037    0.0363454  0.036265788            8 
 2255000   0.88623383   -5.8307031    981.42539  0.036268492  0.036257192            6 
 2256000   0.88762128   -5.8422848    983.45768  0.036327485  0.036248535            2 
 2257000   0.88136662   -5.8880318    980.87576   0.03621606  0.036239879            6 
 2258000   0.89228661   -5.8672365    980.89145    0.0362006  0.036231183           10 
 2259000   0.89821085   -5.8739956    983.45675  0.036279207  0.036222622            7 
 2260000   0.90554923    -5.823437    986.76071  0.036384982  0.036214014            4 
 2261000   0.86887965   -5.8416352    984.52487  0.036286483  0.036205439            4 
 2262000    0.8663865    -5.840373    986.59345  0.036346649  0.036196936            5 
 2263000    0.8839164   -5.8454397    986.35435  0.036321783  0.036188219            2 
 2264000   0.90664545   -5.8314281     982.2518  0.036154733  0.036179535            3 
 2265000   0.88455992    -5.846963    990.29352   0.03643464  0.036170843            3 
 2266000   0.89084864   -5.8430632     985.8981  0.036256917   0.03616236            3 
 2267000   0.88697281   -5.8445548    987.67663  0.036306302  0.036153816            3 
 2268000     0.902942   -5.8496331    988.50731  0.036320815  0.036145396            3 
 2269000   0.89290361   -5.8780383    987.66707  0.036273949  0.036136792           20 
 2270000   0.89231629   -5.8758776    985.69382  0.036185529  0.036128298            5 
 2271000   0.89410628   -5.8442878    989.48049  0.036308546  0.036119856           10 
 2272000   0.88923418    -5.895262    986.25733  0.036174345  0.036111288            5 
 2273000   0.88758951   -5.8432299    988.51997  0.036241383  0.036102893            4 
 2274000   0.86893144   -5.9030943    985.77255  0.036124764  0.036094401            4 
 2275000   0.88925098   -5.8729021    987.82903  0.036184214  0.036085951            4 
 2276000   0.88996321   -5.8607813    989.01115  0.036211597  0.036077522            4 
 2277000   0.88910958   -5.8794033    989.69383  0.036220679  0.036069082            6 
 2278000   0.89805219   -5.8900238    986.33507  0.036081909  0.036060654            6 
 2279000   0.88642041   -5.8469661     993.5294  0.036329143  0.036052232            4 
 2280000   0.90213083    -5.843535    992.02357  0.036258171  0.036043819            6 
 2281000   0.90285943   -5.8434922    991.92427  0.036238648  0.036035385            5 
 2282000   0.90745594   -5.8389776    991.28607  0.036199462  0.036026969            4 
 2283000   0.88935352   -5.8543919    993.27006  0.036256025  0.036018567            8 
 2284000   0.89133687   -5.8390481    993.17959   0.03623685  0.036010236            3 
 2285000   0.88370151   -5.8180271    994.49012  0.036268786  0.036001951            6 
 2286000   0.87866627   -5.8502747    991.83126  0.036155995  0.035993577            3 
 2287000    0.8942257   -5.8620296    991.59936  0.036131736  0.035985108            9 
 2288000   0.88356723   -5.8503578    992.92241  0.036164132  0.035976656            7 
 2289000   0.89220565   -5.8667569    991.05939  0.036080508  0.035968248            5 
 2290000   0.90157447   -5.8329792    994.07115   0.03617435  0.035959967            6 
 2291000   0.88879809   -5.8757253     992.4168  0.036098385  0.035951606            5 
 2292000   0.89158517   -5.8694517    991.77502  0.036059301  0.035943161            3 
 2293000   0.86964665   -5.8948798    988.63667   0.03592952  0.035934723            3 
 2294000   0.89108304   -5.8568322    992.66451  0.036060176  0.035926179            6 
 2295000   0.89410457   -5.8976373     993.8478  0.036087429  0.035917604            7 
 2296000   0.88534136   -5.8803492     992.9968  0.036040825  0.035909025            5 
 2297000   0.89097782   -5.8639525    995.89505   0.03613028  0.035900502            4 
 2298000   0.88279578   -5.8608978    993.98799  0.036045401  0.035892014            6 
 2299000   0.87669908   -5.9164015    990.66191   0.03590916  0.035883368            4 
 2300000   0.88625819   -5.8692257    992.94338  0.035976209  0.035874777            6 
 2301000   0.89959792   -5.8614052     993.3748  0.035976199  0.035866272            8 
 2302000   0.88304079   -5.8556604    997.54649  0.036111587  0.035857725            4 
 2303000     0.864509   -5.8805374    994.65379  0.035991236  0.035849226            8 
 2304000   0.86984293   -5.8953083    993.10622   0.03591964  0.035840704            4 
 2305000   0.86760447   -5.8701824    998.05998  0.036083152  0.035832229            4 
 2306000   0.89484977    -5.889919    992.75771  0.035875893  0.035823724            5 
 2307000   0.88991622   -5.9050561    994.52086   0.03592403  0.035815124            3 
 2308000   0.87255159   -5.9093668    992.54029  0.035836954  0.035806492           13 
 2309000   0.88718392    -5.857223    995.43736  0.035925991  0.035797954            3 
 2310000   0.87628238   -5.8393242    997.94485  0.036000896  0.035789449           11 
 2311000   0.89721239   -5.8986876    994.71044  0.035868688  0.035780909            9 
 2312000   0.89229251    -5.882565    996.35438  0.035912427  0.035772296            6 
 2313000   0.87174371   -5.8742624    995.48846  0.035865703  0.035763631            4 
 2314000    0.8837485   -5.8427688     996.7491  0.035895603  0.035755043            4 
 2315000   0.87040281   -5.8930252    995.19285  0.035824077  0.035746464            4 
 2316000   0.88238102   -5.8820947    993.92427  0.035762963  0.035737799            7 
 2317000   0.90519734    -5.888126    994.16245  0.035756094  0.035729138           10 
 2318000   0.86998844   -5.8375292    997.28646  0.035852979  0.035720532            7 
 2319000   0.88855924   -5.8443722    998.03423  0.035864389  0.035712001            4 
 2320000   0.88026744   -5.8490482    996.55357  0.035795746  0.035703449            6 
 2321000   0.87763145   -5.8454767    997.11996  0.035800659  0.035694813            3 
 2322000   0.88425266   -5.8696992    997.54504  0.035800497  0.035686254            7 
 2323000   0.87178296   -5.9087857    998.15772  0.035807064  0.035677755            3 
 2324000   0.88501441   -5.8830595    997.09261  0.035753464  0.035669179            5 
 2325000   0.88442171   -5.8781273    997.13429   0.03573958  0.035660552            6 
 2326000   0.88423845   -5.8900557    993.57655  0.035596752  0.035651859            8 
 2327000   0.87345545   -5.8722698     998.1156  0.035744005   0.03564318            3 
 2328000   0.87157448   -5.8731645    995.23434  0.035625513  0.035634558            6 
 2329000      0.86458   -5.8977208    997.32721  0.035685101  0.035625965            5 
 2330000    0.8832708    -5.899947     995.2803  0.035596577  0.035617298            9 
 2331000   0.88917538   -5.9026197    997.56442  0.035662964  0.035608541            5 
 2332000   0.87768168   -5.8922085    998.33062  0.035675051  0.035599783            5 
 2333000   0.86939315   -5.9158814    995.06685  0.035543179  0.035591024           16 
 2334000   0.89597658   -5.8854941    999.80587  0.035697153  0.035582255            4 
 2335000   0.87302541   -5.8875751    997.55117  0.035601398  0.035573585            7 
 2336000   0.87737918   -5.9147162    997.02058   0.03556723  0.035564994            3 
 2337000   0.85773826   -5.9211521     997.5858  0.035572165  0.035556307            5 
 2338000   0.85126942   -5.8642803    1000.6084  0.035664686  0.035547569            3 
 2339000   0.89709945    -5.873675    998.15074  0.035561876  0.035538865            7 
 2340000   0.85545604   -5.8768753    999.44004  0.035592594  0.035530171            4 
 2341000   0.85716054   -5.9201605    993.56762  0.035368348  0.035521344            3 
 2342000    0.8672224    -5.907161    998.37725  0.035524383  0.035512491            5 
 2343000   0.88300302   -5.8865914    997.67333  0.035484184  0.035503669            9 
 2344000   0.87320313   -5.9064322    998.95021  0.035514442  0.035494799            8 
 2345000   0.89554923   -5.8931391    998.34138  0.035477661  0.035485936            5 
 2346000    0.8873499   -5.8933755    997.88596  0.035446361  0.035477134            8 
 2347000   0.87514015   -5.9020752    997.96938   0.03543422  0.035468239            4 
 2348000   0.89881421   -5.8968686     996.5754  0.035369655  0.035459473            3 
 2349000   0.87473955   -5.9312204    997.63368  0.035392141   0.03545069            7 
 2350000   0.87451752   -5.9039038    998.81491  0.035418969  0.035441932            5 
 2351000   0.86599686   -5.8862174    998.15153  0.035380389  0.035433131            5 
 2352000   0.88827592    -5.888007    1001.0545  0.035468201  0.035424297            7 
 2353000   0.89211995   -5.8811613    1002.9217  0.035519257   0.03541551           10 
 2354000   0.86085037   -5.9187314    997.84803  0.035324555  0.035406694            7 
 2355000   0.87259238   -5.8792289     999.5931  0.035371306  0.035397858            7 
 2356000   0.87581683   -5.8869876    1000.9839  0.035405485  0.035389035            4 
 2357000    0.8747129   -5.9008175    999.55485  0.035339939  0.035380162            4 
 2358000   0.86971526   -5.8771423    1001.3917  0.035389869  0.035371314            5 
 2359000   0.87395981   -5.8991424    1000.7029  0.035350535  0.035362407            5 
 2360000   0.87394799   -5.8931047     1000.035  0.035311971  0.035353529            4 
 2361000   0.85954159   -5.8818265    1002.7746  0.035393712  0.035344687            3 
 2362000   0.85644428   -5.8962828    1000.2253  0.035288786  0.035335889            5 
 2363000   0.87294486   -5.8868411    1000.4252  0.035280902  0.035327127            4 
 2364000   0.88537353    -5.832365    1007.3203  0.035509036  0.035318396            3 
 2365000   0.87624529   -5.8748054    1003.5605  0.035361538  0.035309735            5 
 2366000   0.86569456   -5.8863798      1002.45  0.035307482  0.035300988            2 
 2367000   0.87867821   -5.9336077    1000.8444  0.035236038   0.03529228            2 
 2368000   0.87640468    -5.894846    999.84542  0.035186001  0.035283528            2 
 2369000   0.88342342   -5.9200412    1002.9026  0.035278689  0.035274737            6 
 2370000   0.88790005    -5.902337    1002.2734   0.03524168  0.035265958            4 
 2371000   0.87027242   -5.9025799    1003.7922  0.035280199  0.035257116            3 
 2372000   0.87486831   -5.8958235    1003.2163  0.035245093  0.035248234            7 
 2373000    0.8628215   -5.8832196    1003.0296  0.035223682  0.035239425            5 
 2374000   0.86832614   -5.8915643    1005.6769  0.035301773  0.035230803            7 
 2375000    0.8746638   -5.8816127    1005.1262  0.035267586  0.035222146           10 
 2376000   0.87849679   -5.9150189     1004.745  0.035239373  0.035213291            8 
 2377000   0.86811495   -5.9378265    1002.5869  0.035148887  0.035204465            6 
 2378000   0.86249723   -5.9287076    1003.8044  0.035176773  0.035195564           12 
 2379000   0.85341883    -5.905923    1003.7791  0.035161102  0.035186795            6 
 2380000   0.86974727   -5.9078912    1007.7869  0.035286656  0.035178092            3 
 2381000   0.87265511    -5.887024    1008.7971  0.035307191  0.035169452            4 
 2382000   0.89688638   -5.9314995    1006.0406  0.035195933  0.035160741            8 
 2383000   0.87310079   -5.9075016    1005.7369  0.035170545  0.035152012            4 
 2384000   0.87322726   -5.9183873    1008.3392  0.035246756  0.035143257            8 
 2385000   0.85951823   -5.9032792    1005.0009  0.035115336  0.035134571           16 
 2386000   0.86443144   -5.9252202    1003.8402  0.035060081  0.035125797            7 
 2387000   0.85600364   -5.8943261    1007.7366  0.035181419  0.035117044           13 
 2388000    0.8751068   -5.9204527    1007.3359  0.035152703  0.035108322            4 
 2389000   0.88108571   -5.9065371    1005.2945  0.035066783  0.035099615           11 
 2390000    0.8780428   -5.9006926    1006.9454  0.035109672  0.035090863            5 
 2391000   0.86176464   -5.9216442    1007.3439  0.035108878  0.035082183            8 
 2392000   0.86750082   -5.9132634    1007.5961  0.035102987  0.035073471            7 
 2393000   0.85889214   -5.9137857    1006.0139  0.035033218  0.035064821            3 
 2394000   0.86880082   -5.9147842    1007.3344  0.035064549  0.035056141            6 
 2395000   0.86139277   -5.9155369    1011.4709  0.035193839  0.035047471            8 
 2396000   0.87609032   -5.8974078    1008.3754  0.035071486  0.035038901            8 
 2397000   0.86674335   -5.8815083    1008.7116  0.035068546  0.035030221            5 
 2398000   0.86910346   -5.9144665    1008.0454   0.03503077  0.035021534            6 
 2399000   0.87888633   -5.8936861    1010.2933  0.035094252  0.035012741            5 
 2400000   0.86737122   -5.9389791    1005.4784  0.034912446  0.035004043            6 
 2401000   0.86226952   -5.9107499    1010.9771  0.035088751   0.03499529            4 
 2402000   0.86541288    -5.923181    1011.6853  0.035098715    0.0349867            8 
 2403000    0.8581131   -5.9133105    1011.4186  0.035074857  0.034978038            4 
 2404000    0.8739159   -5.9199436    1010.3394  0.035022859  0.034969392            5 
 2405000   0.87803594   -5.9191269    1010.9738  0.035030278  0.034960688            5 
 2406000   0.88316647   -5.9665392    1008.3659   0.03492539  0.034952032            4 
 2407000   0.86460004    -5.894492    1010.6753  0.034990836   0.03494334            5 
 2408000   0.86993364    -5.928217    1011.0756  0.034990157  0.034934713            6 
 2409000   0.86549917   -5.9456987    1011.5529  0.034992144  0.034926012            7 
 2410000   0.88056446    -5.917707    1009.7643  0.034915778  0.034917191            4 
 2411000   0.84995571   -5.9265629    1011.8927  0.034974862  0.034908339            5 
 2412000    0.8791464   -5.9151433    1010.6626  0.034917863  0.034899513            6 
 2413000   0.85847265   -5.9351355    1011.4175  0.034929461  0.034890744            4 
 2414000   0.85910986   -5.8860014    1015.4529  0.035054296    0.0348821            7 
 2415000   0.86458101   -5.8922453    1011.1865  0.034892563  0.034873449            5 
 2416000   0.84883827   -5.9026396    1013.8945  0.034971527  0.034864696            5 
 2417000   0.84697381   -5.9064962    1010.3926  0.034836319  0.034856045            4 
 2418000     0.856338    -5.913472     1013.814  0.034939827  0.034847359            3 
 2419000    0.8632869   -5.9169136    1013.7032  0.034921566  0.034838675            7 
 2420000   0.84788031   -5.8972828    1013.4482  0.034898355  0.034829929           13 
 2421000   0.85872717   -5.9145871    1014.4625  0.034918851  0.034821234            3 
 2422000   0.85445418   -5.9271571    1013.6159  0.034875306  0.034812587            4 
 2423000   0.87061856   -5.9226163    1014.0227  0.034874904  0.034803945            9 
 2424000   0.87152693   -5.9042243    1015.1173  0.034898146  0.034795238           11 
 2425000   0.87448665   -5.8906247    1017.7441  0.034974022  0.034786655            4 
 2426000   0.87200778   -5.9414144    1015.9083  0.034896548  0.034778007            9 
 2427000   0.86792749   -5.8954416    1017.0172  0.034920244   0.03476933            6 
 2428000   0.85511294   -5.9419897    1012.8166   0.03476169   0.03476058           11 
 2429000   0.87016093   -5.9111594    1012.2935  0.034729432  0.034751826            5 
 2430000   0.85969091   -5.9405281    1014.6973  0.034797576  0.034743049            7 
 2431000   0.88082292    -5.958482     1013.957  0.034757884   0.03473438            7 
 2432000   0.84650952   -5.9393961    1014.0217  0.034745808  0.034725754            4 
 2433000   0.84535725   -5.9401087    1014.4448  0.034746018  0.034717086            4 
 2434000   0.86956038   -5.9654868    1012.3785  0.034660999  0.034708364           15 
 2435000   0.84785959   -5.9876919    1013.4065  0.034681947  0.034699567            9 
 2436000    0.8712045   -5.9164895    1016.2327  0.034764391  0.034690821            5 
 2437000    0.8655376    -5.908831    1017.1447  0.034781311  0.034682089            6 
 2438000   0.87751475   -5.9215917    1017.0432  0.034763578  0.034673388            5 
 2439000   0.85562623   -5.9362306    1017.0446   0.03474937  0.034664726            4 
 2440000   0.88368393   -5.9026549    1019.1635  0.034807498  0.034656104           11 
 2441000   0.85048111   -5.9142552    1019.1524  0.034792859  0.034647499            5 
 2442000   0.86223297   -5.9237526    1017.4055  0.034718996  0.034638826            6 
 2443000   0.82590482   -5.9186033    1020.9842  0.034826859   0.03463021            3 
 2444000   0.87023129   -5.9180778    1015.4965  0.034625493  0.034621583            4 
 2445000   0.84409663   -5.9457729    1014.7313  0.034585254  0.034612939            8 
 2446000   0.84672359   -5.9170219    1019.7686  0.034742729  0.034604308            4 
 2447000   0.84985244   -5.9480357    1018.1437  0.034673195  0.034595576           10 
 2448000   0.87192558   -5.9459988    1017.8598  0.034649366  0.034586845           18 
 2449000    0.8860013   -5.9280187    1019.0097  0.034674347  0.034578053            5 
 2450000   0.84080259   -5.9420817     1018.746  0.034651223  0.034569273            5 
 2451000   0.87473765   -5.9173786    1019.3181  0.034656539  0.034560484            6 
 2452000   0.84985326   -5.9063531    1018.4159  0.034611744  0.034551711            4 
 2453000    0.8589231   -5.9288563    1016.6808  0.034538686  0.034542949            8 
 2454000   0.86318786   -5.9286409    1018.8462  0.034598146  0.034534174            5 
 2455000   0.86362585    -5.928873    1019.8935  0.034619604  0.034525531           14 
 2456000   0.87612943   -5.9280218    1016.6873  0.034496719  0.034516823            5 
 2457000    0.8720906   -5.9675631    1015.5809  0.034445153  0.034507949            6 
 2458000   0.85872226   -5.8885411    1020.5473  0.034599515  0.034499212            8 
 2459000   0.86447039   -5.9514397    1017.0602  0.034467268  0.034490525            3 
 2460000   0.84315321   -5.9861231    1015.5863   0.03440333  0.034481648            5 
 2461000   0.85860972   -5.9300475     1020.109  0.034542496  0.034472663            3 
 2462000    0.8668449   -5.9390728    1017.7608  0.034448984  0.034463845            4 
 2463000   0.86014573   -5.9302982    1020.7388  0.034535757  0.034455134            7 
 2464000   0.85328557   -5.9169885    1018.7747  0.034455314  0.034446309            7 
 2465000   0.86349171   -5.9476943    1017.2806  0.034390826  0.034437442            3 
 2466000   0.85759917   -5.9777215    1017.3082   0.03437781  0.034428464            7 
 2467000   0.85736763    -5.930175    1019.5167  0.034438479  0.034419635            4 
 2468000   0.86896427   -5.9389265    1019.3271  0.034418122  0.034410817            3 
 2469000   0.84939888   -5.9211554    1019.3479  0.034404885  0.034402007            4 
 2470000   0.85931327   -5.9446443     1019.245  0.034387482   0.03439311            3 
 2471000   0.83007387   -5.9506126      1020.52  0.034416565  0.034384278            4 
 2472000   0.86608068   -5.9701959    1018.9822  0.034350804  0.034375526            4 
 2473000   0.86836717   -5.9836129    1017.8278  0.034298013  0.034366653            8 
 2474000   0.85408909   -5.9292229    1019.8368  0.034351818  0.034357842            5 
 2475000   0.86566523   -5.9452361    1019.5212  0.034327312  0.034349021            4 
 2476000   0.83997498   -5.9363148    1020.8966  0.034359741  0.034340293            5 
 2477000   0.84587627   -5.9363515     1024.136   0.03445485  0.034331581            8 
 2478000    0.8364889   -5.9250599    1020.2577  0.034310524  0.034322796            9 
 2479000   0.84984228    -5.944253      1021.26  0.034330375  0.034313996            5 
 2480000   0.84569355   -5.9217149    1021.5222  0.034325344  0.034305148            5 
 2481000   0.86930813   -5.9493827     1021.743  0.034318924  0.034296456            5 
 2482000   0.85346909   -5.9049516    1023.0824  0.034350068  0.034287676            4 
 2483000   0.85202729   -5.8968906    1025.0267  0.034401487  0.034278934           11 
 2484000   0.86731388    -5.981131    1020.6522  0.034240882  0.034270169            9 
 2485000   0.84338591   -5.9240907    1022.6827  0.034295195  0.034261409            8 
 2486000   0.85951343   -5.9745908    1020.2174  0.034198759  0.034252589            6 
 2487000   0.84258757   -5.9564505    1019.3155  0.034154787  0.034243645            4 
 2488000   0.85614148   -5.9350158    1022.4009  0.034244403  0.034234715            7 
 2489000   0.85233293   -5.9763903    1019.6144   0.03413735  0.034225748            7 
 2490000   0.83755881   -5.9457646     1020.724  0.034160775  0.034216914            5 
 2491000   0.86046768   -5.9424781     1020.953  0.034154724     0.034208            4 
 2492000    0.8714526   -5.9690163    1021.2883  0.034152232  0.034199038           13 
 2493000   0.85305156   -5.9402976    1020.3855  0.034108354  0.034190136            8 
 2494000   0.85090496   -5.9285533    1019.5529  0.034066858  0.034181207            5 
 2495000   0.85188168   -5.9527151    1022.0366  0.034136159  0.034172279            3 
 2496000    0.8604565   -5.9670071    1020.9066  0.034084755  0.034163261            8 
 2497000   0.84184523    -5.956237    1021.4635   0.03408969  0.034154269            6 
 2498000   0.85069429   -5.9582752    1023.2508   0.03413567  0.034145433            4 
 2499000   0.86280289   -5.9284229    1022.5615  0.034099024  0.034136545            5 
 2500000   0.86206152   -5.9434216    1021.5819   0.03405273   0.03412769            4 
 2501000    0.8578758   -5.9618832    1022.5177  0.034070295  0.034118822            9 
 2502000   0.86438136   -5.9451444    1024.7092   0.03412967  0.034109989            3 
 2503000   0.86013839   -5.9374883    1023.9669  0.034091321  0.034101265            7 
 2504000   0.85997727   -5.9457881    1025.0771  0.034114653  0.034092503           17 
 2505000   0.85260729   -5.9379266    1027.0684  0.034167279  0.034083691            4 
 2506000   0.85519916   -5.9842149    1021.6352  0.033972972  0.034074854            7 
 2507000   0.84303725   -5.9897671       1021.7  0.033961573  0.034065903           11 
 2508000   0.86152989   -5.9540017    1027.0788  0.034126754  0.034056989            7 
 2509000   0.85598183   -5.9734017    1023.7748  0.034003415  0.034048095           14 
 2510000   0.85903727   -5.9635168    1026.6998  0.034086978  0.034039223            4 
 2511000   0.86311234    -5.927217    1025.2424  0.034025036  0.034030376            3 
 2512000   0.85065859   -5.9570924    1026.4421  0.034051291  0.034021555            5 
 2513000   0.84684354   -5.9527039    1028.6224  0.034110042  0.034012821            8 
 2514000    0.8692976   -5.9319659    1024.3567  0.033955074  0.034004048            8 
 2515000    0.8683385   -5.9839239     1022.641  0.033884727  0.033995137           12 
 2516000   0.84514244   -5.9756669    1022.3229   0.03386072  0.033986208            9 
 2517000   0.84071201   -5.9362097    1024.5891  0.033922299  0.033977285            5 
 2518000    0.8424105    -5.950125    1024.9274  0.033920023  0.033968474            7 
 2519000   0.83256544   -5.9719589    1023.2175  0.033849989  0.033959566            9 
 2520000   0.85502861   -5.9661935    1025.0391  0.033896794  0.033950716            9 
 2521000   0.85103583   -5.9350077    1029.4508   0.03402918   0.03394196           13 
 2522000   0.84047471   -5.9793368    1023.6148  0.033822851  0.033933131            5 
 2523000   0.85055303    -5.971866    1029.1824  0.033993343  0.033924343            5 
 2524000   0.84566474   -5.9730838    1027.5667  0.033926528  0.033915594           10 
 2525000   0.84294741   -5.9549293    1030.7785  0.034019093  0.033906869            9 
 2526000   0.84617124   -5.9688902    1027.1648  0.033886408  0.033898087            8 
 2527000   0.84433542   -5.9633511    1027.1811  0.033873535  0.033889302            3 
 2528000   0.85054484   -5.9480495    1028.9035  0.033916913  0.033880609            7 
 2529000   0.85024059   -5.9641829    1030.1382  0.033944187  0.033872025            7 
 2530000   0.84381389    -5.938571    1029.7211  0.033917032  0.033863351            6 
 2531000   0.86769211   -5.9844956    1028.4755  0.033862619  0.033854555            8 
 2532000   0.83380356   -5.9842378    1031.2532  0.033940666  0.033845754            9 
 2533000   0.85015621   -5.9782403    1028.3723  0.033832488  0.033836962           19 
 2534000   0.83796759   -5.9469548    1030.2211  0.033879936  0.033828158            6 
 2535000   0.85141138   -5.9953337    1030.1856  0.033865405  0.033819419            4 
 2536000   0.85767904   -6.0156846    1026.2792  0.033723684  0.033810639            5 
 2537000   0.82936144    -5.978529    1030.0613  0.033834624  0.033801752           30 
 2538000    0.8325851   -5.9835972    1030.1649  0.033824694  0.033793015            5 
 2539000   0.84159485   -5.9666848    1031.1165  0.033842607  0.033784275            5 
 2540000   0.84903195    -5.959528    1031.9983  0.033858211  0.033775657            3 
 2541000   0.83747003   -5.9485389    1032.4821  0.033860754  0.033766936            7 
 2542000   0.83576561   -5.9576198    1030.7435  0.033790439  0.033758323            6 
 2543000   0.85732319   -5.9388726    1034.9614  0.033915369  0.033749725            5 
 2544000   0.83909991   -5.9504762    1034.3258  0.033881217  0.033741096            3 
 2545000   0.84484705   -5.9849541    1031.3575   0.03377071  0.033732332            3 
 2546000   0.84245737   -5.9410238    1032.8373  0.033805882  0.033723572            6 
 2547000   0.82922493   -5.9547559    1031.1357  0.033736937  0.033714999            8 
 2548000   0.83226988    -5.961427    1034.6063  0.033837203  0.033706381            3 
 2549000   0.83814649   -5.9845605    1032.8685  0.033767115  0.033697664            5 
 2550000   0.85368313   -5.9717998    1033.6157  0.033778291  0.033689105            8 
 2551000   0.84179634   -5.9738928    1034.4082  0.033790939  0.033680458            6 
 2552000   0.84041356   -5.9548631     1032.245  0.033707059  0.033671836            9 
 2553000   0.83850199   -5.9456525    1035.7707  0.033808942  0.033663193            2 
 2554000   0.85099138   -5.9483262     1033.049  0.033706899  0.033654544            8 
 2555000   0.84287372   -5.9861053    1033.0053  0.033692278  0.033645873            5 
 2556000   0.84621302   -5.9802785    1035.5775  0.033762961  0.033637225            5 
 2557000   0.83300594   -5.9558905    1034.6504  0.033719542  0.033628548            8 
 2558000   0.84119411    -5.973908    1037.1992  0.033789394  0.033619935            9 
 2559000   0.85033549   -5.9779883    1033.8831    0.0336682  0.033611388            5 
 2560000   0.85678167   -5.9573096    1031.6086  0.033581009  0.033602783            3 
 2561000   0.84816106   -6.0060698    1032.1915  0.033586864  0.033594053           13 
 2562000   0.84539488   -6.0036168    1034.7501  0.033656976  0.033585428           12 
 2563000   0.84788573   -5.9890798    1036.9467  0.033715266  0.033576831            3 
 2564000   0.84502063   -5.9823903    1036.5514  0.033689268   0.03356827           10 
 2565000   0.83233333   -5.9802438    1036.9335  0.033688547  0.033559709            5 
 2566000   0.85206101    -6.013306    1034.1312  0.033584411  0.033551143            8 
 2567000   0.81737849    -5.993803    1037.6113  0.033684304  0.033542501            8 
 2568000   0.84621515   -5.9693422    1037.5762  0.033670049  0.033533963            5 
 2569000    0.8404252   -5.9694299     1039.109  0.033706663   0.03352544            9 
 2570000   0.84463089   -6.0108371    1037.5962  0.033644494  0.033516924            8 
 2571000   0.82244619   -5.9761646      1037.81  0.033638339  0.033508341           15 
 2572000    0.8462641   -5.9886098    1037.5137  0.033615658  0.033499794            4 
 2573000   0.83697336   -5.9718036    1041.1558  0.033720553  0.033491269            3 
 2574000   0.85175206    -5.996607    1038.1105  0.033608861   0.03348272            9 
 2575000   0.84111798   -5.9744508    1037.6505  0.033580923  0.033474228            7 
 2576000   0.83215018   -5.9930189    1035.0644  0.033484225  0.033465635            7 
 2577000   0.83586548   -5.9920346    1038.7981   0.03359197  0.033457076            9 
 2578000   0.85271656   -5.9987967    1037.6273  0.033541096  0.033448495           17 
 2579000   0.84012294   -5.9789214    1039.3774  0.033584639  0.033439933            4 
 2580000   0.83625363   -5.9852458    1039.4979  0.033575514  0.033431308            5 
 2581000   0.82670307   -5.9949031    1039.3692  0.033558348  0.033422635            9 
 2582000   0.84432255   -5.9924634    1037.1167  0.033472654  0.033414034            8 
 2583000   0.83250028   -5.9655599    1041.4328  0.033598941  0.033405443            6 
 2584000   0.83992485   -5.9728954    1037.7067  0.033465773  0.033396868            8 
 2585000   0.85013527   -5.9755335     1038.342  0.033473307  0.033388418            8 
 2586000   0.83176125   -5.9806058    1042.9067  0.033607459  0.033379966            3 
 2587000   0.84628509   -5.9900594    1039.6043  0.033488091  0.033371535            4 
 2588000    0.8455392   -5.9578008    1042.4971  0.033568301   0.03336309           11 
 2589000   0.84551841   -5.9474038    1041.7013  0.033529717  0.033354703            5 
 2590000   0.82930874   -5.9811595    1043.8321  0.033585331  0.033346209            5 
 2591000   0.83593952   -5.9845642    1041.9408   0.03351154  0.033337807           10 
 2592000   0.82320291   -5.9968114    1040.3797  0.033448421  0.033329382            8 
 2593000   0.84189523   -5.9836292    1041.5124  0.033471923  0.033320883            5 
 2594000   0.83783094   -5.9645452    1043.1547   0.03351178  0.033312476            6 
 2595000   0.83700203   -5.9849495    1039.3309  0.033376071  0.033304077            6 
 2596000    0.8285948   -5.9910043    1042.8787  0.033477104  0.033295604            3 
 2597000   0.83489463   -5.9941353    1040.8475  0.033399034  0.033287102            9 
 2598000   0.82243279   -5.9962252    1041.6436  0.033411714  0.033278559            6 
 2599000   0.84112709   -6.0124967    1040.4712  0.033361268  0.033270115            2 
 2600000   0.83062351   -5.9868389    1041.8382  0.033392251   0.03326168            5 
 2601000   0.83556734   -5.9709613    1043.3382   0.03342747  0.033253336            4 
 2602000   0.82846569   -5.9861657    1045.4073  0.033480889  0.033244952            6 
 2603000   0.84879313   -6.0257937    1042.0802  0.033361514  0.033236522            5 
 2604000   0.85761209   -6.0056191    1044.3833  0.033422403  0.033228128           10 
 2605000   0.83996192    -5.960618    1045.8221  0.033455603   0.03321975            4 
 2606000   0.84549207   -5.9994283    1044.0052  0.033384665  0.033211387            4 
 2607000   0.84459111   -5.9878798     1044.522  0.033388379  0.033203002            6 
 2608000   0.82451629   -5.9854691    1046.8252   0.03344917  0.033194606           11 
 2609000   0.84660234   -5.9755788    1048.2088  0.033480542   0.03318626            7 
 2610000   0.83133346   -6.0086912    1046.9334  0.033426991  0.033177927            5 
 2611000   0.83795557   -5.9658414    1046.3172  0.033394522  0.033169621            7 
 2612000    0.8375108   -5.9775701    1046.2102  0.033378326  0.033161329            6 
 2613000   0.83889999   -5.9719521    1046.6061  0.033378177  0.033152884            6 
 2614000   0.82550573   -5.9974427    1044.9289  0.033311938  0.033144466           10 
 2615000   0.81573131   -5.9864408    1045.7669  0.033325906  0.033136078            6 
 2616000   0.82194665    -5.989809    1047.2147  0.033359287  0.033127732            5 
 2617000    0.8235913   -5.9796775    1044.9449   0.03327426  0.033119334            6 
 2618000   0.83824273   -5.9993008    1043.3687  0.033211379  0.033110865           18 
 2619000   0.84046295   -6.0360836    1043.6849  0.033208761   0.03310237            5 
 2620000   0.82659209   -6.0342765    1043.3873   0.03318662  0.033093872            7 
 2621000   0.82653318   -5.9977013    1046.7206  0.033279938  0.033085438            3 
 2622000   0.83637233   -5.9737317    1047.1289  0.033280222  0.033077035            3 
 2623000   0.83037336   -6.0080419    1047.8874  0.033291632  0.033068592            5 
 2624000   0.81721798   -6.0306616    1045.7963  0.033212537  0.033060073           10 
 2625000   0.84650772   -6.0059764    1047.5969  0.033257045  0.033051569            7 
 2626000   0.83333188   -5.9998157      1046.97  0.033224487  0.033043172            7 
 2627000   0.82251387    -6.000695    1047.8302  0.033239127  0.033034679            8 
 2628000   0.82354462   -6.0098899    1045.3264  0.033147082  0.033026181            4 
 2629000   0.82489203   -5.9905035    1047.1583  0.033192542  0.033017746           13 
 2630000     0.815618   -5.9937828    1047.3182  0.033184987  0.033009399            7 
 2631000   0.83983473   -6.0094721    1046.7067  0.033153005  0.033001004            4 
 2632000   0.81954943   -5.9900544    1047.5817  0.033168112  0.032992626           10 
 2633000   0.82687985   -6.0141417    1045.8313  0.033100117  0.032984253            5 
 2634000   0.82735838   -6.0053094    1048.2635    0.0331645  0.032975924            7 
 2635000    0.8201671   -5.9754446    1051.4326  0.033252139  0.032967621            7 
 2636000   0.83772591   -6.0268352    1047.1959  0.033105586  0.032959268            8 
 2637000   0.81221243   -5.9825708    1049.3305   0.03316049   0.03295091            6 
 2638000   0.82537146    -6.005331    1050.9548  0.033199231    0.0329425            7 
 2639000   0.84625067   -6.0325017    1049.5522  0.033142358  0.032934148            7 
 2640000   0.85630563   -5.9950773    1050.8197  0.033169812  0.032925782            7 
 2641000   0.82931607   -5.9885649    1050.1882  0.033137327  0.032917501            7 
 2642000   0.81924177   -6.0223758    1050.9364  0.033148386  0.032909113            4 
 2643000   0.79597405   -6.0028527    1053.4977    0.0332166  0.032900786            8 
 2644000   0.81608135   -6.0402331    1048.2994  0.033040199  0.032892394            6 
 2645000   0.83602493    -6.031172    1049.2111  0.033056429     0.032884            5 
 2646000   0.83980368   -6.0075563    1050.8853  0.033096664   0.03287571            7 
 2647000   0.81745267    -5.987081     1050.923  0.033085349  0.032867495            4 
 2648000   0.81362803   -5.9898088     1051.508  0.033091264  0.032859143            4 
 2649000   0.80824351   -5.9963655    1050.7423  0.033054683   0.03285086            6 
 2650000   0.82113365   -5.9887118    1052.1913  0.033087776  0.032842539            6 
 2651000   0.83924785   -6.0047867    1049.7554  0.032998723  0.032834147           10 
 2652000   0.81784301   -6.0413354    1052.2431  0.033064452  0.032825736            6 
 2653000   0.82950689   -6.0015746     1050.554  0.032998933  0.032817263            4 
 2654000   0.84805005   -5.9616314    1054.6638  0.033115543  0.032808888            7 
 2655000   0.82277956   -6.0012605    1049.5374  0.032942166  0.032800585            7 
 2656000   0.82208456   -5.9980783    1052.8515  0.033033743  0.032792242            9 
 2657000   0.83108416   -5.9894772     1052.633  0.033014459  0.032783847           11 
 2658000   0.83726109   -5.9763539    1054.0141  0.033045338  0.032775481            5 
 2659000   0.83204172   -6.0165126    1053.0811  0.033003669  0.032767096            5 
 2660000   0.84996643   -6.0132991    1049.6928  0.032885114  0.032758627            8 
 2661000   0.82664999   -5.9922796    1050.1014  0.032885551   0.03275019           10 
 2662000   0.83513117   -5.9942695    1052.0484  0.032934148  0.032741702            5 
 2663000   0.80854521   -5.9791768    1053.9113  0.032980077  0.032733216            7 
 2664000   0.84448418   -6.0150543    1051.2094  0.032883176  0.032724775            6 
 2665000   0.81519214   -6.0026469    1051.7071    0.0328864  0.032716305           12 
 2666000   0.84470489   -6.0156253    1052.5623  0.032900798  0.032707884            3 
 2667000   0.82377361   -6.0254777    1053.6165  0.032921401  0.032699456            9 
 2668000   0.84805396   -6.0335265    1049.3539  0.032775921  0.032690961            6 
 2669000    0.8156196   -6.0290895    1051.0477  0.032816526  0.032682452            7 
 2670000   0.83790751   -6.0424152    1050.2013  0.032777817  0.032673916            5 
 2671000   0.83210818   -6.0200656    1048.9743  0.032727265  0.032665384            8 
 2672000   0.80898421   -6.0045073    1052.3496  0.032820283  0.032656891            7 
 2673000   0.81616657   -5.9697343    1054.8911  0.032887239  0.032648512           14 
 2674000   0.82240304   -6.0251319    1051.1915  0.032759646  0.032640191            7 
 2675000   0.82435104   -5.9872054    1054.1314  0.032838985   0.03263183            6 
 2676000   0.81588642   -6.0152157    1052.7848  0.032784779   0.03262337            7 
 2677000    0.8143469   -6.0466309    1050.7878  0.032710367  0.032614836            5 
 2678000   0.82318713   -5.9851367    1053.6257  0.032786462  0.032606351            5 
 2679000   0.82729798   -5.9997079    1054.3752  0.032797537  0.032597903            6 
 2680000   0.82248106   -6.0057314    1055.1322  0.032808838  0.032589503           15 
 2681000   0.81979648   -6.0473864    1051.4914  0.032683434  0.032581059            6 
 2682000   0.81644289   -6.0232771     1052.897  0.032714921  0.032572598            9 
 2683000   0.81959047   -6.0004031    1052.8722  0.032701955  0.032564187            6 
 2684000   0.83408561   -6.0420469     1052.781  0.032686942  0.032555825            7 
 2685000   0.83112618   -6.0334826    1052.8873  0.032678067  0.032547443            8 
 2686000   0.81995292   -6.0352955    1054.4798  0.032715307  0.032538985            7 
 2687000   0.83121423   -6.0337173    1054.1385  0.032692549  0.032530527            6 
 2688000    0.8340803   -6.0396683    1054.4023  0.032688563  0.032522128            8 
 2689000   0.82737479   -6.0304909    1054.2054  0.032670304  0.032513708            7 
 2690000   0.81715956   -6.0320755    1051.7409  0.032581811  0.032505166            5 
 2691000   0.81847189   -6.0022232    1054.3647  0.032650958  0.032496669            4 
 2692000    0.8454042   -6.0314208     1051.428  0.032547919  0.032488185            9 
 2693000    0.8191049   -5.9940399    1055.8298  0.032672046  0.032479711            8 
 2694000   0.83935851   -6.0153129    1053.9315  0.032601197  0.032471184            6 
 2695000   0.80889476    -6.032317    1055.8788  0.032649313  0.032462629            7 
 2696000   0.82231553   -6.0602233    1053.4588  0.032562401  0.032454101           13 
 2697000   0.81758477   -6.0001082    1056.6591  0.032649213  0.032445641            4 
 2698000   0.82348074   -6.0093164    1056.4297  0.032630025  0.032437257            7 
 2699000   0.80923997   -6.0283383    1053.3409  0.032522568  0.032428727            5 
 2700000   0.81698742   -6.0152628    1056.0913   0.03259541  0.032420189            8 
 2701000   0.82019098   -6.0387027    1052.4661  0.032471497  0.032411759            8 
 2702000   0.84537296   -6.0630808    1052.6591  0.032465431   0.03240321            6 
 2703000   0.82721319   -6.0234652    1057.4292   0.03260048  0.032394677            5 
 2704000   0.80554107   -6.0413854    1055.7027  0.032535217  0.032386222            5 
 2705000   0.82074592   -6.0208219     1055.869   0.03252831  0.032377799            4 
 2706000   0.81406331     -6.04346    1055.5588  0.032506739  0.032369346            7 
 2707000   0.80010798   -6.0385757    1058.5474  0.032586731  0.032360943            7 
 2708000   0.80503492    -6.024684    1054.9883  0.032465173  0.032352525            7 
 2709000   0.79359034    -6.051377    1057.1609  0.032520022  0.032344095            6 
 2710000   0.81350502    -6.026408    1058.0689  0.032535945  0.032335573            8 
 2711000   0.82146429   -6.0257472    1056.1507  0.032464978  0.032327058            3 
 2712000   0.80994276   -6.0344971    1060.8069  0.032596083  0.032318513            4 
 2713000   0.80602917    -6.061477     1055.061  0.032407576  0.032309982            8 
 2714000   0.81647631   -6.0566575    1057.4612  0.032469331   0.03230146            6 
 2715000   0.80448334    -6.035766    1056.9399  0.032441373  0.032292982            4 
 2716000   0.81829673   -6.0341844    1055.5468  0.032386684  0.032284528            8 
 2717000   0.82317555   -6.0291698    1057.8432  0.032445196  0.032276016            4 
 2718000   0.82139504   -6.0225674    1058.3737  0.032449525  0.032267534            4 
 2719000   0.79534317   -6.0460453    1054.9515  0.032332704  0.032259192            8 
 2720000   0.80265395   -6.0477311    1056.5095   0.03236855  0.032250789            8 
 2721000   0.82755927   -6.0615017    1058.5674   0.03241968  0.032242413           13 
 2722000   0.82929986    -6.053084    1058.2316   0.03239749  0.032233965            8 
 2723000   0.82399688   -6.0508369    1055.5679  0.032304073  0.032225515           12 
 2724000   0.81867287   -6.0430706    1059.7874  0.032421297  0.032217079            9 
 2725000   0.83431829     -6.03889    1060.3558  0.032426783  0.032208658            4 
 2726000   0.78947398   -6.0304051    1059.9694  0.032403076  0.032200257            6 
 2727000   0.83154623   -6.0487995    1058.0618  0.032332898  0.032191833            6 
 2728000   0.79675529   -6.0576641    1056.8035  0.032282611  0.032183355            7 
 2729000   0.81670956   -6.0557167    1059.6883  0.032358871  0.032174978            6 
 2730000   0.80911291   -6.0481807    1059.9733  0.032355716  0.032166613            4 
 2731000   0.81958383   -6.0351919     1057.846  0.032278957  0.032158167            7 
 2732000   0.81007246    -6.051932    1060.7037   0.03235431  0.032149758            8 
 2733000   0.80904991   -6.0317102    1058.2798  0.032268563  0.032141409           13 
 2734000   0.81875896   -6.0229807    1061.4914   0.03235465  0.032133021            9 
 2735000   0.81798782   -6.0480071    1059.4027  0.032279181  0.032124597            5 
 2736000   0.83380191   -6.0294802    1059.7933  0.032279281   0.03211621            6 
 2737000   0.81285394   -6.0243685    1061.3127  0.032313748  0.032107855            6 
 2738000   0.80569442   -6.0169244    1062.5581  0.032339849  0.032099493            5 
 2739000   0.81166148   -6.0511771    1056.7901  0.032152554  0.032091168            9 
 2740000   0.81510483   -6.0503178    1061.3984  0.032280972  0.032082814            3 
 2741000   0.82812227   -6.0086127    1062.6037  0.032305839  0.032074515            6 
 2742000   0.82122116   -6.0401311    1065.7594  0.032389965  0.032066241            5 
 2743000   0.79636568   -6.0443565         1065  0.032355087  0.032058005            7 
 2744000   0.83704397   -6.0508767    1062.5784  0.032269753  0.032049704           13 
 2745000   0.82317886   -6.0291309     1062.008  0.032240681  0.032041347            4 
 2746000   0.81916057   -6.0504642    1061.9969  0.032228601  0.032033017           14 
 2747000   0.80065602   -6.0318166    1061.5626  0.032203695  0.032024665            5 
 2748000   0.80438328   -6.0487159    1065.4412  0.032309596  0.032016363           12 
 2749000    0.8141974    -6.055245    1063.0907  0.032226587  0.032008081           10 
 2750000   0.82198368    -6.040456    1063.8485  0.032237834  0.031999744            5 
 2751000   0.82322454   -6.0826591    1063.0978  0.032203376  0.031991392           21 
 2752000   0.79593077   -6.0681059    1063.6023   0.03220695  0.031983092           10 
 2753000   0.81046033    -6.086124    1063.5063  0.032192344   0.03197476           11 
 2754000   0.78586075   -6.0483001    1063.0298  0.032166237  0.031966441           17 
 2755000   0.79575316    -6.041031     1062.941  0.032151874  0.031958207            4 
 2756000    0.8105235   -6.0210359     1066.719  0.032254445  0.031949962            2 
 2757000   0.80676133   -6.0535223    1067.2628  0.032259182   0.03194171            5 
 2758000    0.8226382    -6.039143    1068.3043  0.032278956  0.031933522            6 
 2759000   0.81860675   -6.0827863    1064.7817  0.032160859  0.031925269            3 
 2760000   0.79155784   -6.0735344    1068.2795  0.032254815  0.031917004            6 
 2761000   0.80218441    -6.047069    1068.0136  0.032235107  0.031908807            7 
 2762000   0.80976486   -6.0730593    1066.8011  0.032186855  0.031900631            4 
 2763000   0.81122457   -6.0572823    1065.5155  0.032136432  0.031892488            6 
 2764000   0.79676857   -6.0704715    1065.5426  0.032125622  0.031884294            6 
 2765000   0.81959708   -6.0608543    1067.1996  0.032163943  0.031876137            9 
 2766000   0.79825899   -6.0512141    1069.0116  0.032206906  0.031868063           14 
 2767000   0.82292662   -6.0366829    1068.5054   0.03218002  0.031859952            9 
 2768000   0.81117945   -6.0716069     1068.949   0.03218175  0.031851859            6 
 2769000   0.81944116   -6.0546084     1073.488   0.03230673  0.031843704            7 
 2770000   0.80901898     -6.03613    1070.1141  0.032193566  0.031835605            6 
 2771000   0.79484637   -6.0313844    1069.6043  0.032166616  0.031827537            5 
 2772000   0.80180518    -6.041003    1070.1015  0.032169958   0.03181942            5 
 2773000   0.80579902    -6.027923    1070.9977  0.032185289  0.031811404            6 
 2774000   0.80429639   -6.0476909     1069.783  0.032137196  0.031803357            8 
 2775000   0.79143314   -6.0431006     1069.127  0.032105915  0.031795254            6 
 2776000   0.81198444   -6.0614168     1065.231  0.031977395  0.031787112            6 
 2777000   0.81117881     -6.07494    1069.3084  0.032088236  0.031779022            9 
 2778000   0.79495094   -6.0313496    1073.0081  0.032187668  0.031770949            5 
 2779000   0.81030757    -6.064727    1068.3998  0.032037897  0.031762885            6 
 2780000   0.79408798   -6.0704246    1067.6034  0.032002501  0.031754825           14 
 2781000   0.80811646   -6.0299336    1072.0492  0.032124213  0.031746727            8 
 2782000    0.8014462   -6.0340022     1069.518  0.032036843  0.031738651            8 
 2783000   0.80468857   -6.0671893    1071.9481  0.032098098  0.031730658            8 
 2784000   0.79801856   -6.0851576    1067.7971  0.031962318  0.031722523            5 
 2785000   0.80751837   -6.0650295    1071.3526   0.03205723  0.031714366            4 
 2786000   0.80362357   -6.0766647    1067.9027  0.031942532  0.031706245           11 
 2787000   0.82382892   -6.0408479    1072.3714  0.032064689  0.031698068            6 
 2788000   0.82540807    -6.095627      1069.83  0.031977222  0.031689947            5 
 2789000   0.81193593   -6.0862898    1070.3905  0.031982506   0.03168176           15 
 2790000   0.80181221   -6.0633637    1068.6128  0.031917944  0.031673587            7 
 2791000   0.82272585   -6.0803705    1073.2048  0.032043617  0.031665418            8 
 2792000   0.79598216   -6.0656657    1069.3897  0.031918271  0.031657275            6 
 2793000   0.80860474   -6.0598344    1070.9867   0.03195449  0.031649127            7 
 2794000   0.80988856   -6.0428397     1073.232  0.032010021  0.031640928            5 
 2795000   0.80107733   -6.0679933    1070.3359   0.03191222  0.031632726            6 
 2796000   0.81528016   -6.0412338    1069.9359  0.031888886  0.031624567            4 
 2797000   0.80871855    -6.059273    1069.0511  0.031851123  0.031616337           10 
 2798000   0.82130886   -6.0940688    1068.0017  0.031808484  0.031608066            6 
 2799000   0.82804312   -6.0423294    1071.2226  0.031893017   0.03159992            7 
 2800000   0.80994817    -6.076185    1069.6567   0.03183502  0.031591815           13 
 2801000    0.7918926   -6.0898631     1068.307  0.031783501   0.03158354            8 
 2802000     0.811167   -6.0513679    1069.2719  0.031800854   0.03157539           10 
 2803000   0.78635077   -6.0844251    1069.8236  0.031805911  0.031567163           17 
 2804000   0.81027414   -6.0336023     1071.225  0.031836215  0.031558976            7 
 2805000   0.80977314   -6.0673672    1070.6704  0.031808391  0.031550804           15 
 2806000   0.79203784   -6.0479712      1070.32  0.031786649  0.031542582           14 
 2807000   0.80113551   -6.0789975     1069.009  0.031736403  0.031534317           15 
 2808000   0.78889652    -6.057964     1070.635  0.031773356  0.031526111            5 
 2809000   0.80708119   -6.0691919    1072.4289  0.031815263  0.031517901            3 
 2810000    0.8071483   -6.0669495    1073.3671  0.031831764  0.031509691            8 
 2811000   0.79327301   -6.0503259    1069.6003  0.031708773  0.031501422            3 
 2812000   0.79658899   -6.0639265    1066.9894  0.031620122  0.031493106           11 
 2813000   0.79517317   -6.0854349    1073.4865  0.031801354  0.031484843            8 
 2814000    0.7859474   -6.0646331    1069.9893  0.031686488  0.031476514            6 
 2815000   0.81042976   -6.0478649    1070.0738  0.031677732  0.031468342            9 
 2816000   0.81456119   -6.0556221    1073.3615  0.031763777  0.031460138           10 
 2817000   0.79086355   -6.0881104    1070.7626  0.031675618  0.031451936            9 
 2818000   0.78629088   -6.0566831    1072.6967  0.031721574  0.031443696            7 
 2819000   0.80289433   -6.0527064    1072.0016  0.031689773  0.031435543            7 
 2820000   0.78921222   -6.0850894    1072.7728  0.031701324   0.03142729            5 
 2821000   0.80295372   -6.1040533    1074.1155  0.031729749  0.031419045            6 
 2822000   0.82165653    -6.090706    1070.6909  0.031617378  0.031410771            6 
 2823000   0.80088816   -6.0908732    1072.4228  0.031657303  0.031402458            6 
 2824000   0.80656842    -6.074055    1071.5382  0.031619989  0.031394124            7 
 2825000   0.78443282    -6.084032    1069.3264  0.031543551  0.031385787           12 
 2826000   0.79125156   -6.0785702    1072.8436  0.031636105  0.031377466            9 
 2827000   0.78614092   -6.0926056    1070.6872   0.03156135  0.031369204            6 
 2828000   0.79450139   -6.0894374    1071.2352  0.031566335  0.031360886            9 
 2829000   0.79643781   -6.0803532    1073.5755  0.031624115  0.031352629            6 
 2830000   0.78015754   -6.0588364    1075.9615  0.031683201  0.031344375            8 
 2831000   0.80150986   -6.0947699    1074.0663  0.031616224  0.031336129            6 
 2832000   0.79423857   -6.0872726    1071.1525  0.031519319   0.03132787            4 
 2833000   0.80063449   -6.0848952    1069.8312  0.031469327  0.031319616           10 
 2834000   0.80822213   -6.0766914     1074.086  0.031583334  0.031311405            8 
 2835000    0.7843663    -6.076009    1073.7404  0.031562035  0.031303198            4 
 2836000   0.79404023   -6.0759502    1075.1042  0.031590978  0.031295035            7 
 2837000     0.797166   -6.0778958    1072.8257  0.031512916  0.031286808           13 
 2838000   0.81101967   -6.0750114    1071.5061  0.031463063  0.031278545            6 
 2839000   0.81340938   -6.0525402    1075.9798  0.031583297  0.031270322            3 
 2840000   0.81692718   -6.0879142    1072.7221  0.031476588  0.031262058           16 
 2841000   0.79297412   -6.0931962    1073.8671  0.031499092  0.031253731            6 
 2842000   0.81426369   -6.0646643    1075.3919  0.031532721  0.031245404            7 
 2843000   0.79403386   -6.1020426    1072.5894  0.031439482  0.031237128            6 
 2844000   0.81310346   -6.0670675    1073.5204  0.031455707  0.031228849            7 
 2845000   0.81194591   -6.0699348    1074.1392  0.031462777  0.031220679            7 
 2846000   0.80006844   -6.0656993       1077.3  0.031544273  0.031212434            5 
 2847000     0.800861   -6.0871446    1072.2353  0.031384945  0.031204175           10 
 2848000   0.78947501   -6.0727952    1073.0293  0.031397158  0.031195886            9 
 2849000    0.7893794   -6.0473205    1080.2904  0.031598526  0.031187704            7 
 2850000   0.77962486   -6.0893533    1071.1766  0.031320953  0.031179444           17 
 2851000   0.80081592   -6.0780237    1073.1067  0.031366384  0.031171125           11 
 2852000   0.79367268   -6.1125676    1074.7185  0.031402481  0.031162755            6 
 2853000   0.81210061   -6.0550543    1077.2356  0.031464997  0.031154449           13 
 2854000   0.80241323   -6.0830825    1075.2619  0.031396342  0.031146234            6 
 2855000   0.80832375   -6.0996268    1075.2348  0.031384552  0.031137975            5 
 2856000   0.77334173   -6.0880914    1075.0558  0.031368342   0.03112963            2 
 2857000    0.7942158   -6.0795166    1074.0794  0.031328883  0.031121311            8 
 2858000   0.77614646   -6.0789438    1075.3805  0.031355858  0.031112985           12 
 2859000    0.7895274   -6.0733517    1078.5729  0.031437941  0.031104793            8 
 2860000   0.77928722   -6.1135963    1075.1527  0.031327293  0.031096484            6 
 2861000   0.80050205   -6.0710349    1078.9057  0.031425659  0.031088201            5 
 2862000   0.80427723   -6.0846832    1073.3412  0.031252655  0.031079906            6 
 2863000   0.78339224   -6.1118708    1072.9278  0.031229706  0.031071604            5 
 2864000    0.7784785   -6.1256093    1075.8063  0.031302557  0.031063285            9 
 2865000   0.81765711   -6.1143427    1072.2594  0.031188465  0.031054965            6 
 2866000   0.79543878   -6.1315565    1073.4773  0.031212994   0.03104658            9 
 2867000   0.80346695   -6.1087292    1074.9373  0.031244543   0.03103828            8 
 2868000   0.80172005   -6.0815542    1078.4126  0.031334628  0.031030021            9 
 2869000   0.78395829   -6.0800987    1075.6664  0.031243942  0.031021793            9 
 2870000   0.80835325   -6.1054412    1074.8547  0.031209487  0.031013535            5 
 2871000   0.81642623   -6.1391418      1075.02  0.031203412   0.03100527           12 
 2872000   0.78448581   -6.0943959     1076.064   0.03122284  0.030996979            4 
 2873000   0.79009481   -6.0759482    1077.1667  0.031243958  0.030988804            7 
 2874000   0.80240821   -6.1113347    1077.5346  0.031243753  0.030980605           10 
 2875000   0.77896684   -6.0885865    1078.5444  0.031262157  0.030972395            6 
 2876000   0.79546866   -6.0957032    1076.6101  0.031195239  0.030964115            9 
 2877000   0.81364913   -6.0927923    1077.4438  0.031208544  0.030955832            8 
 2878000   0.79113451    -6.107839    1077.1645  0.031189615  0.030947654            8 
 2879000   0.81746004   -6.1048378    1077.1084  0.031177158  0.030939403            8 
 2880000   0.76926353   -6.0764921    1076.0633  0.031136091  0.030931204            6 
 2881000   0.76883945   -6.0983764    1078.7192  0.031202106  0.030923009            8 
 2882000   0.79192509   -6.1244151    1074.9368   0.03108191  0.030914785           12 
 2883000   0.77511679   -6.1210609    1079.0981  0.031191412  0.030906609            3 
 2884000   0.78325836   -6.0998518    1079.6548  0.031196682  0.030898398           14 
 2885000   0.80170227   -6.0689869    1081.3505  0.031234848  0.030890224            4 
 2886000   0.81451757   -6.0945466    1078.3815  0.031138296  0.030882109            6 
 2887000   0.77333375   -6.1033537    1078.4806  0.031130372  0.030873913            9 
 2888000   0.80272701   -6.1050702    1076.7333  0.031069173    0.0308657            9 
 2889000   0.78592895   -6.1204716    1080.1667  0.031157455  0.030857472           21 
 2890000   0.79852831   -6.0942285    1078.9929  0.031112829  0.030849199           12 
 2891000   0.79020678   -6.1087302    1081.1766  0.031165013   0.03084099            4 
 2892000   0.76660321   -6.1183363    1077.9008  0.031059842  0.030832823           22 
 2893000   0.80131154   -6.1131878     1079.413  0.031092665  0.030824671            5 
 2894000   0.78085445   -6.0959018    1078.0331  0.031042188  0.030816471            6 
 2895000   0.77898544   -6.0964771    1079.8617  0.031084102  0.030808305            7 
 2896000   0.79986603   -6.0956033    1079.0523  0.031050077  0.030800159            6 
 2897000    0.8037069   -6.1164447    1082.0133  0.031124535  0.030791994            6 
 2898000   0.78486681   -6.1095609    1078.0445   0.03099967  0.030783865           10 
 2899000   0.78745522    -6.121402    1081.3494  0.031083978  0.030775636            7 
 2900000   0.79182596   -6.0861528     1082.874   0.03111707   0.03076746            5 
 2901000   0.79202073   -6.1051529      1081.48    0.0310663  0.030759351            7 
 2902000   0.80267771    -6.129067    1079.2373  0.030991192   0.03075116            4 
 2903000   0.77737241   -6.1132514    1078.9798  0.030973126  0.030742992            6 
 2904000   0.79345787   -6.1288255    1078.7289  0.030955261  0.030734829            7 
 2905000   0.77722338   -6.1466297    1078.6043  0.030941028   0.03072666            7 
 2906000   0.79162019   -6.1196756    1081.6165  0.031016761  0.030718463            4 
 2907000   0.78937259   -6.0832463    1083.4785  0.031059469  0.030710274            5 
 2908000   0.79186789   -6.1211698    1078.9098  0.030917864  0.030702095            6 
 2909000   0.79187319   -6.1279305    1080.6893  0.030958212  0.030693935            4 
 2910000    0.7891074   -6.1226927     1080.844  0.030952006  0.030685761            5 
 2911000   0.78502834   -6.0976197    1080.9135  0.030943362    0.0306776            7 
 2912000   0.78658663   -6.1258644    1078.0552  0.030850937  0.030669437           12 
 2913000    0.7865883   -6.1197895    1081.5676  0.030940828    0.0306612            4 
 2914000   0.77365339   -6.1010717    1082.5564  0.030958487  0.030652954            4 
 2915000   0.78153032   -6.1002364     1081.566  0.030919555  0.030644826            6 
 2916000   0.78858195   -6.0874984    1082.0484  0.030922737  0.030636667            7 
 2917000   0.79274445   -6.1046613    1081.0724  0.030884254  0.030628489           10 
 2918000   0.77835956   -6.1371417    1079.0415   0.03081567  0.030620257            5 
 2919000   0.79080562   -6.1087196    1079.4707  0.030817367  0.030612007            8 
 2920000   0.78902981   -6.1367866    1081.2766   0.03085835  0.030603743           14 
 2921000   0.78619392    -6.123718    1081.4553  0.030852885  0.030595482            8 
 2922000    0.8002529   -6.1282308    1078.2775  0.030751698   0.03058717           13 
 2923000   0.76577289   -6.1334418    1078.6253  0.030751091  0.030578825            5 
 2924000   0.80077156   -6.1276372    1079.9827   0.03077926   0.03057056            6 
 2925000   0.78130659   -6.1194588    1077.1609  0.030688344  0.030562258            6 
 2926000   0.78514353   -6.1088224    1079.1244  0.030733778  0.030553922            6 
 2927000   0.77861664   -6.0778181    1081.3999  0.030788061  0.030545694            4 
 2928000   0.77160891   -6.1374682     1080.723  0.030758281   0.03053744            9 
 2929000   0.80294541   -6.0848589    1083.5742  0.030828901  0.030529197           10 
 2930000   0.77932972   -6.1373925    1079.1755  0.030693273  0.030520962           14 
 2931000   0.78072752   -6.1318132    1081.4113  0.030746369  0.030512702            7 
 2932000   0.77216882    -6.132646    1078.3314  0.030648345  0.030504331            6 
 2933000   0.78854086   -6.1270505    1080.9659  0.030712748   0.03049606            7 
 2934000   0.79578163    -6.123848     1079.293  0.030654766  0.030487897            9 
 2935000   0.78163671   -6.1413598    1078.8713  0.030632347  0.030479623            4 
 2936000   0.78233616   -6.1578794     1078.704  0.030617166  0.030471292           11 
 2937000   0.78119211   -6.1022965    1081.4068  0.030683431  0.030463005           10 
 2938000   0.78613097   -6.1268917    1082.4458  0.030702457  0.030454683            7 
 2939000   0.77810475   -6.1221313    1081.5922  0.030667807  0.030446424           12 
 2940000   0.77638071    -6.118004    1082.6961  0.030688666  0.030438125            4 
 2941000   0.79531095   -6.1351076    1078.9292  0.030571495  0.030429758            6 
 2942000   0.76994981   -6.1336291     1081.996  0.030647973  0.030421423            7 
 2943000   0.75470847   -6.1427995    1079.5588  0.030568548  0.030413101           23 
 2944000   0.77994467   -6.1522174    1080.3694  0.030581108   0.03040482           10 
 2945000   0.78624227   -6.1479622    1081.1008  0.030591421  0.030396451            7 
 2946000   0.77320785   -6.1265559    1082.4118   0.03061812  0.030388114            4 
 2947000   0.77007114    -6.096947      1085.18  0.030686009  0.030379837           10 
 2948000   0.77732583   -6.1600787    1079.1135  0.030504114  0.030371519           13 
 2949000   0.78363432   -6.1235277    1081.5444  0.030562462  0.030363176            8 
 2950000   0.77995129   -6.1359096    1083.0476  0.030594564  0.030354816            4 
 2951000   0.78734053   -6.1127498    1083.1848  0.030588071  0.030346466            7 
 2952000   0.76956903   -6.1418962    1080.7308  0.030508435  0.030338117            9 
 2953000   0.78392918    -6.111785    1081.7567  0.030527055  0.030329745            8 
 2954000   0.78056714   -6.1285386    1081.5416  0.030510651  0.030321444           11 
 2955000   0.76909901   -6.0954831    1082.7829  0.030535332   0.03031309            6 
 2956000   0.78377217    -6.127618    1082.1643  0.030507563  0.030304862            7 
 2957000   0.77810456   -6.1386704    1083.4657  0.030533921  0.030296621            8 
 2958000   0.77947411   -6.1242934    1084.5218  0.030553351  0.030288376           15 
 2959000   0.77491995   -6.1001213    1083.2696  0.030507762  0.030280119            9 
 2960000   0.77863322   -6.1290712    1085.2509  0.030553236  0.030271919           12 
 2961000   0.77858214   -6.1312138    1086.5667  0.030579949  0.030263705            5 
 2962000   0.75495104   -6.1393172    1086.6598  0.030572242  0.030255466            9 
 2963000   0.79535599   -6.1143857    1086.6395  0.030561354  0.030247242            6 
 2964000   0.79563407   -6.1448591    1085.1209  0.030508348  0.030239023            7 
 2965000   0.78882555   -6.1686115    1085.6517  0.030512975  0.030230772           10 
 2966000   0.78145339   -6.1204788    1085.2398  0.030491116  0.030222509            4 
 2967000   0.78553956   -6.1228997    1083.1649  0.030422563  0.030214334            6 
 2968000    0.7788704   -6.1363796    1085.4992  0.030477851  0.030206175            5 
 2969000   0.77362166   -6.1401666    1082.4809  0.030382872  0.030197976            6 
 2970000   0.76924858   -6.1161348    1082.1335  0.030362893  0.030189765           12 
 2971000    0.7691631   -6.1489153    1084.3775  0.030415616  0.030181506           23 
 2972000   0.78879411   -6.1468491    1085.4228   0.03043469  0.030173266           11 
 2973000    0.7761379   -6.1308407    1085.3976  0.030423748  0.030165065            6 
 2974000   0.78527584   -6.1286425    1084.1518  0.030378608  0.030156837           12 
 2975000   0.78348844   -6.1940903     1082.057   0.03030972  0.030148544           11 
 2976000    0.7644287   -6.1562898     1084.326  0.030363072  0.030140272           13 
 2977000   0.78162688   -6.1191474    1085.3549  0.030381673  0.030131993            5 
 2978000   0.77797495   -6.1292776    1084.5975  0.030350277  0.030123751            4 
 2979000   0.77170779   -6.1415572    1085.9423  0.030377707  0.030115502            7 
 2980000   0.77573732   -6.1325742    1085.7456  0.030362013  0.030107211            8 
 2981000   0.77806172   -6.1455772    1081.4952   0.03023301  0.030098939            8 
 2982000   0.77280285   -6.1195146     1084.921  0.030318606  0.030090684           20 
 2983000   0.76571461   -6.1517478    1085.2187   0.03031676  0.030082451           15 
 2984000   0.76978725   -6.1462776    1081.5357  0.030203745  0.030074186           10 
 2985000   0.76911395   -6.1316037    1086.8344  0.030341553   0.03006594           14 
 2986000   0.77346062   -6.1056412    1086.0173  0.030308588  0.030057709            9 
 2987000   0.77505906   -6.1261499    1082.3778  0.030196905  0.030049457            7 
 2988000    0.7713606   -6.1305347    1084.9509   0.03025856   0.03004117            6 
 2989000   0.77442956    -6.159135    1081.3289  0.030147454    0.0300329            7 
 2990000   0.79160772   -6.1647743    1086.3755  0.030278025  0.030024569            8 
 2991000   0.78053024   -6.1767888    1081.6831  0.030137163  0.030016183            8 
 2992000   0.76471142   -6.1672342    1082.6863  0.030155033  0.030007867            9 
 2993000   0.77067424   -6.1408279    1088.4163  0.030304497  0.029999633            7 
 2994000   0.76654872   -6.1639931    1084.8661   0.03019556  0.029991373            4 
 2995000    0.7713782   -6.1532829    1084.0581  0.030162997   0.02998305            8 
 2996000   0.76093698    -6.127999    1084.1572  0.030155685  0.029974836           18 
 2997000   0.77903953   -6.1351687    1087.3518  0.030234451  0.029966612           16 
 2998000    0.7817582   -6.1351187    1087.4011  0.030225736  0.029958402           11 
 2999000   0.77450462   -6.1478964    1085.0552  0.030150474  0.029950179            6 
 3000000   0.78630194   -6.1358882    1089.2107  0.030255853  0.029941931            6 
 3001000   0.78980893   -6.1552977    1085.0607  0.030130532  0.029933751            6 
 3002000   0.76234258   -6.1621688    1088.0159  0.030202528  0.029925528           11 
 3003000   0.77463303   -6.1481576    1086.8459  0.030160005  0.029917257            9 
 3004000   0.75598698   -6.1799858    1086.2101  0.030132328  0.029909005            8 
 3005000   0.75476921   -6.1576814    1086.5297  0.030131161    0.0299007            7 
 3006000   0.77114211   -6.1237824    1085.3092  0.030087304  0.029892472           17 
 3007000   0.77721365   -6.1588663    1086.2807  0.030104222   0.02988423           15 
 3008000   0.76486355   -6.1386288    1089.5388  0.030184474   0.02987603            6 
 3009000    0.7614738   -6.1467472    1088.6238  0.030149102  0.029867813            7 
 3010000   0.77108703    -6.107526    1089.7362  0.030169882  0.029859629            7 
 3011000   0.76912279   -6.1520148    1087.8857   0.03010865  0.029851416            7 
 3012000   0.77935119   -6.1793954    1083.4979  0.029977256  0.029843093           10 
 3013000   0.76155183   -6.1230455    1087.1958  0.030069582  0.029834795            6 
 3014000   0.75912204   -6.1585739     1084.641  0.029988969  0.029826555            8 
 3015000   0.75519833   -6.1586612    1086.6796  0.030035368  0.029818331            5 
 3016000   0.77162008   -6.1537288    1087.9595  0.030060773  0.029810089            8 
 3017000   0.77180922   -6.1351426    1090.6627  0.030125475  0.029801826            6 
 3018000   0.77323546   -6.1678077     1087.978  0.030041363   0.02979361            8 
 3019000   0.76649176   -6.1613704    1087.1384  0.030008236  0.029785345            5 
 3020000   0.77627253   -6.1512314     1085.984  0.029966445   0.02977709            6 
 3021000   0.75923149   -6.1635729     1088.069  0.030014042  0.029768804            6 
 3022000   0.77998314   -6.1881374    1085.6231  0.029936662  0.029760527           15 
 3023000   0.75315148    -6.158666     1088.504  0.030006174  0.029752281            8 
 3024000    0.7781361   -6.1735934    1085.1553  0.029903972  0.029744051            6 
 3025000   0.76265858   -6.1215572    1089.2308  0.030006358  0.029735848            6 
 3026000   0.76942766   -6.1517015    1088.7537  0.029983303  0.029727668           19 
 3027000   0.75929736   -6.1591628    1087.8626  0.029948866  0.029719388           11 
 3028000   0.76061485   -6.1435414    1088.1101  0.029945786  0.029711161            3 
 3029000   0.75954751   -6.1210044    1089.7106  0.029979932  0.029703044           12 
 3030000   0.75952897    -6.139124    1090.2459  0.029984761  0.029694896            8 
 3031000   0.76062919   -6.1552517    1088.5929  0.029929422  0.029686753            7 
 3032000   0.75281202   -6.1758185    1090.1743  0.029963015  0.029678578            8 
 3033000   0.76558443    -6.179486    1088.4957  0.029907014  0.029670356           14 
 3034000   0.77474879   -6.2179418     1090.471  0.029951412  0.029662137            7 
 3035000   0.77254759   -6.1971777    1086.5835  0.029834803  0.029653904            6 
 3036000   0.76375508   -6.1788361    1089.7591   0.02991214  0.029645627           15 
 3037000   0.74801841   -6.1606773    1088.7238  0.029873883  0.029637402            7 
 3038000   0.75025378    -6.171153    1089.5929   0.02988789  0.029629201            6 
 3039000   0.74567364   -6.1742868    1088.4477  0.029846653  0.029621014           10 
 3040000   0.76371973   -6.1334195    1092.6694  0.029952561  0.029612847            7 
 3041000   0.77099112   -6.1578353    1092.0016  0.029924412  0.029604715           13 
 3042000   0.76081194   -6.1662049    1087.5398  0.029792347  0.029596576           11 
 3043000      0.76875   -6.1364272    1088.8761  0.029819149  0.029588415           12 
 3044000   0.75821361   -6.1465864     1090.872  0.029863996  0.029580243           15 
 3045000   0.76617227   -6.1777347    1091.3409  0.029867021  0.029572153           16 
 3046000   0.76561513   -6.1513523    1091.6011  0.029864333  0.029563965            5 
 3047000    0.7604108    -6.166263    1088.2628   0.02976323  0.029555787           22 
 3048000    0.7753663   -6.1722534     1091.455  0.029840743  0.029547561           20 
 3049000   0.76424749   -6.1966754    1090.5526  0.029806291  0.029539326           11 
 3050000   0.75871563   -6.1859662     1090.499  0.029795053   0.02953112            8 
 3051000   0.77594493   -6.1965008    1089.1895  0.029749522  0.029522954            7 
 3052000   0.76016305   -6.1871386    1087.5033  0.029693734  0.029514737            7 
 3053000   0.76153518   -6.1982134    1093.9329  0.029859508  0.029506569            6 
 3054000   0.76472603   -6.1679585    1091.0829  0.029771963  0.029498417           12 
 3055000   0.75626484    -6.183597    1089.9601  0.029731591  0.029490268            7 
 3056000   0.76456549   -6.1825818    1089.1849  0.029700723  0.029482069            7 
 3057000   0.78018698   -6.1725978    1090.0516  0.029714632  0.029473917            8 
 3058000   0.76696342   -6.1438088    1093.4674  0.029797999  0.029465806            3 
 3059000   0.76166114   -6.1430011    1096.2372  0.029863713  0.029457741           12 
 3060000   0.75600339    -6.170497    1091.8512  0.029734511  0.029449658            6 
 3061000   0.76847877   -6.1469261    1092.9085  0.029753579  0.029441566            8 
 3062000   0.75708289   -6.1694229    1093.4876  0.029759623  0.029433473            6 
 3063000    0.7572582   -6.1625529    1093.1494  0.029740705  0.029425375            9 
 3064000   0.77173638   -6.1524224    1092.6047  0.029716185  0.029417342            6 
 3065000   0.75512329   -6.1552073    1091.7029  0.029681972  0.029409241           10 
 3066000   0.76194971   -6.1670618    1092.2086  0.029686035  0.029401151            7 
 3067000   0.76544285   -6.1879538    1091.7005  0.029662551  0.029393037            7 
 3068000   0.76179345   -6.1908826     1091.072   0.02963581  0.029384872            5 
 3069000    0.7466612   -6.1703025    1091.6248  0.029641165  0.029376742           11 
 3070000   0.75467742   -6.1286328    1094.4642  0.029708583  0.029368689            5 
 3071000   0.76503358   -6.2035951     1089.206  0.029556224  0.029360561           13 
 3072000   0.75821336    -6.174089    1091.5209  0.029609399  0.029352482            6 
 3073000   0.75537656   -6.1623927    1095.0494  0.029695449  0.029344415            8 
 3074000   0.75931447   -6.1668647    1095.5457  0.029699242  0.029336365           10 
 3075000   0.77434416   -6.1928198    1091.6173  0.029583125  0.029328255           33 
 3076000   0.76699506   -6.1998715    1088.3888  0.029486043  0.029320112           12 
 3077000   0.77489169   -6.1990088    1091.7693  0.029568012  0.029312006            5 
 3078000   0.78034594   -6.1612556    1093.2931  0.029599661  0.029303917            3 
 3079000   0.77370507    -6.186989    1089.3422  0.029483117   0.02929581           19 
 3080000   0.77043731    -6.176011     1096.025  0.029654356  0.029287761            9 
 3081000   0.76585398   -6.1639752    1094.9195   0.02961483  0.029279699            6 
 3082000    0.7726924   -6.1758729    1092.3836  0.029536653  0.029271578            5 
 3083000   0.76445781   -6.1898024    1090.4758  0.029475505  0.029263452           15 
 3084000   0.76886147   -6.1971746    1094.3408  0.029570384  0.029255342           10 
 3085000   0.75789764   -6.1712745    1094.5206  0.029565656  0.029247224           10 
 3086000   0.75941701   -6.1760963     1093.946  0.029540559  0.029239176            6 
 3087000   0.75739166   -6.1846079    1093.0571  0.029506995  0.029231082            9 
 3088000    0.7683469   -6.1889556    1094.5739  0.029538372  0.029222996            5 
 3089000   0.76131342   -6.1722242    1094.4543  0.029525582  0.029214926           11 
 3090000   0.76267616   -6.2120826    1096.0639  0.029559437   0.02920685            7 
 3091000   0.74358503    -6.186981    1093.5422  0.029481887  0.029198786            6 
 3092000   0.77306375    -6.207123    1092.3786  0.029440993   0.02919076           18 
 3093000   0.74917399   -6.1840238    1096.6154  0.029545626   0.02918272            7 
 3094000   0.75655193   -6.1936578    1093.7805  0.029459721   0.02917468           15 
 3095000   0.75496378   -6.2072727    1091.7081  0.029394402  0.029166601            6 
 3096000    0.7720868   -6.1910424    1096.0379   0.02950145  0.029158535           11 
 3097000   0.76463811   -6.1916164      1096.58  0.029506513  0.029150484           12 
 3098000    0.7579745   -6.1987154    1096.1912  0.029486528  0.029142442           12 
 3099000   0.74274168   -6.1851751      1097.38  0.029508981  0.029134426           24 
 3100000   0.76109809   -6.1815571     1097.466  0.029501775   0.02912636           24 
 3101000   0.75077355    -6.218563    1095.3375  0.029435061  0.029118314            8 
 3102000   0.75510088    -6.198207    1098.5057  0.029510683  0.029110277            9 
 3103000   0.74832109   -6.2042483    1094.3086  0.029388458  0.029102191            5 
 3104000   0.75821389   -6.1943489    1097.6976  0.029469973  0.029094136           10 
 3105000   0.75286958   -6.1764078    1098.4409  0.029480431  0.029086066            7 
 3106000   0.74445396   -6.2105994    1096.3745    0.0294155  0.029078034            8 
 3107000   0.76414391   -6.1575858    1095.5768  0.029384636  0.029069987           16 
 3108000   0.75357167   -6.2037529    1093.5354  0.029320447  0.029061955            7 
 3109000   0.74684811   -6.1914294    1092.5475  0.029284537  0.029053901           13 
 3110000   0.75102252   -6.2103752    1097.7792  0.029415306  0.029045878            8 
 3111000   0.75023851   -6.1945211    1098.1902  0.029416859  0.029037797           17 
 3112000    0.7526794   -6.1921081    1098.7929  0.029423546  0.029029822           13 
 3113000   0.76426185   -6.1565629    1098.6045  0.029409052  0.029021833           10 
 3114000   0.76804903   -6.1595841     1097.417  0.029367829  0.029013833            7 
 3115000   0.74621199   -6.1795866     1098.083  0.029376216  0.029005799            8 
 3116000   0.74839465   -6.1784011     1095.467  0.029296827  0.028997748           11 
 3117000   0.73904261   -6.1766121    1097.4098   0.02933937  0.028989679            4 
 3118000    0.7481033   -6.1917491    1098.5568  0.029360617  0.028981662           11 
 3119000   0.74224844   -6.1621941     1100.374  0.029399754  0.028973709            8 
 3120000   0.75694576   -6.1492404    1101.2177  0.029412865  0.028965756            9 
 3121000   0.74750225   -6.1993129    1102.3717  0.029434256  0.028957818            9 
 3122000   0.74841416    -6.179969    1100.2447  0.029368052   0.02894992            6 
 3123000   0.74629058   -6.1826084    1102.8368  0.029427814  0.028942063           13 
 3124000   0.75842063   -6.1684074    1099.6974  0.029334651  0.028934176            6 
 3125000   0.77826939   -6.2393722    1097.2572  0.029260191  0.028926282           25 
 3126000   0.74663714   -6.2277362    1099.4739  0.029309924   0.02891836           10 
 3127000   0.74772773   -6.1749516    1099.5442  0.029302425  0.028910455            5 
 3128000   0.73782663   -6.2152553    1096.4033   0.02920938   0.02890249           14 
 3129000   0.75657329   -6.2131428    1100.2983  0.029303778  0.028894548           11 
 3130000   0.74642455   -6.1858099    1099.1201  0.029263049   0.02888661           11 
 3131000   0.76809956   -6.2034861    1099.3978  0.029261093  0.028878722            5 
 3132000   0.74632141   -6.1906614    1097.8953  0.029211774  0.028870772            8 
 3133000   0.77451004        -6.22    1098.4128  0.029216214  0.028862844            7 
 3134000   0.71707359   -6.2214924    1099.3913   0.02923291  0.028854913            6 
 3135000   0.76167257   -6.1834917     1099.489  0.029226182  0.028847022           11 
 3136000   0.74201393   -6.1723222    1100.2931   0.02923823  0.028839153           17 
 3137000   0.74972128    -6.191564    1099.7213   0.02921372  0.028831332            6 
 3138000   0.74368105   -6.1965649    1097.7031  0.029150816  0.028823463           10 
 3139000   0.75379669   -6.1957997    1097.3715  0.029132726  0.028815583            8 
 3140000   0.74156344   -6.2208731    1100.3713   0.02920306  0.028807664           16 
 3141000   0.74955802   -6.2331732    1099.3338  0.029166237  0.028799768            7 
 3142000   0.75924684   -6.2188856    1102.4797  0.029240391  0.028791904            7 
 3143000   0.74374519     -6.20055    1101.0081  0.029192069  0.028784079           22 
 3144000   0.76211291   -6.1785212    1102.2782  0.029216448  0.028776227            8 
 3145000    0.7498288    -6.206381    1100.4554   0.02915886  0.028768383            7 
 3146000   0.74220552   -6.2259522    1101.7699  0.029184412  0.028760547            8 
 3147000   0.74245625   -6.2056498    1096.8934  0.029046006  0.028752655            7 
 3148000   0.74100693   -6.1985211    1101.4683  0.029157886  0.028744751           11 
 3149000   0.75568709   -6.2355972    1099.1055    0.0290861  0.028736895            8 
 3150000   0.76405222    -6.217721    1103.6625  0.029197419  0.028728983            9 
 3151000   0.76602485   -6.2209602    1103.7492  0.029190448  0.028721099           15 
 3152000   0.75355526   -6.1950086    1100.9889  0.029108208  0.028713205           10 
 3153000   0.74806144   -6.1949411     1104.451  0.029190481  0.028705328           21 
 3154000   0.75197591   -6.2029935    1099.6608  0.029054661  0.028697428            6 
 3155000   0.73374566   -6.2280409    1099.9508  0.029053113   0.02868954            8 
 3156000   0.75544581   -6.2150466    1101.6226  0.029088048  0.028681693            8 
 3157000   0.74852853   -6.2235658    1102.4361  0.029100308  0.028673806            9 
 3158000   0.76408231   -6.2172585    1100.9756  0.029052553  0.028665954           20 
 3159000   0.76016722   -6.1811256    1105.8171  0.029171074  0.028658102            4 
 3160000   0.73908282   -6.2155969    1103.8049  0.029108778  0.028650307            4 
 3161000   0.75717463   -6.2075171    1105.0785  0.029133146  0.028642475           12 
 3162000   0.74143461    -6.233295    1102.0938  0.029045272  0.028634618           13 
 3163000   0.73074711   -6.2049035    1105.0458  0.029113864  0.028626791            9 
 3164000   0.73652383   -6.2274013    1100.8771  0.028994866  0.028618909            5 
 3165000   0.74018311   -6.2136915    1103.8664  0.029064414  0.028611088            7 
 3166000   0.74587514    -6.197161    1104.3061  0.029066807  0.028603206           14 
 3167000    0.7396131   -6.2165506    1101.2083  0.028976115  0.028595342            8 
 3168000   0.74844385   -6.2293519    1103.4543   0.02902605   0.02858753           13 
 3169000   0.73654817   -6.2457927     1101.775  0.028972732  0.028579665           19 
 3170000   0.74053138    -6.221317    1102.3853  0.028979635  0.028571794           13 
 3171000   0.75026427   -6.2138374    1102.5113  0.028973806  0.028563985           26 
 3172000   0.74576271   -6.2441808    1101.8349  0.028946903   0.02855612           10 
 3173000   0.75837069   -6.2101499    1100.6533  0.028906746  0.028548268            7 
 3174000   0.74112312   -6.1726085    1105.4918  0.029024673  0.028540464            4 
 3175000   0.75611474   -6.1909856    1104.7759  0.028996742  0.028532688           11 
 3176000   0.74307936   -6.2229343     1103.808  0.028962218  0.028524907           13 
 3177000   0.75186462   -6.1783059    1109.1596  0.029093475  0.028517141           12 
 3178000   0.73958081   -6.2278191    1105.3086  0.028983339  0.028509387            8 
 3179000   0.74464333   -6.1924996    1106.3169  0.029000652  0.028501599            5 
 3180000   0.76494116   -6.2557662    1100.5856  0.028841343  0.028493784           14 
 3181000   0.74472091   -6.1915518    1105.3105  0.028956053  0.028485929           10 
 3182000   0.71930936   -6.2040336     1102.667  0.028877724  0.028478107            9 
 3183000   0.74176625   -6.2003758    1106.6373  0.028972595  0.028470327           12 
 3184000   0.74952859   -6.2047668    1104.3787  0.028904384  0.028462541           11 
 3185000   0.74005752    -6.201898    1103.5413  0.028873398  0.028454716           16 
 3186000   0.72840791    -6.214862    1106.1216  0.028931827  0.028446911           18 
 3187000   0.75740617   -6.1951972    1105.4622  0.028905508  0.028439105           21 
 3188000   0.73156084   -6.2158602    1103.7698  0.028852201  0.028431343           12 
 3189000   0.74171784   -6.2321524    1105.5437  0.028889509  0.028423563            7 
 3190000   0.75440489   -6.1850068    1105.4736   0.02887862  0.028415778           14 
 3191000   0.74685838   -6.2343574    1105.9645  0.028882392  0.028408035           13 
 3192000   0.73744122   -6.2442222    1106.4585  0.028886238  0.028400226            9 
 3193000   0.74367616   -6.2112492    1107.1026  0.028894003  0.028392441           15 
 3194000   0.72899141   -6.2248999    1105.4761  0.028842519  0.028384681            8 
 3195000   0.73679259   -6.2002058    1110.2677   0.02895847  0.028376956           11 
 3196000   0.73622501   -6.2173255    1105.0771  0.028814067  0.028369181           21 
 3197000   0.72543062   -6.2017315    1106.3496  0.028838224  0.028361408           18 
 3198000   0.73877367   -6.2127633    1106.5994  0.028835716  0.028353686           18 
 3199000   0.74353901   -6.2288226    1105.9313  0.028809298  0.028345942           16 
 3200000   0.73881996   -6.2382822      1104.35  0.028759115  0.028338162           18 
 3201000   0.73436397   -6.2161391    1103.5884  0.028730303   0.02833037           14 
 3202000   0.73604946   -6.2471434    1102.8225  0.028701397  0.028322561            6 
 3203000   0.74348646   -6.2441814    1105.3562  0.028758356  0.028314727            8 
 3204000   0.73275126   -6.2763594    1103.2008  0.028693321  0.028306918           10 
 3205000   0.72717406   -6.2545157    1104.6944  0.028723203  0.028299115            7 
 3206000   0.72495203   -6.2217946    1106.9996  0.028774164  0.028291294            6 
 3207000    0.7349931   -6.2143085     1108.098  0.028793733  0.028283524            7 
 3208000   0.74583055   -6.2391158    1106.3167  0.028738485  0.028275774           13 
 3209000    0.7437105   -6.2400135    1106.9032  0.028744759   0.02826799            7 
 3210000    0.7466719   -6.2236278    1106.5885  0.028727635   0.02826024            4 
 3211000   0.74917318   -6.2274978    1107.8633  0.028751772  0.028252467           15 
 3212000   0.73931481   -6.1897861    1107.7127  0.028738913  0.028244736           13 
 3213000   0.72453931   -6.1954973     1108.538  0.028751375  0.028237021            7 
 3214000   0.72418119   -6.2355456    1106.8288  0.028698114  0.028229291            8 
 3215000   0.72058364   -6.2315736    1109.4754  0.028757786  0.028221543            9 
 3216000   0.72137484   -6.2343506    1107.3456  0.028693656    0.0282138            8 
 3217000    0.7359696   -6.1996446    1109.6642  0.028744798   0.02820607            3 
 3218000   0.73023091   -6.2065617    1110.5341  0.028758392  0.028198371           13 
 3219000   0.74296536   -6.2307506    1109.0964  0.028712239  0.028190704            8 
 3220000   0.73254264    -6.239352    1107.9217  0.028672923  0.028182949            7 
 3221000   0.74559786   -6.2428754    1107.4068    0.0286507  0.028175274            5 
 3222000   0.73554315   -6.2230552     1109.783  0.028703263  0.028167499            8 
 3223000   0.72981179   -6.2483655    1105.7079  0.028588993  0.028159765            7 
 3224000   0.73576256   -6.2124793    1107.7369   0.02863257   0.02815201            9 
 3225000   0.73511569   -6.2221747     1111.573  0.028722816    0.0281443            9 
 3226000   0.74788444   -6.2254746    1109.5289  0.028661109  0.028136609            5 
 3227000   0.74640063   -6.2197091    1106.3384  0.028569838  0.028128894           11 
 3228000   0.73507859   -6.2357249    1105.9627  0.028551288  0.028121187           12 
 3229000   0.74904294   -6.2600081    1106.7653  0.028563159  0.028113447           11 
 3230000   0.73366148   -6.2296313    1109.2819  0.028619244  0.028105687            8 
 3231000     0.725288   -6.2238374    1109.3845  0.028613032  0.028097989            5 
 3232000    0.7453867   -6.2236291    1109.8172  0.028615336  0.028090283           12 
 3233000   0.73575839   -6.2457808    1107.8536  0.028555871  0.028082549            9 
 3234000   0.73226253    -6.258128    1110.1826  0.028607055  0.028074807           11 
 3235000   0.72541536   -6.2486592    1109.3015  0.028575516  0.028067089            5 
 3236000    0.7187365   -6.2419769    1110.0183  0.028585144  0.028059413            8 
 3237000   0.73563064   -6.2471235    1110.4654  0.028587823  0.028051709           10 
 3238000   0.75167767   -6.2541515    1109.8999   0.02856444  0.028044017           12 
 3239000   0.74817731   -6.2711563    1109.9862  0.028557842  0.028036298           23 
 3240000   0.74448595   -6.2234138    1108.8866  0.028520745  0.028028588            9 
 3241000   0.72699415   -6.2429957    1107.9948  0.028489015   0.02802094           11 
 3242000   0.70535838   -6.2331818    1110.8566   0.02855379  0.028013263           12 
 3243000    0.7346645   -6.2409715    1110.2891  0.028530402  0.028005587           15 
 3244000   0.72813228   -6.2654857    1107.9481  0.028461471  0.027997948           11 
 3245000   0.73501312   -6.2344781    1111.0745  0.028532988  0.027990293           16 
 3246000   0.72124196   -6.2489169    1111.3546  0.028531387  0.027982649           13 
 3247000   0.74541121   -6.2647734    1109.1603  0.028466284  0.027975005            9 
 3248000   0.72573249   -6.2208381    1109.7264  0.028472045   0.02796735            8 
 3249000   0.73322962   -6.2189045    1111.1016  0.028498553  0.027959724            9 
 3250000   0.73715406    -6.271731    1112.8798  0.028535379  0.027952092            5 
 3251000   0.74148495   -6.2532407    1107.6991  0.028393805  0.027944496            6 
 3252000   0.73980837   -6.2347137    1113.0009  0.028520933  0.027936933            5 
 3253000   0.74423795   -6.2569218    1112.0772  0.028488502  0.027929342            9 
 3254000    0.7577767   -6.2359071    1111.1932  0.028457109  0.027921785            7 
 3255000   0.71554829   -6.2688904    1111.3269  0.028451789  0.027914237            5 
 3256000   0.74126059   -6.2484062    1111.3037  0.028442457  0.027906644           19 
 3257000   0.71803036   -6.2635616    1111.0899  0.028428254  0.027899026           10 
 3258000    0.7427953   -6.2618282    1113.6716  0.028485563  0.027891402            7 
 3259000    0.7243743   -6.2489911    1112.0378  0.028435047  0.027883823           14 
 3260000   0.72372199   -6.2533717    1114.8309  0.028497721  0.027876228           14 
 3261000   0.73666789   -6.2483693     1111.954  0.028415466   0.02786869           14 
 3262000   0.72302598   -6.2426991    1113.6175  0.028449252  0.027861154           10 
 3263000   0.73903091   -6.2565308    1112.3805   0.02840894  0.027853598            7 
 3264000   0.74917598   -6.2758901    1111.2569  0.028371551  0.027845992           15 
 3265000   0.72783487   -6.2786947    1112.2524  0.028388268  0.027838361           30 
 3266000   0.74741422   -6.2550062    1112.7202  0.028391513  0.027830782           21 
 3267000   0.73054258    -6.250092    1112.0061  0.028364607  0.027823212           18 
 3268000   0.73531199   -6.2963889    1110.7548  0.028324021  0.027815562           15 
 3269000   0.72681771   -6.2879717    1108.3153  0.028253167  0.027807902            9 
 3270000   0.72098845   -6.2626885    1111.0861   0.02831514  0.027800263            8 
 3271000   0.73883261    -6.251235    1114.9033  0.028403731   0.02779271           11 
 3272000   0.73373005   -6.2595954    1111.3677  0.028305006  0.027785136            9 
 3273000   0.73249123   -6.2354978    1111.0436  0.028288105  0.027777613            6 
 3274000   0.71725305   -6.2477294    1111.6809  0.028295685  0.027770028           12 
 3275000   0.73794121   -6.2646419    1115.5432  0.028385323  0.027762457           11 
 3276000   0.71737741   -6.2525623    1112.8111  0.028307161  0.027754906           11 
 3277000   0.72371367   -6.2247029    1112.4064   0.02828823  0.027747322           16 
 3278000   0.72045833   -6.2989012    1111.2433  0.028250033  0.027739694            8 
 3279000   0.73042192   -6.2594177    1115.2038  0.028342071  0.027732121            8 
 3280000   0.73051844   -6.2471518    1112.6069  0.028267451  0.027724524            8 
 3281000   0.71734533   -6.2740586    1113.4117  0.028279276  0.027716951           15 
 3282000   0.72862872   -6.2256626     1118.485  0.028399478  0.027709369            7 
 3283000   0.72901756   -6.2503704    1112.8942  0.028248913  0.027701806           13 
 3284000   0.73906629   -6.2605644    1112.9426  0.028241539  0.027694193            4 
 3285000   0.71198984    -6.235166    1113.5786  0.028249077  0.027686607            7 
 3286000   0.72750523   -6.2593594    1113.4839  0.028238077   0.02767907            6 
 3287000   0.71547486   -6.2745921    1110.6119  0.028156675  0.027671472           18 
 3288000   0.70670373   -6.2697305    1113.1383  0.028212143  0.027663853           12 
 3289000   0.72652616   -6.2530735    1111.6108  0.028164863  0.027656267            4 
 3290000   0.72085247   -6.2553112     1113.179  0.028196022  0.027648702            5 
 3291000   0.73503048   -6.2745673    1112.9012  0.028180421  0.027641108           15 
 3292000   0.71325062   -6.2950811    1114.4447  0.028210932   0.02763348           14 
 3293000   0.71396773    -6.271469    1114.3283  0.028199419  0.027625892            8 
 3294000   0.72684534   -6.2577199    1116.0385  0.028234124    0.0276183            9 
 3295000   0.70599369   -6.2722958    1109.7049  0.028065375  0.027610729           12 
 3296000   0.73986866   -6.2768251    1112.1306  0.028118188  0.027603132           16 
 3297000   0.71219354   -6.2503917    1116.4578  0.028219033  0.027595587            7 
 3298000   0.72463157    -6.262134    1115.8576  0.028195311  0.027588032           12 
 3299000   0.71555744   -6.2631047    1116.0608  0.028191896   0.02758053           10 
 3300000   0.72856661   -6.2695756    1115.9099  0.028179543  0.027573005           12 
 3301000   0.73446037   -6.2768046    1116.3753  0.028182755  0.027565491            8 
 3302000   0.72949724   -6.2618062    1117.0971  0.028192435  0.027558002           10 
 3303000    0.7166568   -6.2758974    1117.2888  0.028188739  0.027550464           10 
 3304000   0.71990178   -6.2807487     1115.274  0.028129387  0.027542955           10 
 3305000   0.72196865    -6.294341    1116.2374   0.02814517  0.027535432           13 
 3306000   0.70207111   -6.2620901    1115.4777  0.028117506  0.027527951           35 
 3307000    0.7470109   -6.2781076    1116.0761  0.028124082   0.02752045           13 
 3308000   0.71096774   -6.2799343    1115.3994  0.028098533  0.027512947           17 
 3309000   0.70188819   -6.2638635    1116.4813  0.028117289   0.02750544            9 
 3310000   0.73133245   -6.2826831    1113.5563  0.028035154  0.027497952           15 
 3311000   0.71488754   -6.2871663    1116.1502  0.028091971  0.027490406            9 
 3312000   0.70970487   -6.2877024    1115.2661  0.028061246  0.027482862           17 
 3313000   0.72327978   -6.2796371    1114.7305  0.028039301  0.027475312           11 
 3314000   0.71283673   -6.2655744    1114.9101  0.028035358  0.027467789           18 
 3315000   0.72755701   -6.2900017    1116.3883   0.02806406  0.027460286            9 
 3316000   0.72576806   -6.2936247    1116.7537  0.028064778  0.027452763           10 
 3317000   0.71252697   -6.2957262    1118.0392  0.028088614  0.027445266           24 
 3318000   0.72319023   -6.2851454    1115.1781  0.028008291  0.027437777           12 
 3319000   0.73030969   -6.2940845    1112.9103  0.027942912  0.027430226           11 
 3320000    0.7291902   -6.2684505    1113.9471  0.027960519  0.027422697           11 
 3321000   0.71681437    -6.268275    1115.8973  0.028001036  0.027415137            7 
 3322000   0.72285068   -6.3147571    1113.7481  0.027938695  0.027407564            8 
 3323000   0.69357845   -6.2854223    1116.1235  0.027989855  0.027400055            7 
 3324000   0.70618301   -6.2592796    1118.6979  0.028045976  0.027392572           11 
 3325000    0.7301631   -6.2552868    1120.2327  0.028076007  0.027385124           15 
 3326000   0.69569012   -6.2736663    1113.8273  0.027907077  0.027377698           11 
 3327000   0.72327634   -6.2834031    1115.3367  0.027936497  0.027370256           13 
 3328000   0.71756641   -6.2876072    1119.6177  0.028035298  0.027362797           17 
 3329000   0.72854595   -6.2691391    1118.3661  0.027995547  0.027355379           14 
 3330000   0.72692383   -6.3079016    1115.7163   0.02792083  0.027347891           17 
 3331000   0.71868872   -6.2832011    1115.8957  0.027916934  0.027340401            6 
 3332000   0.71918029   -6.2734641    1120.7518  0.028030007   0.02733292            8 
 3333000   0.71794344   -6.2705721    1118.5882  0.027967502  0.027325438            4 
 3334000   0.72585482   -6.2817523    1117.5407  0.027932932  0.027317962            9 
 3335000   0.72537213   -6.2370262    1118.0808  0.027938051  0.027310578           11 
 3336000   0.70599767   -6.2625043    1118.4299  0.027938396  0.027303185           15 
 3337000   0.72411078   -6.2705306       1117.2   0.02789931  0.027295747           11 
 3338000   0.71526817   -6.2585256    1119.6035  0.027950957  0.027288292            5 
 3339000     0.719841   -6.2814078    1120.6737  0.027969295  0.027280851           14 
 3340000   0.69663693   -6.2640887    1119.4958  0.027931533  0.027273394           17 
 3341000   0.71517068   -6.2621363    1117.6418  0.027876928  0.027265955           20 
 3342000   0.70948422    -6.278505    1116.9019  0.027850138  0.027258476           21 
 3343000   0.72376093   -6.2562476    1121.9059  0.027966543  0.027251013           11 
 3344000   0.71965701   -6.2724472    1116.7147  0.027828816  0.027243608           11 
 3345000   0.71633252   -6.2589768    1118.9542  0.027876289  0.027236185           15 
 3346000   0.70615353   -6.2857406    1115.8919  0.027791688  0.027228744            7 
 3347000   0.70636293   -6.2566454    1120.9136  0.027908416  0.027221303            7 
 3348000   0.71357377   -6.2946509    1117.3387  0.027811099  0.027213886           10 
 3349000   0.72546892   -6.2741455    1118.0963  0.027821646  0.027206499            9 
 3350000   0.71846341   -6.2707958    1120.4017   0.02787069  0.027199134            6 
 3351000   0.70477466   -6.2910434    1118.3237  0.027810697  0.027191697           12 
 3352000   0.72473421   -6.2903624    1117.4601   0.02778093  0.027184268           10 
 3353000   0.73370084   -6.2910117    1119.7829  0.027830373  0.027176808            9 
 3354000   0.72785754   -6.2978226    1115.2847  0.027710313  0.027169367           12 
 3355000   0.72858729   -6.2809918     1117.998  0.027769449  0.027161903           11 
 3356000   0.72166862   -6.3218255    1116.5431  0.027725046  0.027154428           12 
 3357000   0.70751513   -6.3081388    1117.8941  0.027750324  0.027146983           21 
 3358000    0.7071412   -6.2922053    1119.2213  0.027774999  0.027139549            6 
 3359000   0.72547301   -6.3211355     1115.794  0.027681702  0.027132106           16 
 3360000   0.73114194   -6.2759489    1119.6203   0.02776836  0.027124704           11 
 3361000   0.72057281   -6.2920771    1116.4868  0.027682407  0.027117287            7 
 3362000   0.71624009   -6.2935034    1119.2351  0.027742294  0.027109869           21 
 3363000   0.71784058   -6.2729963    1118.5319  0.027716619  0.027102434           11 
 3364000   0.71259651   -6.2996334    1120.3775    0.0277541  0.027095003           12 
 3365000    0.7066137   -6.3043477    1119.7776  0.027730995  0.027087542           16 
 3366000    0.7262665   -6.3042199    1119.3627  0.027712486  0.027080088           10 
 3367000   0.70794364   -6.2961968    1119.9101  0.027717804  0.027072633           14 
 3368000   0.71374341   -6.2871669    1117.6521  0.027653705  0.027065221            9 
 3369000    0.7158364   -6.3059257    1117.3219  0.027637327  0.027057798           11 
 3370000   0.70730532   -6.2605801    1121.8736   0.02774168  0.027050423           14 
 3371000   0.70953928   -6.2682708    1117.2879  0.027620089  0.027043048           30 
 3372000   0.71511424   -6.2744298    1121.9093  0.027726109   0.02703571            7 
 3373000   0.72700678   -6.2965482    1118.3567   0.02763012  0.027028316           13 
 3374000   0.70437645    -6.300397    1117.5765   0.02760266  0.027020879           13 
 3375000    0.7268166   -6.3019631    1118.3555  0.027613716  0.027013471            8 
 3376000    0.7052162   -6.2780196    1120.8584  0.027667318  0.027006093           11 
 3377000   0.69207348   -6.3079492    1123.2782  0.027718839  0.026998765            8 
 3378000   0.70883679   -6.2916041    1120.0702  0.027631494  0.026991416            8 
 3379000   0.70508982   -6.3003149      1122.88  0.027692612  0.026984101           31 
 3380000   0.69998917   -6.2935409    1124.1611  0.027716004  0.026976791            9 
 3381000   0.71789471   -6.2551783    1124.8557  0.027724927  0.026969492            6 
 3382000   0.69620313   -6.2922482    1121.8138  0.027641776  0.026962205           10 
 3383000   0.73120648    -6.299793     1124.824  0.027707754  0.026954911           17 
 3384000   0.71250591   -6.3108126     1122.415  0.027640243  0.026947615            9 
 3385000   0.69805408   -6.3201063    1119.9441  0.027571249  0.026940256           10 
 3386000   0.71021428   -6.3374313    1119.3007   0.02754727  0.026932851           14 
 3387000   0.70862938    -6.312947    1120.6319  0.027571891  0.026925498            9 
 3388000    0.7157653   -6.2769333    1120.8537  0.027569208   0.02691813           11 
 3389000   0.72232419   -6.3113221    1119.4078   0.02752552  0.026910743           15 
 3390000   0.72387062   -6.3082747    1119.9513  0.027530758  0.026903377            5 
 3391000   0.71016165   -6.2916016    1122.9419  0.027596134  0.026896017           11 
 3392000   0.71976151   -6.2810709    1120.8178  0.027535816  0.026888688            6 
 3393000   0.70598902   -6.3051473    1119.9232  0.027505728  0.026881324            9 
 3394000   0.69870892   -6.3048365     1120.482  0.027511343  0.026873936           20 
 3395000   0.70507053   -6.3200728    1118.9378  0.027465336   0.02686656           10 
 3396000   0.70893755   -6.2994647    1119.9917   0.02748311  0.026859146           25 
 3397000   0.71509714    -6.300681    1123.2067  0.027553889  0.026851761           45 
 3398000   0.70648396   -6.3248609    1118.4575   0.02742931   0.02684438           19 
 3399000   0.71867618   -6.2992546    1122.5071  0.027520524  0.026836963           52 
 3400000   0.70883307   -6.3195883    1121.0099  0.027475733  0.026829534           37 
 3401000    0.6926774   -6.3289004    1121.1307  0.027470613  0.026822107           12 
 3402000   0.71072299   -6.3389424    1122.1637  0.027487844  0.026814704           32 
 3403000   0.69612441   -6.3305106     1117.144  0.027356841  0.026807263           21 
 3404000   0.73283415   -6.3047586    1120.4757  0.027430368  0.026799867           17 
 3405000   0.72326819   -6.2838157    1121.9083  0.027457375  0.026792494           10 
 3406000   0.69911956   -6.2979977    1122.0201  0.027452048  0.026785115            9 
 3407000   0.71275057   -6.3119049    1122.3776  0.027452735  0.026777758           12 
 3408000    0.6979221   -6.3339056    1121.7231  0.027428676  0.026770416           10 
 3409000   0.69413845   -6.2956737     1121.717  0.027420481  0.026763106           12 
 3410000   0.70798453   -6.3210663    1119.5034  0.027358343  0.026755762           14 
 3411000   0.71323427   -6.3147262    1121.2754  0.027393613  0.026748431           12 
 3412000   0.69557669   -6.3194503    1122.0869  0.027405405  0.026741105           21 
 3413000   0.69790803   -6.3174312    1120.9056  0.027368533  0.026733779           16 
 3414000   0.69984642   -6.3169546    1122.8843  0.027408815  0.026726474           36 
 3415000   0.69155292   -6.2981387    1122.8349  0.027399583  0.026719167            9 
 3416000   0.69407518   -6.3278217    1120.1065  0.027325002  0.026711862            9 
 3417000   0.71050287   -6.2935499     1121.471  0.027350283  0.026704529            8 
 3418000   0.69950796   -6.3079762    1122.2656  0.027361654  0.026697193           15 
 3419000   0.70185489   -6.3282212    1122.7723  0.027366001  0.026689821           40 
 3420000    0.7039136   -6.3116529    1122.9564  0.027362485  0.026682447           11 
 3421000   0.70470452   -6.3131545    1122.4816  0.027342921  0.026675144            9 
 3422000    0.7090911   -6.2937814    1127.1855   0.02744948   0.02666783           20 
 3423000   0.68729192   -6.3208086    1121.5755  0.027304886  0.026660506           18 
 3424000   0.70119043   -6.3200262    1123.3859  0.027340972  0.026653218            6 
 3425000   0.72922134   -6.3181257    1124.1414  0.027351373  0.026645889            8 
 3426000   0.70554038   -6.3243319    1122.1086  0.027293943  0.026638595           10 
 3427000   0.70289856    -6.345635    1120.9993  0.027259004  0.026631275            9 
 3428000   0.69473021   -6.3158971    1123.1256  0.027302743  0.026623942           10 
 3429000   0.70550177   -6.3204068    1125.5876  0.027354612  0.026616592            8 
 3430000   0.69568707   -6.3281282    1123.2592  0.027290069  0.026609301           12 
 3431000     0.710734   -6.2922988    1123.3952  0.027285417  0.026602032           16 
 3432000   0.70463801   -6.3308697     1123.044  0.027268939  0.026594722            9 
 3433000   0.71317338   -6.3273644     1122.934  0.027258326  0.026587371           13 
 3434000    0.6967947   -6.3280504     1124.456  0.027287324  0.026579998           14 
 3435000   0.68991237    -6.321266      1123.99  0.027268073  0.026572714            7 
 3436000   0.69877734   -6.3218612    1125.0403  0.027285612  0.026565446           22 
 3437000   0.69441796   -6.3142209    1123.2319  0.027233826  0.026558178           13 
 3438000   0.69965419   -6.3373136    1125.5002  0.027280886  0.026550908           11 
 3439000    0.6944977   -6.3320475    1122.6234  0.027203242  0.026543645           10 
 3440000    0.7176633   -6.3191753    1124.2503  0.027234745  0.026536342            5 
 3441000   0.70222994   -6.3301275    1121.6445  0.027163725   0.02652904           14 
 3442000   0.69313933    -6.319613    1122.8707   0.02718552  0.026521734           16 
 3443000   0.69560834   -6.3348735    1122.3746  0.027165616  0.026514431           15 
 3444000   0.68861267     -6.32458    1121.6171  0.027139399  0.026507134           15 
 3445000   0.69581846   -6.3041378    1124.5101  0.027201503  0.026499842           19 
 3446000   0.69649581   -6.3326117    1123.8439  0.027177499  0.026492525           19 
 3447000   0.71681187   -6.3470555    1120.4445  0.027087431  0.026485196           14 
 3448000    0.7068055    -6.330399    1123.7007  0.027158273  0.026477917            6 
 3449000   0.69944685   -6.3320897    1125.8081  0.027201316  0.026470611           10 
 3450000   0.69844424   -6.3391206    1126.0552  0.027199402  0.026463307           13 
 3451000   0.71472279   -6.3098997    1126.6322  0.027205451  0.026456013           20 
 3452000   0.68475978   -6.2953323    1126.3517  0.027190801  0.026448746            9 
 3453000   0.69725057   -6.3216028    1125.0062  0.027150453  0.026441519           14 
 3454000   0.69548733   -6.3371698    1125.6172  0.027157334  0.026434255            8 
 3455000   0.71100742   -6.3203607    1125.6963  0.027151382  0.026427015           12 
 3456000   0.71299934   -6.3386627     1124.704  0.027119599  0.026419736           17 
 3457000   0.70767607   -6.3069638    1124.0392  0.027095727  0.026412493           16 
 3458000   0.70618002   -6.3420592    1122.7476  0.027056767  0.026405239           11 
 3459000   0.68770673   -6.3082855    1126.4334  0.027137742  0.026397972            7 
 3460000   0.69090824   -6.3214254     1124.686  0.027087813  0.026390693           12 
 3461000   0.70357668   -6.2883128     1127.452  0.027146586  0.026383484            8 
 3462000   0.69022635   -6.3426683    1123.3182  0.027039241   0.02637624           20 
 3463000   0.69123663   -6.3352479    1124.5103  0.027060118  0.026368916           16 
 3464000   0.69815456   -6.3450775    1124.7891  0.027059014  0.026361604           19 
 3465000   0.70128001      -6.3255    1124.7959  0.027051368  0.026354347           12 
 3466000   0.70640541   -6.3470097    1126.0168  0.027072917  0.026347112           11 
 3467000   0.68984943   -6.3355412    1123.5202  0.027005102  0.026339867           11 
 3468000   0.67993603    -6.336991    1125.6061  0.027047436  0.026332607            9 
 3469000   0.68999094   -6.3792207    1121.4816  0.026940558  0.026325312           23 
 3470000   0.69920063   -6.3303472    1124.2909  0.027000261  0.026317994           12 
 3471000   0.68743137   -6.3618449    1125.1924  0.027014127  0.026310691           22 
 3472000   0.70435423    -6.335759     1125.079  0.027003625  0.026303407           13 
 3473000   0.69035881   -6.3913395    1124.3044  0.026977262  0.026296114            8 
 3474000   0.69183734   -6.3348012    1125.0989  0.026988556  0.026288838            7 
 3475000   0.69065385   -6.3647787    1122.5019  0.026918512  0.026281537            9 
 3476000   0.69825085   -6.3477505    1123.2032  0.026927578   0.02627424            9 
 3477000   0.69257591   -6.3520583     1122.781  0.026909715  0.026266979           21 
 3478000   0.67917046   -6.3018816    1129.2014  0.027055812   0.02625975           11 
 3479000   0.67615968   -6.3010566     1125.197  0.026952118  0.026252522           14 
 3480000   0.68898937   -6.3492027    1122.4606  0.026878847  0.026245281           15 
 3481000   0.69859892   -6.3560265    1124.2899  0.026914917  0.026238026           17 
 3482000   0.70056883   -6.3679874    1124.8625  0.026920892  0.026230769           19 
 3483000    0.7038877    -6.362343    1123.6105  0.026883206  0.026223476            8 
 3484000   0.70138151   -6.3541344    1122.4753  0.026848338  0.026216161           22 
 3485000   0.69976352    -6.378073    1124.7983  0.026896182   0.02620886            8 
 3486000   0.68808312   -6.3530409     1124.068  0.026871008  0.026201536           10 
 3487000   0.69542124   -6.3749703    1123.6138  0.026852448  0.026194237           20 
 3488000   0.69631031   -6.3536417     1124.218  0.026859185  0.026186961           14 
 3489000   0.69600171   -6.3645185    1123.8949  0.026843768  0.026179664           13 
 3490000   0.68503774   -6.3379022    1124.0779  0.026840446  0.026172387           14 
 3491000   0.70018781   -6.3429709    1126.8106  0.026897989  0.026165116            8 
 3492000   0.70202828   -6.3401025    1127.4419  0.026905353  0.026157873           16 
 3493000   0.69168349   -6.3632304    1124.8071  0.026834792  0.026150632           16 
 3494000   0.67661012   -6.3382662    1126.6585  0.026871268  0.026143316           17 
 3495000   0.69389612   -6.3074003    1126.1071  0.026850432  0.026136042            8 
 3496000   0.68974793   -6.3414417    1126.8444  0.026860327   0.02612882           12 
 3497000   0.70813179   -6.3577212    1123.3542  0.026769475  0.026121589            7 
 3498000   0.70498571   -6.3530063     1123.973  0.026776564  0.026114342           13 
 3499000   0.69620119   -6.3618528    1125.8546  0.026813724  0.026107084           11 
 3500000   0.70841345   -6.3571704    1124.5265   0.02677444  0.026099846           31 
 3501000   0.67754725   -6.3366281    1126.8475  0.026822038  0.026092638           12 
 3502000   0.69393825   -6.3198156    1126.3736  0.026803104  0.026085425            4 
 3503000   0.68021692   -6.3658624    1124.4826  0.026750467    0.0260782            9 
 3504000   0.69439567   -6.3383124    1128.2901  0.026833382   0.02607095            8 
 3505000   0.69830554   -6.3506433    1126.7133  0.026788238  0.026063697           12 
 3506000   0.67795034   -6.3775102     1123.638    0.0267075  0.026056453            7 
 3507000   0.70027448   -6.3570769    1123.5151  0.026696967    0.0260492           12 
 3508000    0.6763845   -6.3839998    1123.8602  0.026697554  0.026041911            7 
 3509000   0.68771101    -6.352157    1127.9218  0.026786401  0.026034627            5 
 3510000   0.69139406    -6.358649    1127.0138  0.026757213  0.026027373           16 
 3511000   0.70496559   -6.3415094    1131.4448  0.026854761  0.026020156           19 
 3512000   0.68989202   -6.3371916    1128.4428  0.026775882  0.026012968           12 
 3513000   0.68266326   -6.3496333    1125.6755  0.026702618  0.026005781           15 
 3514000   0.69018031   -6.3400848    1127.6143  0.026740995  0.025998574            9 
 3515000   0.68338972    -6.352215    1128.8263  0.026762122  0.025991323           20 
 3516000   0.67958015   -6.3425769    1124.7548  0.026658012  0.025984118            7 
 3517000   0.70499307   -6.3509755    1127.7111   0.02672048   0.02597691           11 
 3518000   0.68836137   -6.3751921     1125.759  0.026666643  0.025969681           12 
 3519000   0.70343541   -6.3659189    1121.9733  0.026569415  0.025962451           22 
 3520000    0.6831889   -6.3667874    1127.0799  0.026682764  0.025955241           10 
 3521000   0.67910601   -6.3484301    1130.0208  0.026744787  0.025948076           12 
 3522000   0.69336697   -6.3554178    1126.7422  0.026659622  0.025940916            9 
 3523000   0.70797553   -6.3583183    1128.3046   0.02668901   0.02593374           10 
 3524000   0.68502487   -6.3532071    1126.7072  0.026643662   0.02592656           10 
 3525000   0.70108953   -6.3574743     1125.687  0.026611985  0.025919357           14 
 3526000   0.69413882   -6.3698297    1127.1015  0.026637869  0.025912159           11 
 3527000   0.67747933   -6.3805829    1127.1437  0.026631313  0.025904922           16 
 3528000   0.68082077   -6.3924782     1122.994  0.026525746  0.025897646           20 
 3529000    0.6954303   -6.3546405     1128.999  0.026660031  0.025890406            5 
 3530000   0.68765464   -6.3844433    1128.3351  0.026636806  0.025883161           15 
 3531000   0.68735001   -6.3653185    1125.8176  0.026569849  0.025875919            8 
 3532000   0.68365905   -6.3596818    1127.4481  0.026600795  0.025868677           17 
 3533000   0.69927572   -6.3410482    1128.3172  0.026613767  0.025861445            8 
 3534000   0.68615307   -6.3779545    1127.9657  0.026597947  0.025854257           13 
 3535000   0.68423616   -6.3653404    1124.3725  0.026505717  0.025847064           21 
 3536000    0.6854209   -6.3469835    1126.7477  0.026554197  0.025839863           16 
 3537000   0.68972628   -6.3550085    1127.1847  0.026556986  0.025832658           28 
 3538000   0.69546984   -6.3761085    1127.0861  0.026547158  0.025825448           19 
 3539000   0.67648426   -6.3332285      1127.86   0.02655788  0.025818247           18 
 3540000   0.68467726   -6.3438511    1127.1569  0.026533826  0.025811039           20 
 3541000   0.67996596   -6.3386672    1126.9158  0.026520658  0.025803815           10 
 3542000   0.67899479   -6.3388384     1129.237  0.026567781  0.025796648           10 
 3543000    0.6647354    -6.360065    1127.7474  0.026525246  0.025789444            9 
 3544000   0.67723582   -6.3456689    1127.7227  0.026517182  0.025782242            9 
 3545000   0.69511365    -6.377043    1126.9958  0.026492614  0.025774988            5 
 3546000   0.66786373     -6.36224    1124.1662  0.026418645   0.02576777           25 
 3547000   0.68367567   -6.3786553    1127.0744  0.026479523  0.025760561           12 
 3548000   0.68936945    -6.367047    1126.4695  0.026457851  0.025753377           11 
 3549000   0.68701797   -6.3275636    1128.3999  0.026495725  0.025746212            7 
 3550000   0.67153963   -6.3705924     1125.106  0.026410939  0.025739024           14 
 3551000   0.69264055   -6.3551117    1127.6193  0.026462483  0.025731826           16 
 3552000   0.69449278   -6.3536965    1129.0782  0.026489259  0.025724652            9 
 3553000   0.68639005   -6.3849743     1126.279   0.02641615  0.025717462           10 
 3554000   0.67964954   -6.3677467    1128.7291  0.026466168  0.025710264           22 
 3555000   0.67277836   -6.3539244    1124.8673  0.026368198  0.025703113           10 
 3556000    0.6922444   -6.3522485    1127.5452  0.026423537  0.025695969           20 
 3557000   0.68117281    -6.370814    1125.2417  0.026362143  0.025688811            9 
 3558000   0.68179874    -6.369976    1129.7029  0.026459222  0.025681634           12 
 3559000   0.68223886   -6.3660756    1129.7588  0.026453095  0.025674476           16 
 3560000   0.69472235   -6.3711622    1128.1511   0.02640803  0.025667333           16 
 3561000   0.67900137   -6.3698818    1129.8825  0.026441134  0.025660158           11 
 3562000   0.68911716   -6.3867203    1126.9714  0.026365604  0.025652965            7 
 3563000   0.67247299   -6.3953277    1126.5529  0.026348416  0.025645802           13 
 3564000   0.67496968   -6.3799893    1131.1726  0.026449042  0.025638633           15 
 3565000   0.68402034    -6.373272    1131.0587  0.026438959  0.025631502            8 
 3566000    0.6701417   -6.3944141    1127.6982  0.026353014  0.025624345           14 
 3567000   0.67376898   -6.3959348    1127.4522  0.026339879  0.025617164           15 
 3568000    0.6779941   -6.3971744    1126.8879  0.026319319  0.025609953           33 
 3569000   0.68821579   -6.3828944    1129.5276  0.026373578  0.025602772           15 
 3570000   0.69383072   -6.3750068    1126.8719  0.026304199  0.025595615           18 
 3571000   0.68250126   -6.3794946    1127.8036  0.026318576  0.025588458           21 
 3572000   0.68309726   -6.3736887    1127.2584  0.026298488  0.025581262           21 
 3573000   0.67952773    -6.370948    1130.4113  0.026364663  0.025574099           20 
 3574000   0.67159553   -6.3842657    1128.6121  0.026315336   0.02556693           14 
 3575000   0.68080764   -6.4043687    1126.5364  0.026259589  0.025559712            9 
 3576000   0.67928336   -6.4171927    1128.7119  0.026302944  0.025552484           23 
 3577000   0.68993038   -6.3938063     1127.017  0.026256105  0.025545263           11 
 3578000   0.67229756   -6.3933832    1128.4379   0.02628186  0.025538061           14 
 3579000    0.6792877   -6.3849705    1125.2937  0.026201307  0.025530912           21 
 3580000   0.68835653   -6.3922618    1130.1301  0.026306565  0.025523753           12 
 3581000   0.68359016   -6.3788178    1125.5587  0.026192839  0.025516614           17 
 3582000   0.68061113   -6.3835445     1127.739  0.026236251  0.025509469           11 
 3583000   0.66646236   -6.3791749    1129.4713  0.026269219  0.025502328           12 
 3584000    0.6725789   -6.3674859     1131.175  0.026301503  0.025495204           26 
 3585000   0.68789826   -6.3599078     1131.853  0.026309926  0.025488056           12 
 3586000   0.67895343    -6.377698    1127.8798  0.026210258   0.02548092           23 
 3587000   0.69812809   -6.3769313    1127.6941  0.026198636  0.025473756           10 
 3588000   0.68456758   -6.3745947     1129.353  0.026229864  0.025466617            7 
 3589000   0.68493505     -6.37815    1132.5056  0.026295755  0.025459483            7 
 3590000   0.68042114    -6.376176    1128.2529  0.026189715  0.025452339            9 
 3591000   0.66628167   -6.3753065     1130.506  0.026234708  0.025445141            7 
 3592000   0.66882896   -6.3868764    1126.6652  0.026138298  0.025437957           27 
 3593000   0.68490277   -6.4002402    1130.0156   0.02620873  0.025430756           17 
 3594000   0.67672639   -6.3908431       1129.2  0.026182525  0.025423586           16 
 3595000   0.66243741   -6.3725666    1127.7215  0.026140972  0.025416433            9 
 3596000   0.68155265   -6.3981753    1125.6633  0.026086006  0.025409308           27 
 3597000   0.67783108    -6.370958    1130.4226  0.026189014  0.025402164           15 
 3598000   0.67269243    -6.402002    1126.2547  0.026085203  0.025395025           20 
 3599000   0.69545562   -6.4138985    1127.2239  0.026100396  0.025387859           16 
 3600000   0.66777961   -6.3835036    1126.8807  0.026085202   0.02538071            9 
 3601000   0.68378244   -6.3827245    1129.0582  0.026128349  0.025373591           13 
 3602000   0.68376677   -6.3748189     1128.897  0.026117365  0.025366471           20 
 3603000   0.67029095    -6.415261    1131.1532    0.0261623   0.02535932           11 
 3604000   0.67505133   -6.3999528    1128.6264  0.026096615   0.02535217           20 
 3605000   0.65252836   -6.3655854    1131.5042  0.026155899  0.025345052            8 
 3606000   0.66381253   -6.3735168    1130.4581   0.02612447  0.025337949           58 
 3607000   0.68157657    -6.404175    1129.1429  0.026086842  0.025330827           19 
 3608000   0.67272803   -6.3902731    1126.6052     0.026021  0.025323697           25 
 3609000   0.68743254   -6.4053889    1127.4954  0.026034346  0.025316557           36 
 3610000    0.6807444   -6.4112961    1128.0567   0.02604009  0.025309368           44 
 3611000   0.67730824   -6.3962531    1127.0189  0.026008929  0.025302226           23 
 3612000   0.67413512   -6.4149051     1127.826  0.026020348  0.025295058           11 
 3613000   0.68169342   -6.4087324    1130.0815  0.026065169   0.02528787           13 
 3614000   0.67679119   -6.4230888    1124.9096  0.025938701  0.025280676           26 
 3615000   0.66446623   -6.4140457    1125.7378  0.025950617  0.025273488           21 
 3616000   0.68261774   -6.4276388    1127.4945  0.025983925  0.025266337           38 
 3617000   0.67695401   -6.3952453    1129.8901  0.026031934  0.025259181            9 
 3618000    0.6689041    -6.397527    1128.3827   0.02599002  0.025252018           11 
 3619000   0.67898683   -6.3811745    1128.8878  0.025994469  0.025244895           21 
 3620000   0.67732592   -6.4039919    1125.6071  0.025911765  0.025237748           13 
 3621000   0.67505907   -6.4114165    1127.8446  0.025956103  0.025230568           22 
 3622000   0.67925952   -6.4225522    1128.3969  0.025961643  0.025223402           12 
 3623000   0.67681202    -6.409068    1125.7326  0.025893197  0.025216251           10 
 3624000   0.67203899   -6.4014571    1131.7347  0.026024068  0.025209121            8 
 3625000   0.66775781   -6.4091118     1128.738     0.025948  0.025201973           11 
 3626000   0.67018242   -6.4158354     1129.999  0.025969825  0.025194863           24 
 3627000   0.65357372   -6.4035885     1127.523  0.025905776  0.025187722           10 
 3628000   0.67849366   -6.4067444    1129.9919  0.025955345  0.025180592           11 
 3629000   0.66625924    -6.406774    1125.7846   0.02585158   0.02517348           24 
 3630000   0.67879443   -6.4168262    1130.1357  0.025944346  0.025166351           15 
 3631000   0.67547468   -6.4110628    1128.7665  0.025905776  0.025159216           17 
 3632000   0.68311398   -6.4114335    1129.8938  0.025924508  0.025152087            7 
 3633000   0.65925769   -6.4116332    1130.5328   0.02593203  0.025144969           11 
 3634000   0.67545369   -6.3996195    1131.6956   0.02595156  0.025137889           11 
 3635000   0.66545799    -6.423374     1128.798  0.025877991  0.025130768           13 
 3636000   0.65755766   -6.4244371    1128.8496  0.025872058  0.025123619           10 
 3637000   0.67498387   -6.4019458    1131.1729  0.025918176  0.025116475           11 
 3638000   0.68244146   -6.4019503    1129.2265  0.025866468  0.025109341           21 
 3639000   0.68306706   -6.4229846    1126.1326  0.025788508  0.025102209           13 
 3640000   0.67031522   -6.3863538     1130.442  0.025880082  0.025095099           13 
 3641000   0.66236691    -6.399012    1129.6114  0.025853965  0.025088011           21 
 3642000   0.67517165   -6.4148112     1131.079  0.025880447   0.02508092           19 
 3643000   0.66905522    -6.373738     1133.173  0.025921242   0.02507385           18 
 3644000   0.65655301    -6.391394    1127.3855  0.025781775  0.025066764           22 
 3645000   0.67988301   -6.3755222    1131.4891  0.025868521  0.025059689           20 
 3646000   0.66418493   -6.4008131    1128.4242  0.025791375  0.025052605           16 
 3647000   0.67302196   -6.4195771    1129.4941   0.02580875  0.025045508           12 
 3648000   0.67310387   -6.4019857    1129.5668  0.025803335  0.025038384           18 
 3649000   0.66367523   -6.3799278    1129.1618  0.025787014  0.025031302           17 
 3650000   0.67746713   -6.4131259    1129.2894  0.025782862  0.025024231           15 
 3651000   0.66092809   -6.4113911    1131.2247  0.025819973  0.025017141           14 
 3652000   0.66972929   -6.4061994    1131.9849  0.025830251  0.025010082            9 
 3653000   0.66289696   -6.4206016    1130.2266  0.025783069  0.025003027           18 
 3654000   0.66761455   -6.3915345    1127.2106   0.02570723  0.024995924           14 
 3655000   0.67332005    -6.426634    1130.0842  0.025765714  0.024988822           13 
 3656000   0.65982502   -6.4107656    1128.5802  0.025724384  0.024981714           18 
 3657000   0.67731698   -6.4299095    1127.7947   0.02569945  0.024974595           60 
 3658000   0.65938264   -6.3978264    1128.9834  0.025719505  0.024967477           12 
 3659000   0.66648816   -6.4114924    1130.1274  0.025738531  0.024960348           16 
 3660000    0.6673351   -6.4014943    1130.8608  0.025748196  0.024953256           11 
 3661000   0.66798046   -6.4228538    1128.5907   0.02568949   0.02494614           22 
 3662000   0.67123372   -6.4317902    1128.3493  0.025676982  0.024939047           22 
 3663000    0.6658398   -6.4152261    1131.2454   0.02573586   0.02493193           20 
 3664000   0.67542164   -6.4099751    1129.5113  0.025689395  0.024924816           17 
 3665000   0.66684147   -6.4171711    1126.1487  0.025605927  0.024917687           15 
 3666000   0.65732265    -6.450786    1127.2839  0.025624747  0.024910528           12 
 3667000   0.65687304   -6.4405571    1126.3421  0.025596357  0.024903365           11 
 3668000   0.67002827   -6.4185798    1128.8238   0.02564576  0.024896204           18 
 3669000   0.65185284   -6.4461619    1126.1771  0.025578658  0.024889077           29 
 3670000   0.66557983   -6.4277186    1129.3268  0.025643206  0.024881941           20 
 3671000   0.66637312   -6.4190727    1128.6853  0.025621658  0.024874802           19 
 3672000   0.65605922   -6.4397769    1127.7338  0.025593088  0.024867657           17 
 3673000   0.66818642   -6.4007838    1129.0484  0.025615944   0.02486052           16 
 3674000   0.67982783   -6.4423368    1127.1197  0.025565226  0.024853372           34 
 3675000    0.6828452   -6.4031113    1129.1261  0.025603765   0.02484622           15 
 3676000   0.66107616   -6.4123782    1130.5949  0.025630099  0.024839052           37 
 3677000   0.66642482   -6.4138137    1126.3864  0.025527749  0.024831904           35 
 3678000    0.6581738   -6.4132844    1129.3925  0.025588919  0.024824777           27 
 3679000   0.67610961   -6.4092288    1128.8306  0.025569234  0.024817661           16 
 3680000   0.66282079   -6.4331949    1129.4139  0.025575496  0.024810545           19 
 3681000   0.66255505   -6.4233319    1126.4666  0.025501825  0.024803426           22 
 3682000   0.64535623   -6.4309218    1129.2313  0.025557472  0.024796322           15 
 3683000   0.66710444   -6.4035071    1128.9266  0.025543637  0.024789242           18 
 3684000   0.65503251   -6.4014373    1130.1151  0.025563589  0.024782161           16 
 3685000   0.65537678   -6.4139915    1129.9802  0.025553601  0.024775041           12 
 3686000   0.65891518   -6.4105588    1131.0112  0.025569977  0.024767925           15 
 3687000   0.65873989   -6.4095152    1132.0216  0.025585878  0.024760791            5 
 3688000   0.65786645   -6.4154868     1129.244  0.025516179  0.024753663           12 
 3689000   0.67243233   -6.4107885    1130.4948  0.025537517  0.024746551           18 
 3690000   0.65099708   -6.4182919    1128.1227  0.025477026  0.024739441           18 
 3691000   0.65114168   -6.4073256    1131.0396   0.02553598  0.024732331           27 
 3692000   0.66064226    -6.414156    1127.3959  0.025446819  0.024725219           31 
 3693000   0.65253507   -6.4172717    1129.4265  0.025485751  0.024718104           17 
 3694000   0.65656597   -6.4376681    1129.4191  0.025478683  0.024711023           29 
 3695000   0.65178165   -6.4429751    1128.5526  0.025452247  0.024703931           39 
 3696000   0.66509998   -6.4329135    1129.4542  0.025465689   0.02469682           17 
 3697000   0.64525401   -6.4152988    1129.0082  0.025448747  0.024689702           19 
 3698000   0.65662097   -6.4245923    1128.4881  0.025430144   0.02468257            8 
 3699000   0.66447605   -6.4268892    1126.7384  0.025383852  0.024675447           11 
 3700000    0.6582076   -6.4240043    1125.0104  0.025338072   0.02466833           10 
 3701000   0.65104231   -6.4106132    1128.1337  0.025401552  0.024661229           16 
 3702000   0.66434696   -6.3916705    1131.7712  0.025476572  0.024654169           14 
 3703000     0.668692   -6.4302864    1129.2553  0.025413072  0.024647118            8 
 3704000   0.67830386    -6.420228    1126.9182  0.025353632  0.024640046           26 
 3705000   0.66602637   -6.4390668    1127.8924    0.0253687  0.024632956           15 
 3706000   0.65734714   -6.4276871    1127.6949  0.025357413   0.02462586           12 
 3707000   0.64987445   -6.4480844    1127.2691  0.025341001   0.02461876           19 
 3708000   0.66563878   -6.4246469    1130.5487  0.025407873  0.024611648           19 
 3709000   0.65941573   -6.4379003    1128.1236  0.025346535  0.024604529           29 
 3710000   0.65928376   -6.4412872    1127.9821  0.025336526  0.024597414           12 
 3711000   0.66306928   -6.4410698    1126.9886  0.025307389  0.024590308           18 
 3712000   0.67482704   -6.4362905    1127.5684  0.025313587  0.024583199           13 
 3713000   0.66000562   -6.4177546    1127.4908  0.025305028  0.024576074           16 
 3714000   0.66849029   -6.4395642    1129.1791  0.025336094  0.024568955           16 
 3715000   0.64918641   -6.4301613    1129.5842  0.025338362  0.024561871           20 
 3716000   0.64835126   -6.4450003     1128.195  0.025300389   0.02455478           21 
 3717000   0.65643168   -6.4628053     1127.396   0.02527567  0.024547644           22 
 3718000   0.66002964   -6.4532265    1129.0155   0.02530517  0.024540523           11 
 3719000   0.66493116   -6.4475234     1129.162  0.025301648  0.024533431           14 
 3720000    0.6573464   -6.4407393    1126.3478  0.025231804  0.024526347           21 
 3721000     0.660336   -6.4378913    1129.1209  0.025287129  0.024519277            7 
 3722000   0.66915078   -6.4544003    1130.4983  0.025311173  0.024512198           14 
 3723000   0.66235817   -6.4430167    1129.8353  0.025289535  0.024505081           21 
 3724000    0.6498893   -6.4293188    1129.6291   0.02527813  0.024497996           31 
 3725000   0.64264647   -6.4441397    1127.9426  0.025233616  0.024490914           23 
 3726000   0.64900961   -6.4294517     1129.974  0.025272276  0.024483842           16 
 3727000   0.65992337   -6.4375541    1129.8444  0.025262597  0.024476777           26 
 3728000   0.65665576   -6.4447569    1128.1712  0.025218419  0.024469717           13 
 3729000   0.65673842   -6.4271827    1129.2345  0.025235418  0.024462649            8 
 3730000   0.65891456   -6.4311988    1128.0275  0.025201686  0.024455603            9 
 3731000   0.65461549   -6.4244717    1132.9404  0.025304663  0.024448567           26 
 3732000   0.65958684   -6.4270978    1129.4623   0.02522022  0.024441517           18 
 3733000   0.64773029   -6.4304502    1130.2115  0.025230189  0.024434487           20 
 3734000   0.66981359   -6.4431098    1127.6843   0.02516703  0.024427426           11 
 3735000   0.65324065   -6.4308836    1128.0241  0.025167875  0.024420386           14 
 3736000   0.65387602   -6.4616154    1128.4933  0.025171603  0.024413381           15 
 3737000    0.6540055   -6.4296041    1128.7106  0.025169712  0.024406356           32 
 3738000   0.65955252   -6.4371738    1129.1579  0.025172952  0.024399321           25 
 3739000    0.6502607   -6.4519899    1129.7418  0.025179232  0.024392305           38 
 3740000   0.64807577   -6.4531371    1127.8883    0.0251312   0.02438526           20 
 3741000   0.65434789   -6.4298197    1129.5551  0.025161612  0.024378227           17 
 3742000   0.65124515   -6.4345386    1131.4145  0.025196295  0.024371201           19 
 3743000   0.64282211    -6.449544     1128.682  0.025128728  0.024364173           16 
 3744000   0.64751567   -6.4450215    1128.2488  0.025112375  0.024357127            9 
 3745000   0.65393392   -6.4521431    1134.0884  0.025235613  0.024350072           22 
 3746000   0.65209252   -6.4561635    1129.5405  0.025127703  0.024343027           16 
 3747000   0.65388959   -6.4721953    1128.2918  0.025093226  0.024335981           22 
 3748000   0.64612584   -6.4607705    1129.2679  0.025108232  0.024328924           64 
 3749000   0.64582303   -6.4465884    1131.8042  0.025157913  0.024321896           23 
 3750000    0.6711294   -6.4587951    1131.0546  0.025134546   0.02431486           34 
 3751000    0.6601467   -6.4546576    1130.6741  0.025119392  0.024307821           21 
 3752000   0.64844942   -6.4561244    1126.9873  0.025030811  0.024300769           17 
 3753000   0.66191422   -6.4546515    1129.1101  0.025071279  0.024293744           21 
 3754000   0.64659403   -6.4557885    1131.4941  0.025117521  0.024286705           55 
 3755000   0.65155777   -6.4692205    1129.4271  0.025064961  0.024279653           25 
 3756000   0.65769534   -6.4709388    1131.1772  0.025097117    0.0242726           15 
 3757000   0.65307086   -6.4539394    1130.1139  0.025066852  0.024265567           22 
 3758000   0.64196361   -6.4424099    1129.1037  0.025037779  0.024258515           18 
 3759000   0.64606549   -6.4552631    1128.3949  0.025015405  0.024251472           16 
 3760000   0.63471653   -6.4581064    1128.6037  0.025013379  0.024244413           14 
 3761000   0.65427672    -6.449707    1128.7457  0.025009875  0.024237361           23 
 3762000   0.65465427   -6.4682146    1128.9129   0.02500693  0.024230291           31 
 3763000   0.64321359   -6.4638025    1127.6536  0.024972398  0.024223245           40 
 3764000   0.64508219   -6.4847001    1126.8625  0.024948249  0.024216176           23 
 3765000   0.64759223   -6.4604713    1127.4181   0.02495392  0.024209099           14 
 3766000   0.63902678   -6.4839063    1124.8982  0.024891535  0.024202014           28 
 3767000   0.63958011   -6.4774689    1127.6057  0.024944822  0.024194917           22 
 3768000   0.65765436   -6.5010489    1127.6428  0.024939021  0.024187821           19 
 3769000   0.64822806   -6.5056761    1125.7298  0.024890107   0.02418072           33 
 3770000   0.65324335    -6.496802    1126.7717  0.024906537  0.024173622           17 
 3771000   0.65775223   -6.4911125    1125.2252  0.024865756   0.02416652           30 
 3772000   0.64538963   -6.5072836    1126.0358  0.024877073  0.024159421           79 
 3773000    0.6468763   -6.5044069    1127.0237  0.024892298  0.024152308           24 
 3774000   0.63476774   -6.4709351    1129.3524  0.024937122  0.024145227           15 
 3775000   0.65680727   -6.4749073    1128.0943  0.024902745  0.024138167           32 
 3776000   0.64022473   -6.4599282    1130.2362  0.024943419  0.024131128           27 
 3777000   0.65055816   -6.4705137    1129.3591  0.024917463  0.024124131           72 
 3778000   0.64880239   -6.4715237    1128.2861    0.0248872  0.024117096           26 
 3779000   0.65818805   -6.4510009    1134.0128  0.025006897  0.024110084           24 
 3780000   0.65326985    -6.448452    1130.4985  0.024922807  0.024103092           24 
 3781000   0.64816194   -6.4739351    1130.6127  0.024918732  0.024096097           32 
 3782000   0.66334472   -6.4646021    1127.4527  0.024842515  0.024089067           45 
 3783000    0.6565573   -6.4516862    1128.8043  0.024865723  0.024082054           42 
 3784000   0.65237404    -6.490795    1127.4733  0.024829839  0.024075014           41 
 3785000   0.64506907   -6.4643929     1129.505   0.02486801  0.024067965           35 
 3786000   0.63142289    -6.491169    1127.2674  0.024812189  0.024060913           72 
 3787000   0.65617155   -6.4898028     1126.828  0.024795968  0.024053835           63 
 3788000   0.63648483    -6.471031    1127.9063  0.024813143  0.024046767           84 
 3789000   0.63088654   -6.4695651    1129.0436   0.02483161  0.024039728           67 
 3790000   0.65749382   -6.4618461    1130.7736  0.024863096  0.024032714           82 
 3791000   0.65179791   -6.4761854    1127.7087  0.024789164  0.024025689           86 
 3792000   0.64931794   -6.4820728    1129.7923  0.024828417  0.024018656           91 
 3793000   0.64458977   -6.4832448     1127.939  0.024781153  0.024011635           55 
 3794000   0.65485231   -6.4534248    1130.2919  0.024826303   0.02400464           25 
 3795000   0.65337936   -6.4520258    1129.0389  0.024792247  0.023997683           63 
 3796000   0.63969324   -6.4640421    1127.1424  0.024744081  0.023990706           62 
 3797000     0.656092   -6.4692286    1129.5273  0.024789906  0.023983714           73 
 3798000   0.63703883   -6.4752528    1128.9897  0.024771583  0.023976725           72 
 3799000   0.65319735   -6.4669395    1130.9656  0.024808407  0.023969747           40 
 3800000   0.65837989   -6.4735698    1129.5854   0.02477161  0.023962782           59 
 3801000   0.66231469   -6.4605089      1127.53   0.02472003  0.023955802           21 
 3802000   0.63971917   -6.4767522    1128.8584  0.024742644  0.023948827           30 
 3803000   0.64359783     -6.45826    1127.5973  0.024708503   0.02394186           16 
 3804000   0.64691345   -6.4789634    1129.0026  0.024732795  0.023934881           11 
 3805000   0.64217935   -6.4727251    1129.9413  0.024746854  0.023927906           18 
 3806000   0.63536085   -6.4747708    1130.6565   0.02475601  0.023920929           63 
 3807000   0.62985923   -6.4566742    1131.2776  0.024763104  0.023913954           26 
 3808000   0.64814995   -6.4851592    1129.6844  0.024721735   0.02390698           19 
 3809000   0.64234425   -6.4690895    1127.8078  0.024674189  0.023899981           17 
 3810000   0.64934695    -6.502449    1129.4512  0.024703656  0.023892964           45 
 3811000   0.65116843   -6.4891325    1127.0045  0.024643675  0.023885944           43 
 3812000   0.64066372    -6.512441    1127.1004  0.024639305  0.023878931           66 
 3813000   0.64402965   -6.4691541    1128.9968  0.024674289  0.023871918           39 
 3814000   0.63639429   -6.5050497    1127.5519  0.024636251  0.023864914           45 
 3815000   0.63325592   -6.4812092    1129.0831  0.024663239  0.023857923           43 
 3816000   0.63152026   -6.5106907    1126.6637  0.024603942  0.023850925           61 
 3817000   0.63154752   -6.4972474     1127.482  0.024615361  0.023843936           37 
 3818000   0.64823239   -6.4764077    1127.0924  0.024600411  0.023836932           73 
 3819000   0.63922437   -6.4838626    1127.8478  0.024610453  0.023829993           38 
 3820000   0.63587782   -6.4750213    1129.7508  0.024645523  0.023823039           45 
 3821000   0.65589692    -6.514227    1128.8562  0.024619564  0.023816059           33 
 3822000   0.64035683   -6.4950136    1132.1244   0.02468438  0.023809112           41 
 3823000   0.64609309   -6.5054659     1130.306  0.024638285  0.023802125           38 
 3824000   0.64896991   -6.4852625     1129.858   0.02462208  0.023795168           14 
 3825000   0.62868633   -6.4994981    1128.1258  0.024577904  0.023788182           29 
 3826000   0.64304888   -6.5105916    1130.5683   0.02462468  0.023781174           50 
 3827000   0.63940339   -6.4831273     1130.761  0.024622442  0.023774179           18 
 3828000    0.6398678   -6.5081049    1131.6289  0.024634902  0.023767194           30 
 3829000   0.65080655   -6.4909878     1129.698  0.024586445  0.023760219           12 
 3830000   0.64463462   -6.5061757    1130.7474  0.024602858  0.023753229           17 
 3831000   0.63451113    -6.482112    1129.1169  0.024560969  0.023746229           10 
 3832000   0.64493541   -6.5111929    1129.6714  0.024566619  0.023739254           11 
 3833000   0.65520201    -6.501628     1127.779  0.024519066  0.023732268           17 
 3834000   0.63753573   -6.4879914    1127.3638  0.024503647  0.023725313           37 
 3835000   0.63293891   -6.5024943    1128.5387  0.024522788  0.023718363           24 
 3836000   0.64621627   -6.4861874    1127.2723  0.024488885  0.023711445           14 
 3837000   0.64776139   -6.4761385    1128.9425  0.024518775  0.023704535           20 
 3838000   0.64198871   -6.4829766    1126.4165   0.02445754  0.023697595           34 
 3839000   0.63491752   -6.4817398    1129.0436  0.024508196  0.023690659           29 
 3840000   0.62469293   -6.4972505    1130.1659   0.02452617  0.023683719           45 
 3841000   0.64382748   -6.4927923    1130.4743  0.024526474  0.023676814           17 
 3842000   0.65015783   -6.4895842    1131.9713  0.024552561  0.023669899           29 
 3843000   0.63459986   -6.4910004    1126.6537  0.024430864   0.02366295           32 
 3844000   0.65121314   -6.4906702    1132.2504  0.024545839  0.023655996           17 
 3845000   0.62516104   -6.5205459    1127.8468  0.024444015   0.02364905           14 
 3846000   0.63039041   -6.5195766    1125.0582  0.024377237  0.023642095           40 
 3847000   0.64648718   -6.5299373    1125.9363  0.024389921  0.023635121           30 
 3848000   0.63245805   -6.5238242    1128.3679  0.024436242  0.023628149           31 
 3849000   0.63948314   -6.5257663    1128.5159  0.024433098  0.023621176           48 
 3850000   0.62277067   -6.5355289    1128.7306  0.024431397   0.02361418           34 
 3851000   0.62542694    -6.525448    1128.5098  0.024420276  0.023607226           13 
 3852000   0.63831267   -6.5071397    1127.7716  0.024397966  0.023600307           27 
 3853000   0.63692777   -6.5246637    1130.9495  0.024460366  0.023593367          139 
 3854000   0.64258365   -6.5121659    1128.0103  0.024390467  0.023586442           46 
 3855000   0.63501707   -6.5106172     1128.569  0.024396217  0.023579526           55 
 3856000   0.63250023   -6.5062759    1131.3024  0.024448963  0.023572592           26 
 3857000   0.62059599    -6.496841    1130.9364  0.024434716  0.023565668           85 
 3858000   0.62946654   -6.4672244    1132.4307   0.02446066  0.023558775           29 
 3859000   0.62959346   -6.5278883    1127.4475   0.02434671  0.023551868           30 
 3860000   0.63844374   -6.5021647    1130.5528  0.024407445  0.023544963           31 
 3861000   0.63630818   -6.5112074    1131.2789  0.024416794  0.023538051           19 
 3862000   0.62784858   -6.5055718    1131.4792  0.024414793  0.023531152           25 
 3863000   0.65125387   -6.4882971    1131.4801  0.024408492  0.023524255           19 
 3864000   0.63526417   -6.4959949    1130.5853  0.024382879   0.02351735           32 
 3865000   0.63323711   -6.4968489    1131.2058  0.024389948  0.023510422           26 
 3866000   0.64810781   -6.4975784    1127.9391  0.024313225  0.023503534           22 
 3867000   0.61413292   -6.4954072    1129.7486  0.024345932  0.023496644           20 
 3868000   0.62521621   -6.4947638    1130.1719  0.024348758  0.023489765           20 
 3869000   0.63328528   -6.4911385    1133.1823  0.024407303   0.02348288           36 
 3870000   0.62977316   -6.4998388    1130.2942  0.024338806  0.023476005           23 
 3871000   0.63605797   -6.4718809    1129.2726  0.024310528  0.023469137           16 
 3872000   0.62140417   -6.4793923      1132.98  0.024384039  0.023462298           30 
 3873000   0.64064234    -6.494335    1132.2436  0.024361899  0.023455455           17 
 3874000    0.6095297   -6.5055719    1130.8967  0.024326637  0.023448583           69 
 3875000   0.62146032   -6.5064098     1130.256  0.024306581  0.023441701           29 
 3876000   0.64024787   -6.5340504    1130.3413  0.024302144  0.023434813           27 
 3877000   0.63133283   -6.5257591    1129.2759  0.024272976  0.023427901           44 
 3878000   0.62930419   -6.5135789    1128.9605  0.024259938   0.02342102          131 
 3879000   0.62106928   -6.4883486    1131.8436  0.024315623  0.023414138           79 
 3880000   0.62132502   -6.4833689    1129.2478  0.024253604  0.023407264           40 
 3881000   0.61239456   -6.5039767    1131.4333  0.024294283  0.023400364           50 
 3882000   0.64350172   -6.4902601     1129.877  0.024254615  0.023393472           78 
 3883000   0.62572639   -6.5218519    1128.8108  0.024225487   0.02338661           50 
 3884000   0.63062832   -6.5246118    1127.1881  0.024184433  0.023379731           33 
 3885000   0.62537545   -6.5186586    1128.7417  0.024211533  0.023372839           51 
 3886000    0.6170563   -6.4890201    1131.4779   0.02426398  0.023365964           22 
 3887000    0.6358376   -6.5210815    1128.9949  0.024204504  0.023359091           65 
 3888000   0.63019915   -6.5107753    1129.8132  0.024215819   0.02335223           47 
 3889000   0.63237726   -6.5146339    1128.9582  0.024191271  0.023345375           61 
 3890000   0.61362198   -6.5325003    1130.4241  0.024216455  0.023338491           59 
 3891000   0.61755493   -6.5186531    1130.6772  0.024215651  0.023331609           46 
 3892000   0.62417326   -6.5321755    1130.3803  0.024203073   0.02332474           31 
 3893000   0.64615452    -6.510464    1130.9986  0.024210092  0.023317853           57 
 3894000   0.61554795   -6.5423331    1131.7919   0.02422085  0.023310976           57 
 3895000   0.61318062   -6.5355049    1128.9775  0.024154418  0.023304079           27 
 3896000   0.61945783   -6.5411854    1128.0143  0.024127616  0.023297171           67 
 3897000   0.62807187   -6.5259109    1126.1443  0.024081437  0.023290269           79 
 3898000   0.62709956   -6.5392718    1126.9698  0.024092906  0.023283399           38 
 3899000   0.62782401   -6.5262436     1131.097  0.024174938  0.023276513           33 
 3900000   0.62797957   -6.5098197     1129.348  0.024131367  0.023269633           35 
 3901000   0.62520044    -6.513861    1132.3584   0.02418949  0.023262772           38 
 3902000   0.61962468   -6.5116293    1128.5326  0.024101585  0.023255899           24 
 3903000   0.62988961   -6.5080115    1130.1058  0.024128998  0.023249013           53 
 3904000   0.63888978   -6.5226066    1126.7607  0.024051415  0.023242135           45 
 3905000   0.61631832   -6.5297743    1130.6121  0.024127446  0.023235281           19 
 3906000   0.62804434   -6.5625459    1126.1008  0.024025022  0.023228403           35 
 3907000   0.62249462   -6.5257939    1127.3128  0.024044724  0.023221528           34 
 3908000   0.62574849   -6.5199947      1131.25  0.024122527  0.023214675           31 
 3909000   0.63352477   -6.5187656    1128.6061  0.024059993  0.023207818           24 
 3910000   0.62069114   -6.5323717    1129.1328  0.024065063  0.023200967           31 
 3911000   0.62019829   -6.5292921    1129.2284  0.024060947  0.023194127           52 
 3912000   0.61351053   -6.5169364    1128.8259  0.024046223   0.02318729           25 
 3913000   0.63340779   -6.5096006    1131.4234  0.024095395  0.023180464           28 
 3914000   0.63207365   -6.5548686    1129.4672   0.02404759  0.023173659           20 
 3915000   0.61032365   -6.5144278    1132.2245  0.024100139  0.023166842           45 
 3916000   0.61653084   -6.4889908    1133.0858  0.024112312  0.023160038           29 
 3917000   0.61890734   -6.5071533    1131.2742  0.024067616  0.023153247           27 
 3918000   0.60854421    -6.513123    1132.1698  0.024080521  0.023146446           26 
 3919000   0.61464878   -6.5136526    1133.1475  0.024095166  0.023139634           16 
 3920000   0.63736251   -6.5275537     1127.148   0.02396148  0.023132794           30 
 3921000    0.6384927   -6.5207084    1129.6506  0.024008555  0.023125953           14 
 3922000   0.62220372     -6.55349    1126.9436  0.023944918  0.023119119           34 
 3923000   0.62005147   -6.5411261    1126.2123   0.02392328  0.023112246           23 
 3924000   0.62149706   -6.5381597    1131.6348   0.02403234  0.023105389           26 
 3925000   0.62154132   -6.5432754    1128.5781  0.023961318  0.023098518           36 
 3926000   0.61434084   -6.5262148    1126.7448  0.023916301  0.023091651           31 
 3927000   0.62783271   -6.5509076    1129.7266  0.023973487  0.023084825           45 
 3928000   0.63360265   -6.5110225    1132.8845  0.024034378  0.023078014           67 
 3929000   0.63019763   -6.5498894    1130.3704  0.023974938  0.023071185           17 
 3930000   0.62311385   -6.5449623       1130.3  0.023967345  0.023064356           23 
 3931000   0.62125248   -6.5662431    1130.1325  0.023957698  0.023057524           34 
 3932000    0.6273092   -6.5234751    1129.4061  0.023936209  0.023050708           34 
 3933000   0.61210981   -6.5257174    1128.0196  0.023900746  0.023043877           29 
 3934000   0.61468965   -6.5524126    1128.8653  0.023912585  0.023037066           35 
 3935000   0.62308046   -6.5340458     1129.311  0.023915946  0.023030239           32 
 3936000   0.62036889   -6.5266072    1128.9136  0.023901457  0.023023441           29 
 3937000   0.61607388   -6.5412463    1130.7762  0.023934812  0.023016619           37 
 3938000   0.62866748   -6.5284465    1129.3794  0.023899174  0.023009832           28 
 3939000   0.63024862   -6.5173861    1131.0397  0.023928233  0.023003048           27 
 3940000   0.61655499   -6.5177309    1127.2846  0.023842737  0.022996269           14 
 3941000   0.62615304    -6.561192    1129.4288  0.023882027  0.022989491            9 
 3942000   0.61117266   -6.5337357    1131.3601  0.023916795  0.022982688           54 
 3943000   0.62015793   -6.5201151    1131.7577  0.023919134  0.022975897           24 
 3944000   0.61859337   -6.5656129    1130.2061  0.023880283  0.022969126           21 
 3945000   0.62653965   -6.5204418    1132.1234  0.023914731   0.02296234           19 
 3946000   0.61680506   -6.5386159    1130.1487   0.02386697  0.022955547           18 
 3947000   0.61614038   -6.5599192    1128.5951   0.02382812  0.022948787           35 
 3948000   0.62401885   -6.5471533    1127.6882  0.023802942  0.022941964           17 
 3949000   0.60131954   -6.5451131     1126.671   0.02377545  0.022935143           17 
 3950000   0.62149572   -6.5633508    1127.7526  0.023792249  0.022928357           21 
 3951000   0.63357939   -6.5484361    1127.8716  0.023788738  0.022921558           15 
 3952000   0.62067132   -6.5511539    1129.1662  0.023810016  0.022914749           20 
 3953000   0.61469762   -6.5431695    1131.3388  0.023849794  0.022907972           22 
 3954000   0.62508096   -6.5575509    1129.4475    0.0238039  0.022901187           79 
 3955000   0.62111406   -6.5675716    1129.1608  0.023791842  0.022894398           42 
 3956000   0.61809301   -6.5559123    1129.6477  0.023796084  0.022887587           44 
 3957000   0.62319636   -6.5424189     1128.217  0.023759939   0.02288077           22 
 3958000   0.61990385   -6.5243273    1128.5178   0.02376027  0.022873962           26 
 3959000   0.61363577   -6.5442033    1126.9242  0.023720724  0.022867148           35 
 3960000   0.62155729    -6.577132    1128.0629  0.023738698  0.022860336           18 
 3961000   0.61628864   -6.5658048    1128.0396  0.023732214  0.022853526           34 
 3962000   0.62707894   -6.5642352    1126.8186  0.023700542  0.022846727           45 
 3963000   0.60577925   -6.5352561    1129.2427  0.023745537  0.022839934           14 
 3964000   0.61865293   -6.5308189    1129.9624  0.023754675  0.022833142           20 
 3965000     0.614244   -6.5505389    1129.1349  0.023731292  0.022826367           20 
 3966000   0.61510751   -6.5632434    1128.8154  0.023718595  0.022819571           11 
 3967000   0.62365693   -6.5367331    1128.6312  0.023708747  0.022812783           48 
 3968000   0.62551572   -6.5351094    1129.1526  0.023713722  0.022806002           26 
 3969000   0.61945095   -6.5415899    1132.0518   0.02376862   0.02279922           24 
 3970000   0.61687799   -6.5635333    1126.5635  0.023647429  0.022792464           30 
 3971000   0.61501644   -6.5465555     1130.586  0.023725887  0.022785673           40 
 3972000   0.62860598   -6.5457934    1130.7488   0.02372333  0.022778871           30 
 3973000   0.62536019   -6.5675701    1128.1699  0.023663266  0.022772086           50 
 3974000   0.61189026   -6.5492714    1130.9269  0.023715126  0.022765312           39 
 3975000   0.60668224   -6.5259795    1128.5867  0.023660099  0.022758562           74 
 3976000   0.61076747   -6.5256128    1128.9128  0.023660984  0.022751821           24 
 3977000   0.62252554   -6.5271004    1128.6611  0.023649759  0.022745096           16 
 3978000   0.62513302   -6.5503327    1127.9562  0.023629048  0.022738357           13 
 3979000   0.62514945   -6.5366949    1130.9231  0.023685246  0.022731598           36 
 3980000   0.60967834   -6.5422119    1129.1087  0.023641304  0.022724851           80 
 3981000   0.60403237   -6.5532458    1131.1712   0.02367854  0.022718092           38 
 3982000   0.61602349   -6.5365002    1130.4309  0.023657101   0.02271136           33 
 3983000   0.61190741   -6.5659159     1129.084   0.02362298  0.022704606           54 
 3984000   0.61784884   -6.5610359    1127.7377  0.023588892   0.02269784           34 
 3985000   0.61763481   -6.5513212    1130.2092  0.023634656  0.022691077           23 
 3986000   0.61508131   -6.5565879    1129.6664  0.023617378  0.022684325           32 
 3987000   0.61077932   -6.5558573    1129.5471  0.023608961   0.02267759           19 
 3988000   0.60607699   -6.5385971    1131.6662  0.023647321  0.022670851           31 
 3989000   0.60664095   -6.5506677    1130.4217  0.023615395   0.02266411           18 
 3990000   0.61503549   -6.5481015    1127.2797  0.023543853  0.022657378           29 
 3991000   0.61371813   -6.5518672     1131.659  0.023629395  0.022650655           13 
 3992000   0.60161238   -6.5412984    1130.9403  0.023608473  0.022643949           15 
 3993000   0.62378507   -6.5493579    1130.5696  0.023594825  0.022637236           56 
 3994000    0.6015981   -6.5523112    1131.3822  0.023605872   0.02263051           22 
 3995000   0.61828149   -6.5708171    1128.8057  0.023546218  0.022623787           41 
 3996000   0.62109394   -6.5576186    1129.5147  0.023555111  0.022617074           22 
 3997000   0.61284858   -6.5611485    1129.8101  0.023555377   0.02261036           58 
 3998000    0.6102245   -6.5658399     1128.665  0.023525617  0.022603649           50 
 3999000   0.61370329   -6.5525358    1131.0662  0.023569772  0.022596929           31 
 4000000   0.61100178    -6.559862    1128.2746   0.02350572  0.022590211           23 
 4001000   0.60207924   -6.5733594    1128.2839  0.023500039  0.022583495           20 
 4002000   0.60647947   -6.5506173    1128.6737  0.023502284   0.02257678           70 
 4003000   0.62133881   -6.5739627    1128.6014  0.023494907  0.022570074           51 
 4004000   0.61459162   -6.5629235    1130.3323  0.023525065  0.022563382           45 
 4005000   0.60464978   -6.5817473    1129.6331  0.023504642  0.022556667           57 
 4006000   0.61510686   -6.5416762    1134.1363   0.02359245  0.022549963           38 
 4007000    0.6258729   -6.5687587    1129.3081  0.023486151  0.022543269           85 
 4008000   0.61601759   -6.5760049    1128.9634  0.023473125  0.022536558           41 
 4009000   0.62429458   -6.5847518    1127.8148  0.023443395  0.022529854           22 
 4010000   0.62491633   -6.5590415    1128.2648    0.0234469  0.022523155           30 
 4011000   0.60511058   -6.5720973    1128.3589  0.023443009  0.022516426           31 
 4012000   0.61162398   -6.5863007    1129.7571  0.023466207   0.02250968           71 
 4013000   0.61108412    -6.577252    1129.2722   0.02345029  0.022502945           24 
 4014000   0.61240795   -6.5705703    1127.1107  0.023399574  0.022496228           32 
 4015000   0.60766462   -6.6008849    1129.2475  0.023438097  0.022489518           32 
 4016000    0.6033582   -6.5765835    1129.5142  0.023437794  0.022482791           37 
 4017000   0.61449907   -6.5856478    1128.8835  0.023418876  0.022476075           31 
 4018000   0.60696541   -6.5687757    1129.4935    0.0234257  0.022469377           57 
 4019000   0.60849821    -6.567778     1125.728  0.023341793  0.022462671           23 
 4020000   0.59898251   -6.5963683     1125.701  0.023335426  0.022455952           26 
 4021000   0.61677642   -6.5967173    1127.6773  0.023370582  0.022449243           21 
 4022000   0.60143748   -6.5830026    1129.3214  0.023398837  0.022442503           25 
 4023000   0.61219498   -6.5857364    1126.7423  0.023339596   0.02243577           26 
 4024000   0.59687333   -6.5791783    1130.4177  0.023409908  0.022429055           20 
 4025000   0.60345941   -6.5802791    1128.0546  0.023355167  0.022422338           65 
 4026000   0.60438013   -6.6130299    1127.6368   0.02334072  0.022415631           14 
 4027000    0.6066202   -6.5734165    1128.6685  0.023356272  0.022408926           25 
 4028000   0.61300281   -6.5888134    1129.2484  0.023362472  0.022402236           15 
 4029000   0.60962204   -6.5777459    1130.5808  0.023384232  0.022395542           20 
 4030000    0.6066674    -6.557364    1129.9109  0.023364575  0.022388848           31 
 4031000   0.59795115   -6.5761093    1127.5891  0.023310781  0.022382161           12 
 4032000   0.59305705   -6.5579458    1131.1806  0.023379228  0.022375466           24 
 4033000    0.5946311   -6.5691637    1129.8565  0.023346071  0.022368774           26 
 4034000   0.60518485   -6.5975657    1127.3663  0.023288842  0.022362102           21 
 4035000   0.61262617    -6.581796    1128.1601  0.023299464  0.022355418           36 
 4036000   0.60082849   -6.5825931    1129.4576  0.023320482  0.022348773           38 
 4037000    0.6051003   -6.5741968    1130.0845  0.023327646  0.022342134           23 
 4038000   0.61017995   -6.5649821    1130.6255  0.023333033  0.022335483           52 
 4039000   0.60157338   -6.5822239    1128.6447   0.02328639  0.022328821          106 
 4040000   0.60440411   -6.5641779    1129.5837  0.023299993  0.022322169           61 
 4041000   0.59072641   -6.5761835    1130.3224  0.023309462  0.022315536           26 
 4042000   0.60213704   -6.5871172    1130.4622  0.023306576  0.022308879           51 
 4043000   0.60097874   -6.5876543    1129.3701  0.023278302  0.022302228           14 
 4044000   0.59515544   -6.5952324    1128.2536  0.023249539  0.022295569           57 
 4045000   0.61424634   -6.5800689     1130.437  0.023288773  0.022288909           38 
 4046000   0.61029928   -6.5617545    1126.2575  0.023196933  0.022282257           21 
 4047000    0.6033409   -6.5799517    1128.0501  0.023228114  0.022275614           65 
 4048000   0.60052039   -6.5763315    1128.5743  0.023233166  0.022268969           26 
 4049000   0.58400421   -6.5524083    1130.4325  0.023265672  0.022262328           38 
 4050000   0.60692807   -6.5846797    1128.9612  0.023229654  0.022255691           57 
 4051000   0.60143674   -6.5805659    1131.1838  0.023269641  0.022249041           64 
 4052000   0.60792718   -6.5804891    1129.5797  0.023230908  0.022242391           44 
 4053000   0.61236225   -6.5519093    1130.1685  0.023237282  0.022235765           58 
 4054000   0.59956122   -6.5762244    1129.8811  0.023225644  0.022229136          128 
 4055000   0.60103056   -6.5905961    1129.5389  0.023212884  0.022222507           90 
 4056000   0.60488742   -6.5751905    1129.5266  0.023206907  0.022215891           81 
 4057000   0.60436822   -6.5749184    1129.4744  0.023200114  0.022209271           81 
 4058000   0.60615862   -6.5665364    1132.8962  0.023264667  0.022202675           45 
 4059000   0.60283098   -6.5690767    1131.7472  0.023235344  0.022196086           70 
 4060000   0.60765964   -6.5738953    1132.8532  0.023252323  0.022189504           48 
 4061000   0.59597955   -6.5787741    1130.7627    0.0232037  0.022182903           79 
 4062000   0.58496033   -6.6100301    1128.0313  0.023141951  0.022176293           66 
 4063000   0.60452521   -6.5846298    1128.8254  0.023152544  0.022169688           39 
 4064000   0.60569837   -6.5642178    1132.6537  0.023225347  0.022163083           27 
 4065000   0.60974247   -6.5848052    1128.8768  0.023142205  0.022156447           32 
 4066000   0.60124372   -6.6025976    1128.5369  0.023129548  0.022149831           48 
 4067000   0.60182444   -6.5868784    1130.1822  0.023157572  0.022143192           29 
 4068000   0.60492303   -6.6161224    1127.8323  0.023103742  0.022136532           36 
 4069000   0.59336952   -6.6148863    1126.8209  0.023077352   0.02212989           23 
 4070000   0.59798901   -6.6188107    1126.2268  0.023059517  0.022123235           41 
 4071000   0.59696206   -6.6050752    1127.0405  0.023070509  0.022116565           37 
 4072000   0.60194877   -6.6157678     1128.868  0.023102242  0.022109913           32 
 4073000   0.60155086   -6.5973429    1127.6263  0.023071166  0.022103275           31 
 4074000   0.57893976   -6.6132042    1127.1609  0.023055982  0.022096636           50 
 4075000   0.59956513   -6.6231809    1128.0195  0.023067883      0.02209           52 
 4076000   0.59934037   -6.6102965    1128.2621  0.023067183  0.022083375           27 
 4077000   0.58730165   -6.6120813    1128.2879  0.023062054  0.022076741           31 
 4078000   0.59225509   -6.6052043    1127.4389   0.02303905  0.022070117           58 
 4079000   0.58723521   -6.5981192     1128.394  0.023052913  0.022063498          110 
 4080000   0.60983711   -6.5993168    1124.8063  0.022973984  0.022056869           68 
 4081000   0.59042392   -6.6082808    1127.0468  0.023014107   0.02205023           50 
 4082000   0.59369839   -6.5991313    1127.9053  0.023025995  0.022043594           65 
 4083000     0.605039   -6.5915745    1128.2844  0.023028092  0.022036995          106 
 4084000   0.59779051   -6.6004131    1128.4504  0.023025841  0.022030413           85 
 4085000   0.61395691   -6.5765428     1131.632  0.023085109  0.022023813           52 
 4086000   0.60288413   -6.6114481    1129.2655  0.023031194  0.022017242           54 
 4087000   0.58444051   -6.6180082    1129.4291  0.023028895  0.022010647           77 
 4088000   0.58576785   -6.5884694    1127.5391  0.022984734  0.022004052           78 
 4089000   0.59762902   -6.6052953    1127.7734  0.022983889  0.021997473           68 
 4090000   0.60410399   -6.5992574    1129.5363  0.023014186  0.021990885          145 
 4091000   0.59625811   -6.5884299    1127.0796  0.022958519  0.021984284           98 
 4092000   0.60726858   -6.6115325    1130.4553  0.023021654  0.021977698           93 
 4093000   0.59443902   -6.6098334    1129.0263  0.022986935  0.021971092           84 
 4094000   0.60272153   -6.6097528    1128.4752  0.022970103  0.021964469          164 
 4095000   0.60203624   -6.5979182    1128.6796  0.022968652  0.021957851          108 
 4096000   0.60101936   -6.5981723    1129.3782  0.022977259  0.021951238           90 
 4097000   0.58838752   -6.5870025    1128.7229  0.022958322   0.02194465          156 
 4098000   0.58690519   -6.5898523    1128.1627  0.022941327  0.021938085           74 
 4099000   0.61084178   -6.6035585    1128.1158  0.022934777  0.021931514           92 
 4100000   0.59598989   -6.5957498    1128.3028  0.022932985  0.021924925          207 
 4101000   0.60256501   -6.5919438    1127.3026  0.022907067  0.021918343          131 
 4102000   0.58921088    -6.601092    1130.5133  0.022966709  0.021911778          103 
 4103000   0.59542969   -6.5854666    1128.1489   0.02291309  0.021905198          122 
 4104000   0.59887278   -6.6029875    1128.4989  0.022914614  0.021898622          141 
 4105000   0.58452233   -6.5885342    1128.2611  0.022904204  0.021892057          128 
 4106000   0.58195709   -6.5927518    1129.6585  0.022926986    0.0218855          120 
 4107000   0.59940005   -6.6015516    1127.6894   0.02288145  0.021878961          113 
 4108000   0.59661277    -6.570117     1128.881  0.022900053  0.021872423          124 
 4109000   0.59746084    -6.603177    1128.8232  0.022893307  0.021865894          101 
 4110000   0.58149825   -6.5898428     1130.802  0.022927859  0.021859351          101 
 4111000   0.59162153    -6.605729    1128.7885  0.022881466   0.02185281           92 
 4112000   0.60583932   -6.6035981    1128.2462  0.022864911  0.021846268           76 
 4113000   0.59997608   -6.6140886     1127.546  0.022845165  0.021839711          103 
 4114000   0.58317332   -6.5978024    1127.7221  0.022843179  0.021833159          136 
 4115000   0.60281043   -6.6018325    1127.9754  0.022842757  0.021826607          131 
 4116000   0.58871488   -6.6324629    1126.5953  0.022809267  0.021820048          102 
 4117000   0.59296381    -6.611997    1129.3197  0.022858873  0.021813476           83 
 4118000   0.58886103   -6.6196443    1124.9863  0.022765629  0.021806901          113 
 4119000   0.58668375   -6.6184702    1126.7048  0.022794869  0.021800336          103 
 4120000   0.59450494   -6.6085392    1126.1704  0.022778528   0.02179375          133 
 4121000   0.59240898    -6.610743    1127.1992  0.022793804  0.021787176          108 
 4122000   0.58924518   -6.6096395    1127.2084   0.02278846  0.021780598          130 
 4123000   0.58912991   -6.6156827    1127.5023  0.022788874   0.02177403          115 
 4124000   0.59399187   -6.6289273    1128.3242  0.022799956  0.021767449          133 
 4125000   0.59592586   -6.6396798    1124.3967  0.022715084  0.021760859           96 
 4126000   0.58993381     -6.62354    1126.3901   0.02274984  0.021754254          101 
 4127000   0.59445762   -6.6142458    1125.5087   0.02272653  0.021747665           74 
 4128000   0.59122428   -6.6307715    1126.3967  0.022738951   0.02174107          107 
 4129000   0.60013151   -6.6216956    1126.8725  0.022743047  0.021734472           91 
 4130000   0.57510835   -6.5965062    1126.0083  0.022720103  0.021727898           94 
 4131000   0.58487317   -6.6259609    1126.3479  0.022721454  0.021721327          102 
 4132000   0.58826975   -6.6239464    1126.7857  0.022724785  0.021714769          148 
 4133000   0.59553246   -6.6163033     1127.094  0.022725502  0.021708198          131 
 4134000   0.60541254   -6.6311909    1127.6129  0.022730464  0.021701656          125 
 4135000   0.58579302   -6.6291538    1126.7274  0.022707122  0.021695097          169 
 4136000   0.59698464   -6.6278392    1123.5031  0.022636668  0.021688526          109 
 4137000   0.59578126   -6.6287146    1128.7282  0.022736447  0.021681954          122 
 4138000   0.59443098   -6.6328082    1126.0074   0.02267616  0.021675402           84 
 4139000   0.59277154   -6.6261724    1125.6835  0.022664161  0.021668856           78 
 4140000    0.5804244   -6.6064021    1126.7752   0.02268066  0.021662297          102 
 4141000    0.5903634   -6.6398391    1126.5921  0.022671499  0.021655749           73 
 4142000   0.60061061   -6.6513819    1126.9827  0.022673883  0.021649199          105 
 4143000   0.58722702   -6.6234459     1130.235  0.022733827  0.021642663          137 
 4144000   0.58835398   -6.6201755    1129.2466  0.022708466  0.021636144           79 
 4145000   0.58626717   -6.6265503    1126.3968  0.022645693  0.021629629          141 
 4146000   0.59228683   -6.6288747    1125.5268  0.022622746  0.021623098          199 
 4147000   0.58218864   -6.6179731    1126.9258  0.022645402  0.021616569          190 
 4148000   0.57664808   -6.6452764    1127.9989  0.022661501  0.021610034          169 
 4149000   0.58042171   -6.6364205    1125.6986  0.022609838  0.021603492          236 
 4150000   0.57887575   -6.6338203    1125.4274  0.022598943  0.021596953          214 
 4151000   0.58727384   -6.6357022    1125.2216  0.022589368   0.02159042          292 
 4152000   0.58172709   -6.6421284    1127.3732  0.022627112  0.021583894          308 
 4153000   0.57651213   -6.6370413    1126.0289  0.022594689   0.02157737          235 
 4154000   0.57676911    -6.649399    1128.2765  0.022634338  0.021570846          204 
 4155000   0.57473071   -6.6262051    1129.1743  0.022646898  0.021564331          256 
 4156000   0.58926629   -6.6262242    1126.4491  0.022586805  0.021557801          221 
 4157000   0.57970232   -6.6443055     1126.196  0.022576296  0.021551292          221 
 4158000   0.59271472   -6.6285163    1128.9241  0.022625543  0.021544791          313 
 4159000   0.59679235   -6.6431235    1126.6889  0.022575316  0.021538284          207 
 4160000   0.60253409   -6.6201413     1129.202  0.022620232   0.02153178          213 
 4161000   0.57748916   -6.6257159    1128.1474  0.022593675  0.021525289          220 
 4162000   0.59240951   -6.6279356    1126.2938  0.022551133  0.021518775          276 
 4163000   0.58758295   -6.6506458    1127.0667  0.022561187  0.021512272          301 
 4164000   0.59303699   -6.6412304    1128.0637  0.022575723  0.021505761          323 
 4165000   0.58608988   -6.6505128    1125.1417  0.022511838  0.021499258          289 
 4166000   0.58662004   -6.6114641    1124.8161  0.022499923  0.021492773          382 
 4167000   0.57851212   -6.6537912    1125.3183  0.022504565  0.021486284          267 
 4168000   0.57731273   -6.6529503    1125.8545  0.022509888  0.021479771          274 
 4169000   0.58135277   -6.6396954    1126.5827  0.022519043  0.021473267          264 
 4170000   0.57523325   -6.6401218    1126.8222  0.022518428  0.021466759          260 
 4171000   0.57032417   -6.6574903    1125.0667  0.022477957  0.021460232          286 
 4172000   0.57928018    -6.654843    1125.4198  0.022479621  0.021453724          216 
 4173000   0.58597085   -6.6478924    1126.4753  0.022495313  0.021447226          232 
 4174000   0.59079893   -6.6391071    1126.9524  0.022499449  0.021440737          189 
 4175000   0.58675609   -6.6067857    1126.8839  0.022492692  0.021434242          175 
 4176000   0.58884862   -6.6637267    1127.0569   0.02249076  0.021427736          202 
 4177000    0.5766718   -6.6453056    1127.0667   0.02248557  0.021421227          166 
 4178000   0.60101711   -6.6600752     1125.972  0.022458354  0.021414729          227 
 4179000   0.58221721   -6.6618675    1129.5451  0.022524231  0.021408236          196 
 4180000   0.57362085   -6.6404042     1125.984  0.022447848  0.021401735          228 
 4181000   0.57326576   -6.6302005    1127.0121  0.022462969  0.021395244          210 
 4182000   0.58533009   -6.6542923    1128.1155  0.022479584  0.021388768          283 
 4183000   0.58668603   -6.6453646    1127.6312  0.022464564  0.021382293          240 
 4184000   0.57300053   -6.6457942    1126.3956  0.022434584  0.021375804          266 
 4185000   0.57498334   -6.6751389    1126.4023  0.022429357  0.021369323          329 
 4186000   0.58204548   -6.6509789     1125.525  0.022406533  0.021362826          217 
 4187000   0.58182727   -6.6657572    1123.4022  0.022358931   0.02135633          226 
 4188000   0.57989325   -6.6749593    1122.8681  0.022342967  0.021349818          184 
 4189000   0.57196353   -6.6680826    1124.4582  0.022369264   0.02134331          244 
 4190000    0.5771608   -6.6669028    1123.7855  0.022350547  0.021336819          217 
 4191000   0.57705227    -6.665858    1127.8413   0.02242586  0.021330344          229 
 4192000   0.57644458   -6.6451061    1125.9236  0.022382388  0.021323867          326 
 4193000   0.58238343   -6.6742091     1126.172  0.022381986  0.021317393          327 
 4194000   0.59332253   -6.6689126    1124.1796  0.022337062  0.021310924          341 
 4195000   0.59333367   -6.6691701    1126.8692  0.022385166  0.021304466          231 
 4196000    0.5642951   -6.6518176    1126.6867  0.022376206  0.021297996          226 
 4197000   0.58432162    -6.669089    1125.0111  0.022337604  0.021291538          303 
 4198000   0.58053594   -6.6645973    1128.3374  0.022398314  0.021285065          456 
 4199000   0.57492387   -6.6609706    1124.7859  0.022322496   0.02127859          209 
 4200000   0.58747691   -6.6522295    1128.4134  0.022389155  0.021272137          256 
 4201000   0.57324909   -6.6424171    1126.7537  0.022350903  0.021265687          295 
 4202000   0.58164364   -6.6613542    1124.3798  0.022298505   0.02125922          391 
 4203000   0.58732822   -6.6755722    1125.7916  0.022321191  0.021252746          370 
 4204000   0.57462906   -6.6613611     1125.075  0.022301676  0.021246282          430 
 4205000   0.58485372   -6.6740549    1125.9472  0.022313658  0.021239826          351 
 4206000    0.5872448   -6.6517652    1126.7011  0.022323291  0.021233386          295 
 4207000   0.56810764   -6.6470996    1128.0079  0.022343869  0.021226951          389 
 4208000   0.58033246   -6.6723338    1125.6293  0.022291454  0.021220502          310 
 4209000     0.566256   -6.6583119    1126.9775  0.022312852  0.021214038          404 
 4210000   0.57512142   -6.6615867    1128.0038  0.022327866  0.021207556          318 
 4211000   0.58287634   -6.6740833    1124.0086  0.022243502  0.021201091          347 
 4212000   0.57911091   -6.6614504    1126.1706  0.022280995  0.021194629          329 
 4213000   0.56925017   -6.6429904    1123.8002   0.02222882  0.021188182          306 
 4214000   0.57169674   -6.6572406    1124.6749  0.022240843  0.021181735          339 
 4215000   0.58305819   -6.6626015    1124.6919  0.022235902   0.02117528          302 
 4216000   0.57600436   -6.6719339    1126.1152  0.022258761  0.021168806          430 
 4217000   0.58288379   -6.6915159    1123.2477  0.022196817  0.021162347          441 
 4218000   0.58212417   -6.6676155    1124.6125  0.022218517  0.021155882          512 
 4219000   0.57527686   -6.6551015    1125.6491  0.022233727  0.021149431          416 
 4220000   0.57984763   -6.6632743    1125.1853  0.022219299  0.021142982          368 
 4221000   0.57823321   -6.6637553    1126.0662  0.022231426  0.021136545          353 
 4222000   0.57867477   -6.6707021    1124.9481  0.022204091  0.021130111          391 
 4223000   0.57051329   -6.6478706    1124.7593  0.022195107  0.021123688          401 
 4224000   0.56920055   -6.6691988    1125.2433  0.022199402  0.021117264          349 
 4225000   0.57152103    -6.701164    1124.5156  0.022179796  0.021110825          353 
 4226000   0.57522107   -6.6601555    1124.4761  0.022173768  0.021104378          350 
 4227000    0.5669552   -6.6683958    1125.3336  0.022185426  0.021097936          463 
 4228000   0.57253353   -6.6802295    1123.7028  0.022148037  0.021091493          443 
 4229000   0.55634344   -6.6821734    1124.1883  0.022152367  0.021085045          326 
 4230000   0.58178103   -6.6471283    1125.2992  0.022169016  0.021078601          341 
 4231000   0.57352873     -6.67286    1123.4687  0.022127722  0.021072166          325 
 4232000   0.57420373   -6.6816114    1126.9657  0.022191353  0.021065747          427 
 4233000   0.57504604   -6.6797189    1124.1254  0.022130196  0.021059317          344 
 4234000   0.57260496   -6.6712476    1123.8026  0.022118615  0.021052882          365 
 4235000   0.56831914    -6.672453    1125.7434  0.022151583  0.021046479          425 
 4236000    0.5773919   -6.6815499    1125.9968  0.022151338  0.021040058          489 
 4237000   0.57749194   -6.6973336     1124.936  0.022125247  0.021033649          502 
 4238000   0.57291292   -6.6856076    1124.8597  0.022118525  0.021027229          521 
 4239000   0.57954464   -6.6706258    1123.7203  0.022090907  0.021020828          414 
 4240000   0.58527729   -6.6776585    1123.4319   0.02208003  0.021014432          513 
 4241000   0.58060091   -6.6761144    1125.5657  0.022116751  0.021008022          465 
 4242000    0.5765363   -6.6598058    1122.6576  0.022054407  0.021001602          481 
 4243000   0.58119085   -6.6849595    1123.2136  0.022060131  0.020995165          470 
 4244000   0.58227297   -6.6676999    1124.7012  0.022084142  0.020988737          494 
 4245000   0.57118555   -6.7037342    1123.5434  0.022056211  0.020982308          484 
 4246000   0.58328186   -6.6907403    1124.5923  0.022071602  0.020975872          499 
 4247000    0.5761897   -6.6804557    1123.1089    0.0220373  0.020969439          580 
 4248000   0.56656255   -6.6883659     1123.583  0.022041412  0.020962993          488 
 4249000   0.58117372   -6.6939321    1122.8267   0.02202139  0.020956549          439 
 4250000   0.55785961   -6.6885677    1122.2996  0.022005874  0.020950111          455 
 4251000   0.58825915   -6.6804284    1123.4381  0.022023017  0.020943672          497 
 4252000    0.5681185   -6.7012493    1123.9514  0.022027896  0.020937242          549 
 4253000    0.5716432   -6.7056176    1124.5209  0.022033876   0.02093081          483 
 4254000   0.58716748   -6.6981689    1124.6106  0.022030453  0.020924383          572 
 4255000   0.57286798   -6.6831804    1124.0207  0.022013724  0.020917969          581 
 4256000   0.57985639   -6.6840073    1123.5701  0.021999728  0.020911562          497 
 4257000   0.57537363   -6.6934803    1126.2356  0.022046738  0.020905156          506 
 4258000   0.58153879    -6.694627    1123.7526  0.021992966  0.020898739          535 
 4259000   0.57349989   -6.6958708    1121.6077  0.021945835  0.020892319          544 
 4260000   0.57009313   -6.7100072    1123.2325  0.021972467  0.020885899          593 
 4261000   0.56515205   -6.7035149    1121.3152  0.021929813  0.020879475          518 
 4262000   0.57253646   -6.6972657    1120.5065  0.021908855  0.020873049          598 
 4263000   0.57605675   -6.7068897    1121.5002  0.021923141  0.020866633          573 
 4264000   0.56766127   -6.6862333    1122.1314  0.021930335  0.020860225          634 
 4265000   0.58390731   -6.6882059    1123.1779  0.021945641  0.020853816          608 
 4266000   0.57110915   -6.6887662    1124.1056  0.021958619  0.020847408          659 
 4267000   0.57359894   -6.6999522    1125.6595  0.021983821  0.020840999          613 
 4268000   0.57980375   -6.6835133    1125.3808  0.021973227  0.020834603          695 
 4269000    0.5689359   -6.6831217    1123.4593  0.021930571  0.020828201          621 
 4270000   0.56709236   -6.7065343     1121.171  0.021880777  0.020821799          653 
 4271000   0.57112435   -6.7307064    1120.7782  0.021867989  0.020815397          600 
 4272000   0.55753863   -6.7294405    1121.2891  0.021872838  0.020809007          608 
 4273000   0.55892884   -6.6826479    1120.7256  0.021856728  0.020802624          581 
 4274000   0.56199811   -6.7056402     1122.705  0.021890208  0.020796242          597 
 4275000   0.56393096   -6.7119146    1123.1985  0.021894708  0.020789844          624 
 4276000   0.55557557   -6.7097996    1123.4298  0.021894096  0.020783468          670 
 4277000   0.55424259   -6.7002087    1124.3207  0.021906334   0.02077708          611 
 4278000   0.56843226   -6.6993453    1123.7646  0.021890382  0.020770702          630 
 4279000   0.55777815   -6.6845483    1123.8246  0.021886434  0.020764339          583 
 4280000   0.56224272   -6.7334067    1123.7779  0.021880411  0.020757967          578 
 4281000   0.56745552   -6.7119567    1122.6954  0.021854228  0.020751601          589 
 4282000   0.55627786   -6.6785529    1124.4115  0.021882521  0.020745239          543 
 4283000   0.56847749   -6.7205665    1121.0766  0.021812527  0.020738873          595 
 4284000   0.56673872   -6.7099986    1123.5092  0.021854755  0.020732499          623 
 4285000   0.56132412   -6.6987342      1122.26  0.021825359  0.020726136          663 
 4286000    0.5763443   -6.7027715    1123.3948  0.021842331  0.020719772          642 
 4287000   0.58109825   -6.7032366    1124.8253  0.021865043  0.020713401          620 
 4288000   0.56615877   -6.7153153    1121.6336  0.021797916  0.020707038          647 
 4289000   0.57469375   -6.7127908    1124.0208  0.021839216   0.02070066          645 
 4290000   0.56296022   -6.7183972    1122.3526  0.021801721  0.020694284          631 
 4291000   0.56138245   -6.7205472     1120.921  0.021768838  0.020687915          640 
 4292000   0.57932745   -6.7195864    1120.4083   0.02175381  0.020681548          655 
 4293000   0.56872888   -6.7231399    1121.7417  0.021774627  0.020675172          649 
 4294000   0.56516218   -6.7130229    1123.3583  0.021800929  0.020668811          589 
 4295000   0.56471571    -6.709487    1123.6161  0.021800856  0.020662445          580 
 4296000   0.56238762   -6.7360124    1120.3875  0.021733153  0.020656079          636 
 4297000   0.56087467   -6.7303953    1120.8352  0.021736777  0.020649724          688 
 4298000   0.56477052   -6.7249067    1121.7437  0.021749335  0.020643374          653 
 4299000   0.55891895   -6.7061688     1122.617  0.021761203   0.02063701          708 
 4300000   0.55061124   -6.7182415    1122.9695  0.021762974  0.020630656          653 
 4301000   0.57421342    -6.697131    1122.2622  0.021744211  0.020624312          646 
 4302000   0.55842976   -6.6996896    1121.4156  0.021722758  0.020617965          627 
 4303000   0.56146073   -6.6960059    1122.4906  0.021738528  0.020611613          629 
 4304000   0.55479209   -6.7274446    1123.7821  0.021758483  0.020605272          752 
 4305000   0.56070381   -6.7220989    1121.4419  0.021708128  0.020598922          681 
 4306000   0.56016027   -6.7187089     1122.127  0.021716345  0.020592573          602 
 4307000   0.56302296   -6.7092592    1124.8558  0.021764101   0.02058623          677 
 4308000   0.56796063   -6.6878011    1124.1871  0.021746113  0.020579918          665 
 4309000   0.55593092   -6.7283261     1123.945  0.021736386  0.020573604          739 
 4310000   0.55206368   -6.7096036    1124.0102  0.021732603  0.020567271          758 
 4311000   0.55859753   -6.7213964    1122.6453  0.021701176  0.020560942          690 
 4312000   0.56360655   -6.7285192    1120.5134  0.021654944  0.020554621          770 
 4313000   0.56402115    -6.711625    1120.3811  0.021647367  0.020548295          752 
 4314000   0.56368343   -6.7249968    1124.2908  0.021717872  0.020541969          704 
 4315000   0.56015748   -6.7226315    1122.2189  0.021672825  0.020535645          804 
 4316000   0.56985132   -6.7219094    1122.8581  0.021680146  0.020529318          706 
 4317000   0.56260095   -6.7268258    1119.9894  0.021619747  0.020522985          681 
 4318000    0.5595554   -6.7148925    1121.7717  0.021649137  0.020516644          890 
 4319000   0.55907127   -6.7148681    1119.7171  0.021604481  0.020510298          835 
 4320000   0.56340602   -6.7467843    1121.5354  0.021634555  0.020503956          903 
 4321000   0.55502238   -6.7273436    1119.1952  0.021584416  0.020497638          796 
 4322000   0.56225457   -6.7433535    1119.4581  0.021584492  0.020491306          732 
 4323000    0.5517017   -6.7119753    1121.2758  0.021614538   0.02048496          898 
 4324000   0.56327583    -6.738869    1120.8581   0.02160149  0.020478618          828 
 4325000   0.55710625   -6.7196795    1122.4609  0.021627378  0.020472268          831 
 4326000   0.56802886   -6.7389844    1117.8486   0.02153353   0.02046593          840 
 4327000   0.54670853   -6.7494767    1121.3019  0.021595059    0.0204596          812 
 4328000   0.56168297   -6.7445202    1122.7246  0.021617463  0.020453263          881 
 4329000   0.56033986   -6.7279739    1121.6303  0.021591404  0.020446941          866 
 4330000   0.55731674    -6.732803    1121.1516  0.021577205  0.020440616          849 
 4331000   0.55772112   -6.7403061    1121.2832  0.021574756  0.020434286          859 
 4332000   0.56824732   -6.7258991    1119.8666  0.021542525   0.02042796          846 
 4333000   0.55345325   -6.7279981    1119.4059  0.021528693   0.02042164          808 
 4334000   0.56547926   -6.7491402    1120.4118  0.021543066  0.020415316          874 
 4335000   0.55862924     -6.72912    1118.8519  0.021508109  0.020408985          829 
 4336000   0.55258478   -6.7358276    1118.4456  0.021495341  0.020402653          895 
 4337000   0.56747513   -6.7373363     1120.248  0.021525017  0.020396328          857 
 4338000   0.55913615   -6.7503627    1117.4364  0.021466044  0.020389991          948 
 4339000   0.55623464    -6.716608    1122.0035  0.021548811  0.020383675          881 
 4340000   0.55235664    -6.718972    1122.3048  0.021549632  0.020377385          951 
 4341000   0.55571761   -6.7385468    1120.0278  0.021500956  0.020371083          848 
 4342000   0.56033737   -6.7543186    1122.7325  0.021547915  0.020364789          894 
 4343000   0.55045335   -6.7409337    1119.8089  0.021486855  0.020358494          849 
 4344000   0.55835642   -6.7443013    1119.7511  0.021480799  0.020352191          919 
 4345000   0.57162217   -6.7392439    1122.1118  0.021521132  0.020345889          905 
 4346000   0.54498537   -6.7465416    1121.5928  0.021506227  0.020339588          988 
 4347000   0.54506782   -6.7557089    1120.1157  0.021472964  0.020333278          946 
 4348000   0.55285281   -6.7526594    1119.5422  0.021457035  0.020326972          893 
 4349000   0.55102563   -6.7643537    1119.0422  0.021442519   0.02032067          947 
 4350000   0.57273601   -6.7731689    1117.5556  0.021409112  0.020314363          926 
 4351000   0.56617867   -6.7636846    1122.0256  0.021489802  0.020308071          883 
 4352000   0.56404783   -6.7546721    1118.5606  0.021418516  0.020301771          903 
 4353000   0.54868993   -6.7574387    1120.5794  0.021452244  0.020295458          943 
 4354000   0.55333502   -6.7491854     1120.849  0.021452477  0.020289154          999 
 4355000   0.56332292   -6.7424846    1120.5514  0.021441855  0.020282868          957 
 4356000   0.54600014   -6.7419433    1120.8513  0.021442672  0.020276582          991 
 4357000    0.5547523   -6.7645189    1120.2066   0.02142542  0.020270282          999 
 4358000   0.55541979    -6.760766    1119.6856   0.02141054  0.020263969         1082 
 4359000    0.5633101   -6.7631627    1122.4514  0.021458504  0.020257663          999 
 4360000   0.55130111   -6.7629054    1119.9186  0.021405172   0.02025137          984 
 4361000   0.55448445   -6.7731789    1119.8863  0.021399646  0.020245063         1034 
 4362000   0.55428116   -6.7580571    1119.4869  0.021387111  0.020238777          882 
 4363000   0.55415684   -6.7590789    1118.2456  0.021358499  0.020232508          841 
 4364000   0.55372589   -6.7795395    1119.4272  0.021376168  0.020226224          999 
 4365000   0.55589321   -6.7437508     1122.767  0.021435032  0.020219944          911 
 4366000   0.57052443   -6.7616105    1121.1435  0.021399135   0.02021367          877 
 4367000   0.55001347    -6.752795    1119.9543  0.021371541  0.020207391          871 
 4368000   0.54651537   -6.7641274    1120.2979  0.021373205  0.020201108          931 
 4369000   0.56065273   -6.7671184    1119.9129   0.02136097  0.020194827          959 
 4370000   0.54961738   -6.7772382    1117.1074  0.021302582   0.02018855          917 
 4371000   0.53875187   -6.7585955     1119.227  0.021338118   0.02018227          969 
 4372000   0.54567327   -6.7598604    1118.5941  0.021321174  0.020175987         1030 
 4373000   0.55746208   -6.7680059    1118.4464  0.021313485   0.02016971          964 
 4374000   0.56377291    -6.776379    1119.7911  0.021334231  0.020163438          906 
 4375000   0.54244281   -6.7650162    1118.6816   0.02130822  0.020157167          805 
 4376000   0.54658741   -6.7950041    1117.6979  0.021284618  0.020150893          836 
 4377000   0.55548538   -6.7561131    1118.5621  0.021296209  0.020144628          871 
 4378000   0.54846111   -6.7709204    1117.3599  0.021268461  0.020138365          885 
 4379000   0.53648624   -6.7536066    1119.9509  0.021312911  0.020132104          958 
 4380000    0.5583638   -6.7662331    1120.6703  0.021321734  0.020125842          889 
 4381000   0.54293424   -6.7738319    1119.2017  0.021288932  0.020119578          908 
 4382000   0.55129327   -6.7849221    1118.3822  0.021268489  0.020113317          897 
 4383000   0.55579146    -6.772119    1119.4073  0.021283125  0.020107056          907 
 4384000   0.55551748   -6.7793907    1119.2505   0.02127529  0.020100805          959 
 4385000   0.56836781   -6.7576184    1117.7513  0.021241949  0.020094542         1066 
 4386000   0.55478581   -6.7720117    1119.3212  0.021266932   0.02008829         1113 
 4387000   0.54881477   -6.7682725    1120.7885  0.021289957  0.020082029         1103 
 4388000   0.54861092    -6.785858    1118.4253  0.021240225  0.020075759         1087 
 4389000   0.55540773   -6.7812468    1118.6282  0.021239238  0.020069502         1104 
 4390000   0.54886575   -6.7587279    1118.8245  0.021238126  0.020063244         1045 
 4391000   0.53942176   -6.7697831      1116.49  0.021188986  0.020056984         1061 
 4392000    0.5453661   -6.7942496     1117.236  0.021198314  0.020050711         1024 
 4393000   0.54722048    -6.788101    1118.6967  0.021221198  0.020044457         1057 
 4394000   0.55523679   -6.8017728    1118.0476  0.021204059   0.02003821         1161 
 4395000   0.54130626   -6.7837215    1118.5169  0.021208132  0.020031949         1049 
 4396000   0.55044925   -6.8059627    1118.9864  0.021212209  0.020025673         1022 
 4397000   0.54061528   -6.7992053    1118.2719  0.021193842  0.020019395         1110 
 4398000   0.55619655   -6.7932532    1117.5374  0.021175107  0.020013138         1071 
 4399000   0.53995269   -6.7938532    1117.2647  0.021165127  0.020006872         1128 
 4400000   0.54430616   -6.7824062      1118.85  0.021190342  0.020000628         1157 
 4401000   0.54679145     -6.80161    1118.6758  0.021182228  0.019994376         1149 
 4402000   0.54762286     -6.77381    1118.0455  0.021165483  0.019988131         1161 
 4403000   0.56112974    -6.779918    1117.3115  0.021146785  0.019981891         1217 
 4404000   0.54593212   -6.7880684    1118.5882   0.02116614   0.01997565         1183 
 4405000   0.54654313   -6.7921911    1117.2137  0.021135333  0.019969401         1249 
 4406000   0.54198026   -6.7838795    1121.2683  0.021207223  0.019963156         1173 
 4407000   0.55112326    -6.814116      1116.52  0.021112625  0.019956912         1292 
 4408000   0.54401422   -6.7988224    1116.7625  0.021112419  0.019950678         1201 
 4409000   0.53480815   -6.7833792    1119.0916  0.021151653  0.019944441         1265 
 4410000   0.56185084   -6.8082286     1120.717  0.021177569  0.019938202         1270 
 4411000   0.53616904   -6.7846032    1117.6926  0.021115631  0.019931962         1252 
 4412000   0.54737828   -6.7730968    1117.4367  0.021106012  0.019925715         1232 
 4413000   0.54978213   -6.7844881    1118.0952  0.021113664  0.019919481         1221 
 4414000   0.54272297   -6.7952852    1115.6367  0.021062467  0.019913244         1215 
 4415000   0.54490299   -6.8070912    1115.7983  0.021060746  0.019907008         1196 
 4416000    0.5455102   -6.7894467    1115.0824  0.021042466  0.019900769         1252 
 4417000   0.54858523   -6.7783226    1118.1229  0.021095067  0.019894541         1159 
 4418000   0.55404571   -6.8025373    1115.5693  0.021042125  0.019888308         1191 
 4419000    0.5484375    -6.797859    1116.3569  0.021052216  0.019882091         1254 
 4420000   0.53129393   -6.7760398    1117.5675  0.021070277  0.019875872         1139 
 4421000   0.55334074   -6.7867896    1117.9262  0.021072273   0.01986966         1286 
 4422000   0.54109862   -6.7996132     1117.369  0.021057006  0.019863448         1164 
 4423000   0.54070441   -6.7854441    1117.8646  0.021061584  0.019857234         1196 
 4424000    0.5373748   -6.7955768     1115.239  0.021007364  0.019851023         1183 
 4425000   0.54356469    -6.788136    1117.8653  0.021052077  0.019844818         1155 
 4426000   0.56020276   -6.7804811    1117.1111   0.02103312   0.01983862         1305 
 4427000   0.55609539   -6.8043639      1115.63   0.02100049  0.019832419         1344 
 4428000   0.53666532   -6.7995737    1114.8862  0.020981748  0.019826207         1401 
 4429000   0.54431398   -6.8140153    1116.9213  0.021015303  0.019819992         1415 
 4430000   0.54421015   -6.8109692    1115.1217  0.020976706  0.019813784         1344 
 4431000   0.53294264   -6.8257923    1117.1527   0.02101017  0.019807576         1300 
 4432000   0.54213207   -6.8163147    1115.4822  0.020974019  0.019801369         1380 
 4433000   0.55254709   -6.8107949    1117.3679  0.021004735  0.019795159         1334 
 4434000   0.52740265   -6.8048443    1115.1528  0.020958367  0.019788952         1421 
 4435000   0.53816191   -6.8094927    1117.5943  0.020999517  0.019782743         1258 
 4436000   0.54267545   -6.8239884    1116.3235  0.020970911  0.019776536         1320 
 4437000   0.54454266    -6.831224    1114.3753  0.020929594  0.019770328         1334 
 4438000   0.54945886   -6.8322632    1116.5843  0.020966356  0.019764129         1352 
 4439000    0.5408355   -6.8072828    1115.5767  0.020942718  0.019757922         1278 
 4440000   0.54603566   -6.8046717     1113.596  0.020900826  0.019751715         1354 
 4441000    0.5386466   -6.8226103    1112.6434  0.020878244  0.019745513         1359 
 4442000   0.54356793   -6.8258266    1117.5273  0.020965168  0.019739314         1335 
 4443000   0.54496742   -6.8287933     1116.113  0.020933922  0.019733115         1340 
 4444000   0.52890209   -6.8159265     1116.861  0.020943238  0.019726925         1293 
 4445000   0.53672074   -6.7972866    1115.9872  0.020922146  0.019720727         1243 
 4446000   0.53285161   -6.8143464    1117.0524  0.020937404  0.019714547         1262 
 4447000   0.54370438   -6.8259116    1116.8353  0.020928627  0.019708352         1295 
 4448000   0.54318941   -6.8089284    1115.7678  0.020903924  0.019702167         1164 
 4449000   0.53238052   -6.8197799    1116.3515  0.020910157  0.019695981         1330 
 4450000   0.53721308   -6.8233957    1118.5203  0.020946072  0.019689805         1230 
 4451000   0.54128779    -6.830666    1117.0343  0.020913546  0.019683621         1226 
 4452000   0.53149453    -6.820633    1115.8814  0.020887268  0.019677433         1339 
 4453000    0.5317928    -6.807591    1115.0989  0.020867934  0.019671251         1273 
 4454000   0.53511381   -6.8270063    1114.3372  0.020848997  0.019665071         1313 
 4455000   0.53814678    -6.817823    1115.4173   0.02086452  0.019658889         1327 
 4456000   0.54311061   -6.8078437    1113.4781  0.020823573  0.019652717         1331 
 4457000   0.52996791   -6.8174204    1114.5031  0.020838066  0.019646545         1310 
 4458000   0.55139484   -6.8097536    1115.8229  0.020858062   0.01964038         1306 
 4459000   0.54353935   -6.8252804    1113.8001  0.020815581  0.019634218         1168 
 4460000   0.53362656   -6.8237227    1116.4551  0.020860521   0.01962805         1328 
 4461000     0.538694   -6.8321926    1115.2072  0.020832534  0.019621893         1223 
 4462000   0.54813662   -6.8208494    1116.4038  0.020850213  0.019615731         1302 
 4463000   0.53422368   -6.8041032    1116.8229  0.020853367  0.019609582         1276 
 4464000   0.54181917   -6.8126596    1117.3885  0.020859254  0.019603438         1320 
 4465000    0.5299565   -6.8074208    1115.9785  0.020828267   0.01959729         1309 
 4466000   0.52571667   -6.8170976    1116.3196  0.020829967  0.019591155         1320 
 4467000    0.5427422   -6.8282739    1117.2902   0.02084341  0.019585017         1161 
 4468000   0.54762011    -6.811429    1115.9809  0.020814326  0.019578884         1314 
 4469000   0.54144138   -6.8095549    1116.8055  0.020825045  0.019572753         1301 
 4470000   0.53967571   -6.7976435    1115.8004  0.020801648  0.019566634         1220 
 4471000   0.53391249   -6.8149638     1117.381  0.020826455  0.019560519         1379 
 4472000   0.53245799   -6.8067107    1116.1862  0.020799534  0.019554402         1297 
 4473000   0.54105549   -6.8138191    1116.8461  0.020807178   0.01954828         1344 
 4474000   0.54206746   -6.8050644    1115.8274  0.020783552  0.019542169         1251 
 4475000   0.55303109   -6.8224696    1118.0228  0.020819792  0.019536049         1320 
 4476000   0.52934382   -6.8123905     1114.757  0.020754338  0.019529926         1262 
 4477000   0.53143942   -6.7925052    1116.7569  0.020786927  0.019523813         1273 
 4478000   0.53772295   -6.8269014    1117.2743  0.020791914  0.019517708         1300 
 4479000   0.53623485   -6.7979642    1117.8131  0.020797297  0.019511594         1233 
 4480000   0.53393803   -6.8281347    1117.0144  0.020777798  0.019505495         1264 
 4481000   0.53728542   -6.8182612    1114.6214  0.020728658  0.019499382         1270 
 4482000   0.53699191   -6.8197235    1116.2277  0.020753898  0.019493269         1299 
 4483000   0.53148188   -6.8081373    1117.4298  0.020771615  0.019487164         1210 
 4484000   0.53029933   -6.8138726    1116.3251  0.020746453  0.019481064         1313 
 4485000   0.52991007   -6.8315236    1116.6375  0.020747631  0.019474962         1311 
 4486000   0.53144837   -6.8293516    1116.2654  0.020736094  0.019468877         1228 
 4487000   0.54502187   -6.8237714    1115.5077  0.020717401  0.019462786         1249 
 4488000   0.54004704   -6.8241484    1116.2713  0.020726964    0.0194567         1292 
 4489000   0.53630193   -6.8179115     1116.676  0.020729859  0.019450628         1384 
 4490000   0.52727934   -6.8040749    1116.4062  0.020720233  0.019444545         1350 
 4491000   0.54530136   -6.8239195    1115.5308  0.020699376  0.019438467         1297 
 4492000   0.53880845   -6.8175254    1116.5513    0.0207137  0.019432394         1352 
 4493000   0.53755675   -6.8278703    1116.8059  0.020713813  0.019426317         1399 
 4494000   0.54884038   -6.8035883    1116.8329  0.020709704  0.019420238         1389 
 4495000   0.54201848   -6.8325979    1116.6865  0.020702382  0.019414175         1415 
 4496000   0.52848349   -6.8234232    1117.3033  0.020709211  0.019408104         1385 
 4497000   0.53091707   -6.8199021    1115.4694  0.020670622  0.019402038         1416 
 4498000   0.52815498   -6.8271454    1114.5391   0.02064879  0.019395971         1428 
 4499000   0.52485891   -6.8305117    1116.4272  0.020679173  0.019389902         1494 
 4500000   0.52650168   -6.8216579     1114.452     0.020638  0.019383833         1497 
 4501000   0.52598832   -6.8279284    1114.3754  0.020631997  0.019377769         1517 
 4502000   0.54666287    -6.822891    1115.9085  0.020655793  0.019371706         1438 
 4503000   0.52165106    -6.817852    1114.1595  0.020618838  0.019365647         1487 
 4504000   0.53911881   -6.8114884    1115.6708  0.020642222  0.019359578         1441 
 4505000   0.53513169   -6.8282359    1116.9265  0.020660867  0.019353515         1494 
 4506000   0.53308195   -6.8275464     1118.164  0.020679169  0.019347456         1444 
 4507000   0.52333911   -6.8254904    1115.4074  0.020623612  0.019341405         1445 
 4508000   0.51694272   -6.8162709    1114.1702  0.020596166  0.019335359         1423 
 4509000   0.52542664   -6.8062656    1117.4445  0.020652113  0.019329315         1458 
 4510000   0.52724949   -6.8314606    1116.3964  0.020628167   0.01932328         1431 
 4511000     0.539391   -6.8429073     1113.961  0.020578604  0.019317239         1491 
 4512000   0.54529875    -6.823641    1116.1509   0.02061449  0.019311196         1509 
 4513000   0.53623319   -6.8193883    1116.6397  0.020618948  0.019305144         1481 
 4514000   0.53658343   -6.8304955    1112.5124  0.020538185  0.019299097         1468 
 4515000   0.51758801   -6.8508023    1113.9261  0.020559729  0.019293054         1539 
 4516000    0.5190693   -6.8003032    1116.1637  0.020596467  0.019287006         1446 
 4517000   0.53397734   -6.8511552    1114.7664  0.020566128  0.019280969         1559 
 4518000   0.53009878   -6.8359449     1115.048   0.02056677  0.019274934         1521 
 4519000    0.5251594   -6.8321351    1116.4722  0.020588482  0.019268896         1506 
 4520000   0.52147832   -6.8327461    1116.0262  0.020575704   0.01926285         1442 
 4521000   0.53783267   -6.8723496    1113.9823  0.020533479  0.019256809         1597 
 4522000   0.53106216   -6.8353189    1115.7777  0.020562024  0.019250778         1432 
 4523000   0.52019183   -6.8281263    1114.9727  0.020542646  0.019244751         1549 
 4524000   0.52408195   -6.8379682    1116.2527  0.020561684  0.019238728         1441 
 4525000   0.52604526   -6.8268875    1115.4487  0.020542334  0.019232706         1453 
 4526000   0.52068157   -6.8418166    1115.0858  0.020531113  0.019226692         1418 
 4527000   0.52581516   -6.8401317    1116.4639  0.020551945  0.019220683         1425 
 4528000   0.51854019   -6.8326988    1116.8287  0.020554121  0.019214685         1427 
 4529000   0.52732072   -6.8295802    1117.7968  0.020567396  0.019208686         1519 
 4530000   0.53367527   -6.8203845     1116.262   0.02053462  0.019202679         1405 
 4531000   0.52838665   -6.8122454    1111.9662  0.020451082  0.019196676         1500 
 4532000   0.53204278   -6.8486962    1117.2913  0.020544485  0.019190675         1460 
 4533000   0.52739258   -6.8432441     1114.926  0.020496471  0.019184677         1397 
 4534000   0.53514233   -6.8397705    1115.8481  0.020508897  0.019178676         1411 
 4535000   0.51767041   -6.8391735     1115.575  0.020499357  0.019172675         1455 
 4536000   0.52644423   -6.8435464    1115.4691  0.020492893  0.019166677         1450 
 4537000   0.52000347   -6.8161427    1115.7297  0.020493162  0.019160679         1379 
 4538000   0.52009354   -6.8354271    1114.6432  0.020468694  0.019154686         1400 
 4539000   0.53565605   -6.8371088    1114.5203  0.020461929  0.019148694         1463 
 4540000   0.52323726   -6.8321693    1116.1235  0.020486848  0.019142695         1417 
 4541000   0.52282608   -6.8495784    1115.9536  0.020479218  0.019136703         1535 
 4542000   0.52887296   -6.8286621    1113.2067  0.020424312  0.019130703         1463 
 4543000   0.51793377   -6.8308192     1113.687  0.020428627  0.019124714         1606 
 4544000   0.51996014   -6.8482529    1116.5055   0.02047582  0.019118719         1539 
 4545000   0.52493945   -6.8493412    1115.2805  0.020448855  0.019112732         1467 
 4546000   0.52804535   -6.8468785    1113.9202  0.020419419  0.019106737         1482 
 4547000   0.51593777   -6.8560873    1114.8919  0.020432738  0.019100755         1520 
 4548000   0.51186801    -6.844165    1116.5008  0.020457725  0.019094768         1655 
 4549000   0.53178285   -6.8431588    1116.7778  0.020458302  0.019088789         1521 
 4550000   0.51791195   -6.8624046    1112.6244  0.020377736   0.01908281         1526 
 4551000   0.51375787   -6.8486163    1114.3102  0.020404127  0.019076836         1561 
 4552000   0.52892991   -6.8490462    1115.0567  0.020413311  0.019070866         1501 
 4553000   0.52804336   -6.8513635    1114.3188  0.020395322  0.019064897         1637 
 4554000   0.51795695    -6.850019    1114.7589  0.020398897  0.019058919         1603 
 4555000   0.51102472   -6.8537689    1114.5101  0.020389866  0.019052949         1539 
 4556000   0.52971657    -6.829491     1117.522  0.020440482  0.019046992         1612 
 4557000   0.52718507   -6.8511091     1116.307  0.020413777  0.019041031         1598 
 4558000   0.52928631   -6.8441372    1115.7712  0.020399502  0.019035077         1651 
 4559000    0.5235838   -6.8432678    1113.5392   0.02035423   0.01902912         1586 
 4560000   0.52579397   -6.8381471    1115.0089  0.020376625  0.019023165         1602 
 4561000   0.51492111   -6.8489109    1116.2204  0.020394292  0.019017213         1552 
 4562000   0.53033842   -6.8399732    1115.4846   0.02037638  0.019011274         1595 
 4563000   0.52533893   -6.8581489    1114.5249  0.020354388  0.019005332         1675 
 4564000   0.52794981     -6.83631    1117.5191    0.0204046  0.018999395         1635 
 4565000   0.51693783   -6.8486105    1115.5604  0.020364373  0.018993447         1783 
 4566000   0.52425203    -6.848001    1115.7245  0.020362908  0.018987496         1730 
 4567000   0.51556273   -6.8504491    1114.3011  0.020332477  0.018981559         1785 
 4568000   0.51693646   -6.8555934    1114.1042  0.020324435  0.018975614         1771 
 4569000   0.51498492   -6.8471691    1115.9732  0.020354075   0.01896967         1679 
 4570000   0.52428388   -6.8653168    1113.6872  0.020307937  0.018963726         1699 
 4571000   0.52375646   -6.8504315    1113.3433  0.020297224  0.018957794         1658 
 4572000   0.52770078   -6.8417464    1113.2851  0.020291723  0.018951852         1773 
 4573000   0.51699444   -6.8400952     1113.323  0.020287977  0.018945917         1769 
 4574000    0.5198979   -6.8359565    1115.4268   0.02032187  0.018939985         1752 
 4575000   0.53665606   -6.8455145    1115.3742  0.020316469  0.018934056         1697 
 4576000    0.5346334   -6.8547755    1114.5788  0.020297546  0.018928139         1718 
 4577000   0.52838832   -6.8458504    1111.2102  0.020231779  0.018922213         1600 
 4578000   0.52421577   -6.8464592     1112.906  0.020258227  0.018916295         1790 
 4579000    0.5196821   -6.8506238    1115.5034  0.020301073  0.018910366         1724 
 4580000   0.51353082   -6.8550345    1112.4424  0.020240947  0.018904447         1750 
 4581000   0.51680253   -6.8605821    1112.4558  0.020236771  0.018898518         1808 
 4582000   0.51259804   -6.8394375    1115.6378  0.020290225  0.018892585         1739 
 4583000   0.52501516    -6.856511    1115.5249  0.020283745  0.018886656         1834 
 4584000   0.51090097   -6.8860087    1114.7493  0.020265222  0.018880718         1912 
 4585000   0.51893961   -6.8666944    1112.6217  0.020222132  0.018874784         1771 
 4586000   0.51528618   -6.8590936    1111.9764  0.020205997  0.018868856         1817 
 4587000   0.52492134   -6.8558988    1114.0558  0.020239369  0.018862922         1767 
 4588000   0.52511843   -6.8466785    1113.8076   0.02023045  0.018857002         1901 
 4589000   0.52770817   -6.8682277    1113.0757  0.020212749  0.018851089         1854 
 4590000   0.51419267   -6.8702259    1114.4077  0.020232529  0.018845179         1911 
 4591000   0.51797493   -6.8668126    1113.6527  0.020214418   0.01883926         1890 
 4592000   0.52757597   -6.8639681    1114.3763  0.020223148  0.018833342         1816 
 4593000    0.5088084   -6.8677419    1112.2655  0.020180447  0.018827425         1918 
 4594000   0.51216438   -6.8674839     1114.094  0.020209222  0.018821508         1911 
 4595000   0.51433312   -6.8734143    1113.5438  0.020194845  0.018815597         1956 
 4596000   0.51359576   -6.8706148    1113.5122  0.020189878  0.018809693         1944 
 4597000   0.50671931   -6.8709991    1112.7172  0.020171076  0.018803781         2000 
 4598000    0.5148149   -6.8839822    1112.5547  0.020163744  0.018797873         1898 
 4599000   0.51978416   -6.8595685    1112.4758  0.020157929  0.018791966         1889 
 4600000   0.52427853   -6.8801111    1112.4922  0.020153845  0.018786054         1879 
 4601000   0.51481528   -6.8578042    1114.9324  0.020193661  0.018780152         1824 
 4602000    0.5055903    -6.878884    1113.2246  0.020158349  0.018774248         1857 
 4603000   0.51103795   -6.8520716     1113.989  0.020167807  0.018768351         1846 
 4604000    0.5169474   -6.8613321    1112.7115  0.020140303  0.018762456         1888 
 4605000   0.52049824   -6.8688091    1113.3755  0.020147946   0.01875657         1930 
 4606000   0.50808684   -6.8727133    1112.7813  0.020132821  0.018750679         1874 
 4607000   0.51987601   -6.8820965    1112.6622  0.020126297  0.018744781         1955 
 4608000   0.52854455     -6.87248    1113.7536  0.020141667  0.018738888         1950 
 4609000   0.52167026   -6.8826159    1112.2455  0.020110029  0.018732993         1936 
 4610000   0.51466876    -6.879008    1108.6825  0.020041259  0.018727099         2094 
 4611000   0.51603602   -6.8726147    1112.7359  0.020110169  0.018721205         1956 
 4612000   0.52224243   -6.8669162    1112.9798  0.020110215  0.018715313         2018 
 4613000   0.50212591   -6.8834436    1113.2088  0.020109993   0.01870942         2004 
 4614000   0.51970358   -6.8825984    1112.5591  0.020093901  0.018703528         1992 
 4615000   0.51174053   -6.8609715    1114.2451  0.020119992  0.018697645         1971 
 4616000   0.50606004   -6.8779672    1112.7085  0.020087892  0.018691769         2148 
 4617000   0.51386397   -6.8828955    1113.0488  0.020089684  0.018685884         2095 
 4618000   0.51131062   -6.8836553    1112.0054  0.020066504  0.018679997         1977 
 4619000   0.52222999    -6.874397    1111.4833   0.02005274  0.018674122         2086 
 4620000   0.51716632   -6.8776894    1111.1241  0.020041921  0.018668241         2095 
 4621000   0.51372549   -6.8716644    1114.1779  0.020092654  0.018662359         2136 
 4622000   0.52007789   -6.8886063    1111.9982  0.020049009  0.018656481         2135 
 4623000   0.51764102   -6.8642115    1115.2224  0.020102791  0.018650607         2018 
 4624000   0.51390517   -6.8690229    1112.6927  0.020052852  0.018644739         2063 
 4625000   0.51473795   -6.8730571    1111.5082  0.020027174  0.018638875         2164 
 4626000   0.52055128   -6.8827063     1111.212  0.020017509   0.01863301         2063 
 4627000   0.49999786   -6.8949793    1112.0405  0.020028105  0.018627139         2064 
 4628000   0.51006372   -6.8828894    1111.4809  0.020013701  0.018621272         2121 
 4629000   0.51284343   -6.8788881    1111.2484  0.020005192  0.018615401         2064 
 4630000   0.50334113   -6.8806366     1112.124   0.02001663  0.018609534         2148 
 4631000   0.50641547   -6.8861359    1109.7257  0.019969152   0.01860367         2152 
 4632000   0.50063032   -6.8742274    1112.0553  0.020006751  0.018597802         2146 
 4633000    0.5109553   -6.8766363    1111.6665  0.019995439  0.018591942         2071 
 4634000   0.50167523   -6.8751164    1111.2466  0.019983574  0.018586078         2112 
 4635000   0.51808716   -6.8848198    1111.6979  0.019987377  0.018580211         2184 
 4636000    0.5022812   -6.8930532     1111.167  0.019973522   0.01857435         2156 
 4637000   0.50951048   -6.9001506    1111.1884    0.0199696   0.01856849         2163 
 4638000   0.50365193   -6.9177642    1109.1493  0.019928656  0.018562638         2259 
 4639000   0.50284334   -6.8962681    1111.5589  0.019967646  0.018556782         2239 
 4640000   0.50933847   -6.8903605    1109.3655  0.019923949  0.018550925         2172 
 4641000   0.51233154   -6.8874031    1111.2071  0.019952724  0.018545077         2241 
 4642000   0.51358847   -6.8855208    1109.0845   0.01991032  0.018539229         2275 
 4643000   0.51529412   -6.8877552     1111.686  0.019952725  0.018533387         2252 
 4644000   0.50617221   -6.8924493    1111.8128  0.019950704  0.018527547         2292 
 4645000   0.50633445   -6.8927006    1111.1617  0.019934728  0.018521698         2305 
 4646000   0.50805297   -6.8883965    1109.4361  0.019899484  0.018515855         2244 
 4647000   0.51934681   -6.8924731    1111.5377   0.01993289  0.018510017         2256 
 4648000   0.50811828   -6.8894158    1109.5823  0.019893544  0.018504174         2263 
 4649000   0.50630224   -6.8947901    1109.0014  0.019878852   0.01849834         2448 
 4650000   0.51037569   -6.9070028      1111.92  0.019926882  0.018492494         2352 
 4651000   0.50969355   -6.8999773     1111.343  0.019912258  0.018486666         2326 
 4652000   0.52254195   -6.9013891    1110.5216  0.019893265  0.018480826         2310 
 4653000   0.51519272   -6.8800369    1111.0456  0.019898374  0.018474989         2329 
 4654000   0.49747409   -6.9029735    1111.4748  0.019901783  0.018469153         2328 
 4655000   0.49834469   -6.8922273    1110.7074   0.01988377  0.018463314         2343 
 4656000   0.50560558   -6.9023821    1109.7319   0.01986204   0.01845748         2301 
 4657000   0.51233398   -6.9039073    1110.1452  0.019865171  0.018451651         2336 
 4658000   0.50485368   -6.8877258      1111.41  0.019883533  0.018445822         2370 
 4659000   0.49884098     -6.89051    1109.5774  0.019846487  0.018439991         2303 
 4660000   0.49922883   -6.8983934    1109.8408  0.019846938  0.018434163         2338 
 4661000   0.50837651   -6.8915425    1108.7516  0.019823207  0.018428335         2380 
 4662000   0.50696229   -6.8948457    1111.4504  0.019867196  0.018422512         2336 
 4663000    0.4945641   -6.9004436     1110.957  0.019854117  0.018416697         2358 
 4664000   0.49553406    -6.888979    1108.2873  0.019802161  0.018410876         2421 
 4665000   0.51555916   -6.8965573    1111.0036  0.019846438  0.018405052         2244 
 4666000   0.50963929   -6.9055966    1109.6156  0.019817395  0.018399235         2355 
 4667000   0.51194673   -6.8856916    1110.1851  0.019823317  0.018393423         2307 
 4668000   0.51321958   -6.9028594    1109.0442  0.019798704  0.018387614         2377 
 4669000    0.4990504   -6.8940345    1109.3921  0.019800673  0.018381804         2413 
 4670000   0.50883817   -6.9008658    1109.7931  0.019803589  0.018375997         2443 
 4671000   0.50009502   -6.9129343    1110.8063  0.019817425  0.018370186         2538 
 4672000   0.49540074   -6.8907653    1111.8693  0.019832144  0.018364377         2441 
 4673000     0.508319   -6.9143832    1111.0723  0.019813687  0.018358567         2464 
 4674000   0.49781059   -6.9131146    1109.2765  0.019777431  0.018352756         2454 
 4675000   0.50089177    -6.923652    1110.4743  0.019794551  0.018346957         2489 
 4676000   0.49915736   -6.9207154    1108.2258  0.019750247  0.018341155         2520 
 4677000   0.49104873   -6.9010332    1109.8499   0.01977496  0.018335354         2477 
 4678000   0.50089844    -6.893831    1109.3154  0.019761211  0.018329567         2468 
 4679000   0.49687934   -6.8987102    1112.2191  0.019808703  0.018323776         2460 
 4680000    0.5061405   -6.8967373    1109.3058  0.019752596  0.018317985         2532 
 4681000    0.4979575   -6.8980834    1111.6783  0.019790613  0.018312199         2519 
 4682000   0.50140768   -6.9050618    1108.8337  0.019735755   0.01830641         2510 
 4683000   0.49902374   -6.9042082    1111.8434  0.019785099  0.018300629         2402 
 4684000   0.50058737   -6.9038408     1107.096  0.019696413  0.018294846         2419 
 4685000   0.49576469   -6.9115199    1110.0565  0.019744869   0.01828906         2505 
 4686000   0.50083319   -6.8983609    1110.6174   0.01975063  0.018283275         2623 
 4687000   0.48639227   -6.9188522    1109.2623  0.019722322  0.018277491         2505 
 4688000   0.49841265    -6.897869    1109.7977  0.019727633  0.018271709         2589 
 4689000   0.49871079   -6.9178707     1110.465  0.019735284  0.018265937         2586 
 4690000   0.49956996   -6.9400903    1108.4032  0.019694442  0.018260157         2667 
 4691000   0.51651534   -6.9223504    1107.0469  0.019666149  0.018254376         2648 
 4692000   0.49792271   -6.9219242    1107.8998  0.019677106  0.018248591         2538 
 4693000   0.50124921   -6.9196247    1107.8271  0.019671623  0.018242813         2609 
 4694000   0.50721119   -6.9150295    1108.5009  0.019679394  0.018237038         2630 
 4695000   0.49187185    -6.903143    1106.5519  0.019640609  0.018231265         2531 
 4696000   0.49904738   -6.9315892    1106.4057  0.019633833  0.018225493         2587 
 4697000   0.50313861   -6.9186176    1108.3542  0.019664222  0.018219719         2572 
 4698000   0.50481862   -6.9185859    1108.8591  0.019668992   0.01821395         2668 
 4699000    0.5089588   -6.9290501    1108.2766  0.019654476  0.018208178         2608 
 4700000   0.49809864   -6.9246637    1107.8589  0.019642888  0.018202406         2625 
 4701000   0.50804414   -6.9098687    1108.9678  0.019658367  0.018196634         2670 
 4702000   0.49201105    -6.924993    1108.3022  0.019642389  0.018190873         2740 
 4703000   0.49296556   -6.9170105    1108.7395  0.019645962  0.018185114         2651 
 4704000   0.50015872   -6.9090316    1108.4898  0.019637362  0.018179359         2608 
 4705000   0.49665497   -6.9167134    1108.6077  0.019635277  0.018173599         2612 
 4706000   0.49104974    -6.923942    1108.1418  0.019622853  0.018167835         2668 
 4707000   0.50528733   -6.9189643     1109.119  0.019635985  0.018162077         2759 
 4708000   0.49568646   -6.9347967    1109.7805  0.019643524  0.018156324         2686 
 4709000   0.48736961   -6.9397176    1107.9227  0.019606476  0.018150573         2604 
 4710000   0.49624404   -6.9306035    1108.0787  0.019605073  0.018144832         2624 
 4711000   0.49556916   -6.9157049    1107.1652  0.019584753  0.018139086         2649 
 4712000   0.50397236   -6.9301431    1107.8327  0.019592401  0.018133347         2655 
 4713000   0.50694553   -6.9333957    1106.4007  0.019562923    0.0181276         2689 
 4714000   0.49889742   -6.9354201    1105.8496  0.019549032  0.018121858         2658 
 4715000   0.49354354   -6.9290252    1106.9312  0.019564001  0.018116114         2637 
 4716000   0.48591611   -6.9371099    1109.3473  0.019602546  0.018110378         2641 
 4717000   0.49880155   -6.9350351    1107.4983  0.019565726  0.018104639         2757 
 4718000   0.48973765   -6.9395075    1106.2877  0.019540196  0.018098898         2688 
 4719000   0.50252387   -6.9298935    1108.4006  0.019573366  0.018093153         2766 
 4720000   0.49076209   -6.9235058    1107.5766  0.019554671  0.018087413         2747 
 4721000   0.49902939    -6.926887    1107.2499  0.019544763  0.018081678         2782 
 4722000   0.50077597   -6.9140437    1106.8768   0.01953404  0.018075946         2645 
 4723000   0.49591125   -6.9353626    1106.9984  0.019532049  0.018070217         2757 
 4724000    0.4947033   -6.9398649    1107.0218  0.019528327  0.018064484         2801 
 4725000   0.50946669   -6.9233648    1109.6824  0.019571118  0.018058756         2741 
 4726000   0.49362114   -6.9274001     1106.856  0.019517138   0.01805303         2843 
 4727000    0.4948707   -6.9389916    1106.9298  0.019514312  0.018047309         2788 
 4728000   0.50757183   -6.9281266    1106.8243  0.019508325  0.018041583         2756 
 4729000   0.49367319   -6.9385597    1107.0905   0.01950889  0.018035858         2817 
 4730000   0.49139293   -6.9267288    1107.6789  0.019515132  0.018030139         2722 
 4731000   0.49682221   -6.9256709    1107.2946  0.019504237  0.018024431         2818 
 4732000   0.48637116   -6.9296734      1107.45  0.019502854  0.018018716         2768 
 4733000   0.50072079   -6.9299692    1108.4038  0.019515526  0.018013008         2761 
 4734000   0.49522162   -6.9309485     1107.099  0.019488435  0.018007297         2826 
 4735000   0.49230574   -6.9420568    1106.8817  0.019480494  0.018001589         2875 
 4736000   0.49336681   -6.9278408    1106.9004   0.01947671  0.017995875         2955 
 4737000    0.4998617   -6.9284386     1106.765  0.019470217  0.017990168         2894 
 4738000   0.49506296   -6.9396578    1106.9306   0.01946902  0.017984452         2865 
 4739000   0.48253005   -6.9337524    1106.9149  0.019464635  0.017978737         2944 
 4740000   0.49331935   -6.9531977    1105.6142  0.019437662  0.017973025         2966 
 4741000   0.49592173   -6.9588219    1108.5891  0.019485853  0.017967316         2891 
 4742000   0.48849956   -6.9492616    1105.8904  0.019434317  0.017961607         2881 
 4743000   0.50388294   -6.9457722    1106.0584  0.019433171    0.0179559         2911 
 4744000   0.48920301   -6.9279714    1107.9909  0.019463022  0.017950197         2906 
 4745000   0.48720147   -6.9388745    1107.2857  0.019446534  0.017944488         2920 
 4746000   0.49734205   -6.9346234    1108.4597  0.019463051  0.017938791         2935 
 4747000   0.49186912   -6.9399187    1105.4609  0.019406307  0.017933089         3024 
 4748000    0.5019823   -6.9350455     1106.031  0.019412227  0.017927392         2940 
 4749000   0.48950039   -6.9570981    1105.4888  0.019398624  0.017921696         3048 
 4750000   0.49103526   -6.9511316    1105.3768  0.019392575     0.017916         2988 
 4751000   0.49210275   -6.9548015    1105.8337  0.019396509  0.017910306         3073 
 4752000   0.49359667   -6.9469031    1106.4785  0.019403734  0.017904614         3078 
 4753000   0.49009411   -6.9575941    1105.5519  0.019383405  0.017898927         3027 
 4754000   0.48697353   -6.9480507    1106.7106   0.01939964  0.017893241         3090 
 4755000   0.49605858   -6.9519192    1105.5677   0.01937553  0.017887556         3086 
 4756000   0.49187469   -6.9531059    1105.2379  0.019365677  0.017881874         3043 
 4757000   0.49801947   -6.9466436    1106.2584  0.019379483  0.017876191         3039 
 4758000    0.4979504   -6.9508267    1108.5659  0.019415825  0.017870513         3024 
 4759000   0.49393406    -6.944165    1105.6211  0.019360179  0.017864828         3013 
 4760000   0.48786753   -6.9493139    1105.7404  0.019358201  0.017859151         3027 
 4761000   0.50007844   -6.9463124    1106.4169  0.019365976  0.017853484         3063 
 4762000   0.48916079   -6.9372824    1107.2772  0.019376963  0.017847817         2966 
 4763000   0.49354723   -6.9454017    1105.0764  0.019334391  0.017842148         3053 
 4764000   0.48495058   -6.9533383    1107.4055  0.019371073   0.01783648         2966 
 4765000   0.49502479   -6.9646848    1104.1811  0.019310617  0.017830814         3048 
 4766000    0.4825931   -6.9408562    1106.7143  0.019350858  0.017825147         3002 
 4767000   0.48313252   -6.9637339    1104.3089   0.01930475  0.017819484         3083 
 4768000   0.49910555   -6.9675053     1104.908  0.019311172   0.01781382         2989 
 4769000   0.49408228   -6.9586093    1104.7763  0.019304821  0.017808167         2987 
 4770000   0.48994822   -6.9568627    1107.0039   0.01933969  0.017802506         2994 
 4771000   0.48115199   -6.9410238    1108.6919   0.01936512  0.017796846         3009 
 4772000   0.48148174   -6.9550682    1107.5149  0.019340508  0.017791199         2946 
 4773000   0.49877057   -6.9477334    1106.4581  0.019318005  0.017785553         3048 
 4774000   0.49703613   -6.9486003    1106.0254  0.019306406  0.017779902         3034 
 4775000   0.49731725   -6.9570284    1106.0765  0.019303255  0.017774252         2998 
 4776000   0.48451805   -6.9536926    1107.0248  0.019315759  0.017768598         2947 
 4777000   0.49049492   -6.9695147    1105.1923  0.019279749  0.017762953         2987 
 4778000   0.47782844   -6.9693861    1105.3915  0.019279187  0.017757309         3048 
 4779000    0.4841096   -6.9524675    1105.0506  0.019269208  0.017751661         2950 
 4780000   0.49245475   -6.9619107    1104.0443  0.019247635  0.017746011         3054 
 4781000   0.48606862   -6.9670168    1107.2027  0.019298659  0.017740374         3035 
 4782000   0.48606245   -6.9581133    1106.8994  0.019289339  0.017734739         2985 
 4783000   0.49118189   -6.9654592    1105.4638  0.019260294  0.017729105         3051 
 4784000   0.48763895   -6.9634266    1103.9535  0.019229959  0.017723471         2978 
 4785000   0.48381766   -6.9701945    1106.0585    0.0192626  0.017717838         3018 
 4786000   0.49303922   -6.9571878    1105.3703  0.019246592  0.017712201         3127 
 4787000   0.48994693   -6.9725283    1105.0359   0.01923675  0.017706572         3026 
 4788000   0.48489041   -6.9701522    1105.8178  0.019246342  0.017700938         3060 
 4789000   0.47556661   -6.9618697    1106.2196  0.019249314  0.017695313         3030 
 4790000   0.48262187   -6.9617275    1104.9036  0.019222401  0.017689682         3101 
 4791000   0.48350238   -6.9712024    1105.6284  0.019230996  0.017684056         3190 
 4792000   0.48213147   -6.9593677    1105.8518  0.019230867  0.017678431         3067 
 4793000   0.47883007   -6.9878298    1103.3614  0.019183556  0.017672801         3157 
 4794000   0.48605529   -6.9709733    1104.0514  0.019191549  0.017667171         3155 
 4795000   0.48533628   -6.9707054    1103.5937  0.019179592   0.01766155         3184 
 4796000   0.47752207   -6.9788399      1105.85  0.019214797  0.017655931         3176 
 4797000   0.48671208   -6.9609622    1105.5532  0.019205636  0.017650314         3128 
 4798000   0.48259608   -6.9667149    1105.7242  0.019204603  0.017644697         3125 
 4799000   0.47867208   -6.9713113    1104.3283  0.019176362  0.017639085         3118 
 4800000   0.48144718    -6.970846    1104.7848  0.019180292  0.017633475         3114 
 4801000   0.48669883   -6.9693868    1105.8855  0.019195402  0.017627859         3120 
 4802000   0.48709086   -6.9642277    1103.8678  0.019156389   0.01762225         3170 
 4803000   0.48676951   -6.9577084    1105.2946  0.019177156  0.017616653         3085 
 4804000   0.47649931   -6.9614752    1107.9684  0.019219546  0.017611053         3077 
 4805000   0.48907774   -6.9670641    1106.1742   0.01918443  0.017605445         3148 
 4806000   0.48358121   -6.9616937    1105.0145  0.019160329  0.017599839         3206 
 4807000   0.49748056   -6.9804571    1105.1501  0.019158694  0.017594243         3174 
 4808000   0.48509117   -6.9738489    1105.1151  0.019154102  0.017588649         3085 
 4809000   0.48884913   -6.9568246    1102.5988  0.019106516  0.017583059         3128 
 4810000   0.48774274   -6.9560899    1103.7893  0.019123168  0.017577464         3020 
 4811000   0.49492098   -6.9693436    1103.2821  0.019110409  0.017571872         3144 
 4812000   0.48948103   -6.9693042    1105.8675   0.01915121  0.017566287         3178 
 4813000   0.49831517   -6.9663127    1104.0872  0.019116407  0.017560695         3131 
 4814000   0.47752913   -6.9669368    1104.5768  0.019120912   0.01755511         3185 
 4815000    0.4797272   -6.9631275    1105.8221  0.019138492  0.017549524         3117 
 4816000   0.48762575   -6.9699742    1104.0199  0.019103335   0.01754394         3152 
 4817000   0.47970289   -6.9776617    1105.2247  0.019120211  0.017538362         3150 
 4818000   0.47266677   -6.9739816    1104.0319  0.019095611  0.017532791         3104 
 4819000   0.47790845   -6.9682847    1103.5152  0.019082714  0.017527216         3164 
 4820000   0.48459234   -6.9613723    1103.7456  0.019082738  0.017521641         3137 
 4821000    0.4795841   -6.9606708    1103.6674  0.019077428  0.017516068         3119 
 4822000   0.48138418   -6.9766899    1100.2873  0.019015057  0.017510494         3159 
 4823000   0.47153324   -6.9784236    1104.7486    0.0190882   0.01750493         3215 
 4824000   0.48405494   -6.9791459    1103.7251  0.019066562  0.017499365         3131 
 4825000   0.47858291   -6.9715421    1105.7716  0.019097954  0.017493803         3168 
 4826000   0.47555486   -6.9730892    1102.8036  0.019042747  0.017488243         3155 
 4827000   0.47636431   -6.9728309    1104.9055   0.01907509  0.017482688         3079 
 4828000   0.47623944   -6.9780349    1103.6123  0.019048818  0.017477127         3056 
 4829000    0.4756025     -6.97268    1103.9279  0.019050319  0.017471572         3124 
 4830000   0.47579254   -6.9630776    1105.4014  0.019071797  0.017466023         3059 
 4831000   0.47532456   -6.9779725    1103.5423  0.019035781  0.017460472         3140 
 4832000   0.49492938   -6.9756102    1103.9301   0.01903853  0.017454924         3067 
 4833000   0.48647019   -6.9813939     1103.842  0.019033072  0.017449382         3062 
 4834000   0.47402184   -6.9882794    1102.9841  0.019014345  0.017443838         3151 
 4835000   0.47364981   -6.9766618    1104.8675  0.019042873  0.017438299         3081 
 4836000   0.47028571   -6.9675941    1101.5779  0.018982249  0.017432758         3112 
 4837000   0.48302648    -6.970055    1105.3146  0.019042702  0.017427223         3091 
 4838000   0.48149679   -6.9634288    1103.6304  0.019009757  0.017421692         3087 
 4839000   0.47762673   -6.9711313     1105.743  0.019042208  0.017416159         3097 
 4840000   0.47717922   -6.9937236    1103.5031  0.018999708  0.017410627         3103 
 4841000   0.48618742   -6.9892704    1103.5318  0.018996278  0.017405086         3140 
 4842000   0.47703801   -6.9786611    1103.3464  0.018989165  0.017399556         3058 
 4843000   0.47695625   -6.9841712    1103.3977  0.018986127  0.017394021         3160 
 4844000   0.48316166    -6.987324    1102.3922  0.018964908  0.017388493         3192 
 4845000   0.47080648    -6.977081    1104.7047  0.019000769  0.017382967         3102 
 4846000   0.47472878   -6.9921776    1104.2236  0.018988575  0.017377442         3172 
 4847000    0.4731958    -6.989894    1101.1299  0.018931468  0.017371919         3164 
 4848000   0.47551291   -6.9843256    1105.4538  0.019001887  0.017366395         3205 
 4849000   0.48019687   -6.9885809    1103.2166  0.018959521  0.017360872         3167 
 4850000   0.47562761   -6.9778699    1103.9569  0.018968332  0.017355351         3116 
 4851000   0.47826812   -6.9848253    1102.6741  0.018942385  0.017349842         3190 
 4852000   0.48067913   -6.9670948    1103.8796  0.018959185  0.017344329         3218 
 4853000   0.47456398   -6.9930355    1102.5025  0.018931632  0.017338818         3173 
 4854000   0.47661265   -6.9664336     1103.182  0.018939398  0.017333307         3104 
 4855000   0.48476236   -6.9992814    1104.6617  0.018960893  0.017327808         3104 
 4856000     0.469236   -6.9836432    1104.4146   0.01895275  0.017322306         3024 
 4857000   0.48472685   -6.9807724    1104.0208   0.01894209  0.017316811         3039 
 4858000   0.46254287   -7.0059595    1103.5438  0.018930009  0.017311318         3071 
 4859000   0.47420594   -6.9771981    1104.0019  0.018933969  0.017305821         3041 
 4860000   0.47008292   -6.9865009    1102.2669  0.018900324  0.017300328         3151 
 4861000   0.46638539   -6.9819791    1103.0004   0.01890901  0.017294837         3067 
 4862000   0.46374187   -6.9724553    1105.6609  0.018950722  0.017289352         3064 
 4863000   0.47435775   -6.9945071     1103.885  0.018916392  0.017283867         3164 
 4864000   0.47371975   -6.9965093    1103.0988  0.018899034   0.01727839         3071 
 4865000   0.47802806    -6.980975     1103.508  0.018902159  0.017272908         3071 
 4866000   0.47914876   -6.9970277    1103.3722  0.018895948  0.017267427         3111 
 4867000   0.47036127   -6.9734387    1102.6958  0.018880484  0.017261945         3112 
 4868000   0.48188144   -6.9918662    1102.3397   0.01887051  0.017256463         3084 
 4869000   0.47557244   -7.0065917     1106.053  0.018930188  0.017250984         3070 
 4870000   0.46714599   -6.9743174    1102.9344  0.018872936  0.017245509         3120 
 4871000   0.46549226   -6.9805383    1103.1671  0.018873043  0.017240033         3128 
 4872000   0.47790152   -6.9818814    1103.9703  0.018882907  0.017234563         3091 
 4873000   0.47120142   -6.9964835    1102.0922  0.018846916  0.017229094         3165 
 4874000   0.47012633   -7.0048736    1103.4311  0.018865941   0.01722363         3131 
 4875000   0.47033731   -6.9848379    1104.0782  0.018873132  0.017218164         3158 
 4876000   0.47904208   -6.9935396    1103.5207  0.018859733  0.017212697         3167 
 4877000   0.46601182    -6.983078    1103.5479   0.01885633  0.017207235         3080 
 4878000   0.47328215   -6.9752766     1103.756   0.01885602  0.017201776         3093 
 4879000   0.47861829   -6.9987662    1102.8674  0.018836978  0.017196321         3159 
 4880000   0.47256011    -6.990538    1104.8665  0.018867257  0.017190871         3193 
 4881000   0.46812611   -6.9803306    1104.4688    0.0188566  0.017185425         3036 
 4882000   0.47577369   -6.9863009      1103.71  0.018839786   0.01717998         3088 
 4883000   0.47534474   -6.9967417    1105.5359  0.018867088  0.017174534         3058 
 4884000   0.46243691   -6.9887343    1104.0499   0.01883787  0.017169081         3097 
 4885000   0.46562371   -6.9975095    1101.4953  0.018790434  0.017163634         3182 
 4886000   0.46965678   -6.9849592    1104.9955  0.018846287  0.017158192         3107 
 4887000   0.46785674     -7.01018    1102.2061  0.018794866  0.017152753         3117 
 4888000   0.46381337   -6.9793564    1101.5047  0.018779062  0.017147313         3080 
 4889000   0.47691885   -7.0108721    1103.5353  0.018809833  0.017141876         3065 
 4890000   0.46223424   -6.9857919    1102.5832  0.018789761  0.017136436         3098 
 4891000    0.4755402   -6.9939782      1103.94  0.018809036     0.017131         3136 
 4892000    0.4671383   -6.9904927    1102.9653  0.018788588  0.017125564         3195 
 4893000   0.47642628    -6.999901    1101.8098  0.018765068  0.017120125         3184 
 4894000   0.47005803    -7.001688     1102.669  0.018775865  0.017114689         3149 
 4895000   0.46921963   -7.0028011    1102.0212  0.018761001   0.01710926         3160 
 4896000   0.46859935   -7.0101608    1101.7142  0.018751943  0.017103834         3145 
 4897000   0.46373611   -6.9972888    1102.0376  0.018753617  0.017098408         3168 
 4898000   0.46870845   -7.0001339    1103.6527  0.018777267  0.017092981         3141 
 4899000   0.46851043   -6.9919241    1103.5635  0.018771917   0.01708756         3188 
 4900000   0.47927233   -7.0139487    1103.5405  0.018767695  0.017082141         3120 
 4901000   0.47218607   -6.9908506    1103.6455  0.018765652  0.017076727         3159 
 4902000   0.47287799   -7.0136776    1100.9442  0.018715901   0.01707131         3151 
 4903000   0.45962815   -6.9887858    1101.2679  0.018717586  0.017065892         3100 
 4904000   0.46423928   -6.9920833    1102.2479  0.018730422  0.017060482         3162 
 4905000   0.47153418   -7.0062602    1102.5116  0.018731084  0.017055072         3061 
 4906000    0.4594607    -6.999863    1102.0835  0.018719995  0.017049666         3106 
 4907000   0.46951902    -7.016277    1102.3609  0.018720891  0.017044256         3111 
 4908000    0.4617105   -7.0036555     1100.609  0.018687331  0.017038851         3102 
 4909000   0.46269885   -7.0152007    1101.2611  0.018694593  0.017033445         3090 
 4910000   0.47784492   -7.0087598    1100.3446  0.018675231  0.017028041         3086 
 4911000   0.46126787   -7.0148729    1102.3226  0.018704992  0.017022646         3064 
 4912000   0.46763669   -6.9889907    1103.6282  0.018723333  0.017017248         3063 
 4913000   0.47132477   -7.0052727    1103.3644  0.018715049  0.017011859         3117 
 4914000   0.46205554   -6.9766975    1102.6709   0.01869948  0.017006467         3111 
 4915000   0.47086043   -7.0093378    1102.7901  0.018697696  0.017001077         3102 
 4916000   0.46353631   -6.9939893    1102.3258  0.018686022  0.016995689         3079 
 4917000   0.45950078   -6.9961094    1103.0524  0.018694536  0.016990302         3073 
 4918000   0.46040093   -7.0179283    1101.2719  0.018660565   0.01698492         3138 
 4919000   0.46902285   -7.0199101    1103.0314  0.018686579  0.016979538         3052 
 4920000   0.45849469   -7.0031867    1105.0532  0.018717025  0.016974163         3049 
 4921000   0.45714492   -6.9979752    1100.8961  0.018642825  0.016968788         3082 
 4922000   0.46339844   -6.9826627    1102.8347   0.01867186  0.016963415         3095 
 4923000   0.46169029    -6.994746    1100.8809  0.018634994  0.016958043         3088 
 4924000   0.47018388   -6.9966121    1102.0549  0.018651077  0.016952671         3138 
 4925000   0.47204808   -6.9998408    1101.5243  0.018638312  0.016947298         3096 
 4926000   0.47115373   -7.0178807    1100.4177  0.018615809  0.016941934         3103 
 4927000    0.4768612   -7.0184129    1103.2918  0.018660642  0.016936564         3149 
 4928000   0.46805254   -6.9930863    1103.0705  0.018653113  0.016931196         3167 
 4929000   0.45504423   -7.0139734    1102.6674  0.018642513  0.016925835         3187 
 4930000   0.46595649   -7.0182335    1102.0119  0.018627652  0.016920476         3176 
 4931000   0.46169218     -7.01097    1102.5791  0.018633461  0.016915117         3187 
 4932000   0.45680959   -6.9969743    1102.0406  0.018620583  0.016909756         3158 
 4933000   0.46378238   -6.9918189    1103.1546  0.018635628  0.016904398         3175 
 4934000   0.47238441   -6.9961916    1102.0821  0.018613736  0.016899046         3079 
 4935000   0.47105337   -7.0149343    1102.1359  0.018610874  0.016893696         3118 
 4936000   0.46042924   -7.0029379    1101.6061  0.018598158  0.016888347         3177 
 4937000   0.46454089   -7.0041256    1101.9866  0.018600814  0.016882993         3129 
 4938000   0.46214835   -7.0022585    1101.2462  0.018584552  0.016877646         3257 
 4939000   0.45611973   -6.9978514    1101.6103  0.018586933  0.016872299         3217 
 4940000   0.45901115    -7.017743    1102.0362  0.018590354  0.016866954         3158 
 4941000   0.46349602   -7.0158087    1101.0525      0.01857  0.016861616         3137 
 4942000    0.4532098   -6.9934485     1102.083   0.01858362  0.016856279         3255 
 4943000    0.4525538   -7.0325333    1100.8054  0.018558322   0.01685094         3220 
 4944000   0.45357028   -7.0084304    1102.0028  0.018574751  0.016845601         3117 
 4945000   0.46434532   -7.0222173    1102.1799  0.018573979  0.016840275         3133 
 4946000   0.46905268   -6.9929942    1103.8286  0.018598002  0.016834945         3116 
 4947000   0.45869111   -7.0178666    1100.5314    0.0185387  0.016829612         3178 
 4948000   0.45741837   -7.0145055    1102.5265  0.018568555   0.01682428         3180 
 4949000    0.4582808   -7.0225339    1101.7716  0.018552092  0.016818948         3159 
 4950000   0.45461309   -7.0167678    1101.6868  0.018546916  0.016813618         3130 
 4951000   0.46376728   -7.0141489    1102.1547  0.018551045  0.016808289         3176 
 4952000   0.46168848   -7.0086291    1100.8396  0.018525169  0.016802967         3242 
 4953000   0.45782553   -7.0119815    1103.1585  0.018560443  0.016797646         3220 
 4954000    0.4627594     -7.02184    1100.9863  0.018520157  0.016792325         3259 
 4955000   0.45660911   -7.0244939    1101.2964  0.018521635  0.016787008         3173 
 4956000   0.45749364   -7.0234576    1101.5025  0.018521363  0.016781686         3157 
 4957000   0.45791663   -7.0105878    1101.0453  0.018509941   0.01677637         3136 
 4958000   0.45480851   -7.0034718    1100.3652  0.018494776  0.016771057         3230 
 4959000   0.45505584   -7.0113551    1102.4176  0.018525536  0.016765745         3154 
 4960000    0.4605463   -7.0287086     1101.998  0.018514751  0.016760437         3221 
 4961000   0.44861073   -7.0095327    1101.3079  0.018499427  0.016755131         3185 
 4962000   0.45503013   -7.0060563    1100.2508  0.018477946  0.016749829         3152 
 4963000   0.46286353   -7.0247367    1100.1666   0.01847281  0.016744525         3131 
 4964000    0.4502857   -7.0103273    1101.2893  0.018487935  0.016739227         3161 
 4965000   0.46291976   -7.0180073    1101.8227  0.018493164  0.016733931         3139 
 4966000   0.46127217   -7.0139422    1099.9938   0.01845875  0.016728638         3158 
 4967000   0.45034847   -7.0194472    1102.0547  0.018489611  0.016723341         3184 
 4968000   0.45752185   -7.0435739    1100.9119  0.018466718  0.016718051         3145 
 4969000   0.45690676   -7.0150911    1101.9597  0.018480575  0.016712764         3209 
 4970000   0.46100533   -7.0189338    1100.3875  0.018450495  0.016707473         3219 
 4971000    0.4583307   -7.0065676    1101.3148  0.018462328  0.016702187         3196 
 4972000   0.46065531   -7.0346484    1099.6684  0.018431021  0.016696903         3131 
 4973000   0.44492231   -7.0138427    1101.0048  0.018449708  0.016691622         3136 
 4974000   0.46407184   -7.0191285     1102.103  0.018464398  0.016686342         3192 
 4975000   0.45857213   -7.0248499    1102.9248  0.018474453  0.016681063         3157 
 4976000   0.46652351    -7.046855    1101.8543  0.018452813  0.016675791         3192 
 4977000   0.45249084   -7.0344314    1100.0351  0.018418644  0.016670517         3202 
 4978000   0.46277077   -7.0119437    1100.9223  0.018429796  0.016665245         3191 
 4979000   0.45861439    -7.018751     1101.654   0.01843834  0.016659976         3135 
 4980000   0.45534358   -7.0145814    1102.4825  0.018448502  0.016654709         3099 
 4981000    0.4669751   -7.0307772    1100.3988  0.018409938  0.016649438         3218 
 4982000   0.45911602   -7.0270211    1101.1629  0.018419023  0.016644175         3059 
 4983000   0.45782238    -7.007987    1099.1618  0.018381862  0.016638914         3146 
 4984000   0.44492998   -7.0111627    1101.7719  0.018421815  0.016633657         3096 
 4985000   0.44923539   -7.0345615    1100.3984  0.018395159  0.016628401         3164 
 4986000   0.45141104   -7.0182313    1102.3588  0.018424235  0.016623143         3171 
 4987000   0.45521566   -7.0179218    1099.5337  0.018373332  0.016617886         3157 
 4988000   0.44736639   -7.0377414    1101.5688  0.018403649  0.016612632         3159 
 4989000   0.44917018   -7.0301295    1101.3626  0.018396516  0.016607384         3116 
 4990000   0.45428453   -7.0209826    1101.8555   0.01840106  0.016602141         3121 
 4991000   0.46587158   -7.0249262    1102.6522  0.018410676  0.016596897         3180 
 4992000   0.44731386   -7.0204532    1101.2744  0.018383988  0.016591655         3151 
 4993000   0.45370013   -7.0429354     1100.169  0.018361857  0.016586413         3150 
 4994000   0.44428119   -7.0242072    1101.5121  0.018380591  0.016581167         3167 
 4995000   0.45915694   -7.0421429    1101.5244  0.018377118  0.016575924         3210 
 4996000   0.44962024    -7.040169    1101.0834  0.018366084  0.016570688         3116 
 4997000   0.45168914   -7.0309301    1100.1047  0.018346086  0.016565453         3219 
 4998000   0.45447636    -7.027361    1101.5044  0.018365754  0.016560216         3165 
 4999000   0.45900114   -7.0287983    1101.8266   0.01836745  0.016554987         3149 
 5000000   0.45531082   -7.0192411    1100.6521  0.018344201   0.01654976         3097 
 5001000   0.44924968   -7.0323793    1100.3868  0.018336113   0.01654453         3210 
 5002000   0.44497532   -7.0301823    1098.4595  0.018300339  0.016539301         3127 
 5003000   0.45841424   -7.0254324    1100.6269  0.018332782   0.01653408         3160 
 5004000    0.4459385   -7.0437053    1099.8614  0.018316371   0.01652886         3149 
 5005000   0.44456518   -7.0266443    1100.6858  0.018326437   0.01652364         3189 
 5006000   0.44735607   -7.0278753    1099.2217  0.018298403  0.016518415         3225 
 5007000   0.44483282   -7.0341829    1101.4849  0.018332416  0.016513202         3213 
 5008000   0.45377846   -7.0289058     1102.224  0.018341055  0.016507986         3213 
 5009000   0.44340447   -7.0430102    1099.8783  0.018298367  0.016502765         3240 
 5010000   0.45965666   -7.0430344    1100.1634  0.018299458  0.016497551         3248 
 5011000     0.444643   -7.0293398    1098.3698  0.018265978  0.016492337         3227 
 5012000   0.44832696   -7.0367152    1099.2553  0.018277056  0.016487124         3208 
Loop time of 12946 on 48 procs for 5000000 steps with 4000 atoms

Performance: 66738.608 tau/day, 386.219 timesteps/s
99.4% CPU use with 48 MPI tasks x no OpenMP threads

MPI task timing breakdown:
Section |  min time  |  avg time  |  max time  |%varavg| %total
---------------------------------------------------------------
Pair    | 941.5      | 1008.3     | 1065.8     | 104.8 |  7.79
Neigh   | 88.979     | 92.696     | 95.911     |  20.8 |  0.72
Comm    | 828.91     | 889.11     | 963        | 108.7 |  6.87
Output  | 15.763     | 15.768     | 15.873     |   0.4 |  0.12
Modify  | 10788      | 10821      | 10848      |  12.8 | 83.58
Other   |            | 119.2      |            |       |  0.92

Nlocal:        83.3333 ave          91 max          77 min
Histogram: 2 1 8 9 7 10 4 6 0 1
Nghost:        2417.12 ave        2432 max        2398 min
Histogram: 2 3 3 5 5 3 12 9 3 3
Neighs:        16741.9 ave       18956 max       14579 min
Histogram: 4 4 2 9 8 5 3 4 2 7
FullNghs:      33484.4 ave       37149 max       30587 min
Histogram: 1 3 5 13 9 7 7 1 1 1

Total # of neighbors = 1607249
Ave neighs/atom = 401.81225
Neighbor list builds = 267941
Dangerous builds = 0

#clear
#
#next RN
#
#jump SELF
Total wall time: 3:35:49
