
units lj                  # Use reduced LJ style units
atom_style atomic         # Uncharged point particles
atom_modify map hash      # Needed for indexing of clusters etc
                          # Used to be able to find where atoms are in relation to each other.

lattice fcc 1.0 spacing 1 1 1
Lattice spacing in x,y,z = 1.5874011 1.5874011 1.5874011
region box block 0 10 0 10 0 10 units lattice
create_box 2 box
Created orthogonal box = (0.0000000 0.0000000 0.0000000) to (15.874011 15.874011 15.874011)
  3 by 4 by 4 MPI processor grid
create_atoms 1 box
Created 4000 atoms
  using lattice units in orthogonal box = (0.0000000 0.0000000 0.0000000) to (15.874011 15.874011 15.874011)
  create_atoms CPU = 0.002 seconds
set type 1 type/fraction 2 0.16 78393
Setting atom values ...
  677 settings made for type/fraction
mass 1 1.0
mass 2 1.0
pair_style lj/cut  3.5
pair_modify tail  yes
pair_coeff 1  1  1.0  1.0   # Intearaction between 1 and 1 set with epsilon = 1 and sigma = 1
pair_coeff 1  2  1.5  0.8
pair_coeff 2  2  0.5  0.88

write_data data.0
System init for write_data ...
Neighbor list info ...
  update every 1 steps, delay 10 steps, check yes
  max neighbors/atom: 2000, page size: 100000
  master list distance cutoff = 3.8
  ghost atom cutoff = 3.8
  binsize = 1.9, bins = 9 9 9
  1 neighbor lists, perpetual/occasional/extra = 1 0 0
  (1) pair lj/cut, perpetual
      attributes: half, newton on
      pair build: half/bin/atomonly/newton
      stencil: half/bin/3d
      bin: standard
WARNING: Not all mixed pair coeffs generated from mixing. Use write_data with 'pair ij' option to store all pair coeffs. (../write_data.cpp:312)


#############################
#   M E L T   S Y S T E M   #
#############################

velocity all create 2.4 6229865 mom yes dist gaussian # Assign velocities
                                                    # Temperature 2.4, random number seed, zero linear momentum
                                                                                # Gaussian distribution

timestep 0.002   # simulation timestep
thermo 1000       # output thermodynamic data every 1000 steps bf 100

# Define a fix  in this case with index 1 applied to all
# particles in the simulation. This fix is for simulations
# in the anisotropic NPT ensemble. Note that we use the MTK
# correction.
fix 1 all npt temp 2.4 2.4 0.1 iso 5.68 5.68 0.5 mtk yes tchain 5 pchain 5 # Use NPT ensemble
                                                                         # Set temperature and pressure and damping
                                                                         # Numbers of thermostats in chain and in barostat
run 10000          # run for 10000 steps
Per MPI rank memory allocation (min/avg/max) = 3.642 | 3.644 | 3.648 Mbytes
Step Temp E_pair E_mol TotEng Press Volume 
       0          2.4   -7.2871769            0   -3.6880769   -3.4159639         4000 
    1000    2.3843755   -4.8091189            0   -1.2334498    5.5839089    4585.0248 
    2000    2.3628752   -4.7418005            0   -1.1983737    5.7009689    4605.3934 
    3000    2.3742031   -4.8016023            0    -1.241188    5.4894202    4609.3026 
    4000    2.3582248   -4.7713398            0    -1.234887    5.5946937    4596.8811 
    5000    2.4389554   -4.7513125            0   -1.0937939    5.8579178    4596.3015 
    6000    2.3746107    -4.774293            0   -1.2132675    5.4306904    4611.2173 
    7000    2.3483086   -4.7391267            0   -1.2175444    5.4351773    4640.0904 
    8000    2.3228507   -4.7566473            0   -1.2732424    5.6070567     4597.931 
    9000    2.4471406   -4.7001947            0   -1.0304015    5.9063577    4611.8609 
   10000    2.3892639   -4.7917436            0   -1.2087437    5.6821775    4591.0396 
Loop time of 2.25062 on 48 procs for 10000 steps with 4000 atoms

Performance: 767787.271 tau/day, 4443.213 timesteps/s
99.6% CPU use with 48 MPI tasks x no OpenMP threads

MPI task timing breakdown:
Section |  min time  |  avg time  |  max time  |%varavg| %total
---------------------------------------------------------------
Pair    | 0.95167    | 1.0051     | 1.116      |   3.1 | 44.66
Neigh   | 0.19595    | 0.20282    | 0.22279    |   1.1 |  9.01
Comm    | 0.65691    | 0.77805    | 0.85       |   4.9 | 34.57
Output  | 0.00024051 | 0.00024677 | 0.00030314 |   0.0 |  0.01
Modify  | 0.21244    | 0.24987    | 0.29326    |   4.1 | 11.10
Other   |            | 0.01457    |            |       |  0.65

Nlocal:        83.3333 ave         101 max          75 min
Histogram: 4 6 16 9 6 3 3 0 0 1
Nghost:        1500.96 ave        1525 max        1474 min
Histogram: 1 1 7 6 6 12 4 2 5 4
Neighs:        8306.46 ave       10545 max        7214 min
Histogram: 3 8 12 12 6 3 3 0 0 1

Total # of neighbors = 398710
Ave neighs/atom = 99.677500
Neighbor list builds = 909
Dangerous builds = 228

# Equilibrate just above the melting temperature to avoid step fn in T

fix 1 all npt temp 1.25 1.25 0.1 iso 5.68 5.68 0.5 mtk yes tchain 5 pchain 5
run 2000
Per MPI rank memory allocation (min/avg/max) = 3.642 | 3.644 | 3.648 Mbytes
Step Temp E_pair E_mol TotEng Press Volume 
   10000    2.3892639   -4.7917436            0   -1.2087437    5.6821775    4591.0396 
   11000    1.2402764   -6.4377754            0   -4.5778258    5.4136433    3786.7707 
   12000    1.2626431   -6.3995227            0   -4.5060315    5.6996441    3781.0734 
Loop time of 0.489633 on 48 procs for 2000 steps with 4000 atoms

Performance: 705835.233 tau/day, 4084.695 timesteps/s
99.6% CPU use with 48 MPI tasks x no OpenMP threads

MPI task timing breakdown:
Section |  min time  |  avg time  |  max time  |%varavg| %total
---------------------------------------------------------------
Pair    | 0.21893    | 0.23692    | 0.2591     |   1.9 | 48.39
Neigh   | 0.031959   | 0.033606   | 0.036536   |   0.6 |  6.86
Comm    | 0.13948    | 0.16669    | 0.18706    |   2.6 | 34.04
Output  | 5.0348e-05 | 5.176e-05  | 6.6069e-05 |   0.0 |  0.01
Modify  | 0.042122   | 0.047759   | 0.053857   |   1.4 |  9.75
Other   |            | 0.0046     |            |       |  0.94

Nlocal:        83.3333 ave          93 max          77 min
Histogram: 6 4 7 7 6 8 8 0 1 1
Nghost:        1703.90 ave        1730 max        1678 min
Histogram: 2 3 3 4 8 12 9 6 0 1
Neighs:        10095.2 ave       11159 max        8883 min
Histogram: 2 1 5 2 12 9 6 4 5 2

Total # of neighbors = 484571
Ave neighs/atom = 121.14275
Neighbor list builds = 141
Dangerous builds = 7

#############################
# L I N E A R  Q U E N C H  #
#############################

# Define solid atoms. This closely follows ten Wolde  Ruiz-Montero and Frenkel  Faraday Discuss  1996  104  93-110
# Compute components of the per-atom q6 vector
compute q6 all orientorder/atom degrees 1 6 components 6 nnn NULL cutoff 1.3 # compute the Q6 parameter.
                                                                             # Use all neighbours within 1.3 unit cell.

# get number of connections
compute coord_number all coord/atom orientorder q6 0.5

# An atom is solid if it has 8 or more connections (of a possible 14)
variable is_solid atom c_coord_number>=8
group solid dynamic all var is_solid    # Must be dynamic to update
dynamic group solid defined

# do clustering
compute cluster solid cluster/atom 1.3 # Create a cluster where all atoms within are solid and max 1.3 units from another member

# define chunks one chunk per cluster
compute clus_chunks solid chunk/atom c_cluster nchunk every compress yes  # Says which atoms are in which chunk

# count the size of each chunk
compute size_chunks solid property/chunk clus_chunks count


# Find the maximum entry in the vector of chunk sizes
variable max_n equal max(c_size_chunks)


# Thermo style which includes this variable
# thermo_style custom step temp pe vol v_max_n

thermo ${N}  # Print the thermo information every 100 steps
thermo 1000  

# Reset the npt fix at a lower temperature (below freezing)
fix 1  all npt temp  ${temp} ${temp}  0.1  iso  5.68  5.68  0.5  mtk yes tchain  5  pchain  5
fix 1  all npt temp  0.45 ${temp}  0.1  iso  5.68  5.68  0.5  mtk yes tchain  5  pchain  5
fix 1  all npt temp  0.45 0.45  0.1  iso  5.68  5.68  0.5  mtk yes tchain  5  pchain  5

dump dmp2 all dcd ${N} traj.dcd
dump dmp2 all dcd 1000 traj.dcd


compute msd all msd com yes
variable twopoint equal c_msd[4]/6/(step*dt+1.0e-6)
fix 9 all vector 10 c_msd[4]
variable fit equal slope(f_9)/6/(10*dt)
thermo_style custom step temp pe c_msd[4] v_twopoint v_fit v_max_n

fix 1 all npt temp 1.25 ${temp} 0.1 iso 5.68 5.68 0.5 mtk yes tchain 5 pchain 5
fix 1 all npt temp 1.25 0.45 0.1 iso 5.68 5.68 0.5 mtk yes tchain 5 pchain 5
run 500000 # 5000000  # Run for this many steps
Neighbor list info ...
  update every 1 steps, delay 10 steps, check yes
  max neighbors/atom: 2000, page size: 100000
  master list distance cutoff = 3.8
  ghost atom cutoff = 3.8
  binsize = 1.9, bins = 9 9 9
  4 neighbor lists, perpetual/occasional/extra = 1 3 0
  (1) pair lj/cut, perpetual
      attributes: half, newton on
      pair build: half/bin/atomonly/newton
      stencil: half/bin/3d
      bin: standard
  (2) compute orientorder/atom, occasional
      attributes: full, newton on
      pair build: full/bin/atomonly
      stencil: full/bin/3d
      bin: standard
  (3) compute coord/atom, occasional
      attributes: full, newton on
      pair build: full/bin/atomonly
      stencil: full/bin/3d
      bin: standard
  (4) compute cluster/atom, occasional
      attributes: full, newton on
      pair build: full/bin/atomonly
      stencil: full/bin/3d
      bin: standard
Per MPI rank memory allocation (min/avg/max) = 9.763 | 9.769 | 9.773 Mbytes
Step Temp PotEng c_msd[4] v_twopoint v_fit v_max_n 
   12000    1.2626431   -6.3995227 3.1556408e-30 2.1914172e-32 8.3333333e+20            1 
   13000     1.244023   -6.4618844   0.55740477 0.0035731074  0.046240949            2 
   14000    1.2584768   -6.4494808    1.0860557 0.0064646168  0.044928874            1 
   15000    1.2524331   -6.4530758     1.648543 0.0091585719  0.045423906            4 
   16000    1.2427389   -6.4214421    2.2026887  0.011472337  0.045472497            2 
   17000    1.2246986   -6.4187287    2.7367651  0.013415515  0.045590319            2 
   18000    1.2387298   -6.4716393    3.2052304  0.014839029  0.044895836            1 
   19000    1.2402234   -6.4599491    3.7476545  0.016437081  0.044595127            3 
   20000    1.2389393   -6.4292874    4.3033525  0.017930635  0.044574162            5 
   21000    1.2385308   -6.4476739    4.7871499  0.018996626  0.044416233            3 
   22000    1.2270804   -6.4326931    5.3544922  0.020282167   0.04423207            1 
   23000    1.2108648   -6.4870109    5.8123319  0.021059173  0.044016259            1 
   24000    1.2213072   -6.4927503    6.3083345  0.021903939  0.043778549            2 
   25000    1.2168061   -6.4746525    6.7664246  0.022554748  0.043525437            1 
   26000    1.2398562    -6.420569    7.2743296  0.023315159  0.043297225            4 
   27000    1.2386355    -6.471971     7.800407   0.02407533  0.043053961            2 
   28000    1.2583524   -6.4614912    8.3229019  0.024770541  0.042987494            3 
   29000    1.2061317   -6.4790505    8.7239889  0.025068933  0.042861432            1 
   30000    1.2278282   -6.4486819    9.2166862  0.025601906  0.042672975            1 
   31000    1.2153655   -6.4912216    9.7835203  0.026299785  0.042516907            4 
   32000    1.2200345   -6.5062685    10.314346  0.026860276  0.042473054            2 
   33000     1.220256    -6.489311    10.795251  0.027260735  0.042407919            1 
   34000    1.2230237    -6.505473      11.3208  0.027747058   0.04238725            2 
   35000    1.2375393    -6.525848    11.801158  0.028097995  0.042335162            2 
   36000    1.1990757   -6.5224759    12.074522  0.027950283  0.042194497            2 
   37000    1.1874212   -6.5177042    12.484277  0.028117742  0.041979951            2 
   38000    1.2092877   -6.4915805     13.02803   0.02857024  0.041767435            3 
   39000    1.2235342    -6.482515    13.430575   0.02869781  0.041586543            2 
   40000     1.181831   -6.5047022    13.969806  0.029103762  0.041405479            1 
   41000    1.2234277   -6.5199508    14.243466  0.028950135  0.041227936            2 
   42000    1.2060464   -6.4891166    14.660394  0.029088082  0.041012003            2 
   43000    1.1928163   -6.5048966    15.214593  0.029485644  0.040821003            1 
   44000    1.1967317   -6.5241366    15.661997  0.029662873  0.040662357            3 
   45000    1.1574553   -6.5199966    16.027637   0.02968081  0.040507023            1 
   46000    1.2154909   -6.5321679    16.519584  0.029926782  0.040354831            1 
   47000    1.1911268    -6.514831    16.903243  0.029970289   0.04020778            1 
   48000    1.1836316   -6.5375638    17.315163  0.030061046  0.040067893            1 
   49000    1.1814926   -6.5822936    17.652413   0.03002111  0.039899106            2 
   50000    1.1607131   -6.5739396    18.076795  0.030127991  0.039712018            3 
   51000    1.1919342   -6.5454876    18.456504  0.030157686  0.039520872            2 
   52000    1.1770986   -6.5204811    18.886172  0.030266301  0.039359997            2 
   53000    1.2026803   -6.5835326    19.405108  0.030511177  0.039210609            4 
   54000    1.1777128   -6.5415895    19.833377  0.030607062   0.03908692            2 
   55000    1.1778065   -6.5941631    20.117229  0.030480649  0.038960355            2 
   56000    1.2002315   -6.5538196    20.564751  0.030602307  0.038813534            3 
   57000    1.1808931   -6.5550711    20.978797  0.030670756  0.038684541            3 
   58000    1.1974302   -6.5552849    21.332268   0.03064981  0.038531711            3 
   59000    1.1864098   -6.5791434    21.675354  0.030614906  0.038375716            4 
   60000    1.1814742   -6.5560537    22.097794   0.03069138  0.038213333            2 
   61000    1.1990754    -6.519348    22.508003  0.030748638  0.038056127            2 
   62000    1.1575539   -6.5707816    22.902957  0.030783544  0.037916326            2 
   63000    1.1631659   -6.5561223    23.373321  0.030917091  0.037796631            1 
   64000    1.1664637   -6.5881389    23.875283  0.031087608  0.037692927            2 
   65000    1.1757522   -6.6107042    24.315099  0.031173204  0.037608358            2 
   66000    1.1720821   -6.5656817    24.619871  0.031085695  0.037522386            2 
   67000    1.1539437   -6.5732354    25.113907  0.031236202  0.037430014            1 
   68000    1.1479846    -6.563289    25.522414  0.031277468  0.037346892            2 
   69000    1.1543607   -6.6094906     25.92502   0.03131041  0.037264094            2 
   70000    1.1800969   -6.6073187    26.540515   0.03159585   0.03720673            3 
   71000     1.128833   -6.6218787     26.94347   0.03162379  0.037164191            4 
   72000    1.1575272   -6.5815546    27.297645  0.031594497  0.037126255            2 
   73000    1.1548322    -6.601897    27.774546  0.031706102  0.037080057            1 
   74000    1.1513643    -6.598585    28.225998  0.031786034  0.037035497            3 
   75000    1.1620963   -6.6106403    28.663149  0.031847943  0.037005881            2 
   76000    1.1649878   -6.6116637    29.137967  0.031949525  0.036974102            3 
   77000    1.1350943   -6.6755308    29.355284  0.031769788  0.036941121            3 
   78000    1.1661454   -6.6380412    29.895341  0.031939467  0.036892737            2 
   79000    1.1406157   -6.6362703    30.269632  0.031929992  0.036852258            5 
   80000    1.1406126   -6.6039681    30.794228   0.03207732  0.036816651            2 
   81000    1.1458772   -6.6476046    31.301567  0.032203258   0.03678931            3 
   82000    1.1383474   -6.6213697    31.810342  0.032327583  0.036777422            1 
   83000    1.1410237   -6.6047293    32.232008  0.032361454  0.036763568            4 
   84000    1.1297492   -6.6239545    32.627639  0.032368689  0.036745933            3 
   85000    1.1595866   -6.6179903     33.25824  0.032606118  0.036730247            2 
   86000    1.1240744    -6.654227    33.579097  0.032537885  0.036723084            2 
   87000     1.154916   -6.6404068      34.0749  0.032638793  0.036716029            3 
   88000    1.1402999   -6.6422512    34.376598  0.032553597  0.036712355            4 
   89000     1.112838   -6.6694937    34.900651  0.032678512  0.036701599            4 
   90000    1.1131592   -6.6554603    35.374566  0.032754228  0.036694864            3 
   91000    1.1309471   -6.6385061    35.690802  0.032683884  0.036686372            2 
   92000    1.1421449   -6.6691071    36.143061   0.03273828  0.036673939            2 
   93000    1.1200921   -6.6612314    36.378778  0.032597471  0.036657398            5 
   94000    1.1246291    -6.660736     36.84125  0.032660682  0.036633515            6 
   95000    1.1085902   -6.6898241    37.357081  0.032769369  0.036615053            4 
   96000    1.1247576   -6.7052209    37.556097  0.032600779  0.036596814            2 
   97000    1.0933102    -6.672349    38.015481  0.032659348  0.036571783            2 
   98000    1.0902819   -6.7185118    38.356885  0.032616398  0.036541277            2 
   99000    1.1124299   -6.6726691    38.768418  0.032633348  0.036509479            3 
  100000    1.0936262   -6.6911061    39.197316   0.03266443  0.036480609            3 
  101000     1.100518   -6.7075454    39.472388  0.032567976  0.036451738            2 
  102000    1.1241144   -6.7197826    39.880616  0.032582203  0.036415697            2 
  103000    1.0981734   -6.7448359    39.987383  0.032352251  0.036372477            1 
  104000    1.1269684   -6.6841015    40.489725   0.03244369  0.036319972            3 
  105000     1.108583   -6.7384454    40.711602  0.032310795  0.036268241            2 
  106000    1.0949206   -6.7407094    41.237365  0.032419312  0.036216145            2 
  107000    1.0955828    -6.713986    41.520909  0.032337156  0.036165968            5 
  108000    1.1135765   -6.6985695    41.945976  0.032365722  0.036115965            3 
  109000    1.1186495   -6.6977325    42.400866  0.032416564  0.036069355            5 
  110000    1.1160398   -6.7503331    42.859219  0.032469105  0.036026975            2 
  111000    1.1101415   -6.7772477    43.411909  0.032591523  0.035988697            2 
  112000    1.0800234   -6.7605858    43.759779  0.032559359  0.035955314            2 
  113000    1.0930454   -6.7726762    44.285415  0.032658861  0.035919058            4 
  114000    1.0881023   -6.6774152    44.548506  0.032564697  0.035889693            2 
  115000    1.1062646   -6.7197782    45.037892  0.032636154  0.035856785            2 
  116000    1.0700832   -6.7915156    45.255841   0.03251138  0.035820452            2 
  117000    1.0877653   -6.7251717    45.645092  0.032510749  0.035780921            1 
  118000    1.0633288   -6.7439927    45.824192  0.032361718  0.035737076            2 
  119000    1.0993724   -6.7629738    46.086236  0.032273274  0.035687037            2 
  120000    1.0976141   -6.7466209    46.354744  0.032190795  0.035633354            1 
  121000     1.069243   -6.7491175    46.707092  0.032167418  0.035576622            3 
  122000    1.0616888   -6.7652151    47.090697  0.032165776  0.035520906            6 
  123000    1.0679629   -6.7577999    47.571102  0.032229744  0.035466768            3 
  124000    1.0903887   -6.7558595    47.847447  0.032155543  0.035409935            5 
  125000    1.0777977   -6.7632359    48.052982  0.032035321  0.035354423            4 
  126000    1.0603956    -6.759622    48.390828  0.032004515  0.035295538            3 
  127000    1.0439406   -6.7776947    48.905666  0.032090332  0.035235274            3 
  128000    1.0656799   -6.7551866    49.308358  0.032101795  0.035183285            4 
  129000    1.0599356   -6.7881787    49.527927  0.031994785  0.035130364            4 
  130000      1.07975   -6.8279643    49.761712  0.031898533  0.035073503            1 
  131000    1.0314057   -6.7530698     50.12529  0.031886317  0.035016218            2 
  132000    1.0615948   -6.8115613    50.586209  0.031935738  0.034961395            7 
  133000     1.049118   -6.8228314    50.873942  0.031875903  0.034901999            1 
  134000      1.04472   -6.8304977    50.979698  0.031703792  0.034841262            2 
  135000    1.0588438   -6.8336166    51.230625  0.031623843  0.034778316            2 
  136000    1.0438658   -6.8161727    51.334191  0.031454774  0.034710744            2 
  137000    1.0699872    -6.828572    51.603509  0.031388996  0.034640222            2 
  138000    1.0575381   -6.8215083    52.020682  0.031413455  0.034571411            3 
  139000    1.0702251   -6.8368881    52.271215  0.031337659  0.034503088            4 
  140000    1.0726294   -6.8502325    52.806285  0.031432313   0.03443706            2 
  141000    1.0306571   -6.7815998     53.21957  0.031453646   0.03437227            2 
  142000    1.0239331   -6.8149062     53.39117  0.031332846  0.034307568            4 
  143000     1.066566   -6.8137644    53.533439  0.031196643  0.034238563            2 
  144000    1.0558926   -6.8360539    53.794298  0.031130959  0.034167848            3 
  145000    1.0312529   -6.8329284    54.075635  0.031077951  0.034096774            5 
  146000    1.0322119   -6.8561344    54.208821  0.030941108  0.034022599            2 
  147000    1.0334191   -6.8666857    54.534999  0.030915532  0.033946537            3 
  148000      1.03544   -6.8364795    54.762709  0.030834859  0.033871315            4 
  149000    1.0263501   -6.8518196    55.110377  0.030822358  0.033795982            4 
  150000    1.0591084   -6.8395743    55.462604  0.030812557   0.03372102            1 
  151000    1.0526953   -6.8347929    55.532038   0.03064682  0.033644207            5 
  152000    1.0299124   -6.8547716    55.840692  0.030614414  0.033564383            2 
  153000    1.0083448   -6.8202895    56.000101  0.030501144  0.033481895            3 
  154000    1.0170077   -6.8336943    56.175949   0.03039824  0.033400464            2 
  155000    1.0319392   -6.8709589    56.418135   0.03033233  0.033318639            5 
  156000    1.0160009   -6.8335097    56.946145  0.030419949  0.033237525           11 
  157000    1.0167008   -6.8996037    57.043567  0.030277902  0.033159107            5 
  158000    1.0014521   -6.8760689    57.228078  0.030183585  0.033075555            3 
  159000    1.0021151   -6.8955919    57.336108  0.030050371  0.032991459            5 
  160000     1.028921   -6.8845629    57.742275  0.030074101  0.032908443            3 
  161000   0.99317504   -6.9168134    57.967353  0.030003806   0.03282718            3 
  162000    1.0297571   -6.8855511    58.402298  0.030042334  0.032745752            6 
  163000   0.99330257   -6.9120907    58.507583  0.029911852  0.032665705            1 
  164000   0.99121694   -6.9068661    58.742613  0.029848889  0.032583928            4 
  165000    1.0089312   -6.8711604    59.124626  0.029860922  0.032502271            1 
  166000   0.98376615   -6.9176086    59.115055  0.029676232  0.032421313            7 
  167000    1.0171769   -6.9419806    59.085225  0.029483645  0.032338013            2 
  168000   0.98503318   -6.9088187    59.298507  0.029413942   0.03225013            2 
  169000   0.98164444   -6.9029428    60.153369  0.029661425  0.032166191            8 
  170000   0.97972916   -6.9092455    60.238609   0.02952873  0.032085789            8 
  171000    1.0171703   -6.9134792    60.409486  0.029439321  0.032004948            3 
  172000   0.97214924   -6.8859422    60.631507   0.02937573  0.031920762            5 
  173000   0.99600709   -6.9378441    60.926044  0.029347805  0.031839008            5 
  174000    1.0007964   -6.9295576    61.200277  0.029310478  0.031759103            6 
  175000   0.99150846   -6.9570436    61.701614  0.029381721  0.031683168            4 
  176000    0.9772118   -6.9528343    62.082266  0.029395012  0.031609312            2 
  177000   0.98431713   -6.9686256    62.384634  0.029371297  0.031537997            3 
  178000   0.98043701   -6.9283238    62.680664   0.02934488  0.031467944            2 
  179000   0.97845362   -6.9194404    62.801415  0.029237158  0.031398012            5 
  180000   0.97635406   -6.9717916    63.270894   0.02929208  0.031328886            3 
  181000    1.0049637   -6.9583759    63.399711  0.029189554  0.031260352            4 
  182000   0.99093665   -6.9476398    63.594983  0.029118582  0.031190386            5 
  183000   0.97195725   -6.9449763    64.139374  0.029207365  0.031122889            2 
  184000     0.969914   -6.9927875    64.351115  0.029144527  0.031058609            3 
  185000   0.99380397   -6.9557798    64.525342  0.029065469  0.030994295            3 
  186000   0.94368217   -6.9899269    64.719004  0.028995969  0.030929028            7 
  187000   0.97384342   -6.9939894    65.121372  0.029020219  0.030863219            4 
  188000   0.95258982   -6.9506332    65.255525  0.028925321  0.030797261            2 
  189000   0.95779493   -6.9685736    65.368147  0.028821934  0.030730742            4 
  190000    0.9380987   -6.9943717    65.473957  0.028716648  0.030660886            3 
  191000    0.9642691   -6.9976338    65.715297  0.028671596  0.030590968            6 
  192000   0.97262275   -6.9875802    65.713718  0.028521579  0.030519861            3 
  193000   0.96740066   -6.9916387    65.731992  0.028381689  0.030445482            3 
  194000   0.94867929   -6.9855927    65.858718  0.028289827  0.030369353            5 
  195000   0.95283804   -6.9991054    66.056288  0.028229183  0.030293966            2 
  196000   0.95160326   -7.0270113    66.086798  0.028098128  0.030217444            5 
  197000   0.96853091   -6.9722957    66.428119  0.028099881  0.030140064            3 
  198000   0.95570587   -7.0027732    66.605534  0.028032632  0.030063418            4 
  199000     0.952088   -7.0185769     66.53188  0.027860921  0.029984818            3 
  200000   0.96651066   -7.0305598    66.814346  0.027839311  0.029906839            3 
  201000    0.9468128    -6.992968    66.864387  0.027721554  0.029828661            5 
  202000   0.93264323   -6.9976134    67.161981  0.027707088  0.029750822            5 
  203000   0.92920554   -6.9977968    67.538409  0.027725127  0.029674157            5 
  204000   0.93537318   -7.0420407    67.530208  0.027585869   0.02959822            4 
  205000   0.94801325   -7.0411534    67.990821  0.027638545  0.029521857            8 
  206000   0.92933785   -7.0340008    68.107166  0.027551442  0.029446412            4 
  207000   0.93637815   -7.0135553    68.575556  0.027606907  0.029373279            5 
  208000   0.91952905   -7.0474941    68.766893  0.027550838  0.029300008            3 
  209000   0.92999223   -7.0213507    68.663336  0.027377726  0.029227186            3 
  210000   0.95386765   -7.0883054    68.902305  0.027342184  0.029152829            4 
  211000   0.91597019   -7.0788674    68.903841  0.027213207  0.029078155            2 
  212000   0.91711082   -7.0502094    69.198865  0.027200812  0.029004186            5 
  213000   0.91390169   -7.0252299    69.815987  0.027314549  0.028930784            2 
  214000   0.92101541   -7.0676854    70.056499  0.027280568  0.028858867            5 
  215000   0.92459607   -7.0636933    69.869633  0.027081253  0.028786653            3 
  216000   0.93193825   -7.0958911    69.884406  0.026961576  0.028713265            3 
  217000   0.95139487   -7.0742183    70.046821  0.026899701  0.028638673            4 
  218000   0.92968129   -7.0915125    69.943004  0.026736622  0.028563255            4 
  219000   0.90830714   -7.1332211    70.441911   0.02680438  0.028488383            3 
  220000   0.94318604   -7.0855107    70.548196  0.026722801  0.028412758            4 
  221000   0.91460744   -7.0937451    70.469029  0.026572032  0.028336252            5 
  222000   0.91456847   -7.0723637    70.365618   0.02641352  0.028259248            4 
  223000   0.90078647   -7.1269025    70.601445  0.026383201   0.02818227            3 
  224000   0.88282346    -7.081985    70.999858  0.026413638  0.028104872            4 
  225000   0.91179915    -7.120687    70.845496  0.026239072  0.028026858            6 
  226000    0.9109758   -7.1034631    71.144714  0.026233302  0.027949326            5 
  227000   0.90074778   -7.1188078     71.11884  0.026108238  0.027872405            2 
  228000   0.89763244   -7.1108002    71.686383  0.026201163  0.027796336            2 
  229000   0.90476117   -7.1469846    71.677579  0.026083544  0.027719794            2 
  230000   0.89992644   -7.0970771    71.843272  0.026030171  0.027642582            5 
  231000   0.91653344   -7.1127395    71.850271  0.025920011  0.027565989            6 
  232000   0.89431188   -7.1154276    71.862062  0.025812522  0.027488862            4 
  233000   0.89204658   -7.1230622    71.947227  0.025732199  0.027410126            5 
  234000    0.8976722   -7.1373965    72.070564  0.025666155  0.027331644            5 
  235000    0.8772816   -7.0996478    72.311348  0.025642322  0.027253861            5 
  236000   0.89210454    -7.154847    72.331712  0.025540859  0.027174866            4 
  237000   0.89517394   -7.1157349    72.268458   0.02541085  0.027095806            8 
  238000   0.89054097   -7.1321481    72.399327  0.025349904  0.027016515            2 
  239000   0.88682151   -7.1217182    72.602932   0.02531483  0.026937278            6 
  240000   0.87346625   -7.1580601    72.788224  0.025273689  0.026857926            7 
  241000   0.88157843   -7.1604548     72.74451  0.025153703  0.026779831            4 
  242000   0.87467283   -7.1209538    73.132543  0.025183383   0.02670122            5 
  243000   0.88380279   -7.1443528    73.128238  0.025078271  0.026622846           10 
  244000   0.87426867   -7.1947421     73.29648  0.025032951  0.026544801            6 
  245000   0.87043801   -7.1340451    73.208659  0.024900904  0.026466704            8 
  246000   0.88745623   -7.1783439    73.645056  0.024947512  0.026390514            3 
  247000   0.87062853   -7.2246508    73.829356  0.024908689  0.026314202           12 
  248000   0.87807296   -7.2051673    73.759932  0.024784923   0.02623873            6 
  249000   0.87126144   -7.1786424    74.053733  0.024783713  0.026162943            4 
  250000   0.86145788    -7.194397    74.119376  0.024706459  0.026087044            4 
  251000    0.8638974   -7.1849985    74.189034  0.024631153  0.026011874           10 
  252000   0.85721479   -7.2028494    74.288693  0.024566367  0.025936449            4 
  253000   0.85880836   -7.1928821    74.271677  0.024463662  0.025860037            3 
  254000   0.85807961   -7.1911406    74.495973  0.024440936  0.025783859            6 
  255000   0.87935824   -7.2086781    74.631492  0.024389376   0.02570883            4 
  256000   0.84506932   -7.2310733    74.951418  0.024398248  0.025634774            3 
  257000   0.86305592   -7.1944625    75.186987  0.024379698  0.025561992            4 
  258000   0.86837662   -7.1926399     75.42342   0.02436157  0.025490945            9 
  259000    0.8541621   -7.1923933    75.693813  0.024354509  0.025419561            3 
  260000   0.87565856   -7.1916425    75.370871   0.02415733  0.025348688            4 
  261000   0.84739602   -7.2254049    75.675699  0.024162101   0.02527714           16 
  262000   0.84310429   -7.2340352    75.869166  0.024131414  0.025205776            3 
  263000   0.83859341   -7.2649619     75.73691  0.023997754  0.025134635            7 
  264000   0.83686249   -7.2131491    75.941923  0.023971567  0.025063499            7 
  265000   0.84203081   -7.2621983    76.037443  0.023911146  0.024992608            4 
  266000   0.83561576   -7.2589948    75.957411  0.023796181  0.024921007            8 
  267000   0.85810692   -7.2053776    76.252439  0.023799138  0.024850136            4 
  268000   0.84007017   -7.2552436    76.450417  0.023771896  0.024779023            3 
  269000   0.84850704   -7.2451835    76.485635  0.023694434  0.024708785            3 
  270000     0.832192   -7.2453801    76.667704  0.023662872  0.024639356            2 
  271000   0.83798355   -7.2273647    76.941228  0.023659664  0.024570675            6 
  272000   0.83782548   -7.2525271    76.743216  0.023512015  0.024502485            4 
  273000   0.81461303   -7.2686381    76.714578  0.023417148    0.0244332            7 
  274000   0.81199321   -7.2682743    76.958965  0.023406011  0.024364193            3 
  275000   0.84200435   -7.2540975    77.402434  0.023455283    0.0242959            5 
  276000    0.8265524   -7.2852295    77.137781  0.023290393  0.024228269            9 
  277000   0.81081363   -7.2654034     77.33656  0.023266113  0.024160145            4 
  278000   0.81897709   -7.3002816    77.328069  0.023179877   0.02409197            4 
  279000   0.82914256    -7.291313    77.464578  0.023137568  0.024023576            6 
  280000   0.80804096   -7.2692217    77.708207  0.023127442  0.023955727            6 
  281000   0.81991824   -7.2681021    77.909414  0.023104808   0.02388875            3 
  282000   0.80937639   -7.2962202    77.808132  0.022992947  0.023821813            4 
  283000   0.80686803   -7.3034528    78.101383  0.022998052  0.023755561            5 
  284000   0.81276092   -7.2643593    78.323858  0.022982353  0.023689519            4 
  285000   0.81618017   -7.3124001    78.445234  0.022937203  0.023623665            4 
  286000   0.80724067   -7.3287256    78.210268  0.022788539  0.023557395            8 
  287000    0.7986663   -7.3196742    78.192597  0.022704006  0.023490736            7 
  288000   0.79340777   -7.3001613    78.281002  0.022650753  0.023423566            4 
  289000   0.79343174   -7.3209616    78.358389  0.022594691  0.023356665            2 
  290000   0.81560134   -7.3070949    78.435507  0.022538939  0.023290018            5 
  291000   0.79407773   -7.3299778    78.530744  0.022488758  0.023223447            6 
  292000   0.80356231   -7.3332773    78.775597   0.02248162  0.023157479            4 
  293000   0.79928928   -7.3205138    78.830876  0.022420613   0.02309267            5 
  294000   0.79356661   -7.3213588    78.969533  0.022383654  0.023027975            5 
  295000   0.80051895    -7.319886     78.97779   0.02231011  0.022963309            7 
  296000   0.79126465   -7.3264685    78.894035  0.022211158   0.02289866            7 
  297000   0.80565331   -7.3453521    79.262684   0.02223981   0.02283378            9 
  298000   0.79376324   -7.3582207    79.138669    0.0221305   0.02276895            4 
  299000   0.79627722   -7.3300712    79.396861  0.022128445  0.022704481            5 
  300000   0.78264712    -7.331858    79.518974  0.022088604  0.022640305            4 
  301000   0.81143375   -7.3502138     79.57224  0.022029967  0.022576664            6 
  302000   0.80252656   -7.3572333    79.481372  0.021931946  0.022512759            7 
  303000   0.77356738   -7.3506539    79.666764  0.021910551  0.022448967            4 
  304000   0.77964409   -7.3634669    79.683644  0.021843104  0.022385837            6 
  305000   0.76994428    -7.361528     79.70655  0.021777746  0.022322737            7 
  306000    0.7835867   -7.4110666    79.725804   0.02171182  0.022259361            7 
  307000   0.76569895   -7.4018177    79.954035   0.02170305  0.022195959            4 
  308000   0.77356276   -7.3958537    79.849184  0.021604216  0.022132935            5 
  309000   0.77295435   -7.3794214    80.057883  0.021590583  0.022069641            5 
  310000   0.77128024     -7.41003    79.850773  0.021465261  0.022006397            7 
  311000   0.77186804   -7.4013319     80.00778  0.021438312  0.021943381            4 
  312000   0.77361789   -7.3975984    80.116446  0.021398623  0.021880942            5 
  313000    0.7602592   -7.3976003    80.159559  0.021341735  0.021818558            4 
  314000   0.78004546    -7.408995    80.246207  0.021296764  0.021755776            5 
  315000   0.75520627   -7.4307377    80.303622  0.021244344  0.021692954            6 
  316000   0.77110172   -7.4143279    80.473664  0.021221958  0.021630495           11 
  317000   0.77920851   -7.4189068    80.505648   0.02116342  0.021568101            5 
  318000   0.76469132   -7.4163879    80.354511  0.021057262   0.02150612            5 
  319000     0.755016   -7.4290418    80.547669  0.021041711  0.021444178            4 
  320000   0.74851343   -7.4246555    80.634228  0.020998497  0.021382218            4 
  321000    0.7583927   -7.4320227     80.64752  0.020936532  0.021320511            8 
  322000   0.75535825    -7.456768    80.762522  0.020901274  0.021259141            8 
  323000   0.74460198   -7.4579918    80.759666  0.020835827  0.021197989            8 
  324000   0.74812589   -7.4737425    80.678426  0.020750624  0.021136718           10 
  325000   0.75670955   -7.4512878    80.849776  0.020730712  0.021075115           11 
  326000   0.73573141   -7.4524705    80.890376  0.020677499  0.021014223            9 
  327000   0.74580687   -7.4730426    80.747246  0.020577789  0.020953484            5 
  328000   0.74633869   -7.4612026    80.905659    0.0205553  0.020892363            8 
  329000   0.74257649   -7.4567966      80.8559  0.020480218  0.020831211            8 
  330000   0.75222245   -7.4768365    80.826123  0.020410637  0.020770225            9 
  331000   0.73746264    -7.487339    80.991354  0.020390573  0.020709258            5 
  332000     0.723216   -7.4522264    81.189163  0.020378806  0.020648839            4 
  333000   0.73461766   -7.4698829    81.191943  0.020318304  0.020588604            8 
  334000   0.73544377   -7.4969426    81.205297  0.020260803  0.020528525            8 
  335000   0.71983901   -7.4808587    81.178467  0.020193648  0.020468089            8 
  336000   0.72499723   -7.4787605    81.198926  0.020138622  0.020407407            5 
  337000   0.71870011   -7.4871339    81.351375  0.020116562  0.020346683           11 
  338000   0.72062188   -7.4858227    81.166246  0.020011402  0.020286113            5 
  339000   0.72301483   -7.4820233     81.41034  0.020012375  0.020226056            9 
  340000    0.7239045    -7.466396    81.410798  0.019953627  0.020166119            6 
  341000   0.72255396   -7.4941832    81.288642  0.019865259  0.020106082            9 
  342000   0.72797727   -7.4904506    81.325135  0.019816066  0.020046174            5 
  343000   0.71218709   -7.5194046    81.313482  0.019755462   0.01998637            6 
  344000   0.70836587   -7.5156289    81.440738  0.019728861  0.019926832            6 
  345000   0.73832034   -7.5033028    81.468605  0.019678407  0.019867561           11 
  346000    0.7135567   -7.5281288    81.387315  0.019601954   0.01980826            4 
  347000   0.72000523   -7.4967861    81.631635  0.019604139  0.019748977            5 
  348000   0.71264249   -7.5271598    81.483543  0.019512343  0.019689978            5 
  349000   0.70462462   -7.5592349    81.484817  0.019456738  0.019630732            9 
  350000   0.70841786   -7.5464261    81.446658  0.019392061  0.019571301            7 
  351000   0.70856125   -7.5266922    81.278473  0.019296883  0.019512271            4 
  352000   0.70622248   -7.5517297    81.343333  0.019257418  0.019453334            7 
  353000   0.68876734   -7.5437135    81.561833  0.019254446  0.019394448            6 
  354000   0.71607037    -7.517091    81.616042  0.019212816  0.019335851            4 
  355000   0.70767935   -7.5577756    81.524042  0.019137099  0.019277504            7 
  356000   0.68850193   -7.5561804    81.692797  0.019122846  0.019218792            6 
  357000   0.70306026   -7.5649915    81.857598  0.019107749  0.019160433           10 
  358000   0.70694399   -7.5537328    81.832282  0.019048483  0.019102494           11 
  359000   0.69507854   -7.5787594    81.617546  0.018945577  0.019044677            7 
  360000   0.66182727   -7.5691402    81.703423  0.018912829   0.01898693           14 
  361000   0.69330119   -7.5558032    81.670477  0.018852834  0.018929332            4 
  362000   0.68949257   -7.5618221      81.8323  0.018838006  0.018871759            4 
  363000   0.67530783   -7.5767651    81.684721  0.018752232  0.018814164            7 
  364000   0.68581181   -7.5863288    81.652043  0.018693233   0.01875671            6 
  365000   0.66069665   -7.5490496    81.852652   0.01868782  0.018699411            9 
  366000   0.67571387   -7.5772932    81.849122  0.018635957  0.018642497           11 
  367000    0.6839431   -7.5990454    81.715092  0.018554744  0.018585458            4 
  368000   0.67654914     -7.57844    81.908172  0.018548046  0.018528504            7 
  369000   0.68469471    -7.587796    81.696594  0.018449999   0.01847153            4 
  370000   0.67500862   -7.6137681    81.771977  0.018417112  0.018414382            5 
  371000   0.66711055   -7.6027829    81.816843  0.018377548  0.018357578            5 
  372000   0.66478275    -7.588965    81.751343  0.018313473  0.018300911            7 
  373000   0.67130491    -7.617145    81.558691  0.018221334  0.018244237           19 
  374000   0.65825772   -7.5953966    81.637919  0.018190267   0.01818761            6 
  375000   0.67110137   -7.6146326    81.591891  0.018131531  0.018131091            7 
  376000   0.66016837   -7.6163617    81.815262  0.018132815  0.018074849            8 
  377000   0.66591848   -7.6361352      81.8638  0.018095446  0.018018691            7 
  378000   0.65791122   -7.6428793    81.950354  0.018066657   0.01796285            5 
  379000   0.66201367   -7.6523601    81.779352  0.017981388  0.017907356            5 
  380000   0.65276462   -7.6618335    81.900521   0.01796064   0.01785185            5 
  381000   0.65479789   -7.6340098    81.772998  0.017885608  0.017796549            4 
  382000   0.65294279   -7.6532608    82.110411  0.017912393  0.017741429            9 
  383000   0.64025766   -7.6588139    81.866404  0.017812534  0.017686565           12 
  384000   0.64953989   -7.6770398    82.004674  0.017796153  0.017631662           10 
  385000   0.65728414   -7.6734152    81.997063  0.017748282  0.017576891            7 
  386000   0.64912226    -7.674339    81.735093  0.017645746  0.017522314            8 
  387000   0.64407145   -7.6859408    82.118567  0.017682723  0.017467878            8 
  388000   0.64907409   -7.6604473    82.037952  0.017619835  0.017413765            7 
  389000   0.61472099   -7.6717891    82.011108  0.017568789  0.017359925            7 
  390000   0.64018347   -7.6609273     82.09921  0.017542566  0.017306461            8 
  391000   0.62772311   -7.6735123    82.124941  0.017503184  0.017253073           11 
  392000   0.65219648   -7.6469859    82.191648  0.017472714   0.01719982            6 
  393000   0.63520671   -7.6818598     82.15885    0.0174213  0.017146658            8 
  394000   0.61958509   -7.6933284    82.097754  0.017364161  0.017093709           10 
  395000   0.63608043    -7.678244    82.132582  0.017327549  0.017040987            8 
  396000   0.62417164   -7.6975197    82.246501  0.017307765  0.016988651            9 
  397000   0.62680767    -7.709637    82.191371  0.017252597  0.016936405            5 
  398000   0.63730374   -7.7061305    82.232144  0.017217786  0.016884293           10 
  399000    0.6305827   -7.7340144    82.369811  0.017203386  0.016832641           16 
  400000    0.6442253   -7.7093088    82.291542  0.017144071  0.016781078            9 
  401000   0.62356421   -7.7294499    82.261622    0.0170951  0.016729675            8 
  402000   0.62821289   -7.7196964    82.440162  0.017089586   0.01667852           12 
  403000   0.61961554   -7.7329214    82.410654  0.017041078  0.016627387           13 
  404000   0.62747266   -7.7332461    82.257778  0.016967363   0.01657629           14 
  405000   0.61849813   -7.7373774    82.139333  0.016901097  0.016525251           21 
  406000    0.6151601    -7.699647    82.278178  0.016887968  0.016474395           20 
  407000   0.62129839   -7.7273751    82.211183  0.016832757  0.016423769            6 
  408000   0.61178775   -7.7251268    82.213825  0.016792039   0.01637326           14 
  409000   0.60885964   -7.7459669    82.294178  0.016767355  0.016322858           13 
  410000   0.61285361   -7.7352702    82.384101  0.016744736  0.016272583            8 
  411000   0.61171981    -7.739735    82.237143  0.016674198  0.016222381           25 
  412000   0.60881197    -7.741922    82.329532  0.016652413  0.016172365           15 
  413000   0.61744147   -7.7558952    82.269254   0.01659993  0.016122521           18 
  414000   0.58950479   -7.7530943    82.303544  0.016566736  0.016072823            7 
  415000   0.60233778   -7.7491167    82.441566  0.016554531  0.016023228           12 
  416000   0.60069158   -7.7609891    82.282383  0.016482849  0.015973874            7 
  417000   0.60828668   -7.7802903    82.164667  0.016419798  0.015924614           10 
  418000   0.58619544   -7.7649439    82.440539  0.016435514  0.015875646           11 
  419000   0.60826147   -7.7766093    82.279614  0.016364283  0.015826854            9 
  420000   0.59095492    -7.755517    82.314655  0.016332273  0.015778156           11 
  421000    0.6004446   -7.7900025    82.117816  0.016254516  0.015729407           12 
  422000   0.59379313   -7.7745316    82.344752  0.016260812  0.015680954           11 
  423000    0.5859713    -7.760682    82.417937  0.016236788  0.015632573            9 
  424000   0.59647045   -7.7879268    82.233843  0.016162312  0.015584352            8 
  425000    0.5844479   -7.7977962    82.283053  0.016133932  0.015536314            9 
  426000   0.59679559   -7.7978895    82.183812  0.016076646  0.015488551           10 
  427000   0.58568757   -7.7757167    82.241907  0.016050333  0.015440904            7 
  428000   0.56464278     -7.76858    82.299443  0.016024035  0.015393476           13 
  429000   0.58458844    -7.791157    82.340391  0.015994637  0.015346153           11 
  430000   0.58025165   -7.8033738    82.175453  0.015925475  0.015298941           14 
  431000    0.5808783   -7.8112302    82.261749  0.015905211  0.015251826           17 
  432000   0.58534141   -7.7901592    82.172411   0.01585116  0.015204782           14 
  433000   0.58084889   -7.8313639     82.36904  0.015852394  0.015157878            9 
  434000   0.58481502   -7.8084938    82.265373  0.015795963  0.015111119           19 
  435000   0.56930971   -7.8088373    82.347461  0.015775376  0.015064439           11 
  436000   0.56574078    -7.823222    82.279257  0.015726158  0.015017929            9 
  437000   0.55776232   -7.8299464     82.30306   0.01569471   0.01497146            9 
  438000   0.57451548   -7.8286585    82.234889  0.015645907  0.014925201            8 
  439000    0.5610911   -7.8469095    82.346446  0.015631444  0.014879126           10 
  440000   0.56511827   -7.8182241    82.126431  0.015554248   0.01483323           20 
  441000   0.56232465   -7.8272999    82.257566  0.015543758  0.014787488           10 
  442000   0.55271516   -7.8366448    82.203204  0.015498342  0.014741961           10 
  443000    0.5457557   -7.8431524    82.214965  0.015465569  0.014696471           10 
  444000   0.54932685   -7.8408453    82.234183  0.015434344  0.014651149            8 
  445000   0.55637509   -7.8516866    82.267633  0.015405924  0.014606071            9 
  446000   0.55543665   -7.8656092    82.126344  0.015344982  0.014561082           15 
  447000   0.54862092   -7.8572013    82.289631  0.015341095  0.014516209           10 
  448000   0.55971854   -7.8625735    82.271453   0.01530347  0.014471521            5 
  449000   0.54589338    -7.865182    82.238303  0.015263234  0.014426989           10 
  450000    0.5512302   -7.8636779    82.097313  0.015203206  0.014382615            6 
  451000   0.54713732   -7.8753991     82.12528  0.015174664  0.014338322           15 
  452000   0.53674528   -7.8784041    82.120215  0.015140158  0.014294156           18 
  453000   0.53430734   -7.8737309    82.191118  0.015119779  0.014250126           13 
  454000   0.54864905   -7.8514065    82.188071  0.015085916  0.014206199            9 
  455000   0.54594781   -7.8930927    82.166148  0.015048745  0.014162464           11 
  456000   0.54330033   -7.8746955    82.046408  0.014993861  0.014118933           10 
  457000   0.53216793   -7.8785216    82.150614  0.014980054  0.014075483           12 
  458000   0.54475514    -7.878178    82.228113  0.014961447  0.014032231            9 
  459000   0.54361215   -7.9083221    81.941325  0.014876784  0.013989082           10 
  460000   0.53700195   -7.9025639    82.060243  0.014865986  0.013946013           16 
  461000    0.5268046   -7.9011488    82.033214  0.014828853  0.013903145           10 
  462000   0.53550652   -7.9078325    82.128934  0.014814021  0.013860434            9 
  463000   0.54027634   -7.9100837    82.251996  0.014804175  0.013817891            8 
  464000   0.53155201   -7.9060806    82.085109  0.014742297  0.013775396            7 
  465000   0.53740125   -7.8946966    82.093367  0.014712073  0.013732999           16 
  466000   0.52643037   -7.8965455    82.070188  0.014676357  0.013690735            7 
  467000   0.53123326   -7.9109498    82.226136  0.014672758  0.013648606            8 
  468000   0.52337751   -7.9100445    81.913403   0.01458572  0.013606584           13 
  469000   0.51596445   -7.9186875    82.105181  0.014588696  0.013564737           11 
  470000   0.51774862   -7.9221591    81.934377  0.014527372  0.013523099           12 
  471000   0.51245019   -7.9178642    82.002887  0.014508649   0.01348148           11 
  472000   0.52181427   -7.9301374    81.978464  0.014473599  0.013440061           10 
  473000   0.50859506   -7.9207917    81.950478  0.014438069  0.013398799           15 
  474000   0.51464808   -7.9089498    81.901175  0.014398941  0.013357756           17 
  475000   0.51140557    -7.936578    82.102137  0.014403884  0.013316825           14 
  476000   0.51180414   -7.9363851    81.968525  0.014350232  0.013275961           29 
  477000   0.50179211   -7.9364047    82.111841  0.014345185  0.013235259           17 
  478000   0.51012736   -7.9339306    81.980194  0.014292223  0.013194653           13 
  479000    0.4944782   -7.9544566    81.854156  0.014240459  0.013154116           21 
  480000   0.49263535   -7.9537614    81.877997   0.01421493  0.013113754           15 
  481000   0.49259414   -7.9604851    81.944612  0.014196918  0.013073511           15 
  482000   0.50497906   -7.9391685    81.766923  0.014136743  0.013033405           13 
  483000   0.49538242   -7.9535195    81.965386  0.014141716   0.01299343           12 
  484000   0.49086878   -7.9613505      81.8379  0.014090548  0.012953604           15 
  485000   0.49022621   -7.9582493    81.860454   0.01406537  0.012914011           13 
  486000   0.47760346   -7.9476056    81.955429  0.014052714  0.012874493           13 
  487000   0.49786662   -7.9651747    81.775575  0.013993083  0.012835085           15 
  488000   0.48786257   -7.9697748    81.859913   0.01397881  0.012795751           11 
  489000   0.48101645   -7.9865324     81.90616  0.013958105  0.012756544           11 
  490000   0.48871453   -7.9728821    81.766641  0.013905891  0.012717473           19 
  491000   0.48804675   -7.9637366    81.834899  0.013889155  0.012678557           13 
  492000    0.4828311    -7.970627    81.846405  0.013862873  0.012639724           12 
  493000   0.48233005   -7.9816436    81.758138  0.013819834  0.012601047           24 
  494000   0.49030336   -7.9922403    81.618651  0.013768328  0.012562498           12 
  495000   0.47844586    -7.983383    81.788974  0.013769187  0.012524054           16 
  496000   0.46992768   -7.9881708    81.726059  0.013730857  0.012485807           15 
  497000   0.46747014   -8.0063108    81.705211  0.013699734  0.012447644           13 
  498000   0.47639466   -7.9905327    81.623383  0.013658531  0.012409694           12 
  499000   0.47247332   -7.9847007    81.604417  0.013627992  0.012371861           20 
  500000    0.4701596   -7.9905114    81.689367  0.013614894  0.012334155           15 
  501000   0.46824318   -7.9911186    81.689955  0.013587817  0.012296583           14 
  502000   0.46052719   -8.0044316    81.812953  0.013581168  0.012259202           25 
  503000   0.46787163   -7.9929696    81.797791  0.013551655  0.012221951           21 
  504000    0.4675782   -7.9982136    81.635262  0.013497894  0.012184791           20 
  505000   0.46017396   -7.9995507    81.651776   0.01347389  0.012147738           12 
  506000   0.44919967   -8.0275757    81.622721  0.013442477   0.01211086           15 
  507000   0.45726316   -8.0119916    81.672714   0.01342418  0.012074086           17 
  508000   0.46096955   -8.0099777    81.609109  0.013387321  0.012037457           18 
  509000   0.45421794    -8.043784    81.599395  0.013359429  0.012000943           12 
  510000   0.45087571   -8.0264191     81.69481  0.013348825  0.011964579           16 
  511000   0.44501311   -8.0187278    81.599191  0.013307109  0.011928338           21 
  512000   0.44273231   -8.0389893    81.624242  0.013285196  0.011892223           10 
Loop time of 1120.16 on 48 procs for 500000 steps with 4000 atoms

Performance: 77131.508 tau/day, 446.363 timesteps/s
99.4% CPU use with 48 MPI tasks x no OpenMP threads

MPI task timing breakdown:
Section |  min time  |  avg time  |  max time  |%varavg| %total
---------------------------------------------------------------
Pair    | 66.943     | 73.263     | 80.118     |  33.3 |  6.54
Neigh   | 7.0093     | 7.3628     | 7.7072     |   6.1 |  0.66
Comm    | 64.498     | 71.592     | 78.471     |  38.9 |  6.39
Output  | 0.88138    | 0.882      | 0.89182    |   0.2 |  0.08
Modify  | 951.55     | 955.02     | 959.76     |   5.5 | 85.26
Other   |            | 12.04      |            |       |  1.08

Nlocal:        83.3333 ave          89 max          73 min
Histogram: 1 0 2 2 3 12 10 6 4 8
Nghost:        1882.40 ave        1921 max        1855 min
Histogram: 3 3 7 16 4 5 7 1 1 1
Neighs:        11772.0 ave       13104 max       10000 min
Histogram: 1 1 4 6 7 10 3 5 7 4
FullNghs:      23544.5 ave       25542 max       20256 min
Histogram: 1 0 2 3 6 9 9 7 6 5

Total # of neighbors = 1130138
Ave neighs/atom = 282.53450
Neighbor list builds = 26933
Dangerous builds = 0

#clear
#
#next RN
#
#jump SELF
Total wall time: 0:18:43
