
units lj                  # Use reduced LJ style units
atom_style atomic         # Uncharged point particles
atom_modify map hash      # Needed for indexing of clusters etc
                          # Used to be able to find where atoms are in relation to each other.

lattice fcc 1.0 spacing 1 1 1
Lattice spacing in x,y,z = 1.5874011 1.5874011 1.5874011
region box block 0 10 0 10 0 10 units lattice
create_box 2 box
Created orthogonal box = (0.0000000 0.0000000 0.0000000) to (15.874011 15.874011 15.874011)
  3 by 4 by 4 MPI processor grid
create_atoms 1 box
Created 4000 atoms
  using lattice units in orthogonal box = (0.0000000 0.0000000 0.0000000) to (15.874011 15.874011 15.874011)
  create_atoms CPU = 0.002 seconds
set type 1 type/fraction 2 0.53 78393
Setting atom values ...
  2126 settings made for type/fraction
mass 1 1.0
mass 2 1.0
pair_style lj/cut  3.5
pair_modify tail  yes
pair_coeff 1  1  1.0  1.0   # Intearaction between 1 and 1 set with epsilon = 1 and sigma = 1
pair_coeff 1  2  1.5  0.8
pair_coeff 2  2  0.5  0.88

write_data data.0
System init for write_data ...
Neighbor list info ...
  update every 1 steps, delay 10 steps, check yes
  max neighbors/atom: 2000, page size: 100000
  master list distance cutoff = 3.8
  ghost atom cutoff = 3.8
  binsize = 1.9, bins = 9 9 9
  1 neighbor lists, perpetual/occasional/extra = 1 0 0
  (1) pair lj/cut, perpetual
      attributes: half, newton on
      pair build: half/bin/atomonly/newton
      stencil: half/bin/3d
      bin: standard
WARNING: Not all mixed pair coeffs generated from mixing. Use write_data with 'pair ij' option to store all pair coeffs. (../write_data.cpp:312)


#############################
#   M E L T   S Y S T E M   #
#############################

velocity all create 2.4 3143649 mom yes dist gaussian # Assign velocities
                                                    # Temperature 2.4, random number seed, zero linear momentum
                                                                                # Gaussian distribution

timestep 0.002   # simulation timestep
thermo 1000       # output thermodynamic data every 1000 steps bf 100

# Define a fix  in this case with index 1 applied to all
# particles in the simulation. This fix is for simulations
# in the anisotropic NPT ensemble. Note that we use the MTK
# correction.
fix 1 all npt temp 2.4 2.4 0.1 iso 5.68 5.68 0.5 mtk yes tchain 5 pchain 5 # Use NPT ensemble
                                                                         # Set temperature and pressure and damping
                                                                         # Numbers of thermostats in chain and in barostat
run 10000          # run for 10000 steps
Per MPI rank memory allocation (min/avg/max) = 3.642 | 3.644 | 3.648 Mbytes
Step Temp E_pair E_mol TotEng Press Volume 
       0          2.4   -5.1225569            0   -1.5234569   -4.1795691         4000 
    1000    2.4387307   -4.7459079            0   -1.0887264    6.0638735    3650.4977 
    2000    2.4091344   -4.7575447            0   -1.1447465    5.6635348    3682.8571 
    3000    2.3915336    -4.771799            0   -1.1853954    5.7487257    3661.6898 
    4000    2.3858009   -4.8226015            0   -1.2447948    5.5751643    3659.5925 
    5000    2.4048355   -4.8186178            0   -1.2122663    5.3824109    3670.7928 
    6000    2.4081476   -4.8645426            0   -1.2532243       5.4702    3634.9768 
    7000    2.3914697    -4.782678            0   -1.1963702    5.5258184    3672.9872 
    8000    2.4212486   -4.7684765            0   -1.1375116    6.0062278    3650.0327 
    9000    2.4340365   -4.7910218            0   -1.1408798    5.8619574     3658.878 
   10000    2.4050846   -4.7762068            0   -1.1694817    5.6358177    3674.4636 
Loop time of 2.66436 on 48 procs for 10000 steps with 4000 atoms

Performance: 648559.861 tau/day, 3753.240 timesteps/s
99.6% CPU use with 48 MPI tasks x no OpenMP threads

MPI task timing breakdown:
Section |  min time  |  avg time  |  max time  |%varavg| %total
---------------------------------------------------------------
Pair    | 1.168      | 1.2593     | 1.4059     |   3.0 | 47.26
Neigh   | 0.21553    | 0.22209    | 0.25044    |   1.0 |  8.34
Comm    | 0.72265    | 0.87249    | 0.95003    |   4.5 | 32.75
Output  | 0.00024701 | 0.00024985 | 0.00031406 |   0.0 |  0.01
Modify  | 0.25621    | 0.29467    | 0.33556    |   4.7 | 11.06
Other   |            | 0.0156     |            |       |  0.59

Nlocal:        83.3333 ave          92 max          72 min
Histogram: 1 2 2 3 8 9 8 5 5 5
Nghost:        1736.46 ave        1766 max        1712 min
Histogram: 3 2 9 9 2 9 4 8 1 1
Neighs:        10384.4 ave       11813 max        8813 min
Histogram: 2 1 4 6 9 11 4 5 4 2

Total # of neighbors = 498449
Ave neighs/atom = 124.61225
Neighbor list builds = 903
Dangerous builds = 195

# Equilibrate just above the melting temperature to avoid step fn in T

fix 1 all npt temp 1.25 1.25 0.1 iso 5.68 5.68 0.5 mtk yes tchain 5 pchain 5
run 2000
Per MPI rank memory allocation (min/avg/max) = 3.644 | 3.646 | 3.649 Mbytes
Step Temp E_pair E_mol TotEng Press Volume 
   10000    2.4050846   -4.7762068            0   -1.1694817    5.6358177    3674.4636 
   11000    1.2788491   -6.8513995            0   -4.9336054    6.2033236    2834.6656 
   12000    1.2644795   -6.9640111            0    -5.067766    5.7500091    2822.2971 
Loop time of 0.64488 on 48 procs for 2000 steps with 4000 atoms

Performance: 535913.936 tau/day, 3101.354 timesteps/s
99.6% CPU use with 48 MPI tasks x no OpenMP threads

MPI task timing breakdown:
Section |  min time  |  avg time  |  max time  |%varavg| %total
---------------------------------------------------------------
Pair    | 0.28796    | 0.31821    | 0.3489     |   2.1 | 49.34
Neigh   | 0.040565   | 0.043237   | 0.048344   |   0.6 |  6.70
Comm    | 0.19908    | 0.23402    | 0.26734    |   2.8 | 36.29
Output  | 5.1826e-05 | 6.1993e-05 | 7.9228e-05 |   0.0 |  0.01
Modify  | 0.039892   | 0.044469   | 0.04867    |   1.1 |  6.90
Other   |            | 0.00488    |            |       |  0.76

Nlocal:        83.3333 ave          89 max          77 min
Histogram: 2 3 3 4 6 16 5 3 1 5
Nghost:        2073.08 ave        2100 max        2047 min
Histogram: 1 4 5 8 8 6 4 9 2 1
Neighs:        13521.0 ave       15358 max       12285 min
Histogram: 4 2 7 13 8 7 4 2 0 1

Total # of neighbors = 649006
Ave neighs/atom = 162.25150
Neighbor list builds = 143
Dangerous builds = 13

#############################
# L I N E A R  Q U E N C H  #
#############################

# Define solid atoms. This closely follows ten Wolde  Ruiz-Montero and Frenkel  Faraday Discuss  1996  104  93-110
# Compute components of the per-atom q6 vector
compute q6 all orientorder/atom degrees 1 6 components 6 nnn NULL cutoff 1.3 # compute the Q6 parameter.
                                                                             # Use all neighbours within 1.3 unit cell.

# get number of connections
compute coord_number all coord/atom orientorder q6 0.5

# An atom is solid if it has 8 or more connections (of a possible 14)
variable is_solid atom c_coord_number>=8
group solid dynamic all var is_solid    # Must be dynamic to update
dynamic group solid defined

# do clustering
compute cluster solid cluster/atom 1.3 # Create a cluster where all atoms within are solid and max 1.3 units from another member

# define chunks one chunk per cluster
compute clus_chunks solid chunk/atom c_cluster nchunk every compress yes  # Says which atoms are in which chunk

# count the size of each chunk
compute size_chunks solid property/chunk clus_chunks count


# Find the maximum entry in the vector of chunk sizes
variable max_n equal max(c_size_chunks)


# Thermo style which includes this variable
# thermo_style custom step temp pe vol v_max_n

thermo ${N}  # Print the thermo information every 100 steps
thermo 1000  

# Reset the npt fix at a lower temperature (below freezing)
fix 1  all npt temp  ${temp} ${temp}  0.1  iso  5.68  5.68  0.5  mtk yes tchain  5  pchain  5
fix 1  all npt temp  0.45 ${temp}  0.1  iso  5.68  5.68  0.5  mtk yes tchain  5  pchain  5
fix 1  all npt temp  0.45 0.45  0.1  iso  5.68  5.68  0.5  mtk yes tchain  5  pchain  5

dump dmp2 all dcd ${N} traj.dcd
dump dmp2 all dcd 1000 traj.dcd


compute msd all msd com yes
variable twopoint equal c_msd[4]/6/(step*dt+1.0e-6)
fix 9 all vector 10 c_msd[4]
variable fit equal slope(f_9)/6/(10*dt)
thermo_style custom step temp pe c_msd[4] v_twopoint v_fit v_max_n

fix 1 all npt temp 1.25 ${temp} 0.1 iso 5.68 5.68 0.5 mtk yes tchain 5 pchain 5
fix 1 all npt temp 1.25 0.45 0.1 iso 5.68 5.68 0.5 mtk yes tchain 5 pchain 5
run 2000000 # 5000000  # Run for this many steps
Neighbor list info ...
  update every 1 steps, delay 10 steps, check yes
  max neighbors/atom: 2000, page size: 100000
  master list distance cutoff = 3.8
  ghost atom cutoff = 3.8
  binsize = 1.9, bins = 8 8 8
  4 neighbor lists, perpetual/occasional/extra = 1 3 0
  (1) pair lj/cut, perpetual
      attributes: half, newton on
      pair build: half/bin/atomonly/newton
      stencil: half/bin/3d
      bin: standard
  (2) compute orientorder/atom, occasional
      attributes: full, newton on
      pair build: full/bin/atomonly
      stencil: full/bin/3d
      bin: standard
  (3) compute coord/atom, occasional
      attributes: full, newton on
      pair build: full/bin/atomonly
      stencil: full/bin/3d
      bin: standard
  (4) compute cluster/atom, occasional
      attributes: full, newton on
      pair build: full/bin/atomonly
      stencil: full/bin/3d
      bin: standard
Per MPI rank memory allocation (min/avg/max) = 9.841 | 9.846 | 9.850 Mbytes
Step Temp PotEng c_msd[4] v_twopoint v_fit v_max_n 
   12000    1.2644795   -6.9640111 3.906242e-30 2.7126679e-32 8.3333333e+20            5 
   13000    1.2435998    -7.029417    0.4419593 0.0028330724  0.035794514            3 
   14000    1.2186282   -7.0254323   0.85711183  0.005101856  0.034305505            2 
   15000    1.2216047   -6.9828573    1.2895547 0.0071641923  0.034534058            3 
   16000    1.2084864   -7.0554953    1.6765055 0.0087317991   0.03443657            3 
   17000    1.2619399   -7.0131223    2.0983457  0.010286008  0.034123905            1 
   18000    1.2918369   -6.9816241    2.5349057  0.011735674  0.034424136            2 
   19000    1.2530941    -6.974304    2.9334103  0.012865834   0.03466419            4 
   20000    1.2532072   -7.0172774    3.3808604  0.014086918  0.034579123            6 
   21000    1.2468448   -7.0654295    3.8423078  0.015247253  0.034890008            3 
   22000     1.274105   -7.0295609    4.2848742  0.016230584  0.035186592            4 
   23000    1.2519024   -7.0324243    4.5946973  0.016647454  0.035186014            3 
   24000    1.2592463   -7.0203947    4.9709486  0.017260238  0.034919548            1 
   25000    1.2525168   -7.0106531    5.4095252   0.01803175  0.034708764            2 
   26000    1.2586993   -7.0482389    5.7679217  0.018486928   0.03460004            2 
   27000    1.2505503   -7.0146872    6.1959137   0.01912319   0.03446642            1 
   28000    1.2379802   -7.0484587    6.5791294  0.019580742  0.034368122            2 
   29000    1.2480123   -6.9795814    6.9497178  0.019970453  0.034199939            1 
   30000    1.2538376   -7.0437589    7.2872999  0.020242499  0.033981295            2 
   31000    1.2363764   -7.0291574    7.7121849   0.02073168  0.033815455            4 
   32000    1.2281829   -7.0575377     8.180725  0.021303971    0.0337446            3 
   33000    1.2471458   -7.0356571     8.514945  0.021502386  0.033704288            3 
   34000    1.2658988   -7.0502463    8.9144959  0.021849254  0.033641281            2 
   35000    1.2321384   -7.0788634    9.2281247  0.021971725  0.033551837            1 
   36000    1.2392911   -7.0308788    9.7652379  0.022604717  0.033495824            1 
   37000    1.2353638   -7.0063965    10.269726  0.023130014  0.033551148            1 
   38000    1.2232186   -7.0067809     10.75754  0.023591095  0.033645338            2 
   39000    1.2446955   -7.0269826    11.199454  0.023930457  0.033737728            3 
   40000     1.226325   -7.0931608    11.579852  0.024124691  0.033829115            2 
   41000    1.2405435   -7.0381319    12.032876  0.024457065  0.033913729            3 
   42000    1.2703094   -7.0790618    12.331305  0.024466875  0.033971795            2 
   43000    1.2456858   -7.0609133    12.725999  0.024662789  0.033983352            2 
   44000     1.244334   -7.0684515    13.135286  0.024877436  0.034005117            2 
   45000    1.2469801   -7.0400517    13.389463  0.024795301  0.033972449            1 
   46000     1.249965   -7.0993353    13.799347  0.024998817  0.033938805            3 
   47000    1.2105376   -7.0762031    14.371361  0.025481136  0.033930752            2 
   48000    1.2628999   -7.0729093    14.649564   0.02543327  0.033924207            2 
   49000     1.213017   -7.0417474    15.129525  0.025730485  0.033903897            2 
   50000    1.2486629   -7.0874484    15.434394   0.02572399   0.03388904            3 
   51000    1.2486795   -7.0476939    15.874734  0.025939107  0.033884014            4 
   52000    1.2390296   -7.0879975    16.386624  0.026260614  0.033893802            3 
   53000    1.2532062   -7.0683267    16.725216  0.026297509  0.033904467            2 
   54000    1.2400671   -7.1210009    16.966175  0.026182368  0.033877612            3 
   55000    1.2437571   -7.0517731    17.319428  0.026241557  0.033835073            3 
   56000    1.2354172   -7.0041122    17.811891  0.026505791  0.033792014            2 
   57000    1.1963358   -7.0877412    18.076681  0.026427897  0.033743801            2 
   58000    1.2265574   -7.0843223    18.419113  0.026464243   0.03368029            1 
   59000    1.2647732   -7.0525946    18.779449  0.026524646  0.033604184            3 
   60000    1.2404812   -7.0824801    19.233891  0.026713737  0.033540688            1 
   61000    1.2413396   -7.0731574    19.701294  0.026914336  0.033506436            1 
   62000    1.2436046   -7.1089931    20.032678  0.026925642  0.033471436            2 
   63000    1.2340433   -7.0826688    20.386133  0.026965784  0.033432287            2 
   64000    1.2149452   -7.0388069    20.774448  0.027050063  0.033387695            1 
   65000    1.2472196   -7.0291222    21.165333  0.027135042  0.033346035            2 
   66000    1.2349763   -7.0422477    21.493486  0.027138239   0.03330984            3 
   67000    1.2514486   -7.0664172    21.938796   0.02728706  0.033266921            8 
   68000    1.2370832    -7.056872    22.367343   0.02741096  0.033232235            2 
   69000    1.2269066   -7.1529328    22.632835  0.027334341  0.033198904            2 
   70000    1.2367601   -7.0623375    23.086733  0.027484206  0.033151134            2 
   71000    1.2273285    -7.079467    23.447792  0.027520883  0.033112569            2 
   72000    1.2410602   -7.1002829    23.644829    0.0273667    0.0330672            3 
   73000      1.22552   -7.0873506    24.000936  0.027398329  0.033012488            2 
   74000    1.2345541   -7.0895597    24.421517  0.027501708  0.032961736            3 
   75000    1.2107171   -7.0583814    24.936986  0.027707762  0.032923963            1 
   76000    1.2585592   -7.0696052    25.406898  0.027858441  0.032896051            1 
   77000    1.2304609   -7.0857353    25.542048  0.027642909  0.032865512            4 
   78000    1.2160263   -7.1015855    25.796931  0.027560824  0.032823052            1 
   79000    1.2099063   -7.1225233    25.981401  0.027406541  0.032752819            2 
   80000    1.2158787   -7.1317362    26.335308  0.027432613  0.032678434            1 
   81000    1.2401039   -7.1012441    26.699926  0.027469059  0.032613733            3 
   82000    1.2105605   -7.0853496    27.274834  0.027718327  0.032559302            2 
   83000     1.218292   -7.0853169    27.756766  0.027868239  0.032516681            1 
   84000    1.2072551   -7.1016777    28.126824  0.027903596  0.032480297            4 
   85000    1.2101146    -7.054945    28.637458  0.028075939  0.032451248            1 
   86000    1.2438235   -7.0747106    28.796681  0.027903761  0.032414816            6 
   87000    1.2230218   -7.0846615    28.864697  0.027648177  0.032363155            1 
   88000    1.2366767   -7.1426092    29.141677  0.027596285    0.0322986            2 
   89000    1.2198951   -7.1011084    29.501848  0.027623453  0.032237817            1 
   90000    1.2314524   -7.0861944    30.169406  0.027934635  0.032191642            1 
   91000    1.2159208   -7.0905264    30.475918   0.02790835  0.032152016            2 
   92000    1.2754028   -7.0896211    30.996432  0.028076478  0.032117755            1 
   93000    1.2137511   -7.1083845    31.251573  0.028003201  0.032087723            1 
   94000     1.224419   -7.1579967    31.459926  0.027890005  0.032049942            1 
   95000    1.2317132   -7.1275579    32.024318  0.028091507  0.032018203            2 
   96000    1.2275721   -7.1058362    32.495327  0.028207749  0.031993425            2 
   97000    1.2018521   -7.1540454    32.513159  0.027932267  0.031963312            3 
   98000    1.2224186   -7.1249731    32.866942  0.027948079  0.031922828            3 
   99000     1.217046    -7.106943    33.068038  0.027835048   0.03187901            2 
  100000    1.2308454   -7.0765566    33.523862  0.027936551   0.03183285            2 
  101000    1.2301381   -7.1032091    34.085283  0.028123171  0.031798826            1 
  102000    1.2149356   -7.0914832    34.380362  0.028088531  0.031764702            1 
  103000    1.2215978   -7.0977946    34.664497   0.02804571  0.031722549            3 
  104000    1.2059393   -7.1472116    34.912037  0.027974388  0.031684393            2 
  105000    1.2344244   -7.1351274    35.224472   0.02795593  0.031643811            1 
  106000    1.2024292   -7.1196231     35.60316  0.027989906  0.031607657            3 
  107000    1.1840281   -7.0984794    35.887599  0.027949843  0.031566495            3 
  108000    1.2051844   -7.1102854    36.195743  0.027928814  0.031516806            2 
  109000    1.2240668   -7.0732915    36.275039   0.02773321   0.03146015            3 
  110000    1.2295093   -7.0914894     36.77335  0.027858598  0.031409834            2 
  111000     1.195906   -7.1041578    37.235552  0.027954618  0.031364427            2 
  112000    1.2118443   -7.0763516    37.508794  0.027908329   0.03131773            2 
  113000    1.2028255   -7.1166959    37.672462  0.027782051  0.031270474            4 
  114000    1.1885063   -7.1129268    38.132677  0.027874763  0.031224857           11 
  115000    1.2072792    -7.104047    38.507204  0.027903771  0.031183052            2 
  116000    1.1717312   -7.1336053    38.907242  0.027950605  0.031143136            4 
  117000     1.204685    -7.129907    39.085434  0.027838628  0.031104749            4 
  118000    1.1948626   -7.1097976    39.392919  0.027819858  0.031059714            3 
  119000    1.1895178   -7.0881192    39.580582  0.027717495   0.03100689            1 
  120000    1.1744006   -7.1725146    39.853115  0.027675774  0.030956435            5 
  121000    1.1974028   -7.1256404    40.296919  0.027752699  0.030908851            4 
  122000    1.2176888   -7.0875221    40.710926  0.027808009  0.030864238            1 
  123000    1.1969978   -7.1557187    41.047408  0.027809897  0.030823139            5 
  124000    1.2210119   -7.1357309    41.519654  0.027902993  0.030786086            1 
  125000    1.2247167   -7.1301312    41.661626  0.027774417  0.030748849            1 
  126000    1.2141729    -7.098156    42.121673  0.027858249  0.030713926            9 
  127000    1.2089483   -7.0935526    42.636749  0.027976869  0.030680619            3 
  128000    1.1936673   -7.0982895    43.044811  0.028023965  0.030649038            2 
  129000    1.2001174   -7.1006583    43.109376  0.027848434  0.030613392            1 
  130000    1.1996852    -7.103742    43.425358  0.027836768  0.030578424            3 
  131000    1.1825552   -7.1407461    43.680564  0.027786618  0.030543585            2 
  132000     1.227142   -7.1398532     44.20321  0.027906067  0.030508378            3 
  133000    1.2031392   -7.0843197    44.408699  0.027824999  0.030476013            2 
  134000    1.2156062    -7.177934    44.540107  0.027699071  0.030439719            8 
  135000    1.1945411   -7.1143206    45.101555  0.027840466  0.030404124            1 
  136000    1.1982516   -7.1395937     45.38308   0.02780826  0.030370579            2 
  137000    1.2078613   -7.1790992     45.77538  0.027843905  0.030338731            1 
  138000    1.1922827   -7.1860955    46.097034  0.027836373  0.030309045            4 
  139000    1.1846761     -7.16355    46.426292  0.027833509  0.030279381            4 
  140000    1.1748977     -7.14087    46.886085  0.027908384  0.030250662            2 
  141000    1.2168728   -7.1392755    47.190179  0.027890177  0.030223041            1 
  142000     1.220869   -7.1552927    47.423311  0.027830581  0.030194869            2 
  143000    1.2080557   -7.1375378    47.752928  0.027828047  0.030166688            2 
  144000    1.1772592   -7.1746221    47.891168  0.027714796   0.03013609            2 
  145000    1.1914794   -7.1396812    48.513146  0.027881118  0.030104572            1 
  146000    1.2049531   -7.1651547    48.508242  0.027687353  0.030075784            3 
  147000    1.2103874   -7.1502815     49.14388  0.027859342  0.030046546            4 
  148000    1.1958426   -7.1568302     49.52306  0.027884606   0.03002244            4 
  149000    1.1921353   -7.1768665    49.883659  0.027899138  0.029998409            3 
  150000    1.1955091   -7.1763852    49.999995  0.027777775  0.029973417            1 
  151000    1.2032609   -7.1853315    50.437728   0.02783539  0.029948363            3 
  152000    1.1943838    -7.196372    50.716582  0.027805143  0.029924287            7 
  153000    1.1905847   -7.1961653    51.261628  0.027920276  0.029901876            2 
  154000    1.1908369   -7.1278861    51.713446  0.027983466  0.029882393            5 
  155000    1.1695208   -7.1793191    51.885726  0.027895552  0.029862445            4 
  156000    1.2122024   -7.1712352    52.206491  0.027888083  0.029840998            4 
  157000    1.2008098   -7.1451084    52.588327  0.027913125  0.029822878            3 
  158000      1.18655   -7.1816066     52.84922  0.027874061  0.029804012            6 
  159000    1.1755018   -7.1905483    53.062061  0.027810304   0.02978247            3 
  160000    1.1632245    -7.190097    53.295999  0.027758333   0.02975733            1 
  161000    1.1850519   -7.1778837    53.678731  0.027784022  0.029731417            3 
  162000    1.1524043   -7.1680694    53.866045  0.027708871  0.029705373            2 
  163000    1.1706839   -7.2023542    54.054122  0.027635031  0.029680665            2 
  164000    1.2310668   -7.1833002    54.609371  0.027748664  0.029658067            4 
  165000    1.1953311   -7.1630586    54.977623  0.027766476   0.02963393            1 
  166000    1.1867753   -7.1675436    55.476381  0.027849589  0.029612519            1 
  167000    1.1977219   -7.2167778    55.509872  0.027699537  0.029589348            2 
  168000    1.1853068   -7.1687921    56.093454  0.027824134  0.029566144            3 
  169000    1.1623101   -7.1626822    56.268303  0.027745711  0.029546434            5 
  170000    1.1722264    -7.145639    56.663377  0.027776165  0.029527856            4 
  171000    1.1823755   -7.1975397    57.065309  0.027809605  0.029508001            1 
  172000    1.1998238   -7.1770248    57.240749  0.027732921  0.029488362            2 
  173000    1.1816577   -7.1303792    57.782624  0.027833634  0.029468443            5 
  174000    1.1978194   -7.1906409    57.988446  0.027772244  0.029449802            3 
  175000    1.1775785   -7.1644601    58.350988  0.027786185  0.029431143            2 
  176000    1.1823193   -7.2020027    58.822213  0.027851427   0.02941386            2 
  177000     1.154685   -7.1506924    59.097509  0.027823686  0.029396127            2 
  178000    1.1772578   -7.1940323    59.290204  0.027757586   0.02937766            2 
  179000    1.2079652    -7.184979     59.60975   0.02775128  0.029359264            3 
  180000    1.1632514   -7.1476719    60.047767  0.027799892  0.029339787            2 
  181000    1.1610018   -7.2002251    60.211024  0.027721466  0.029320214            1 
  182000    1.1553569   -7.2040108    60.106927  0.027521487  0.029297316            4 
  183000    1.1712005   -7.1628605    60.510356  0.027554807  0.029273763            3 
  184000    1.1851505   -7.2236337    60.963135  0.027610115  0.029252012            2 
  185000    1.1853159   -7.2299373    61.337452  0.027629483  0.029230092            3 
  186000    1.1716942   -7.1967121    61.394065  0.027506301   0.02920689            3 
  187000    1.1726794   -7.1860508    61.751264  0.027518389  0.029183725            2 
  188000    1.1785067   -7.2405455    61.921834  0.027447621  0.029160016            2 
  189000    1.1703758   -7.2238797    62.335282  0.027484692  0.029135504            3 
  190000    1.1519462   -7.1863412    62.545661  0.027432308  0.029111755            4 
  191000    1.1812692   -7.2261784    62.826634  0.027411271  0.029084901            4 
  192000    1.1891571   -7.2220704    63.057682  0.027368786  0.029057314            9 
  193000    1.1794876   -7.1973407    63.352332  0.027354202  0.029029043            2 
  194000    1.1742334    -7.177584    63.589271  0.027314979   0.02899974            5 
  195000    1.1688447    -7.249879    63.519357  0.027145024  0.028970913            3 
  196000    1.1700895   -7.1796601    64.125954  0.027264436  0.028941498            3 
  197000    1.1800089   -7.2465424    64.286737  0.027194051  0.028912431            3 
  198000    1.1450222   -7.2334744    64.204696  0.027022178  0.028881981            1 
  199000     1.170568   -7.1860785    64.754211  0.027116504  0.028851993            4 
  200000    1.1719204   -7.2067845    65.306109  0.027210879  0.028822951            1 
  201000    1.1510633   -7.1997061     65.55335  0.027178006  0.028794712            3 
  202000    1.1832171   -7.2328106    65.711881  0.027108862  0.028766547            1 
  203000    1.1562087   -7.2155534    66.101536  0.027135277  0.028738716            2 
  204000    1.1693571   -7.2225038    66.275242   0.02707322  0.028711206            4 
  205000     1.191155   -7.2300418    66.655473  0.027095721  0.028683018            1 
  206000    1.1804597   -7.2243115    66.904066  0.027064751  0.028655046            3 
  207000    1.1775233   -7.1998874    67.277201  0.027084219  0.028627567            7 
  208000    1.1840192   -7.2179725    67.390586  0.026999434  0.028599243            2 
  209000    1.1624828   -7.1880106    68.097832  0.027152245  0.028571568            2 
  210000    1.1699885    -7.222946    67.935931  0.026958703  0.028545085            2 
  211000    1.1583226    -7.211998    68.515857  0.027059975  0.028518362            4 
  212000    1.1693256   -7.2780004    68.483601  0.026919654    0.0284928            4 
  213000    1.1698138   -7.1958864    69.216316  0.027079936  0.028468179            2 
  214000    1.1865759   -7.1984746    69.703157  0.027142974  0.028443735            1 
  215000    1.1504642   -7.2273952    69.748328  0.027034235  0.028419244            4 
  216000    1.1787211   -7.2380685    70.039053  0.027021239  0.028395559            4 
  217000    1.1641383   -7.2446274    70.268477  0.026984822  0.028371192            2 
  218000    1.1632882   -7.2632827    70.388094  0.026906764  0.028344705            4 
  219000    1.1836485   -7.2498343    70.786367  0.026935452  0.028319326            1 
  220000    1.1751228   -7.2518764    71.268523  0.026995652  0.028294714            4 
  221000     1.177206   -7.2027102    71.832118  0.027086017  0.028271559            2 
  222000    1.1589663   -7.2431936    71.773603  0.026942043   0.02824828            3 
  223000    1.1444727   -7.2399346    71.972701  0.026895628  0.028224809            1 
  224000    1.1530934   -7.2447839    72.162504   0.02684617  0.028201095            7 
  225000    1.1623152   -7.2619166    72.602061  0.026889652  0.028178666            2 
  226000    1.1892047   -7.2468446    72.810019  0.026847352  0.028155276            2 
  227000    1.1811247   -7.2614919    73.110309  0.026839321  0.028131608            1 
  228000    1.1447696   -7.2552976    73.517432  0.026870406  0.028108552            2 
  229000    1.1802927   -7.2620563    73.913833  0.026897319  0.028086957            3 
  230000    1.1705641    -7.236543    74.073845   0.02683835  0.028066322            4 
  231000    1.1475955   -7.2573676     74.41672  0.026845859  0.028045932            3 
  232000    1.1748979   -7.2031554    74.584131  0.026790277  0.028024509            2 
  233000    1.1690649   -7.2009282    75.108674  0.026862902  0.028003756            3 
  234000    1.1727703   -7.2672813     75.25499   0.02680021  0.027983209            3 
  235000     1.161973   -7.2439829    75.552509   0.02679167  0.027963186            2 
  236000    1.1603895   -7.2226228    75.853055  0.026784271   0.02794162            2 
  237000    1.1626786   -7.2430219    76.415126  0.026868891  0.027920952            1 
  238000    1.1513816   -7.2413535    76.418878   0.02675731  0.027901053            7 
  239000    1.1722683   -7.2669599    76.719373   0.02675013  0.027879736            3 
  240000    1.1528787    -7.275978     76.74779  0.026648538   0.02785926            2 
  241000    1.1727779   -7.2493809    77.290519  0.026725629  0.027838829            4 
  242000      1.13997   -7.2786856    77.525964  0.026696268  0.027818373            5 
  243000     1.156409   -7.2661085    78.054943  0.026767813  0.027798298            5 
  244000    1.1577071   -7.2539312      78.0978  0.026672746  0.027777948            5 
  245000    1.1817442   -7.2703409    78.514202  0.026705511   0.02775809            1 
  246000    1.1904203   -7.2609038    78.829415  0.026703731  0.027737649            2 
  247000    1.1552042   -7.3053681    79.083298  0.026681275  0.027718363            2 
  248000    1.1785304   -7.2534605    79.440294  0.026693647  0.027700027            2 
  249000    1.1389485   -7.2351571    79.808944   0.02670982  0.027680224            2 
  250000    1.1468006     -7.26516    79.910615  0.026636872  0.027661876            2 
  251000    1.1545714   -7.2596963    80.443613  0.026707707  0.027644008            5 
  252000    1.1547501   -7.2364407    80.704946  0.026688143   0.02762589           11 
  253000     1.123306   -7.2606209     80.88955  0.026643462  0.027607192            4 
  254000    1.1351612   -7.2486875    80.985149  0.026569931  0.027588047            1 
  255000    1.1591778   -7.2534347    81.310906  0.026572192  0.027567475            3 
  256000    1.1635391   -7.2577652     81.71038  0.026598431  0.027546994            2 
  257000    1.1505808   -7.2548646    82.076981  0.026613807  0.027527079            6 
  258000    1.1482239   -7.2596262    81.934428  0.026464609  0.027506134            2 
  259000    1.1344398   -7.2772361    81.917734  0.026357057  0.027484015            2 
  260000    1.1598698   -7.2762388     82.46673  0.026431644   0.02746308            3 
  261000    1.1421377   -7.2487351    83.072027  0.026523636  0.027442447            2 
  262000    1.1280249   -7.2469361    83.637585  0.026602285  0.027423829            5 
  263000    1.1485455   -7.2757082    83.537249  0.026469344  0.027406111            2 
  264000    1.1696857    -7.242544    84.498389  0.026672471  0.027388835            2 
  265000    1.1482984   -7.2445564    84.448584  0.026556158  0.027372382            2 
  266000    1.1489376   -7.2549367    85.078319  0.026653609  0.027356676            4 
  267000    1.1634707   -7.2789761    85.201697   0.02659229   0.02733991            2 
  268000    1.1311141   -7.2844458     85.33975  0.026535992  0.027322371            3 
  269000    1.1558928   -7.3017705    85.484472  0.026482178  0.027304442            3 
  270000    1.1473189   -7.2558917    85.970453  0.026534091  0.027287745            3 
  271000    1.1364077   -7.3058444    86.188731    0.0265033  0.027272394            3 
  272000     1.159804   -7.2420093    86.712242   0.02656625    0.0272567            3 
  273000    1.1592904   -7.3200884    86.614827  0.026439202  0.027243211            3 
  274000    1.1364462   -7.2639398    87.464755  0.026601203  0.027228903            6 
  275000    1.1466025   -7.2519792    87.543711  0.026528397  0.027214569            2 
  276000    1.1283364   -7.3246497     87.29325  0.026356658  0.027200286            3 
  277000    1.1430899    -7.322055    87.985887  0.026469882  0.027185645            3 
  278000    1.1665828   -7.3069235    87.922502  0.026355666  0.027170992            2 
  279000    1.1416846   -7.3367572    88.205418  0.026345704  0.027155194            1 
  280000    1.1511085   -7.2750255    88.862093  0.026447051  0.027138835            6 
  281000    1.1251393   -7.2946034    88.746795  0.026318741   0.02712348            4 
  282000    1.1516624   -7.3292928    89.489501  0.026444888  0.027107301            1 
  283000    1.1276492   -7.3290968    89.425326  0.026332546   0.02709178            1 
  284000    1.1399167   -7.3075808      89.7506   0.02633527  0.027075562            3 
  285000    1.1441784   -7.3027602    90.000162  0.026315837  0.027059588            2 
  286000    1.1453896   -7.2624767    90.558885  0.026386621  0.027044042            7 
  287000    1.1607394   -7.2644668    90.966321  0.026412985  0.027028917            5 
  288000    1.1501785   -7.3661696    90.985393  0.026326792  0.027014631            1 
  289000    1.1423927   -7.3101241    91.518842  0.026389516  0.027000785            2 
  290000    1.1348017    -7.318827    91.844594  0.026392125  0.026987222            2 
  291000    1.1683212   -7.3121852     91.91914  0.026322778  0.026972729            3 
  292000    1.1422058   -7.3138895    92.079952  0.026278525  0.026958985            4 
  293000    1.1474083   -7.2864873     92.55055  0.026322682  0.026944025            1 
  294000    1.1338513   -7.3343813    92.525425  0.026226028   0.02692905            1 
  295000    1.1587368   -7.3076382    92.796149  0.026213601  0.026912961            2 
  296000     1.138989   -7.3300684    92.934407  0.026163966  0.026896901            4 
  297000    1.1448547   -7.3225307    93.551958  0.026249146  0.026882062            2 
  298000    1.1455603   -7.3493853    93.514453  0.026150574  0.026866517            4 
  299000    1.1505725   -7.3293786    93.907361   0.02617262  0.026850552            6 
  300000    1.1394406   -7.2877657    94.119754  0.026144376  0.026835534            2 
  301000    1.1059386   -7.2422386    94.789728  0.026243003  0.026822285            2 
  302000    1.1516308   -7.3139677    94.837433   0.02616927  0.026809775            2 
  303000    1.1332116   -7.2971566    95.897178  0.026374361  0.026797718            2 
  304000    1.1552488   -7.3291862    95.801848  0.026261471  0.026785297            3 
  305000    1.1441932   -7.3589079    95.884911  0.026198063  0.026773294            2 
  306000    1.1273644   -7.3339849    96.177419  0.026192108   0.02676135            3 
  307000    1.1263363   -7.3643435    96.859213   0.02629186  0.026748879            4 
  308000    1.1323754   -7.3693857    96.908138  0.026219734  0.026736385            2 
  309000    1.1222984   -7.3323177    97.182966  0.026208998  0.026724217            3 
  310000    1.1265801    -7.318173     97.75451  0.026278094  0.026711528            2 
  311000    1.1339433   -7.3245378    97.929052  0.026240367  0.026698672            2 
  312000    1.1279472   -7.3141115    97.768881  0.026113483  0.026685851            2 
  313000    1.1276823   -7.3652243    97.959371   0.02608077  0.026672648            2 
  314000    1.1232377   -7.3586792    98.220733  0.026067074  0.026658161            4 
  315000     1.115776   -7.3531902    97.916233  0.025903765  0.026642652            2 
  316000    1.1409235   -7.2822208    99.208507  0.026162581  0.026628353            3 
  317000    1.1217874   -7.3424715    99.007918  0.026027318  0.026614384            4 
  318000    1.1106794   -7.3335434    99.135721  0.025978963   0.02660101            2 
  319000    1.1385343   -7.3402407    99.681965  0.026040221   0.02658645            1 
  320000    1.1072654   -7.3479754    99.792921   0.02598774  0.026572187            4 
  321000    1.1294753   -7.2806531    99.986206  0.025956959  0.026558103            3 
  322000    1.1140188   -7.3236816    100.61388  0.026038789  0.026544339            3 
  323000    1.1726902   -7.3484563    100.94299  0.026043083  0.026530208            2 
  324000     1.110464   -7.2855255    101.15638  0.026017587  0.026516482            2 
  325000    1.1434749   -7.3218039    101.17808  0.025943099  0.026502736            2 
  326000    1.1183849   -7.3279582    101.39292  0.025918436  0.026488512            4 
  327000    1.1306438   -7.3086767    101.64827  0.025904249  0.026474102            2 
  328000    1.1246841     -7.32463    101.82642  0.025870533  0.026459907            4 
  329000    1.1308882   -7.3367636    102.39869  0.025936851  0.026444838            4 
  330000    1.1082836   -7.3423998    102.11696   0.02578711   0.02643037            4 
  331000    1.1254296   -7.3573133    102.59128  0.025828621  0.026415212            2 
  332000    1.1354255   -7.3735528    102.48395  0.025723882  0.026399919            2 
  333000    1.1362979    -7.347042    102.93629  0.025759832   0.02638345            2 
  334000     1.126957   -7.3936335    102.76237  0.025639313  0.026366343            1 
  335000    1.1317335    -7.330166    103.63972  0.025781024    0.0263501            2 
  336000     1.128523    -7.342307    104.09383  0.025816922  0.026334191            2 
  337000    1.1248578   -7.3316632    104.15954  0.025756563  0.026319169            3 
  338000    1.1100487   -7.3551921    104.38579  0.025736142  0.026304725            8 
  339000    1.1032374    -7.348902    105.19215  0.025858444      0.02629            2 
  340000    1.1187617   -7.3510092    105.02735  0.025741997  0.026275211            3 
  341000    1.1286353   -7.3440456    105.31211  0.025736097   0.02626025            2 
  342000    1.1187922    -7.361269    105.53778  0.025715833   0.02624599            3 
  343000    1.0909713   -7.3778143    105.67801   0.02567493   0.02623133            2 
  344000    1.1104295   -7.3072599    106.18193  0.025722366  0.026216445            2 
  345000    1.1095376   -7.3490104    105.99153  0.025601819  0.026201636            4 
  346000    1.1152091   -7.4000747    106.46645  0.025642209  0.026186621            2 
  347000    1.0977706   -7.3911457    106.71886  0.025628928  0.026171613            2 
  348000    1.1086313   -7.3424318    107.14152  0.025656494   0.02615718            2 
  349000    1.1056506   -7.3646968    107.09333  0.025571472  0.026141538            3 
  350000    1.1226368   -7.3916256    107.41736  0.025575562  0.026125845            4 
  351000     1.115163    -7.386833    107.41943  0.025503188  0.026110277            4 
  352000    1.1294159   -7.3482038    107.97947  0.025563321  0.026093471            3 
  353000    1.1149602   -7.3589562    107.93008  0.025479245  0.026076891            2 
  354000    1.1099361   -7.3719306    108.35839  0.025508097  0.026061454            4 
  355000    1.1237243   -7.3486513    108.74174  0.025526231  0.026045514            4 
  356000    1.1148758   -7.3479525    109.06008  0.025529046  0.026030324            7 
  357000    1.1077087   -7.3732879    109.28592  0.025510253  0.026015753            2 
  358000    1.1244239   -7.3554699    109.78591   0.02555538  0.026001452            2 
  359000    1.0920199   -7.3605987    109.99922  0.025533709  0.025986531            2 
  360000    1.1160957   -7.3674668    109.99492  0.025461787  0.025971617            3 
  361000    1.1004569   -7.3599449    110.25159  0.025450505  0.025956899            2 
  362000    1.1110678   -7.3321042     110.7304  0.025490423   0.02594325            3 
  363000    1.1229095   -7.3758989    110.50799  0.025369144  0.025928778            3 
  364000    1.1128838   -7.3933207    110.42109  0.025279554  0.025912923            2 
  365000    1.1079532    -7.428536    110.94238  0.025329311  0.025896671            5 
  366000      1.11967   -7.3841561    111.62079   0.02541457  0.025881132            3 
  367000    1.1144139   -7.4540949    111.28587   0.02526927  0.025866214            2 
  368000    1.1026732   -7.4055368    111.99412  0.025360988  0.025851441            5 
  369000    1.1014132   -7.3765174     112.3128  0.025364227  0.025837038            4 
  370000     1.103068   -7.4167507     112.2368  0.025278559  0.025822507            3 
  371000    1.1213224   -7.3915916    112.70773  0.025316202  0.025807561            2 
  372000    1.1057058   -7.4078663     112.5808  0.025219713  0.025792333            2 
  373000    1.0969882    -7.452001    112.79266  0.025199432  0.025777331            2 
  374000    1.1110567   -7.4385314    113.24754  0.025233409  0.025761636            5 
  375000    1.1183959   -7.4113054    113.58876  0.025241946  0.025746029            3 
  376000    1.0998014   -7.3923516    113.83245  0.025228824  0.025730654            2 
  377000    1.1210088   -7.4577689    113.87034  0.025170278  0.025715709            8 
  378000    1.1357536   -7.3732439    114.65468  0.025276604   0.02570069            2 
  379000    1.1049939   -7.4301365    114.48334  0.025172237  0.025686142            3 
  380000    1.1142316   -7.4567073    114.76694  0.025168188  0.025670576            4 
  381000    1.0906092    -7.382146    114.93139    0.0251381  0.025655783            4 
  382000    1.1203375   -7.4359386    115.30618  0.025154054  0.025640592            2 
  383000    1.1116689   -7.4480242    115.42202  0.025113581  0.025625143            7 
  384000    1.0832973   -7.4056007    115.48079  0.025060936  0.025609619            4 
  385000     1.086765   -7.3823491    116.03364  0.025115507  0.025594391            2 
  386000    1.1061898   -7.4152171    116.08287  0.025061068  0.025579681            3 
  387000    1.0894581   -7.4414863    116.63415  0.025115019  0.025564911            4 
  388000    1.0944583   -7.3956726    116.84483  0.025095539  0.025549842            3 
  389000    1.1182135    -7.444171    116.78084  0.025017317  0.025534412            3 
  390000    1.1129099   -7.4474657    117.16625  0.025035524  0.025518543            3 
  391000    1.1240217    -7.408508    117.68328  0.025081688  0.025503213            3 
  392000    1.0913209   -7.4013196    117.61071  0.025002277  0.025488135            4 
  393000    1.0974828    -7.428264    117.91724  0.025003655   0.02547254            6 
  394000    1.1034591   -7.4401528    117.47339  0.024846317  0.025456443            5 
  395000    1.0914225   -7.4254457    118.16658  0.024929659  0.025440394            3 
  396000    1.0997572   -7.4195291     118.8141  0.025002968   0.02542509            3 
  397000    1.1071229   -7.3923499    118.99895  0.024978789  0.025409846            6 
  398000    1.0735085   -7.3638222    119.05194  0.024927122  0.025394574            2 
  399000    1.0870444   -7.4254921    119.00299  0.024854426  0.025379379            2 
  400000    1.1139179   -7.4564383    118.84521  0.024759418  0.025363277            3 
  401000    1.0935421   -7.4001195    119.88097   0.02491292  0.025347352            2 
  402000    1.1045489   -7.4396281    120.13493  0.024903592  0.025332095            5 
  403000     1.099182   -7.4164377    120.22601  0.024860631  0.025315945            3 
  404000    1.0761793   -7.4485623    120.41132  0.024837318  0.025300301            3 
  405000    1.0960406   -7.4583258    120.29891  0.024752862  0.025284197            5 
  406000    1.0663908   -7.4588867    120.52974  0.024739273  0.025268815           11 
  407000     1.085409   -7.4353419    121.00454  0.024775705  0.025252887            2 
  408000    1.0909722    -7.443821    120.81747  0.024676771  0.025236808            3 
  409000    1.1006371   -7.4178773     121.5031  0.024756133   0.02521972            1 
  410000    1.0651853   -7.4443489    121.25529  0.024645385  0.025201459            4 
  411000     1.099995   -7.4514617    121.32147  0.024598838   0.02518376            2 
  412000    1.0997437   -7.5114868    120.89635  0.024453144  0.025165565            4 
  413000    1.1097323   -7.4280272    121.62616  0.024541195  0.025147318            2 
  414000    1.0748494   -7.4470133    121.80243  0.024517397  0.025129151            2 
  415000     1.077144   -7.4485357    121.76786  0.024451377   0.02511144            3 
  416000    1.0970116   -7.4206773    122.45911  0.024531072  0.025094134            3 
  417000    1.1162854   -7.4461233    122.66799  0.024513988  0.025077117            4 
  418000    1.0693466   -7.4441015    122.81986  0.024485617  0.025060313            6 
  419000     1.057204   -7.4472882    123.27761   0.02451822  0.025043154            3 
  420000    1.0999985   -7.4409184    123.24635   0.02445364  0.025025478            2 
  421000    1.0931112   -7.4633305    123.60203   0.02446596  0.025007667            3 
  422000    1.0853857   -7.4529951    123.97486  0.024481607  0.024989956            2 
  423000     1.100302   -7.4772365     123.9441  0.024417671  0.024972537            9 
  424000    1.0740936    -7.470491    124.10163  0.024391044  0.024955171            5 
  425000    1.0913396   -7.4713467      124.465  0.024404901  0.024937931            4 
  426000    1.0858911    -7.446439    124.85586  0.024424072  0.024920965            3 
  427000    1.0824818   -7.4224637    125.12153  0.024418723  0.024903534            4 
  428000    1.0863613   -7.4911873    125.17983  0.024373019  0.024886026            2 
  429000    1.0965725   -7.4672196    124.92519  0.024266742  0.024868288            4 
  430000    1.0662909   -7.4682554     124.9678  0.024218566  0.024849999            3 
  431000    1.0832458    -7.465875    124.91569  0.024152299  0.024831584            2 
  432000    1.0805209   -7.4843393    125.71085  0.024249778  0.024813216            4 
  433000    1.0583478   -7.4609532    125.95669  0.024241088  0.024794836            3 
  434000    1.0779512   -7.4549676    125.97718  0.024189166  0.024776706            3 
  435000      1.08159    -7.464841    126.44955  0.024224051  0.024758738            2 
  436000    1.0722748    -7.484304    126.34938  0.024149347   0.02474062            4 
  437000    1.0585282   -7.4492904    126.98351   0.02421501  0.024722506            7 
  438000    1.0838754   -7.5120981    126.78552  0.024122055  0.024705113            4 
  439000    1.0934914    -7.467864    127.01445  0.024110563  0.024686852            2 
  440000    1.0674667   -7.4902339     127.1741  0.024086005  0.024668639            4 
  441000    1.0607652   -7.4289541    127.35809  0.024066155  0.024650853            2 
  442000    1.0918905   -7.4913861    127.16979  0.023976205  0.024632658            5 
  443000    1.0673133   -7.4864891    127.68623   0.02401923  0.024614154            3 
  444000    1.0957535   -7.4611753    128.13897  0.024050106  0.024595639            2 
  445000    1.0653101   -7.4982013    128.19034  0.024005682  0.024577227            3 
  446000    1.0816357   -7.4636592    128.44639    0.0239997  0.024558834            5 
  447000    1.0529691   -7.4484789    128.86287  0.024023652  0.024540378            5 
  448000    1.0960731   -7.4662634    128.76465  0.023951758  0.024522005            3 
  449000    1.0727648   -7.4714231    128.55309  0.023859149  0.024503367            7 
  450000    1.0807208   -7.4572326    129.20841  0.023927483  0.024484726            3 
  451000     1.087659   -7.4929479    129.33975  0.023898698  0.024466473            2 
  452000     1.095044   -7.4663045    129.99188  0.023966054   0.02444796            3 
  453000    1.0784213   -7.5214149    129.76848  0.023872054  0.024429782            6 
  454000     1.082466    -7.447453    129.73791   0.02381386  0.024411657            3 
  455000    1.0759654   -7.5060643    130.14259  0.023835639  0.024393168            6 
  456000     1.099019   -7.4866037    130.19513   0.02379297   0.02437435            4 
  457000    1.0979068   -7.5125796     130.4795  0.023792761  0.024355181            4 
  458000      1.09729   -7.4750485    130.79591  0.023798383   0.02433637            3 
  459000    1.0568129   -7.4968313     130.6863  0.023726634  0.024317789            4 
  460000    1.0743225   -7.5107492    131.01568  0.023734724  0.024299204            3 
  461000    1.0605132   -7.4874048    131.31435  0.023737228   0.02428062            2 
  462000    1.0814403   -7.4808456    131.07241  0.023642209  0.024261757            1 
  463000    1.0529597   -7.4836748    131.78551  0.023719495  0.024243172            2 
  464000    1.0654783   -7.5376766    131.31333  0.023583571  0.024224221            2 
  465000    1.0617076   -7.5042983    132.07151   0.02366873  0.024205079            1 
  466000    1.0888978   -7.5198901    131.82158  0.023573244  0.024185979            4 
  467000    1.0931399   -7.4927694    132.22274   0.02359435   0.02416721            3 
  468000    1.0489097   -7.4855126    132.71776  0.023632079  0.024148828            2 
  469000    1.0725638   -7.5139773    132.89045  0.023612376  0.024130965            2 
  470000    1.0645946   -7.5465989    132.90473  0.023564668  0.024113048            2 
  471000    1.0627822   -7.5392112    132.86997  0.023508487  0.024094111            3 
  472000     1.069886   -7.5135309    133.42636  0.023556914  0.024075502            3 
  473000    1.0703234   -7.4814852    133.07188  0.023444657  0.024056323            1 
  474000    1.0483928   -7.5112149     133.9273  0.023545587  0.024037385            4 
  475000    1.0680877   -7.4883129    133.47932  0.023417425  0.024018308            2 
  476000    1.0442509   -7.5379433    133.88215  0.023438751  0.023999628            2 
  477000    1.0738813   -7.4860344    134.35397  0.023472042  0.023980755            2 
  478000     1.075429   -7.5525321    134.14833  0.023387087  0.023961986            2 
  479000    1.0389361   -7.4995211    134.67761  0.023430343  0.023943315            3 
  480000    1.0507209   -7.5185564    134.70111   0.02338561  0.023924893            7 
  481000    1.0686954   -7.5440134    134.75158  0.023345734  0.023906334            2 
  482000    1.0518882   -7.5032275    135.41845  0.023412596  0.023887987            7 
  483000    1.0448202   -7.5121882     135.3201  0.023347153  0.023869608            3 
  484000    1.0560072   -7.5025106    136.03385  0.023421807  0.023851029            7 
  485000    1.0763212   -7.5296137     135.4647  0.023275722  0.023832556            7 
  486000    1.0429536   -7.5425913    135.92782  0.023307239  0.023814097            2 
  487000    1.0461677   -7.5341459    136.40961  0.023341823  0.023796266            2 
  488000    1.0614726   -7.5106819    136.84247  0.023367908  0.023778735            3 
  489000    1.0535172   -7.5042822    136.76832  0.023307485  0.023761558            2 
  490000    1.0405849   -7.5292558    137.17116  0.023328429  0.023744203            2 
  491000     1.061306   -7.5721901    137.16871  0.023280501  0.023727099            5 
  492000    1.0501821   -7.5101078    137.49067  0.023287715  0.023709894            2 
  493000    1.0558125   -7.5134573    137.59377  0.023257905  0.023692343            3 
  494000    1.0513591   -7.5199355     137.4065  0.023179234   0.02367484            2 
  495000    1.0250417    -7.512964    138.10688  0.023250316  0.023656961            3 
  496000    1.0671082   -7.5793584    138.00539   0.02318639  0.023639377            4 
  497000    1.0667596   -7.4966257    138.24778  0.023180379  0.023621871            2 
  498000      1.04866   -7.5278406    138.35992  0.023152597  0.023604336            4 
  499000    1.0638929   -7.5127532    138.93462  0.023202175  0.023587112            4 
  500000    1.0703285   -7.5306679    138.75513  0.023125855  0.023569909            1 
  501000    1.0514325   -7.5113041    139.15231  0.023145759  0.023552466            5 
  502000    1.0708823   -7.5060697    139.49183  0.023156015  0.023535054            2 
  503000    1.0638205   -7.5516535    139.46827  0.023106075  0.023517758            3 
  504000    1.0696987   -7.5625414    139.47308  0.023061025  0.023500158            4 
  505000    1.0506532   -7.5750813    139.69381  0.023051783  0.023482282            2 
  506000    1.0523489   -7.5864367    139.71939   0.02301044  0.023464504            1 
  507000    1.0603372   -7.5905766     139.5157  0.022931575  0.023446365            3 
  508000    1.0439529   -7.5795618    140.04631  0.022973475  0.023428082            4 
  509000    1.0380045   -7.5369452    139.89187  0.022903057  0.023409695            5 
  510000    1.0546943   -7.5873564    140.17843  0.022904972  0.023391396            3 
  511000    1.0377809   -7.5698233    140.52663  0.022916932  0.023373575            5 
  512000    1.0812359   -7.5197129     141.0836  0.022962826  0.023355788            6 
  513000    1.0571348   -7.5565422    141.14093  0.022927376  0.023338206            5 
  514000    1.0483343    -7.562858    141.56245  0.022951111  0.023320709            5 
  515000      1.05384   -7.5296902    141.98829  0.022975451  0.023303058            5 
  516000    1.0496102   -7.5405438     141.8391  0.022906831   0.02328595            8 
  517000     1.030467   -7.5204329    142.04829  0.022896242  0.023268759            5 
  518000    1.0463737   -7.5697574    141.90717  0.022829339  0.023251217            3 
  519000    1.0600198   -7.5560997    141.93623  0.022790018  0.023233781            3 
  520000    1.0552092   -7.5689694    142.03272  0.022761654  0.023216316            6 
  521000    1.0450323   -7.6162309    142.30221  0.022761071  0.023198846            3 
  522000    1.0495005   -7.5931163    142.46691  0.022743759  0.023181063            3 
  523000    1.0458606   -7.5894595    142.51013  0.022707159  0.023163552            7 
  524000      1.03271   -7.5739721    143.26495  0.022783865  0.023146244            2 
  525000    1.0532054    -7.574204    142.89262  0.022681367  0.023128928            3 
  526000    1.0484126   -7.5401384    143.97855   0.02281029  0.023112033            5 
  527000    1.0458425   -7.5673039    143.61321  0.022709236  0.023094592            3 
  528000     1.013283   -7.5962273    142.90311  0.022554152  0.023076559           11 
  529000    1.0627355   -7.5523636    143.85701  0.022661785  0.023058457            4 
  530000    1.0306822   -7.5924727    143.63385  0.022583939  0.023040424            5 
  531000    1.0452669   -7.5780211    143.90923  0.022584624  0.023022635            2 
  532000    1.0475231   -7.5782369    144.21592  0.022590213  0.023004742           10 
  533000      1.00172   -7.5469119     144.7571  0.022632442  0.022987034            4 
  534000    1.0586772    -7.598353    144.50397  0.022550557  0.022969277            4 
  535000    1.0624928    -7.571586    144.87791  0.022566652  0.022951367            4 
  536000    1.0572989   -7.5728524    144.76968  0.022507723  0.022933816            3 
  537000    1.0461477   -7.5306076    144.93282  0.022491127  0.022916041            3 
  538000    1.0382085    -7.552175    145.35917  0.022515361  0.022898364            1 
  539000    1.0578519   -7.6138992    145.10203  0.022433833  0.022880455            3 
  540000     1.048123   -7.5856461    145.50083  0.022453831  0.022862177            3 
  541000    1.0506132   -7.5888625    145.31585  0.022383834  0.022843736            4 
  542000    1.0759159   -7.5911487    145.87098  0.022427887  0.022825249            2 
  543000     1.035153    -7.617149    145.94491  0.022397929  0.022806941            4 
  544000    1.0557165   -7.5807031    145.93451  0.022355164  0.022788524            5 
  545000     1.048179   -7.6045051      146.013  0.022326147  0.022770547            3 
  546000    1.0587855   -7.6407673    146.19798  0.022313489  0.022752914            2 
  547000    1.0433955    -7.564349    146.81378  0.022366511  0.022735012            1 
  548000    1.0519067   -7.5900735    146.95524  0.022347209  0.022717586            2 
  549000    1.0485768   -7.5912894    147.04371  0.022319932   0.02269999            3 
  550000    1.0195435   -7.5892731    147.46789   0.02234362  0.022682505            3 
  551000    1.0205813    -7.636903    147.01908   0.02223519  0.022665088            3 
  552000    1.0367241   -7.5987919    147.52171  0.022270789  0.022647671            3 
  553000    1.0261448   -7.6464148    147.62099  0.022245478  0.022630047            3 
  554000   0.99844437    -7.597019    147.80009  0.022232264  0.022612609            3 
  555000    1.0360353   -7.6197988    147.95407  0.022215326  0.022594887            7 
  556000    1.0329923    -7.612198    147.74599  0.022144183  0.022576636            2 
  557000    1.0300219   -7.5803593    148.36741  0.022197398  0.022558934            2 
  558000     1.021545   -7.5871756    148.24882  0.022139908  0.022541138            2 
  559000    1.0233288   -7.6151648    148.00745  0.022064318  0.022523026            2 
  560000    1.0202793   -7.6178106    148.59319  0.022112081  0.022504935            6 
  561000    1.0433387   -7.6195382    148.56511  0.022068496  0.022486918            2 
  562000    1.0367906   -7.6108479     148.9287  0.022083141  0.022469079            2 
  563000    1.0451259   -7.5995624    149.29756  0.022098514   0.02245132            4 
  564000    1.0362129   -7.6290859    149.22938  0.022049258  0.022433699            8 
  565000    1.0109438   -7.6447172     149.5363  0.022055502  0.022416208            4 
  566000    1.0003562   -7.6321564    149.47907  0.022008109  0.022398407            4 
  567000    1.0223169   -7.6097899    149.49806  0.021972084  0.022380756            3 
  568000    1.0310739   -7.6033391    149.99984  0.022007019  0.022363038            3 
  569000    1.0177521    -7.607088    149.88774  0.021951925  0.022345622            3 
  570000     1.049487   -7.5983307    150.43603  0.021993572  0.022328375            3 
  571000    1.0170602   -7.5969793    150.38162  0.021947113  0.022311158            4 
  572000    1.0238486      -7.5997    151.55513  0.022079711  0.022294089            7 
  573000    1.0116067   -7.6480175    150.76541  0.021926325  0.022276926            4 
  574000    1.0397222   -7.5942258    151.51292  0.021996649   0.02225989            3 
  575000    1.0368967    -7.613377    152.17864  0.022054875  0.022243209            3 
  576000    1.0368718   -7.6097157    152.17008  0.022015347  0.022226834            5 
  577000    1.0109962   -7.6328908    151.61681  0.021897286  0.022210012            4 
  578000    1.0164675   -7.6064227    151.85468  0.021893696  0.022193198            2 
  579000    1.0364353   -7.6437581    151.95427  0.021870218  0.022176047            3 
  580000    1.0183968   -7.6202222    152.68997  0.021938214  0.022159294            6 
  581000    1.0252974   -7.6437901    152.56136  0.021882009   0.02214253            3 
  582000    1.0168977   -7.6457635    152.09864  0.021778156  0.022125499            4 
  583000     1.022387   -7.6107937     152.9179  0.021857904   0.02210823            5 
  584000    1.0043043   -7.6646235    152.18768  0.021716279  0.022090789            4 
  585000    1.0321735   -7.6338394    153.16178  0.021817917  0.022073075            3 
  586000    1.0072008   -7.6875447    152.32474  0.021661652  0.022055193            3 
  587000    1.0243416   -7.6658209    152.73885   0.02168354  0.022037371            4 
  588000    1.0260825   -7.5768379    153.27131  0.021722124  0.022019841            1 
  589000      1.02443   -7.6068159    153.19461  0.021674394  0.022002204            2 
  590000    1.0353394   -7.6413235    153.07518  0.021620788  0.021984653            3 
  591000   0.99291113   -7.6710768     153.3519  0.021623224  0.021966941            7 
  592000     1.029335    -7.640815    153.27777  0.021576262  0.021949254            2 
  593000    1.0331481   -7.6690182    153.78546  0.021611223  0.021931796            3 
  594000    1.0342547   -7.6481738    153.62539  0.021552383  0.021914093            3 
  595000     1.015542   -7.6037088    154.23728  0.021601859  0.021897009            2 
  596000     1.016504   -7.6640363    154.67483  0.021626793  0.021879752            5 
  597000    1.0274583   -7.6565197    154.69467  0.021593337  0.021862632           10 
  598000    1.0116235   -7.6255579    154.71888  0.021560602  0.021845428            3 
  599000    1.0157628   -7.6003744    154.93083  0.021554094  0.021828136            4 
  600000    1.0098081   -7.6570645    155.03159  0.021532165  0.021811013            4 
  601000    1.0252976   -7.6560529    155.07009  0.021501676  0.021793714            4 
  602000    1.0253338   -7.6672738    154.79734  0.021428203  0.021776386            3 
  603000    1.0312045   -7.6867385    154.92906   0.02141087  0.021758803            1 
  604000    1.0235085   -7.6677777    155.31068  0.021428073   0.02174107           13 
  605000     1.002102   -7.6561121    155.75323  0.021453612  0.021723836            4 
  606000    1.0131062   -7.6869551    155.72649  0.021414534  0.021706366           10 
  607000     1.034961   -7.6568493     155.7411   0.02138126  0.021689209            7 
  608000    1.0182009   -7.6406035    156.34357  0.021428669  0.021672041            2 
  609000    1.0109275   -7.6897494    156.17769  0.021370785  0.021654998            4 
  610000    1.0317377   -7.6644206    156.09873  0.021324964  0.021637473            3 
  611000    1.0158405   -7.6332142    156.42119  0.021334041  0.021619914            4 
  612000    1.0124521   -7.5926947    156.59176  0.021322408  0.021602513           12 
  613000    1.0111721   -7.6873345    156.66029   0.02129694  0.021585084            4 
  614000    1.0039362   -7.6493236    156.54768  0.021246971  0.021567608            6 
  615000    1.0305594   -7.6380152    156.88594  0.021258257  0.021550294            3 
  616000    1.0082404   -7.6696679    156.55777  0.021179353  0.021532918            4 
  617000   0.99611452   -7.6866491    156.89452  0.021190508  0.021515346            3 
  618000    1.0156724   -7.6658171    157.25342  0.021204615  0.021497583            4 
  619000   0.99640614   -7.6774237    157.24551  0.021169293  0.021479877            3 
  620000    1.0160791   -7.7028472    156.88752  0.021087032  0.021462043            4 
  621000   0.99923195   -7.7025956    157.33889  0.021113646  0.021443937            6 
  622000    1.0118948   -7.6850902    157.36343   0.02108299  0.021426009            5 
  623000    0.9973856   -7.6904131    157.61167  0.021082354  0.021408362            3 
  624000    1.0106424   -7.6938689    157.64065  0.021052438  0.021390871            4 
  625000    1.0143989   -7.7180654     157.9923  0.021065641  0.021373392            5 
  626000   0.99543346    -7.655008    158.23275  0.021063998  0.021356108            2 
  627000    1.0252258   -7.7050444    158.18893  0.021024578  0.021338825            5 
  628000    1.0138069   -7.6938774    158.33827  0.021010917  0.021321392            3 
  629000    1.0065588   -7.6691251    158.90765  0.021052948  0.021304056            3 
  630000   0.99392242     -7.69648    159.29271  0.021070464  0.021286561            3 
  631000     1.015542   -7.6905177     159.5167  0.021066653  0.021269368            3 
  632000   0.99749294   -7.6657062    159.25421  0.020998709   0.02125211            3 
  633000   0.99141358   -7.6699049    159.45747  0.020992295  0.021234639            3 
  634000    1.0223167   -7.6565331    159.66827  0.020986891  0.021217421            4 
  635000    1.0037143   -7.7162136    158.95123  0.020859742  0.021200043            5 
  636000   0.99452033   -7.6622121    159.68357  0.020922899  0.021182804            3 
  637000    1.0146094   -7.6690622    160.02537  0.020934769  0.021165863            3 
  638000   0.98867603   -7.6931116    160.25491  0.020931937  0.021148967            3 
  639000   0.99618215   -7.6904083    160.20065  0.020892103  0.021132208            4 
  640000    1.0150736   -7.6774066    160.44302  0.020891018  0.021115629            5 
  641000    1.0081773   -7.6859855    160.60154  0.020879036  0.021098737            8 
  642000    1.0110017   -7.6658378    161.09817  0.020910977  0.021081946            6 
  643000   0.99691528   -7.6668988    161.50976  0.020931799  0.021065266            8 
  644000   0.99505504   -7.6948431    161.32497  0.020875384  0.021048542            3 
  645000   0.99110597   -7.7556099    160.43268  0.020727736  0.021031469            2 
  646000   0.99029521   -7.7063136    161.39023  0.020819174  0.021014341            7 
  647000    0.9909465   -7.7096965     161.1737  0.020759106   0.02099734            5 
  648000   0.99379561   -7.7009432    161.61373  0.020783658  0.020980414            2 
  649000     1.006575   -7.7006873    161.46843  0.020732978  0.020963588            5 
  650000   0.97976926     -7.70713    161.29102  0.020678336  0.020946826            7 
  651000   0.99806954   -7.7379997    161.57698  0.020683177  0.020929765            5 
  652000    0.9991902   -7.7274996    161.86126  0.020687789  0.020912727           12 
  653000    1.0079665   -7.6964067    161.97825  0.020671038  0.020895763            4 
  654000   0.97021034   -7.7069645    162.63489    0.0207231   0.02087877            3 
  655000   0.99287142   -7.7177871    162.32394  0.020651901  0.020861984            5 
  656000   0.99326434   -7.7214307    162.76306  0.020676201  0.020845145            4 
  657000    1.0071757   -7.7303132    162.28396  0.020583962  0.020828283            2 
  658000    1.0077088   -7.7322856    162.62344  0.020595674  0.020811468            4 
  659000   0.98946607   -7.7340122    163.14789   0.02063074  0.020794688            4 
  660000   0.99955847   -7.7537039    162.72714  0.020546356  0.020777856            6 
  661000   0.99773375   -7.7297086    163.04873  0.020555816  0.020760949            7 
  662000   0.97814207   -7.7533396     163.1418  0.020536481  0.020743993            5 
  663000   0.98498119   -7.7348882     163.1713  0.020509213  0.020727011            3 
  664000   0.99041123   -7.7360852    163.61695  0.020534255  0.020710019            4 
  665000   0.97435276   -7.7064339    163.31939  0.020466088   0.02069318            3 
  666000   0.98409586   -7.7520801    163.68531  0.020481145  0.020676349            4 
  667000    1.0040566   -7.7637676    163.33938  0.020407219  0.020659494            8 
  668000   0.98679794     -7.76575    163.75349  0.020428329  0.020642584            5 
  669000   0.96900544   -7.7099889    163.98483  0.020426611    0.0206256            3 
  670000   0.97916759   -7.6944341    164.01987  0.020400481  0.020608658            7 
  671000   0.98517102   -7.7120044     164.2413  0.020397578  0.020591895            5 
  672000   0.98787947   -7.7580504     163.8675  0.020320871  0.020574706            4 
  673000    1.0055507    -7.746046    163.99536  0.020306508  0.020557626            4 
  674000    1.0111837   -7.7361441    164.50383  0.020339247   0.02054041            8 
  675000   0.98329693   -7.7376087     164.7292  0.020336939  0.020523055           14 
  676000   0.99066449   -7.7148871    164.98942  0.020338933  0.020505805            2 
  677000   0.99097612   -7.7539478    164.24126  0.020216797  0.020488618            5 
  678000   0.98559183   -7.7668167    164.48176  0.020216539   0.02047132            5 
  679000   0.98914042   -7.7510386    164.42767  0.020180126  0.020454001            6 
  680000    1.0026128    -7.728955    165.15861  0.020240026  0.020436702            3 
  681000   0.98339991   -7.7452924    164.94456  0.020184111  0.020419369            6 
  682000   0.98484708   -7.7444076     165.7242   0.02024978  0.020402394            8 
  683000   0.96537673    -7.742992    165.53462  0.020197001   0.02038539            4 
  684000    0.9846011    -7.777924    165.70864  0.020188674  0.020368596            8 
  685000   0.96846635   -7.7129582    165.88656  0.020180847  0.020351687            3 
  686000    1.0074623   -7.7700485    165.47101  0.020100949  0.020334592            4 
  687000   0.99684424   -7.7866504    165.61762  0.020089473  0.020317567            5 
  688000   0.96198357   -7.7747732    165.68724  0.020068707  0.020300502            3 
  689000   0.98809917   -7.7749601    165.45052  0.020010949  0.020283292            5 
  690000    0.9482972   -7.7656726    165.88843  0.020034835  0.020266015            5 
  691000   0.95949989   -7.7424327    166.07762  0.020028657  0.020248656            5 
  692000   0.98731683   -7.7064642    166.51648  0.020052563  0.020231317            4 
  693000    1.0015483   -7.7830969    166.22127  0.019988128  0.020214035            4 
  694000   0.96221922   -7.7585013    166.43044  0.019984443   0.02019693           13 
  695000   0.97199731   -7.7259427    167.17657  0.020045152   0.02017991            4 
  696000   0.96477657   -7.7536972    166.96366   0.01999086  0.020162954            3 
  697000   0.98210717    -7.737613    166.94277  0.019959681  0.020145823            6 
  698000   0.96906848   -7.7684599    167.10698   0.01995069  0.020128925            5 
  699000    0.9787438   -7.7642215    167.54403  0.019974253  0.020112213            8 
  700000   0.97169626   -7.7675731    166.72356  0.019848043  0.020095411            6 
  701000   0.96430201   -7.7416839    167.65189  0.019930087  0.020078772            5 
  702000   0.96076661   -7.7205041    167.45259  0.019878037  0.020061986            4 
  703000   0.97502411   -7.7449081    168.04665  0.019920181  0.020045201            3 
  704000   0.95847146   -7.7952905    167.40978  0.019816499  0.020028346            6 
  705000   0.98021239   -7.8298158     167.5165  0.019801005  0.020011442            4 
  706000   0.98027709   -7.7997624    167.97323  0.019826869  0.019994515            5 
  707000   0.97060261   -7.7317784    168.36874  0.019845443  0.019977798            2 
  708000   0.97123778   -7.7722369    167.65062  0.019732889  0.019960919            3 
  709000   0.97211334   -7.7760987    167.80797  0.019723551  0.019943742            6 
  710000   0.99612124   -7.8052797    167.79907  0.019694726  0.019926703            3 
  711000   0.95521929   -7.7729041    168.12985  0.019705796    0.0199097            6 
  712000    0.9674106   -7.8311764    168.08464  0.019672828  0.019892607            3 
  713000   0.98112093   -7.7605578    168.44213  0.019687019  0.019875622            2 
  714000   0.98057914   -7.8086824    168.08542  0.019617812  0.019858392            4 
  715000   0.96017714   -7.7853077    168.99779  0.019696712  0.019841337            8 
  716000   0.96340866   -7.8026806    168.98477  0.019667687  0.019824483           13 
  717000   0.97305777   -7.7571335    168.75065  0.019613046  0.019807682            3 
  718000   0.97774862   -7.7995998    169.22923  0.019641275  0.019790935            4 
  719000   0.96413465   -7.8088888    169.62336  0.019659638  0.019774236            2 
  720000   0.95973424    -7.795549    170.05656  0.019682473  0.019757484            2 
  721000   0.95510454   -7.7886363     170.0354  0.019652728  0.019740697            5 
  722000   0.93515693   -7.7774396    169.54181  0.019568537  0.019724124            3 
  723000   0.97661319   -7.7902291    169.38881  0.019523837  0.019707672            5 
  724000   0.96398144     -7.75396    170.21485  0.019591949  0.019691204            9 
  725000   0.94368561   -7.8335264      170.589  0.019607931  0.019674805            7 
  726000   0.96754555   -7.8198668    170.45159   0.01956515  0.019658374            5 
  727000   0.95775353   -7.8053383    170.12133  0.019500382  0.019642058            5 
  728000   0.94507318   -7.7908583      170.375  0.019502633  0.019625821            8 
  729000   0.96962562   -7.7662809    171.04179  0.019552102  0.019609685            2 
  730000   0.95825798   -7.7970559    170.68445  0.019484526  0.019593597            4 
  731000   0.98805822   -7.7689902    171.54652  0.019556147  0.019577685            6 
  732000   0.97945142   -7.7536104    171.80608  0.019558979  0.019561953            3 
  733000   0.96169953   -7.7619219    171.90697  0.019543766   0.01954627            5 
  734000   0.96885598   -7.7927795     171.8787   0.01951393  0.019530611            5 
  735000   0.93881133   -7.8031837    171.48222  0.019442428  0.019515008            1 
  736000   0.95409647   -7.8248905    172.20023  0.019497309  0.019499128           10 
  737000   0.94980083   -7.8006041     172.2473  0.019476176  0.019483508            5 
  738000   0.96811885   -7.8299942     171.8655  0.019406673  0.019467795            7 
  739000    0.9644571   -7.8016587    172.36536   0.01943678  0.019452254            6 
  740000   0.96053453   -7.8226062    172.20954  0.019392966  0.019436668            5 
  741000   0.97574693   -7.7786998     172.5316  0.019403014  0.019420969            3 
  742000   0.96166018   -7.8454382    172.10497  0.019328949  0.019405546            4 
  743000   0.95607488   -7.8572637    172.66561  0.019365815  0.019389883           12 
  744000   0.97081822    -7.850413     172.4549  0.019316186  0.019374132            4 
  745000    0.9567291   -7.8612319    172.44279  0.019288903  0.019358406            1 
  746000   0.95810233   -7.8234433    172.91751  0.019316076  0.019342867            3 
  747000   0.95116411   -7.8227991    172.66504  0.019262052  0.019327009            3 
  748000   0.95354236   -7.8392793    173.08332  0.019282902  0.019311459            4 
  749000   0.96365703   -7.7948291    173.83638  0.019340942  0.019295812            5 
  750000   0.97712432   -7.7896982    173.35111  0.019261234  0.019280421            2 
  751000    0.9665632   -7.7883829    173.36048  0.019236627  0.019264838            3 
  752000   0.96471441   -7.8098138     173.8799  0.019268606  0.019249235            5 
  753000   0.94977022   -7.8297955    173.58985  0.019210917  0.019233728            4 
  754000   0.94791133   -7.8070906    173.61686  0.019188424   0.01921802            7 
  755000   0.96279407   -7.8702524    173.12667  0.019108904  0.019202251            5 
  756000   0.94322796   -7.8406126    173.69201  0.019145944  0.019186362            5 
  757000   0.94305872   -7.8476462     173.8272  0.019135535  0.019170564            5 
  758000   0.95936543   -7.8551256    174.19695   0.01915094  0.019154873            4 
  759000   0.96852209   -7.8361239    174.32536  0.019139807  0.019138954            5 
  760000   0.94348303   -7.8411476    174.38206   0.01912084  0.019123191            4 
  761000   0.92907114   -7.8542267    174.29307  0.019085969  0.019107525            4 
  762000   0.95093618   -7.8251353    174.54408  0.019088373  0.019091916            5 
  763000   0.94412797   -7.8599985    174.22198  0.019028176  0.019076366            4 
  764000   0.93784592   -7.8396068    174.69046   0.01905437  0.019060664            2 
  765000   0.96141093    -7.834053    174.44575  0.019002805  0.019044905            3 
  766000   0.94271334   -7.8877045    174.51309  0.018985324  0.019029181            9 
  767000   0.93912067   -7.8528299    175.10856  0.019025267  0.019013443            5 
  768000   0.94906362   -7.8673759    174.65468  0.018951245  0.018997623            9 
  769000   0.95220258   -7.8503861    175.11663  0.018976661  0.018981868            3 
  770000   0.95005774   -7.8572635    175.31357  0.018973331  0.018966126            7 
  771000   0.95527329   -7.8635412    175.37537  0.018955401  0.018950466            5 
  772000   0.93182752    -7.821851    175.51305  0.018945709  0.018934884            4 
  773000   0.91736455   -7.8679847    175.51903  0.018921845  0.018919309            4 
  774000   0.95449253   -7.8710645    175.56159   0.01890198  0.018903758            4 
  775000   0.95402898   -7.8346798    176.02201  0.018927098  0.018888397            3 
  776000   0.93627926   -7.8767607    176.01697  0.018902166  0.018872866            3 
  777000   0.94434787   -7.8378298    176.58662  0.018938933  0.018857518            4 
  778000   0.92593367    -7.833285    176.64559  0.018920907  0.018842261            3 
  779000   0.93353857   -7.8418207    176.28953  0.018858529  0.018826937           10 
  780000   0.93666817   -7.8445588    176.17716  0.018822346  0.018811542            3 
  781000   0.94542953   -7.8514053    176.47743  0.018830285  0.018796231            3 
  782000   0.94490203   -7.8730869    176.39726  0.018797662  0.018780795            3 
  783000   0.94382699   -7.8863976    176.51791  0.018786495  0.018765108            3 
  784000   0.94100185    -7.862375    176.35091  0.018744782  0.018749642            3 
  785000   0.95369812   -7.8538266    176.55676  0.018742755  0.018734045            6 
  786000   0.93433563   -7.8456259    176.50082  0.018712979  0.018718471            5 
  787000   0.94906544    -7.880551    176.68188  0.018708373  0.018702882           10 
  788000   0.94069653   -7.8221823    176.91618   0.01870941  0.018687238            1 
  789000   0.94422632   -7.8370856     177.3709  0.018733724  0.018671517            4 
  790000   0.94145777   -7.8691656    176.43027  0.018610788  0.018655704            5 
  791000   0.93706342   -7.8809062    176.54076  0.018598901  0.018639892            9 
  792000   0.92358402   -7.8840139    176.60598  0.018582279  0.018624076            5 
  793000   0.93585449    -7.875586    176.84102  0.018583545  0.018608369            5 
  794000   0.92940582   -7.8724744    176.90344  0.018566692  0.018592543            4 
  795000   0.91956974   -7.8793718    176.18398  0.018467922   0.01857661            5 
  796000   0.94546483   -7.9078124    176.75816  0.018504833  0.018560576            6 
  797000   0.92378674   -7.8915128    176.84778  0.018490984  0.018544517           10 
  798000   0.91715873   -7.9002598    176.95499  0.018479009  0.018528442            4 
  799000   0.94555561   -7.8774352    177.42206  0.018504596  0.018512426            5 
  800000   0.93877195   -7.8794824    177.51233  0.018490868  0.018496458            2 
  801000   0.93073554   -7.8955171     177.1201  0.018426977  0.018480473            4 
  802000   0.94161271   -7.9089899    177.31677  0.018424435  0.018464579            4 
  803000   0.92826002   -7.8952401     177.2194  0.018391386  0.018448719            4 
  804000    0.9225938   -7.9136966    177.65898  0.018414073  0.018432893            4 
  805000   0.93469717   -7.8788794    177.73365  0.018398929  0.018416987            4 
  806000   0.91101037   -7.9161104    177.62876  0.018365256  0.018401019            5 
  807000   0.92623081   -7.9104417    177.18908  0.018297097  0.018385158            7 
  808000   0.92915561   -7.8649995    178.25865  0.018384762  0.018369346            6 
  809000   0.90816505   -7.9439482    177.87185  0.018322193  0.018353681            3 
  810000   0.93909186   -7.8950541    177.51735  0.018263101  0.018337999            3 
  811000   0.93673794   -7.9102954    177.74786  0.018264269  0.018322131            7 
  812000   0.93197174   -7.8909628    178.27701   0.01829608  0.018306341            5 
  813000   0.93276599   -7.8802071    178.41658  0.018287882  0.018290643            2 
  814000   0.93899886   -7.8915752    178.27496  0.018250917  0.018274775            6 
  815000   0.92096642   -7.8941516    178.58132  0.018259849  0.018259052            6 
  816000   0.93181476   -7.9149525    178.55445  0.018234727  0.018243332            5 
  817000   0.93787509   -7.8782825     178.3356  0.018190085  0.018227739           13 
  818000   0.93229476   -7.9149403    178.80141  0.018215302  0.018212146            3 
  819000   0.91036194   -7.8740691    178.91027  0.018204138   0.01819651            5 
  820000   0.92501331   -7.8832471    179.14869  0.018206168  0.018181011            4 
  821000   0.93129351   -7.9179292    178.57245  0.018125502  0.018165394            8 
  822000   0.92660683   -7.9327354    178.82091   0.01812864  0.018149595            6 
  823000   0.92359757   -7.8869208     179.1913  0.018144117  0.018133753            3 
  824000    0.9356855   -7.9260021    178.82671  0.018085225  0.018118062            4 
  825000   0.91960648   -7.9104954    178.99201  0.018080001  0.018102279            4 
  826000   0.93620832   -7.9298258    179.19839  0.018078934  0.018086438            5 
  827000   0.91413479   -7.9548826    179.01343  0.018038435  0.018070508            6 
  828000   0.92437507   -7.9577177    179.02683  0.018017999  0.018054566            9 
  829000   0.91663153   -7.9275346    179.13079  0.018006714  0.018038441           13 
  830000   0.91522304   -7.9626466    178.83639  0.017955461  0.018022198            7 
  831000   0.92255991   -7.9444813    178.94047  0.017944291  0.018005958            5 
  832000   0.91250004   -7.9213351    179.19924  0.017948642  0.017989909            6 
  833000   0.91851917   -7.8777935    179.32296  0.017939472  0.017973976            6 
  834000   0.93499909   -7.9281385    179.61441  0.017947083   0.01795804            3 
  835000   0.92523181   -7.9294226    179.75289  0.017939411  0.017942326            5 
  836000   0.93836098   -7.9023432    179.97544  0.017940136  0.017926573            2 
  837000   0.92129048   -7.9335357    179.78033  0.017899276  0.017910933            3 
  838000   0.93104491   -7.9003449     180.0169  0.017901442   0.01789529            7 
  839000    0.9142032   -7.9037059    180.33199  0.017911402  0.017879845            2 
  840000   0.90473478    -7.955638    180.30366  0.017887268  0.017864564            4 
  841000   0.90789719   -7.9511071    180.40625  0.017876164  0.017849148           10 
  842000   0.91561112   -7.9133512    180.69589    0.0178836  0.017833932            6 
  843000   0.91218615   -7.9162317    181.16383  0.017908643  0.017818852            2 
  844000   0.91009383   -7.9125084    181.48596   0.01791923  0.017803804            6 
  845000   0.92468843   -7.9221716    181.55458   0.01790479  0.017788748           11 
  846000   0.92615244   -7.9295493    181.38129  0.017866558   0.01777361            4 
  847000   0.92916315   -7.9504721    181.17585  0.017825251  0.017758649            9 
  848000   0.92897155   -7.9386524    181.77258  0.017862871  0.017743781           12 
  849000   0.92475643   -7.9464068    181.49952   0.01781503  0.017728839            6 
  850000    0.9205562   -7.9720505    181.20253  0.017764954  0.017713689            8 
  851000   0.90523745   -7.9775521    182.05686  0.017827738  0.017698726            7 
  852000   0.89643724   -7.9345502    181.57621  0.017759801  0.017683679            8 
  853000    0.9246806   -7.9547123    181.47654  0.017729244  0.017668563            8 
  854000   0.90768734   -7.9942523    181.35357  0.017696484  0.017653296            7 
  855000   0.89256892   -7.9615845    181.65908  0.017705563  0.017638094            3 
  856000   0.91882318   -7.9864832     181.3435  0.017654157  0.017622855            4 
  857000   0.91762811   -7.9691762    181.46344   0.01764522  0.017607576           16 
  858000   0.89985078   -7.9384091    181.57799   0.01763578   0.01759236            4 
  859000   0.88044252   -7.9312279    182.14221  0.017669985  0.017577165            5 
  860000   0.92714238   -7.9980009    182.18413  0.017653501  0.017561968            7 
  861000   0.91515418   -7.9129968     181.9716  0.017612427  0.017546733            3 
  862000   0.90818515   -7.9940114    181.17798  0.017515273  0.017531414            5 
  863000   0.89994618   -7.9647796    181.61101  0.017536791  0.017516111            5 
  864000   0.88460119   -7.9616088    181.78986  0.017533745  0.017500802           10 
  865000   0.89088274   -7.9734242    182.31424  0.017563992  0.017485541            6 
  866000   0.89713695   -7.9811357    181.83838   0.01749792  0.017470202           11 
  867000   0.91326625    -7.979141    182.51506  0.017542778  0.017454992            5 
  868000   0.89996231   -7.9661981    182.32563  0.017504381  0.017439888            9 
  869000   0.92764365   -7.9525231    182.15037  0.017467431  0.017424703            9 
  870000   0.90761425    -7.946064    183.08888  0.017537249  0.017409577            3 
  871000   0.91083179   -7.9788351    182.47834    0.0174587  0.017394442            6 
  872000   0.92273207   -7.9995196    182.58037   0.01744843   0.01737913            8 
  873000   0.94390206   -7.9778236    182.70124  0.017439981  0.017363825            5 
  874000   0.89827955   -7.9880067    182.57453  0.017407945    0.0173487            8 
  875000   0.91633276    -8.000735    183.39655  0.017466338  0.017333645            8 
  876000   0.89854719   -7.9698814     182.4869  0.017359865  0.017318537            8 
  877000   0.90425304   -8.0147588    183.09293  0.017397656  0.017303263            6 
  878000   0.91245847   -7.9959328    182.94482  0.017363783  0.017288088            5 
  879000   0.88864025   -7.9879933    182.64313  0.017315427  0.017272906            7 
  880000   0.90740591   -8.0053329    182.62318  0.017293862  0.017257484           10 
  881000   0.91644582   -7.9840542    182.91714  0.017302038  0.017242109            9 
  882000   0.90846677   -7.9744241    183.24242  0.017313154  0.017226979            4 
  883000   0.89270544   -8.0002348    183.14987  0.017284812  0.017211805            6 
  884000     0.914783   -8.0046683    182.66664  0.017219706  0.017196517            2 
  885000   0.89664105   -7.9991038    183.30247   0.01726012  0.017181271            5 
  886000   0.91217839    -7.984867    182.76995  0.017190552  0.017165898            6 
  887000   0.89749336   -7.9822456    183.56654  0.017246011  0.017150564            2 
  888000   0.89975182   -7.9932175    183.35527  0.017206763   0.01713519           13 
  889000   0.91330108   -8.0339131    182.62617  0.017119064  0.017119891            4 
  890000   0.90269113   -7.9684196    183.58826  0.017189912  0.017104645           16 
  891000   0.89873964    -8.006152    183.62767  0.017174305  0.017089527            6 
  892000   0.91551349   -7.9876221    183.64963  0.017157103  0.017074311            5 
  893000   0.88728422   -7.9933195    183.97381  0.017168142   0.01705919            7 
  894000   0.90674598   -8.0039122    183.98864   0.01715032  0.017044013            6 
  895000   0.89100068   -8.0334279    183.38786   0.01707522  0.017028856            9 
  896000   0.88790861   -8.0052659    183.69262  0.017084507  0.017013632            8 
  897000   0.88912202   -7.9985649    184.03098  0.017096895  0.016998363            9 
  898000   0.88455751   -7.9780281    184.16986  0.017090744  0.016983061            4 
  899000   0.91200912    -7.994802    183.49122  0.017008827  0.016967878            4 
  900000   0.90316228    -7.994228    184.42767  0.017076636  0.016952676            5 
  901000   0.88751896    -8.038068    183.73415   0.01699354  0.016937648            4 
  902000   0.89681119   -8.0543822    183.97927  0.016997346  0.016922443            4 
  903000   0.89065431   -8.0282346    184.52467  0.017028854   0.01690728            6 
  904000    0.8825255   -8.0005718      184.308  0.016990044  0.016892109           13 
  905000   0.89180677    -8.026924    184.14857   0.01695659  0.016876974           19 
  906000   0.90508923   -7.9955459     184.3757  0.016958766  0.016861912            4 
  907000   0.89042327   -8.0081228    184.18052  0.016922135  0.016846919            6 
  908000   0.87198712    -8.014236    184.57886  0.016940057  0.016831856            9 
  909000   0.89231458   -8.0418952    184.30659  0.016896461  0.016816721           10 
  910000   0.88162274   -8.0356559    184.11333  0.016860195  0.016801556            6 
  911000   0.88817676   -8.0168912    184.65854   0.01689156  0.016786536           11 
  912000   0.90467319   -8.0407177    184.03291  0.016815872  0.016771398            7 
  913000   0.89877384   -8.0175959    184.80357  0.016867796  0.016756376           18 
  914000   0.87280103   -7.9980702    185.29277  0.016893944  0.016741514            2 
  915000    0.8859419   -8.0033962    185.20758  0.016867721  0.016726654            7 
  916000   0.89501571   -8.0216085    185.29116   0.01685691   0.01671188            5 
  917000   0.86884426   -8.0060472      185.103  0.016821428  0.016697071            8 
  918000   0.87238158   -8.0520248    185.18297  0.016810364  0.016682225            8 
  919000   0.90715194    -8.015293    185.48605  0.016819554  0.016667434            3 
  920000   0.88013962   -8.0282655    185.41322  0.016794676  0.016652643            4 
  921000   0.89325022   -8.0139858    185.74523  0.016806481  0.016637832            4 
  922000   0.89170545   -8.0436855    184.98696  0.016719718  0.016623123           11 
  923000   0.88774432   -8.0381911    185.10287  0.016712069  0.016608364            4 
  924000    0.8971071   -8.0628102    185.61255  0.016739948  0.016593573            7 
  925000   0.88554985   -7.9987615    185.51005  0.016712617  0.016578924            2 
  926000   0.87590191    -8.061868    185.63495  0.016705809  0.016564184           10 
  927000   0.86011532    -8.036548    185.62753  0.016687121  0.016549468            5 
  928000   0.88396413   -8.0466683    185.85799  0.016689834  0.016534793            8 
  929000   0.87897706   -8.0425888    185.69665  0.016657396  0.016520052            2 
  930000   0.88697407   -8.0676599    186.03218   0.01666955  0.016505288           15 
  931000   0.88270684   -8.0200231    185.82975  0.016633526  0.016490641            5 
  932000   0.87677233   -8.0130406    185.94803  0.016626254  0.016475881            5 
  933000    0.8870458   -8.0480898    185.58469  0.016575982  0.016461069           10 
  934000   0.89544733   -8.0849013    185.59897  0.016559508  0.016446241            7 
  935000   0.86104563     -8.08605    185.62712  0.016544306  0.016431274            8 
  936000   0.88402772   -8.0980497    185.41098  0.016507387  0.016416294            9 
  937000   0.88503964   -8.0847347    185.63676  0.016509851  0.016401386            9 
  938000   0.88898818   -8.0786605    186.08108  0.016531723  0.016386481           23 
  939000   0.89606783   -8.0682479    185.97081  0.016504331  0.016371628            9 
  940000   0.87323082   -8.1003648    186.41944  0.016526546  0.016356889            9 
  941000   0.87554069   -8.0767771    185.72917  0.016447855  0.016342219            5 
  942000   0.89952252   -8.0892498     186.3598  0.016486182  0.016327631            4 
  943000   0.88939623   -8.0319815    187.14434  0.016538029   0.01631321           14 
  944000   0.86809548   -8.0349157    187.36237  0.016539757  0.016298849           14 
  945000   0.87423517   -8.0313246    186.99747  0.016490077  0.016284457            6 
  946000   0.88025489   -8.0391808    187.38763  0.016507014  0.016270188            5 
  947000   0.87159562   -8.0421255    187.14213  0.016467981  0.016255914            5 
  948000   0.88212713   -8.0967529    187.26743  0.016461624  0.016241644            7 
  949000   0.88715189   -8.0827324    187.20621  0.016438901  0.016227378            7 
  950000   0.86090692   -8.0730684    187.58271  0.016454624  0.016213079            6 
  951000   0.89009367   -8.1022936    187.18348  0.016402338  0.016198729            7 
  952000   0.85937123   -8.1150535    187.20285  0.016386804  0.016184372            5 
  953000   0.86685132   -8.1300077    187.07421   0.01635836  0.016170052            5 
  954000   0.89728264    -8.086222    187.30233   0.01636114  0.016155707            7 
  955000    0.8755196   -8.0686883    187.61676  0.016371445  0.016141385           13 
  956000   0.85031196   -8.0817264     187.6947  0.016361114  0.016127181           22 
  957000   0.86575347   -8.1001639    187.18023  0.016299219  0.016112941            7 
  958000   0.86637457   -8.0830413    187.83865  0.016339479  0.016098684           17 
  959000   0.85621571    -8.069586    187.84873  0.016323317  0.016084479           10 
  960000   0.88026815   -8.0911976    187.67808    0.0162915  0.016070318           14 
  961000   0.84106658   -8.0724478    187.86332  0.016290611  0.016056076            8 
  962000   0.86221124   -8.0694264    187.57535  0.016248731  0.016041845           10 
  963000   0.87567168   -8.0716617    188.17592  0.016283828  0.016027626            4 
  964000    0.8657925   -8.0540515    188.03858  0.016255064  0.016013414            7 
  965000   0.89366652    -8.088904    187.77568  0.016215517  0.015999267            5 
  966000   0.87300002   -8.1074323    187.92274  0.016211417  0.015985105           11 
  967000   0.87623413   -8.1107865     187.9136  0.016193864  0.015970828            4 
  968000   0.85331821   -8.0754272    188.54794  0.016231744  0.015956589            4 
  969000   0.86351366   -8.1042917    187.54965   0.01612914  0.015942296            3 
  970000   0.85436482   -8.0873039    188.38291  0.016184099  0.015928054           11 
  971000   0.87392174   -8.0456901    188.08169   0.01614158  0.015913809            9 
  972000   0.87485499   -8.0772563    188.15933  0.016131629  0.015899554            7 
  973000   0.86045031   -8.0828033    188.13143  0.016112661  0.015885248            9 
  974000   0.87500085   -8.1046229    187.53847  0.016045386  0.015870856            4 
  975000   0.86613506   -8.1007334    188.12804   0.01607932   0.01585641            4 
  976000   0.87549824   -8.0889206    188.01316  0.016053036   0.01584208            4 
  977000   0.85297973   -8.1508031    187.76959   0.01601583  0.015827657            5 
  978000   0.86344887   -8.1137439    187.61404    0.0159862  0.015813253            4 
  979000   0.84987325   -8.1534426    187.70575  0.015977677  0.015798905            9 
  980000   0.85992438   -8.1014475     187.8825  0.015976403  0.015784398            4 
  981000   0.85285502   -8.0881243    188.50733  0.016013195  0.015769975            9 
  982000   0.85486693   -8.1149503    188.33849   0.01598256  0.015755576            6 
  983000   0.84311225   -8.0845948    188.11754  0.015947571  0.015741239           10 
  984000   0.85896289   -8.1125479    187.81605  0.015905831  0.015726944            8 
  985000   0.85625415   -8.1147374    188.11571  0.015915035  0.015712559            6 
  986000   0.83964686    -8.073609    188.30146  0.015914593  0.015698189            8 
  987000   0.85271036   -8.1415372    188.23675  0.015893005  0.015683806            4 
  988000   0.88560837   -8.1059052    188.44571  0.015894543  0.015669496            8 
  989000   0.85303053   -8.1325135    188.22477  0.015859856   0.01565525           11 
  990000    0.8773877   -8.1414356    188.24453  0.015845499  0.015640951           14 
  991000   0.85762919   -8.1231082    188.48159  0.015849444  0.015626701            6 
  992000   0.86451606   -8.1145549    188.59606  0.015843083  0.015612561           10 
  993000   0.85168747   -8.1199424    188.25202  0.015798256  0.015598299           11 
  994000   0.84321968   -8.1334218    188.79084  0.015827535  0.015584041            9 
  995000   0.83199696   -8.0986398    188.62249  0.015797528  0.015569852            9 
  996000   0.83086339   -8.1143081    188.96673   0.01581047  0.015555599           21 
  997000   0.86614238   -8.1130406    188.58423   0.01576264  0.015541278           10 
  998000   0.85507113   -8.0916311    188.35299  0.015727538  0.015526912            8 
  999000   0.85112037   -8.1317721    188.28522  0.015706141  0.015512653            5 
 1000000   0.85829478   -8.0975484    188.51221  0.015709351  0.015498366            8 
 1001000   0.86945278   -8.1596782    187.73659  0.015629087  0.015483943            7 
 1002000   0.84642175   -8.1802741    188.01954  0.015637021  0.015469383            8 
 1003000   0.85633093    -8.126968    188.67513    0.0156759   0.01545488            9 
 1004000   0.84680228   -8.1460008    188.15656  0.015617244  0.015440379           10 
 1005000   0.84679739   -8.1120714    188.34654  0.015617458   0.01542597            5 
 1006000   0.84837773   -8.1386184    188.48817  0.015613665  0.015411505           10 
 1007000   0.85394351    -8.135311    188.99406  0.015640025  0.015397165           15 
 1008000   0.86114876   -8.0987666    188.84354  0.015612065  0.015382869            8 
 1009000   0.84090238   -8.1381692    188.67957   0.01558305  0.015368575           15 
 1010000   0.85154565   -8.1331611    188.20573  0.015528526  0.015354156           12 
 1011000   0.87245609   -8.1366353    188.34358  0.015524528  0.015339816           21 
 1012000   0.83775875   -8.1603787    188.63259  0.015532986  0.015325414           19 
 1013000    0.8483083   -8.1530769    188.49617   0.01550643  0.015311053            7 
 1014000   0.84968045   -8.1187341    188.63729  0.015502736  0.015296711            6 
 1015000   0.83887108   -8.1377262    188.59917  0.015484333  0.015282322            6 
 1016000   0.84726016   -8.1673765    188.23187  0.015438966  0.015268004            7 
 1017000   0.85667563   -8.1321097    188.54407  0.015449367  0.015253722           11 
 1018000   0.84421147   -8.0939323    189.30915   0.01549682  0.015239504            9 
 1019000   0.85890257   -8.1256579    188.93831  0.015451285  0.015225284            5 
 1020000   0.82965617   -8.1097006     188.7023  0.015416855   0.01521096            6 
 1021000   0.86371418   -8.1326658    189.28184  0.015449056  0.015196618           18 
 1022000   0.86688942   -8.1720062    188.64341  0.015381883   0.01518233           10 
 1023000   0.81858271   -8.1640999    188.69449  0.015371008  0.015167973           16 
 1024000    0.8501896    -8.137271    189.18814   0.01539617  0.015153694           12 
 1025000   0.83893322    -8.178835    188.85243  0.015353856  0.015139443           12 
 1026000   0.84478452   -8.1701059    188.83732  0.015337664  0.015125132            7 
 1027000   0.84332606   -8.1548203     189.0026  0.015336141  0.015110928            9 
 1028000    0.8591278   -8.1352756    189.18013  0.015335614  0.015096748           10 
 1029000   0.83939386   -8.1320786    189.68514  0.015361608  0.015082647           16 
 1030000   0.85761018     -8.13662    189.26539  0.015312734  0.015068551           23 
 1031000   0.84351159   -8.1699277    188.70241  0.015252377  0.015054378           12 
 1032000   0.85137588   -8.1563989    189.61659  0.015311417  0.015040229           20 
 1033000   0.83417108   -8.1534347    189.32896  0.015273391  0.015026081           14 
 1034000   0.85040828   -8.1716716    189.45982  0.015269166   0.01501194           24 
 1035000   0.81162184   -8.1714808    189.76656  0.015279111  0.014997771           21 
 1036000   0.85097766   -8.1718572    189.23286  0.015221433  0.014983621           28 
 1037000   0.84212737   -8.1940028    189.34821  0.015216025   0.01496948           17 
 1038000   0.84302625   -8.1489015    189.16146  0.015186373   0.01495533           10 
 1039000   0.83877631   -8.1965835    188.76775  0.015140179  0.014941157           36 
 1040000   0.83883223   -8.1852139    189.31417  0.015169405  0.014926973           18 
 1041000   0.84040811    -8.198114    188.90674  0.015122217  0.014912728           22 
 1042000   0.81240109   -8.2267946    188.89419  0.015106701  0.014898486           42 
 1043000   0.85344786   -8.1656339    189.18715  0.015115624  0.014884275           20 
 1044000   0.82422492   -8.2020861    188.70025   0.01506228  0.014870072           18 
 1045000   0.84543142   -8.2086323    189.46308  0.015108699   0.01485595           34 
 1046000   0.82679684   -8.2028187     189.4374  0.015092209  0.014841846           19 
 1047000   0.84294952   -8.1784192    189.49717  0.015082551  0.014827772            9 
 1048000   0.82837551   -8.2091262    189.32017  0.015054085  0.014813743           24 
 1049000   0.84593083   -8.1814525    189.58804  0.015061013  0.014799548           30 
 1050000   0.82990101   -8.2091153    188.72552  0.014978216  0.014785386           12 
 1051000   0.83684255   -8.2003799    189.07933  0.014992018  0.014771263           22 
 1052000   0.83955345   -8.1905619    189.54018  0.015014273  0.014757203           25 
 1053000   0.82386556   -8.2081716    189.26168  0.014977974  0.014743177           23 
 1054000   0.85521906   -8.2238344    189.24997  0.014962838  0.014729104           24 
 1055000   0.82866374   -8.2323344    188.94557   0.01492461  0.014715027           23 
 1056000   0.82316402   -8.2007512    189.61918  0.014963635  0.014701022           28 
 1057000   0.82932683   -8.2232419    189.39968  0.014932173   0.01468702           39 
 1058000   0.82529383   -8.2125862    189.74491  0.014945251  0.014673032           30 
 1059000   0.83700125   -8.1834276    190.02263  0.014952992  0.014659111           28 
 1060000   0.82838966   -8.2209639    189.21545  0.014875428  0.014645117           31 
 1061000   0.83658318   -8.2167266    189.53488  0.014886497   0.01463104           36 
 1062000    0.8413607   -8.2281095     189.2073  0.014846775  0.014616915           41 
 1063000   0.82732967   -8.2617605    189.25665  0.014836677  0.014602776           34 
 1064000   0.83641819   -8.2346954    189.71391  0.014858546  0.014588671           40 
 1065000   0.82276988   -8.2277103    189.47111  0.014825595   0.01457456           25 
 1066000   0.83268098   -8.2514571    189.05809    0.0147794   0.01456048           28 
 1067000   0.82382006   -8.2792498    189.39024   0.01479149  0.014546438           16 
 1068000   0.84230996   -8.2324174    189.78023  0.014808071  0.014532444           28 
 1069000   0.82090385   -8.2434704    190.06836  0.014816679  0.014518469           32 
 1070000   0.81683846   -8.2531346    189.44672  0.014754417  0.014504498           56 
 1071000   0.81374518   -8.2722015    189.21085  0.014722289  0.014490457           34 
 1072000   0.82833629   -8.2408981    190.01077  0.014770737  0.014476455           45 
 1073000   0.82005787   -8.2585362    189.21412  0.014695101  0.014462482           31 
 1074000   0.83884621   -8.2456556    189.70432  0.014719454  0.014448525           31 
 1075000   0.82391732   -8.2517088    189.62877  0.014699905  0.014434522           31 
 1076000   0.83895614   -8.2732248    189.38499  0.014667363  0.014420536           33 
 1077000   0.83074839   -8.2693391    189.88653  0.014692551  0.014406548           32 
 1078000   0.81479263   -8.2568519    189.35638  0.014637939  0.014392622           44 
 1079000   0.82991527   -8.2481394    189.80951  0.014659369  0.014378769           33 
 1080000   0.81303089   -8.2519431    189.50283  0.014622132  0.014364893           46 
 1081000   0.81206823   -8.2591344    190.02153  0.014648592  0.014351032           55 
 1082000   0.84988895   -8.2474517    190.15374  0.014645236  0.014337248           33 
 1083000   0.81106094   -8.2612371    189.73898  0.014599798  0.014323506           41 
 1084000   0.81482417   -8.1959718    190.11249  0.014615044  0.014309773           27 
 1085000   0.83329904   -8.2381356    190.14767  0.014604276  0.014296005           22 
 1086000   0.82429939   -8.2644132    189.91314  0.014572832  0.014282219           38 
 1087000   0.81816543    -8.309701    189.48063  0.014526267  0.014268359           38 
 1088000   0.81766909   -8.2608909    189.65552  0.014526311  0.014254485           35 
 1089000   0.81688395   -8.2380904    189.75361  0.014520478  0.014240716           38 
 1090000   0.83204406   -8.2225912    190.16553  0.014538649  0.014227034           52 
 1091000   0.81723328   -8.2662635    190.05393  0.014516799  0.014213291           58 
 1092000   0.81504442   -8.2600466    190.71254  0.014553765   0.01419955           69 
 1093000   0.82405934   -8.2712684    190.30761  0.014509577  0.014185849           60 
 1094000   0.80667801   -8.2680243    190.31746  0.014497064  0.014172186           58 
 1095000   0.81675979   -8.2712386    190.58774  0.014504394  0.014158543           56 
 1096000   0.83094668   -8.2846978    189.86122   0.01443592  0.014144908           58 
 1097000   0.80529293   -8.2782744     190.2746  0.014454163  0.014131311           94 
 1098000   0.81435076   -8.2946382     190.1825  0.014434008  0.014117769          103 
 1099000   0.82857186   -8.2717747    190.04001   0.01441007   0.01410424           80 
 1100000   0.80935753   -8.2969289    190.60944  0.014440109  0.014090657          104 
 1101000   0.81165711   -8.2836279    190.45355  0.014415194  0.014077042           82 
 1102000    0.8221402   -8.2639126    190.27222  0.014388401  0.014063481           86 
 1103000   0.82393061   -8.2936269    190.04993  0.014358562   0.01404991          109 
 1104000   0.79940771   -8.3165469    190.08214  0.014347987   0.01403639          105 
 1105000   0.82671954   -8.2882994    190.57233   0.01437197  0.014022818          124 
 1106000    0.8207131   -8.2855225      190.351  0.014342299  0.014009212          125 
 1107000   0.80282447   -8.2845376    190.43394  0.014335587  0.013995661          136 
 1108000   0.78410349   -8.2955085    190.94108  0.014360791  0.013982138          164 
 1109000   0.80717189   -8.2715035     190.6586  0.014326615  0.013968614          121 
 1110000   0.82460918    -8.295767    190.74267  0.014320021   0.01395511          129 
 1111000   0.81730211   -8.3113414    190.66869  0.014301582  0.013941665          110 
 1112000   0.81060759   -8.2794021    190.67877  0.014289476  0.013928152          131 
 1113000   0.81000545   -8.3523469    190.35807  0.014252626  0.013914595          139 
 1114000   0.82211089   -8.3494458    190.15997  0.014225012  0.013901014          132 
 1115000   0.79482651   -8.3213622    190.05856  0.014204676  0.013887415          142 
 1116000   0.82113303   -8.3455762    190.07692  0.014193318   0.01387384          114 
 1117000   0.79938016    -8.322538    190.21889  0.014191203  0.013860362          120 
 1118000   0.80703363   -8.3017158     190.3342  0.014187105  0.013846863          125 
 1119000   0.80444358   -8.3360552    190.33388  0.014174403  0.013833417          149 
 1120000   0.82329425    -8.315138    190.53662  0.014176832  0.013820001          144 
 1121000   0.81747714   -8.3248315    190.42437  0.014155841  0.013806607          133 
 1122000   0.79981583   -8.3184654    190.43378  0.014143923  0.013793205          125 
 1123000   0.82389692   -8.2890196    190.87924  0.014164384  0.013779775          105 
 1124000   0.78939216   -8.3230507    190.32612  0.014110774  0.013766356          171 
 1125000   0.80927952   -8.3301736    190.31646  0.014097515  0.013752937          178 
 1126000   0.79730979   -8.3425083    190.66103  0.014110496  0.013739502          183 
 1127000   0.79845555   -8.3331747    190.51752  0.014087365  0.013726036          235 
 1128000    0.8134998   -8.3195235    190.73206  0.014090725   0.01371259          178 
 1129000    0.8172611   -8.3295772    190.64444  0.014071777  0.013699184          208 
 1130000    0.8249229   -8.3355249    190.50047  0.014048707  0.013685768          137 
 1131000   0.79731249   -8.3232862    191.15695  0.014084656   0.01367237          152 
 1132000   0.78849346   -8.3516271    190.52711  0.014025847  0.013659006          144 
 1133000   0.81257152   -8.3381456    190.56327  0.014016127  0.013645621          149 
 1134000   0.80767077   -8.3359288    190.16829  0.013974742  0.013632207          183 
 1135000   0.79568645   -8.3493069    190.19921  0.013964699  0.013618767          160 
 1136000    0.8032417   -8.3540416    190.48068  0.013973055  0.013605296          164 
 1137000   0.79786027   -8.3350311    190.54568  0.013965529  0.013591937          158 
 1138000   0.81528346   -8.3714385    189.97464  0.013911441  0.013578556          184 
 1139000   0.81569606   -8.3439684    189.99635  0.013900816  0.013565138          168 
 1140000   0.80186958   -8.3511231    190.08889  0.013895386   0.01355176          186 
 1141000   0.79920972   -8.3493264    190.36887  0.013903657  0.013538413          179 
 1142000   0.81390854   -8.3690735    190.15345  0.013875763  0.013525038          173 
 1143000   0.77600163   -8.3546559    190.36404  0.013878976  0.013511696          190 
 1144000    0.7976191   -8.3764732    190.47578  0.013874984  0.013498364          161 
 1145000    0.7942903   -8.3602427    190.82877  0.013888557  0.013485009          202 
 1146000   0.76699862   -8.3736483    189.97763  0.013814546   0.01347167          185 
 1147000    0.7983291   -8.3747054    189.99959  0.013804097  0.013458313          162 
 1148000   0.81002191   -8.3626587    189.71182  0.013771183  0.013444994          167 
 1149000   0.80239314   -8.3794226    190.63209  0.013825942  0.013431712          194 
 1150000   0.77902075   -8.3839107    189.94559  0.013764173  0.013418399          186 
 1151000   0.80908493   -8.3871822    189.80381   0.01374195  0.013405137          166 
 1152000    0.7968502   -8.3491951    190.69123  0.013794215  0.013391969          189 
 1153000   0.78109737   -8.3736955    190.32416  0.013755721  0.013378779          194 
 1154000   0.79997824   -8.3741651    190.35279  0.013745869   0.01336556          244 
 1155000   0.78895698   -8.3990527    190.13503  0.013718256   0.01335231          280 
 1156000   0.77598564   -8.4221288     189.9157  0.013690578  0.013339011          269 
 1157000   0.77375902   -8.4025067    190.61643  0.013729216  0.013325706          268 
 1158000   0.80413482   -8.3869643    190.34959  0.013698157  0.013312412          297 
 1159000   0.78364109   -8.3920008    190.63556    0.0137069  0.013299149          282 
 1160000   0.78643724   -8.4215035    190.28212  0.013669693   0.01328586          258 
 1161000   0.79494362   -8.4391745    190.09425  0.013644433    0.0132726          268 
 1162000   0.79367909   -8.4530712    189.78246  0.013610331  0.013259338          353 
 1163000   0.78858254   -8.4390467    189.57353  0.013583658  0.013246018          296 
 1164000   0.78449054   -8.4408983    189.80636  0.013588657  0.013232691          375 
 1165000    0.7850395    -8.421681    190.22693  0.013607076  0.013219409          334 
 1166000   0.79405944   -8.4530539    190.34665  0.013603963  0.013206155          363 
 1167000    0.7788435   -8.4775527    189.76167  0.013550534  0.013192861          381 
 1168000   0.79031764   -8.4420697    190.20804  0.013570779  0.013179594          542 
 1169000   0.77917625   -8.4871097    189.74016  0.013525817   0.01316631          403 
 1170000   0.77648134   -8.4233588     190.1782  0.013545455  0.013153014          406 
 1171000   0.79232397   -8.4500809    189.76892  0.013504762  0.013139704          447 
 1172000   0.78975504   -8.4670099    189.79579   0.01349515  0.013126427          467 
 1173000   0.79308211    -8.486876    189.67076  0.013474763   0.01311311          446 
 1174000   0.79352503   -8.4732032    190.16319  0.013498239  0.013099862          490 
 1175000   0.77187498   -8.4814711    189.74551  0.013457128  0.013086613          635 
 1176000   0.76984184   -8.4766159    189.48469  0.013427203  0.013073329          683 
 1177000   0.80753853    -8.478691    189.74328  0.013434104  0.013060043          683 
 1178000   0.80190908    -8.479579    189.56635  0.013410183   0.01304677          728 
 1179000   0.78665858   -8.4891018    189.47634  0.013392447  0.013033523          539 
 1180000   0.77458635   -8.4844691    189.58612  0.013388851  0.013020235          565 
 1181000   0.78850099   -8.4760446    189.75105  0.013389151  0.013007005          778 
 1182000    0.7635413   -8.4658094     189.7765  0.013379618  0.012993802          826 
 1183000   0.79967686   -8.4967858    189.87473  0.013375228  0.012980574          902 
 1184000   0.78549119    -8.495369    189.39015  0.013329825  0.012967305          892 
 1185000   0.79396967   -8.5131945    189.58673    0.0133324   0.01295406          933 
 1186000   0.79067911   -8.5197028    189.86512   0.01334072  0.012940846         1006 
 1187000   0.79180874     -8.55523    189.53828  0.013306535  0.012927619         1036 
 1188000   0.77666185   -8.5192288    189.98276  0.013326513  0.012914337         1041 
 1189000   0.76667066   -8.5835613    189.27364  0.013265604  0.012901071         1122 
 1190000    0.8062081   -8.5525091    189.70757  0.013284844  0.012887788         1086 
 1191000   0.78132307   -8.5565288    189.40399  0.013252448  0.012874495         1112 
 1192000   0.77573093   -8.5770843    188.85623  0.013203036  0.012861203         1165 
 1193000   0.76698346   -8.5939224    189.12736  0.013210908  0.012847898         1218 
 1194000   0.78412542   -8.5633674    188.98587  0.013189968   0.01283463         1135 
 1195000    0.7872878   -8.5372127    189.39813   0.01320768  0.012821359         1172 
 1196000   0.77096555    -8.600802    189.09818  0.013175737  0.012808107         1249 
 1197000   0.78382396    -8.593372      189.033  0.013160192  0.012794835         1188 
 1198000   0.78438705   -8.5664514    189.41591  0.013175842  0.012781548         1248 
 1199000   0.76744195   -8.6199791    189.04459  0.013139046  0.012768286         1266 
 1200000   0.77396742   -8.6251155    188.96245  0.013122393  0.012754978         1289 
 1201000   0.76793106   -8.6003358     189.1489  0.013124403  0.012741711         1317 
 1202000   0.75613996   -8.6013131    188.78668  0.013088372  0.012728449         1368 
 1203000   0.78964019   -8.6240604    189.03788  0.013094893  0.012715177         1377 
 1204000   0.77575671    -8.606684    189.14283  0.013091281  0.012701945         1409 
 1205000   0.76531392   -8.6292761    188.84973  0.013060147  0.012688693         1476 
 1206000    0.7751138   -8.6310057    188.76763  0.013043645  0.012675409         1465 
 1207000   0.77919928   -8.6023243    189.35146  0.013073147  0.012662169         1453 
 1208000   0.77693881   -8.6151921    188.85682  0.013028202  0.012648937          930 
 1209000    0.7615684     -8.63511    188.70106   0.01300669  0.012635692         1401 
 1210000    0.7565671   -8.6610193    188.47396    0.0129803  0.012622485         1528 
 1211000   0.76952989   -8.6226313    188.75867  0.012989174  0.012609282         1511 
 1212000   0.75544734   -8.6444461    188.91272  0.012989048  0.012596093         1584 
 1213000   0.75137618   -8.6479487    188.52786    0.0129519  0.012582888         1504 
 1214000    0.7755901   -8.6464676    188.41618  0.012933565  0.012569712         1510 
 1215000   0.78455908   -8.6493922    188.59833  0.012935413  0.012556535         1564 
 1216000   0.78297278   -8.6272225    188.63325  0.012927169  0.012543357         1624 
 1217000   0.75667675   -8.6416845    188.40776  0.012901107  0.012530165         1651 
 1218000   0.77382251   -8.6426842    188.25191  0.012879852  0.012517022         1632 
 1219000   0.77485005   -8.6576951    188.13387  0.012861216  0.012503848         1677 
 1220000   0.77174768    -8.657238    188.67012  0.012887303  0.012490674         1736 
 1221000   0.75648248   -8.6685863     188.2954  0.012851174  0.012477479         1764 
 1222000   0.76303849   -8.7047628    188.30559  0.012841352  0.012464264         1821 
 1223000   0.74618741   -8.7335432    187.99362  0.012809595  0.012451033         1831 
 1224000   0.77851915   -8.7114963    188.09982   0.01280636  0.012437795         1790 
 1225000   0.76732057   -8.6881238    188.12643  0.012797716  0.012424612         1856 
 1226000    0.7514049   -8.7225738    188.05246   0.01278225  0.012411409         1918 
 1227000   0.76663996   -8.7042221    188.14204  0.012777916  0.012398222         1928 
 1228000    0.7782051   -8.7180884    188.04563  0.012760968  0.012385042         1933 
 1229000   0.76732121   -8.7250442    187.65809  0.012724308  0.012371861         1950 
 1230000   0.75922856    -8.718396    187.93714  0.012732868  0.012358696         1913 
 1231000   0.75300884   -8.7134993      187.946  0.012723125  0.012345552         1999 
 1232000   0.74669841   -8.7451593    187.83356  0.012705192  0.012332406         2036 
 1233000   0.76290481   -8.7622624    187.55114    0.0126758  0.012319246         2003 
 1234000   0.75046019   -8.7570871    187.47882  0.012660644  0.012306083         2025 
 1235000   0.77863245   -8.7352259    187.79911  0.012672005  0.012292921         2054 
 1236000   0.75613778   -8.7765666    187.82756   0.01266367  0.012279754         2127 
 1237000    0.7494661   -8.7338358    187.65131  0.012641559  0.012266599         2114 
 1238000   0.74144416   -8.7328779    187.67089  0.012632666  0.012253429         2171 
 1239000   0.75359848   -8.7645932    187.21173  0.012591588  0.012240261         2134 
 1240000   0.76986574   -8.7578193    187.62219  0.012609018  0.012227119         2045 
 1241000    0.7619589   -8.7774671    187.68567   0.01260312  0.012213965         2136 
 1242000   0.74815308   -8.7652005    187.51197  0.012581319  0.012200839         2167 
 1243000   0.74009288   -8.7500248    187.65791  0.012580981  0.012187709         2186 
 1244000   0.75880816   -8.7887803    187.44145  0.012556367   0.01217462         2212 
 1245000   0.76131802   -8.7656866    187.63011   0.01255891  0.012161534         2200 
 1246000   0.75559106   -8.7854418    187.19682  0.012519852  0.012148429         2224 
 1247000   0.75752676   -8.7860863    187.44745   0.01252656  0.012135313         2253 
 1248000   0.75833422   -8.7931175    187.66414  0.012530992  0.012122189         2330 
 1249000   0.75018981   -8.8080285    187.95636  0.012540456  0.012109096         2274 
 1250000   0.74926506    -8.793797    187.54341  0.012502894  0.012096027         2297 
 1251000   0.75698149   -8.8267588    186.99844  0.012456597  0.012082968         2305 
 1252000   0.75102763   -8.8180389    187.35081  0.012470102   0.01206992         2309 
 1253000   0.75317294   -8.8098492     186.7904  0.012422878  0.012056876         2339 
 1254000   0.75954091   -8.8067557    186.94798  0.012423443  0.012043835         2365 
 1255000   0.74542888   -8.8115156    187.35119  0.012440318  0.012030797         2368 
 1256000    0.7420079   -8.8283351    187.24706  0.012423504  0.012017742         2492 
 1257000   0.74523535   -8.8573321     186.9183  0.012391826  0.012004644         2553 
 1258000   0.75346079   -8.8329928    187.12189  0.012395462  0.011991584         2457 
 1259000   0.76527211    -8.824492    187.26137  0.012394848  0.011978547         2502 
 1260000   0.74369931   -8.8492956    186.80124  0.012354579  0.011965488         2487 
 1261000   0.74293407   -8.8719732    186.41039  0.012318952  0.011952392         2605 
 1262000   0.77291137   -8.8769763    186.90699  0.012341983  0.011939287         2608 
 1263000   0.75342653   -8.8899809    186.26443  0.012289815  0.011926202         2592 
 1264000   0.74587076   -8.8734381    186.64943  0.012305474  0.011913136         2624 
 1265000   0.76708911   -8.8928627    186.81563  0.012306695  0.011900076         2644 
 1266000   0.74803624   -8.8921804    186.46369  0.012273808  0.011887032         2613 
 1267000   0.77419685   -8.8800409    186.75148  0.012283049  0.011874005         2713 
 1268000   0.75016229   -8.8899725    186.94402  0.012286016  0.011860993         2639 
 1269000   0.74618714   -8.9214223    186.57966  0.012252407  0.011847959         2655 
 1270000   0.74773001   -8.9102906    186.39497  0.012230641  0.011834919         2707 
 1271000   0.73863235   -8.9007235    186.82224  0.012249032  0.011821871         2685 
 1272000   0.73281622   -8.9415761    186.30155   0.01220529  0.011808813         2713 
 1273000   0.75597617   -8.9159251     186.5184  0.012209898  0.011795753         2651 
 1274000   0.75710749   -8.9215856    186.25242  0.012182916  0.011782705         2723 
 1275000   0.75091369    -8.915074    186.04135  0.012159566  0.011769677         2737 
 1276000   0.74710725   -8.9132497    186.36952  0.012171468  0.011756675         2712 
 1277000   0.74356495   -8.9276034    185.87979  0.012129978  0.011743672         2780 
 1278000   0.73028751   -8.9341682    186.32692  0.012149643  0.011730657         2765 
 1279000   0.75947779   -8.9671822     185.9232  0.012113839  0.011717664         2821 
 1280000   0.74661551   -8.9445433    185.94364  0.012105706  0.011704697         2809 
 1281000   0.74657041   -8.9512655    186.07273  0.012104653  0.011691744         2795 
 1282000   0.74264298   -8.9442778    186.20737  0.012103963  0.011678803         2776 
 1283000    0.7540231   -8.9664205    185.74673   0.01206461   0.01166586         2877 
 1284000   0.75429231   -8.9560388    186.08478  0.012077154  0.011652947         2830 
 1285000   0.74876026   -8.9418659    185.96491  0.012059981  0.011640029         2929 
 1286000    0.7364701   -8.9555434    186.07684  0.012057857    0.0116271         2933 
 1287000   0.76490861   -9.0044665    185.77274  0.012028797  0.011614179         2950 
 1288000   0.73915832   -8.9713847    185.65168  0.012011625  0.011601267         2968 
 1289000   0.73425894    -8.995489    185.51687  0.011993591  0.011588343         2959 
 1290000   0.74370901   -8.9949343    185.51723  0.011984317  0.011575412         3003 
 1291000   0.72383556   -9.0070169    185.66436  0.011984531  0.011562499         3034 
 1292000    0.7455836    -9.000602     185.7762  0.011982469  0.011549605         2977 
 1293000   0.74606236   -9.0128775    185.89678  0.011980973  0.011536736         3058 
 1294000   0.75152478   -9.0423999    185.88547  0.011970986   0.01152387         3020 
 1295000   0.74202109   -9.0046218    185.68476  0.011948826  0.011511037         3012 
 1296000   0.73394205   -8.9794589     185.5585  0.011931488  0.011498215         3006 
 1297000   0.70321301   -9.0192438    185.83988  0.011940368  0.011485407         3011 
 1298000   0.72446529   -9.0078106    185.90948  0.011935637  0.011472599         3057 
 1299000   0.73988216   -9.0236259    185.69847  0.011912912  0.011459814         3076 
 1300000   0.73795387   -9.0218106    185.62502   0.01189904   0.01144703         3058 
 1301000   0.73877332   -9.0400076    185.84255  0.011903827  0.011434259         3086 
 1302000    0.7313509   -9.0283105    185.78635  0.011891087  0.011421495         3067 
 1303000   0.74017327   -9.0072502    185.77472  0.011881218  0.011408748         3076 
 1304000   0.71960924    -9.012816    185.18043  0.011834127  0.011396023         3085 
 1305000   0.73983667   -9.0315918     185.5845  0.011850862  0.011383292         3061 
 1306000   0.73562398    -9.052706    185.43185  0.011832048  0.011370583         3109 
 1307000    0.7182416   -9.0287561    185.69493  0.011839769   0.01135787         3116 
 1308000   0.71521818   -9.0227223    185.52737  0.011820041  0.011345184         3097 
 1309000   0.72247481   -9.0649967    185.30628  0.011796936  0.011332505         3111 
 1310000   0.73659508   -9.0450718    185.20665  0.011781594  0.011319841         3141 
 1311000   0.74769242   -9.0683724    184.56305  0.011731696  0.011307198         3078 
 1312000   0.72966538   -9.0188695    185.17629  0.011761706  0.011294539         3179 
 1313000   0.71624652    -9.052503    185.02869   0.01174338  0.011281875         3169 
 1314000   0.74066425   -9.0661702    184.97172   0.01173083  0.011269226         3211 
 1315000   0.74213446   -9.0620049    184.99843  0.011723601  0.011256591         3193 
 1316000   0.72357263   -9.0589858    185.51454  0.011747374  0.011243979         3186 
 1317000   0.71630766   -9.0653748    185.53067  0.011739476  0.011231381         3218 
 1318000   0.73428948     -9.07521    184.90382  0.011690934  0.011218787         3199 
 1319000   0.72712825   -9.0862062    185.31463  0.011708026  0.011206196         3220 
 1320000   0.73782148   -9.0559183    185.43565  0.011706796  0.011193627         3201 
 1321000   0.72545477   -9.0835822    185.29976  0.011689361  0.011181063         3220 
 1322000    0.7311931   -9.1067536    184.79802  0.011648892  0.011168516         3197 
 1323000   0.73783076   -9.0702589     185.0985  0.011659013  0.011155987         3232 
 1324000   0.71978571   -9.1143199    184.93827  0.011640123  0.011143466         3259 
 1325000   0.72555246   -9.0996826    184.97166  0.011633437  0.011130949         3192 
 1326000    0.7084187   -9.0944762    185.05629  0.011629983  0.011118464         3233 
 1327000   0.71571242   -9.0991798     185.4251  0.011644379  0.011105979         3243 
 1328000   0.72522125   -9.1035372    185.08458  0.011614243  0.011093528         3282 
 1329000   0.73586405   -9.0652933    184.99931  0.011600158  0.011081106         3279 
 1330000   0.71404077   -9.0962966    184.94654  0.011588129  0.011068693         3247 
 1331000    0.7303701   -9.0870069    184.93193  0.011578508  0.011056295         3269 
 1332000   0.71135318   -9.0912859    184.78856  0.011560846  0.011043888         3291 
 1333000   0.73494924   -9.1167037    185.20586  0.011578261  0.011031527         3296 
 1334000   0.70706053    -9.130627    184.90343  0.011550689  0.011019171         3237 
 1335000   0.73038504   -9.0899678    185.26024   0.01156431  0.011006838         3282 
 1336000   0.72778988   -9.0605628    185.56676  0.011574773  0.010994546         3275 
 1337000   0.72109282   -9.0978021    185.20999  0.011543879  0.010982242         3261 
 1338000   0.72672337   -9.1253697    184.76241  0.011507375  0.010969953         3314 
 1339000   0.72171885   -9.0949698    185.09523  0.011519494  0.010957657         3244 
 1340000   0.73006329   -9.1278105    184.96762  0.011502961  0.010945394         3301 
 1341000   0.71153565   -9.1291384    184.97476  0.011494827  0.010933127         3317 
 1342000   0.70839017     -9.11245    184.76516  0.011473246  0.010920869         3341 
 1343000   0.72026258    -9.129802    184.73179  0.011462633  0.010908611         3310 
 1344000   0.71235541   -9.1206153    184.69231  0.011451656  0.010896397         3331 
 1345000   0.72568466   -9.1334604    184.81502  0.011450745   0.01088421         3344 
 1346000   0.70617679   -9.1304005    184.74365  0.011437819  0.010872006         3325 
 1347000   0.73305545   -9.1366226    184.52379  0.011415725   0.01085983         3285 
 1348000   0.71965987   -9.1211214    185.03621  0.011438935  0.010847648         3372 
 1349000   0.71641393   -9.1463243    184.29273  0.011384528  0.010835504         3311 
 1350000   0.72067922   -9.1228035    184.93795  0.011415923   0.01082337         3335 
 1351000   0.70825981   -9.1539098     184.7915  0.011398439  0.010811247         3359 
 1352000   0.71678282   -9.1379881    184.47896  0.011370745  0.010799134         3334 
 1353000   0.70129955   -9.1487585    184.43296  0.011359507  0.010787022         3329 
 1354000   0.71441008   -9.1379736    184.57005  0.011359555  0.010774937         3346 
 1355000    0.7065191    -9.129999    184.60299  0.011353198  0.010762868         3323 
 1356000    0.7204997   -9.1706628     184.0281  0.011309495  0.010750816         3339 
 1357000   0.70364442   -9.1309167    184.84165   0.01135112  0.010738765         3336 
 1358000    0.7146199   -9.1369151    184.58233  0.011326849   0.01072675         3326 
 1359000   0.71311025   -9.1666933    184.70226  0.011325868  0.010714742         3329 
 1360000   0.72576059   -9.1533594    184.42374  0.011300474  0.010702751         3387 
 1361000   0.72637025   -9.1508928     184.4099  0.011291324  0.010690771         3325 
 1362000   0.70861979   -9.1630219    184.24607   0.01127301   0.01067882         3375 
 1363000   0.69531228   -9.1804681    184.27768  0.011266672  0.010666867         3331 
 1364000   0.70621157   -9.1500172      184.437  0.011268145  0.010654923         3333 
 1365000   0.70839048   -9.1520521     184.4177  0.011258712  0.010643005         3327 
 1366000   0.70859815    -9.164226    184.33218  0.011245253    0.0106311         3302 
 1367000   0.71512714   -9.1704062    184.34419  0.011237758   0.01061921         3349 
 1368000   0.70497533   -9.1468274    184.44415  0.011235633  0.010607329         3397 
 1369000   0.70166754   -9.1843922     184.1884  0.011211858  0.010595466         3381 
 1370000   0.71385766    -9.167584    184.15513   0.01120165   0.01058362         3347 
 1371000   0.70521238   -9.1639609    184.46628  0.011212392  0.010571786         3328 
 1372000   0.69520327   -9.1473795    184.45678  0.011203643   0.01055997         3363 
 1373000   0.70818523   -9.1483139    184.18824  0.011179184  0.010548188         3397 
 1374000   0.71302778   -9.1402262    184.55297  0.011193169  0.010536419         3358 
 1375000   0.69440082   -9.1821812    184.47163  0.011180099   0.01052466         3367 
 1376000   0.70400468   -9.1790561     184.4217   0.01116895  0.010512924         3334 
 1377000   0.69450857   -9.1507779    184.44924  0.011162506  0.010501184         3374 
 1378000   0.69529293   -9.1775808    183.96785  0.011125293  0.010489476         3416 
 1379000   0.70672993   -9.1664754    184.37351   0.01114174  0.010477789         3377 
 1380000   0.70664872   -9.1807754    184.28924  0.011128577  0.010466104         3356 
 1381000   0.70695981   -9.1775855    184.12084  0.011110357  0.010454436         3384 
 1382000   0.70268609   -9.1634017    184.44417  0.011121814  0.010442774         3358 
 1383000   0.70431117   -9.1891289    183.87587  0.011079529  0.010431118         3399 
 1384000   0.71738394   -9.1564857    184.34724  0.011099906  0.010419508         3414 
 1385000   0.68659595   -9.1725427    184.43076  0.011096917  0.010407898         3379 
 1386000   0.68785276   -9.1837309    184.38922  0.011086413  0.010396313         3372 
 1387000   0.70166389    -9.163234    184.32821  0.011074754  0.010384733         3377 
 1388000   0.70181418   -9.1663097     184.4716  0.011075384  0.010373175         3386 
 1389000    0.7059007   -9.1800184    184.25223   0.01105425  0.010361618         3399 
 1390000   0.68203012   -9.1784333     184.1966  0.011042961  0.010350094         3381 
 1391000   0.70335872    -9.185286    184.31506   0.01104212  0.010338578         3403 
 1392000   0.70382515   -9.1943603    184.10997  0.011021909  0.010327064         3385 
 1393000   0.70372411   -9.1862815     184.1171  0.011014424  0.010315569         3414 
 1394000   0.70589019   -9.1730713    183.97237   0.01099787  0.010304096         3377 
 1395000   0.69179955   -9.1596186    184.33989  0.011011941  0.010292639         3370 
 1396000    0.6871675   -9.1939495    184.28256   0.01100063  0.010281191         3417 
 1397000   0.69381129   -9.1989225    184.54762  0.011008567  0.010269771         3422 
 1398000   0.70054345   -9.1765323    184.35051  0.010988943  0.010258345         3397 
 1399000   0.70277372   -9.1881673    184.45512  0.010987319  0.010246941         3372 
 1400000   0.69277403   -9.1964369    184.25241  0.010967405  0.010235543         3390 
 1401000   0.69674711   -9.2063604    184.02727  0.010946185  0.010224162         3390 
 1402000   0.69466409   -9.1890528    184.11807  0.010943775  0.010212797         3428 
 1403000   0.69445823    -9.215938    184.17757  0.010939509  0.010201452         3409 
 1404000   0.69951379   -9.2012261    184.00523  0.010921488  0.010190126         3393 
 1405000   0.68237825   -9.2102237    183.93914  0.010909795  0.010178816         3408 
 1406000   0.69318694   -9.1991876    184.38637  0.010928542  0.010167514         3417 
 1407000   0.68456221   -9.1897328    184.19593  0.010909496  0.010156226         3395 
 1408000    0.6984179    -9.197475    183.97074   0.01088842  0.010144956         3429 
 1409000   0.68956091   -9.2016677    184.21554   0.01089517  0.010133713         3422 
 1410000   0.68336599    -9.207616    184.07442  0.010879103  0.010122479         3403 
 1411000    0.6893686   -9.1874302    184.27084  0.010882993  0.010111254         3460 
 1412000   0.67560004   -9.2086402     184.4611  0.010886514  0.010100035         3480 
 1413000   0.69351213    -9.171049    184.31525  0.010870208  0.010088846         3431 
 1414000   0.70990344   -9.2162687    183.77383  0.010830613  0.010077651         3442 
 1415000    0.7026097   -9.2080514    184.04461  0.010838905   0.01006648         3416 
 1416000    0.6892164   -9.1942227    183.93365   0.01082472  0.010055314         3401 
 1417000   0.69449594    -9.216726    184.06656  0.010824898  0.010044165         3426 
 1418000   0.67470787     -9.20205    184.03202  0.010815234  0.010033042         3452 
 1419000    0.7047397    -9.218401    183.76852  0.010792138   0.01002194         3427 
 1420000   0.67729442   -9.2222758    183.99486   0.01079782   0.01001085         3397 
 1421000   0.67895395   -9.1939825    184.09701  0.010796212  0.009999778         3404 
 1422000   0.68235379   -9.2069428    183.99987  0.010782927 0.0099887192         3422 
 1423000   0.68345857   -9.2247197    184.11907   0.01078233 0.0099776706         3479 
 1424000   0.68651455   -9.2248021    184.07718  0.010772307 0.0099666368         3385 
 1425000   0.69187172   -9.2290473    183.86341  0.010752246  0.009955628         3444 
 1426000   0.66887709   -9.2048109    184.14945  0.010761422 0.0099446132         3442 
 1427000   0.69104279   -9.2055176    183.98408  0.010744223 0.0099336218         3430 
 1428000   0.68234263   -9.2124081    183.75309   0.01072322 0.0099226352         3417 
 1429000   0.68358535   -9.2132735    184.04489  0.010732732 0.0099116804         3443 
 1430000   0.67648335   -9.2106266    184.11107  0.010729083 0.0099007336         3437 
 1431000   0.67998248   -9.1920678    183.99174  0.010714637 0.0098898096         3400 
 1432000   0.66788369   -9.2332543    183.92203  0.010703097 0.0098788919         3438 
 1433000   0.68142941   -9.2270124    183.85483  0.010691721 0.0098680074         3465 
 1434000   0.70200069    -9.193752    183.66323  0.010673131 0.0098571302         3411 
 1435000   0.69328637   -9.2021163    183.83349   0.01067558 0.0098462672         3426 
 1436000   0.67429032   -9.2274224    183.61207  0.010655296 0.0098353998         3449 
 1437000   0.67218125   -9.2189964    183.76648  0.010656836  0.009824557         3431 
 1438000   0.67869019   -9.2009429    184.07518  0.010667315 0.0098137231         3440 
 1439000   0.67883656   -9.2102353     183.6216  0.010633634 0.0098029054         3418 
 1440000   0.67601156   -9.2128129    183.98746  0.010647422 0.0097921026         3433 
 1441000   0.67695935   -9.2263046    183.82151  0.010630437  0.009781313         3427 
 1442000   0.68187636   -9.2176485    183.61952  0.010611392 0.0097705343         3399 
 1443000   0.66672585   -9.2391504    183.77709  0.010613138 0.0097597954         3371 
 1444000   0.69039013   -9.2178021    184.21129  0.010630845 0.0097490624         3389 
 1445000   0.68239937   -9.2360776    183.99591  0.010611068 0.0097383464         3438 
 1446000   0.69027558   -9.2254079    183.94557  0.010600828  0.009727644         3438 
 1447000    0.6740412   -9.2089483    183.84682  0.010587815 0.0097169674         3432 
 1448000    0.6617011   -9.2163228    184.15733  0.010598373 0.0097062968         3423 
 1449000   0.67268913   -9.2291994    183.98789  0.010581314  0.009695626         3457 
 1450000   0.67923726   -9.2488219     183.7414  0.010559851 0.0096849821         3462 
 1451000   0.67266239   -9.2503292    183.87741  0.010560384 0.0096743418         3455 
 1452000    0.6664868   -9.2203541     183.7523  0.010545931 0.0096637165         3441 
 1453000    0.6526638   -9.2320184    183.80078  0.010541453 0.0096531041         3461 
 1454000   0.67639302    -9.250647    183.62999  0.010524415 0.0096425182         3437 
 1455000   0.65915953   -9.2301261    184.10791  0.010544554 0.0096319454         3466 
 1456000   0.66857488   -9.2366197    183.55129  0.010505454 0.0096213886         3419 
 1457000   0.68033967   -9.2546348    183.81697  0.010513439 0.0096108388         3437 
 1458000   0.67127871   -9.2638427    183.97838  0.010515454 0.0096003027         3473 
 1459000   0.65761881   -9.2351319    183.55971  0.010484333 0.0095897829         3470 
 1460000   0.68255752   -9.2504712    183.74562  0.010487764 0.0095792839         3450 
 1461000   0.66846604   -9.2478575    183.80532   0.01048399 0.0095687992         3443 
 1462000   0.67144735   -9.2468841    183.61336  0.010465878  0.009558325         3467 
 1463000   0.67902001   -9.2348996     183.9178  0.010476065  0.009547862         3450 
 1464000   0.67487586    -9.255153    183.59386   0.01045047 0.0095374069         3479 
 1465000   0.66782348   -9.2332843    183.81304  0.010455804  0.009526961         3487 
 1466000   0.67428667   -9.2398846    183.99194  0.010458841  0.009516538         3474 
 1467000   0.68992757   -9.2571525     183.8957  0.010446245 0.0095061276         3480 
 1468000   0.65327697   -9.2639165    183.74005  0.010430293 0.0094957267         3495 
 1469000   0.65657972   -9.2737055    183.51475  0.010410412 0.0094853433         3458 
 1470000   0.66888823   -9.2696252    183.48914  0.010401879 0.0094749724         3477 
 1471000   0.65499398   -9.2458748    183.74173  0.010409117 0.0094646229         3482 
 1472000   0.66578151   -9.2681555    183.40685  0.010383087 0.0094542746         3508 
 1473000   0.65823107   -9.2246509    183.91517  0.010404796 0.0094439582         3497 
 1474000   0.66942801   -9.2268227    183.78116  0.010390161 0.0094336499         3480 
 1475000   0.67409333   -9.2595107    183.46549  0.010365282  0.009423356         3474 
 1476000   0.66704919   -9.2450552    183.61465  0.010366681 0.0094130707         3486 
 1477000   0.66308678   -9.2462226    183.73325  0.010366354 0.0094028009         3454 
 1478000   0.65041161   -9.2673458    183.56734  0.010349985  0.009392539         3465 
 1479000   0.66594626   -9.2781152    183.65391  0.010347865 0.0093823089         3494 
 1480000   0.68130671   -9.2688852    183.48652  0.010331448 0.0093720837         3494 
 1481000    0.6573591   -9.2617889    183.51249  0.010325933 0.0093618688         3496 
 1482000   0.65514386   -9.2440956     183.7086  0.010329993 0.0093516697         3491 
 1483000   0.65509526    -9.258946    183.65096  0.010319789 0.0093414868         3476 
 1484000   0.67704348   -9.2595604    183.56943  0.010308257  0.009331324         3526 
 1485000   0.65997059   -9.2458107    183.58712  0.010302308 0.0093211811         3516 
 1486000   0.66566771   -9.2571086    183.79634  0.010307107 0.0093110448         3487 
 1487000   0.63905806   -9.2649504    183.32354   0.01027368 0.0093009197         3457 
 1488000     0.675659   -9.2639574    183.00497  0.010248934 0.0092907995         3433 
 1489000   0.64965738   -9.2957534    183.20592  0.010253297 0.0092806944         3519 
 1490000   0.66197102   -9.2663864    183.41818  0.010258287 0.0092706112         3488 
 1491000   0.65829872    -9.240117    183.35382   0.01024781 0.0092605481         3469 
 1492000   0.66800909    -9.254965    183.70083  0.010260323 0.0092504986         3460 
 1493000   0.64473805   -9.2578514    183.50423  0.010242478 0.0092404606         3437 
 1494000   0.65371295   -9.2672799    183.81049  0.010252705 0.0092304389         3498 
 1495000   0.64906454   -9.2833097    183.25511  0.010214889 0.0092204323         3497 
 1496000   0.67010487    -9.271385    183.69809  0.010232736 0.0092104355         3480 
 1497000    0.6500236   -9.2692408    183.33557  0.010205721 0.0092004475         3499 
 1498000   0.65551356   -9.2786579     183.3741  0.010201051  0.009190484         3488 
 1499000   0.67336002   -9.2732186    183.66821  0.010210597 0.0091805275         3468 
 1500000   0.65893255   -9.2547995    183.61481  0.010200823 0.0091705773         3508 
 1501000   0.63534226   -9.2872962    183.53574  0.010189637 0.0091606484         3475 
 1502000   0.65874899   -9.2876307    183.74207  0.010194301 0.0091507317         3473 
 1503000   0.64421363   -9.2593577    183.39091  0.010168048 0.0091408114         3461 
 1504000   0.65547771   -9.2707325    183.39707  0.010161628 0.0091309025         3504 
 1505000   0.64425334   -9.2893829    183.67582  0.010170311 0.0091210225         3472 
 1506000   0.67329512   -9.2827254    183.46859  0.010152091 0.0091111684         3470 
 1507000   0.64104834   -9.2651124    183.29066  0.010135515 0.0091013191         3481 
 1508000   0.65874007   -9.2655077    183.42178   0.01013604 0.0090914802         3478 
 1509000   0.65606915   -9.2792054    183.51882  0.010134682 0.0090816569         3514 
 1510000   0.65435371   -9.2803959    183.30779  0.010116324 0.0090718569         3502 
 1511000   0.65926258   -9.2630386    183.34079  0.010111449 0.0090620626         3490 
 1512000   0.64902611   -9.2850844    183.53454   0.01011544 0.0090522847         3481 
 1513000   0.63112831   -9.2534301    183.38856  0.010100714 0.0090425195         3486 
 1514000   0.65514707   -9.2813081    183.43973  0.010096859 0.0090327678         3463 
 1515000     0.653787   -9.2850413    183.11513  0.010072339 0.0090230249         3492 
 1516000   0.63866607   -9.2705333     183.0913  0.010064386 0.0090133059         3478 
 1517000   0.66128393   -9.2841896    183.49405  0.010079875 0.0090036097         3534 
 1518000   0.63948642   -9.2947544    183.42324  0.010069348 0.0089939098         3505 
 1519000   0.65501979   -9.2827295    183.33085   0.01005765 0.0089842293         3495 
 1520000   0.63787962   -9.2649944    183.41877  0.010055854   0.00897456         3490 
 1521000   0.63583715    -9.282986    183.46383  0.010051711 0.0089649036         3506 
 1522000   0.65521994   -9.2737498    182.96782  0.010017949 0.0089552613         3508 
 1523000   0.64563417   -9.2829268    183.22635  0.010025517 0.0089456281         3491 
 1524000   0.64836083   -9.2906361    183.07756  0.010010803 0.0089359959         3486 
 1525000   0.64965982   -9.2901787    183.34659   0.01001894 0.0089263895         3526 
 1526000   0.62990089   -9.2884293     183.4733  0.010019294 0.0089168019         3492 
 1527000   0.64848369     -9.28189    183.14251 0.0099946798 0.0089072301         3471 
 1528000   0.62721033   -9.2809889    183.21678 0.0099921893 0.0088976582         3497 
 1529000   0.63998909   -9.2807786    183.31657 0.0099910927 0.0088881236         3485 
 1530000   0.64876399   -9.3008567     183.3862 0.0099883551 0.0088785789         3523 
 1531000    0.6460629   -9.2795457    183.16667  0.009969882 0.0088690539         3506 
 1532000   0.65569199   -9.2983583     183.0594 0.0099575389 0.0088595418         3508 
 1533000    0.6362588   -9.3031128    183.17654 0.0099574114 0.0088500465         3477 
 1534000   0.64436935   -9.2954297    183.05965 0.0099445702 0.0088405674         3524 
 1535000   0.63694941   -9.3077183    183.32258 0.0099523659 0.0088310933         3488 
 1536000    0.6443697   -9.3050194    183.37435 0.0099486955 0.0088216409         3479 
 1537000   0.63871918   -9.3017328    183.18981  0.009932217 0.0088122065         3490 
 1538000   0.63153177    -9.297342    183.03778 0.0099175218 0.0088027766         3478 
 1539000   0.64135652    -9.275146    183.60339 0.0099417039 0.0087933673         3504 
 1540000   0.64334879   -9.2943244    183.08716  0.009907314 0.0087839688         3490 
 1541000    0.6478804   -9.2961358    183.21057 0.0099075584 0.0087745856         3489 
 1542000   0.63044808   -9.2878416    183.72444 0.0099289041  0.008765213         3446 
 1543000   0.64336915   -9.2914775    183.43382 0.0099067735 0.0087558615         3446 
 1544000    0.6306367   -9.3191495    183.18248 0.0098867919 0.0087465157         3491 
 1545000   0.62717484   -9.2942511       183.03 0.0098721681 0.0087371759         3473 
 1546000   0.62952167   -9.2554717    183.63459 0.0098983718 0.0087278622         3465 
 1547000   0.64355773   -9.2937412    182.84095 0.0098492218 0.0087185458         3466 
 1548000   0.64864576   -9.3016732    183.15985 0.0098600261 0.0087092455         3469 
 1549000   0.63498701    -9.284064    183.07372 0.0098490273 0.0086999463         3456 
 1550000   0.63193403   -9.3062963    182.93694 0.0098353192  0.008690664         3496 
 1551000   0.65249003   -9.3041203    183.14149 0.0098399684 0.0086813988         3501 
 1552000   0.62183073   -9.2891525    183.11027 0.0098319516 0.0086721474         3457 
 1553000   0.63481841   -9.2771288    183.13833 0.0098271263 0.0086629091         3485 
 1554000   0.64034074   -9.3007927    183.29992 0.0098294683 0.0086536823         3504 
 1555000   0.63359075   -9.3118468    182.79444 0.0097960581 0.0086444704         3466 
 1556000   0.63487194   -9.3138146    183.14389 0.0098084772 0.0086352709         3491 
 1557000   0.63622686   -9.3075487    182.89208 0.0097887006 0.0086260857         3516 
 1558000   0.63549532   -9.2842026    182.84001 0.0097796328 0.0086169134         3512 
 1559000   0.63643198   -9.3189167    183.34348 0.0098002717 0.0086077609         3500 
 1560000   0.63757091    -9.310733    183.41335 0.0097977214 0.0085986209         3491 
 1561000   0.62484665   -9.3323246    183.03401 0.0097711944 0.0085894913         3508 
 1562000   0.63255513   -9.3040918    183.27466 0.0097777776 0.0085803726         3441 
 1563000   0.63457238   -9.2878946    183.31518 0.0097736822 0.0085712734         3500 
 1564000   0.62954817   -9.2906388    183.07991 0.0097548973 0.0085621833         3457 
 1565000   0.62589036   -9.2723508     183.0829  0.009748823 0.0085531116         3475 
 1566000    0.6414888   -9.3152928    183.20069 0.0097488659 0.0085440619         3511 
 1567000   0.62253323   -9.3236011    182.88926  0.009726083 0.0085350138         3495 
 1568000   0.61249253   -9.3166991    182.94338 0.0097227564 0.0085259818         3487 
 1569000   0.62274735   -9.3087085    183.22965 0.0097317638 0.0085169615         3538 
 1570000   0.62132044   -9.3308274    183.07661 0.0097174421 0.0085079518         3488 
 1571000   0.63741264    -9.299246    183.09419 0.0097121892 0.0084989507         3496 
 1572000   0.63316829    -9.301542    183.03175 0.0097027011 0.0084899696         3498 
 1573000   0.62908485    -9.314284    182.97974 0.0096937775 0.0084809985         3469 
 1574000   0.63350145   -9.3312559    182.99425 0.0096883869 0.0084720304         3513 
 1575000   0.62760948   -9.2997398    182.85687 0.0096749665 0.0084630783         3498 
 1576000   0.62342151   -9.3374283     182.8159 0.0096666611 0.0084541452         3525 
 1577000   0.62998588   -9.3311571    182.97002 0.0096686757 0.0084452233         3463 
 1578000   0.63274685   -9.3548869    182.78848 0.0096529617 0.0084363115         3505 
 1579000    0.6305882    -9.332342    182.95855 0.0096558236 0.0084274102         3488 
 1580000   0.62404899   -9.3148116    183.00797 0.0096523193 0.0084185194         3485 
 1581000   0.61464612   -9.3089024    182.97522 0.0096444877 0.0084096413         3507 
 1582000   0.62791676   -9.3259511    182.87941 0.0096333444 0.0084007809         3471 
 1583000   0.61841327   -9.3376799    183.01711  0.009634508 0.0083919253         3517 
 1584000    0.6090705   -9.3143832    183.20325 0.0096382183  0.008383086         3489 
 1585000   0.62227432   -9.3333922    182.71569 0.0096065033 0.0083742527         3477 
 1586000    0.6130858   -9.2982129    183.10818 0.0096210688 0.0083654328         3455 
 1587000   0.61222909   -9.3117375    183.10463 0.0096148201 0.0083566288         3471 
 1588000    0.6185336   -9.3166838    182.74705 0.0095900004 0.0083478355         3465 
 1589000   0.63757441   -9.3252006    182.59758 0.0095761264 0.0083390583         3487 
 1590000   0.61527528   -9.3336679    182.61962 0.0095712589 0.0083302914         3504 
 1591000   0.60423526   -9.3264703    183.18917 0.0095950748 0.0083215392         3471 
 1592000     0.617089   -9.3381177    182.90419 0.0095741307 0.0083127989         3488 
 1593000   0.63294781   -9.3250185    182.78049 0.0095616495 0.0083040683         3442 
 1594000   0.62041032   -9.3176954    182.92331 0.0095631174 0.0082953493         3509 
 1595000   0.60560567   -9.3330578    182.76319 0.0095487562 0.0082866444         3493 
 1596000   0.61778344   -9.3261921    183.19026 0.0095650722 0.0082779645         3478 
 1597000   0.62024903   -9.3215559    182.88848 0.0095433353 0.0082692781         3483 
 1598000     0.613203   -9.3263939    182.80996 0.0095332688 0.0082606052         3431 
 1599000   0.61208365   -9.3325628    182.78786 0.0095261551 0.0082519479         3448 
 1600000   0.62246042   -9.3315003    183.02553 0.0095325795 0.0082433088         3460 
 1601000   0.61625462   -9.3403624    182.89793 0.0095199838 0.0082346666         3482 
 1602000   0.61682543   -9.3207738    182.62629 0.0094999112 0.0082260417         3447 
 1603000   0.61126682   -9.3328529    182.71299 0.0094984919 0.0082174375         3485 
 1604000   0.61751019   -9.3490253    182.69829 0.0094918066 0.0082088337         3511 
 1605000   0.61667663   -9.3244227    182.81267 0.0094918313 0.0082002506         3516 
 1606000   0.60668703   -9.3378019    182.80158 0.0094853457 0.0081916748         3466 
 1607000   0.61620476    -9.347662    182.65163 0.0094716674  0.008183114         3476 
 1608000   0.61643458   -9.3494463    182.67133 0.0094667978 0.0081745697         3489 
 1609000   0.60142147   -9.3453008    182.61477  0.009457985 0.0081660288         3490 
 1610000   0.62139872   -9.3303491    183.19945 0.0094823731  0.008157501         3478 
 1611000   0.60886602   -9.3460469    182.68142 0.0094496909 0.0081489928         3477 
 1612000   0.60135776   -9.3249487    182.59942 0.0094395894   0.00814049         3476 
 1613000   0.60000312    -9.335087    182.97242 0.0094530081 0.0081320009         3456 
 1614000   0.60929589   -9.3553873    182.52708 0.0094241576 0.0081235107         3487 
 1615000   0.60558661   -9.3518174    182.47288 0.0094155254 0.0081150359         3482 
 1616000   0.61845945   -9.3470557      182.498 0.0094109944 0.0081065789         3527 
 1617000   0.59887046   -9.3377703    182.80214 0.0094208482 0.0080981367         3524 
 1618000    0.6093711   -9.3658848    182.85659 0.0094178299 0.0080896994         3502 
 1619000     0.614139   -9.3309853    182.59797 0.0093987012 0.0080812846         3508 
 1620000   0.59713258   -9.3210939    182.72097 0.0093992267  0.008072878         3521 
 1621000   0.61499649   -9.3505404    182.94647 0.0094050209 0.0080644787         3511 
 1622000   0.58732585   -9.3397349    182.72758 0.0093879767 0.0080560891         3503 
 1623000   0.61455823   -9.3342671    183.07546 0.0094000542 0.0080477128         3474 
 1624000   0.60797309   -9.3351993    183.27547 0.0094045293 0.0080393516         3499 
 1625000   0.60821375   -9.3298846    182.66996 0.0093676903 0.0080310072         3485 
 1626000   0.59995188   -9.3712252    182.50649 0.0093535512 0.0080226778         3525 
 1627000   0.61637625   -9.3609389    182.60459 0.0093528266 0.0080143459         3503 
 1628000   0.60110765   -9.3438724    182.60435 0.0093470693 0.0080060349         3505 
 1629000   0.60656695   -9.3403747    182.57801 0.0093399839  0.007997733         3496 
 1630000    0.5986016   -9.3511682    182.73126 0.0093420887 0.0079894397         3497 
 1631000   0.59981993   -9.3526692    182.93968   0.00934701  0.007981159         3516 
 1632000   0.59329196   -9.3502188    182.48547 0.0093180897 0.0079728924         3518 
 1633000   0.59931284   -9.3518015    182.66052 0.0093213166 0.0079646341         3486 
 1634000   0.59855731   -9.3703187    182.80981 0.0093232259 0.0079563877         3479 
 1635000   0.59410533   -9.3573111     182.5026 0.0093018653 0.0079481542         3492 
 1636000   0.59572004   -9.3357054    182.65423 0.0093039032 0.0079399278         3496 
 1637000   0.60180914   -9.3400967    182.62138 0.0092965476 0.0079317154         3505 
 1638000   0.60200444   -9.3434064    182.84232 0.0093021123 0.0079235171         3495 
 1639000   0.61086111   -9.3576399    182.93683 0.0093012419 0.0079153234         3516 
 1640000   0.60373744   -9.3517066    182.72644 0.0092848801 0.0079071529         3532 
 1641000   0.60044936   -9.3683926    182.49552 0.0092674956 0.0078989836         3476 
 1642000   0.59178235   -9.3752927    182.57362 0.0092658151 0.0078908319         3511 
 1643000   0.59368453   -9.3466315    182.77938 0.0092706118 0.0078826771         3497 
 1644000   0.58842918   -9.3635077    182.76204 0.0092640937 0.0078745409         3471 
 1645000   0.59950585   -9.3751945    182.59573 0.0092500369 0.0078664149         3506 
 1646000   0.59146281   -9.3553168    182.67192 0.0092482747 0.0078582978         3481 
 1647000   0.59674966   -9.3417301    182.67368 0.0092427486 0.0078501887         3489 
 1648000   0.60831468   -9.3765585    182.67489  0.009237201 0.0078420928         3501 
 1649000   0.59335128   -9.3513406    182.78799 0.0092373153 0.0078340144         3503 
 1650000   0.59733984   -9.3736249    182.82252 0.0092334606 0.0078259375         3502 
 1651000   0.60582486   -9.3662558    182.48514 0.0092108388 0.0078178812         3489 
 1652000    0.5863956   -9.3684043    182.64594 0.0092133749 0.0078098406         3502 
 1653000   0.59656322   -9.3676537    182.65977 0.0092084981 0.0078018036         3450 
 1654000   0.58282891   -9.3523555    182.72114 0.0092060227 0.0077937903         3473 
 1655000   0.61050782   -9.3785006    182.76459 0.0092026478 0.0077857753         3494 
 1656000    0.6101039    -9.360017    182.66313  0.009191985 0.0077777788         3459 
 1657000   0.59700812   -9.3929808    182.52285 0.0091793829 0.0077697872         3487 
 1658000   0.58221876   -9.3560695    182.77837 0.0091866893 0.0077618111         3474 
 1659000   0.59007422   -9.3712436    182.59711 0.0091720471 0.0077538474         3460 
 1660000   0.59285757   -9.3626564    182.73526 0.0091734568 0.0077458899         3469 
 1661000    0.5860946   -9.3591459    182.60097 0.0091611964 0.0077379448         3534 
 1662000   0.58233712   -9.3758359    182.72631 0.0091619692 0.0077300127         3516 
 1663000   0.58795865   -9.3702737    182.67297 0.0091537869 0.0077220938         3491 
 1664000   0.59396111    -9.363495    182.68405 0.0091488409 0.0077141787         3512 
 1665000   0.58200032   -9.3789003    182.45245 0.0091317541  0.007706273         3512 
 1666000   0.58396832   -9.3810507    182.54551 0.0091309281 0.0076983789         3506 
 1667000   0.57068327    -9.366965    182.79419 0.0091378817 0.0076904985         3504 
 1668000   0.57725685   -9.3531931    182.31741 0.0091085838  0.007682635         3517 
 1669000   0.60285441   -9.3880023     182.4795 0.0091112192  0.007674767         3507 
 1670000    0.5872164   -9.3946226    182.26942 0.0090952805 0.0076669059         3535 
 1671000   0.58145723   -9.3821274    182.30519 0.0090916214 0.0076590596         3502 
 1672000   0.57530456   -9.3693962    182.29524 0.0090856879  0.007651225         3497 
 1673000   0.59807728    -9.375522    182.27961 0.0090794787  0.007643402         3497 
 1674000   0.57913121   -9.3700026    182.44553 0.0090823142 0.0076355928         3509 
 1675000    0.6029353    -9.356416    182.54008 0.0090815958 0.0076277975         3473 
 1676000   0.58905891   -9.3735222    182.34152 0.0090663049 0.0076200065         3455 
 1677000   0.57896416   -9.3635167     182.3994 0.0090637746 0.0076122239         3525 
 1678000   0.59548535   -9.3836146    182.52283  0.009064503 0.0076044508         3499 
 1679000    0.5947053   -9.3879105    181.97872 0.0090320985 0.0075966866         3533 
 1680000    0.5750693   -9.3620172    182.16366 0.0090358957 0.0075889358         3510 
 1681000   0.58378746   -9.3820708    182.35456 0.0090399841 0.0075811958         3486 
 1682000   0.57367468   -9.3795832    182.42271 0.0090379862 0.0075734643         3504 
 1683000   0.57576043   -9.3879874     182.6551 0.0090441224 0.0075657447         3527 
 1684000   0.58038597   -9.3883651     182.4337 0.0090277961 0.0075580308         3528 
 1685000   0.58639962   -9.3637494    182.30687 0.0090161657  0.007550332         3470 
 1686000    0.5858479   -9.3779824     182.3126 0.0090111012 0.0075426424         3507 
 1687000   0.58599879   -9.3722385    182.52568 0.0090162855 0.0075349652         3503 
 1688000   0.58737492   -9.3940178    182.32652 0.0090011117 0.0075273002         3527 
 1689000   0.58387259   -9.3932062    182.44158 0.0090014593 0.0075196401         3481 
 1690000   0.58880334   -9.3722326     182.4578 0.0089969329 0.0075119895         3494 
 1691000   0.57843011    -9.389138     182.3138  0.008984516 0.0075043546         3484 
 1692000   0.57779678   -9.3869055    182.23533 0.0089753411 0.0074967218         3528 
 1693000   0.57297139   -9.4074365     182.5029 0.0089832101 0.0074891066         3527 
 1694000    0.5786019   -9.3814619    182.13916 0.0089600137 0.0074814982         3480 
 1695000   0.58017347    -9.383771    182.52733 0.0089738117  0.007473905         3496 
 1696000   0.57698999   -9.4002088    182.36512 0.0089605503 0.0074663229         3525 
 1697000   0.57529016    -9.380297     182.2113 0.0089477164 0.0074587464         3491 
 1698000   0.57649541   -9.3861718    182.27268 0.0089454596 0.0074511812         3501 
 1699000   0.57290351   -9.3947615    182.40733 0.0089467988 0.0074436226         3533 
 1700000   0.57908214   -9.3911501    182.14307 0.0089285818 0.0074360781         3517 
 1701000   0.58611113   -9.3986632    182.38597 0.0089352327 0.0074285394         3484 
 1702000   0.55865129   -9.4006473    182.22802 0.0089222495  0.007421005         3497 
 1703000   0.57195651   -9.3948258    182.22311 0.0089167701 0.0074134853         3532 
 1704000   0.56953743   -9.4127697    182.27136 0.0089138969 0.0074059774         3495 
 1705000   0.58511656   -9.3817759    182.35399 0.0089127071 0.0073984799         3483 
 1706000   0.57263422   -9.3968527    182.31793 0.0089057216 0.0073910014         3474 
 1707000    0.5604824   -9.3581743    182.34829 0.0089019864 0.0073835269         3515 
 1708000   0.57382678   -9.3969648    182.34284 0.0088965084 0.0073760669         3528 
 1709000   0.58415523    -9.423518    182.06558 0.0088777835 0.0073686156         3494 
 1710000   0.57021855   -9.3897542    182.26975 0.0088825413 0.0073611797         3511 
 1711000   0.56510789   -9.4190335    182.29833 0.0088787422 0.0073537477         3470 
 1712000    0.5663028   -9.3905391     182.2996 0.0088736178 0.0073463334         3510 
 1713000   0.56846393   -9.3884145    181.97604 0.0088526969 0.0073389244         3550 
 1714000   0.57259427   -9.4123143    181.95803 0.0088466565 0.0073315214         3550 
 1715000   0.56818785    -9.413505    182.12578 0.0088496494 0.0073241286         3507 
 1716000   0.56948143   -9.3926141    182.41954 0.0088587577 0.0073167519         3534 
 1717000   0.56616284   -9.3908027    182.01151 0.0088337949 0.0073093815         3505 
 1718000   0.58440915    -9.409629    182.51734 0.0088531886 0.0073020242         3519 
 1719000   0.56214316   -9.4170751     182.2387 0.0088345307  0.007294672         3536 
 1720000   0.56582308   -9.4030472    182.32265 0.0088334616 0.0072873277         3489 
 1721000   0.55353311   -9.3944673    182.32998 0.0088286839  0.007279997         3541 
 1722000   0.57556288   -9.4068585    182.27222 0.0088207616  0.007272665         3515 
 1723000   0.56939574   -9.4190719    181.82146 0.0087938414 0.0072653497         3557 
 1724000   0.58241827   -9.4113343    182.22883 0.0088084315 0.0072580401         3511 
 1725000   0.55465861   -9.4037608    182.36264 0.0088097895 0.0072507479         3513 
 1726000   0.57514681   -9.4121538    182.36415 0.0088047579 0.0072434624         3516 
 1727000   0.56892851   -9.4037577     182.1975 0.0087916185 0.0072361862         3495 
 1728000    0.5628489   -9.4212186     182.0945 0.0087815635 0.0072289166         3553 
 1729000   0.56894088   -9.4128273    181.96702 0.0087703404 0.0072216596         3491 
 1730000   0.57411787    -9.417928    182.38587 0.0087854467 0.0072144063         3495 
 1731000   0.57968255   -9.4115993    181.94871 0.0087593254 0.0072071693         3525 
 1732000   0.55979482   -9.4143832     182.3799 0.0087750144 0.0071999427         3500 
 1733000   0.55163113   -9.4162153    181.97943 0.0087506938 0.0071927215         3533 
 1734000   0.56511368   -9.4203711    181.95075 0.0087442688 0.0071855099         3519 
 1735000   0.55850163   -9.4139313    182.24184 0.0087532106 0.0071783103         3534 
 1736000   0.56989676   -9.4251881    182.12365 0.0087424949 0.0071711203         3533 
 1737000   0.55752199   -9.4035675    182.34017 0.0087478494  0.007163935         3530 
 1738000   0.55575499   -9.4395485    182.00572 0.0087267798 0.0071567635         3543 
 1739000   0.55450365   -9.4250345    181.81741 0.0087127379 0.0071495962         3501 
 1740000   0.55465635   -9.4235168    181.84809 0.0087091996 0.0071424375         3510 
 1741000   0.55691263   -9.4226266     181.8219 0.0087029437 0.0071352921         3529 
 1742000   0.55745742   -9.4178024    182.28903  0.008720294 0.0071281552         3518 
 1743000   0.56403236   -9.4094616     181.9554 0.0086993401  0.007121026         3518 
 1744000   0.55800225   -9.4160361    182.12961 0.0087026765  0.007113903         3515 
 1745000   0.55347056   -9.4186725    181.90934 0.0086871701  0.007106801         3509 
 1746000   0.55788704   -9.4193173    182.00093 0.0086865659 0.0070996997         3529 
 1747000   0.55445346   -9.4205056    182.23415 0.0086927184   0.00709261         3509 
 1748000   0.55587294   -9.4045006    182.26403 0.0086891702 0.0070855324         3524 
 1749000   0.55644988   -9.4316488    182.17316 0.0086798722  0.007078472         3519 
 1750000    0.5646136   -9.4197815    181.83912 0.0086590055 0.0070714151         3533 
 1751000   0.55022956   -9.4283345     182.1773 0.0086701553 0.0070643685         3487 
 1752000   0.56086625   -9.4270091    182.15212 0.0086640089 0.0070573366         3561 
 1753000   0.55083884   -9.4227628    182.16023  0.008659452 0.0070503126         3505 
 1754000   0.54727685   -9.4325671    182.12642 0.0086529088 0.0070432875         3509 
 1755000   0.54131552   -9.4403016    182.12146 0.0086477428   0.00703628         3507 
 1756000   0.54265188   -9.4292517    182.03284 0.0086386125 0.0070292764         3502 
 1757000     0.556445   -9.4051474    182.42888 0.0086524796 0.0070222907         3524 
 1758000   0.54405044    -9.413231    181.92646 0.0086237421 0.0070153087         3503 
 1759000   0.55085228   -9.4250645    182.11038 0.0086275528 0.0070083416         3524 
 1760000   0.54940078   -9.4302614    182.00043 0.0086174447 0.0070013737         3497 
 1761000   0.55268222    -9.441068    182.06349 0.0086155354 0.0069944148         3546 
 1762000   0.55993688   -9.4305953    181.70414 0.0085936503 0.0069874629         3521 
 1763000   0.56598827    -9.432706    181.90894 0.0085984563 0.0069805257         3511 
 1764000    0.5417526   -9.4246834    181.99403 0.0085976014 0.0069736028         3550 
 1765000   0.55081071   -9.4540925    182.04365 0.0085950734 0.0069666901         3537 
 1766000   0.55968463   -9.4256077    182.17379 0.0085963471 0.0069597812         3542 
 1767000   0.53912496   -9.4340528    181.98169 0.0085824228 0.0069528828         3502 
 1768000   0.54853528   -9.4228238    181.85484 0.0085715893 0.0069459909         3543 
 1769000   0.55707306   -9.4223648     181.9676 0.0085720557  0.006939112         3531 
 1770000   0.56181722   -9.4475086    181.87466 0.0085628372 0.0069322419         3528 
 1771000   0.55778557   -9.4478034    181.79074 0.0085540531 0.0069253794         3554 
 1772000    0.5298886    -9.440716     181.6647 0.0085432986 0.0069185313         3553 
 1773000   0.54807983   -9.4429415     182.0938 0.0085586484 0.0069116859         3537 
 1774000    0.5496108   -9.4297552     182.2131 0.0085594278 0.0069048519         3521 
 1775000   0.54516663   -9.4270026    181.87362 0.0085386676 0.0068980293         3550 
 1776000   0.54537327   -9.4422756    181.76292 0.0085286654 0.0068912111         3541 
 1777000   0.54551127    -9.446099    181.73657 0.0085226304 0.0068844039         3529 
 1778000    0.5388804   -9.4345456    181.66195 0.0085143396 0.0068776088         3502 
 1779000   0.54547832   -9.4314256    182.14906  0.008532371 0.0068708259         3526 
 1780000   0.53099473   -9.4436709    182.04504 0.0085227079 0.0068640439         3520 
 1781000   0.53761107   -9.4575249     182.0497 0.0085181406 0.0068572707         3556 
 1782000   0.54168051      -9.4357    181.83154 0.0085031585 0.0068505094         3529 
 1783000   0.55149119   -9.4381861    181.69705 0.0084921034 0.0068437543         3514 
 1784000   0.53758577   -9.4449899    181.60986 0.0084832708 0.0068370112         3526 
 1785000   0.54712865   -9.4496677    181.98527 0.0084960445 0.0068302767         3504 
 1786000    0.5398442   -9.4510158    181.63132 0.0084747724 0.0068235422         3517 
 1787000   0.54102027   -9.4655738    181.85112 0.0084802797 0.0068168236         3518 
 1788000   0.52882864   -9.4538749    181.72367 0.0084695967 0.0068101193         3529 
 1789000   0.53972692   -9.4353296    182.03957 0.0084795777 0.0068034246         3527 
 1790000   0.55016689   -9.4521769    181.83364 0.0084652531 0.0067967383         3512 
 1791000   0.53542872   -9.4608719    181.83727 0.0084606957 0.0067900568         3542 
 1792000   0.53407423   -9.4482541    181.82763 0.0084555262 0.0067833855         3525 
 1793000   0.52991822   -9.4353122    181.79781  0.008449424 0.0067767234         3550 
 1794000   0.53539525   -9.4599111    181.77849 0.0084438168  0.006770066         3502 
 1795000    0.5361703   -9.4656951     181.8715 0.0084434307 0.0067634226         3506 
 1796000   0.53628237   -9.4341412     181.8154 0.0084361267 0.0067567852         3531 
 1797000   0.53112226   -9.4467771    181.84422 0.0084327686   0.00675016         3533 
 1798000   0.53073636   -9.4510514    182.06113 0.0084381317 0.0067435442         3558 
 1799000   0.53047682    -9.447236    181.77346 0.0084201159 0.0067369325         3524 
 1800000   0.53022337   -9.4507756    181.82995 0.0084180535 0.0067303318         3510 
 1801000   0.52912001   -9.4575747    181.63358  0.008404293 0.0067237383         3531 
 1802000   0.52494563   -9.4565994    181.64889 0.0084003373 0.0067171529         3542 
 1803000   0.54154885   -9.4800019    181.37039 0.0083828059 0.0067105748         3562 
 1804000   0.51502577     -9.44227     181.6966 0.0083932282 0.0067040054         3511 
 1805000   0.52501628   -9.4518628    181.90793 0.0083983349 0.0066974372         3526 
 1806000   0.53337894   -9.4457621    182.00239 0.0083980432 0.0066908843         3510 
 1807000   0.53422238   -9.4816058    181.65848 0.0083775357 0.0066843414         3521 
 1808000   0.53714541   -9.4574348    181.68598 0.0083741695 0.0066778018         3527 
 1809000   0.53093896   -9.4579593    181.39313 0.0083560497 0.0066712761         3533 
 1810000   0.53282423    -9.477466    181.75319 0.0083680106 0.0066647634         3541 
 1811000   0.53850203   -9.4560541    181.74065 0.0083628129 0.0066582512         3507 
 1812000   0.53969438   -9.4585393    181.49051 0.0083466939 0.0066517502         3507 
 1813000   0.53248599   -9.4483857    181.72872 0.0083530391 0.0066452602         3533 
 1814000    0.5295626    -9.462542    181.72678 0.0083483451 0.0066387762         3549 
 1815000   0.52960772   -9.4703855    181.70341 0.0083426728 0.0066323049         3528 
 1816000   0.52541039   -9.4787909    181.80364  0.008342678 0.0066258337         3546 
 1817000   0.52467562   -9.4359537    181.80624 0.0083382057 0.0066193771         3502 
 1818000   0.52794654   -9.4673947    181.72279  0.008329794 0.0066129326         3565 
 1819000   0.52819368    -9.472914    181.51839 0.0083158509  0.006606492         3532 
 1820000   0.53116107   -9.4713475    181.52478 0.0083115742 0.0066000581         3529 
 1821000   0.52684198   -9.4675464    181.73158 0.0083164738  0.006593629         3520 
 1822000   0.52208101   -9.4695353    181.48433 0.0083006004 0.0065872164         3510 
 1823000   0.52003478   -9.4604967    181.58525 0.0083006607 0.0065808092         3543 
 1824000   0.52579125   -9.4674043    181.82588 0.0083071036 0.0065744098         3534 
 1825000   0.52215035   -9.4743895    181.67615 0.0082957148 0.0065680147         3552 
 1826000   0.52189762    -9.457983    181.57225 0.0082864297 0.0065616355         3517 
 1827000   0.53122301   -9.4581487    181.85492 0.0082947875 0.0065552617         3523 
 1828000    0.5238152   -9.4617935    181.48428 0.0082733534 0.0065489035         3555 
 1829000    0.5301399   -9.4712837    181.53604 0.0082711882  0.006542543         3540 
 1830000   0.52705517   -9.4794579    181.63365 0.0082711135 0.0065361929         3554 
 1831000   0.51232231   -9.4682646    181.53008 0.0082618825 0.0065298518         3541 
 1832000   0.52885076    -9.462894    181.39823  0.008251375 0.0065235178         3520 
 1833000   0.53486989   -9.4707097    181.75303 0.0082630036 0.0065171913         3555 
 1834000   0.52046641   -9.5017909    181.50345 0.0082471578 0.0065108736         3510 
 1835000   0.52664028    -9.457959    181.44302 0.0082399193  0.006504565         3494 
 1836000   0.51334236   -9.4687612    181.67833 0.0082461116 0.0064982673         3545 
 1837000   0.52514142   -9.4815212    181.77794 0.0082461415 0.0064919772         3549 
 1838000    0.5238352   -9.4620358    181.49514  0.008228833 0.0064856912         3533 
 1839000   0.53082685   -9.4728679    181.58404 0.0082283866  0.006479419         3520 
 1840000   0.52510812   -9.4679317    181.63302 0.0082261331 0.0064731561         3560 
 1841000   0.52330523   -9.4691793    181.58663 0.0082195651 0.0064668966         3495 
 1842000   0.51563939   -9.4752025    181.58929 0.0082152232 0.0064606499         3540 
 1843000   0.51699689   -9.4871402    181.45568 0.0082047242  0.006454404         3544 
 1844000   0.52338787   -9.4665485    181.78617 0.0082152102  0.006448174         3541 
 1845000   0.51350038   -9.4666948    181.33826 0.0081905268 0.0064419474         3513 
 1846000   0.52496818    -9.479605     181.4417 0.0081907591 0.0064357271         3524 
 1847000   0.51851754   -9.4831749    181.60873 0.0081938606  0.006429518         3532 
 1848000   0.51440826   -9.4798407    181.70487 0.0081937623 0.0064233176         3550 
 1849000   0.52106427   -9.4736569    181.69013 0.0081886666  0.006417126         3514 
 1850000   0.52093237   -9.4831591    181.40943 0.0081715959 0.0064109433         3495 
 1851000   0.51969755   -9.4760676    181.29334 0.0081619549 0.0064047626         3518 
 1852000   0.51898763   -9.4727515    181.60296 0.0081714794 0.0063985921         3539 
 1853000   0.51406018   -9.4885725    181.56221 0.0081652371 0.0063924365         3520 
 1854000   0.51186279   -9.4802643    181.35097 0.0081513379 0.0063862785         3545 
 1855000   0.51120996   -9.5026452    181.72289 0.0081636518 0.0063801396         3523 
 1856000   0.51539136   -9.4939028     181.8113 0.0081632228 0.0063740023         3505 
 1857000   0.51163476   -9.4885021    181.59057 0.0081489217 0.0063678707         3532 
 1858000   0.50900106   -9.4887872    181.49038 0.0081400423 0.0063617471         3540 
 1859000    0.5118612   -9.4817894    181.41691 0.0081323701 0.0063556294         3513 
 1860000   0.51178701   -9.4871511    181.52415 0.0081328024 0.0063495257         3559 
 1861000   0.52031173   -9.4798314     181.2787 0.0081174414  0.006343435         3548 
 1862000   0.51281477   -9.4911473    181.40223 0.0081186104 0.0063373482         3528 
 1863000   0.51347099    -9.484537    181.39314  0.008113846  0.006331263         3533 
 1864000   0.51835944   -9.4954946    181.45013 0.0081120408 0.0063251921         3503 
 1865000   0.51303306   -9.4800632    181.48307 0.0081091633 0.0063191323         3538 
 1866000   0.51105489   -9.4825636    181.44185 0.0081029764 0.0063130766         3510 
 1867000   0.49439986   -9.4634428    181.33336  0.008093794 0.0063070311         3533 
 1868000    0.5040079   -9.5046524    181.64382 0.0081033109 0.0063009875         3543 
 1869000   0.49946068   -9.4793857    181.44531 0.0080901243 0.0062949548         3548 
 1870000   0.51173404   -9.4932859    181.58841  0.008092175 0.0062889348         3558 
 1871000   0.50007981    -9.487527    181.59196 0.0080880083  0.006282916         3507 
 1872000   0.50919799   -9.4997987    181.44116 0.0080769747 0.0062769018         3512 
 1873000   0.50480333   -9.5043859     181.5606 0.0080779766 0.0062708965         3527 
 1874000   0.50253647   -9.5098112    181.21395 0.0080582509 0.0062649025         3541 
 1875000   0.51286658   -9.5165264    181.18064 0.0080524728 0.0062589154         3539 
 1876000   0.50340608   -9.4957719    181.23395 0.0080505486 0.0062529343         3507 
 1877000   0.49880656   -9.5103992    181.31855 0.0080500156 0.0062469587         3557 
 1878000   0.50247326   -9.4954204    181.35802 0.0080474806 0.0062409957         3556 
 1879000   0.51470999   -9.4983039    181.56391 0.0080523287 0.0062350388         3543 
 1880000   0.50326989   -9.4990568    181.28288 0.0080355885 0.0062290899         3535 
 1881000   0.50643854   -9.5148322    181.35917 0.0080346967 0.0062231492         3529 
 1882000    0.4974216   -9.4996806    181.36199 0.0080305521 0.0062172182         3535 
 1883000   0.50731233    -9.494895    181.30987  0.008023981 0.0062112948         3525 
 1884000   0.50417131   -9.5125745    181.40692 0.0080240146 0.0062053751         3557 
 1885000   0.50326148    -9.504345    181.35154 0.0080173095 0.0061994603         3532 
 1886000   0.50154408   -9.5002031    181.36462 0.0080136365 0.0061935534         3539 
 1887000   0.49685452   -9.5052176    181.50605 0.0080156354 0.0061876584         3513 
 1888000   0.49124144   -9.5021791    181.30287  0.008002422 0.0061817703         3540 
 1889000    0.4881715   -9.5078774    181.09917 0.0079891993 0.0061758901         3544 
 1890000   0.50348213   -9.5074537      181.459 0.0080008377 0.0061700125         3529 
 1891000   0.49019269   -9.5228868    181.33774 0.0079912629 0.0061641461         3544 
 1892000   0.49440963   -9.5141431    181.06349 0.0079749598 0.0061582903         3536 
 1893000   0.49242731   -9.5023514    181.30992 0.0079815953 0.0061524335         3548 
 1894000    0.4953134   -9.4919466    181.05438  0.007966138 0.0061465929         3505 
 1895000   0.49545416    -9.522207    181.18903 0.0079678555 0.0061407564         3560 
 1896000    0.4991279    -9.528231    181.01932  0.007956194 0.0061349276         3543 
 1897000   0.49355025   -9.4989427      181.506 0.0079733792 0.0061291048         3508 
 1898000   0.50383163   -9.4973435    181.36672 0.0079630629 0.0061232944         3531 
 1899000   0.50151876   -9.5114891     181.1704 0.0079502545  0.006117489         3539 
 1900000   0.49223074   -9.5253995    181.29505 0.0079515371 0.0061116961         3531 
 1901000   0.48391782   -9.5169512    181.32548 0.0079486886 0.0061059087         3539 
 1902000   0.48918734   -9.5095743    181.21345 0.0079396009 0.0061001206         3544 
 1903000   0.49754638    -9.516028    181.44581  0.007945604 0.0060943464         3526 
 1904000   0.49157352   -9.5075833    181.27451 0.0079339335 0.0060885756         3540 
 1905000   0.49936847   -9.5194082    181.23969 0.0079282453 0.0060828138         3528 
 1906000   0.48526549   -9.5299605     181.0494 0.0079157659 0.0060770606         3548 
 1907000   0.49519092   -9.5177415    181.30662 0.0079228554 0.0060713128         3552 
 1908000   0.49885077   -9.5230092    181.43808 0.0079244447 0.0060655688         3519 
 1909000   0.49248523   -9.5172309    180.97945 0.0079002727 0.0060598397         3505 
 1910000   0.48741791   -9.5158129    181.29633 0.0079099619 0.0060541162         3561 
 1911000   0.48948059   -9.5241958    181.05935  0.007895489 0.0060483948         3544 
 1912000   0.48740782   -9.5234968    181.14786 0.0078952169 0.0060426843         3560 
 1913000   0.48474277   -9.5217928    181.19723 0.0078932408 0.0060369801         3551 
 1914000   0.49769103   -9.5201628    181.15994  0.007887493 0.0060312781         3554 
 1915000   0.48383111   -9.5072515    181.23769 0.0078867575 0.0060255837         3526 
 1916000   0.49797889   -9.5323684    181.32551 0.0078864612 0.0060198986         3552 
 1917000   0.49011603   -9.5329464    181.05675  0.007870664 0.0060142213         3530 
 1918000   0.47410953   -9.5343042    181.32955  0.007878413 0.0060085503         3528 
 1919000   0.48711686    -9.526879    181.19179 0.0078683249 0.0060028903         3561 
 1920000   0.49482022   -9.5082577    181.13718 0.0078618566 0.0059972389         3554 
 1921000   0.49223746   -9.5306412    180.67664 0.0078377859  0.005991596         3510 
 1922000   0.47658169   -9.5275474    181.18687 0.0078558302 0.0059859566         3534 
 1923000   0.48216572   -9.5197776    181.01914 0.0078444764 0.0059803261         3574 
 1924000    0.4818064   -9.5113443    181.30046 0.0078525839 0.0059747009         3575 
 1925000   0.48108214   -9.5230632    181.28827  0.007847977  0.005969084         3537 
 1926000   0.48875438   -9.5283447    180.96286 0.0078298227 0.0059634744         3528 
 1927000   0.47687026   -9.5195287    181.29058 0.0078399317 0.0059578727         3526 
 1928000   0.48260975   -9.5179176    181.08124  0.007826817 0.0059522765         3519 
 1929000    0.4824926   -9.5467943    180.71972 0.0078071419 0.0059466859         3535 
 1930000   0.47712253   -9.5282396    181.30621   0.00782842  0.005941101         3540 
 1931000   0.48331172   -9.5295382    181.20896 0.0078201692 0.0059355289         3566 
 1932000   0.48905842    -9.534003    181.09966  0.007811407 0.0059299617         3563 
 1933000   0.48033266   -9.5460653    180.94548 0.0078007193 0.0059244007         3550 
 1934000   0.47691068   -9.5307575    181.16675 0.0078062199 0.0059188459         3546 
 1935000    0.4892398   -9.5407325    180.94835 0.0077927798 0.0059132977         3543 
 1936000   0.49365565    -9.535981    181.21597 0.0078002744 0.0059077603         3536 
 1937000   0.48145379     -9.52665    180.89298 0.0077823515 0.0059022271         3554 
 1938000   0.47553704   -9.5267773    181.32486 0.0077969066 0.0058967012         3554 
 1939000   0.47239702   -9.5439721    181.00671 0.0077792121 0.0058911863         3529 
 1940000   0.47241318   -9.5341565    181.27067 0.0077865408 0.0058856748         3515 
 1941000   0.47590566   -9.5399723    180.90631 0.0077668859 0.0058801753         3541 
 1942000   0.48661397    -9.555753    181.18785 0.0077749677 0.0058746844         3566 
 1943000   0.47420914   -9.5334829    180.85034 0.0077564907 0.0058691993         3560 
 1944000   0.46881336   -9.5440479     181.2808 0.0077709535 0.0058637168         3544 
 1945000   0.47247156   -9.5364944    181.04322 0.0077567788 0.0058582439         3543 
 1946000   0.48515944   -9.5586146    180.92108 0.0077475627 0.0058527741         3579 
 1947000   0.47942984   -9.5375262    181.04703 0.0077489741 0.0058473127         3558 
 1948000   0.48145465   -9.5539514    180.89171 0.0077383519 0.0058418573         3553 
 1949000   0.45182802    -9.535902    180.80166  0.007730531 0.0058364087         3561 
 1950000   0.47532897   -9.5476759    180.84788  0.007728542 0.0058309634         3527 
 1951000   0.47229162   -9.5446053    180.99729 0.0077309623  0.005825529         3577 
 1952000   0.46908333   -9.5336383    180.61229 0.0077105655 0.0058200995         3527 
 1953000   0.47969044   -9.5403413    180.93141 0.0077202341 0.0058146795         3544 
 1954000   0.46830552   -9.5493055    180.93547 0.0077164562 0.0058092687         3549 
 1955000   0.47211836   -9.5472988    180.95455 0.0077133225 0.0058038635         3553 
 1956000   0.47152695   -9.5508907    181.01015 0.0077117481 0.0057984656         3550 
 1957000   0.46609403   -9.5463491    181.07444  0.007710545 0.0057930708         3555 
 1958000   0.47676805   -9.5480034    180.92582 0.0077002819 0.0057876826         3552 
 1959000    0.4671283   -9.5452786    180.90936 0.0076956507 0.0057823022         3561 
 1960000   0.46876471   -9.5504222     180.9435 0.0076931759 0.0057769297         3542 
 1961000   0.47026662   -9.5414054    180.95482 0.0076897338 0.0057715619         3588 
 1962000   0.47064071   -9.5614722    180.98724 0.0076871914 0.0057661999         3526 
 1963000   0.46821556   -9.5569313    180.80071  0.007675357 0.0057608444         3566 
 1964000   0.47128107   -9.5613436    180.71188   0.00766768 0.0057554974         3572 
 1965000   0.47320472   -9.5536266    180.99234 0.0076756718 0.0057501516         3567 
 1966000   0.45952687   -9.5583832    180.82674 0.0076647483 0.0057448158         3538 
 1967000   0.46744724   -9.5417733    181.07635 0.0076714266 0.0057394835         3526 
 1968000   0.47596975   -9.5643783    180.76464 0.0076543294 0.0057341622         3515 
 1969000   0.46740897    -9.556529    180.89591 0.0076559975 0.0057288495         3535 
 1970000   0.46716271   -9.5564426    180.85723 0.0076504752 0.0057235418         3552 
 1971000   0.46490442   -9.5502755    180.85728 0.0076465956 0.0057182418         3542 
 1972000   0.46956658   -9.5541639    181.00976 0.0076491615   0.00571295         3525 
 1973000   0.46210944   -9.5528576    180.72526 0.0076332684 0.0057076598         3556 
 1974000   0.45810675   -9.5460003    181.13386 0.0076466508 0.0057023793         3528 
 1975000   0.45988887   -9.5648893    180.89944 0.0076328877 0.0056971049         3550 
 1976000   0.46432429   -9.5612403    180.93445 0.0076305014 0.0056918379         3561 
 1977000   0.45932646   -9.5441723    180.88369 0.0076245024 0.0056865767         3531 
 1978000   0.47118022   -9.5574723    180.86947 0.0076200485 0.0056813224         3559 
 1979000   0.47456778   -9.5570632    180.75362 0.0076113199 0.0056760722         3525 
 1980000   0.47017595   -9.5595553     180.8365 0.0076109637  0.005670832         3538 
 1981000   0.47226164   -9.5731828    180.53724 0.0075945331 0.0056655993         3541 
 1982000   0.45330249   -9.5586989    180.88845  0.007605468 0.0056603684         3543 
 1983000   0.46197708   -9.5506387     180.7793 0.0075970459 0.0056551449         3542 
 1984000   0.45942728   -9.5538328    181.02885 0.0076036984 0.0056499313         3556 
 1985000   0.46358688   -9.5536735    180.74624 0.0075880034 0.0056447247         3527 
 1986000   0.46584954   -9.5678695    180.76463 0.0075849543 0.0056395223         3559 
 1987000   0.45992509   -9.5627962    180.89427  0.007586574 0.0056343244         3532 
 1988000   0.46311799   -9.5573066    180.77552 0.0075777798 0.0056291355         3548 
 1989000   0.45947845   -9.5490178    180.95586  0.007581526  0.005623954         3554 
 1990000    0.4540228     -9.56329    180.91627 0.0075760582 0.0056187789         3568 
 1991000   0.46677459   -9.5770578    180.36028 0.0075489821 0.0056136103         3538 
 1992000   0.46836469   -9.5788262    180.81777 0.0075643312 0.0056084413         3538 
 1993000   0.45849397   -9.5633876    180.62284 0.0075523849 0.0056032829         3552 
 1994000   0.45603613   -9.5586655    180.96955 0.0075630873 0.0055981304         3571 
 1995000   0.45903958   -9.5770365    181.05569 0.0075628945 0.0055929876         3547 
 1996000   0.45930153   -9.5730778    180.88779 0.0075520954 0.0055878512         3560 
 1997000   0.44878122   -9.5655985    180.98831 0.0075525083 0.0055827201         3545 
 1998000    0.4517346   -9.5794769    180.45259 0.0075263841 0.0055775924         3555 
 1999000   0.45148733   -9.5626745    181.08626 0.0075490353 0.0055724724         3559 
 2000000   0.45251344   -9.5706105    180.90909 0.0075378789 0.0055673565         3540 
 2001000   0.46338024    -9.571338    180.76539  0.007528127 0.0055622504         3559 
 2002000   0.45988793   -9.5649988    180.67731 0.0075207004   0.00555715         3530 
 2003000   0.45706219   -9.5766116    180.67958 0.0075170402 0.0055520567         3551 
 2004000   0.45472306    -9.568719    181.03228 0.0075279557 0.0055469699         3569 
 2005000   0.46661126   -9.5777893    180.49921 0.0075020452 0.0055418872         3544 
 2006000   0.45298858   -9.5675809    180.77378 0.0075097117 0.0055368138         3555 
 2007000   0.44987485   -9.5905347    180.93743 0.0075127648 0.0055317449         3543 
 2008000   0.45208017   -9.5753249     180.7067 0.0074994482 0.0055266846         3577 
 2009000   0.45452007   -9.5882725    180.78233 0.0074988523 0.0055216263         3565 
 2010000    0.4458428   -9.5818172    180.84656 0.0074977846 0.0055165758         3560 
 2011000   0.43974441   -9.5729213     181.0162 0.0075010857 0.0055115336         3542 
 2012000   0.44921839   -9.5857062    180.58596 0.0074795379  0.005506494         3517 
Loop time of 5251.71 on 48 procs for 2000000 steps with 4000 atoms

Performance: 65807.176 tau/day, 380.829 timesteps/s
99.4% CPU use with 48 MPI tasks x no OpenMP threads

MPI task timing breakdown:
Section |  min time  |  avg time  |  max time  |%varavg| %total
---------------------------------------------------------------
Pair    | 365.05     | 395.39     | 433.71     |  78.2 |  7.53
Neigh   | 36.429     | 37.927     | 39.242     |  10.4 |  0.72
Comm    | 314.84     | 363.28     | 401.79     |  97.2 |  6.92
Output  | 5.6914     | 5.6936     | 5.7437     |   0.3 |  0.11
Modify  | 4373.3     | 4398.1     | 4426.6     |  20.6 | 83.75
Other   |            | 51.32      |            |       |  0.98

Nlocal:        83.3333 ave          90 max          77 min
Histogram: 3 3 5 7 9 2 11 2 3 3
Nghost:        2407.04 ave        2435 max        2379 min
Histogram: 2 1 4 9 12 5 5 4 4 2
Neighs:        16592.5 ave       19092 max       13762 min
Histogram: 1 2 6 9 3 8 5 6 5 3
FullNghs:      33184.8 ave       36548 max       29837 min
Histogram: 1 5 6 5 8 5 8 4 4 2

Total # of neighbors = 1592872
Ave neighs/atom = 398.21800
Neighbor list builds = 106387
Dangerous builds = 0

#clear
#
#next RN
#
#jump SELF
Total wall time: 1:27:35
