
units lj                  # Use reduced LJ style units
atom_style atomic         # Uncharged point particles
atom_modify map hash      # Needed for indexing of clusters etc
                          # Used to be able to find where atoms are in relation to each other.

lattice fcc 1.0 spacing 1 1 1
Lattice spacing in x,y,z = 1.5874011 1.5874011 1.5874011
region box block 0 10 0 10 0 10 units lattice
create_box 2 box
Created orthogonal box = (0.0000000 0.0000000 0.0000000) to (15.874011 15.874011 15.874011)
  3 by 4 by 4 MPI processor grid
create_atoms 1 box
Created 4000 atoms
  using lattice units in orthogonal box = (0.0000000 0.0000000 0.0000000) to (15.874011 15.874011 15.874011)
  create_atoms CPU = 0.002 seconds
set type 1 type/fraction 2 0.68 78393
Setting atom values ...
  2740 settings made for type/fraction
mass 1 1.0
mass 2 1.0
pair_style lj/cut  3.5
pair_modify tail  yes
pair_coeff 1  1  1.0  1.0   # Intearaction between 1 and 1 set with epsilon = 1 and sigma = 1
pair_coeff 1  2  1.5  0.8
pair_coeff 2  2  0.5  0.88

write_data data.0
System init for write_data ...
Neighbor list info ...
  update every 1 steps, delay 10 steps, check yes
  max neighbors/atom: 2000, page size: 100000
  master list distance cutoff = 3.8
  ghost atom cutoff = 3.8
  binsize = 1.9, bins = 9 9 9
  1 neighbor lists, perpetual/occasional/extra = 1 0 0
  (1) pair lj/cut, perpetual
      attributes: half, newton on
      pair build: half/bin/atomonly/newton
      stencil: half/bin/3d
      bin: standard
WARNING: Not all mixed pair coeffs generated from mixing. Use write_data with 'pair ij' option to store all pair coeffs. (../write_data.cpp:312)


#############################
#   M E L T   S Y S T E M   #
#############################

velocity all create 2.4 8172548 mom yes dist gaussian # Assign velocities
                                                    # Temperature 2.4, random number seed, zero linear momentum
                                                                                # Gaussian distribution

timestep 0.002   # simulation timestep
thermo 1000       # output thermodynamic data every 1000 steps bf 100

# Define a fix  in this case with index 1 applied to all
# particles in the simulation. This fix is for simulations
# in the anisotropic NPT ensemble. Note that we use the MTK
# correction.
fix 1 all npt temp 2.4 2.4 0.1 iso 5.68 5.68 0.5 mtk yes tchain 5 pchain 5 # Use NPT ensemble
                                                                         # Set temperature and pressure and damping
                                                                         # Numbers of thermostats in chain and in barostat
run 10000          # run for 10000 steps
Per MPI rank memory allocation (min/avg/max) = 3.642 | 3.644 | 3.648 Mbytes
Step Temp E_pair E_mol TotEng Press Volume 
       0          2.4   -4.2819815            0  -0.68288149   -3.8317514         4000 
    1000    2.4283555   -3.9044386            0  -0.26281601    6.0436915    3630.6797 
    2000    2.3853142   -3.9346603            0  -0.35758347    5.8756397    3639.3274 
    3000    2.3647948   -3.9209384            0  -0.37463302    5.6844365    3648.9404 
    4000    2.4175646   -3.9435987            0  -0.31815831    5.6092408    3649.1655 
    5000    2.4640663   -3.9956063            0  -0.30043078    5.8296682    3598.1006 
    6000    2.4009617   -3.9570511            0  -0.35650895     5.653158    3624.5276 
    7000    2.3983356   -3.9312549            0  -0.33465078     5.480374    3662.1395 
    8000    2.3613844    -3.944496            0  -0.40330492    5.7038314    3631.7058 
    9000    2.3900475    -3.977057            0  -0.39288201    5.4351779    3634.6035 
   10000    2.4175351   -3.9430915            0  -0.31769551    6.1501977    3605.3103 
Loop time of 2.6479 on 48 procs for 10000 steps with 4000 atoms

Performance: 652593.808 tau/day, 3776.585 timesteps/s
99.6% CPU use with 48 MPI tasks x no OpenMP threads

MPI task timing breakdown:
Section |  min time  |  avg time  |  max time  |%varavg| %total
---------------------------------------------------------------
Pair    | 1.179      | 1.2646     | 1.3439     |   3.2 | 47.76
Neigh   | 0.21852    | 0.22379    | 0.23837    |   0.7 |  8.45
Comm    | 0.83678    | 0.89616    | 0.97558    |   3.7 | 33.84
Output  | 0.00024878 | 0.00025328 | 0.00031992 |   0.0 |  0.01
Modify  | 0.20303    | 0.24751    | 0.29002    |   5.2 |  9.35
Other   |            | 0.01557    |            |       |  0.59

Nlocal:        83.3333 ave          92 max          73 min
Histogram: 3 0 2 7 7 11 5 8 2 3
Nghost:        1758.35 ave        1791 max        1730 min
Histogram: 3 3 5 6 8 10 8 3 1 1
Neighs:        10587.0 ave       11807 max        9206 min
Histogram: 3 2 4 7 6 4 10 5 4 3

Total # of neighbors = 508177
Ave neighs/atom = 127.04425
Neighbor list builds = 907
Dangerous builds = 192

# Equilibrate just above the melting temperature to avoid step fn in T

fix 1 all npt temp 1.25 1.25 0.1 iso 5.68 5.68 0.5 mtk yes tchain 5 pchain 5
run 2000
Per MPI rank memory allocation (min/avg/max) = 3.644 | 3.646 | 3.649 Mbytes
Step Temp E_pair E_mol TotEng Press Volume 
   10000    2.4175351   -3.9430915            0  -0.31769551    6.1501977    3605.3103 
   11000     1.247425   -5.8160751            0   -3.9454053    5.7094248    2773.1799 
   12000    1.2678674   -5.8423125            0   -3.9409869    5.7857584    2765.0713 
Loop time of 0.669782 on 48 procs for 2000 steps with 4000 atoms

Performance: 515988.662 tau/day, 2986.045 timesteps/s
99.6% CPU use with 48 MPI tasks x no OpenMP threads

MPI task timing breakdown:
Section |  min time  |  avg time  |  max time  |%varavg| %total
---------------------------------------------------------------
Pair    | 0.29406    | 0.32499    | 0.36253    |   2.5 | 48.52
Neigh   | 0.040853   | 0.043284   | 0.047146   |   0.7 |  6.46
Comm    | 0.21498    | 0.25065    | 0.28025    |   2.9 | 37.42
Output  | 5.2145e-05 | 5.3357e-05 | 6.7751e-05 |   0.0 |  0.01
Modify  | 0.039253   | 0.045822   | 0.050275   |   1.8 |  6.84
Other   |            | 0.004985   |            |       |  0.74

Nlocal:        83.3333 ave          90 max          75 min
Histogram: 1 0 5 3 8 5 16 2 5 3
Nghost:        2108.69 ave        2132 max        2092 min
Histogram: 2 1 9 10 9 9 6 1 0 1
Neighs:        13791.8 ave       15544 max       11534 min
Histogram: 1 0 3 3 12 10 7 8 2 2

Total # of neighbors = 662006
Ave neighs/atom = 165.50150
Neighbor list builds = 142
Dangerous builds = 14

#############################
# L I N E A R  Q U E N C H  #
#############################

# Define solid atoms. This closely follows ten Wolde  Ruiz-Montero and Frenkel  Faraday Discuss  1996  104  93-110
# Compute components of the per-atom q6 vector
compute q6 all orientorder/atom degrees 1 6 components 6 nnn NULL cutoff 1.3 # compute the Q6 parameter.
                                                                             # Use all neighbours within 1.3 unit cell.

# get number of connections
compute coord_number all coord/atom orientorder q6 0.5

# An atom is solid if it has 8 or more connections (of a possible 14)
variable is_solid atom c_coord_number>=8
group solid dynamic all var is_solid    # Must be dynamic to update
dynamic group solid defined

# do clustering
compute cluster solid cluster/atom 1.3 # Create a cluster where all atoms within are solid and max 1.3 units from another member

# define chunks one chunk per cluster
compute clus_chunks solid chunk/atom c_cluster nchunk every compress yes  # Says which atoms are in which chunk

# count the size of each chunk
compute size_chunks solid property/chunk clus_chunks count


# Find the maximum entry in the vector of chunk sizes
variable max_n equal max(c_size_chunks)


# Thermo style which includes this variable
# thermo_style custom step temp pe vol v_max_n

thermo ${N}  # Print the thermo information every 100 steps
thermo 1000  

# Reset the npt fix at a lower temperature (below freezing)
fix 1  all npt temp  ${temp} ${temp}  0.1  iso  5.68  5.68  0.5  mtk yes tchain  5  pchain  5
fix 1  all npt temp  0.45 ${temp}  0.1  iso  5.68  5.68  0.5  mtk yes tchain  5  pchain  5
fix 1  all npt temp  0.45 0.45  0.1  iso  5.68  5.68  0.5  mtk yes tchain  5  pchain  5

dump dmp2 all dcd ${N} traj.dcd
dump dmp2 all dcd 1000 traj.dcd


compute msd all msd com yes
variable twopoint equal c_msd[4]/6/(step*dt+1.0e-6)
fix 9 all vector 10 c_msd[4]
variable fit equal slope(f_9)/6/(10*dt)
thermo_style custom step temp pe c_msd[4] v_twopoint v_fit v_max_n

fix 1 all npt temp 1.25 ${temp} 0.1 iso 5.68 5.68 0.5 mtk yes tchain 5 pchain 5
fix 1 all npt temp 1.25 0.45 0.1 iso 5.68 5.68 0.5 mtk yes tchain 5 pchain 5
run 500000 # 5000000  # Run for this many steps
Neighbor list info ...
  update every 1 steps, delay 10 steps, check yes
  max neighbors/atom: 2000, page size: 100000
  master list distance cutoff = 3.8
  ghost atom cutoff = 3.8
  binsize = 1.9, bins = 8 8 8
  4 neighbor lists, perpetual/occasional/extra = 1 3 0
  (1) pair lj/cut, perpetual
      attributes: half, newton on
      pair build: half/bin/atomonly/newton
      stencil: half/bin/3d
      bin: standard
  (2) compute orientorder/atom, occasional
      attributes: full, newton on
      pair build: full/bin/atomonly
      stencil: full/bin/3d
      bin: standard
  (3) compute coord/atom, occasional
      attributes: full, newton on
      pair build: full/bin/atomonly
      stencil: full/bin/3d
      bin: standard
  (4) compute cluster/atom, occasional
      attributes: full, newton on
      pair build: full/bin/atomonly
      stencil: full/bin/3d
      bin: standard
Per MPI rank memory allocation (min/avg/max) = 9.844 | 9.852 | 9.859 Mbytes
Step Temp PotEng c_msd[4] v_twopoint v_fit v_max_n 
   12000    1.2678674   -5.8423125 4.1539443e-30 2.8846834e-32 8.3333333e+20            3 
   13000    1.2568802   -5.8999447   0.60028407 0.0038479747  0.049606716            2 
   14000     1.266414   -5.9283336    1.1503932 0.0068475781  0.047886319            4 
   15000    1.2490945   -5.8724316     1.699602 0.0094422332  0.046758028            3 
   16000    1.2552764   -5.9229514    2.2422132  0.011678193  0.046112049            2 
   17000    1.2566535   -5.9144585    2.8385081  0.013914255  0.046369715            6 
   18000    1.2294899   -5.9052115    3.4026187  0.015752864  0.046720436            3 
   19000    1.1992107   -5.8911595    4.0074262   0.01757643  0.046923216            4 
   20000    1.2456531   -5.8902998    4.5456585  0.018940243  0.047100866            1 
   21000    1.2588564   -5.8513681    5.1344345   0.02037474  0.047046147            6 
   22000    1.2445273   -5.9511239    5.6219142  0.021295129   0.04709579            2 
   23000     1.226829   -5.9155205    6.3058568  0.022847307  0.047145195            1 
   24000    1.2454929   -5.8822132    6.8445927  0.023765947  0.047287006            3 
   25000    1.2458657   -5.8773589    7.4297695  0.024765898  0.047318154            1 
   26000    1.2341039   -5.9011251    8.0472368  0.025792425  0.047396983            3 
   27000    1.2238683    -5.932486    8.7366284  0.026964902   0.04771686            4 
   28000    1.2259232   -5.9021189    9.3258519  0.027755511  0.048072768            5 
   29000    1.2109374   -5.9115641    9.8769172  0.028381945  0.048285462            1 
   30000    1.2278545   -5.9325122    10.336443  0.028712341  0.048339565            6 
   31000    1.2160941   -5.9393439    10.821499  0.029090051  0.048223226            1 
   32000     1.243191   -5.9381073    11.383614  0.029644827  0.048092015            2 
   33000    1.2345143     -5.93235    12.007294  0.030321449  0.047976597            3 
   34000     1.213349   -5.9618054    12.479865  0.030587904  0.047869801            3 
   35000    1.2421834   -5.9316277    12.932087  0.030790682  0.047708086            2 
   36000    1.1910885   -5.9652766    13.533874  0.031328411  0.047540011            2 
   37000     1.193608   -5.9722308    14.017166  0.031570192   0.04737005            4 
   38000    1.2072754   -5.9775649    14.611112  0.032041913  0.047229653            2 
   39000    1.2094006   -5.9367931    15.239071  0.032562117  0.047125582            2 
   40000    1.2020151   -5.9748952    15.645141  0.032594044  0.047000569            3 
   41000    1.1964731   -5.9376115    16.181374  0.032888971  0.046871231            3 
   42000    1.2012584    -5.921817    16.846991  0.033426568  0.046779667            3 
   43000    1.1755438   -5.9787794     17.22819  0.033387964  0.046692722            1 
   44000    1.1869742   -5.9530559    17.755438  0.033627724  0.046574724            1 
   45000    1.2066134   -5.9298052    18.295893  0.033881282  0.046432623            1 
   46000    1.1976566   -5.9826196    18.719044  0.033911311  0.046301457            2 
   47000    1.1947268   -6.0011884    19.060474  0.033795167  0.046136155            1 
   48000    1.1642641   -6.0005754    19.580321  0.033993612  0.045946437            4 
   49000    1.1789411    -5.998156    20.013346  0.034036303  0.045771306            3 
   50000    1.2096989   -5.9953783    20.442739  0.034071232  0.045584443            4 
   51000    1.1797564   -5.9767435    20.724983  0.033864351  0.045355388            2 
   52000    1.1917678   -5.9975964    21.228428  0.034019916  0.045113778            6 
   53000    1.2185885   -6.0312337    21.618226  0.033990921  0.044865369            5 
   54000    1.1873242     -6.01885    22.037203  0.034008029  0.044618259            4 
   55000    1.1760941   -6.0302602    22.484544   0.03406749  0.044386058            3 
   56000    1.2365522   -6.0631459    22.766328  0.033878465   0.04414178            2 
   57000    1.2029495   -6.0472371    23.295592  0.034057882  0.043885486            3 
   58000    1.1636682   -5.9966857    23.653108   0.03398435  0.043643148            2 
   59000    1.1819358    -6.014442    24.273256   0.03428426  0.043406194            6 
   60000    1.1942736   -6.0219016    24.576718  0.034134331  0.043181043            3 
   61000    1.1411505   -6.0279433    25.032711  0.034197692  0.042972039            1 
   62000    1.2004915   -6.0320309     25.34693  0.034068454  0.042772451            2 
   63000    1.1453553   -6.0310534    25.941111  0.034313638   0.04258838            3 
   64000    1.1493417   -6.0204033      26.4029  0.034378776  0.042423643            4 
   65000    1.1921631   -6.0519591    26.892631  0.034477732  0.042264736            3 
   66000    1.1862572   -6.0310715    27.340701  0.034521086  0.042105971            2 
   67000    1.1702259   -6.0602284    27.888386  0.034687047  0.041975646            7 
   68000    1.1578696   -6.0551254    28.251326  0.034621723  0.041843435            3 
   69000    1.1953529   -6.0816134    28.588367  0.034527013  0.041710944            5 
   70000    1.1650371    -6.044523    29.193621  0.034754311  0.041584119            3 
   71000    1.1563691   -6.0969413    29.500371  0.034624849  0.041464664            4 
   72000    1.1667503   -6.0604889    29.974938  0.034693215   0.04134527            3 
   73000     1.166396   -6.1065127    30.281009  0.034567361  0.041218366            3 
   74000    1.1366347   -6.0163391    31.063478  0.034981393  0.041112935            2 
   75000    1.1067591   -6.0650787    31.298746  0.034776384  0.041009413            2 
   76000    1.1425673   -6.0609311    31.701657  0.034760588  0.040903002            3 
   77000    1.1544036   -6.0750121    31.934601  0.034561256  0.040782106            3 
   78000    1.1342114   -6.0781553    32.324639  0.034534871  0.040659786            2 
   79000    1.1307432   -6.0954142    32.682177  0.034474871  0.040533164            3 
   80000    1.1325231   -6.1194997    33.447346  0.034840985  0.040422796            5 
   81000    1.1257781   -6.1103074    34.179894    0.0351645   0.04033945            4 
   82000    1.1606617   -6.1324373     34.26855  0.034825762  0.040258811            2 
   83000    1.1430743    -6.111098    34.724751  0.034864208  0.040173005            2 
   84000    1.1368508   -6.1101143    35.095857  0.034817318  0.040088463            5 
   85000    1.1188172   -6.1203783     35.52569  0.034829108  0.039991743            3 
   86000    1.1549273   -6.1390263    35.938011  0.034823653  0.039896065            2 
   87000     1.147375    -6.108811    36.195722  0.034670232  0.039802462            2 
   88000    1.1299977   -6.1355185     36.48411  0.034549346  0.039702324            2 
   89000    1.1417247   -6.1141293    37.146899  0.034781741  0.039609131            3 
   90000    1.1244714   -6.1486429    37.421881  0.034649889  0.039517901            3 
   91000    1.1218425   -6.1396501    37.989552  0.034788967  0.039423135            2 
   92000    1.1544988   -6.1625761    38.287568  0.034680768  0.039336183            3 
   93000    1.1269788   -6.1416667     38.33365  0.034349148  0.039244251            3 
   94000    1.1350643   -6.1266057    38.660284  0.034273301  0.039135117            2 
   95000    1.1267969   -6.1415916    39.049257  0.034253734  0.039022557            3 
   96000    1.1070028   -6.1924732    39.433773  0.034230705  0.038909706            6 
   97000    1.1137689   -6.2207637    39.777595  0.034173192  0.038804297            6 
   98000    1.1080697    -6.225982    40.187141  0.034172738  0.038704559            5 
   99000    1.1326932   -6.1612788    40.645627  0.034213491  0.038601506            2 
  100000     1.119856   -6.1804653     40.95948    0.0341329  0.038495528            3 
  101000    1.0875392   -6.1993854    41.053914  0.033872866  0.038383873            2 
  102000    1.0846685   -6.2030516    41.203558  0.033663037  0.038268187            3 
  103000    1.0998726   -6.2101356    41.647014  0.033694995   0.03814757            4 
  104000    1.1023215   -6.2179797    42.002557  0.033655895  0.038028714            3 
  105000    1.1021147   -6.2030732    42.344055  0.033606393  0.037907366            3 
  106000    1.0983991    -6.198098    42.914195  0.033737574  0.037797128            3 
  107000    1.1037539   -6.2082696    43.108933  0.033573935  0.037686468            3 
  108000    1.0676765   -6.2437172    43.650482  0.033680927  0.037576004            4 
  109000    1.0983803   -6.2492312    43.819856  0.033501419   0.03746524            7 
  110000    1.0803933   -6.2138576    44.208512  0.033491297  0.037356152            2 
  111000    1.1080853   -6.2295368    44.406408  0.033338144  0.037244171            3 
  112000    1.1316283   -6.2304065    44.700639  0.033259404   0.03712976            3 
  113000    1.0796032   -6.2161496    45.004742  0.033189337  0.037017721            2 
  114000     1.093122   -6.2490449    45.330718   0.03313649  0.036903675            5 
  115000    1.1044012   -6.2884217    45.581901  0.033030363  0.036790465            3 
  116000    1.0927938   -6.2448505    45.924261  0.032991567  0.036676554            3 
  117000    1.0970072     -6.23915     46.49301   0.03311468  0.036566519            4 
  118000    1.0773315   -6.2550629    46.639397  0.032937427  0.036458656            2 
  119000    1.0590573   -6.2703056    46.987534  0.032904436  0.036352943            2 
  120000    1.0770598   -6.2817978    47.037267  0.032664769  0.036242311            3 
  121000    1.0622003   -6.2676678    47.377373  0.032629045  0.036132988            9 
  122000    1.0534499   -6.2469946    47.738156   0.03260803  0.036026406            2 
  123000    1.1071919   -6.2773457    48.102841  0.032590001  0.035916818            3 
  124000    1.0794849   -6.2580145    48.476845  0.032578525  0.035806617            2 
  125000    1.0807051   -6.2631099      48.7392    0.0324928  0.035700994            2 
  126000    1.0188445   -6.2632675    49.192584  0.032534778  0.035595539            4 
  127000    1.0828138   -6.2810732    49.647564  0.032577142  0.035495638            4 
  128000    1.0709617   -6.2769505    49.863159  0.032462994  0.035400948            5 
  129000    1.0716024   -6.2421289      50.1613  0.032403941  0.035303086            3 
  130000    1.0510869   -6.3052765    50.421359  0.032321384  0.035202664            4 
  131000    1.0806241   -6.3374989     50.50253  0.032126291  0.035104379            5 
  132000    1.0502912   -6.3097549    50.918228  0.032145346  0.035003589            4 
  133000    1.0617079   -6.3033527    51.350907  0.032174754  0.034907257            4 
  134000      1.03908   -6.3371057    51.565416  0.032068045  0.034813999            5 
  135000    1.0293012   -6.3668423    51.977299  0.032084752  0.034725003            2 
  136000    1.0612606   -6.3448539    52.205455  0.031988637  0.034632541            2 
  137000    1.0580786   -6.3451236    52.538403  0.031957666  0.034543992            4 
  138000    1.0759119    -6.323525    52.942873  0.031970334  0.034451426            3 
  139000     1.051515   -6.3449016    53.210888  0.031901012  0.034362255            4 
  140000    1.0387585   -6.3643866    53.530843  0.031863597  0.034275885            2 
  141000    1.0277281   -6.3658522    53.790019  0.031790791  0.034191632            3 
  142000    1.0667651   -6.3360998    54.230968  0.031825685  0.034109704            3 
  143000    1.0359882   -6.3492546    54.530158  0.031777481  0.034027599            2 
  144000     1.048769   -6.3823975    54.869117  0.031752961  0.033947081            2 
  145000    1.0393823   -6.3359945    54.924229  0.031565649  0.033865575            1 
  146000     1.042011   -6.3626015    55.391579  0.031616198  0.033783564            2 
  147000    1.0524881   -6.3646803    55.889043  0.031683131  0.033704788            5 
  148000    1.0248404   -6.3857292    55.974916  0.031517407  0.033625429            3 
  149000    1.0076416   -6.3621393    55.953644  0.031293984  0.033541837            8 
  150000    1.0282731   -6.3927487    56.288029  0.031271127   0.03345562            2 
  151000    1.0158178   -6.3462291    56.645784   0.03126147  0.033368874            3 
  152000     1.019813    -6.416936     56.66794   0.03106795  0.033282992            3 
  153000    1.0364194    -6.396773    56.916125  0.031000068  0.033196184            2 
  154000    1.0229871   -6.3954824    57.287417  0.030999684  0.033112353            3 
  155000    1.0107025   -6.3793613    57.849898  0.031102096  0.033029477            2 
  156000    1.0272854   -6.3926726    57.910207   0.03093494  0.032946947            3 
  157000    1.0198104   -6.4297684    58.342771    0.0309675  0.032863065            3 
  158000    1.0194489   -6.4212215    58.319441  0.030759199  0.032777951            4 
  159000    1.0244635   -6.4462092    58.572794  0.030698529  0.032694321            5 
  160000    1.0035246   -6.4586294    58.826623  0.030638866  0.032608883            5 
  161000    1.0335804   -6.4094474    59.226227  0.030655397  0.032525905            3 
  162000   0.99019994    -6.401415    59.484111  0.030598822  0.032442891            3 
  163000    1.0262838   -6.4238041    59.599555   0.03047012  0.032358175           11 
  164000   0.98836735    -6.437591    59.870098  0.030421798  0.032272935            5 
  165000    1.0133318   -6.4574083    59.933241  0.030269313  0.032188077            2 
  166000    1.0024013   -6.4386348    60.173672  0.030207667  0.032102513            8 
  167000    0.9855163   -6.4334225    60.217987  0.030048896  0.032015361            9 
  168000    1.0057195   -6.4464372    60.716936  0.030117528   0.03192703            4 
  169000   0.97520384   -6.4739958    60.840161  0.030000079  0.031840759            7 
  170000   0.98443469   -6.4773012    60.952665  0.029878757  0.031754605            3 
  171000    1.0037393   -6.4705426    61.364672  0.029904811  0.031668389            3 
  172000   0.99937137   -6.4668202    61.605412  0.029847583  0.031586706            5 
  173000    1.0016418   -6.4823007    62.198653  0.029960816  0.031509521            3 
  174000    1.0061129   -6.4653364    62.142411  0.029761691  0.031430883            4 
  175000   0.98609946   -6.4901089    62.435779  0.029731323   0.03135136            3 
  176000   0.98809578   -6.4974628    62.623148  0.029651112  0.031270067            6 
  177000   0.99631697   -6.5098924    62.849135  0.029589988  0.031188609            5 
  178000   0.99437031   -6.5274538    63.083657  0.029533547  0.031107395            4 
  179000   0.98602868   -6.5038411    63.287553  0.029463479  0.031025058            6 
  180000   0.98822215   -6.5081397    63.390711  0.029347551  0.030943382            6 
  181000   0.99460594    -6.522364    63.717058  0.029335662  0.030861781            3 
  182000   0.97369335   -6.4701459    64.135562    0.0293661  0.030780097            4 
  183000   0.97295435   -6.4928051    64.046737  0.029165181   0.03069831           13 
  184000   0.98036103    -6.482837    64.095831  0.029028909  0.030616327            3 
  185000   0.95908479   -6.5086499    64.305541   0.02896646  0.030533602            4 
  186000   0.96993775   -6.5096437    64.555806  0.028922852  0.030449293            3 
  187000    1.0021765    -6.563744    64.609863  0.028792274  0.030363336            4 
  188000   0.96340445   -6.5215824    64.846995  0.028744235  0.030277126            2 
  189000   0.94348927   -6.5546367    65.188337  0.028742653   0.03019332            3 
  190000   0.97428322    -6.552372    65.392457  0.028680902   0.03011026            4 
  191000   0.97343699   -6.5398845    65.410679  0.028538691  0.030027317            5 
  192000   0.95692663   -6.5353995    65.791662  0.028555409  0.029943714            3 
  193000   0.96974095    -6.550794    65.866146  0.028439614   0.02986012            3 
  194000     0.961336   -6.5876574    65.895621  0.028305679  0.029776816            7 
  195000   0.97523487   -6.5955296     65.96077  0.028188363  0.029690989            5 
  196000   0.94097223   -6.5264382    66.291586  0.028185198  0.029606038            5 
  197000   0.96701802   -6.6071426    66.279796  0.028037139   0.02952203            5 
  198000   0.94492624    -6.580443    66.433578   0.02796026  0.029436565            4 
  199000   0.94184663   -6.6039929    66.493195  0.027844722   0.02935017            6 
  200000   0.95185214    -6.568698    66.761306  0.027817211  0.029262419            7 
  201000   0.93358363   -6.6261018    66.749245  0.027673816  0.029174191           11 
  202000   0.94329465   -6.5983701     66.75593  0.027539575  0.029084541            5 
  203000   0.93952908    -6.602256    67.043267  0.027521867  0.028995778            5 
  204000   0.93847729   -6.6160328    67.353531  0.027513697  0.028908365            9 
  205000   0.91452428   -6.6069239    67.376234  0.027388713  0.028820738            3 
  206000   0.94629648   -6.6462185    67.676812  0.027377351  0.028733359            5 
  207000   0.94894403     -6.60726    67.804292  0.027296414  0.028646851            3 
  208000   0.91620072    -6.549616    67.964275  0.027229277  0.028559744            7 
  209000   0.94563698   -6.6173892    68.022641  0.027122265  0.028473565            6 
  210000   0.91005019   -6.6196957    68.091317  0.027020364  0.028385738            3 
  211000   0.93350589   -6.6472225    68.504944  0.027055665  0.028300373            4 
  212000   0.91588286   -6.6464794    68.577063  0.026956393  0.028214668            4 
  213000    0.9248537   -6.6628151    68.534157   0.02681305  0.028128678            6 
  214000   0.90313268   -6.6095834    68.989874  0.026865216  0.028043039            5 
  215000   0.94903142   -6.6436088    69.135448  0.026796685  0.027958901            4 
  216000   0.92483539     -6.62584    69.424708  0.026784224  0.027875197            4 
  217000   0.92340656   -6.6576187    69.226985  0.026584864  0.027790444            6 
  218000   0.91313601   -6.6870589    69.400896  0.026529394  0.027706894            4 
  219000   0.92728736   -6.7226285    69.528805  0.026456927  0.027622434           10 
  220000   0.92423468   -6.7064579    69.724016  0.026410612   0.02753765           11 
  221000   0.91281317   -6.6460988    69.810475  0.026323708  0.027453978            6 
  222000   0.90780826   -6.6626381     69.81678    0.0262075  0.027370684            3 
  223000   0.90333281   -6.6854843    70.467203  0.026333035  0.027288909            5 
  224000   0.89454826   -6.6906802    70.619887  0.026272279  0.027207291            3 
  225000   0.92684889   -6.7053694    70.231565  0.026011691  0.027125796            4 
  226000   0.91414994   -6.7172411    70.509154   0.02599895  0.027044318           10 
  227000   0.91286721    -6.704457    70.678158   0.02594646  0.026963079            8 
  228000   0.89869297   -6.7197327     70.92198  0.025921776  0.026881186            7 
  229000    0.9047141   -6.7128668    70.950007   0.02581878  0.026800375            9 
  230000   0.88987442    -6.718997    71.143901  0.025776776  0.026719882            8 
  231000   0.90126267   -6.7094117    71.178342  0.025677613  0.026639517            5 
  232000   0.89774752   -6.7206572     71.48312  0.025676408  0.026560626            2 
  233000   0.89060456   -6.7327398    71.776512  0.025671142  0.026482626            3 
  234000   0.89854151   -6.7654691      71.7706  0.025559331  0.026404824            8 
  235000   0.91049543   -6.7837333    72.010898  0.025535779  0.026326823            3 
  236000   0.88150496   -6.7697468    72.038489  0.025437319  0.026249015            7 
  237000   0.87409558   -6.7448095    72.200205  0.025386851  0.026171902           16 
  238000   0.86193708   -6.7827694    72.270064  0.025304644  0.026094775            8 
  239000   0.89420244   -6.7453898    72.574894  0.025305054  0.026019012            5 
  240000   0.88716507   -6.7727042    72.657922  0.025228445  0.025942848            4 
  241000   0.90590934   -6.7370208    73.177213  0.025303324  0.025868251            5 
  242000   0.88695312   -6.7383083    73.415844  0.025280938  0.025795304            6 
  243000   0.88654382   -6.7530184    73.233953  0.025114524  0.025722995           24 
  244000   0.87517245   -6.7522883    73.306013  0.025036206  0.025649585            6 
  245000   0.88881628   -6.7543114    73.546016  0.025015651  0.025576016            4 
  246000   0.86277592   -6.7489717    73.539602  0.024911789  0.025501254           10 
  247000   0.87051852    -6.782041    73.334033  0.024741577   0.02542511            6 
  248000   0.85524286   -6.8036862    73.688958  0.024761075  0.025349079            6 
  249000   0.87519138    -6.832561    73.530934  0.024608746  0.025272502           11 
  250000   0.87028929   -6.7735443    73.846297  0.024615432  0.025196588            6 
  251000   0.87086253   -6.8249568     73.88511  0.024530249  0.025122091            9 
  252000   0.88658606   -6.8168722    74.119185  0.024510312  0.025046434           14 
  253000    0.8494623    -6.830414    74.115578  0.024412246  0.024972089            7 
  254000   0.86292431   -6.8456789    74.004282   0.02427962  0.024897566            2 
  255000   0.86133077   -6.8537676    74.278447  0.024274002  0.024823419            8 
  256000   0.84212244   -6.8685554    74.480814  0.024245056  0.024749639           10 
  257000    0.8703488    -6.848535    74.625672  0.024197689  0.024676049            5 
  258000   0.87668867   -6.8135024    74.857071   0.02417864  0.024603447            5 
  259000   0.84777911   -6.8125406     75.04978  0.024147291  0.024532051            8 
  260000   0.85685525   -6.8269949     75.09286  0.024068224  0.024460476           10 
  261000   0.88996886    -6.843338    75.097851  0.023977603  0.024388802            7 
  262000   0.82907413   -6.8475178    75.359787  0.023969398  0.024317354            6 
  263000   0.86898939   -6.8353763    75.154933   0.02381335  0.024246074            7 
  264000   0.84670528   -6.8379669    75.324052  0.023776532  0.024174768            4 
  265000   0.84882372   -6.8791551    75.435175  0.023721753  0.024102615            7 
  266000   0.83842953   -6.8753318     75.58848  0.023680602  0.024031072            3 
  267000   0.82859875   -6.8394153    75.750353  0.023642432  0.023961255           15 
  268000   0.84082322   -6.8940831    75.635453  0.023518487  0.023891424           13 
  269000   0.84029519    -6.883254    75.835959  0.023493172  0.023820817            6 
  270000   0.83646743   -6.8690656    75.947922  0.023440717  0.023750193            9 
  271000   0.80478567   -6.8886695    76.005542  0.023371938  0.023679872           10 
  272000   0.83359617   -6.8608384     76.05724   0.02330185  0.023610206           15 
  273000   0.85040762   -6.8517533    76.397992   0.02332051  0.023541266            5 
  274000   0.82235106   -6.8939406    76.208184  0.023177671  0.023471948           10 
  275000   0.81503528   -6.8950681    76.275536  0.023113799   0.02340102            8 
  276000   0.82290316   -6.8848377    76.234242  0.023017585  0.023331186            7 
  277000   0.81329832   -6.9195622    76.421756  0.022990901  0.023261004            5 
  278000   0.80921398   -6.9254792    76.226213  0.022849584  0.023190323            8 
  279000   0.82756371   -6.9478464    76.411751  0.022823104  0.023119307           11 
  280000    0.8228698   -6.9159642    76.673187  0.022819401  0.023048468            9 
  281000    0.8135356   -6.9597619    76.692893  0.022744037  0.022978265           11 
  282000   0.82217019   -6.9435082    76.483946  0.022601639  0.022907678            7 
  283000   0.79743896   -6.9720598    76.594875  0.022554439  0.022836824            7 
  284000   0.80704958   -6.9632447    76.778312  0.022528847  0.022766564           14 
  285000   0.81324888   -6.9519907    76.771078  0.022447684  0.022695809            6 
  286000   0.82122507   -6.9941631    76.483255  0.022285331   0.02262438           18 
  287000   0.81423306   -6.9533022    76.597938  0.022240981  0.022552553           16 
  288000   0.81277054   -7.0183495    76.755909  0.022209464  0.022480998           12 
  289000   0.80271865   -6.9750078    76.997084  0.022202158  0.022409831           13 
  290000   0.81658838   -6.9770527     76.81146  0.022072259  0.022338962           13 
  291000   0.80218376   -6.9755652    76.696087   0.02196337  0.022267835           20 
  292000   0.79739814   -6.9938692    76.824446  0.021924785  0.022196669           10 
  293000   0.79749552   -6.9804141    76.868952  0.021862614  0.022125985            4 
  294000   0.79896458   -7.0119329    76.845286  0.021781544  0.022055047           20 
  295000    0.8048383   -6.9949839    77.215511  0.021812291  0.021984558            8 
  296000   0.77954721   -7.0166041    76.983799  0.021673367  0.021913678            8 
  297000   0.79872563   -6.9849785    77.359772  0.021705884  0.021844278            8 
  298000   0.79026974   -7.0392352    77.332812  0.021625507  0.021774981           12 
  299000   0.78308082   -7.0138386    77.398204  0.021571406  0.021705935            8 
  300000   0.79353286   -7.0058136    77.458109  0.021516141  0.021636958           11 
  301000   0.78073091   -7.0295556    77.480686   0.02145091   0.02156857           21 
  302000   0.80139087   -7.0067807    77.604934  0.021414165  0.021500606            9 
  303000   0.78050187   -7.0425765    77.448715  0.021300527  0.021432076           16 
  304000   0.77578908   -7.0803538    77.475771  0.021237876  0.021363762            9 
  305000   0.77851568   -7.0331015    77.745866   0.02124204  0.021295399           28 
  306000   0.79087316   -7.0763349    77.730146   0.02116834  0.021227373           18 
  307000   0.77052942   -7.0948123    77.808509  0.021120659  0.021160019           18 
  308000   0.76199237     -7.09232    77.875633  0.021070247  0.021092719            7 
  309000   0.78155802   -7.0600033    78.080663  0.021057353  0.021026007            6 
  310000   0.77711613   -7.0604773    77.909074  0.020943299  0.020959599           14 
  311000    0.7581994   -7.0765315    77.975246  0.020893689  0.020893417            7 
  312000   0.76156455   -7.0784061    77.980503  0.020828126  0.020827286           11 
  313000   0.75226218   -7.0937378    77.994256  0.020765244     0.020761           22 
  314000   0.78860903   -7.0822056    78.289383  0.020777437  0.020695248            4 
  315000   0.74137308    -7.089303    78.153451  0.020675516  0.020629411           11 
  316000   0.75856272   -7.1281369    78.209356   0.02062483  0.020563531            9 
  317000   0.75550347   -7.1177268    78.036073  0.020514215  0.020497692            7 
  318000    0.7675594   -7.1328616    78.373306  0.020538078  0.020431826           13 
  319000   0.74732623   -7.1383926    78.206644  0.020430158  0.020365965           16 
  320000   0.75864369   -7.1210716    78.250963  0.020377855  0.020300096           10 
  321000   0.75014573   -7.1166194    78.332288  0.020335485  0.020234674           13 
  322000    0.7460469   -7.1240326    78.216121  0.020242267  0.020169322           10 
  323000   0.76123729   -7.1295123     78.37261  0.020219972  0.020104265           15 
  324000   0.72952916   -7.1138408    78.585227   0.02021225  0.020039639           15 
  325000   0.74625845   -7.1616146    78.511991   0.02013128  0.019974938           17 
  326000   0.75138089    -7.157308    78.503971  0.020067477  0.019910361           12 
  327000   0.75221327   -7.1617439    78.445182  0.019991127   0.01984643            7 
  328000   0.74447572   -7.1826454    78.345757  0.019904918  0.019782222            7 
  329000   0.72860378    -7.143232    78.325595   0.01983931  0.019718306           19 
  330000   0.72647495   -7.1832368    78.583256  0.019844256  0.019654497           13 
  331000   0.74557234   -7.1547531    78.624121  0.019794592  0.019590776           19 
  332000   0.74929722   -7.1423658    78.662849  0.019744691  0.019527371           11 
  333000   0.74705043   -7.1914341    78.568262  0.019661727  0.019464376            9 
  334000   0.73831865   -7.1782562    78.732436  0.019643821  0.019401306           11 
  335000   0.72697619   -7.1906521    78.825674  0.019608377   0.01933842           33 
  336000   0.72355698   -7.2208861    78.722575  0.019524448  0.019275494           21 
  337000   0.73346882   -7.2243009    78.649458  0.019448432  0.019212488           31 
  338000     0.732973   -7.2213692    78.536654   0.01936308  0.019149192           27 
  339000   0.72770559   -7.2070611    78.715266  0.019349869  0.019086047           37 
  340000    0.7317166   -7.2257063    78.755858  0.019302906  0.019023246           15 
  341000   0.71771888   -7.2423001    78.732207   0.01924052  0.018960946           27 
  342000   0.72863405   -7.2638196    78.704517  0.019177514  0.018898647           10 
  343000   0.72992172   -7.2355157     78.74262   0.01913086  0.018836735            9 
  344000    0.7224446   -7.2754342    78.847637  0.019100687  0.018775517           29 
  345000   0.71554416   -7.2384223    79.005889  0.019083548  0.018714099           36 
  346000   0.70499309   -7.2523373    78.910307  0.019005373  0.018652947           23 
  347000    0.7077798   -7.2454916    79.164475  0.019011642  0.018592255           16 
  348000   0.70554481   -7.2200496    79.040816  0.018927398  0.018531817           17 
  349000   0.71101999   -7.2519034    79.108334  0.018889287  0.018471639           16 
  350000   0.71748148   -7.2520874    79.132498  0.018841071  0.018411673           37 
  351000   0.70957637   -7.3120162    78.920594  0.018737083  0.018351784           21 
  352000   0.71541233   -7.2693758     79.16259  0.018741144  0.018292161           11 
  353000   0.70301153   -7.2719127    79.085045  0.018669746  0.018232506           43 
  354000   0.69581438   -7.2808553    79.039973  0.018606397  0.018172922           44 
  355000   0.70942591   -7.2765628    78.972254  0.018538088  0.018113295           53 
  356000   0.70562036    -7.294684    79.030881  0.018499738  0.018053668           35 
  357000    0.7140587   -7.2830396    79.185691  0.018484055  0.017994195           61 
  358000   0.71634782    -7.297667    79.024809  0.018394974  0.017934751           32 
  359000   0.69505863   -7.3054261    79.160272  0.018375179  0.017875784           77 
  360000   0.68057229   -7.3345892     79.04678  0.018297866  0.017817052           54 
  361000   0.70848342   -7.3206181    79.045582  0.018246903  0.017758436           36 
  362000   0.69665497   -7.3175966    78.990744  0.018183873  0.017699954           40 
  363000   0.67432157   -7.3062645    79.130528   0.01816587  0.017641629           46 
  364000   0.68731209   -7.3231988    79.131658  0.018116222  0.017583576           63 
  365000   0.67926935   -7.3503444    79.226994  0.018088355  0.017525701           75 
  366000   0.68063051   -7.3200637    79.296214  0.018054693  0.017468128           91 
  367000   0.66327804   -7.3518195    79.254971  0.017996133  0.017410639           62 
  368000   0.68185008    -7.354984    79.158235  0.017925325  0.017353222           79 
  369000   0.67433007   -7.3497514    79.217937   0.01789023  0.017295806           90 
  370000   0.66953594   -7.3570485    79.011025  0.017795276  0.017238625           50 
  371000   0.66430568   -7.3757919    79.192415  0.017788054  0.017181427           83 
  372000   0.67262352   -7.3552923    79.265326  0.017756569  0.017124483           87 
  373000   0.67535113   -7.3529318     79.22081  0.017699019  0.017067575           37 
  374000   0.68639884   -7.3495987    79.204352  0.017648028  0.017011068           61 
  375000   0.67665537   -7.3791939    79.151149  0.017589144  0.016954218           61 
  376000   0.68980027   -7.3968318    78.963118  0.017500691  0.016897504          109 
  377000   0.65419753   -7.3819377     79.07877  0.017479834  0.016840912           87 
  378000   0.66599524   -7.3976572    79.095453  0.017437269  0.016784382          101 
  379000   0.65705102   -7.4173102    78.831357  0.017333192  0.016728005           59 
  380000   0.65711552   -7.4197763    78.900428  0.017302725  0.016671805          109 
  381000   0.65134395   -7.4168371    79.026632  0.017284915  0.016615781           84 
  382000   0.64404122   -7.4183244    79.115867  0.017259133   0.01655994           78 
  383000   0.67419306   -7.4083508    78.893779  0.017165748  0.016504058           98 
  384000   0.67172399   -7.4432237    78.735609  0.017086721  0.016448106          141 
  385000   0.64064207   -7.4371915    78.772508  0.017050326   0.01639225          134 
  386000   0.65158457   -7.4514002    78.719978  0.016994814  0.016336381          238 
  387000   0.64832574   -7.4664556    78.744558  0.016956192  0.016280571          248 
  388000   0.65198666   -7.4727429    78.790336  0.016922323  0.016225048          184 
  389000   0.63405952   -7.4375335    78.773523  0.016875219   0.01616956          148 
  390000    0.6487043   -7.4767396    78.542363  0.016782556  0.016114245          113 
  391000   0.63647468    -7.457509    78.712069  0.016775803  0.016058877          125 
  392000   0.63833445   -7.4525704    78.493339  0.016686509  0.016003721          123 
  393000   0.64540573   -7.4772577    78.709819  0.016689953  0.015948645          141 
  394000   0.64420796   -7.4709769     78.53691  0.016611022  0.015893895          156 
  395000   0.65305406   -7.4854896    78.649024  0.016592621  0.015839341          156 
  396000   0.62657084   -7.4691258      78.7603  0.016574137  0.015785184          196 
  397000   0.62731439   -7.4900183    78.541905  0.016486546  0.015731144          242 
  398000   0.62120294   -7.4815449    78.748459  0.016488371  0.015677302          176 
  399000   0.62327961   -7.4815965    78.538408  0.016403176  0.015623698          124 
  400000   0.62523625   -7.4718197    78.928211  0.016443377  0.015570467          129 
  401000   0.63203939    -7.481473    78.611151  0.016336482  0.015517412          178 
  402000   0.61648621   -7.4871122    78.704887  0.016315275  0.015464402          252 
  403000   0.61954849   -7.4946599    78.778305  0.016289972  0.015411679           93 
  404000   0.61228048   -7.4959411    78.648414  0.016222858  0.015359033          185 
  405000    0.6329969   -7.5157679    78.761977  0.016206168  0.015306611          125 
  406000   0.62832238    -7.539181    78.751213  0.016164042    0.0152544          145 
  407000   0.61774017   -7.5094025    78.604697  0.016094328  0.015202173          147 
  408000   0.61675687   -7.5032349    78.613261   0.01605663   0.01515009           84 
  409000   0.60983906   -7.5438479    78.463689  0.015986897  0.015098155          159 
  410000   0.61706437   -7.5388592    78.559959  0.015967471  0.015046341           89 
  411000   0.61542385   -7.5365384    78.608969  0.015938558  0.014994759          110 
  412000   0.58822436   -7.5343757    78.628169  0.015903756  0.014943272          182 
  413000   0.60894878   -7.5531628    78.366681  0.015812486  0.014891999          147 
  414000    0.6093197   -7.5448129    78.562201  0.015813648  0.014840922           97 
  415000   0.60322102   -7.5393611    78.635204  0.015790201  0.014790096          133 
  416000   0.60248701   -7.5646446    78.446516  0.015714446  0.014739406          277 
  417000   0.59979102   -7.5754494    78.601015  0.015707637  0.014689061          252 
  418000    0.5989663   -7.5574853    78.550336  0.015659955  0.014639098          120 
  419000   0.61179683   -7.5836256    78.532546  0.015619042  0.014589055          149 
  420000   0.59885546   -7.5846892    78.281376  0.015532019   0.01453919          323 
  421000   0.58557799   -7.5691041     78.49694  0.015537795  0.014489597          300 
  422000   0.60538328   -7.5832556    78.436299  0.015489001  0.014440301          228 
  423000   0.59889521   -7.5947793    78.455109  0.015456089  0.014391131          336 
  424000   0.57473394   -7.5668711    78.539379  0.015436199  0.014342067          197 
  425000   0.58711324    -7.604797    78.407011  0.015373924  0.014293069          162 
  426000   0.58062868   -7.6187505     78.50478   0.01535696  0.014244385          135 
  427000   0.58429157   -7.5841601    78.476731  0.015315521  0.014195814          183 
  428000   0.58351262   -7.6217822    78.431975  0.015271023  0.014147422          211 
  429000    0.5846219   -7.5985266    78.521517   0.01525282  0.014099352          380 
  430000   0.56929076   -7.6275463    78.218771  0.015158677  0.014051391          356 
  431000   0.57317545   -7.6182027     78.39775  0.015158111  0.014003555          287 
  432000    0.5736688   -7.6229273    78.468711  0.015136711  0.013955869          309 
  433000   0.57640593   -7.6205002     78.41487  0.015091391  0.013908287          127 
  434000   0.56345802   -7.6385553     78.18361  0.015012214  0.013860785          223 
  435000   0.55704638   -7.6222643    78.159927  0.014973166  0.013813503          363 
  436000    0.5792452   -7.6213054    78.339456  0.014973138  0.013766418          195 
  437000   0.57994503   -7.6390934     78.22848  0.014917712  0.013719426          242 
  438000   0.57027998   -7.6327366    78.311179  0.014899387  0.013672592          270 
  439000   0.56137671   -7.6431798     78.24464  0.014852817  0.013625929          297 
  440000   0.56475085   -7.6635162    78.166349  0.014804233  0.013579436          282 
  441000   0.56522789   -7.6416983    78.191286  0.014775375  0.013533022          436 
  442000   0.56329279   -7.6639047    78.089327  0.014722724  0.013486694          489 
  443000   0.56980697   -7.6684619    77.993103  0.014671389  0.013440519          468 
  444000   0.55114471   -7.6590014    78.238052  0.014684319  0.013394693          401 
  445000   0.56830904   -7.6842519    77.973435  0.014601767   0.01334904          228 
  446000    0.5586174   -7.6743449    78.082839  0.014589469   0.01330358          441 
  447000   0.55409782   -7.6791334    78.095506  0.014559192  0.013258253          237 
  448000   0.55197653   -7.6827211    78.036744  0.014515763  0.013213068          188 
  449000   0.55456906   -7.6933552    77.922614  0.014462252  0.013168022          314 
  450000    0.5528432   -7.6683655    77.976312  0.014440058   0.01312313          345 
  451000   0.55473333   -7.6813415    77.950766   0.01440332  0.013078365          284 
  452000   0.54389088   -7.6793739    78.004744  0.014381406  0.013033796          310 
  453000   0.54666538   -7.6895176    77.918381  0.014333771  0.012989407          212 
  454000   0.53908325   -7.6986197    77.996447  0.014316528  0.012945242          215 
  455000   0.54896822   -7.6966539    78.043839  0.014293743  0.012901237          226 
  456000    0.5275974   -7.7006317    77.930171  0.014241625  0.012857437          314 
  457000   0.52924915   -7.6992808    78.032659   0.01422915  0.012813819          380 
  458000   0.54302384    -7.699791    77.874629  0.014169328  0.012770337          352 
  459000   0.53702242    -7.704487    78.012591  0.014163506  0.012726992          338 
  460000   0.53326638   -7.7079482    77.788839  0.014092181  0.012683805          387 
  461000   0.53130887   -7.7061478    78.000486  0.014099871  0.012640828          370 
  462000   0.52518788   -7.7258609    77.946587   0.01405963  0.012597956          399 
  463000   0.53099188   -7.7089924    78.018211  0.014042155  0.012555324          203 
  464000   0.53000596    -7.718619    77.976162  0.014004339  0.012512895          437 
  465000   0.51574442   -7.7307756     77.85676  0.013952824  0.012470578          444 
  466000    0.5291257   -7.7465075    77.853111   0.01392223  0.012428379          435 
  467000    0.5078083   -7.7367009    77.947224  0.013909212  0.012386311          355 
  468000   0.51619179   -7.7413989    77.844746  0.013861244  0.012344506          388 
  469000   0.52632845   -7.7563686    77.836921  0.013830299  0.012302883          191 
  470000   0.52290846   -7.7401076    77.893619  0.013810925  0.012261437          330 
  471000   0.50608812   -7.7390109    77.819841  0.013768549  0.012220216          282 
  472000   0.50675498   -7.7543066    77.866908  0.013747689  0.012179197          348 
  473000    0.5116664   -7.7402566    77.789955  0.013705066  0.012138336          365 
  474000    0.5152799    -7.737788    77.878845   0.01369178  0.012097628          413 
  475000   0.50545446   -7.7648702    77.761207  0.013642317  0.012057059          442 
  476000   0.50500322   -7.7592174    77.697364   0.01360248   0.01201666          392 
  477000   0.49420224   -7.7524012    77.765622  0.013585888  0.011976342          429 
  478000   0.50952555   -7.7428784    77.720977  0.013549682  0.011936222          352 
  479000   0.49673793   -7.7660755    77.781831  0.013531982  0.011896371          453 
  480000   0.50354774   -7.7586145    77.832623  0.013512608  0.011856666          404 
  481000   0.49532595   -7.7636364    77.743408  0.013469059  0.011817067          248 
  482000   0.50313924   -7.7703699    77.743232  0.013441084   0.01177765          384 
  483000   0.48593889   -7.7832014    77.679254  0.013402218  0.011738389          450 
  484000   0.48276307   -7.7723684    77.738929  0.013384802  0.011699304          332 
  485000    0.4935931   -7.7747368     77.83029  0.013372902  0.011660395          391 
  486000   0.48592553   -7.7712875    77.659305  0.013316067  0.011621701          374 
  487000   0.48274357   -7.7804757    77.714179  0.013298114  0.011583131          417 
  488000   0.48729469   -7.7798653    77.766435  0.013279787  0.011544721          350 
  489000   0.48774066   -7.7802819    77.711274   0.01324323  0.011506481          441 
  490000   0.50152822   -7.7851732    77.650739  0.013205908  0.011468365          356 
  491000   0.48799994   -7.7855431    77.736097  0.013193499  0.011430356          318 
  492000   0.48165512   -7.7994452     77.66441  0.013154541  0.011392499          399 
  493000   0.49750083   -7.7859284    77.567848  0.013111536  0.011354719          350 
  494000   0.48080828   -7.8039418    77.674711  0.013103021  0.011317169          418 
  495000   0.48179891   -7.8132606    77.730967  0.013086021  0.011279705          444 
  496000   0.46361677     -7.81553    77.542863  0.013028035  0.011242371          482 
  497000   0.47235358   -7.8088325    77.586913  0.013009207  0.011205247          425 
  498000    0.4655063   -7.8203102     77.68101   0.01299883  0.011168281          318 
  499000   0.46413934   -7.8297966    77.562691  0.012953021  0.011131461          399 
  500000   0.47850412   -7.8219771    77.512144  0.012918691  0.011094751          449 
  501000   0.46578915   -7.8230116    77.570284  0.012902575  0.011058255          195 
  502000   0.47183244   -7.8385209    77.594072  0.012880822  0.011021888          526 
  503000   0.45765344   -7.8232349    77.587074  0.012854055  0.010985666          477 
  504000   0.45717844   -7.8173721    77.502049  0.012814492  0.010949574          477 
  505000   0.46910817   -7.8182689    77.440572  0.012778972  0.010913601          415 
  506000   0.46840665   -7.8262659    77.450288  0.012755317  0.010877789          422 
  507000   0.45497245   -7.8301498    77.401843  0.012722196  0.010842106          479 
  508000   0.45974106   -7.8302307    77.515225  0.012715752   0.01080654          410 
  509000   0.47191345   -7.8518674     77.35912  0.012665213  0.010771144          455 
  510000   0.45270255   -7.8229969    77.493839  0.012662392  0.010735918          500 
  511000   0.45121323   -7.8394554    77.471846  0.012634026  0.010700773          262 
  512000    0.4477526   -7.8535201    77.499851  0.012613908   0.01066582          376 
Loop time of 1307.48 on 48 procs for 500000 steps with 4000 atoms

Performance: 66081.424 tau/day, 382.416 timesteps/s
99.4% CPU use with 48 MPI tasks x no OpenMP threads

MPI task timing breakdown:
Section |  min time  |  avg time  |  max time  |%varavg| %total
---------------------------------------------------------------
Pair    | 92.69      | 99.982     | 106.35     |  33.1 |  7.65
Neigh   | 9.1172     | 9.4781     | 9.8212     |   5.6 |  0.72
Comm    | 83.508     | 89.921     | 97.332     |  33.2 |  6.88
Output  | 6.2561     | 6.2569     | 6.2788     |   0.1 |  0.48
Modify  | 1086       | 1089.8     | 1093.3     |   5.6 | 83.35
Other   |            | 12.05      |            |       |  0.92

Nlocal:        83.3333 ave          90 max          76 min
Histogram: 2 1 5 5 7 11 4 9 3 1
Nghost:        2413.00 ave        2430 max        2400 min
Histogram: 2 8 8 3 8 3 6 3 5 2
Neighs:        16753.0 ave       19029 max       14210 min
Histogram: 2 8 2 2 6 7 6 7 5 3
FullNghs:      33503.8 ave       35998 max       30506 min
Histogram: 2 1 5 4 9 6 7 5 7 2

Total # of neighbors = 1608183
Ave neighs/atom = 402.04575
Neighbor list builds = 26692
Dangerous builds = 0

#clear
#
#next RN
#
#jump SELF
Total wall time: 0:21:51
