
units lj                  # Use reduced LJ style units
atom_style atomic         # Uncharged point particles
atom_modify map hash      # Needed for indexing of clusters etc
                          # Used to be able to find where atoms are in relation to each other.

lattice fcc 1.0 spacing 1 1 1
Lattice spacing in x,y,z = 1.5874011 1.5874011 1.5874011
region box block 0 10 0 10 0 10 units lattice
create_box 2 box
Created orthogonal box = (0.0000000 0.0000000 0.0000000) to (15.874011 15.874011 15.874011)
  3 by 4 by 4 MPI processor grid
create_atoms 1 box
Created 4000 atoms
  using lattice units in orthogonal box = (0.0000000 0.0000000 0.0000000) to (15.874011 15.874011 15.874011)
  create_atoms CPU = 0.002 seconds
set type 1 type/fraction 2 0.25 78393
Setting atom values ...
  1031 settings made for type/fraction
mass 1 1.0
mass 2 1.0
pair_style lj/cut  3.5
pair_modify tail  yes
pair_coeff 1  1  1.0  1.0   # Intearaction between 1 and 1 set with epsilon = 1 and sigma = 1
pair_coeff 1  2  1.5  0.8
pair_coeff 2  2  0.5  0.88

write_data data.0
System init for write_data ...
Neighbor list info ...
  update every 1 steps, delay 10 steps, check yes
  max neighbors/atom: 2000, page size: 100000
  master list distance cutoff = 3.8
  ghost atom cutoff = 3.8
  binsize = 1.9, bins = 9 9 9
  1 neighbor lists, perpetual/occasional/extra = 1 0 0
  (1) pair lj/cut, perpetual
      attributes: half, newton on
      pair build: half/bin/atomonly/newton
      stencil: half/bin/3d
      bin: standard
WARNING: Not all mixed pair coeffs generated from mixing. Use write_data with 'pair ij' option to store all pair coeffs. (../write_data.cpp:312)


#############################
#   M E L T   S Y S T E M   #
#############################

velocity all create 2.4 6229865 mom yes dist gaussian # Assign velocities
                                                    # Temperature 2.4, random number seed, zero linear momentum
                                                                                # Gaussian distribution

timestep 0.002   # simulation timestep
thermo 1000       # output thermodynamic data every 1000 steps bf 100

# Define a fix  in this case with index 1 applied to all
# particles in the simulation. This fix is for simulations
# in the anisotropic NPT ensemble. Note that we use the MTK
# correction.
fix 1 all npt temp 2.4 2.4 0.1 iso 5.68 5.68 0.5 mtk yes tchain 5 pchain 5 # Use NPT ensemble
                                                                         # Set temperature and pressure and damping
                                                                         # Numbers of thermostats in chain and in barostat
run 10000          # run for 10000 steps
Per MPI rank memory allocation (min/avg/max) = 3.642 | 3.644 | 3.648 Mbytes
Step Temp E_pair E_mol TotEng Press Volume 
       0          2.4   -6.7340002            0   -3.1349002   -3.8290783         4000 
    1000    2.3974299    -4.900962            0   -1.3057162    5.7693592    4315.1657 
    2000    2.3636499   -4.9402706            0   -1.3956821    5.4144516     4320.161 
    3000    2.3949183   -4.9356872            0   -1.3442078    5.6184903    4306.3698 
    4000     2.396927   -4.9681381            0   -1.3736464    5.4224134    4306.5136 
    5000    2.3636776   -4.9800784            0   -1.4354483    5.3544012    4297.7113 
    6000    2.3963029    -4.924142            0   -1.3305863    5.4220306    4333.4014 
    7000    2.3891707   -4.9447379            0   -1.3618778    5.3349519    4327.1116 
    8000    2.4257742   -4.9002566            0   -1.2625049    5.4969077    4336.8169 
    9000    2.4405907   -4.9057404            0   -1.2457696    5.6512268    4317.7468 
   10000    2.3768232    -4.968726            0   -1.4043825    5.2401871    4329.8012 
Loop time of 2.35212 on 48 procs for 10000 steps with 4000 atoms

Performance: 734657.373 tau/day, 4251.489 timesteps/s
99.6% CPU use with 48 MPI tasks x no OpenMP threads

MPI task timing breakdown:
Section |  min time  |  avg time  |  max time  |%varavg| %total
---------------------------------------------------------------
Pair    | 1.0268     | 1.0771     | 1.1441     |   3.1 | 45.79
Neigh   | 0.2        | 0.20774    | 0.22291    |   1.1 |  8.83
Comm    | 0.73604    | 0.81308    | 0.88265    |   4.3 | 34.57
Output  | 0.00024573 | 0.00025158 | 0.00031148 |   0.0 |  0.01
Modify  | 0.20075    | 0.23894    | 0.28719    |   4.0 | 10.16
Other   |            | 0.01495    |            |       |  0.64

Nlocal:        83.3333 ave          91 max          75 min
Histogram: 3 2 4 9 3 7 10 2 4 4
Nghost:        1552.48 ave        1580 max        1517 min
Histogram: 2 3 1 3 9 9 8 6 5 2
Neighs:        8806.35 ave        9822 max        7503 min
Histogram: 1 2 2 4 13 8 5 4 6 3

Total # of neighbors = 422705
Ave neighs/atom = 105.67625
Neighbor list builds = 904
Dangerous builds = 199

# Equilibrate just above the melting temperature to avoid step fn in T

fix 1 all npt temp 1.25 1.25 0.1 iso 5.68 5.68 0.5 mtk yes tchain 5 pchain 5
run 2000
Per MPI rank memory allocation (min/avg/max) = 3.643 | 3.645 | 3.649 Mbytes
Step Temp E_pair E_mol TotEng Press Volume 
   10000    2.3768232    -4.968726            0   -1.4043825    5.2401871    4329.8012 
   11000    1.2455947   -6.6999607            0   -4.8320358    5.5813574    3497.9249 
   12000    1.2386989   -6.7275639            0   -4.8699801    5.5629525    3488.4997 
Loop time of 0.537328 on 48 procs for 2000 steps with 4000 atoms

Performance: 643182.026 tau/day, 3722.118 timesteps/s
99.7% CPU use with 48 MPI tasks x no OpenMP threads

MPI task timing breakdown:
Section |  min time  |  avg time  |  max time  |%varavg| %total
---------------------------------------------------------------
Pair    | 0.23967    | 0.26033    | 0.28173    |   2.0 | 48.45
Neigh   | 0.03598    | 0.038304   | 0.040542   |   0.6 |  7.13
Comm    | 0.16491    | 0.188      | 0.21288    |   2.6 | 34.99
Output  | 5.0561e-05 | 5.2151e-05 | 6.6073e-05 |   0.0 |  0.01
Modify  | 0.041857   | 0.046054   | 0.050144   |   1.1 |  8.57
Other   |            | 0.004594   |            |       |  0.85

Nlocal:        83.3333 ave          92 max          77 min
Histogram: 5 1 9 6 12 2 5 3 3 2
Nghost:        1802.92 ave        1826 max        1780 min
Histogram: 4 4 2 6 5 10 6 5 5 1
Neighs:        10966.2 ave       12313 max        9754 min
Histogram: 2 5 7 5 5 9 7 3 1 4

Total # of neighbors = 526377
Ave neighs/atom = 131.59425
Neighbor list builds = 144
Dangerous builds = 16

#############################
# L I N E A R  Q U E N C H  #
#############################

# Define solid atoms. This closely follows ten Wolde  Ruiz-Montero and Frenkel  Faraday Discuss  1996  104  93-110
# Compute components of the per-atom q6 vector
compute q6 all orientorder/atom degrees 1 6 components 6 nnn NULL cutoff 1.3 # compute the Q6 parameter.
                                                                             # Use all neighbours within 1.3 unit cell.

# get number of connections
compute coord_number all coord/atom orientorder q6 0.5

# An atom is solid if it has 8 or more connections (of a possible 14)
variable is_solid atom c_coord_number>=8
group solid dynamic all var is_solid    # Must be dynamic to update
dynamic group solid defined

# do clustering
compute cluster solid cluster/atom 1.3 # Create a cluster where all atoms within are solid and max 1.3 units from another member

# define chunks one chunk per cluster
compute clus_chunks solid chunk/atom c_cluster nchunk every compress yes  # Says which atoms are in which chunk

# count the size of each chunk
compute size_chunks solid property/chunk clus_chunks count


# Find the maximum entry in the vector of chunk sizes
variable max_n equal max(c_size_chunks)


# Thermo style which includes this variable
# thermo_style custom step temp pe vol v_max_n

thermo ${N}  # Print the thermo information every 100 steps
thermo 1000  

# Reset the npt fix at a lower temperature (below freezing)
fix 1  all npt temp  ${temp} ${temp}  0.1  iso  5.68  5.68  0.5  mtk yes tchain  5  pchain  5
fix 1  all npt temp  0.45 ${temp}  0.1  iso  5.68  5.68  0.5  mtk yes tchain  5  pchain  5
fix 1  all npt temp  0.45 0.45  0.1  iso  5.68  5.68  0.5  mtk yes tchain  5  pchain  5

dump dmp2 all dcd ${N} traj.dcd
dump dmp2 all dcd 1000 traj.dcd


compute msd all msd com yes
variable twopoint equal c_msd[4]/6/(step*dt+1.0e-6)
fix 9 all vector 10 c_msd[4]
variable fit equal slope(f_9)/6/(10*dt)
thermo_style custom step temp pe c_msd[4] v_twopoint v_fit v_max_n

fix 1 all npt temp 1.25 ${temp} 0.1 iso 5.68 5.68 0.5 mtk yes tchain 5 pchain 5
fix 1 all npt temp 1.25 0.45 0.1 iso 5.68 5.68 0.5 mtk yes tchain 5 pchain 5
run 5000000 # 5000000  # Run for this many steps
Neighbor list info ...
  update every 1 steps, delay 10 steps, check yes
  max neighbors/atom: 2000, page size: 100000
  master list distance cutoff = 3.8
  ghost atom cutoff = 3.8
  binsize = 1.9, bins = 8 8 8
  4 neighbor lists, perpetual/occasional/extra = 1 3 0
  (1) pair lj/cut, perpetual
      attributes: half, newton on
      pair build: half/bin/atomonly/newton
      stencil: half/bin/3d
      bin: standard
  (2) compute orientorder/atom, occasional
      attributes: full, newton on
      pair build: full/bin/atomonly
      stencil: full/bin/3d
      bin: standard
  (3) compute coord/atom, occasional
      attributes: full, newton on
      pair build: full/bin/atomonly
      stencil: full/bin/3d
      bin: standard
  (4) compute cluster/atom, occasional
      attributes: full, newton on
      pair build: full/bin/atomonly
      stencil: full/bin/3d
      bin: standard
Per MPI rank memory allocation (min/avg/max) = 9.803 | 9.807 | 9.812 Mbytes
Step Temp PotEng c_msd[4] v_twopoint v_fit v_max_n 
   12000    1.2386989   -6.7275639 8.4151737e-31 5.8438704e-33 8.3333333e+20            4 
   13000    1.2601352   -6.7488112   0.53227495 0.0034120188  0.043471328            1 
   14000    1.2245565   -6.7491247    1.0552302 0.0062811322  0.043022998            2 
   15000    1.2382845   -6.7206714    1.5561323 0.0086451793  0.042606645            1 
   16000    1.2379753   -6.6933278    2.0696782  0.010779573  0.042878311            3 
   17000     1.243012   -6.7553307    2.5210476  0.012358076  0.042500553            1 
   18000    1.2356678   -6.7326418    2.9983174  0.013881099  0.041808658            3 
   19000    1.2564642   -6.7435004    3.4750277  0.015241349  0.041123261            1 
   20000    1.2351873   -6.7388813     3.897035  0.016237645   0.04072419            1 
   21000    1.2315494   -6.7239459    4.3872783  0.017409834  0.040312265            3 
   22000    1.2378539   -6.7004851    4.9337521  0.018688454  0.040218653            1 
   23000    1.2592475   -6.7313224    5.3916955  0.019535128  0.040335892            2 
   24000    1.2456896   -6.7284072    5.8892556  0.020448804  0.040286621            2 
   25000    1.2644852    -6.749061    6.3860447  0.021286815  0.040381996            2 
   26000    1.2381942   -6.7027151    6.9050073  0.022131433  0.040482934            1 
   27000    1.2719023   -6.7336579    7.4214733  0.022905781  0.040556292            1 
   28000    1.2167427   -6.7565644    7.9512538  0.023664445  0.040693175            2 
   29000    1.2580724   -6.7198576    8.5945204  0.024696897  0.040927722            2 
   30000     1.190766   -6.7105334     9.238182  0.025661616  0.041331183            2 
   31000    1.2507455    -6.744839     9.747757  0.026203647  0.041729884            1 
   32000    1.2135959   -6.7010654     10.39868  0.027079896  0.042153618            3 
   33000    1.2538936   -6.7586611     10.94458  0.027637827  0.042496146            1 
   34000    1.2212948   -6.7224396    11.298784  0.027693098  0.042727605            2 
   35000    1.2512479   -6.7565971    11.713329  0.027888878  0.042774731            1 
   36000    1.2603568    -6.762798    12.174072  0.028180723  0.042761159            1 
   37000    1.2433783   -6.6854316    12.708615  0.028623007  0.042721843            2 
   38000    1.2661084   -6.7484802    13.213526  0.028977029  0.042732753            3 
   39000    1.2355419   -6.7034343    13.808905  0.029506208   0.04274126            2 
   40000    1.2253777   -6.7687261    14.213973  0.029612444  0.042724312            3 
   41000    1.2471819   -6.7566973     14.66352  0.029803902  0.042667617            3 
   42000    1.2442363   -6.7675937    15.157682  0.030074766  0.042647886            1 
   43000    1.2438683   -6.7300831    15.560157  0.030155342  0.042567528            2 
   44000    1.2491912   -6.7403774    15.952642  0.030213337  0.042437828            1 
   45000    1.2498765   -6.7404096    16.522897  0.030597957  0.042334344            2 
   46000     1.267956   -6.7318626    17.074924  0.030932832  0.042238747            1 
   47000    1.2325559   -6.7091107    17.515764  0.031056319  0.042137445            1 
   48000    1.2507916   -6.7225094    18.171577  0.031547876  0.042103318            1 
   49000    1.2507936   -6.7127257    18.587851  0.031611991  0.042093726            3 
   50000    1.2528219   -6.7406112    19.088549  0.031814248  0.042058148            1 
   51000    1.2349207   -6.7710831    19.549504  0.031943634  0.042026532            1 
   52000    1.2420863   -6.7096179    20.128003  0.032256415  0.041984738            1 
   53000    1.2275809   -6.7576184    20.665577  0.032493045  0.041978948            2 
   54000    1.2673261   -6.7411615     21.16813  0.032666866  0.041987225            2 
   55000    1.2637431    -6.727612    21.655572  0.032811473   0.04198432            4 
   56000    1.2375348   -6.7658073    22.023734  0.032773414  0.041964559            2 
   57000    1.2244786   -6.7029393     22.65049  0.033114751    0.0419376            2 
   58000    1.2331214   -6.7305588    23.056901  0.033127731  0.041919326            1 
   59000    1.2595383   -6.7550074    23.658758  0.033416324  0.041903537            3 
   60000    1.2363563    -6.726561    24.198313  0.033608768  0.041902955            3 
   61000    1.2502037   -6.7484107    24.453848  0.033406896   0.04189664            5 
   62000    1.2438146   -6.7360121    25.112944  0.033753957  0.041864691            1 
   63000    1.2383071   -6.7324253    25.452735  0.033667639   0.04184648            2 
   64000    1.2297067   -6.7328314    25.937086  0.033772248  0.041813659            2 
   65000    1.2267268   -6.7255272    26.336062  0.033764181  0.041767593            2 
   66000    1.2339872   -6.7687037     26.61355  0.033602966   0.04170164            1 
   67000    1.2300323    -6.766866    27.063673  0.033661285  0.041624963            1 
   68000    1.2531867   -6.7688298    27.612595  0.033838964  0.041549272            3 
   69000    1.2399529   -6.7319328    28.210587  0.034070757  0.041492725            3 
   70000    1.2165388   -6.7843304    28.650027  0.034107174  0.041455657            2 
   71000    1.2547657    -6.762666    29.243636  0.034323516  0.041428413            2 
   72000     1.249305   -6.7261136    29.920498  0.034630206  0.041413567            5 
   73000    1.2561576   -6.7470222    30.347152  0.034642867  0.041406526            1 
   74000    1.2415363   -6.6961011    30.872664  0.034766513  0.041399268            4 
   75000    1.2163351   -6.7532993     31.26279  0.034736433  0.041394371            1 
   76000    1.2504085   -6.7712325    31.556518  0.034601445  0.041367551            3 
   77000     1.225318   -6.7320455    32.171828  0.034817995  0.041339063            1 
   78000     1.232636   -6.7656107    32.862949  0.035109988  0.041322581            2 
   79000    1.2211081   -6.7753513     33.27836  0.035103755  0.041312731            1 
   80000    1.2469456   -6.7257311     33.92196  0.035335375  0.041310042            1 
   81000    1.2448581   -6.7115752    34.618205  0.035615437  0.041325358            1 
   82000    1.2577158   -6.7439246    35.150665  0.035722221  0.041347705            4 
   83000    1.2526654   -6.7301625    35.584452  0.035727361  0.041364732            5 
   84000    1.2347985   -6.7520251    35.963086  0.035677664  0.041375835            1 
   85000    1.2404332   -6.7753226    36.472392  0.035757247  0.041380004            3 
   86000    1.2781756   -6.7527674    36.840746  0.035698397  0.041375205            1 
   87000    1.2672029    -6.767713    37.150129  0.035584415  0.041366143            1 
   88000    1.2173781   -6.7898547    37.595028  0.035601352  0.041341869            4 
   89000    1.2444227   -6.7164813    38.154409  0.035725102  0.041320441            1 
   90000     1.246194   -6.7506092    38.536314  0.035681772  0.041296343            1 
   91000    1.2128889   -6.7583176    38.970816   0.03568756  0.041269264            1 
   92000     1.252488   -6.7222216    39.456143  0.035739259  0.041239392            1 
   93000    1.2445087   -6.7326674    39.893769  0.035747104  0.041211193            2 
   94000    1.2467569   -6.7730271    40.285348  0.035713961  0.041183117            1 
   95000    1.2227409   -6.7217381     40.80483  0.035793711  0.041154362            2 
   96000     1.244184   -6.7183023    41.399205   0.03593681  0.041125999            2 
   97000     1.233121   -6.7479239    41.899048  0.035995745  0.041102998            2 
   98000    1.2221894   -6.7170682    42.380632  0.036037953   0.04109039            1 
   99000    1.2340907    -6.730636     42.94084  0.036145488  0.041068828            1 
  100000     1.223809    -6.720545    43.474121  0.036228434  0.041055933            1 
  101000    1.2732169   -6.7579199    43.873997  0.036199668  0.041048013            1 
  102000     1.229304   -6.7325126    44.495876   0.03635284  0.041043581            2 
  103000    1.2331113   -6.7800976    44.849401  0.036285923  0.041038909            3 
  104000    1.2281087   -6.7320415    45.482638  0.036444421  0.041034272            1 
  105000    1.2043502   -6.7308569     45.89233  0.036422484  0.041021822            2 
  106000    1.2043836   -6.7722458     46.05282  0.036205047  0.041002443            1 
  107000    1.2356664    -6.773691    46.503199  0.036217445  0.040974027            2 
  108000    1.2435327   -6.8158331    46.846838  0.036147252  0.040949041            1 
  109000    1.2317401    -6.738456    47.464137  0.036287566  0.040922405            3 
  110000    1.2130504   -6.7555528    47.940398  0.036318483  0.040898382            1 
  111000    1.2186763   -6.7682233    48.407152  0.036341705  0.040878425            2 
  112000    1.2314426   -6.7372456    49.112827  0.036542281  0.040866043            1 
  113000     1.221526   -6.7901928    49.379233  0.036415363  0.040844218            1 
  114000    1.2210514   -6.7921685    49.785098  0.036392615  0.040821096            1 
  115000    1.2320362   -6.7838729    50.000687  0.036232381  0.040794669            1 
  116000    1.2425785   -6.7701902    50.687388  0.036413353  0.040767269            1 
  117000    1.2238365   -6.8115778      51.3967  0.036607336  0.040751018            2 
  118000    1.2363271   -6.7961282      51.7454  0.036543362  0.040742807            1 
  119000    1.2253069   -6.7272524    52.368241  0.036672438  0.040730066            1 
  120000    1.2386842   -6.7468723    52.609869  0.036534631   0.04071365            1 
  121000    1.2462031   -6.7530836    53.014863  0.036511613  0.040690126            2 
  122000    1.2298062   -6.7774079    53.620903    0.0366263  0.040671574            1 
  123000    1.2517531   -6.7650836     54.06492   0.03662935   0.04065488            5 
  124000    1.2370409    -6.752897    54.499037  0.036625697  0.040633454            1 
  125000    1.2276424   -6.7300458     54.86116  0.036574106   0.04061474            1 
  126000     1.228907    -6.766445    55.471178  0.036687287  0.040592692            3 
  127000    1.2178131   -6.7290744    55.686003  0.036539372  0.040563468            2 
  128000    1.2495305   -6.7680016    56.008159  0.036463645  0.040536456            2 
  129000    1.2487866   -6.7600822    56.620024  0.036576243  0.040511037            1 
  130000    1.2664907   -6.7517844    57.301152  0.036731507  0.040492163            1 
  131000    1.2244236   -6.7845663    57.744433    0.0367331  0.040476879            3 
  132000    1.2817053   -6.7597067    58.342306  0.036832264  0.040461256            1 
  133000    1.2430443   -6.7460585    58.816781  0.036852619  0.040446466            1 
  134000    1.2753379   -6.7781682    59.437724  0.036963759  0.040436076            2 
  135000    1.2236038   -6.7383819     59.92636   0.03699158  0.040429099            1 
  136000    1.2071956    -6.783757    60.280402  0.036936521  0.040419403            2 
  137000    1.2490165   -6.8259525    60.834335  0.037003854  0.040412855            3 
  138000    1.2320753   -6.7519793     61.21033   0.03696276  0.040401022            1 
  139000    1.2287076    -6.786121    61.642531  0.036955954  0.040387447            3 
  140000    1.2317879   -6.7496698    61.981693  0.036893864  0.040370572            2 
  141000    1.2326971   -6.7490254    62.452099  0.036910224  0.040355436            1 
  142000    1.2542551   -6.7484752    63.281224  0.037136868  0.040339043            1 
  143000    1.2217142   -6.7374009    63.465305  0.036984443  0.040326641            1 
  144000    1.2200526   -6.7381864    64.016806  0.037046763  0.040313321            1 
  145000    1.2243672   -6.7803238    64.250078  0.036925332  0.040299872            1 
  146000    1.2046725   -6.7589164    64.373704  0.036742982  0.040282091            1 
  147000    1.2279249   -6.7614713    65.130633  0.036922127  0.040261893            1 
  148000    1.2363341   -6.7931112    65.802069  0.037050714  0.040248814            2 
  149000    1.2396337    -6.819894    66.053133  0.036942468   0.04023437            1 
  150000    1.1820145   -6.7836239     66.52012  0.036955622  0.040219308            2 
  151000    1.2264349   -6.7929738    67.067605  0.037013027  0.040203708            1 
  152000    1.2146099   -6.7865877    67.410249  0.036957373  0.040186632            2 
  153000    1.2186815   -6.7345443    67.942386  0.037005657  0.040168065            2 
  154000    1.2187134   -6.7957386    68.239269  0.036926011  0.040149859            2 
  155000    1.2229407   -6.7972985    68.791016  0.036984417  0.040133823            2 
  156000    1.2434386   -6.7707265    69.068638   0.03689564  0.040115658            1 
  157000    1.2335601   -6.7757622    69.558782  0.036920797  0.040098346            1 
  158000    1.2192107   -6.7768061     70.40551  0.037133708  0.040079019            2 
  159000    1.2053757   -6.7551263    70.845839  0.037130943  0.040059661            2 
  160000    1.2202223   -6.8023919     71.12319  0.037043328  0.040045707            2 
  161000    1.2434314   -6.7553497    71.673453   0.03709806  0.040030964            4 
  162000    1.2321708   -6.7712214    72.154012  0.037116261  0.040015865            1 
  163000    1.2188148   -6.8118087    72.564987  0.037098664  0.040002003            2 
  164000    1.2194031   -6.7625835    73.106232  0.037147476  0.039987208            2 
  165000    1.2142239   -6.7792793    73.454543  0.037098254  0.039970874            1 
  166000    1.2480487   -6.7271723    73.882744  0.037089731  0.039951965            1 
  167000    1.2171076   -6.8031845    74.019683  0.036935969  0.039932874            2 
  168000    1.2417524   -6.7796178     74.47727   0.03694309  0.039911004            2 
  169000    1.2152717   -6.7742752    75.007014  0.036985707  0.039892467            2 
  170000    1.2252322   -6.7948137    75.156925   0.03684163  0.039873175            1 
  171000    1.2552273   -6.7347077    76.190674  0.037129958  0.039856216            3 
  172000    1.2237951   -6.8006009    76.640361  0.037131958  0.039839849            1 
  173000    1.2215664   -6.8300889    77.241767  0.037207017  0.039824291            2 
  174000    1.2478202   -6.7841568    77.758767  0.037240789  0.039812516            1 
  175000    1.2300061   -6.8292654    77.982969  0.037134747  0.039800448            1 
  176000    1.2341573   -6.8248009    78.141338  0.036998739  0.039784221            1 
  177000    1.2400849   -6.8173482    78.389472  0.036906531  0.039766057            2 
  178000     1.205762   -6.7945828    79.024153  0.036996326  0.039746655            1 
  179000    1.2377462   -6.8234717    79.557629  0.037038002  0.039729144            2 
  180000    1.2030966   -6.7583624    80.363217  0.037205193  0.039718249            1 
  181000     1.215869   -6.7882238    80.636995  0.037125688   0.03970713            1 
  182000    1.2216761   -6.7404321    81.337274  0.037242341   0.03969548            2 
  183000    1.1928148   -6.7566715    82.190937  0.037427567  0.039686581            4 
  184000    1.2111464   -6.7510628    82.502693   0.03736535  0.039678389            1 
  185000    1.2352144   -6.8056061    83.039165  0.037405029  0.039675041            1 
  186000    1.2489963   -6.7911775    83.327703    0.0373332  0.039668821            1 
  187000    1.2323556   -6.7796666    83.612427   0.03726044  0.039662193            1 
  188000     1.186113    -6.792075    83.905876  0.037192321  0.039651372            3 
  189000     1.215785   -6.8137533    84.376764  0.037203158  0.039641195            3 
  190000    1.2237396   -6.7657923     84.83862  0.037209921  0.039629563            2 
  191000    1.2466508   -6.7793925    85.245276  0.037192529  0.039614869            1 
  192000    1.2163571   -6.8075464    85.168931  0.036965682  0.039596856            2 
  193000    1.2354183   -6.7708045    85.882805  0.037082386  0.039580227            2 
  194000    1.2354267   -6.7763709    86.416869  0.037120648  0.039565594            2 
  195000    1.2328233   -6.7865445    87.291164  0.037303916  0.039552323            2 
  196000    1.1976834   -6.7899389    87.654009  0.037267861  0.039541846            1 
  197000    1.2058526   -6.8114839    87.790793  0.037136545  0.039531806            2 
  198000    1.2278005   -6.8033232    88.695114  0.037329593   0.03952338            3 
  199000    1.1837076   -6.7796654     89.20035   0.03735358  0.039516462            1 
  200000    1.2019665   -6.8028024    89.743383  0.037393076  0.039511408            3 
  201000    1.2309314    -6.818624    90.351454  0.037459143  0.039506415            2 
  202000    1.2243128   -6.7885469    90.854227  0.037481117  0.039502908            1 
  203000    1.2284408   -6.7599265    91.486344   0.03755597  0.039499849            1 
  204000     1.207767   -6.7698958     92.01841   0.03758922   0.03949756            1 
  205000    1.2241272   -6.8286305    92.002837  0.037399527  0.039493772            2 
  206000    1.1954657   -6.8177169     92.67156  0.037488495  0.039487771            1 
  207000    1.2200531   -6.8189682    93.250532  0.037540472  0.039484295            2 
  208000    1.2205554   -6.7467397    93.984761  0.037654151  0.039481326            2 
  209000    1.1953288   -6.7896137     94.49802  0.037678636  0.039482431            1 
  210000    1.2265102   -6.7472108    95.505766  0.037899113  0.039485446            1 
  211000    1.2210598   -6.7830771    95.668652  0.037783828  0.039487102            1 
  212000    1.2242559   -6.7342342    96.236531  0.037828825   0.03948884            1 
  213000    1.2341245   -6.8021082    96.284807  0.037670112  0.039489132            1 
  214000    1.2348683   -6.7760547    96.826064  0.037704853   0.03948918            1 
  215000    1.2003329   -6.7663204    97.609902  0.037833295  0.039489126            2 
  216000    1.2042331    -6.785155    97.727108  0.037703359  0.039490176            2 
  217000    1.2278052   -6.7817578    98.423426  0.037797014  0.039492107            3 
  218000    1.2309372   -6.8177441    98.687122  0.037724435  0.039494119            2 
  219000     1.233375   -6.8364767    98.827019  0.037605411  0.039494323            1 
  220000    1.2317329   -6.7761147    99.406018  0.037653795  0.039492475            2 
  221000    1.1941494   -6.7814308     99.99085   0.03770394  0.039488184            2 
  222000    1.2085552   -6.8086174    99.830941  0.037474077  0.039482256            3 
  223000    1.2585673   -6.8176389    100.35948  0.037503543  0.039473686            2 
  224000    1.2245276   -6.7997463    101.34226  0.037701735  0.039468799            1 
  225000    1.2312973   -6.8265034    101.17907  0.037473728  0.039464709            4 
  226000    1.2431356   -6.7865483    102.44594   0.03777505  0.039460973            1 
  227000    1.2147713   -6.7686803    102.60271  0.037666193  0.039458207            2 
  228000    1.2159721    -6.757933    103.34232  0.037771315  0.039456454            3 
  229000    1.2116337   -6.8233034    103.15153  0.037536947  0.039453169            1 
  230000    1.1891747   -6.7966985    103.32006  0.037434803  0.039448799            3 
  231000    1.2045078   -6.7815718    104.28608  0.037621241  0.039442286            4 
  232000    1.2451314   -6.7684997    104.89527  0.037677898  0.039438216            2 
  233000     1.206575   -6.8168964    105.35683  0.037681268  0.039436691            2 
  234000    1.2430571   -6.7767022    105.70352  0.037643702   0.03943345            2 
  235000    1.2118386   -6.8031264    106.62471  0.037810179  0.039431161            1 
  236000    1.2182623   -6.7399774    107.46746  0.037947549  0.039428692            2 
  237000    1.2272313   -6.8203036    107.11469  0.037663393  0.039428204            1 
  238000    1.2278704   -6.7830543     107.8174   0.03775119  0.039426747            1 
  239000    1.2134619   -6.7951014    108.55765  0.037851343  0.039425462            1 
  240000    1.1939761   -6.8083916     109.1321  0.037893089  0.039425078            2 
  241000    1.2228386   -6.7898271    109.49346  0.037860808  0.039426684            2 
  242000    1.2010584   -6.7937278    110.36902  0.038005859  0.039427922            2 
  243000    1.2233272   -6.7599411    110.89877  0.038031128  0.039430035            1 
  244000    1.2010284   -6.8106618    111.15177  0.037961671  0.039432392            1 
  245000    1.2149714   -6.7894198    111.97415  0.038086445  0.039436057            3 
  246000    1.2129707   -6.8056457    112.62327  0.038151515  0.039440643            1 
  247000    1.2105119   -6.8047944    112.82265  0.038064321  0.039446455            1 
  248000    1.2421839   -6.7587697    113.56996  0.038161949  0.039454486            1 
  249000     1.168821   -6.7864611    114.03376  0.038163909  0.039460464            2 
  250000    1.2321974   -6.8262498      114.114  0.038037999  0.039466226            1 
  251000    1.2364675   -6.7750039    114.96963  0.038170529  0.039471129            2 
  252000    1.2258091   -6.8144872     114.7085  0.037932705   0.03947687            1 
  253000    1.1801351   -6.7890496    115.64504  0.038091251  0.039480325            1 
  254000    1.2006019   -6.7701825    115.99183  0.038055063  0.039482194            2 
  255000    1.2084949   -6.8227824    116.45727   0.03805793  0.039483042            2 
  256000    1.2084208     -6.82114    116.14519  0.037807678  0.039480503            1 
  257000    1.2300808   -6.8188013    116.30482  0.037712327  0.039476473            2 
  258000    1.2181659   -6.7867918    117.45116  0.037936421  0.039471806            2 
  259000    1.2254851   -6.7839122    117.77426  0.037893906  0.039470605            1 
  260000    1.2164243   -6.7977875    117.95007   0.03780451  0.039467973            1 
  261000     1.208915   -6.8171199    118.36776  0.037793027  0.039464309            1 
  262000    1.2179083   -6.8083642    118.78126  0.037780299  0.039459835            2 
  263000    1.2252663   -6.8020666     119.3161  0.037806116    0.0394542            1 
  264000    1.1796152   -6.8220227    119.71554  0.037788995  0.039448719            2 
  265000    1.2106004   -6.8580022    119.65228  0.037626504  0.039444136            2 
  266000    1.2144104   -6.8180705    120.65742  0.037799944  0.039439138            1 
  267000    1.2253306   -6.7922986    121.35431  0.037875876  0.039434478            1 
  268000    1.1915032   -6.8054856    121.71713  0.037847366  0.039428964            4 
  269000    1.2232057   -6.8180128     121.8241  0.037739809  0.039422633            1 
  270000    1.2039624   -6.7448594     122.4145  0.037782252  0.039415482            1 
  271000    1.2033955   -6.8357594    122.65725  0.037717482  0.039407693       -1e+20 
  272000    1.2501099   -6.7932166    123.34328  0.037788996  0.039398912            3 
  273000    1.2155299   -6.7618511    123.39504  0.037666374  0.039390329            1 
  274000    1.1969884   -6.8324605    123.45914    0.0375484  0.039380025            3 
  275000    1.2120099   -6.8193869    123.97646  0.037568624  0.039370224            4 
  276000    1.2416151    -6.791393     124.5795  0.037614585  0.039360809            1 
  277000    1.2150267   -6.8340097    124.99682  0.037604338  0.039350518            2 
  278000    1.2121445   -6.7824253    125.64056  0.037662039  0.039340546            1 
  279000    1.1944892    -6.765054    126.19189  0.037691725  0.039330776            1 
  280000     1.172711   -6.8489683    125.92765  0.037478468  0.039321008            6 
  281000    1.2142263   -6.8469865    126.59369  0.037542614  0.039310489            1 
  282000    1.1998714   -6.8569254    126.73131  0.037450151  0.039299111            2 
  283000    1.1944722   -6.8177482    126.80919  0.037340751  0.039286376            2 
  284000    1.1924394   -6.8188818    128.02667   0.03756651  0.039273471            2 
  285000    1.2066068    -6.840665     127.9212  0.037403859  0.039260389            4 
  286000    1.2110717   -6.8556646    128.50268  0.037442506  0.039248341            1 
  287000    1.2378495   -6.8072188    129.29808  0.037542996  0.039236146            1 
  288000    1.2088557   -6.8101273    130.01228  0.037619295  0.039224781            2 
  289000     1.215301   -6.8122368    130.07798  0.037508067  0.039213688            1 
  290000    1.2132667   -6.8284896    129.99084  0.037353691  0.039203003            3 
  291000    1.1852886   -6.8280008    131.05519  0.037530123  0.039193643            1 
  292000    1.1757034   -6.8168193    130.94865   0.03737119  0.039181809            2 
  293000    1.2032009    -6.846332    131.16349  0.037304746    0.0391692            1 
  294000    1.2111741   -6.8090302    132.04786  0.037428531  0.039155844            5 
  295000    1.2113094   -6.8578699    131.76269  0.037221099  0.039142065            2 
  296000    1.2141561   -6.8148826    132.84528  0.037400134  0.039130397            1 
  297000    1.2035232   -6.8058053    132.99751  0.037316921  0.039118694            2 
  298000    1.2283249   -6.8128764    134.05136  0.037486399  0.039107398            3 
  299000    1.1948799   -6.8532494    134.70433  0.037543012  0.039098048            4 
  300000      1.18028   -6.7906465    135.40943  0.037613732  0.039089371            2 
  301000    1.1997326     -6.85352    135.46642  0.037504545  0.039080856            1 
  302000    1.1856056   -6.8339646    136.06357  0.037545136  0.039074029            2 
  303000    1.1763486     -6.78784     137.0552  0.037693948    0.0390671            2 
  304000    1.1824928    -6.828495     136.6557  0.037460444  0.039059334            1 
  305000    1.1797592   -6.8541134    137.46853  0.037559708  0.039049709            2 
  306000    1.1668876     -6.80274    137.98638  0.037577989  0.039040028            1 
  307000    1.2134224   -6.7978873    138.00686  0.037461146  0.039030097            1 
  308000    1.1854796   -6.8170369    138.79391  0.037552465  0.039020536            1 
  309000    1.1710918   -6.8128374    139.07657  0.037507164  0.039013052            3 
  310000    1.1905536   -6.8119924    139.62926  0.037534748  0.039005242            2 
  311000    1.1930711   -6.7998164    140.17835  0.037561187  0.038997257            7 
  312000    1.2200577   -6.7937048    140.87947  0.037628063  0.038991319            2 
  313000    1.1953461   -6.8453485    141.29928  0.037619616  0.038984047            1 
  314000    1.1982819   -6.7932038    142.18703   0.03773541  0.038978058            2 
  315000    1.1991837   -6.8587388     142.2446  0.037630846  0.038971957            2 
  316000    1.2139756   -6.8222177    142.43072  0.037560844  0.038965465            4 
  317000    1.1576514   -6.8050586     142.9761  0.037585725  0.038959756            1 
  318000    1.2111436   -6.8450578    143.58879  0.037628089  0.038953717            1 
  319000    1.2101852   -6.8254234    144.74637  0.037812531  0.038949524            5 
  320000    1.2154101   -6.7918131    145.39364  0.037862928  0.038946775            1 
  321000    1.2055081   -6.8142206    145.98634  0.037898842  0.038944233            1 
  322000    1.2080135   -6.8113915    145.78693  0.037729537  0.038942155            3 
  323000    1.1928718   -6.8713157    145.99103  0.037665385  0.038939219            3 
  324000    1.1988282   -6.8418096    146.90658  0.037784614  0.038936294            1 
  325000     1.225515    -6.836518    147.59233  0.037844187  0.038933353            4 
  326000     1.155634   -6.8266502    148.32887  0.037916377  0.038931491            2 
  327000    1.1804991   -6.8389129    148.52696  0.037850906  0.038930408            2 
  328000    1.2079536   -6.8167642    148.77736  0.037799127  0.038928762            1 
  329000    1.1926548   -6.7859204    149.74955  0.037930485    0.0389266            2 
  330000    1.2078253   -6.7713885    149.96618  0.037870248  0.038923358            3 
  331000    1.2187524   -6.8477797    150.08165  0.037784907  0.038921298            2 
  332000    1.1845887   -6.8119893    150.97474  0.037895265  0.038919548            2 
  333000    1.2258541   -6.8147778    151.52245  0.037918532  0.038917207            2 
  334000    1.2076708   -6.7898069    151.44377  0.037785371  0.038914963            1 
  335000    1.1855489    -6.843699    151.15109  0.037599773  0.038911324            2 
  336000     1.203717   -6.7922452    151.86822  0.037665729  0.038906251            3 
  337000    1.2163763   -6.8570394    151.50801  0.037464887  0.038899517            1 
  338000     1.209478   -6.8491907    152.28573  0.037545791  0.038892431            2 
  339000     1.187582   -6.8084783    152.55036  0.037500087  0.038884079            1 
  340000    1.2118418   -6.7918456    153.30922  0.037575788  0.038876216            2 
  341000    1.2014794   -6.8073689    153.86458  0.037601315  0.038869047            1 
  342000    1.1754621   -6.7989761    154.43915  0.037631372  0.038861139            1 
  343000    1.2064678   -6.8540512    153.92524  0.037396803   0.03885344            2 
  344000    1.1811917   -6.8418132    154.46195  0.037418108   0.03884446            2 
  345000    1.1869712   -6.8120491    155.39115  0.037534095  0.038835362            1 
  346000    1.1869375   -6.8831603    155.34547  0.037414613  0.038826281            2 
  347000    1.1891577    -6.836769    155.88617  0.037436641  0.038817825            1 
  348000    1.2017195   -6.8310977    156.01484  0.037359875   0.03880851            2 
  349000    1.1881426   -6.8394628    156.91923  0.037468774  0.038800384            2 
  350000    1.1814501      -6.8101    157.63188  0.037531401  0.038793276            1 
  351000    1.1577636   -6.8253805    157.79141  0.037462349  0.038786794            1 
  352000    1.1948578   -6.8418403     158.5093  0.037525875  0.038780145            2 
  353000    1.1787673   -6.8382463    159.05763  0.037549015  0.038773986            1 
  354000    1.2136401   -6.8302839    160.29941  0.037735265  0.038768697            1 
  355000    1.1973854   -6.8207784    159.93649  0.037543777  0.038762787            2 
  356000    1.1902107   -6.8137554    161.02977  0.037694233  0.038756944            1 
  357000    1.1850211   -6.8420699    160.79414  0.037533645  0.038751033            2 
  358000    1.1807632   -6.8095788    161.68051  0.037635127  0.038745665            2 
  359000    1.1791855    -6.817515    161.95329  0.037593615  0.038740831            3 
  360000    1.2148951   -6.8325257    162.24659  0.037557082  0.038734901            1 
  361000    1.1853071   -6.8152225    162.58207  0.037530487  0.038728331            4 
  362000    1.1924183   -6.8732703    162.56465  0.037422801  0.038721831            2 
  363000    1.2045166   -6.8104871     163.4708  0.037527731  0.038714328            4 
  364000    1.1870199   -6.8590932    163.37888   0.03740359  0.038706677            3 
  365000    1.1886171   -6.8303126    163.76228  0.037388649   0.03869872            2 
  366000    1.2102304   -6.8550004    163.74398  0.037282326  0.038690609            1 
  367000    1.1903937   -6.8437093    165.10257   0.03748923  0.038682941            2 
  368000     1.181626   -6.8230797    165.34142  0.037441444  0.038675969            1 
  369000    1.1868411   -6.8584104     165.5326  0.037383153  0.038669526            4 
  370000    1.2017351   -6.8158906    166.83094  0.037574536  0.038662694            2 
  371000    1.2018706   -6.8453467    166.86134  0.037480085  0.038656574            1 
  372000    1.1784017   -6.8388914    166.52704  0.037304444  0.038649696            7 
  373000    1.2280264   -6.8393507      166.821  0.037270108  0.038641755            2 
  374000    1.1840529   -6.8201597    168.30441  0.037500982  0.038634071            3 
  375000    1.2161593   -6.8311767    168.08108  0.037351351  0.038626407            2 
  376000    1.1805281   -6.8106408    168.94418  0.037443303  0.038618777            3 
  377000    1.2008278    -6.838313    169.15541  0.037390674  0.038611688            1 
  378000    1.1774684    -6.849612    170.23714  0.037530234  0.038604914            2 
  379000    1.1913819    -6.860149    170.23961  0.037431752  0.038599025            2 
  380000    1.1936532   -6.8416014    171.11635  0.037525514   0.03859338            2 
  381000    1.2080978   -6.8696429    171.46556  0.037503404  0.038588036            1 
  382000    1.1817834   -6.8186102    172.86258  0.037709987  0.038583666            2 
  383000    1.1784664   -6.8089465    173.46434  0.037742459  0.038581132            1 
  384000    1.1907821   -6.8331459    173.75785  0.037707866  0.038579166            2 
  385000    1.1870873   -6.8069535     174.2513  0.037716731  0.038577816            2 
  386000    1.2024724   -6.8490238     175.0915  0.037800411  0.038576134            2 
  387000    1.1733389   -6.8506266    175.24561   0.03773592  0.038574102            2 
  388000    1.1637458   -6.8196403    175.55973  0.037706129   0.03857177            4 
  389000    1.1796219   -6.8396218    176.87617  0.037891211  0.038570542            2 
  390000    1.1766503   -6.8400639    176.62669  0.037740745  0.038569777            2 
  391000    1.1923304   -6.8501767      178.202  0.037979967  0.038569981            3 
  392000    1.1998195   -6.8422391    177.73927  0.037784708  0.038569625            2 
  393000    1.1750404   -6.8636667    178.22443  0.037791439  0.038568923            2 
  394000    1.1554024   -6.8431969    178.59226   0.03777332  0.038568114            2 
  395000    1.1695602   -6.8516679    179.52184  0.037873805  0.038568836            2 
  396000    1.1715367   -6.8957403    179.90857  0.037859548  0.038568492            1 
  397000    1.1807294   -6.8603559    180.07279  0.037798654  0.038567516            2 
  398000    1.1942364    -6.897068    180.15191  0.037720249  0.038566402            2 
  399000    1.2033426   -6.8445565    181.06762  0.037816964  0.038564861            3 
  400000    1.1842475   -6.8255178    182.06862  0.037930963  0.038563626            2 
  401000    1.1688119    -6.878336    181.06043  0.037626855  0.038561009            3 
  402000    1.1813057   -6.8552878    182.50259  0.037832212  0.038558467            1 
  403000    1.2025136   -6.8258419     182.9729  0.037835588  0.038556408            2 
  404000    1.1853913   -6.8365126    183.20124  0.037789034  0.038555423            1 
  405000    1.2107473   -6.8853085    183.10701  0.037676338  0.038554144            3 
  406000    1.1863526   -6.8978768    183.31967   0.03762719  0.038552555            2 
  407000    1.1740758   -6.8790926    184.23665  0.037722492  0.038549813            2 
  408000    1.2104024   -6.8799524    184.30848  0.037644706  0.038546942            2 
  409000    1.1967988   -6.8214873    185.29707  0.037754089  0.038543612            4 
  410000     1.187424   -6.8679705    185.35536  0.037673854  0.038540169            2 
  411000    1.1780348   -6.8385667     184.8397  0.037477636  0.038535699            2 
  412000    1.1682652    -6.802212    186.60485  0.037743699   0.03853173            1 
  413000    1.1877149   -6.8856758    186.02784  0.037535884   0.03852766            1 
  414000    1.1953971   -6.8691183    185.95873  0.037431306  0.038522702            2 
  415000    1.1846699   -6.8403563    187.07294  0.037564848  0.038517923            1 
  416000    1.1931312   -6.8826964     187.7013   0.03760042  0.038513921            2 
  417000    1.1842914   -6.8809547    187.87887  0.037545738  0.038508463            1 
  418000    1.1935999   -6.8738736    188.52353  0.037584437  0.038502896            4 
  419000     1.196826   -6.8560102    189.13306  0.037615964  0.038498263            1 
  420000    1.1653586   -6.8461363     189.0502   0.03750996  0.038493718            2 
  421000    1.1537018   -6.8655483    189.49915  0.037509729  0.038489023            2 
  422000    1.1584474    -6.842575    189.77788  0.037475884  0.038482397            1 
  423000    1.1745819   -6.8810207    189.69003  0.037369981  0.038475925            1 
  424000    1.1706323   -6.8858022    190.04371  0.037351358  0.038469117            1 
  425000    1.1808849    -6.867915    190.75105  0.037402166  0.038463004            1 
  426000     1.181421   -6.8526798     191.3461   0.03743077  0.038457448            3 
  427000    1.1736726   -6.8855104    191.61711  0.037396001   0.03845099            2 
  428000    1.2071308   -6.8536006    192.32564   0.03744658  0.038444419            1 
  429000    1.2111408   -6.8326242    192.46481  0.037386327  0.038438015            2 
  430000    1.1971916   -6.8883222     192.9023  0.037384166  0.038431545            1 
  431000    1.1945523   -6.8769183    193.65572  0.037443101  0.038426254            2 
  432000    1.1849313   -6.8857876    194.32715  0.037485946  0.038421571            1 
  433000    1.2020609   -6.8605023    195.29583  0.037585802   0.03841716            1 
  434000    1.2174917   -6.8534844    195.70991  0.037578708   0.03841294            1 
  435000    1.1915358   -6.8468064    196.37602  0.037619927  0.038408535            3 
  436000    1.1920508   -6.8532444    196.07397  0.037475911  0.038404551            1 
  437000    1.1760651   -6.8694983    196.90022  0.037547715  0.038399961            2 
  438000    1.1880596   -6.8579536     197.2138  0.037521651   0.03839617            1 
  439000    1.1894678    -6.865359    196.99589  0.037394815  0.038391247            1 
  440000    1.1864446   -6.8304519    198.23845  0.037545161  0.038386643            2 
  441000    1.2147957   -6.8529122     197.6775  0.037354026  0.038381266            2 
  442000    1.1486084   -6.8589733      198.265  0.037380279  0.038375616            1 
  443000    1.1724527   -6.8720388    198.44163  0.037329125  0.038368961            1 
  444000    1.1855193   -6.8454065    199.23583  0.037394113  0.038362104            3 
  445000    1.1741464   -6.8980571    198.86047  0.037239789  0.038354678            2 
  446000    1.1746457   -6.8954714    199.49583  0.037275006  0.038347333            2 
  447000    1.1822715   -6.8938793    198.98994  0.037097304  0.038339302            2 
  448000    1.1533922   -6.9198988    199.28999   0.03707031  0.038330896            1 
  449000    1.1634081   -6.8854083    200.66901  0.037243692  0.038322821            1 
  450000     1.183581    -6.844836    201.03777  0.037229217  0.038314162            1 
  451000    1.2076924   -6.8522065    201.87906  0.037302118  0.038305551            3 
  452000    1.1809672   -6.8639168    201.16087  0.037087181  0.038296278            2 
  453000    1.1724619   -6.8711346     201.4675  0.037061718   0.03828685            2 
  454000    1.1879876   -6.8480576      202.464  0.037162995  0.038277869            1 
  455000    1.1933794   -6.8327461    202.99437  0.037178456  0.038268993            1 
  456000    1.1676391   -6.8497102    203.23992  0.037141798   0.03826004            1 
  457000     1.156618   -6.8621571    203.68287  0.037141297  0.038251759            2 
  458000    1.1767495   -6.8681177    203.52816  0.037032052  0.038243593            2 
  459000    1.2054752   -6.8392966    205.11157  0.037238846   0.03823534            3 
  460000    1.1566001   -6.8554869    205.40376  0.037210826  0.038227679            2 
  461000    1.1725457   -6.8402608    205.25526  0.037103265  0.038219538            2 
  462000    1.1601217   -6.8901763    205.13959   0.03700209  0.038210472            3 
  463000    1.1933406    -6.877209     205.5519  0.036996383  0.038200715            1 
  464000    1.1812644   -6.8760194     206.1123  0.037017295   0.03819034            2 
  465000    1.1636563   -6.8631424    206.29629  0.036970661  0.038180633            3 
  466000    1.1932264   -6.8880232    206.84774   0.03698994  0.038171345            2 
  467000     1.155747   -6.8919891    207.01977   0.03694143  0.038161137            3 
  468000    1.1729486   -6.8908411     206.9318   0.03684683  0.038150925            1 
  469000    1.1664012   -6.8926037    207.51993  0.036872766  0.038140685            1 
  470000    1.1603381    -6.836578    208.00969  0.036881151  0.038130179            2 
  471000     1.199579   -6.8951602    208.70669  0.036926166   0.03811937            1 
  472000    1.1667824   -6.8302324    209.00861  0.036901238  0.038108285            1 
  473000    1.1830536   -6.8382303    209.52591  0.036914361  0.038098128            1 
  474000    1.1722368   -6.8671141    209.93545  0.036908483  0.038087632            1 
  475000    1.1825461   -6.9112729    208.89644  0.036648498   0.03807661            2 
  476000     1.186562   -6.8948596    210.06829  0.036776661  0.038065471            2 
  477000    1.1763452   -6.8619388    211.14566  0.036887781  0.038054892            1 
  478000    1.1732551   -6.8787568    211.47549  0.036868112  0.038045542            2 
  479000     1.179238   -6.8764432    211.66034  0.036823302  0.038035806            1 
  480000    1.1947566   -6.8684494    212.75139  0.036936005  0.038025747            2 
  481000     1.172628   -6.8638847    212.57392  0.036828469    0.0380162            2 
  482000    1.1825274   -6.8937295    213.42998  0.036900065   0.03800689            1 
  483000    1.1597201   -6.8896647    213.44689  0.036826585   0.03799743            2 
  484000      1.15572   -6.8674389    214.03888  0.036852425  0.037987783            1 
  485000    1.1355663   -6.8816901    213.74049  0.036725171  0.037977924            1 
  486000    1.1775734   -6.9247129    214.90389   0.03684909  0.037967286            2 
  487000    1.1475801   -6.8574334    215.62781  0.036897298  0.037957409            2 
  488000    1.1833489   -6.8687089    215.18447  0.036745982  0.037947619            1 
  489000    1.1609634   -6.8631875    216.15462  0.036836166  0.037937479            1 
  490000    1.2027908   -6.8778069    216.93824  0.036894259  0.037927497            1 
  491000    1.1907063   -6.8746788    216.87879  0.036809028  0.037917038            1 
  492000    1.1588936   -6.8537557    217.51185  0.036841438  0.037907408            1 
  493000    1.1571648   -6.8871101    217.55087  0.036773305  0.037897306            1 
  494000    1.1810353   -6.8825094    217.45432  0.036682578  0.037887366            2 
  495000    1.1565108   -6.8783386     218.1024  0.036717576  0.037877364            2 
  496000    1.1852759   -6.9113643    218.64194  0.036734197  0.037867513            2 
  497000    1.1707667   -6.8660847    218.91697    0.0367064  0.037857135            1 
  498000     1.174983   -6.8475987    220.08456  0.036828072  0.037846492            1 
  499000    1.1861891   -6.8650686    219.16995  0.036601528   0.03783618            1 
  500000    1.1705187    -6.885903    220.05582  0.036675971  0.037825403            1 
  501000    1.1602554   -6.8733502    220.27675  0.036639512  0.037814398            1 
  502000    1.1687508   -6.8879081    220.81567  0.036655988  0.037803214            2 
  503000    1.1694778   -6.8612747    220.32764   0.03650226  0.037791745            1 
  504000    1.1957285   -6.8742245    221.41177  0.036609089  0.037779923            3 
  505000     1.167708   -6.8992366    221.40519  0.036535509  0.037768933            1 
  506000     1.140229   -6.8560502    222.21638    0.0365969  0.037757779            1 
  507000    1.1882434   -6.9133277    222.53219  0.036576625  0.037746975            1 
  508000    1.1848006   -6.9052452    222.58015  0.036512491  0.037735889            1 
  509000    1.1669701   -6.8987127    223.13169  0.036531056  0.037724531            4 
  510000    1.1790072   -6.8684115    223.93518  0.036590715  0.037712755            1 
  511000    1.1951834   -6.9012279    223.92467  0.036517396  0.037701428            2 
  512000    1.1750435    -6.867112    224.04396  0.036465488  0.037690501            3 
  513000    1.1574459   -6.8894272    224.43117  0.036457305  0.037679154            1 
  514000    1.1803202   -6.8966266    225.50716  0.036560824  0.037668075            1 
  515000    1.1693728   -6.8706512    225.48021   0.03648547  0.037657123            2 
  516000    1.1555669   -6.8649996    225.86733  0.036477282  0.037646202            1 
  517000    1.1691584   -6.9007751     225.5614  0.036357414  0.037635478            3 
  518000    1.1835705   -6.9202192    226.68682  0.036468279  0.037624681            2 
  519000    1.1790956    -6.927407    226.79927  0.036416068  0.037613939            3 
  520000    1.1525272   -6.9125666    227.56871  0.036469344  0.037603065            2 
  521000    1.1481856   -6.8682018    227.66729  0.036415113  0.037591983            1 
  522000    1.1892133   -6.8712949    228.70634  0.036511229  0.037581461            2 
  523000    1.1787413   -6.8786111    227.85925  0.036306445   0.03757115            3 
  524000     1.165144   -6.8834015    229.00183  0.036418865  0.037560381            1 
  525000    1.1761933   -6.8934557    229.23246  0.036386105  0.037548801            1 
  526000     1.200487   -6.8945259    228.73388   0.03623794  0.037536676            3 
  527000    1.1741055   -6.9157033    229.92165  0.036356996  0.037524691            3 
  528000    1.1678807    -6.873103    229.94715  0.036292164  0.037513067            1 
  529000    1.1423278   -6.9102446    230.63065   0.03633123  0.037501158            2 
  530000    1.1500901   -6.8822571    230.65556  0.036266597  0.037489406            1 
  531000    1.1670952   -6.8862337    231.42486   0.03631903  0.037477409            1 
  532000    1.1731751   -6.9280121    230.94263  0.036175225  0.037465192            2 
  533000    1.1774829   -6.8861446    231.52559  0.036198498  0.037452744            2 
  534000    1.1557952   -6.8525424    232.54834  0.036290315  0.037440478            2 
  535000    1.1561965   -6.8781847    232.62257  0.036234044  0.037428062            2 
  536000     1.186325   -6.8897066    233.31384  0.036273918  0.037416119            1 
  537000    1.1597845   -6.9137307    233.19382  0.036187744  0.037404219            3 
  538000    1.1403824   -6.8852584    233.77808  0.036210979  0.037392486            3 
  539000    1.1529684   -6.8614824    233.85539   0.03615575  0.037379884            1 
  540000    1.1644718   -6.8731035    234.39786   0.03617251  0.037367731            4 
  541000    1.1501743   -6.9038942    235.63892  0.036296815  0.037355412            1 
  542000    1.1367269   -6.8982874    234.78379  0.036098369  0.037343464            3 
  543000    1.1610933    -6.846907    236.31092  0.036266255  0.037331537            2 
  544000     1.147114   -6.9114427    236.49705  0.036228102  0.037319992            2 
  545000     1.150477   -6.8949205    235.53788  0.036014966  0.037307779            1 
  546000    1.1613564   -6.9085486    236.46428  0.036090397  0.037295152            2 
  547000    1.1768235   -6.8973845    236.17023   0.03597962  0.037282229            2 
  548000    1.1291681   -6.9453264    236.37862  0.035945654  0.037268683            1 
  549000     1.169645   -6.9039798    236.32619  0.035872221  0.037255716            3 
  550000    1.1597586   -6.9076361    237.80712  0.036031382  0.037242228            3 
  551000    1.1606721   -6.8920021    238.48994  0.036069259  0.037229526            2 
  552000    1.1689028   -6.9442201    238.18923  0.035958519  0.037216608            1 
  553000     1.171873     -6.89177     238.0312   0.03586968  0.037203308            1 
  554000     1.162562   -6.9305942    237.87994  0.035782181  0.037189405            2 
  555000    1.1478118   -6.9127225    238.93079  0.035875495  0.037175197            2 
  556000    1.1845384   -6.9266928    239.62872  0.035915576  0.037161568            3 
  557000    1.1877966   -6.9032881     240.0818  0.035918881  0.037148398            2 
  558000    1.1641925   -6.9241424    240.10589  0.035858108   0.03713564            1 
  559000    1.1704554   -6.8708034    241.23472  0.035962242   0.03712326            2 
  560000    1.1709508    -6.905195    241.70749  0.035968377  0.037110673            2 
  561000    1.1560898   -6.9537883    241.11865  0.035816793   0.03709796            2 
  562000    1.1728514    -6.891768    243.14564  0.036053624  0.037086209            3 
  563000     1.140825   -6.8821352    243.14427  0.035989382  0.037074318            1 
  564000     1.152571   -6.9057961     243.7675  0.036017657  0.037062425            3 
  565000    1.1651965    -6.895785    243.75014  0.035951349  0.037050575            1 
  566000    1.1591504   -6.9259808    243.25434  0.035814832  0.037038366            1 
  567000      1.20348   -6.9091527    244.50393  0.035935321  0.037026419            2 
  568000    1.1606081   -6.9725319    243.95348  0.035791297   0.03701367            1 
  569000    1.1606539   -6.8732528     245.5177  0.035957485  0.037000888            2 
  570000    1.1407074   -6.8792867    246.09949  0.035979458  0.036989018            2 
  571000    1.1469109   -6.8840469    245.03241  0.035760714  0.036976485            5 
  572000    1.1606706   -6.9100862    245.57571  0.035777346  0.036963266            2 
  573000    1.1493364    -6.931048    246.57271  0.035859906  0.036950829            2 
  574000    1.1786134   -6.8472791    247.96195  0.035999122  0.036938672            3 
  575000    1.1492723   -6.8483187    247.58545   0.03588195  0.036926751            1 
  576000    1.1737559   -6.8903463    247.24672  0.035770648  0.036914696            2 
  577000     1.151729   -6.9220997    247.97379  0.035813661  0.036902457            2 
  578000    1.1627632    -6.871617    249.19859  0.035928286  0.036890698            1 
  579000     1.178854   -6.8881396    248.56636  0.035775239  0.036879345            3 
  580000     1.151376   -6.9400109    248.80661  0.035748077  0.036867543            3 
  581000    1.1661656   -6.9381909    248.99555  0.035713647  0.036855666            1 
  582000    1.1388017   -6.8525911    250.76813   0.03590609  0.036844167            2 
  583000    1.1481876   -6.9192733    250.34253  0.035783666  0.036832748            2 
  584000    1.1440626   -6.8860389    250.92531  0.035805553  0.036820963            2 
  585000    1.1495232   -6.9410247    249.83698  0.035589313  0.036807918            2 
  586000    1.1598686   -6.9086139    250.78828  0.035663863  0.036795503            2 
  587000    1.1554082    -6.949024    251.70221  0.035732852  0.036782553            1 
  588000    1.1683796   -6.9014341    251.04771  0.035579324  0.036770055            1 
  589000    1.1529636    -6.923448    251.28199  0.035552064  0.036757434            1 
  590000    1.1501694   -6.9063713    252.39538  0.035649066   0.03674452            2 
  591000    1.1515664   -6.9263509    252.40014  0.035589417  0.036731662            4 
  592000    1.1537173   -6.9087127    253.14854  0.035634648  0.036718576            2 
  593000    1.1584487   -6.9330954    253.44265  0.035615886  0.036706167            2 
  594000    1.1541188    -6.953104    253.13352   0.03551256  0.036693252            2 
  595000    1.1642688   -6.9448341    253.28359  0.035473892  0.036679927            2 
  596000    1.1489238   -6.9210473    254.53956  0.035589984  0.036667622            1 
  597000    1.1821601   -6.9157807    254.88348  0.035578375  0.036655507            3 
  598000    1.1315004   -6.9193539    255.53341   0.03560945  0.036643835            1 
  599000    1.1502508   -6.9353202     255.7052  0.035573901  0.036631786            2 
  600000    1.1393739   -6.9428869    255.98347  0.035553259  0.036620036            1 
  601000    1.1374591   -6.9773737    256.37935  0.035548994  0.036608495           10 
  602000    1.1685426   -6.9013466    257.80838  0.035687761  0.036596739            1 
  603000    1.1571894    -6.907591    257.73227  0.035618059  0.036584979            1 
  604000    1.1375817   -6.9428773    257.17092  0.035481639  0.036573656            1 
  605000    1.1568422   -6.8851646    258.08999  0.035549585  0.036562286            1 
  606000    1.1512023     -6.92953    259.14071  0.035635412  0.036550918            2 
  607000    1.1715851   -6.9237206    258.58919  0.035500987  0.036539676            1 
  608000    1.1778413   -6.9261862    260.31119  0.035678617  0.036528611            1 
  609000    1.1191337   -6.8837239    261.01604  0.035716481  0.036517898            1 
  610000    1.1516725   -6.9089277    260.65107  0.035608069  0.036507187            5 
  611000    1.1531853   -6.9377797    260.82451  0.035573446   0.03649664            2 
  612000    1.1514034   -6.9204991    261.63042  0.035625057  0.036485495            1 
  613000     1.157707   -6.9244545    261.55512  0.035556705  0.036474201            2 
  614000    1.1887986   -6.9766361    261.32555  0.035467637  0.036463585            3 
  615000    1.1603557   -6.9022802     262.4908  0.035567859  0.036452719            1 
  616000    1.1774793   -6.9355392    261.58128  0.035387078  0.036441139            2 
  617000    1.1583518   -6.8769745    262.14708  0.035406142  0.036429563            2 
  618000    1.1570268   -6.8770807    263.29625  0.035503809  0.036417749            1 
  619000    1.1505848    -6.932044    263.32431  0.035450231  0.036405774            2 
  620000    1.1687482   -6.9427999    262.94314   0.03534182   0.03639381            2 
  621000     1.165557   -6.9406871    262.78895  0.035264218  0.036381467            1 
  622000    1.1781157   -6.9074632    263.92527  0.035359763  0.036369281            2 
  623000    1.1295353   -6.9459211    264.13049  0.035330456     0.036357            1 
  624000    1.1675339   -6.9285382    264.34983  0.035303129  0.036344528            1 
  625000    1.1523164   -6.9187173    266.16593  0.035488791  0.036332642            1 
  626000    1.1402211   -6.9172103     265.8127  0.035385077  0.036321425            1 
  627000    1.1519344   -6.8885546    266.69355  0.035445714   0.03630937            6 
  628000    1.1571152   -6.9603433    265.90735  0.035284945  0.036297732            3 
  629000    1.1469619   -6.9696551    266.02772  0.035244796  0.036285777            1 
  630000    1.1649234   -6.9166525    266.90173  0.035304462  0.036273674            2 
  631000    1.1362838   -6.8997731    267.49194  0.035326458  0.036261295            1 
  632000    1.1593534   -6.9217338    267.28046  0.035242676    0.0362495            2 
  633000    1.1800993   -6.9353198    267.91499  0.035270536  0.036237441            2 
  634000    1.1373123     -6.92937    268.32951  0.035269388  0.036225461            3 
  635000    1.1544616   -6.8991201    268.03257  0.035174878  0.036213282            3 
  636000    1.1343499   -6.9257158    268.83812  0.035225121  0.036201145            2 
  637000    1.1718934   -6.9334793    269.62459  0.035272709  0.036189381       -1e+20 
  638000    1.1280036    -6.921332    269.76271  0.035235463  0.036177923            1 
  639000    1.1696884   -6.8978988    270.22911  0.035241146  0.036166188            2 
  640000    1.1572095   -6.8962039     270.9401  0.035278659  0.036154778            1 
  641000    1.1588021   -6.9344515    270.40114  0.035153554  0.036143069            1 
  642000    1.1260828   -6.8889427    271.60772  0.035255415  0.036131106            1 
  643000    1.1454018   -6.9414302     271.6143  0.035201438  0.036119523            1 
  644000     1.146767   -6.9236224    272.93289  0.035317404  0.036107882            1 
  645000    1.1418207   -6.9356824    272.83957   0.03525059  0.036096448            1 
  646000    1.1504882   -6.9479358     272.7269  0.035181488  0.036085368            1 
  647000    1.1506426   -6.9378788    273.96933  0.035287137   0.03607418            2 
  648000     1.173938   -6.9102038    274.18024  0.035259805  0.036063579            1 
  649000    1.1227388   -6.9413175    274.36668  0.035229415  0.036052545            2 
  650000    1.1390907   -6.9077926    274.80301  0.035231156  0.036041477            1 
  651000    1.1581746   -6.9510766    274.57165  0.035147421  0.036030668            2 
  652000    1.1715691   -6.9458801    274.73626  0.035114553  0.036019358            3 
  653000    1.1706732   -6.9152255    275.99849  0.035221859  0.036008042            1 
  654000    1.1265487    -6.967747    275.00373  0.035041249  0.035996401            2 
  655000    1.1434725    -6.925679    276.01493  0.035116403  0.035984895            1 
  656000    1.1672062   -6.9470202      276.833  0.035166793  0.035974085            4 
  657000    1.1356083   -6.9497942    277.43017  0.035189012  0.035963443            1 
  658000    1.1650693   -6.9101293    278.86881  0.035317732  0.035953039            4 
  659000    1.1292276   -6.8929946    278.28007   0.03518969   0.03594287            1 
  660000    1.1616084   -6.9288143    279.02554  0.035230497  0.035932695            1 
  661000    1.1390704   -6.9117051    279.76764  0.035270756  0.035922359            1 
  662000    1.1426501   -6.9308692    279.07045  0.035129714  0.035912322            1 
  663000    1.1424283    -6.917081    280.32918   0.03523494  0.035901788            3 
  664000    1.1480572    -6.928893    281.33431  0.035308021  0.035892142            3 
  665000    1.1398335    -6.910893    280.28835  0.035123853  0.035882103            3 
  666000    1.1424176    -6.934221    280.55445  0.035104411  0.035872417            2 
  667000    1.1533928   -6.9129282    281.90958  0.035221087  0.035862727            2 
  668000    1.1385731   -6.9058664    283.22088  0.035331946  0.035853517            4 
  669000    1.1528964   -6.9185543    282.71414  0.035216012  0.035844286            1 
  670000    1.1364783   -6.8963744    283.53553  0.035265614  0.035834394            2 
  671000     1.153252   -6.9477928    282.55795  0.035091649  0.035824289            1 
  672000    1.1511279    -6.988091    282.41637  0.035021871  0.035814199            2 
  673000    1.1269016   -6.9442953    283.06344  0.035049956  0.035803633            3 
  674000    1.1499034   -6.9010306    284.67087  0.035196696  0.035793658            2 
  675000    1.1436837   -6.9164981    284.97032  0.035181521  0.035784397            1 
  676000    1.1167756   -6.9993042    284.20212  0.035034778  0.035774593            1 
  677000    1.1264477   -6.9631775     285.1178  0.035095741  0.035764838            1 
  678000    1.1633137   -6.9340195    285.29639  0.035065927  0.035755258            1 
  679000    1.1288936   -6.9562814    284.58962  0.034927543   0.03574514            2 
  680000     1.127808   -6.9326788    286.50139  0.035110465   0.03573498            2 
  681000    1.1465476   -6.9282391    286.10625  0.035010554  0.035725092            1 
  682000    1.1144711   -6.9512166    286.24505  0.034976179  0.035714612            2 
  683000    1.1604826   -6.9495466     286.6659  0.034976317  0.035704439            5 
  684000    1.1435985   -6.9419006    286.88955   0.03495243  0.035694065            2 
  685000    1.1613871   -6.9308682    286.57067  0.034862612  0.035683222            1 
  686000    1.1531197   -6.8886459    288.38705   0.03503244  0.035673084            2 
  687000    1.1656549     -6.95802    287.90337  0.034922777  0.035663055            3 
  688000     1.128127   -6.9244664    287.95368  0.034878111  0.035652788            6 
  689000    1.1336172   -6.9481969    289.20215   0.03497849  0.035642636            3 
  690000    1.1494205   -6.9260052    289.83855  0.035004656  0.035632713            1 
  691000    1.1478114   -6.9234887    290.34537   0.03501512  0.035622898            2 
  692000    1.1395579   -6.9253761    289.93397  0.034914978  0.035613119            1 
  693000    1.1679328   -6.9451746    289.92682  0.034863735  0.035603065            2 
  694000    1.1725714   -6.9195188    289.91583  0.034812179  0.035592718            2 
  695000    1.1565619   -6.9524133      290.964   0.03488777  0.035581954            1 
  696000    1.1535097   -6.9171617    290.83709  0.034822448  0.035571695            3 
  697000    1.1481343   -6.9536742     290.3827  0.034718162  0.035560824            3 
  698000    1.1484374   -6.9144208    290.43181  0.034674285  0.035549965            1 
  699000      1.13849   -6.8997629    291.90714  0.034800565  0.035539268            3 
  700000    1.1226813   -6.9738183    291.76472  0.034733895  0.035528537            2 
  701000    1.1682645   -6.8878207    293.41181  0.034880148  0.035518202            1 
  702000     1.126867   -6.9471732    293.92965  0.034891934  0.035508079            2 
  703000    1.1210677   -6.9411806    294.44344  0.034903205  0.035498147            1 
  704000    1.1531739   -6.9847757     292.8533    0.0346654  0.035488075            2 
  705000     1.137518   -6.9808908    294.20246  0.034775704  0.035477448            2 
  706000    1.1005745   -6.9512395    294.55337  0.034767867  0.035467332            2 
  707000    1.1282088   -6.9737879    294.56731  0.034720333  0.035457118            1 
  708000     1.165073    -6.942064    296.22463  0.034866365  0.035447176            1 
  709000    1.1333865    -6.946712    296.26231  0.034821616  0.035437339            3 
  710000    1.1441321   -6.9402903    296.62802  0.034815495  0.035427488            2 
  711000    1.1525675   -6.9347851    296.27872  0.034725589  0.035417821            1 
  712000    1.1454974   -6.9990893    296.54305  0.034707754  0.035408107            3 
  713000    1.1513768   -7.0122403    297.23705  0.034740188  0.035398108            2 
  714000    1.1390953   -6.9453393     297.5528  0.034728385  0.035388362            3 
  715000    1.1263045   -6.9395614     296.5443  0.034562272  0.035377925            1 
  716000    1.1473608   -6.9787827    296.84307  0.034548774  0.035366884            4 
  717000    1.1332869   -6.9550281    297.25172  0.034548085  0.035355742            1 
  718000    1.1194646   -6.9435576    296.97071  0.034467352  0.035344738            2 
  719000    1.1324066    -6.970946     297.4733  0.034477666  0.035333962            2 
  720000     1.155378   -6.9498167    298.93192  0.034598602  0.035323106            3 
  721000    1.1278088   -6.9651964    298.91233  0.034548351  0.035312713            2 
  722000    1.1587616   -6.9973016    299.26534  0.034541245  0.035302026            1 
  723000    1.1400625   -6.9463047    299.58368  0.034530162    0.0352915            2 
  724000    1.1554753   -6.9762748    300.72204  0.034613494  0.035281152            4 
  725000    1.1563584   -6.9587585    301.11676  0.034611122  0.035270782            1 
  726000    1.1135698   -6.9746972    301.44499  0.034601123  0.035260287            1 
  727000    1.1274957   -7.0004991     301.4008  0.034548463  0.035249943            5 
  728000    1.1257804   -6.9677885     301.3342  0.034493383  0.035239947            1 
  729000      1.14599   -6.9597453     302.1594  0.034540398  0.035229663            3 
  730000     1.137233    -6.953664    302.70822  0.034555733  0.035219253            1 
  731000    1.1290836   -6.9191961    303.40479  0.034587869  0.035209234            3 
  732000    1.1654903   -6.9767707    304.28624  0.034640965  0.035199079            1 
  733000    1.1218103   -6.9478521    303.34174  0.034486328  0.035188701            1 
  734000    1.1490893   -6.9697446    304.21194  0.034538141  0.035178457            2 
  735000    1.1226244   -6.9472347    304.38742  0.034511045  0.035167928            2 
  736000    1.1276436   -6.9421954    304.78958   0.03450969   0.03515743            4 
  737000    1.1455728   -6.9707617    305.44675  0.034537172  0.035147059            3 
  738000    1.1433932   -6.9726848    307.15345  0.034683091   0.03513723            2 
  739000    1.1633596   -6.9323748     306.9062  0.034608277  0.035127879            2 
  740000     1.144514   -6.9771755    307.20965  0.034595682  0.035118764            1 
  741000    1.1333267    -6.951874    306.97783  0.034522923  0.035109683            2 
  742000    1.1343639   -6.9786842     307.4303  0.034527212  0.035100525            1 
  743000    1.1233875   -6.9239657    309.59746  0.034723807  0.035091607            2 
  744000    1.1446502   -6.9255044    309.73956  0.034693051  0.035082782            1 
  745000    1.1455012   -6.9606246    308.82869  0.034544596  0.035073616            1 
  746000    1.1222966   -6.9541149    309.63944  0.034588856  0.035064882            1 
  747000    1.1215283   -6.9332099    309.88553  0.034570006   0.03505624            2 
  748000    1.1655683   -6.9510769    310.91424  0.034638396  0.035047765            3 
  749000    1.1763764   -6.9897447    311.46226  0.034653122  0.035039305            2 
  750000    1.1360719   -6.9351224    311.99586  0.034666206  0.035030868            1 
  751000    1.1334236    -6.934938     312.0725   0.03462855  0.035022419            3 
  752000    1.1269036   -6.9680277    310.66169  0.034426162  0.035013475            2 
  753000    1.1280658   -6.9638619    311.87174  0.034514358  0.035004202            2 
  754000      1.13471   -6.9812258     311.0623  0.034379122  0.034994913            1 
  755000    1.1296134   -6.9407575    312.22958  0.034462426  0.034985687            2 
  756000    1.1145259   -6.9971944    312.26803  0.034421079  0.034976245            1 
  757000    1.1138064    -6.938711    312.95713  0.034451467  0.034966594            2 
  758000    1.1466973   -6.9546959     313.2454  0.034437709  0.034957248            2 
  759000     1.132554   -7.0148478    312.80321  0.034343787  0.034947583            3 
  760000    1.1059138   -7.0048478    314.30132  0.034462864   0.03493798            2 
  761000    1.1234787   -6.9718787    314.62217  0.034452712  0.034928692            1 
  762000    1.1155387   -6.9286859    314.29496  0.034371715  0.034919274            3 
  763000    1.1556324   -6.9914401     314.6369  0.034364013  0.034910277            3 
  764000    1.1641604   -6.9906704    315.58397  0.034422336  0.034901231            1 
  765000    1.1279293   -6.9470244    316.54166  0.034481662  0.034892335            2 
  766000    1.1147117   -7.0006865    316.86182  0.034471477  0.034883744            2 
  767000    1.1070571   -6.9637287    317.25263  0.034468995  0.034875327            2 
  768000    1.1304043    -6.968645    317.03562  0.034400566  0.034866699            2 
  769000    1.1371989   -6.9047032    318.82625  0.034549876  0.034858548            4 
  770000    1.1312044   -6.9799469    318.33723  0.034452081  0.034850294            3 
  771000    1.1416276   -6.9255199    319.33377  0.034515107  0.034841486            1 
  772000    1.1329357    -6.972285    318.34157  0.034363295  0.034832838            2 
  773000    1.1254349    -7.014562    318.04333  0.034286689  0.034823866            1 
  774000    1.1206945   -6.9488963    319.71134  0.034421979  0.034814914            3 
  775000    1.1338398   -6.9702223    318.80428   0.03428003  0.034806008            2 
  776000    1.1411715   -6.9788189    319.56657  0.034317716  0.034797016            2 
  777000    1.1235184   -6.9750739    319.21483  0.034235825  0.034788011            2 
  778000    1.0772784   -6.9702317    320.76274  0.034357619  0.034779226            1 
  779000     1.112595    -7.011744    320.77304  0.034314617  0.034770364            1 
  780000     1.134126   -6.9586532    322.28751  0.034432426  0.034761576            1 
  781000    1.1150542   -7.0003315    321.35863  0.034289227  0.034753189            2 
  782000    1.1121404   -6.9570724    322.14959  0.034329667  0.034745098            2 
  783000    1.1265954   -6.9691141    323.32551  0.034410974  0.034737201            3 
  784000    1.1283501   -6.9394056    323.59759  0.034396002   0.03472942            2 
  785000    1.1552604   -6.9639748    323.91417  0.034385793  0.034721353            1 
  786000    1.1031804   -6.9524344    323.71156  0.034320564  0.034712653            1 
  787000    1.1159208   -6.9574247    324.15026  0.034323407  0.034704307            3 
  788000    1.1321523   -6.9797482    323.94974  0.034258644  0.034695619            1 
  789000    1.1553922   -6.9539076    323.94216  0.034214423  0.034686646            2 
  790000    1.1084743   -6.9956998    324.78622  0.034260149  0.034678147            4 
  791000    1.1181399   -6.9819039    324.24346  0.034159656  0.034669597            3 
  792000    1.1199919   -6.9919586    325.44735  0.034243198  0.034661019            2 
  793000    1.1357046   -6.9715535    326.37002  0.034296975  0.034652583            1 
  794000    1.1315408   -7.0008275     326.0972  0.034225147  0.034644262            2 
  795000    1.1213054   -7.0162709    327.05785  0.034282793   0.03463625            1 
  796000    1.1069727   -7.0238305    326.41765  0.034172702  0.034628073            2 
  797000    1.1047204   -6.9528578    327.85751  0.034280375  0.034620176            2 
  798000    1.1290874   -6.9918982    328.62275   0.03431733   0.03461204            1 
  799000    1.1058617   -6.9839708    328.92338  0.034305734  0.034603935            1 
  800000    1.1159135   -6.9505506    329.49752  0.034322658  0.034595926            1 
  801000    1.1071832   -6.9870436    328.45372  0.034171215  0.034587963            1 
  802000    1.1164526    -6.983372    329.15497  0.034201472  0.034579921            1 
  803000    1.1068951    -6.990225      329.509   0.03419562  0.034571854            4 
  804000    1.1279105   -6.9470122    330.49606  0.034255396  0.034563865            3 
  805000    1.1324935   -6.9586705    331.25842  0.034291762   0.03455578            3 
  806000    1.1158939   -6.9436686    329.64867  0.034082783  0.034547685            1 
  807000    1.1363126   -6.9685252    331.10233  0.034190658  0.034539473            2 
  808000    1.1365748   -6.9880299    330.84504  0.034121807  0.034531188            2 
  809000    1.1359434   -6.9738827    331.03958  0.034099668  0.034522797            2 
  810000    1.1328848   -6.9837206    332.05805  0.034162351  0.034514361            4 
  811000    1.1070574   -6.9847018    331.67107  0.034080464  0.034505873            2 
  812000    1.1194682   -6.9802978    331.99331  0.034071563  0.034497479            2 
  813000     1.113338    -6.993708    333.09215  0.034142287  0.034488761            1 
  814000    1.1172563   -6.9922897    333.54408   0.03414661  0.034480025            1 
  815000     1.135762   -6.9305618    334.17459  0.034169181  0.034471775            2 
  816000    1.1152836   -7.0499751    330.72392   0.03377491  0.034462898            1 
  817000    1.0939667   -6.9716419    333.62885  0.034029871  0.034454062            3 
  818000    1.1181459   -6.9981653    334.31114  0.034057777  0.034445573            2 
  819000    1.1170228   -6.9913936    334.71466   0.03405725  0.034436986            1 
  820000    1.1188716   -6.9773224    334.50117  0.033994021  0.034428316            2 
  821000    1.1294806   -6.9814932    334.65545  0.033968275  0.034419489            1 
  822000    1.1422451   -7.0060946    334.55838   0.03391711  0.034410757            1 
  823000    1.1467991   -7.0377229    334.91655  0.033912166  0.034401922            1 
  824000    1.1292205   -6.9966514    336.37679  0.034018688  0.034392814            1 
  825000    1.1176815     -6.96988     336.8729  0.034027565  0.034384184            1 
  826000    1.1220686   -6.9591566    337.43982  0.034043566  0.034375667            1 
  827000    1.1259028   -6.9936053    337.14101  0.033972291  0.034367404            1 
  828000    1.1061823   -7.0007613    337.64591  0.033982076  0.034358762            2 
  829000    1.1223564    -7.003865    337.31182  0.033907501  0.034350289            1 
  830000    1.1064626   -6.9912861    338.00166  0.033935909  0.034342044            1 
  831000    1.1255189   -6.9980347    338.76539   0.03397166  0.034333848            2 
  832000    1.1265478   -7.0034924    339.46126  0.034000526  0.034325624            3 
  833000    1.1161724   -7.0201932    339.45883  0.033959467  0.034317175            2 
  834000    1.0955706   -6.9721037    338.78448  0.033851367  0.034308487            2 
  835000    1.1263888   -6.9970845    340.78511   0.03401049  0.034299783            3 
  836000    1.1136275   -6.9692991     341.3533  0.034026445  0.034291106            1 
  837000    1.1542983   -6.9992439    340.10651   0.03386166  0.034282727            2 
  838000    1.1135667   -6.9787543    340.15648  0.033826221  0.034273971            2 
  839000    1.1251421   -6.9979914    340.84757  0.033854546  0.034265121            1 
  840000    1.1019897   -6.9969843    341.59195  0.033888091  0.034256172            1 
  841000    1.1017611   -6.9557034    342.35103  0.033923011  0.034247236            3 
  842000    1.0961698   -7.0400835    340.96725  0.033745769  0.034238198            1 
  843000    1.1224909   -7.0013151    341.26458  0.033735131  0.034228879            1 
  844000    1.1027404   -7.0114231    341.97394    0.0337652  0.034220176            2 
  845000     1.126622    -6.988884    343.60674  0.033886266  0.034211598            1 
  846000    1.1093807   -7.0346607    341.88357  0.033676474  0.034202829            2 
  847000    1.0944736   -6.9630195    343.45525  0.033791346  0.034194189            2 
  848000     1.112002   -6.9946567    343.27446  0.033733733  0.034185598            3 
  849000    1.1236216   -7.0382418    344.48511  0.033812829  0.034177025            1 
  850000    1.0962185   -6.9826187    345.31629  0.033854539  0.034168344            1 
  851000    1.1337221   -7.0197541    344.65379  0.033749882  0.034159321            2 
  852000    1.1119968   -7.0143933    345.85141  0.033827407  0.034150524            2 
  853000    1.1175559   -6.9929013    345.72731  0.033775626  0.034141665            1 
  854000    1.1181625   -7.0161203    345.79574  0.033742754  0.034132898            2 
  855000    1.1287528   -7.0036683    347.57233  0.033876445  0.034124151            2 
  856000    1.1275377   -6.9744118    346.77615  0.033759361  0.034115555            2 
  857000    1.0923505   -6.9928906    346.41442  0.033684794   0.03410696            1 
  858000    1.1140861   -7.0054304    347.61618  0.033762255  0.034098275            1 
  859000    1.1223823   -7.0174979    346.08214   0.03357413  0.034089294            1 
  860000    1.0984388   -7.0142678    347.14466  0.033638049  0.034080319            2 
  861000    1.1134588   -6.9806473    348.80673  0.033759846  0.034071464            1 
  862000    1.1176754   -6.9915029    349.90395  0.033826755  0.034063391            1 
  863000    1.1158953   -7.0249867    348.01798  0.033605444  0.034054827            2 
  864000    1.1077135    -6.974152      350.052  0.033762731  0.034046647            2 
  865000    1.1108916   -6.9883983    350.19152   0.03373714  0.034038579            1 
  866000    1.0964175   -6.9826087    350.89423  0.033765803  0.034030801            2 
  867000    1.1169964   -7.0006549    351.67102  0.033801521  0.034023179            1 
  868000    1.1080019   -6.9954123    352.79135  0.033870137  0.034015649            1 
  869000    1.1182179   -6.9964149    352.08817  0.033763729  0.034008097            3 
  870000    1.1396878   -6.9966749    351.97107  0.033713704  0.034000394            2 
  871000     1.138993   -6.9898139     352.9829  0.033771805  0.033992832            3 
  872000    1.1189583   -6.9722436    353.24654   0.03375827  0.033985372            1 
  873000    1.1127085   -7.0182387    353.93037  0.033784877  0.033977825            1 
  874000     1.121628   -7.0054069    355.06431  0.033854339    0.0339705            2 
  875000    1.1056702   -6.9779262    354.92632  0.033802507  0.033963255            2 
  876000    1.1056158   -6.9557412    355.32937  0.033802261  0.033956165            1 
  877000     1.110386   -7.0300009      355.616  0.033790954  0.033948972            2 
  878000    1.1082324   -6.9634005    355.93039  0.033782307  0.033942079            2 
  879000    1.1045146   -6.9681284    356.86033  0.033832038  0.033935142            1 
  880000    1.1021843   -6.9753066    357.53373  0.033857361  0.033928207            1 
  881000    1.1254487   -7.0310583    356.83169  0.033752524   0.03392121            2 
  882000    1.1055017   -6.9757401    357.40644   0.03376856  0.033914081            2 
  883000    1.1174759   -7.0152421    357.31808  0.033721978  0.033906795            1 
  884000    1.1023712   -6.9993403    357.49323  0.033700342  0.033899361            3 
  885000    1.1128941    -7.033323    357.59588  0.033671928  0.033891892            1 
  886000     1.113018   -7.0140951    358.05551  0.033677154  0.033884531            3 
  887000    1.1148594   -7.0204722    358.52859  0.033683633  0.033877133            1 
  888000     1.106509   -6.9722742    359.72463  0.033757942  0.033869904            1 
  889000    1.1269595   -7.0309428    361.02405  0.033841775  0.033863027            2 
  890000    1.0994019   -7.0055468    360.47027  0.033751897  0.033856102            2 
  891000    1.1474611   -6.9980676    360.96335  0.033760134  0.033849146            3 
  892000    1.0867643   -7.0128161    362.02893  0.033821836  0.033842429            3 
  893000    1.1107599   -7.0150009     360.8095  0.033670166  0.033835801            2 
  894000    1.1124357   -6.9704352    362.00511  0.033743951  0.033828902            1 
  895000    1.1158375   -7.0110945    360.61397   0.03357672   0.03382203            2 
  896000     1.116042   -7.0267281     360.9669   0.03357207  0.033814961            1 
  897000    1.0708588   -7.0007752    363.48956  0.033769004   0.03380819            2 
  898000    1.1146439   -7.0019649    363.49621  0.033732017  0.033801009            2 
  899000    1.0985659   -7.0503444    362.70203  0.033620878  0.033793786            3 
  900000    1.1124026   -7.0002941    363.71182   0.03367702  0.033786433            1 
  901000     1.092763   -6.9919545    362.71792  0.033547718   0.03377922            2 
  902000    1.0923888   -6.9460547    363.79294  0.033609843  0.033771977            4 
  903000    1.0920536   -7.0023513    363.74736  0.033568417  0.033764683            1 
  904000    1.0959023   -7.0277802      364.291  0.033581398  0.033757286            2 
  905000    1.1255533   -7.0553876    364.04471  0.033521613  0.033749738            2 
  906000    1.1215878   -6.9998942    365.02209  0.033574511  0.033742325            2 
  907000    1.1209291   -6.9846468    364.67238  0.033505363  0.033735017            2 
  908000    1.0981454   -7.0101222    366.26761  0.033614869   0.03372759            2 
  909000    1.1192931    -7.024707    365.06311  0.033467465  0.033720156            2 
  910000    1.1013622   -7.0032461    364.92056  0.033417634  0.033712632            2 
  911000    1.1011762   -7.0145309    365.73059  0.033455049  0.033704891            1 
  912000    1.1082332   -7.0282581    365.90921  0.033434687  0.033697182            2 
  913000    1.1040614   -6.9933991    366.78063  0.033477604  0.033689731            2 
  914000     1.122624   -7.0048019    366.81644  0.033444242  0.033682078            3 
  915000     1.116085   -7.0433286    367.51063  0.033470913  0.033674498            1 
  916000    1.1018109   -6.9964515    367.47313  0.033430962  0.033666886            1 
  917000    1.1263487   -7.0044991    367.62917  0.033408685  0.033659484            2 
  918000    1.0760148   -7.0164806    368.35041  0.033437765  0.033652047            2 
  919000    1.0972234    -7.057131    368.28976   0.03339588  0.033644222            1 
  920000    1.1127754   -7.0061794    367.94043  0.033327938   0.03363629            1 
  921000     1.077408   -7.0250807    369.22931  0.033408371  0.033628543            1 
  922000    1.1100409   -7.0119866    368.84635  0.033337522  0.033620671            1 
  923000    1.1020964   -6.9959734    370.12822  0.033417138  0.033612789            2 
  924000    1.1218594   -7.0354292    368.79948  0.033261137  0.033604862            3 
  925000    1.0961079   -7.0396774    368.90802  0.033234957  0.033596963            1 
  926000    1.1129732   -7.0369407    370.43338  0.033336337  0.033589066            3 
  927000    1.1161064   -7.0349212    369.90414  0.033252799  0.033580753            2 
  928000    1.1166064   -7.0295332    369.79048   0.03320676  0.033572931            4 
  929000    1.0944318    -7.052459    369.89493  0.033180384  0.033564758            2 
  930000    1.1279188   -7.0338887    370.87646  0.033232657  0.033556546            2 
  931000    1.0920563   -7.0224195     370.5904  0.033171357  0.033548333            2 
  932000    1.0970711   -7.0144069    371.40817  0.033208885  0.033540058            3 
  933000    1.0756128   -7.0175139    372.29658  0.033252642  0.033531945            3 
  934000    1.0959576   -7.0423317    372.45803  0.033231445  0.033523963            2 
  935000    1.0992228   -7.0847369    372.37913  0.033188871   0.03351573            2 
  936000    1.1082042   -7.0355468    372.07186  0.033126056  0.033507465            4 
  937000    1.1145101   -7.0101536    373.68095  0.033233809  0.033499322            2 
  938000    1.1073261   -7.0661732    374.73352  0.033291891  0.033491356            1 
  939000    1.1005328   -7.0326673    374.31177  0.033219007  0.033483272            3 
  940000    1.1008777   -7.0095608    374.30167  0.033182772  0.033475361            2 
  941000    1.1055267   -7.0346386    375.09218  0.033217515  0.033467582            2 
  942000    1.0997861   -7.0122334    376.49138  0.033306032  0.033459845            1 
  943000    1.1047131   -6.9779802    376.11657   0.03323759  0.033452148            2 
  944000    1.1104829   -7.0160638    376.38145  0.033225764  0.033444574            3 
  945000    1.0915236   -7.0382736    377.33486  0.033274679  0.033437136            1 
  946000    1.1229391   -7.0170247    378.02594  0.033300382  0.033429721            1 
  947000    1.1143529   -7.0082821    377.37665  0.033208082  0.033422277            2 
  948000    1.0957702   -7.0354288    377.87384  0.033216758  0.033414817            3 
  949000    1.0941284   -7.0305886    378.32926  0.033221748  0.033407404            1 
  950000    1.0849429   -7.0409359    378.91817  0.033238436  0.033400031            2 
  951000    1.1159157   -7.0183004     380.4924   0.03334143  0.033392785            2 
  952000    1.1045653   -7.0300056    380.70563  0.033325073   0.03338565            2 
  953000    1.1075569    -7.017027    380.52459  0.033274273  0.033378679            1 
  954000    1.1249024    -7.028698    380.06003  0.033198815  0.033371338            1 
  955000    1.0965917   -7.0162736    380.40338  0.033194012  0.033363845            2 
  956000    1.1038525   -7.0077458    381.39425  0.033245663  0.033356559            2 
  957000     1.118075   -7.0521675    381.00124  0.033176702  0.033349363            2 
  958000    1.0826615   -7.0256835     382.7672  0.033295685  0.033342088            3 
  959000    1.1224624   -7.0606536    381.64764   0.03316368  0.033335128            3 
  960000    1.0877108    -7.102074     381.3976  0.033107431  0.033328096            2 
  961000    1.1194164   -7.0340523    382.29647  0.033150925  0.033320841            1 
  962000    1.0851209   -7.0304105    382.42535  0.033127629  0.033313575            1 
  963000    1.0722681   -7.0482419    382.48084   0.03309803  0.033306218            3 
  964000    1.1119831   -7.0517719    383.22978  0.033128439  0.033298895            2 
  965000    1.0911276   -7.0280769    383.99357  0.033160066  0.033291677            2 
  966000    1.0856941   -7.0342375    384.50028  0.033169452  0.033284463            2 
  967000    1.1014638   -7.0518082    384.01769  0.033093561  0.033277073            3 
  968000    1.0740383   -7.0453745     385.1906  0.033160348  0.033269884            2 
  969000    1.1254937   -7.0520563    385.33337  0.033138405  0.033262612            1 
  970000    1.0910808    -7.051563    384.84154  0.033061988  0.033255006            2 
  971000    1.1022381   -7.0373148    385.20883   0.03305946  0.033247557            3 
  972000    1.1080107   -7.0033349     385.9494   0.03308894  0.033240036            2 
  973000    1.0981995   -7.0429954    386.10972  0.033068664  0.033232537            2 
  974000    1.0962056   -7.0426063    386.29238   0.03305034  0.033225258            1 
  975000     1.084884   -7.0576529    385.09283  0.032913917  0.033217466            1 
  976000    1.1052517   -7.0619906    386.38759  0.032990744  0.033209582            3 
  977000    1.1114977   -7.0363789    386.77176  0.032989744  0.033201942            2 
  978000    1.0955792    -7.033475    387.14532  0.032987842  0.033194373            1 
  979000    1.0758553   -7.0300116    387.17987  0.032957088  0.033186843            2 
  980000    1.0906088   -7.0435289    387.23967  0.032928543  0.033179109            1 
  981000    1.0882562   -7.0215139    387.39848  0.032908467  0.033171223            1 
  982000    1.1080727   -7.0573645    387.15665  0.032854434  0.033163285            2 
  983000    1.0776541   -7.0650035    388.88062   0.03296716  0.033155473            1 
  984000    1.1079536   -7.0666093    388.64658  0.032913836  0.033147581            1 
  985000    1.1008631   -7.0479247    389.43608  0.032947215  0.033139499            1 
  986000    1.0750469   -7.0321709    390.10927  0.032970696   0.03313183            3 
  987000    1.0756847   -7.0796242    390.69299  0.032986575  0.033123919            4 
  988000    1.0965178   -7.0096293    388.87324    0.0327997  0.033115944            4 
  989000    1.0826317   -7.0501691    391.20422  0.032962944  0.033108118            1 
  990000    1.0774861   -7.0439655    390.83553  0.032898613  0.033100414            2 
  991000    1.0946504   -7.0421872    390.29006  0.032819547  0.033092696            2 
  992000     1.078428   -7.0492565    390.24215  0.032782439  0.033084833            2 
  993000    1.0976312   -7.0359593    390.99567  0.032812661  0.033076518            1 
  994000    1.0752066   -7.0442034    390.97609  0.032778009  0.033068331            7 
  995000    1.1044711   -7.0250055    392.03171  0.032833477   0.03306037            7 
  996000    1.0826898   -7.0190392    392.22596  0.032816764  0.033052385            2 
  997000    1.0960432   -7.0659531    391.63713  0.032734632  0.033044327            4 
  998000    1.1121409   -7.0834118    392.61619  0.032783583  0.033036044            2 
  999000    1.0930524   -7.0616154    393.43849   0.03281936  0.033027894            3 
 1000000    1.1207522   -6.9993863    394.53582  0.032877985   0.03302008            2 
 1001000     1.095478   -7.0513986    394.23207  0.032819853  0.033012518            1 
 1002000    1.0881663   -7.0447416    394.49724  0.032809152  0.033004786            4 
 1003000    1.0853839   -7.0328434    394.41059  0.032769241  0.032996842            1 
 1004000    1.0908516   -7.0144192    394.95925  0.032782143  0.032989363            1 
 1005000     1.072388   -7.0065007    395.95327  0.032831946  0.032981918            3 
 1006000    1.0729015   -7.0059949    397.49361  0.032926906  0.032974422            3 
 1007000    1.0991239    -7.051395    395.93397  0.032765142  0.032966731            3 
 1008000    1.0804828   -7.0303426    397.58462  0.032869099  0.032959555            2 
 1009000    1.1006501   -7.0304485    395.48967  0.032663501  0.032952101            2 
 1010000    1.0952031   -7.0206845    398.63728  0.032890864  0.032944632            2 
 1011000    1.0964792   -7.0389931    399.45778  0.032925963  0.032937088            2 
 1012000    1.1033807   -7.0733161    396.53109  0.032652428  0.032929704            1 
 1013000    1.0806524    -7.045495    397.04879  0.032662783  0.032922277            2 
 1014000     1.081144   -7.0649262    399.28306   0.03281419  0.032915075            3 
 1015000     1.113362   -7.0475554    398.57442   0.03272368  0.032907835            1 
 1016000     1.102454   -7.0532437    399.30809  0.032751648    0.0329007            2 
 1017000    1.1230852    -7.075333    400.65162  0.032829533  0.032893615            1 
 1018000    1.0915085    -7.064989    399.96433  0.032741023  0.032886642            2 
 1019000    1.0769413   -7.0828623    400.06212  0.032716889  0.032879334            1 
 1020000    1.0863675   -7.0187858    401.66678  0.032815914  0.032872023            1 
 1021000    1.1130806   -7.0541133    401.38623  0.032760874  0.032864934            2 
 1022000    1.0892277   -7.0647298    401.84238  0.032766013  0.032857912            1 
 1023000    1.0921424   -7.0327524    402.89581  0.032819796  0.032850742            1 
 1024000    1.0893331   -7.0534117     404.7277  0.032936825  0.032844252            1 
 1025000     1.094856    -7.081792    403.89416  0.032836924   0.03283766            1 
 1026000    1.1101352   -7.1021375    403.55106  0.032777052  0.032831149            4 
 1027000    1.0935878   -7.0903583     403.8545  0.032769758   0.03282454            4 
 1028000    1.0817019   -7.0890874    403.04435  0.032672207   0.03281783            1 
 1029000    1.0989705   -7.0401691    406.71438  0.032937673  0.032811455            2 
 1030000    1.0743033   -7.0851783    406.36328  0.032877288  0.032805165            2 
 1031000      1.09418   -7.0668324    405.10611  0.032743785  0.032798711            2 
 1032000    1.0717271   -7.1060705    405.20696    0.0327202  0.032792026            4 
 1033000    1.1135965   -7.0520134    405.80887  0.032737082   0.03278527            2 
 1034000    1.0880522   -7.0607821    407.24188  0.032820912  0.032778843            2 
 1035000     1.062552   -7.0699681    406.55593  0.032733971  0.032772161            1 
 1036000    1.0896529   -7.0755538    407.88972  0.032809662  0.032765527            1 
 1037000    1.1267856   -7.0375066    409.19718   0.03288309  0.032759194            1 
 1038000    1.0956837   -7.0388816    407.33485  0.032701899  0.032752895            2 
 1039000    1.0821658   -7.0364896    409.48486  0.032842866  0.032746496            2 
 1040000     1.062438   -7.0393938    408.38874  0.032723457  0.032740406            3 
 1041000    1.0759594   -7.0799196     408.9992   0.03274089  0.032734111            2 
 1042000    1.0946457   -7.0484414    410.41686  0.032822846  0.032728059            1 
 1043000    1.0928116    -7.036936    410.26076  0.032778904   0.03272168            1 
 1044000    1.0973817   -7.0407596    410.91254  0.032799532    0.0327153            1 
 1045000    1.1091038   -7.0908279     410.3807  0.032725733  0.032708901            1 
 1046000    1.0885362   -7.0618808    410.11103  0.032672963  0.032702602            1 
 1047000    1.0891495   -7.0651669    410.76307  0.032693654  0.032696317            1 
 1048000    1.0865167   -7.1050517    410.70801   0.03265808  0.032689895            2 
 1049000    1.0904609   -7.0765265    410.73422  0.032629029  0.032683441            1 
 1050000    1.1163446   -7.0484218    411.49029  0.032657959  0.032677008            2 
 1051000    1.0827655   -7.0697272    411.95762  0.032663941   0.03267051            5 
 1052000    1.0711415   -7.0673935    412.60827  0.032684432  0.032664033            2 
 1053000    1.0763086   -7.0545047    412.71403  0.032661762  0.032657629            5 
 1054000    1.0888579   -7.0538086    411.83923  0.032561609  0.032651163            1 
 1055000    1.0777949   -7.0519003    413.67231  0.032675538  0.032644653            3 
 1056000    1.0902465   -7.0593478    414.39594  0.032701699  0.032638424            2 
 1057000    1.0904699   -7.0712078    413.05992   0.03256543  0.032631947            1 
 1058000    1.0738588   -7.0444135    413.63888  0.032580252  0.032625487            1 
 1059000    1.0913343   -7.0481336    414.76713  0.032638269  0.032619132            2 
 1060000    1.0655037   -7.0758205    415.90697  0.032697089  0.032612651            2 
 1061000    1.0958734   -7.0812487    415.62913   0.03264445  0.032606035            1 
 1062000    1.0731437   -7.0784305    414.95408  0.032560741  0.032599314            3 
 1063000    1.0798131   -7.0988793     414.4699  0.032492153  0.032592638            1 
 1064000    1.0777608   -7.0258784    415.69625  0.032557664  0.032586106            1 
 1065000    1.0795555   -7.0647211    416.32386  0.032576202  0.032579318            2 
 1066000     1.076054   -7.0098391    417.02485  0.032600441  0.032572606            3 
 1067000     1.080771   -7.0789239    416.09747  0.032497459  0.032565769            2 
 1068000    1.0894496   -7.1125503    416.54456  0.032501917  0.032558966            2 
 1069000    1.0603165   -7.1078964    416.77894  0.032489783   0.03255205            1 
 1070000    1.0753537   -7.0675809    417.26992  0.032497657  0.032545425            2 
 1071000    1.0954463   -7.0574472    417.56651  0.032490391  0.032538822            3 
 1072000    1.0845444   -7.0892549    417.87734  0.032484246  0.032532333            2 
 1073000    1.0911787   -7.0589356    418.72905  0.032520119  0.032525767            2 
 1074000    1.1023063   -7.0653119    418.21768  0.032450161  0.032519264            1 
 1075000    1.0772228   -7.0933601    418.13099  0.032413255  0.032512819            2 
 1076000    1.0803303   -7.0965974    418.73494  0.032429906  0.032506385            2 
 1077000    1.0755622   -7.0334784    421.93645  0.032647513   0.03249996            2 
 1078000    1.0759949   -7.0879376    421.13522  0.032555289   0.03249384            2 
 1079000     1.075856   -7.1115032    419.83625  0.032424795  0.032487287            2 
 1080000    1.0751431   -7.0977065    421.40033  0.032515458  0.032480914            4 
 1081000    1.1002937   -7.0609412    422.47229  0.032568015  0.032474551            2 
 1082000    1.0704137   -7.0916434    420.73641  0.032404221  0.032468107            4 
 1083000    1.0579395   -7.0962673    422.20839  0.032487565  0.032461597            1 
 1084000     1.068276    -7.068536    422.13073  0.032451624  0.032455052            2 
 1085000    1.0948558   -7.0564611    422.97591  0.032486629  0.032448615            3 
 1086000    1.0842923   -7.0557347    422.94184    0.0324541  0.032442313            3 
 1087000    1.0806821   -7.0487016    424.41993   0.03253756  0.032436164            2 
 1088000    1.0753325   -7.1052506    423.21609  0.032415448  0.032429694            1 
 1089000    1.0897137   -7.0544347    423.39839  0.032399632  0.032423225            3 
 1090000     1.097287   -7.0918435    423.81871  0.032402042  0.032416691            3 
 1091000     1.050044   -7.1354923    424.63553  0.032434733   0.03241017            2 
 1092000    1.0796234    -7.075189    425.10248  0.032440665  0.032403836            4 
 1093000    1.0859397   -7.0704436    426.42121  0.032511529  0.032397433            1 
 1094000     1.061779   -7.0757064    424.87513  0.032364041  0.032391156            1 
 1095000    1.0694748   -7.0909964     424.9249  0.032338272  0.032384769            3 
 1096000    1.0886493   -7.0825579     425.3953  0.032344533  0.032378245            1 
 1097000    1.0598953   -7.0763123    425.01305  0.032286011  0.032371733            3 
 1098000    1.0741898    -7.077379    425.59855  0.032301043  0.032365141            1 
 1099000    1.0807838   -7.0654657    428.66343  0.032504051  0.032358572            2 
 1100000    1.0957447   -7.1119855    427.01866  0.032349898  0.032352087            1 
 1101000    1.0731445   -7.0859065    427.56748  0.032362056  0.032345609            2 
 1102000    1.0794627   -7.0807902    427.53453  0.032330197  0.032338902            2 
 1103000    1.0658865   -7.0701376    427.82718  0.032322996  0.032332494            1 
 1104000    1.0772246   -7.0579473    429.76366   0.03243989  0.032325944            1 
 1105000    1.0708407   -7.0599816    428.38616  0.032306648  0.032319545            1 
 1106000    1.0859713   -7.0706817    429.29078  0.032345598  0.032313145            2 
 1107000    1.0728786   -7.0738294    429.21309  0.032310531   0.03230657            2 
 1108000    1.0453043   -7.0808107    430.29554  0.032362781  0.032300144            3 
 1109000     1.070744   -7.0991317    430.25109  0.032330259  0.032293762            1 
 1110000     1.061767   -7.0826931    430.93202  0.032352254  0.032287533            1 
 1111000    1.0803062   -7.0857178     430.1868  0.032267236  0.032281131            2 
 1112000    1.0552458   -7.0940034     430.3536  0.032250719  0.032274699            2 
 1113000    1.0974958   -7.1015281    430.02846  0.032197399  0.032267977            2 
 1114000    1.0655457   -7.0809844     430.9355  0.032236348  0.032261321            2 
 1115000    1.0801076   -7.0992578    429.51949  0.032101606  0.032254512            2 
 1116000    1.0696943   -7.0733098    432.64613  0.032306312  0.032247699            2 
 1117000     1.043286   -7.0711284    431.81489  0.032215375  0.032241063            1 
 1118000    1.0905988   -7.0679174    430.61622  0.032097213  0.032234209            2 
 1119000     1.082321   -7.0982608    431.87299  0.032162123  0.032227401            2 
 1120000    1.0602074   -7.0733204    432.51507   0.03218118  0.032220477            2 
 1121000    1.0941699   -7.1052411    431.58477  0.032083316  0.032213425            1 
 1122000    1.0539012    -7.055555    432.34859  0.032111452  0.032206577            1 
 1123000    1.0490797   -7.0663096    434.41616  0.032236284  0.032199642            3 
 1124000    1.0498844   -7.0836612    433.00173  0.032102738  0.032192893            2 
 1125000    1.0593738   -7.0715142    432.84214  0.032062381  0.032185861            4 
 1126000    1.0691608   -7.1087007    433.36996  0.032072969  0.032178771            1 
 1127000    1.0903717   -7.1052566     432.8434  0.032005575  0.032171641            2 
 1128000    1.0695221   -7.0904607     434.8116  0.032122607  0.032164732            3 
 1129000    1.0845668   -7.0904687    434.29231  0.032055825  0.032157709            1 
 1130000    1.0542543   -7.1093053    434.31963  0.032029471  0.032150846            4 
 1131000    1.0987738   -7.0954238    435.75773  0.032107113  0.032144005            2 
 1132000    1.0630578   -7.1091149    435.10446  0.032030658  0.032136995            2 
 1133000    1.0449905   -7.0960072     434.7351  0.031975221  0.032129787            2 
 1134000    1.0706388   -7.1087183    435.86599  0.032030128  0.032122425            2 
 1135000    1.0555422   -7.0723025    435.42688  0.031969668  0.032115429            2 
 1136000    1.0717958    -7.062592    436.04286  0.031986712  0.032108225            3 
 1137000    1.0552898   -7.0847609    436.77203  0.032012022   0.03210105            9 
 1138000     1.092581   -7.0849818    436.86092  0.031990401  0.032093917            1 
 1139000    1.0776948   -7.0766702    436.89086  0.031964505  0.032086769            5 
 1140000    1.0646063   -7.0795719    437.26552  0.031963854  0.032079628            3 
 1141000    1.0926477   -7.0932802    436.93949  0.031912029  0.032072344            3 
 1142000    1.0589804   -7.0803406    436.49688  0.031851786  0.032065071            3 
 1143000    1.0703221   -7.0687953    437.34429  0.031885702   0.03205776            3 
 1144000    1.0731714   -7.0533721    438.80699  0.031964379  0.032050668            1 
 1145000    1.0644351   -7.0988122    438.43335  0.031909269  0.032043375            3 
 1146000     1.065907   -7.0849194    438.29365  0.031871266  0.032036131            2 
 1147000    1.0871041   -7.0764409    438.35555  0.031847977   0.03202891            4 
 1148000    1.0538315   -7.1203052    438.66804  0.031842918  0.032021614            1 
 1149000    1.0943981   -7.1282767    438.55465  0.031806981  0.032014086            1 
 1150000    1.0820018   -7.0634796    441.07479  0.031961941  0.032006811            2 
 1151000    1.0876379   -7.0639313    440.36013   0.03188243  0.031999512            2 
 1152000    1.0695266   -7.0584785    441.32702  0.031924697   0.03199218            2 
 1153000    1.0630013   -7.1203719    439.34374  0.031753667  0.031984788            1 
 1154000    1.0692662   -7.0972823    441.13621   0.03185559   0.03197728            2 
 1155000     1.049415    -7.123393    440.12153    0.0317548  0.031969696            2 
 1156000    1.0591714   -7.0792555    440.76613  0.031773798  0.031962197            2 
 1157000    1.0549318   -7.1098303    441.43349  0.031794403  0.031954966            2 
 1158000     1.081711   -7.0879725    441.98376  0.031806546  0.031947898            1 
 1159000    1.0495712   -7.0985879    443.49182  0.031887534  0.031940728            1 
 1160000     1.044746   -7.0981366    443.60347  0.031868066  0.031933698            2 
 1161000    1.0948482   -7.0803213    443.78939  0.031853962  0.031926729            5 
 1162000    1.0709783   -7.1074796    445.03973  0.031916217  0.031919888            2 
 1163000    1.0633012   -7.1037989    444.22253  0.031830218  0.031913052            3 
 1164000    1.0257301   -7.0601697    443.93205  0.031782077  0.031906305            2 
 1165000    1.0407229   -7.1137664    444.72864  0.031811777  0.031899379            2 
 1166000    1.0627062   -7.1285905    445.82368  0.031862756   0.03189255            2 
 1167000    1.0642613   -7.0615024    445.48496  0.031811265    0.0318856            1 
 1168000    1.0691547   -7.1217664    444.81972  0.031736567  0.031878585            1 
 1169000    1.0836797   -7.0988023    445.70765  0.031772715  0.031871631            3 
 1170000    1.0670973   -7.1179841    445.21288  0.031710319  0.031864488            2 
 1171000    1.0638869   -7.1071861    446.06353  0.031743776  0.031857347            2 
 1172000    1.0790505   -7.1325227    445.33241  0.031664705  0.031849953            3 
 1173000    1.0666786   -7.0801769    446.57588   0.03172605  0.031842608            2 
 1174000    1.0363731   -7.1249974    446.47919  0.031692163  0.031835138            4 
 1175000     1.080326   -7.1411815    446.29888  0.031652403  0.031827684            2 
 1176000    1.0583283    -7.076723    447.32737  0.031698368  0.031820427            2 
 1177000    1.0540081   -7.0617243    447.56976  0.031688598  0.031813166            2 
 1178000    1.0810486   -7.0932732    448.01315  0.031693064   0.03180594            2 
 1179000    1.0624522   -7.1212335    448.19265   0.03167887   0.03179868            1 
 1180000    1.0336233   -7.1037955    447.81857  0.031625605  0.031791388            1 
 1181000    1.0606887   -7.0861812      448.617  0.031655165  0.031783943            2 
 1182000    1.0662857   -7.1382724    447.86696  0.031575505  0.031776583            3 
 1183000    1.0600396   -7.0934537     449.5492  0.031667315   0.03176958            2 
 1184000     1.068309    -7.124162    450.20215  0.031686525  0.031762625            3 
 1185000    1.0709912   -7.0998964    451.11295  0.031723836  0.031755736            2 
 1186000    1.0446294   -7.1422964    450.23749  0.031635574  0.031748959            1 
 1187000    1.0323419   -7.1077211    450.75609   0.03164533  0.031741992            2 
 1188000    1.0553054   -7.1135692    451.16701  0.031647517   0.03173518            3 
 1189000    1.0651171   -7.0933396    453.68072  0.031797079  0.031728564            2 
 1190000    1.0403004   -7.1096385    452.43148  0.031682877  0.031722051            1 
 1191000    1.0395344   -7.0999623     453.6641   0.03174252  0.031715508            2 
 1192000    1.0588852   -7.1153264    453.32668  0.031692301  0.031708838            3 
 1193000    1.0645791   -7.1276566    453.07949  0.031648469  0.031702206            3 
 1194000     1.055132   -7.0792668    454.45531  0.031717987  0.031695773            1 
 1195000    1.0569871   -7.0838362    454.26054  0.031677862  0.031689077            2 
 1196000    1.0512648   -7.1311224    454.52007  0.031669458  0.031682451            4 
 1197000     1.049214    -7.115923    455.67597  0.031723473  0.031675651            2 
 1198000    1.0260969   -7.1060586    455.38851  0.031676997  0.031668984            1 
 1199000    1.0456499   -7.0761468    455.48719  0.031657436  0.031662293            4 
 1200000    1.0581889   -7.1096339    455.00058  0.031597262  0.031655678            2 
 1201000    1.0676657   -7.1023862    455.81391  0.031627388  0.031649047            1 
 1202000    1.0425853   -7.1225691    455.63005  0.031588329  0.031642388            2 
 1203000    1.0436499   -7.1211646     457.4446  0.031687767  0.031635657            2 
 1204000    1.0601661    -7.122788    456.94782  0.031627064   0.03162905            3 
 1205000    1.0648934   -7.1217357    455.93843  0.031531012  0.031622427            2 
 1206000    1.0739594   -7.1305789    457.78725  0.031632618   0.03161589            3 
 1207000    1.0798493   -7.0763356    458.33362  0.031644132  0.031609289            1 
 1208000    1.0807529   -7.1302063     458.0266  0.031596758  0.031602743            4 
 1209000    1.0467452   -7.1184392    457.89769  0.031561738  0.031596107            1 
 1210000     1.044531   -7.1199691    459.09778  0.031618305  0.031589569            3 
 1211000    1.0608321   -7.1091566    460.33663  0.031677445  0.031583066            1 
 1212000    1.0549595   -7.1089828    460.67893  0.031674844  0.031576668            1 
 1213000    1.0608773   -7.1229733     460.3991  0.031629507  0.031570263            1 
 1214000    1.0493873    -7.093685    460.26625  0.031594334  0.031563798            2 
 1215000    1.0803572    -7.116578    460.31684    0.0315718  0.031557247            2 
 1216000    1.0690088   -7.1218228     460.7433  0.031575061  0.031550703            1 
 1217000    1.0409392   -7.1817477      461.186   0.03157943   0.03154408            2 
 1218000    1.0535989   -7.1311732    460.96884  0.031538645  0.031537545            2 
 1219000    1.0555739   -7.1435026    459.85181   0.03143641  0.031531059            1 
 1220000    1.0525885    -7.091893    463.83773  0.031682905  0.031524754            4 
 1221000    1.0543298   -7.1404982    463.02046  0.031601178  0.031518529            3 
 1222000    1.0519171   -7.0944059      463.266  0.031592062  0.031512192            4 
 1223000    1.0528786   -7.1615077    462.27101  0.031498434  0.031505954            1 
 1224000    1.0675601   -7.1037593    464.10256  0.031597397  0.031499686            1 
 1225000    1.0493587   -7.1678651    463.04392  0.031499587  0.031493572            2 
 1226000    1.0559378    -7.121345    465.14654  0.031616812  0.031487295            3 
 1227000    1.0708667   -7.1062471    465.17174  0.031592756   0.03148108            1 
 1228000    1.0417694   -7.1587476    464.78013  0.031540454  0.031474901            2 
 1229000    1.0636797   -7.1501965    465.56894  0.031568276  0.031468696            2 
 1230000     1.074541   -7.1321432    466.43393  0.031601215  0.031462475            3 
 1231000     1.052213   -7.1228527    465.85963  0.031536666   0.03145635            2 
 1232000    1.0349302   -7.1396725    465.80207  0.031507174  0.031450112            2 
 1233000     1.026182   -7.1178626    466.35789  0.031519187     0.031444            1 
 1234000    1.0507255   -7.1443322    467.43349  0.031566281  0.031437727            1 
 1235000    1.0389493   -7.1356375    466.06846  0.031448614  0.031431511            4 
 1236000    1.0335675   -7.1027944    467.38532  0.031511956  0.031425301            4 
 1237000    1.0422043   -7.1272554    467.25469   0.03147768  0.031419148            2 
 1238000    1.0298789   -7.1336854      468.611  0.031543551   0.03141288            2 
 1239000    1.0637119    -7.138327    466.83924  0.031398926  0.031406456            3 
 1240000    1.0360343   -7.1344084    468.00456  0.031451919  0.031400127            6 
 1241000    1.0404062    -7.097776    468.94775  0.031489911  0.031393676            1 
 1242000    1.0604337   -7.1611657    467.76731  0.031385354  0.031387038            2 
 1243000    1.0509336    -7.112088    468.27097   0.03139387  0.031380365            2 
 1244000    1.0494502   -7.0866934    469.81522  0.031472081  0.031373829            4 
 1245000    1.0522596   -7.1312748    468.53586  0.031361169  0.031367243            2 
 1246000    1.0252795   -7.1167282    466.87412  0.031224861  0.031360506            2 
 1247000    1.0513537   -7.1338544    469.96827  0.031406594  0.031353935            4 
 1248000    1.0441516   -7.1363404    470.16766  0.031394743  0.031347268            2 
 1249000    1.0467894   -7.1148021    469.23124  0.031307128  0.031340517            1 
 1250000    1.0504837   -7.1363279     468.8301   0.03125534  0.031333839            2 
 1251000    1.0408309   -7.1258666    470.44527  0.031337948  0.031327169            3 
 1252000    1.0407228   -7.1173364    470.07011  0.031287947  0.031320394            1 
 1253000    1.0551915   -7.1521644    470.80091   0.03131158  0.031313848            2 
 1254000    1.0870918   -7.1275611    472.69797  0.031412677   0.03130737            3 
 1255000    1.0432209   -7.1132695    471.70384  0.031321636  0.031301145            4 
 1256000    1.0531956   -7.1328167    472.91838  0.031377281  0.031294628            1 
 1257000    1.0533419   -7.1297686    473.02244  0.031359218  0.031288283            1 
 1258000    1.0673826   -7.1093548     473.9223  0.031393899  0.031281864            2 
 1259000    1.0574503   -7.1559949    471.77507  0.031226838  0.031275454            2 
 1260000    1.0684209   -7.1314648    473.25595  0.031299997  0.031268891            2 
 1261000    1.0667228   -7.1338064    474.08179  0.031329751  0.031262474            2 
 1262000    1.0413353   -7.1488704    473.73222  0.031281843   0.03125614            2 
 1263000    1.0409079   -7.1360741    473.28352  0.031227469  0.031249628            1 
 1264000    1.0460719   -7.1564919    474.04341  0.031252862  0.031243216            4 
 1265000    1.0507598   -7.1402018    474.35627  0.031248766  0.031236645            2 
 1266000    1.0327041   -7.1462498    474.76948  0.031251282  0.031230158            2 
 1267000      1.04067   -7.1272406    476.76817  0.031358075  0.031223716            2 
 1268000    1.0405368    -7.135681    475.52983  0.031251961  0.031217326            3 
 1269000    1.0414512   -7.1243727    477.03125  0.031325929  0.031210835            4 
 1270000     1.064262   -7.1284883     476.7733  0.031284337  0.031204456            4 
 1271000    1.0449482   -7.1108267    476.97239  0.031272777  0.031198195            3 
 1272000    1.0509057   -7.0917816    477.72059  0.031297209  0.031192061            3 
 1273000    1.0756527   -7.1653285    477.05173  0.031228838  0.031185709            2 
 1274000    1.0549998    -7.173134    476.35838  0.031158973  0.031179299            1 
 1275000    1.0432486   -7.1626265    477.62714   0.03121746  0.031172907            3 
 1276000    1.0491099   -7.0932504    478.25378   0.03123392  0.031166554            2 
 1277000    1.0449348   -7.1599623    477.55092  0.031163594  0.031160124            2 
 1278000    1.0291331   -7.1285386    478.42843  0.031196429  0.031153601            4 
 1279000     1.034694   -7.0934233    479.98642  0.031273548   0.03114722            1 
 1280000    1.0631671   -7.1502529    479.42989  0.031212884  0.031140975            1 
 1281000    1.0642221   -7.1520298      479.089  0.031166341  0.031134649            4 
 1282000    1.0402901   -7.1235065    479.63602  0.031177589  0.031128469            1 
 1283000    1.0155643    -7.133113    479.77015     0.031162  0.031122203            3 
 1284000    1.0412451    -7.179591    479.53109  0.031122215  0.031115811            4 
 1285000    1.0382029   -7.1630651    480.83526  0.031182572  0.031109424            3 
 1286000    1.0625427   -7.1438248    480.31346  0.031124511  0.031103217            2 
 1287000     1.024352   -7.1544559    479.61119  0.031054855  0.031096647            3 
 1288000    1.0486732   -7.1602754    481.79972  0.031172342  0.031090344            1 
 1289000    1.0742948   -7.1414476    482.28576  0.031179581  0.031083825            1 
 1290000     1.024519   -7.1458628    481.86608    0.0311283  0.031077367            3 
 1291000    1.0460334   -7.1332242     480.9766  0.031046773  0.031071051            1 
 1292000     1.016571   -7.1357334    482.40998  0.031115195  0.031064662            2 
 1293000     1.043011   -7.1336498    481.94521  0.031061176  0.031058367            1 
 1294000    1.0629211   -7.1451212    481.98713  0.031039872   0.03105186            1 
 1295000    1.0526629   -7.1273279    484.65647  0.031187675  0.031045562            2 
 1296000    1.0417358   -7.1517197    483.73959  0.031104655  0.031039387            1 
 1297000     1.035783    -7.170263    483.89388  0.031090586  0.031033064            1 
 1298000    1.0599333   -7.1269095    484.62535  0.031113594  0.031026821            3 
 1299000    1.0314891   -7.1456197     484.1843  0.031061348  0.031020538            4 
 1300000    1.0167563   -7.1832284     485.2901   0.03110834  0.031014265            2 
 1301000    1.0619069    -7.189181    484.72432  0.031048188  0.031007839            2 
 1302000    1.0443666   -7.1636881    485.65874  0.031084149  0.031001539            2 
 1303000    1.0483921   -7.1451853    486.30943  0.031101908  0.030995323            2 
 1304000    1.0653618   -7.1401819    486.79282  0.031108948  0.030988996            1 
 1305000    1.0563702   -7.1514647    486.69192  0.031078667  0.030982931            2 
 1306000    1.0404127   -7.1161148    487.70167    0.0311193   0.03097672            2 
 1307000    1.0518851    -7.116598    489.19814  0.031190904  0.030970769            3 
 1308000    1.0348496    -7.139681    487.64112  0.031067859   0.03096484            2 
 1309000    1.0415661   -7.1655184    489.42618  0.031157765   0.03095882            1 
 1310000    1.0395072   -7.1367731    488.90497  0.031100825  0.030952877            1 
 1311000    1.0479544   -7.1358246    487.69392  0.031000122  0.030946892            3 
 1312000    1.0295939   -7.1966611    488.44168  0.031023989  0.030940608            3 
 1313000    1.0591527   -7.1382077    488.95509  0.031032945  0.030934262            1 
 1314000    1.0329069   -7.1603513     487.9231   0.03094388  0.030927897            2 
 1315000    1.0416834    -7.165513     487.7592  0.030909962  0.030921426            2 
 1316000    1.0445002   -7.1523799    489.92447  0.031023586  0.030915046            1 
 1317000     1.040449   -7.1494197      489.369  0.030964882   0.03090869            3 
 1318000    1.0295089   -7.1797518    489.19377  0.030930309  0.030902248            2 
 1319000    1.0648392   -7.1820157    489.14083  0.030903515  0.030895754            2 
 1320000    1.0342707   -7.1857928    489.94889  0.030931117  0.030889421            2 
 1321000     1.028621   -7.1226117     491.3255  0.030994543  0.030883162            2 
 1322000    1.0327731   -7.1289894    490.17297  0.030898447   0.03087691            3 
 1323000    1.0348574   -7.1900584    490.44393   0.03089216  0.030870608            2 
 1324000    1.0311053    -7.133879    491.35535  0.030926193  0.030864274            2 
 1325000    1.0390528   -7.1952522    491.67843  0.030923172  0.030857901            2 
 1326000    1.0372704   -7.1789448    490.24499  0.030809766  0.030851369            2 
 1327000    1.0430251   -7.1727629    491.76675  0.030882112  0.030844711            1 
 1328000    1.0535448     -7.14899    490.78348  0.030797156  0.030837931            1 
 1329000    1.0235324   -7.1514878    492.09547   0.03085625  0.030831347            2 
 1330000    1.0510146    -7.185945    492.44599  0.030855012  0.030824869            2 
 1331000    1.0498451   -7.1932196    491.49914  0.030772548  0.030818187            5 
 1332000    1.0458434   -7.1565313    492.72823  0.030826341  0.030811458            4 
 1333000    1.0480622   -7.1671895    491.15035  0.030704573  0.030804772            4 
 1334000    1.0229382   -7.1703539    492.63444  0.030774266  0.030797954            1 
 1335000    1.0324623   -7.1601788    491.97871  0.030710282  0.030791091            1 
 1336000    1.0497969   -7.1498203    493.32283  0.030771134  0.030784265            2 
 1337000    1.0417194   -7.1961373    492.86131  0.030719354  0.030777506            2 
 1338000    1.0327775   -7.1531598    494.80091  0.030817197  0.030770852            2 
 1339000    1.0308249   -7.1742876    495.08994   0.03081217  0.030764235            1 
 1340000     1.056212   -7.1361413    493.35028  0.030680988  0.030757539            4 
 1341000    1.0523855   -7.1968599    493.87491  0.030690711  0.030750927            4 
 1342000    1.0105151   -7.1349011    492.80253   0.03060125  0.030744275            1 
 1343000    1.0200496   -7.1668153    494.62524  0.030691563  0.030737614            2 
 1344000    1.0310773   -7.1749836    496.59088  0.030790605  0.030730948            1 
 1345000    1.0627723   -7.1443765    496.97014  0.030791211  0.030724278            2 
 1346000    1.0208532   -7.1292152    495.91264  0.030702863  0.030717813            2 
 1347000    1.0497042    -7.151889    498.09976  0.030815378  0.030711238            1 
 1348000    1.0265129   -7.1462011    496.96123  0.030722133  0.030704675            1 
 1349000    1.0289157   -7.1658264     495.5996  0.030615246  0.030698135            2 
 1350000    1.0460781   -7.1254092    496.72877   0.03066227  0.030691556            3 
 1351000    1.0394328   -7.2139163    495.37151  0.030555854  0.030684823            2 
 1352000    1.0254224   -7.1611404    496.94885  0.030630476  0.030678049            3 
 1353000    1.0505846   -7.1343048    498.02841  0.030674329  0.030671328            3 
 1354000    1.0370993   -7.1786205    497.42573  0.030614582  0.030664658            2 
 1355000    1.0356432   -7.1464685     498.4844  0.030657097  0.030657907            3 
 1356000    1.0100347   -7.1950916    498.09083  0.030610302  0.030651174            2 
 1357000    1.0439217   -7.1352889    498.83072  0.030633181  0.030644476            1 
 1358000    1.0237515   -7.1970655    498.06479  0.030563622  0.030637712            2 
 1359000    1.0366791   -7.1452747    499.63628  0.030637495  0.030630927            2 
 1360000    1.0456117   -7.1459076    499.95657  0.030634594  0.030624235            1 
 1361000    1.0168117   -7.1827244    500.63946  0.030653898  0.030617664            3 
 1362000    1.0354053   -7.1737568    500.16541  0.030602387  0.030611215            3 
 1363000    1.0340258   -7.1873269    501.22627  0.030644795  0.030604735            2 
 1364000    1.0025173   -7.1198799    502.27324  0.030686293  0.030598158            2 
 1365000    1.0418252   -7.2011192    500.42156  0.030550767  0.030591616            2 
 1366000    1.0209663     -7.17897    501.56335  0.030598057  0.030585009            4 
 1367000    1.0279933   -7.1237679    503.10621  0.030669727  0.030578497            2 
 1368000    1.0403322   -7.1433253    502.94285  0.030637357  0.030572153            4 
 1369000    1.0325003   -7.1648893    503.35177  0.030639869  0.030565738            1 
 1370000    1.0296236   -7.1706191    502.65747  0.030575272   0.03055934            2 
 1371000    1.0250103   -7.1596494     502.5821  0.030548389  0.030552894            3 
 1372000    1.0318388    -7.155395    504.46096  0.030640243  0.030546335            1 
 1373000    1.0286775   -7.2016697     502.5673  0.030502992  0.030539885            4 
 1374000    1.0340997   -7.1668662    505.48427  0.030657707  0.030533398            1 
 1375000    0.9958518   -7.1868709    503.19931  0.030496928  0.030526957            2 
 1376000    1.0483045   -7.2076649    504.15512   0.03053265  0.030520583            2 
 1377000    1.0404971   -7.1418387    506.85312  0.030673754  0.030514258            4 
 1378000    1.0113259   -7.1783195     504.4169  0.030504166  0.030507864            2 
 1379000    1.0394198      -7.1762    505.38515  0.030540558  0.030501601            2 
 1380000     1.033923   -7.1896221    506.59967  0.030591768  0.030495233            1 
 1381000    1.0178883    -7.202404    505.75505  0.030518649  0.030488841            2 
 1382000    1.0080818   -7.2059516     507.9978  0.030631801  0.030482584            3 
 1383000    1.0272191   -7.1671862    507.59726  0.030585518  0.030476371            2 
 1384000    1.0226737   -7.1446334    506.85829  0.030518924  0.030470088            3 
 1385000    1.0175688   -7.1662472    507.38741  0.030528725  0.030463951            2 
 1386000    1.0353316   -7.1566752    508.68904  0.030584959  0.030457824            3 
 1387000    1.0598999   -7.1689053    508.51467  0.030552432  0.030451809            3 
 1388000    1.0174679    -7.175799    508.56022  0.030533154  0.030445681            2 
 1389000    1.0302373   -7.1680061     509.0974    0.0305434  0.030439663            1 
 1390000    1.0266846   -7.2041189    508.10169  0.030461732  0.030433576            5 
 1391000    1.0220405   -7.1883337    507.67377  0.030414197   0.03042716            3 
 1392000    1.0276405   -7.1736041    508.89951  0.030465727  0.030420747            1 
 1393000    1.0428635   -7.2067516    508.03964  0.030392417  0.030414338            2 
 1394000    1.0275676   -7.1913401    508.46405  0.030395986  0.030407847            2 
 1395000    1.0473225   -7.1952501    510.06111    0.0304696  0.030401276            2 
 1396000    1.0390958   -7.1927547    509.42411  0.030409749   0.03039476            3 
 1397000     1.033557   -7.1921314    509.41559  0.030387472  0.030388412            2 
 1398000    1.0090064   -7.1566989    510.87834  0.030452929  0.030381957            3 
 1399000    1.0236821   -7.1606504    508.36713  0.030281578  0.030375545            2 
 1400000    1.0424503   -7.1982021    508.71795   0.03028083  0.030369075            3 
 1401000    1.0341576   -7.1808469    511.35491  0.030416067  0.030362589            3 
 1402000    1.0358221   -7.1815077    509.11756  0.030261386  0.030356127            3 
 1403000    1.0259087   -7.1862557    511.96728   0.03040908  0.030349707            3 
 1404000    1.0450625   -7.1899468    512.26638  0.030405174  0.030343407            2 
 1405000    1.0280663   -7.2180533    512.42073  0.030392689  0.030337089            2 
 1406000    1.0055111    -7.211032    512.64682  0.030384473  0.030330634            1 
 1407000    1.0460025   -7.2096058    513.73102  0.030427092  0.030324195            2 
 1408000    1.0201342   -7.1855936    512.61774  0.030339591   0.03031775            2 
 1409000    1.0357587   -7.1969079    513.62226   0.03037747  0.030311273            1 
 1410000     1.021795   -7.2185653    511.76461  0.030246135  0.030304696            2 
 1411000    1.0109049   -7.1676644    512.78846  0.030285168    0.0302982            1 
 1412000    1.0327659   -7.1867853    514.14966  0.030344055  0.030291801            2 
 1413000    1.0135983   -7.1950451    513.81761  0.030302997   0.03028527            3 
 1414000    1.0312663   -7.1860832    514.32527  0.030311485  0.030278851            2 
 1415000    1.0386851   -7.2007717    515.70215  0.030371152   0.03027232            4 
 1416000    1.0260078   -7.1961827    513.85008  0.030240706  0.030265782            2 
 1417000    1.0112542   -7.2004597    514.93831  0.030283363  0.030259306            1 
 1418000    1.0417005   -7.2063967    514.56604  0.030240129  0.030252703            2 
 1419000    1.0219266   -7.2027982    516.01349  0.030303823   0.03024612            3 
 1420000    1.0294303   -7.2193775    514.69267  0.030204969  0.030239531            3 
 1421000    1.0139392    -7.200795    513.61458  0.030120489  0.030232994            2 
 1422000    1.0082339   -7.2048007     514.4631  0.030149033  0.030226354            3 
 1423000    1.0363442   -7.2101297    516.09167  0.030223218  0.030219791            2 
 1424000    1.0182567   -7.2022251    517.19888  0.030266789  0.030213127            2 
 1425000    1.0247606   -7.1465806    516.12949  0.030183011  0.030206691            3 
 1426000     1.015709   -7.1501735    518.22234  0.030284148  0.030200216            2 
 1427000    1.0435137   -7.2082592    515.88471  0.030126414  0.030193492            2 
 1428000    1.0424403   -7.2170991    516.55065  0.030144179  0.030186779            4 
 1429000    1.0129264   -7.1842967    516.98681  0.030148519  0.030179905            2 
 1430000    1.0220247   -7.2027765    518.26614  0.030201989    0.0301731            1 
 1431000    1.0208436   -7.2282174    515.51869  0.030020888  0.030166309            4 
 1432000    1.0445641   -7.2086041    517.62718  0.030122624  0.030159449            1 
 1433000    1.0337416   -7.1854941    516.23044  0.030020379  0.030152504            5 
 1434000    1.0134003   -7.1766837    517.79359  0.030090283  0.030145658            2 
 1435000    1.0247135   -7.2017788    517.91623  0.030076436  0.030138925            5 
 1436000    1.0347789    -7.210465    517.66164  0.030040717  0.030132024            1 
 1437000    1.0241748   -7.2250468    518.62974  0.030075954  0.030125095            1 
 1438000    1.0217605   -7.2152917     518.8617   0.03006848  0.030118327            3 
 1439000    1.0088995   -7.2051827    518.68067  0.030037102  0.030111455            4 
 1440000    1.0244162   -7.2307927    519.22764  0.030047896  0.030104736            3 
 1441000    1.0203429   -7.2242552     520.4289  0.030096513  0.030097951            1 
 1442000    1.0509919   -7.2063006    519.86149  0.030042851  0.030091029            3 
 1443000   0.99887266    -7.177857    520.36563  0.030051145  0.030084236            2 
 1444000    1.0273233   -7.2086936    520.05335  0.030012312  0.030077401            4 
 1445000    1.0105052   -7.2130678    519.81933  0.029978047  0.030070556            2 
 1446000    1.0066905   -7.1873812    521.44757  0.030051151  0.030063709            3 
 1447000    1.0307431   -7.2039009    519.94895  0.029944077  0.030056722            2 
 1448000     1.047155   -7.1830209    521.23542  0.029997434  0.030049806            3 
 1449000    1.0112208   -7.1780013     521.4834  0.029990994  0.030042855            3 
 1450000    1.0327383   -7.2190053    521.33176  0.029961595   0.03003587            3 
 1451000    1.0115711    -7.199005    521.29766  0.029938988  0.030028973            2 
 1452000    1.0023966     -7.20076    522.08712  0.029963678  0.030022091            3 
 1453000    1.0217207   -7.1826877    521.62552  0.029916582  0.030015156            3 
 1454000    1.0015537   -7.2342782    522.03515  0.029919484  0.030008114            2 
 1455000    1.0276109   -7.2324575    522.02984  0.029898616  0.030001052            2 
 1456000    1.0232805   -7.2136808    522.72295  0.029917751  0.029994127            1 
 1457000    1.0247267   -7.2010494    523.51122  0.029942303  0.029987136            3 
 1458000    1.0194963   -7.1913662    523.51424  0.029921938  0.029980211            2 
 1459000    1.0319687   -7.1997359    524.10228  0.029935017  0.029973298            2 
 1460000    1.0040418   -7.2002194    525.19243  0.029976737  0.029966507            4 
 1461000    1.0185174   -7.2324152    524.48017  0.029915593  0.029959695            2 
 1462000    1.0182785   -7.2181133    523.77547  0.029854963  0.029952812            2 
 1463000    1.0135217   -7.2013102    523.45811  0.029816479  0.029945987            2 
 1464000   0.99326984   -7.2130157     523.3363  0.029789179  0.029938972            1 
 1465000    1.0213911   -7.2095057    524.33219  0.029825494  0.029931895            1 
 1466000     1.025015   -7.2109248    524.95222  0.029840395  0.029924845            3 
 1467000    1.0374989   -7.2161119    525.85695  0.029871447  0.029917836            1 
 1468000    1.0132135   -7.1988809    525.72649  0.029843693  0.029910853            1 
 1469000    1.0014604   -7.1934702    526.33842  0.029858091  0.029903831            2 
 1470000    1.0023083   -7.2270521    524.86603   0.02975431  0.029896741            1 
 1471000   0.98379733   -7.2235135     525.1928  0.029752595  0.029889537            2 
 1472000    1.0106544    -7.183887    525.31072  0.029739058    0.0298823            2 
 1473000    1.0294321   -7.1953994    524.56416  0.029676633  0.029875035            1 
 1474000     1.011424   -7.2446078    524.00167  0.029624699  0.029867628            3 
 1475000    1.0126579   -7.2110286    526.54149  0.029748107  0.029860351            1 
 1476000    1.0095548   -7.2195673    525.34901  0.029660626   0.02985293            2 
 1477000    1.0125712   -7.1893717    527.08488  0.029738484  0.029845589            2 
 1478000    1.0250691   -7.2323738    526.56065  0.029688805  0.029838313            2 
 1479000    1.0210629   -7.2097945    527.24957  0.029707548  0.029831041            4 
 1480000   0.99949094   -7.1898007     526.5328  0.029647117  0.029823902            3 
 1481000    1.0169145   -7.2175802     526.0087  0.029597609  0.029816564            1 
 1482000    1.0174154   -7.1808178    527.43547  0.029657865  0.029809361            2 
 1483000    1.0104548   -7.1826609     528.6085  0.029703782  0.029802062            2 
 1484000    1.0183928   -7.2309835    528.45108  0.029674926  0.029794953            2 
 1485000    1.0064867   -7.1707711    528.45522  0.029655175  0.029787854            2 
 1486000    1.0291661   -7.2365711    529.52041  0.029694953  0.029780589            2 
 1487000   0.99215652   -7.2075039    531.22358  0.029770432  0.029773452            2 
 1488000     1.036664   -7.1645064    529.68286  0.029664139  0.029766189            2 
 1489000    1.0210859    -7.203456    529.50451  0.029634235  0.029759022            2 
 1490000    1.0016987   -7.2103683    529.86282  0.029634386  0.029751703            2 
 1491000    1.0380505   -7.2212311     530.1708  0.029631723  0.029744498            1 
 1492000   0.99902949   -7.2241182    530.56772  0.029634032  0.029737278            1 
 1493000    1.0141233   -7.2058275    531.33404  0.029656957   0.02973009            2 
 1494000    1.0188648   -7.2554853    529.88923  0.029556517   0.02972293            2 
 1495000    1.0148899   -7.2226443    529.45125  0.029512333  0.029715651            2 
 1496000    1.0383482   -7.2271479    531.30861  0.029596068  0.029708318            3 
 1497000    1.0050083   -7.2164918    529.98622  0.029502684  0.029701064            1 
 1498000    1.0250996   -7.2151854    531.32328   0.02955737  0.029693724            5 
 1499000    1.0118663   -7.1836435    530.75532  0.029506077  0.029686461            1 
 1500000    1.0356645   -7.2245419    531.51375  0.029528541  0.029679156            1 
 1501000    1.0241655   -7.2140004    531.02536  0.029481754  0.029671905            2 
 1502000    1.0207768   -7.2548306    531.02652   0.02946219  0.029664645            4 
 1503000    1.0054226    -7.216372    531.48901  0.029468231  0.029657275            2 
 1504000    1.0507853   -7.2284101    532.67228    0.0295142  0.029649929            2 
 1505000   0.98258063   -7.2076118    532.60456  0.029490839  0.029642655            3 
 1506000    1.0017338   -7.2036326    535.56864  0.029635272    0.0296354            3 
 1507000    1.0213241   -7.2147812     533.0315   0.02947531  0.029628172            2 
 1508000    1.0178224   -7.1916042    532.25919  0.029413085  0.029621007            3 
 1509000    1.0037723   -7.2166163    533.81946  0.029479758  0.029614003            1 
 1510000    1.0078658   -7.2019656    536.37112  0.029601055  0.029606962            4 
 1511000    1.0210589   -7.2122471    535.22081  0.029518024  0.029600058            4 
 1512000    0.9941921   -7.2042157    537.69341  0.029634778  0.029593034            2 
 1513000   0.99408072     -7.20504     536.3943  0.029543639  0.029586051            1 
 1514000     1.003328   -7.2643214    535.42901  0.029470994  0.029579036            1 
 1515000   0.97755544   -7.2347231    536.17808  0.029492743  0.029571951            2 
 1516000   0.99923986   -7.2288555    536.23046  0.029476169  0.029564967            1 
 1517000    0.9979057   -7.2336918    535.31995  0.029406721   0.02955782            3 
 1518000   0.99986167   -7.2189557    534.89088  0.029363794  0.029550667            2 
 1519000    1.0015204   -7.2200315    537.18089  0.029470095  0.029543409            2 
 1520000   0.99262493   -7.2182637    537.10583  0.029446592  0.029536323            2 
 1521000    1.0065705   -7.2296451    537.79673  0.029465085  0.029529238            5 
 1522000    1.0356054     -7.23719    536.96119  0.029399978   0.02952221            1 
 1523000    1.0140605   -7.2438484    536.49789  0.029355323  0.029515086            2 
 1524000    1.0047855   -7.2298079    537.89927  0.029412689  0.029507995            2 
 1525000   0.99566892   -7.2138799    538.54138  0.029428491  0.029500971            2 
 1526000   0.99758261   -7.1820193    539.94068   0.02948562  0.029493964            2 
 1527000    1.0097605   -7.2213174    537.37769   0.02932644  0.029486902            1 
 1528000   0.99298788   -7.2013664    539.48613  0.029422237  0.029479827            1 
 1529000   0.99371498   -7.2366725    539.04413  0.029378904  0.029472772            5 
 1530000    1.0280632   -7.2321141    537.41193  0.029270802  0.029465618            3 
 1531000    1.0031392   -7.2179685    538.79524  0.029326978  0.029458433            2 
 1532000   0.99427166   -7.2085685    540.18354  0.029383352  0.029451459            4 
 1533000     1.029154   -7.1960638    539.42211  0.029322794  0.029444383            2 
 1534000    1.0088296   -7.2461278    539.99157  0.029334614  0.029437378            2 
 1535000    1.0108092   -7.2128533    540.04077  0.029318174  0.029430406            3 
 1536000    1.0187588   -7.2347845    542.86234  0.029452167   0.02942355            2 
 1537000    1.0034684   -7.2073056    542.24847  0.029399722   0.02941667            1 
 1538000    1.0422878    -7.211085    540.75326  0.029299592  0.029409758            1 
 1539000    1.0135248   -7.2594115    540.73547   0.02927959  0.029402696            4 
 1540000   0.99554979   -7.2307892    541.57084  0.029305781  0.029395577            2 
 1541000    1.0004298   -7.2367138    542.47516  0.029335667  0.029388402            3 
 1542000   0.99145759   -7.2235706    541.56882  0.029267662  0.029381404            3 
 1543000   0.99896921   -7.2428197    540.48376  0.029190093  0.029374176            5 
 1544000    1.0144737   -7.2795064    542.04544  0.029255475  0.029366958            2 
 1545000   0.98429234   -7.2045861    543.42014  0.029310687  0.029359821            3 
 1546000   0.98474319   -7.2687949    540.84405   0.02915287  0.029352669            2 
 1547000    0.9944281   -7.2615644    542.39533  0.029217589  0.029345414            2 
 1548000     1.022994   -7.2426368    543.32533   0.02924878  0.029338217            2 
 1549000    0.9962784   -7.2390818    544.06767  0.029269834  0.029331091            1 
 1550000     1.015805   -7.2325814    543.10759  0.029199333  0.029324003            4 
 1551000    1.0063336   -7.2543184    542.61614  0.029154101   0.02931671            2 
 1552000    1.0032191   -7.2412283    542.60438  0.029134685  0.029309106            4 
 1553000    1.0182974   -7.2669562    541.69774  0.029067275  0.029301695            2 
 1554000     1.013242   -7.2373282    543.99708  0.029171873  0.029294348            1 
 1555000    0.9939289   -7.2295497    544.26995  0.029167736  0.029287049            2 
 1556000    1.0086528     -7.28153    542.59412  0.029059239  0.029279762            3 
 1557000    1.0259075    -7.253021    542.34109  0.029027033  0.029272389            1 
 1558000   0.99861487   -7.1932318    545.07293  0.029154521  0.029264997            4 
 1559000    1.0230348   -7.2266422    545.62223  0.029165183  0.029257644            3 
 1560000    1.0243797   -7.1980908    545.24036  0.029126088  0.029250254            1 
 1561000   0.99925893   -7.2522162    544.79991  0.029083916   0.02924291            2 
 1562000   0.98795767   -7.2368494    544.95447  0.029073542  0.029235498            1 
 1563000    1.0197672   -7.2213819    544.75398  0.029044251  0.029228251            1 
 1564000   0.98526429   -7.2563544    546.10469   0.02909765   0.02922101            8 
 1565000    1.0051529   -7.2618667    545.80868  0.029063295  0.029213743            2 
 1566000    1.0011722   -7.2720153    545.50166  0.029028398  0.029206383            3 
 1567000    1.0163523   -7.2312499    547.10256  0.029095009  0.029198945            3 
 1568000    1.0046665   -7.2743525    544.94931  0.028962017  0.029191451            1 
 1569000   0.98510188   -7.2524889    545.84313  0.028991031   0.02918394            4 
 1570000   0.99607939    -7.250609     545.9501  0.028978243  0.029176523            2 
 1571000    1.0101875   -7.2758595    546.33805  0.028980376  0.029169161            4 
 1572000    1.0185826   -7.2621597    546.32094  0.028961034  0.029161946            2 
 1573000   0.99530387   -7.2195837    546.90284   0.02897345  0.029154712            1 
 1574000     1.004848   -7.2853983    547.53012  0.028988253  0.029147389            1 
 1575000     1.010528   -7.2146266    548.45831  0.029018958  0.029140123            2 
 1576000    1.0028039   -7.2249015    548.64049  0.029010178  0.029132964            3 
 1577000    1.0094674   -7.2646504    547.96753  0.028956221  0.029125631            3 
 1578000    1.0039853    -7.255395    547.57352  0.028917064  0.029118198            1 
 1579000   0.96890227   -7.2355416    549.57671  0.029004471  0.029110813            3 
 1580000   0.98888753   -7.2043689    547.80481  0.028892659   0.02910343            2 
 1581000    1.0025701   -7.2081859    549.76183  0.028977537   0.02909598            3 
 1582000   0.99451942   -7.2244661    548.33161  0.028883882  0.029088571            1 
 1583000    1.0246724   -7.2322125    547.22354  0.028807304  0.029081103            2 
 1584000    1.0123018    -7.222545    549.21558  0.028893917  0.029073634            2 
 1585000    1.0072626   -7.2213804     548.4422  0.028835026  0.029066132            2 
 1586000   0.98713859   -7.2545879    549.71204  0.028883567  0.029058569            2 
 1587000    1.0073251   -7.2414091    548.99754  0.028827848  0.029051055            2 
 1588000    1.0116045   -7.2313609    551.19081  0.028924791  0.029043551            2 
 1589000    1.0147133   -7.2239017    549.54942  0.028820506  0.029036013            3 
 1590000   0.99879585   -7.2239575    550.10584  0.028831543  0.029028419            1 
 1591000   0.99782092   -7.2865069    547.87823  0.028696744  0.029020798            3 
 1592000   0.97695528   -7.2239802    550.32327  0.028806704  0.029013216            3 
 1593000    1.0078385   -7.2402812    551.75367  0.028863448  0.029005628            2 
 1594000   0.99007252   -7.2751483    549.33516  0.028718902  0.028997922            1 
 1595000   0.99295695   -7.2920799    548.61516  0.028663279   0.02899005            2 
 1596000    1.0206243   -7.2972337    549.70966  0.028702468  0.028982312            2 
 1597000    1.0155448   -7.2139751    551.28567  0.028766733  0.028974607            4 
 1598000   0.98159674   -7.2884097    550.70225  0.028718307  0.028966907            2 
 1599000    1.0064961    -7.281151    550.38852  0.028683996  0.028959143            1 
 1600000   0.99964809   -7.2561021    550.13576  0.028652904   0.02895139            2 
 1601000   0.99886931    -7.317074    549.31125  0.028592091  0.028943634            3 
 1602000    1.0156524   -7.2740357    551.38106  0.028681911  0.028935769            2 
 1603000    1.0076683   -7.2886605    550.55909  0.028621288  0.028927998            2 
 1604000    1.0105889   -7.2441587    552.25125  0.028691358  0.028920286            2 
 1605000   0.99012473   -7.2437321    553.93752  0.028761034  0.028912727            2 
 1606000   0.99292399   -7.2501034    551.95144   0.02864007  0.028905134            2 
 1607000   0.97812811   -7.2420515    552.59245  0.028655489  0.028897527            2 
 1608000   0.98504486   -7.2408373    554.36169  0.028729358  0.028889926            2 
 1609000    1.0034653   -7.2568644    554.27984  0.028707263  0.028882259            2 
 1610000   0.99487821    -7.235269    553.68249  0.028658514  0.028874676            2 
 1611000    1.0132687   -7.2672603    552.69844  0.028589822  0.028867052            1 
 1612000   0.99767603   -7.2809017     553.1053   0.02859312  0.028859271            2 
 1613000   0.99732948   -7.2340571    553.72649  0.028607485   0.02885152            3 
 1614000    0.9803035   -7.2220695     553.2097  0.028563078  0.028843688            1 
 1615000    1.0042247   -7.2854041    552.10565  0.028488424  0.028835745            3 
 1616000   0.99865585    -7.237438    554.32089   0.02858503  0.028827872            4 
 1617000    0.9773948   -7.2654458    552.00249  0.028447871  0.028819927            2 
 1618000   0.98013225   -7.2338542    554.79403  0.028574064  0.028811853            2 
 1619000   0.99270801    -7.271442     553.4014  0.028484734  0.028803798            1 
 1620000   0.99902731   -7.2425755    553.92652  0.028494163  0.028795797            2 
 1621000   0.98040716   -7.2592748    553.92625  0.028476571  0.028787761            2 
 1622000    1.0101581   -7.2698155    554.17817  0.028471957  0.028779818            3 
 1623000   0.97871278   -7.2612618    553.96181  0.028443305  0.028771828            5 
 1624000   0.97969608   -7.2508667    555.67631  0.028513768  0.028763839            4 
 1625000    1.0147627   -7.2475039    554.42009  0.028431799  0.028755803            3 
 1626000   0.99601448   -7.2213267    555.44817  0.028467003   0.02874772            2 
 1627000   0.98684493    -7.249988    555.11605  0.028432496  0.028739703            3 
 1628000   0.98747891   -7.2870322    554.63601  0.028390459  0.028731659            1 
 1629000   0.98860992   -7.2608633    555.77855  0.028431479  0.028723665            2 
 1630000   0.97934614   -7.2626662    556.68006  0.028460126   0.02871558            4 
 1631000    1.0110882   -7.2750535     553.9274  0.028302033  0.028707566            1 
 1632000    1.0006395   -7.2904744    555.17381  0.028348336  0.028699592            2 
 1633000   0.96800251   -7.2546883    555.61868  0.028353678  0.028691546            2 
 1634000   0.98262344   -7.2588425    556.19258  0.028365595   0.02868357            1 
 1635000   0.98192171    -7.294918    556.85561  0.028382039  0.028675553            2 
 1636000    1.0025909   -7.2473029    557.39725   0.02839228  0.028667541            5 
 1637000   0.98525687   -7.2802337    557.87506   0.02839926  0.028659604            1 
 1638000   0.99714401   -7.2847307    557.72851  0.028374466  0.028651612            2 
 1639000    0.9923297   -7.2853278    555.83983  0.028261126  0.028643597            2 
 1640000    1.0014322   -7.2777772    557.74542  0.028340723  0.028635568            3 
 1641000   0.99186884    -7.280399    557.28738  0.028300192  0.028627631            2 
 1642000   0.99279685   -7.2810904    557.07302  0.028272078  0.028619553            1 
 1643000    0.9874896   -7.3061893    558.30153   0.02831718  0.028611571            2 
 1644000   0.98239717   -7.2584388    557.16986  0.028242592  0.028603572            3 
 1645000   0.97379816    -7.267882    558.73703  0.028304814  0.028595677            2 
 1646000   0.95887308    -7.289121    559.48771  0.028325623  0.028587786            1 
 1647000   0.99883757   -7.2837915    558.74616  0.028270905  0.028579917            4 
 1648000   0.99841879   -7.2643346    559.18337  0.028275858  0.028572015            3 
 1649000   0.97753366   -7.2462014    560.54954  0.028327751  0.028564147            2 
 1650000   0.98996711   -7.3181619     557.4847  0.028155793  0.028556297            5 
 1651000   0.99081678   -7.2863302    560.38562  0.028285161  0.028548514            2 
 1652000   0.98110897   -7.2350297    561.98957  0.028348949  0.028540829            4 
 1653000    1.0059128   -7.2434935    561.48919  0.028306573  0.028533134            3 
 1654000   0.99939824   -7.2461867    561.77318  0.028303768  0.028525419            2 
 1655000   0.97862546   -7.2445707    560.62878  0.028229042  0.028517754            3 
 1656000   0.97996475   -7.2761564    562.43987  0.028303133  0.028510041            2 
 1657000   0.98324135   -7.2372523     562.3484  0.028281452  0.028502466            1 
 1658000   0.98634609   -7.2942622    562.04547  0.028249169  0.028494844            2 
 1659000    0.9942901   -7.2750837    561.26034  0.028192704   0.02848711            2 
 1660000    0.9818781   -7.2770873    562.57062  0.028241497  0.028479453            2 
 1661000     1.004957   -7.2792788    562.09646  0.028200705  0.028471743            3 
 1662000   0.98853645   -7.2725656    562.47456  0.028202696  0.028463877            1 
 1663000   0.99097769   -7.2328043    564.71775  0.028298144  0.028456149            2 
 1664000   0.97680695   -7.2650266    562.97547  0.028193884  0.028448432            4 
 1665000   0.97827286   -7.2912492    564.56383  0.028256448  0.028440641            3 
 1666000   0.99691125   -7.2937407    564.54106  0.028238349  0.028432894            1 
 1667000   0.97839861   -7.2902407     562.7705  0.028132899  0.028425069            3 
 1668000   0.99888157   -7.2753134     563.0475  0.028129871  0.028417298            2 
 1669000   0.98246907   -7.2835974    564.90664  0.028205844  0.028409645            2 
 1670000    1.0125588   -7.3074609    563.92238  0.028139839  0.028401954            2 
 1671000   0.98537313   -7.2976673     565.1073  0.028182092  0.028394341            2 
 1672000   0.97845279   -7.2363791    565.04432  0.028162097   0.02838668            1 
 1673000      1.00376   -7.2812656    566.62633  0.028224065  0.028379162            5 
 1674000   0.97714805   -7.2902637    565.85186  0.028168651  0.028371599            2 
 1675000   0.99895294   -7.2685252    565.81771  0.028150135  0.028364079            4 
 1676000   0.99495341   -7.2805718    567.03453  0.028193841  0.028356506            1 
 1677000   0.97751817   -7.2575905    567.22293  0.028186391  0.028348984            2 
 1678000   0.99394991   -7.2901553    569.19348  0.028267455  0.028341588            5 
 1679000   0.96703563   -7.2774489    567.37481  0.028160354  0.028334155            2 
 1680000     0.993652   -7.2761513    568.49348  0.028199082  0.028326715            2 
 1681000   0.98126437   -7.2738462     569.6725  0.028240754  0.028319314            2 
 1682000   0.99048623   -7.3252806     566.8746  0.028085345  0.028311794            1 
 1683000    1.0084067   -7.2578419    569.67667  0.028207401  0.028304272            3 
 1684000   0.96168458   -7.3061834    567.91775   0.02810361  0.028296792            4 
 1685000   0.98841673   -7.3022616    566.92024  0.028037598  0.028289307            2 
 1686000    0.9645667   -7.2927777    568.34862  0.028091569   0.02828185            2 
 1687000   0.96714728   -7.3187109      568.729  0.028093707  0.028274335            2 
 1688000   0.97902694   -7.2812197    569.84317  0.028132068  0.028266682            5 
 1689000   0.96504992     -7.26396    568.78415  0.028063161  0.028259108            2 
 1690000    1.0089422   -7.2948398    569.16538  0.028065354  0.028251554            2 
 1691000   0.98383428   -7.2572413    568.68061  0.028024867  0.028243955            2 
 1692000   0.99220281   -7.2621967    569.94794  0.028070722  0.028236415            1 
 1693000   0.99429464   -7.2942978    570.56904  0.028084714   0.02822879            1 
 1694000   0.97995712   -7.2843365    568.94263  0.027988126  0.028221272            2 
 1695000   0.96901777   -7.2867074    569.66305  0.028007033  0.028213757            3 
 1696000   0.97920392   -7.2876975     570.5163  0.028032444  0.028206205            2 
 1697000    0.9758229   -7.2945534    570.31889  0.028006231  0.028198569            1 
 1698000   0.98324262   -7.2522283    571.27382  0.028036603   0.02819104            2 
 1699000   0.96874672    -7.278547    570.74634  0.027994229  0.028183497            5 
 1700000   0.99540789   -7.2692548    573.48887    0.0281122  0.028176037            2 
 1701000   0.99456296   -7.2904896    569.14744  0.027882982  0.028168388            2 
 1702000   0.98140947   -7.2567115    570.34543  0.027925256  0.028160726            1 
 1703000   0.98205924   -7.2800752    570.51929  0.027917366  0.028153094            2 
 1704000   0.97886764   -7.2697833    570.54601  0.027902289  0.028145529            3 
 1705000   0.96982257   -7.3208899    569.71655  0.027845384  0.028137864            4 
 1706000   0.97836441   -7.2763678       571.61  0.027921551  0.028130092            2 
 1707000    0.9681707   -7.3169247    570.74133  0.027862787   0.02812238            1 
 1708000   0.96478636   -7.3012142    572.62203  0.027938233  0.028114618            2 
 1709000   0.96003957   -7.2967316    571.42933  0.027863728  0.028106866            3 
 1710000   0.98448492   -7.3048449    570.90764   0.02782201  0.028099055            2 
 1711000   0.96476671   -7.2970391    572.04696  0.027861239  0.028091336            1 
 1712000   0.96608379   -7.3200566    571.35814  0.027811436  0.028083614            3 
 1713000   0.99348577   -7.3005685    574.05679  0.027926483  0.028075839            1 
 1714000   0.97750359   -7.2906481    572.20435  0.027820126  0.028068201            2 
 1715000   0.96531663    -7.309697    572.18586  0.027803006  0.028060478            3 
 1716000    0.9599487   -7.2977289     571.8436  0.027770182  0.028052707            3 
 1717000   0.98621212    -7.273833    572.34683  0.027778433  0.028044927            2 
 1718000   0.99741398   -7.3001795    571.14267  0.027703855  0.028037132            1 
 1719000   0.97970568   -7.2841357    572.61359  0.027759046  0.028029229            1 
 1720000   0.98229369   -7.2773233    572.70642  0.027747404  0.028021282            2 
 1721000    0.9794386    -7.301144    571.94963  0.027694636  0.028013335            1 
 1722000   0.98102168   -7.3069034    572.38923  0.027699827  0.028005394            3 
 1723000   0.95548609   -7.2622447    573.87495  0.027755608  0.027997428            4 
 1724000   0.96986066   -7.3018483    574.74901  0.027781758  0.027989615            2 
 1725000   0.97685504   -7.2922986    575.04992  0.027780189  0.027981764            3 
 1726000   0.98529843   -7.3412656    574.49315  0.027737213  0.027973889            2 
 1727000   0.97783685   -7.2871685    576.44964  0.027815559  0.027966042            3 
 1728000    1.0065513   -7.2669385    573.97259  0.027680005   0.02795837            3 
 1729000   0.98003402   -7.3168983    573.49007   0.02764074  0.027950508            2 
 1730000   0.98347842   -7.2880007     573.9359  0.027646238  0.027942639            3 
 1731000   0.97415328    -7.312439    573.66823  0.027617381  0.027934736            1 
 1732000   0.97175084   -7.3438036     573.0295  0.027570703  0.027926754            3 
 1733000   0.95925852   -7.2701623    575.94588  0.027695032  0.027918853            2 
 1734000    1.0003852   -7.2629072    576.36233  0.027699074  0.027910973            2 
 1735000   0.96098425   -7.3249483    574.93255  0.027614436  0.027903038            3 
 1736000   0.98136094   -7.2938551    576.68438  0.027682622  0.027895257            4 
 1737000   0.96287772   -7.2794553    576.51599  0.027658606  0.027887473            5 
 1738000   0.96994913   -7.2966154    574.56249  0.027549026  0.027879699            2 
 1739000   0.96593516   -7.2914639    577.03831  0.027651826  0.027871812            2 
 1740000     0.981736   -7.3243904    576.86723  0.027627741  0.027863987            1 
 1741000   0.96940493   -7.3045316    575.67189  0.027554657  0.027856139            1 
 1742000   0.97141958   -7.3165908    576.00353  0.027554704  0.027848294            2 
 1743000   0.97502909   -7.3118327    577.36551  0.027604012  0.027840402            2 
 1744000   0.96649307   -7.2986091    576.68416  0.027555627  0.027832512            2 
 1745000   0.99393527   -7.2717832    577.95672  0.027600608  0.027824608            4 
 1746000    0.9858708   -7.2563017    578.68544   0.02761958  0.027816711            1 
 1747000   0.97085426   -7.3250899    575.42981  0.027448474  0.027808707            5 
 1748000   0.96372136   -7.3078751    577.75853   0.02754379  0.027800634            2 
 1749000   0.96864109   -7.2963315    578.10986  0.027544781  0.027792779            1 
 1750000   0.97615532   -7.3164444    574.39727  0.027352251  0.027784831            2 
 1751000   0.98330105   -7.2992013    579.03274   0.02755724  0.027776866            2 
 1752000   0.97890339   -7.3174645    575.22693  0.027360489   0.02776893            4 
 1753000   0.96211174    -7.309457    576.92711  0.027425704  0.027760933            2 
 1754000   0.96701695   -7.3173931    578.83161  0.027500551  0.027752979            1 
 1755000   0.96053092   -7.2904497    577.17411  0.027406178  0.027745022            3 
 1756000    0.9893227   -7.2745364    580.66494  0.027556233  0.027737176            3 
 1757000   0.96886249   -7.2851692    578.96101  0.027459733  0.027729307            1 
 1758000   0.97136564   -7.2878395    580.68982  0.027526063  0.027721468            1 
 1759000   0.97636365   -7.3151813    577.78193  0.027372652  0.027713528            1 
 1760000   0.94053781    -7.311128    578.81182  0.027405863  0.027705593            2 
 1761000   0.97676486   -7.3063249    579.10183  0.027404024  0.027697637            2 
 1762000    0.9652847   -7.3338804    578.82474  0.027375366  0.027689619            2 
 1763000   0.97453318   -7.3101491    579.17385   0.02737634  0.027681695            3 
 1764000   0.94151111   -7.2728896    580.64779  0.027430451  0.027673742            2 
 1765000   0.94706486   -7.3089965    578.21445  0.027300021  0.027665764            3 
 1766000   0.95631872   -7.2968098    581.66911   0.02744758  0.027657799            1 
 1767000   0.97978729    -7.326697    580.33887  0.027369311  0.027649876            2 
 1768000   0.96944358   -7.3140031    580.87387  0.027379047  0.027641998            2 
 1769000   0.96212434   -7.3157889    580.24676  0.027334029  0.027634162            4 
 1770000   0.96647426   -7.3253436    582.09572  0.027405637  0.027626203            2 
 1771000   0.97798583   -7.3140353    581.11885  0.027344196  0.027618324            2 
 1772000   0.96845487   -7.3575611    580.89861  0.027318407  0.027610534            5 
 1773000    0.9967638   -7.3442085     582.5093  0.027378704  0.027602664            3 
 1774000   0.97598653   -7.3288408     579.8662  0.027239111  0.027594761            1 
 1775000   0.96628174   -7.2890022    583.02705  0.027372162  0.027586901            3 
 1776000   0.98018208   -7.3410744    581.50588  0.027285373  0.027579063            2 
 1777000   0.97217184   -7.3221769    581.39462  0.027264801  0.027571156            4 
 1778000   0.98342607   -7.2959834    583.93205  0.027368394  0.027563358            3 
 1779000   0.96105027   -7.3131146    583.43718  0.027329829  0.027555484            1 
 1780000   0.95229656   -7.3240304    583.83373   0.02733304  0.027547619            2 
 1781000   0.98094693   -7.3035452    583.32679  0.027293973  0.027539708            2 
 1782000    0.9983532   -7.3548839    581.42283   0.02718962  0.027531812            2 
 1783000   0.96560428   -7.2719269    583.36934  0.027265346  0.027523909            2 
 1784000   0.96130028   -7.3262008    582.04716  0.027188302  0.027516083            1 
 1785000   0.96890548   -7.3570599    584.16417  0.027271904   0.02750822            2 
 1786000   0.97650298   -7.2960211    584.53573   0.02727397  0.027500389            2 
 1787000   0.97397717    -7.316696    585.24158  0.027291624   0.02749259            2 
 1788000   0.94524365   -7.3073071    587.62934  0.027387647  0.027484911            3 
 1789000   0.94545084    -7.296112    586.39351  0.027314771   0.02747719            1 
 1790000   0.96309652   -7.3360513    583.93381     0.027185  0.027469442            2 
 1791000   0.94794408   -7.3298151    584.03663  0.027174606    0.0274616            3 
 1792000   0.95799126   -7.3043204    584.27922  0.027170722  0.027453731            1 
 1793000   0.95962346   -7.3083831    585.89109  0.027230484  0.027445878            2 
 1794000   0.98988146   -7.2992129     585.0235  0.027175005  0.027438051            1 
 1795000   0.96222107   -7.3023377    587.86126  0.027291609  0.027430225            1 
 1796000   0.96777146   -7.3339207    585.46948  0.027165436  0.027422459            2 
 1797000   0.97370362   -7.3173627    587.43048  0.027241258  0.027414739            2 
 1798000   0.97149143   -7.3369866    584.87291  0.027107569  0.027406941            3 
 1799000    0.9584423   -7.3380931     586.2461   0.02715611  0.027399064            4 
 1800000   0.97004608   -7.3383514    585.07452  0.027086783  0.027391119            2 
 1801000   0.95671319   -7.3083854    588.65715  0.027237514  0.027383223            1 
 1802000   0.98243092   -7.2732738    586.87671  0.027140062  0.027375422            3 
 1803000   0.95756827   -7.3293249    586.94796  0.027128303  0.027367571            2 
 1804000   0.96350722   -7.3764698    585.15434  0.027030411  0.027359644            4 
 1805000   0.96251458   -7.3629992    586.81277  0.027092002  0.027351656            2 
 1806000   0.95846888   -7.3686021    584.64631  0.026977035  0.027343663            2 
 1807000   0.95572342   -7.3501089    587.45626  0.027091693  0.027335674            2 
 1808000   0.98645052   -7.3549681    585.45978  0.026984688  0.027327713            3 
 1809000   0.96785047   -7.3703599    585.29513  0.026962186  0.027319636            1 
 1810000   0.95908962   -7.3446053    588.62871   0.02710077  0.027311635            3 
 1811000   0.97424971   -7.3085208    587.46517  0.027032265  0.027303702            6 
 1812000   0.96418035   -7.3458456    588.07877  0.027045565  0.027295829            2 
 1813000   0.97868108   -7.3259149    587.88137  0.027021574  0.027287866            1 
 1814000   0.96689392    -7.324015    588.88759  0.027052903  0.027280063            2 
 1815000   0.95743384    -7.338546    589.27676  0.027055866  0.027272204            4 
 1816000   0.95831511   -7.3109414    589.35651  0.027044627  0.027264375            4 
 1817000   0.97855795   -7.3180979    588.93192   0.02701027  0.027256556            1 
 1818000   0.96129761   -7.2843353    588.81748  0.026990167   0.02724863            3 
 1819000   0.96737087   -7.3298815    587.82282  0.026929761   0.02724062            2 
 1820000     0.949996    -7.355555    588.09355   0.02692736  0.027232599            3 
 1821000   0.97354347   -7.3139825    588.29162  0.026921637  0.027224561            2 
 1822000   0.95211718   -7.3262264    588.19697  0.026902532  0.027216585            2 
 1823000   0.95488836   -7.3155169    589.38253   0.02694197  0.027208604            2 
 1824000   0.94737531    -7.335686    587.55217  0.026843575  0.027200559            1 
 1825000    0.9410873   -7.3195624     589.3633  0.026911566  0.027192493            3 
 1826000   0.96560031   -7.3240053    590.90198  0.026967049  0.027184478            3 
 1827000    0.9465922   -7.3642226    587.38651  0.026791941  0.027176369            2 
 1828000    0.9611863   -7.3298101    590.00055  0.026896451  0.027168252            2 
 1829000    0.9423463   -7.3435311    589.68593  0.026867411  0.027160108            3 
 1830000    0.9601842   -7.3625809    587.70972  0.026762737  0.027151972            2 
 1831000   0.96370077   -7.3110081    589.52653  0.026830809  0.027143871            1 
 1832000   0.97649247   -7.3362149     590.1132  0.026842849  0.027135849            1 
 1833000   0.96874274   -7.3196916    590.32162   0.02683768  0.027127808            4 
 1834000   0.96024673   -7.3617495    590.63506  0.026837289   0.02711973            3 
 1835000    0.9559184    -7.339812    590.88057  0.026833814  0.027111657            3 
 1836000   0.97611921   -7.3593559    591.04407  0.026826619  0.027103652            1 
 1837000   0.97060658     -7.34884     590.3262   0.02677945  0.027095573            5 
 1838000   0.94538487   -7.3379313    590.65374  0.026779731  0.027087626            1 
 1839000   0.96785769   -7.3451621    590.70877  0.026767662  0.027079535            5 
 1840000    0.9417956   -7.3486197    591.10738  0.026771168  0.027071421            3 
 1841000   0.93078431   -7.3501412    591.92595  0.026793679  0.027063348            2 
 1842000   0.97284417   -7.3353052    592.05463  0.026784954  0.027055333            1 
 1843000   0.95372713     -7.34321    593.07595  0.026816601  0.027047294            2 
 1844000   0.96123778   -7.3774423    590.77393  0.026698026  0.027039264            1 
 1845000   0.95768509   -7.3582852    593.58601   0.02681057  0.027031224            1 
 1846000   0.95388581   -7.3609609    590.99366   0.02667902  0.027023204            3 
 1847000   0.94763226   -7.3325635    591.52654  0.026688618  0.027015147            2 
 1848000   0.95506627   -7.3352346     593.3212  0.026755104   0.02700718            2 
 1849000   0.97417546   -7.3225859    591.25701  0.026647603  0.026999066            2 
 1850000   0.96071902   -7.3696826    592.92473  0.026708321  0.026990918            4 
 1851000   0.94553041   -7.3252812     593.1943  0.026706028  0.026982801            2 
 1852000   0.94782051   -7.3766211    592.63314  0.026666358   0.02697482            1 
 1853000   0.96887441   -7.3651579    592.95485  0.026666435  0.026966748            3 
 1854000   0.95927237   -7.3293541      593.823  0.026691073  0.026958681            2 
 1855000   0.95364988   -7.3344723    594.83073  0.026721956  0.026950656            1 
 1856000   0.97079482   -7.3129839    595.89518  0.026755351  0.026942683            1 
 1857000   0.96937052   -7.3468261    595.94685  0.026743262  0.026934785            1 
 1858000   0.95677528   -7.3666098    594.77026  0.026676097  0.026926912            2 
 1859000   0.96210594   -7.3166446    595.54119  0.026696306  0.026919048            1 
 1860000   0.96022378   -7.3649602    597.20667  0.026756571  0.026911262            4 
 1861000   0.94498751   -7.3322006    595.17364  0.026651157  0.026903471            2 
 1862000   0.97589046   -7.3565713    594.90898  0.026624999  0.026895682            2 
 1863000   0.95355195   -7.3297089    596.05758  0.026662085  0.026887888            2 
 1864000   0.95716215   -7.3552719    595.98432  0.026644506  0.026880036            2 
 1865000   0.95647408   -7.3408995    596.26942  0.026642959  0.026872188            2 
 1866000   0.96997761   -7.3534379    595.12534  0.026577587  0.026864349            3 
 1867000   0.96298207   -7.3439448    596.14144  0.026608706  0.026856498            2 
 1868000   0.94019687   -7.3275963    597.18421   0.02664098  0.026848627            2 
 1869000   0.95336438   -7.3499242    596.13458  0.026579926  0.026840779            3 
 1870000    0.9616293   -7.3726181     596.2736  0.026571907  0.026832811            2 
 1871000   0.95527709   -7.3099533    598.23217  0.026644939  0.026824962            2 
 1872000   0.93710312   -7.3319645    597.19688  0.026584619   0.02681711            3 
 1873000   0.94671851   -7.3298178    595.91333  0.026513318  0.026809143            5 
 1874000   0.94154658   -7.3703038    596.39235  0.026520471  0.026801212            3 
 1875000   0.94791544    -7.353486    597.56736  0.026558549  0.026793262            2 
 1876000   0.95318351   -7.3397036    599.69607  0.026638951  0.026785325            2 
 1877000   0.95172516   -7.3532438    597.77114  0.026539298  0.026777442            2 
 1878000   0.96215101   -7.3144069     599.2825   0.02659223  0.026769653            2 
 1879000    0.9206001   -7.3600435    596.53897  0.026456403  0.026761776            2 
 1880000   0.96588064   -7.3255687    597.61756   0.02649014  0.026753908            1 
 1881000   0.94290564   -7.3499705     599.7361  0.026569914  0.026746079            1 
 1882000   0.93508782    -7.317945    599.23459   0.02653359  0.026738225            3 
 1883000   0.94438265   -7.3478361    598.70507  0.026496064    0.0267304            2 
 1884000   0.95465019   -7.3427356    598.24471  0.026461638  0.026722606            5 
 1885000   0.94380538   -7.3624376    600.46484  0.026545749  0.026714808            2 
 1886000   0.95783877   -7.3365282       598.53  0.026446182  0.026706946            1 
 1887000   0.92102603   -7.3511213    599.55591  0.026477474  0.026698963            3 
 1888000   0.96116455   -7.3341992    598.39069  0.026412018  0.026691042            2 
 1889000   0.94627067   -7.3817614    598.61731  0.026408034  0.026683147            3 
 1890000   0.93757769   -7.3876863      599.671   0.02644052  0.026675295            2 
 1891000   0.92802394   -7.3503003    601.59841  0.026511476  0.026667508            1 
 1892000   0.92824936   -7.3561348    600.15821   0.02643403  0.026659743            2 
 1893000   0.94465986   -7.3422481     601.7545  0.026490337  0.026651913            3 
 1894000   0.94934454   -7.3351253    601.81283  0.026478917   0.02664412            2 
 1895000   0.92101785   -7.3607859    601.03764  0.026430855  0.026636321            1 
 1896000   0.93477478   -7.4116434    600.57063  0.026396388    0.0266285            2 
 1897000   0.96955952   -7.3545176    601.48726   0.02642274  0.026620685            3 
 1898000   0.95402837   -7.3279058    600.93756  0.026384684  0.026612961            2 
 1899000   0.93187244   -7.3452025    601.83204  0.026410042  0.026605253            2 
 1900000   0.95494102   -7.3426821    601.89459  0.026398885  0.026597537            2 
 1901000   0.95250997   -7.3419825    602.14798  0.026396107   0.02658988            2 
 1902000   0.93843543   -7.3772256    601.63652  0.026359819  0.026582218            2 
 1903000    0.9654433   -7.3472917    603.08808  0.026409532  0.026574548            4 
 1904000   0.92416453   -7.3591625    603.00142  0.026391869  0.026566821            4 
 1905000   0.95746638   -7.4037082    602.29189  0.026346977  0.026559037            3 
 1906000   0.93373542   -7.3900816    601.10291   0.02628117  0.026551214            1 
 1907000    0.9386942    -7.334984    603.31287   0.02636396  0.026543418            4 
 1908000   0.95640568   -7.3887683    601.98012  0.026291934    0.0265356            2 
 1909000   0.94842729   -7.3381893    603.33646  0.026337369   0.02652792            4 
 1910000    0.9402724   -7.3587278    602.54965  0.026289252  0.026520177            2 
 1911000   0.92707156   -7.3359545    603.44342   0.02631447  0.026512492            4 
 1912000   0.94497857   -7.3438347    604.24083  0.026335462  0.026504793            2 
 1913000   0.93440196   -7.3594529    604.30628  0.026324546  0.026497129            2 
 1914000   0.93824798   -7.3733917    603.62644  0.026281193  0.026489456            4 
 1915000   0.95442496   -7.3948906    603.66349  0.026269082  0.026481782            3 
 1916000    0.9537435    -7.364729    605.18368  0.026321489  0.026474097            3 
 1917000    0.9393338   -7.3722322    604.74044  0.026288491  0.026466441            1 
 1918000   0.95429571   -7.3749504    606.79014   0.02636384  0.026458857            1 
 1919000   0.93964897   -7.3748983    606.32204  0.026329774  0.026451316            6 
 1920000   0.94675298   -7.3595698    606.77604  0.026335765  0.026443793            3 
 1921000    0.9402034   -7.3947622    605.36023  0.026260638  0.026436258            2 
 1922000   0.95302657   -7.3606372    605.37474  0.026247604  0.026428726            4 
 1923000    0.9552413   -7.3626046    606.77173  0.026294494   0.02642115            4 
 1924000   0.95664089   -7.3617063    606.55976  0.026271646  0.026413576            6 
 1925000   0.97199586   -7.3711062    605.33438  0.026204952  0.026405987            3 
 1926000   0.94780196   -7.4046132     603.7184  0.026121426  0.026398361            2 
 1927000   0.94547316   -7.3704537    607.94323  0.026290574  0.026390777            2 
 1928000   0.94588823   -7.3857602    606.69255   0.02622288  0.026383224            2 
 1929000   0.93528955   -7.3317499    607.12735  0.026228069  0.026375625            2 
 1930000   0.93534372   -7.3597426    608.08013  0.026255619  0.026368072            1 
 1931000   0.93598338   -7.3640701    607.96444  0.026237029  0.026360484            4 
 1932000   0.93368357   -7.4007849    607.33067  0.026196112  0.026352833            3 
 1933000   0.94093353   -7.4211803     606.8584    0.0261622  0.026345178            2 
 1934000   0.94275438   -7.3737791    607.04629  0.026156769   0.02633752            3 
 1935000   0.95787549   -7.3643183    608.01635  0.026185028  0.026329918            1 
 1936000    0.9566198   -7.3688432    608.20465  0.026179608  0.026322273            2 
 1937000   0.93931309   -7.3576218    609.17076  0.026207656  0.026314653            4 
 1938000   0.92040776    -7.358929    608.28821  0.026156184  0.026307086            2 
 1939000   0.95854423   -7.3334732     608.5052   0.02615202  0.026299525            4 
 1940000   0.92960668   -7.3828852    608.02261   0.02611781  0.026291884            1 
 1941000   0.94170656   -7.3467588    609.18531  0.026154272  0.026284256            3 
 1942000   0.91810531   -7.4009963    608.07815  0.026093295  0.026276711            2 
 1943000   0.94118218     -7.36166    608.02439   0.02607756  0.026269071            1 
 1944000   0.93096648   -7.3748458    607.95148   0.02606102  0.026261414            2 
 1945000   0.94229345   -7.3483573    610.66125  0.026163721  0.026253743            2 
 1946000   0.94720129    -7.373487    610.18496   0.02612988  0.026246127            1 
 1947000   0.94897968   -7.3785824    608.09017  0.026026801   0.02623855            2 
 1948000   0.94398573   -7.4045387    608.47429  0.026029872  0.026230851            3 
 1949000   0.94518527   -7.4382722    608.42442  0.026014384  0.026223098            3 
 1950000   0.93414018   -7.3984354    610.32123  0.026082104  0.026215394            2 
 1951000   0.93606822   -7.3967656    609.39506  0.026029176  0.026207714            4 
 1952000   0.93406654   -7.4172124    609.24239  0.026009324  0.026200008            2 
 1953000    0.9347693    -7.398525    609.87942  0.026023187  0.026192261            2 
 1954000     0.919837   -7.3532468    612.09525  0.026104369  0.026184623            4 
 1955000   0.95368555   -7.4087737     611.5823  0.026069152  0.026177008            3 
 1956000   0.95103339   -7.3690162    610.94099  0.026028502  0.026169373            2 
 1957000   0.93623478   -7.3872975    612.85427  0.026096673  0.026161829            2 
 1958000   0.94729244     -7.39876    609.83516   0.02595485  0.026154231            2 
 1959000    0.9268687   -7.4087912    610.73465  0.025979864  0.026146662            3 
 1960000   0.93036044   -7.3419424    611.39949  0.025994876  0.026139143            2 
 1961000   0.94917671   -7.3986052    611.27992  0.025976539  0.026131588            2 
 1962000   0.92579321   -7.3721207    612.81738  0.026028601  0.026124051            2 
 1963000   0.94548527     -7.36008    612.65718   0.02600854  0.026116516            3 
 1964000    0.9386452   -7.3997379    611.69832  0.025954613  0.026108967            2 
 1965000   0.92559039   -7.3707708    612.58176   0.02597887  0.026101408            5 
 1966000   0.93412821   -7.3922164    612.06966   0.02594395  0.026093902            1 
 1967000    0.9437675   -7.3869196    614.16556  0.026019554  0.026086348            2 
 1968000    0.9354658   -7.3679867    613.37512  0.025972862  0.026078797            2 
 1969000   0.94701224   -7.3825408     610.6819  0.025845687  0.026071245            2 
 1970000   0.93410145   -7.4079771    614.08268  0.025976425  0.026063696            2 
 1971000   0.93800963   -7.4000319    613.01743  0.025918207  0.026056127            2 
 1972000   0.92522078   -7.3436754    615.30232  0.026001619  0.026048639            2 
 1973000   0.92553617   -7.3735575    615.84467  0.026011348  0.026041184            2 
 1974000   0.92279743   -7.4058437    612.39832  0.025852681  0.026033652            3 
 1975000   0.94811163   -7.3978108    613.53293  0.025887466  0.026026012            3 
 1976000   0.94602011   -7.3746087    614.57895  0.025918478  0.026018434            4 
 1977000    0.9424592   -7.3977967    614.45015  0.025899939  0.026010806            3 
 1978000   0.91977419   -7.3942864    614.33316  0.025881916  0.026003158            2 
 1979000     0.949651   -7.3912019    614.24833  0.025865266  0.025995588            1 
 1980000   0.91891315   -7.3550299    614.54671   0.02586476  0.025988029            2 
 1981000   0.91816294   -7.3599457    614.27187  0.025840143  0.025980514            3 
 1982000    0.9323061   -7.3672788    614.00747  0.025815988  0.025972978            3 
 1983000   0.92873554   -7.3723666    615.25645  0.025855457  0.025965481            6 
 1984000   0.90888793   -7.3804561    615.09701  0.025835728  0.025957904            3 
 1985000    0.9601358   -7.3905917    615.04305  0.025820447   0.02595026            2 
 1986000   0.94425583   -7.4080606    614.42636  0.025781569   0.02594269            3 
 1987000   0.93477638   -7.3863688    616.28001  0.025846335  0.025935088            3 
 1988000   0.92739663   -7.3991514    614.78714  0.025770755  0.025927525            2 
 1989000    0.9438486   -7.3960663    615.73249  0.025797406  0.025919863            3 
 1990000   0.95007397   -7.4276987    616.21457   0.02580463  0.025912215            2 
 1991000   0.93731721   -7.3851191    617.10185  0.025828807  0.025904661            3 
 1992000    0.9245738   -7.3807758    616.55937  0.025793146  0.025897103            2 
 1993000   0.92352187   -7.3622948    617.43945  0.025817003  0.025889557            1 
 1994000   0.92766678   -7.3991626    617.24003  0.025795722  0.025882074            1 
 1995000   0.91906005   -7.3456384    617.54167  0.025795391  0.025874591            2 
 1996000   0.93188311   -7.4267635    616.37572  0.025733789  0.025867014            3 
 1997000   0.92308681   -7.4239893    618.03668  0.025790214  0.025859496            1 
 1998000   0.93217378   -7.4059258    616.55577  0.025715539  0.025851942            3 
 1999000   0.92257183   -7.4168757    617.35827  0.025736129  0.025844313            5 
 2000000   0.93262314   -7.3950052    616.46192  0.025685913  0.025836805            2 
 2001000   0.93886735    -7.391574     619.6093  0.025804152  0.025829307            1 
 2002000    0.9311952   -7.4000728    617.66439  0.025710306  0.025821706            4 
 2003000    0.9346179   -7.4202981    617.31041  0.025682743  0.025814166            2 
 2004000   0.91849092   -7.3956374    618.82489  0.025732904  0.025806638            2 
 2005000   0.92885797   -7.3984748    618.95215   0.02572536  0.025799085            2 
 2006000   0.93803043   -7.4559369    615.46031  0.025567477  0.025791467            2 
 2007000   0.93806107   -7.3895728    617.85484  0.025654162  0.025783848            3 
 2008000   0.94559209   -7.3872092    618.18521  0.025655097  0.025776292            1 
 2009000   0.92504518    -7.372864    618.45144   0.02565337  0.025768661            2 
 2010000   0.92700725   -7.4127076    617.28874  0.025592402  0.025761014            1 
 2011000   0.92938052   -7.4009989    618.89611  0.025646283   0.02575335            3 
 2012000   0.91689996   -7.4358212     617.3872  0.025571041  0.025745719            2 
 2013000   0.91820672   -7.4095211    617.59306  0.025566859  0.025738057            2 
 2014000    0.9120971   -7.4069897     617.1915  0.025537549   0.02573041            4 
 2015000   0.93593101   -7.3817983     618.7528  0.025589446  0.025722755            3 
 2016000   0.94137667    -7.418636    618.48763  0.025565791  0.025715117            3 
 2017000   0.90618533   -7.4330027    618.16189  0.025539658   0.02570752            2 
 2018000   0.90323057   -7.3973062    618.60451  0.025545281   0.02569992            3 
 2019000   0.93802085   -7.4114673     619.8723  0.025584955  0.025692332            3 
 2020000   0.92933312   -7.4144466    619.21433  0.025545146  0.025684786            3 
 2021000   0.93249219   -7.3926759    620.76903  0.025596612  0.025677224            3 
 2022000   0.93438317   -7.4226723     619.0469  0.025512978  0.025669658            4 
 2023000   0.94394625   -7.4290687     619.7141  0.025527851  0.025662058            2 
 2024000   0.94955839   -7.4100752    619.86888  0.025521611  0.025654425            2 
 2025000   0.90394554   -7.4400926    620.13068  0.025519781  0.025646868            2 
 2026000   0.92532404    -7.371658    619.25777   0.02547128  0.025639265            2 
 2027000   0.93086844   -7.4003201    620.39144  0.025505322  0.025631731            5 
 2028000   0.90925692   -7.4414782    619.12443  0.025440682  0.025624108            2 
 2029000   0.92753874   -7.3852767    621.41172  0.025522085  0.025616512            2 
 2030000   0.91496391   -7.4115278    620.37705  0.025467038  0.025608886            5 
 2031000     0.943301   -7.4278291    620.44124  0.025457133   0.02560122            1 
 2032000    0.9372552   -7.3998969    619.73335  0.025415574  0.025593598            2 
 2033000   0.95444735   -7.4032397    621.15352  0.025461285  0.025586014            1 
 2034000   0.92335284   -7.4225329    621.41939  0.025459661  0.025578475            4 
 2035000   0.92458536   -7.4464647    622.12411  0.025476008  0.025570868            1 
 2036000   0.91782801    -7.381318    623.29614  0.025511466  0.025563308            3 
 2037000   0.93262078   -7.4080422    621.66864  0.025432361   0.02555581            2 
 2038000   0.92833267   -7.4273156    621.60883  0.025417437  0.025548237            4 
 2039000   0.90922484   -7.4001212    623.37008  0.025476953   0.02554069            5 
 2040000   0.91888519   -7.4324807    622.12289  0.025413517  0.025533081            2 
 2041000   0.91538027    -7.395219    622.20689  0.025404495  0.025525461            3 
 2042000   0.92325193   -7.4422309    623.24636  0.025434474  0.025517861            2 
 2043000   0.91675374   -7.4534048     621.8532  0.025365198  0.025510282            1 
 2044000   0.91092839   -7.3959332    622.23704  0.025368438  0.025502653            3 
 2045000   0.91403757   -7.4042694    621.79246  0.025337916   0.02549508            2 
 2046000   0.93486796   -7.3868323    622.26575  0.025344809  0.025487493            1 
 2047000   0.94040388   -7.4194982     622.1967  0.025329616  0.025479913            6 
 2048000   0.94273028   -7.4121202    624.64101  0.025416708  0.025472319            2 
 2049000   0.91070562   -7.4121669     623.1718   0.02534455  0.025464778            1 
 2050000   0.90865362   -7.3986037    623.46917  0.025344275  0.025457285            3 
 2051000   0.93026577   -7.4298263     623.9923  0.025353173  0.025449767            4 
 2052000   0.92533601   -7.3551281    625.30205  0.025394008  0.025442254            1 
 2053000   0.91234083   -7.4181698     624.4988  0.025349034   0.02543482            1 
 2054000   0.90384996   -7.4314949    623.61178  0.025300705  0.025427359            2 
 2055000   0.90874943   -7.3961846    626.08585   0.02538872  0.025419933            2 
 2056000   0.94285317   -7.4084368    626.22856  0.025382156  0.025412403            8 
 2057000   0.92274384   -7.4689303    623.32425  0.025252157  0.025404924            5 
 2058000   0.92162297   -7.4149673    625.96331  0.025346749  0.025397445            2 
 2059000   0.94150611    -7.414301    626.13369  0.025341334  0.025389998            3 
 2060000   0.92792245   -7.3997002    627.85709  0.025398749  0.025382623            5 
 2061000   0.92472369   -7.4224351    626.22008  0.025320236  0.025375268            2 
 2062000   0.92529433   -7.4024289    626.99066  0.025339099  0.025367961            2 
 2063000   0.92794671   -7.3978125     627.7833  0.025358834  0.025360638            1 
 2064000   0.92846704   -7.4172764    626.26819  0.025285376  0.025353351            4 
 2065000   0.92865341   -7.4245217    626.97619  0.025301703  0.025346074            2 
 2066000    0.9271972   -7.4438473    627.90633  0.025326973  0.025338803            2 
 2067000   0.91948964   -7.3903123    629.21718  0.025367569  0.025331528            5 
 2068000   0.91439205   -7.3844508    629.40884  0.025363025  0.025324219            1 
 2069000   0.92044342   -7.4024953    629.15885  0.025340698  0.025316943            2 
 2070000   0.92223631   -7.4357294    627.06235  0.025244056  0.025309646            3 
 2071000   0.94093565   -7.4430005    629.39488  0.025325724  0.025302347            3 
 2072000   0.91620648   -7.4475004    627.16002  0.025223617  0.025295061            4 
 2073000    0.9175887   -7.4316462    628.73623  0.025274812  0.025287734            3 
 2074000   0.91117414   -7.4716069    626.77627  0.025183875  0.025280387            2 
 2075000   0.91230117   -7.4096313    627.71019  0.025209244  0.025273061            3 
 2076000   0.91984282   -7.3750144    628.54074  0.025230441  0.025265707            2 
 2077000   0.92187367   -7.4345745    627.02027  0.025157289  0.025258333            4 
 2078000   0.91440199   -7.4128106    630.26081  0.025275137   0.02525098            2 
 2079000   0.92199878   -7.4689671    628.44236   0.02519009  0.025243675            2 
 2080000   0.91841228   -7.4462867    629.83955  0.025233956  0.025236338            1 
 2081000    0.9080876   -7.4763569    628.36754  0.025162884  0.025228904            3 
 2082000    0.9298475    -7.451121    629.01846  0.025176851  0.025221563            3 
 2083000   0.91286862    -7.437111    628.25432  0.025134194  0.025214199            2 
 2084000   0.92871149   -7.4448523      628.442  0.025129639  0.025206805            1 
 2085000   0.91963058   -7.4392084    628.75218  0.025129983  0.025199403            2 
 2086000   0.91192232   -7.4458234    629.55252  0.025149909  0.025192061            2 
 2087000    0.9009788   -7.4367224     629.8459  0.025149573  0.025184739            4 
 2088000   0.92632723   -7.4204147    629.02465  0.025104751  0.025177402            3 
 2089000   0.91417234   -7.4132687    629.28555  0.025103142  0.025170063            1 
 2090000   0.91887372   -7.4521255    628.40511  0.025056025  0.025162663            3 
 2091000   0.90809254   -7.4190842    630.42425  0.025124512   0.02515524            4 
 2092000   0.92051401   -7.4443644    629.10532  0.025059963  0.025147814            2 
 2093000   0.90401616   -7.4228617    631.62584  0.025148345   0.02514049            1 
 2094000   0.93032819   -7.4096327    630.27799  0.025082696  0.025133205            2 
 2095000   0.89881105   -7.4142919    629.97258  0.025058575  0.025125966            3 
 2096000   0.92223542    -7.412796    631.34156  0.025101048   0.02511866            3 
 2097000   0.91271901   -7.4268167    630.33826  0.025049208  0.025111345            1 
 2098000    0.9395471   -7.4371699    631.53114   0.02508465  0.025104067            2 
 2099000   0.91477522   -7.4432063    631.51685  0.025072132    0.0250968            2 
 2100000   0.90153545   -7.4126346    631.67044  0.025066287  0.025089603            4 
 2101000   0.90755822   -7.4362754    631.76976  0.025058296  0.025082388            2 
 2102000   0.91901428   -7.4626498    632.50343  0.025075461  0.025075105            2 
 2103000   0.91007266   -7.4095784    632.39884  0.025059393  0.025067763            2 
 2104000     0.918733   -7.4181555    632.15607  0.025037867  0.025060424            1 
 2105000   0.89899134   -7.4088206    631.44446  0.024997801  0.025053085            1 
 2106000   0.93610112   -7.4357298    632.93708  0.025044994   0.02504578            2 
 2107000   0.91779889   -7.4022704    631.58903  0.024979791  0.025038493            3 
 2108000    0.8984428   -7.4494829    632.61036  0.025008316  0.025031272            5 
 2109000   0.92352098   -7.4782607    632.35793  0.024986484  0.025023992            2 
 2110000   0.91809225    -7.422476    633.65729  0.025025959  0.025016736            4 
 2111000   0.91564254   -7.4519482    635.12929  0.025072212  0.025009541            2 
 2112000   0.93048187    -7.436008    635.10142  0.025059242    0.0250024            3 
 2113000   0.89435302    -7.434726    634.87996  0.025038648  0.024995207            1 
 2114000   0.89932043   -7.4283347    634.38722   0.02500738  0.024987996            3 
 2115000   0.92018554   -7.4394501    634.07141  0.024983113  0.024980791            2 
 2116000   0.91494569   -7.4267721     636.2238  0.025056073  0.024973562            3 
 2117000   0.91485136   -7.4510309    635.25808  0.025006223  0.024966337            4 
 2118000   0.90484208   -7.4435491    635.26398  0.024994648  0.024959072            2 
 2119000   0.90008987   -7.4629557    633.03805  0.024895314   0.02495185            4 
 2120000   0.90649687   -7.4767129    633.63554  0.024907057  0.024944517            2 
 2121000    0.8962706   -7.4530595    635.53093  0.024969784  0.024937227            2 
 2122000   0.92050418   -7.4466589    634.66538  0.024924025  0.024929955            1 
 2123000   0.89385663   -7.4491815    633.88289   0.02488157  0.024922723            1 
 2124000   0.88784824   -7.4510174    634.46318  0.024892623  0.024915453            3 
 2125000   0.91922991   -7.4669293    635.21424  0.024910362  0.024908193            2 
 2126000   0.92753806   -7.4656636    634.33004  0.024863987  0.024900928            3 
 2127000   0.91728445   -7.4723583    634.91812  0.024875338  0.024893633            3 
 2128000   0.88435575   -7.4480553      636.114  0.024910479  0.024886388            1 
 2129000   0.92594159   -7.4096185    636.94094  0.024931147  0.024879217            3 
 2130000   0.90906727   -7.4839157     634.4333  0.024821334  0.024872059            2 
 2131000   0.92339796    -7.476512    635.36832  0.024846251  0.024864782            2 
 2132000   0.91279743   -7.4587747    635.08844  0.024823657    0.0248575            2 
 2133000     0.896097   -7.4375399    636.02478  0.024848601  0.024850167            1 
 2134000   0.90978757   -7.4450307    635.63174  0.024821608  0.024842924            2 
 2135000   0.91101925   -7.4401323     636.2341  0.024833493   0.02483567            3 
 2136000   0.89415509   -7.4693367    635.01195  0.024774186  0.024828393            4 
 2137000   0.90602273   -7.4289659     636.6016  0.024824583   0.02482116            3 
 2138000   0.90461049    -7.471076    636.60521  0.024813112  0.024813982            2 
 2139000   0.91611139   -7.4816921    636.34215  0.024791263  0.024806768            2 
 2140000   0.89424542   -7.4520965     637.2568  0.024815296  0.024799602            2 
 2141000   0.90319108    -7.470204    637.40544  0.024809491  0.024792382            2 
 2142000   0.89372392   -7.4569733    636.61713   0.02476724  0.024785209            2 
 2143000   0.90320033   -7.4160147    638.58766  0.024832309  0.024778097            3 
 2144000   0.90417287   -7.4577425    637.62415  0.024783277  0.024771004            1 
 2145000   0.92022335    -7.419307    638.95547  0.024823445  0.024763911            1 
 2146000   0.91997331    -7.462817     637.8507  0.024768977  0.024756877            2 
 2147000   0.92804797   -7.4336754    639.71379  0.024829754  0.024749763            2 
 2148000   0.89515046    -7.440748    640.73438  0.024857789  0.024742798            6 
 2149000   0.92395829    -7.480326    641.45853  0.024874303   0.02473587            3 
 2150000   0.90931608   -7.4497801    640.23068  0.024815143  0.024728881            2 
 2151000   0.89646537   -7.4518717    641.28623    0.0248445  0.024721884            2 
 2152000   0.90153565   -7.4929118    638.86993  0.024739387  0.024714894            3 
 2153000   0.89320673   -7.4749719    641.79706  0.024841193   0.02470786            1 
 2154000   0.90744891   -7.4418225    642.60689  0.024860991  0.024700892            4 
 2155000   0.92365458   -7.4112688    643.41486  0.024880698  0.024693999            3 
 2156000   0.91823363   -7.4164722     642.1897  0.024821804  0.024687092            1 
 2157000   0.90304432   -7.4609114    642.04327  0.024804639  0.024680237            3 
 2158000   0.90926431   -7.4367049    643.11047  0.024834355   0.02467335            2 
 2159000   0.89309511   -7.4715052    641.15764  0.024747477  0.024666386            2 
 2160000   0.90345684    -7.450786    641.65877  0.024755354  0.024659409            4 
 2161000   0.90203452   -7.4878743    640.88768  0.024714163  0.024652386            2 
 2162000   0.89800287   -7.4573952    641.23941  0.024716289  0.024645391            5 
 2163000   0.91788252   -7.4556164    642.70383  0.024761282  0.024638469            2 
 2164000   0.90511395   -7.4512732    642.12964  0.024727728  0.024631558            2 
 2165000   0.90456235   -7.4287563    644.13982  0.024793681  0.024624673            3 
 2166000   0.90161228   -7.4421324     643.6559  0.024763616  0.024617807            4 
 2167000   0.90358292   -7.4265778    643.75053  0.024755827  0.024610946            2 
 2168000   0.88673944   -7.4104253    646.27669  0.024841509  0.024604104            2 
 2169000   0.90499874    -7.459253    641.98651  0.024665226  0.024597214            2 
 2170000   0.91090962   -7.4695716    642.97171  0.024691694  0.024590248            4 
 2171000   0.89690546    -7.490115    643.21066  0.024689492  0.024583299            3 
 2172000    0.9278982   -7.4433967    644.30642  0.024720166  0.024576346            3 
 2173000   0.91943161   -7.4816189    641.11214  0.024586292  0.024569369            5 
 2174000   0.92312828   -7.4512933    644.89841  0.024720117  0.024562467            3 
 2175000   0.88202128   -7.4368831    644.34894  0.024687699  0.024555552            5 
 2176000   0.92050345   -7.4601904    642.92205  0.024621708  0.024548628            2 
 2177000   0.89962108   -7.4424187    645.45483  0.024707351  0.024541718            3 
 2178000   0.90275695   -7.4632075    644.81444  0.024671504  0.024534867            2 
 2179000   0.89572332   -7.4418282    643.16358  0.024597047  0.024528045            2 
 2180000    0.9143129   -7.4450334    645.82485  0.024687494    0.0245213            2 
 2181000   0.89827306   -7.4779691    644.92311   0.02464172  0.024514504            6 
 2182000   0.92128316   -7.4500218      646.856  0.024704247   0.02450775            1 
 2183000   0.88836566   -7.4685821     645.4373  0.024638773  0.024500999            3 
 2184000   0.90573237   -7.4925432    646.10715  0.024653051  0.024494232            2 
 2185000   0.89301885   -7.5336012    645.73121   0.02462743  0.024487403            1 
 2186000   0.89719973   -7.5066987    645.48384  0.024606734  0.024480542            1 
 2187000   0.90164988   -7.4748787    645.48566  0.024595552  0.024473782            3 
 2188000   0.89626355   -7.4631565    645.41773  0.024581723  0.024467027            1 
 2189000   0.89970638   -7.4935889    645.87788  0.024588011   0.02446026            2 
 2190000   0.90291017   -7.4723573    646.50045  0.024600474  0.024453509            2 
 2191000   0.89771922   -7.4617534    647.05251  0.024610243  0.024446771            4 
 2192000   0.90178202   -7.4981285    646.52286   0.02457888  0.024440031            4 
 2193000   0.89696049   -7.4774461    648.61299  0.024647096  0.024433262            4 
 2194000   0.91175117   -7.4601419    648.90235  0.024646853  0.024426608            2 
 2195000   0.91903196   -7.4697554    648.16896  0.024607781  0.024419944            2 
 2196000   0.89141003   -7.5035372    646.64045  0.024538572  0.024413221            2 
 2197000   0.91325077   -7.4654579     649.4642  0.024634509  0.024406587            1 
 2198000   0.90945639   -7.4535378    648.92136  0.024602721  0.024399971            3 
 2199000   0.88420752   -7.4419563    649.29143  0.024605557  0.024393336            2 
 2200000   0.91863994   -7.4633323    647.77749  0.024537026  0.024386728            1 
 2201000    0.9144901   -7.4769522    647.20346  0.024504144  0.024380027            2 
 2202000   0.90214213   -7.5028594    647.27919  0.024495882  0.024373205            3 
 2203000   0.90745499   -7.4841311    649.24453  0.024559106  0.024366454            1 
 2204000   0.88241457   -7.4650228    647.99658  0.024500778  0.024359721            1 
 2205000   0.90287354   -7.4777445    648.86022  0.024522306  0.024352995            5 
 2206000   0.88683594   -7.4534395    647.60334   0.02446371  0.024346316            5 
 2207000     0.888898   -7.5075504    649.17647  0.024512025  0.024339558            1 
 2208000   0.89258709   -7.4704044    648.78815  0.024486268  0.024332799            1 
 2209000   0.88897118   -7.4713876    648.57698  0.024467217  0.024326014            3 
 2210000   0.89473951    -7.468156    648.02468   0.02443532  0.024319245            1 
 2211000   0.87144427   -7.5327106    648.67085  0.024448622  0.024312459            3 
 2212000   0.89999924   -7.4392904    651.19627  0.024532711  0.024305677            6 
 2213000   0.92300262   -7.5032022    649.95531  0.024474895  0.024298996            2 
 2214000   0.91444855   -7.4868498    650.69984  0.024491864   0.02429227            2 
 2215000   0.88745381   -7.4614408    650.86267  0.024486933  0.024285517            2 
 2216000   0.91153019   -7.4976404    648.64646  0.024392541  0.024278762            3 
 2217000   0.91323434   -7.4927791     651.3184  0.024481973  0.024272027            6 
 2218000   0.90081257   -7.5004768    648.54636  0.024366785  0.024265179            2 
 2219000   0.90799348   -7.5372227    648.59663  0.024357692  0.024258351            2 
 2220000   0.89057268   -7.5029856     650.7632  0.024428048  0.024251534            2 
 2221000   0.89572219   -7.4697407    651.90953   0.02446006  0.024244801            2 
 2222000   0.90529253   -7.4720647    650.16077  0.024383467  0.024238077            2 
 2223000   0.89375008   -7.4537766    652.62617  0.024464919   0.02423128            2 
 2224000   0.91364665   -7.4904162    650.76012  0.024383997  0.024224476            2 
 2225000   0.92004747   -7.4747016    651.18682   0.02438902  0.024217659            3 
 2226000   0.90961327   -7.4738161    651.67218  0.024396233  0.024210825            6 
 2227000   0.91669667   -7.4911231    652.07961  0.024400524  0.024204032            2 
 2228000   0.92144109   -7.4916948    649.99922   0.02431176  0.024197183            1 
 2229000   0.89128673   -7.4702062    652.93111  0.024410465  0.024190389            3 
 2230000   0.87463121   -7.5227716      650.273  0.024300187  0.024183594            2 
 2231000   0.88426788   -7.5250504    649.64624  0.024265884   0.02417673            3 
 2232000   0.90578971   -7.5277156    650.19055  0.024275334  0.024169846            2 
 2233000   0.90012276     -7.49856    650.16232  0.024263409  0.024162971            2 
 2234000   0.90048984   -7.4896822    650.49766  0.024265058  0.024156074            2 
 2235000    0.8964806   -7.4828035    652.92645   0.02434476  0.024149257            2 
 2236000   0.90334941   -7.5273707    650.97444  0.024261122   0.02414243            2 
 2237000   0.89688108   -7.4922958    652.37323  0.024302385  0.024135586            1 
 2238000   0.89167893   -7.4806958    650.32866  0.024215395  0.024128716            3 
 2239000   0.89340669   -7.4908152    651.74043  0.024257125  0.024121885            3 
 2240000   0.89731431   -7.4785848    650.61844  0.024204555  0.024115037            1 
 2241000   0.89392959   -7.4840518     652.7312  0.024272319   0.02410817            4 
 2242000   0.89529392   -7.4273359    653.81043  0.024301607  0.024101413            1 
 2243000   0.91415793   -7.4523869     654.2479  0.024307025  0.024094711            6 
 2244000   0.91228943   -7.5432914    652.48429    0.0242307  0.024087965            3 
 2245000   0.90016425   -7.4907825     653.0811   0.02424206   0.02408114            2 
 2246000    0.8930272   -7.4647829    655.20728  0.024310154  0.024074392            5 
 2247000   0.87628169   -7.5024043    653.71177  0.024243872  0.024067653            4 
 2248000   0.89680091   -7.4812176    652.34162  0.024182296  0.024060848            6 
 2249000   0.88071196   -7.5470917    650.75814   0.02411287  0.024054039            2 
 2250000   0.90626214   -7.4895059    653.12122  0.024189675  0.024047307            2 
 2251000   0.89066503   -7.4947921    655.43494  0.024264584  0.024040579            3 
 2252000   0.89333918   -7.4770091    655.41356  0.024253018   0.02403388            6 
 2253000   0.89783621   -7.4835275    655.14747  0.024232411  0.024027165            3 
 2254000   0.89204877   -7.4967156    653.71482  0.024168693  0.024020466            1 
 2255000   0.88717138   -7.4971594     655.2659  0.024215296  0.024013783            2 
 2256000   0.88856892   -7.5069631    652.50382  0.024102535  0.024007054            3 
 2257000   0.90267206   -7.5028367    655.29372  0.024194865   0.02400034            1 
 2258000   0.88628124   -7.4715244    655.23984  0.024182161  0.023993647            3 
 2259000   0.89081958   -7.4787185    656.04684  0.024201226  0.023986952            4 
 2260000   0.88361161   -7.5029834    655.16969  0.024158174  0.023980191            4 
 2261000   0.89680334   -7.4858424    654.07088  0.024106991  0.023973422            2 
 2262000    0.8787072   -7.5268384    653.53991  0.024076772  0.023966605            4 
 2263000   0.89327961   -7.4890513    654.52212  0.024102302  0.023959779            3 
 2264000    0.8950521   -7.5076571    654.13643   0.02407746  0.023952957            1 
 2265000   0.87034789   -7.5066219    654.80586  0.024091459  0.023946109            2 
 2266000   0.87976698   -7.4800124    656.32394  0.024136656  0.023939445            3 
 2267000   0.89020043   -7.4707208    656.82301  0.024144354  0.023932767            1 
 2268000   0.88992211   -7.4905808    656.35089  0.024116361  0.023926105            2 
 2269000    0.9048753   -7.4955906    655.81685  0.024086119  0.023919392            5 
 2270000   0.90375225   -7.4928208    656.43928  0.024098358  0.023912703            1 
 2271000   0.87954243   -7.4536574    656.56283  0.024092281  0.023906038            2 
 2272000   0.87720014   -7.4419722     657.8401  0.024128525  0.023899335            2 
 2273000    0.8759715   -7.4981659    656.06638  0.024052881  0.023892614            5 
 2274000   0.89522997    -7.495432    655.45999  0.024020082  0.023885839            1 
 2275000   0.88716876   -7.5113736    652.71921  0.023909128  0.023879001            3 
 2276000    0.8821679   -7.4964048    657.86278   0.02408695  0.023872093            2 
 2277000   0.89246683   -7.4673306    656.66144  0.024032405  0.023865252            1 
 2278000    0.8801685    -7.486744    657.28478  0.024044658  0.023858387            3 
 2279000   0.89897454   -7.5008752    656.57038  0.024007985  0.023851531            1 
 2280000   0.90577283   -7.5125599     656.1602  0.023982463  0.023844672            3 
 2281000    0.8946579   -7.4869905    655.69064  0.023954795  0.023837809            4 
 2282000   0.90009693   -7.4958904    655.67661  0.023943785  0.023830925            1 
 2283000   0.87009225   -7.4943491    655.70971  0.023934505  0.023824038            2 
 2284000   0.88619522   -7.5259076    656.08745  0.023937808  0.023817157            3 
 2285000   0.88318325   -7.4978293     655.9896  0.023923764  0.023810245            4 
 2286000   0.88588934   -7.5066131    656.12811  0.023918348  0.023803328            5 
 2287000   0.89931406   -7.5039959    654.95221  0.023865042  0.023796436            1 
 2288000   0.87400319   -7.5257623    655.59323  0.023877959  0.023789561            2 
 2289000   0.88096166   -7.4979574    655.51595  0.023864714  0.023782603            4 
 2290000   0.89678733   -7.5487303     654.7669  0.023827034  0.023775628            3 
 2291000   0.87822885   -7.5319528    657.44486  0.023914043  0.023768699            4 
 2292000   0.90132449   -7.4949851    657.50289  0.023905719  0.023761755            3 
 2293000   0.89017719   -7.5169074    656.44965  0.023857016  0.023754855            3 
 2294000   0.89430726   -7.4902658    656.41653  0.023845413  0.023747998            1 
 2295000   0.88252334   -7.4884832    656.83397  0.023850181  0.023741165            2 
 2296000   0.88867751   -7.4875678    658.57021   0.02390281  0.023734331            4 
 2297000   0.86715474   -7.5047803    657.32218  0.023847126  0.023727493            3 
 2298000   0.88591847   -7.5279296    656.41248   0.02380376  0.023720611            5 
 2299000   0.89804259   -7.5044472    658.16946  0.023857092  0.023713719            3 
 2300000   0.88899873   -7.5087744    658.80118  0.023869608  0.023706857            3 
 2301000   0.88106234    -7.490913    658.69081  0.023855237  0.023699976            3 
 2302000   0.88650794   -7.5318116    656.03763  0.023748828  0.023693052            7 
 2303000   0.90299845   -7.4901791    657.66274   0.02379732  0.023686145            1 
 2304000   0.86439866   -7.5206692    658.05194  0.023801068  0.023679224            2 
 2305000   0.87762276      -7.4893    659.32956  0.023836933  0.023672343            2 
 2306000   0.89155593   -7.5161738    657.08818  0.023745598  0.023665405            5 
 2307000   0.88172052    -7.514897    657.20138  0.023739394  0.023658479            3 
 2308000   0.88561212    -7.511192    655.63181  0.023672437  0.023651513            3 
 2309000   0.88242719   -7.5362609    658.59265  0.023769043   0.02364458            2 
 2310000   0.89824769   -7.5545292    657.11515  0.023705453  0.023637582            3 
 2311000    0.8735661   -7.5388744    657.35172  0.023703726  0.023630587            3 
 2312000   0.88756919   -7.5710857     654.4299   0.02358816  0.023623567            3 
 2313000   0.88870572   -7.4976906    656.86866  0.023665826  0.023616513            4 
 2314000   0.87636709   -7.5174856    656.71364  0.023650016  0.023609524            3 
 2315000   0.89293815    -7.504101    657.46448  0.023666828  0.023602504            7 
 2316000   0.87890922   -7.5180896    656.71403  0.023629607  0.023595518            3 
 2317000   0.87528248   -7.4979609    658.35155  0.023678304  0.023588446            2 
 2318000   0.88390414   -7.4757893    658.81943  0.023684909  0.023581429            2 
 2319000   0.88459805    -7.532878    657.99381  0.023645027  0.023574412            3 
 2320000   0.89842178   -7.4896852    657.23241  0.023607486  0.023567378            3 
 2321000    0.8966163   -7.4993924     658.3745   0.02363832  0.023560353            1 
 2322000   0.87963032   -7.5209608    658.68826  0.023639401  0.023553302            5 
 2323000   0.89596097   -7.5073234    659.77398  0.023668173  0.023546338            4 
 2324000    0.8846238   -7.5276552    658.69962  0.023619464   0.02353939            3 
 2325000   0.87573927   -7.5241056    658.75434  0.023611267    0.0235324            2 
 2326000   0.89142804   -7.5273869    658.32945  0.023585893  0.023525385            3 
 2327000   0.89188503   -7.4838145    659.05478  0.023601733  0.023518419            8 
 2328000   0.87518942   -7.4906983    658.35695  0.023566615  0.023511457            3 
 2329000   0.87321859    -7.506747    659.69184  0.023604259  0.023504493            4 
 2330000   0.86368725   -7.5125947    658.37451  0.023547014  0.023497493            3 
 2331000   0.87718185   -7.5193061    659.29631  0.023569866  0.023490463            1 
 2332000    0.8961627   -7.5189323    658.66248   0.02353711  0.023483412            2 
 2333000   0.90048662   -7.5110618     658.4008  0.023517674  0.023476419            1 
 2334000   0.87495408   -7.5327987    659.69425  0.023553779  0.023469414            3 
 2335000   0.89658555   -7.5306657    658.68238  0.023507579  0.023462416            2 
 2336000   0.87211992    -7.497095    658.85505  0.023503676  0.023455363            5 
 2337000   0.87430731   -7.5285324    659.29469  0.023509296  0.023448389            1 
 2338000   0.87528739   -7.5061505     660.4221  0.023539425  0.023441325            2 
 2339000   0.89262913   -7.5324328    658.40672  0.023457557   0.02343426            3 
 2340000   0.89570355   -7.5217292    659.61415  0.023490533  0.023427173            2 
 2341000   0.88098956   -7.5412608    659.09842  0.023462139  0.023420123            5 
 2342000   0.88539392   -7.5238718    659.39818  0.023462787  0.023413062            3 
 2343000   0.87030028   -7.5353642    660.30617  0.023485068  0.023406015            2 
 2344000   0.88184825   -7.4955039    658.31473   0.02340425  0.023398955            3 
 2345000   0.87416139   -7.5331702     659.7921   0.02344677  0.023391914            2 
 2346000    0.8786662   -7.5355173    659.34519  0.023420901   0.02338488            1 
 2347000   0.86588449   -7.5093808    659.79951  0.023427052  0.023377867            2 
 2348000   0.87979357   -7.5033102    659.32302  0.023400164  0.023370849            2 
 2349000   0.87797931   -7.5191722    662.15404  0.023490636  0.023363879            2 
 2350000   0.85272481   -7.5309353    660.67098  0.023428049  0.023356851            5 
 2351000   0.87898044   -7.5526298     661.8994  0.023461626  0.023349843            3 
 2352000   0.89926554   -7.5436851     660.5415  0.023403539  0.023342846            2 
 2353000   0.87877549   -7.5070347    660.27981  0.023384325  0.023335873            1 
 2354000   0.88604982   -7.4873892    660.82299   0.02339362  0.023328853            3 
 2355000   0.86500081   -7.5131032    661.36898  0.023403007   0.02332185            2 
 2356000   0.86591149   -7.5253245    660.76797  0.023371816   0.02331485            2 
 2357000   0.87027931   -7.5354659    660.89792  0.023366494  0.023307773            1 
 2358000   0.88625589   -7.5264977     662.8976  0.023427255  0.023300804            2 
 2359000   0.87489923   -7.5317412    661.70672  0.023375255  0.023293819            2 
 2360000   0.87535727   -7.5215275    662.12904  0.023380263  0.023286841            1 
 2361000   0.87909714   -7.5137533    661.43814  0.023345974  0.023279886            3 
 2362000   0.85419053   -7.5584859    660.88374   0.02331653  0.023272919            3 
 2363000   0.89259379   -7.5224459    662.41718  0.023360741  0.023265967            3 
 2364000   0.86088817   -7.5527383     662.3283  0.023347726  0.023259028            2 
 2365000   0.87125333   -7.5425624    662.17506  0.023332455  0.023252056            3 
 2366000   0.87142369   -7.5578949    662.39948  0.023330497  0.023245086            3 
 2367000   0.87138901   -7.5413243    662.98227  0.023341159  0.023238115            3 
 2368000   0.87378919    -7.511089    662.75196  0.023323197  0.023231164            6 
 2369000   0.87588532   -7.5041775    661.57653  0.023272004  0.023224181            2 
 2370000   0.87021547   -7.5219098    662.76445  0.023303954  0.023217218            4 
 2371000   0.88228637    -7.548498    662.80542  0.023295565  0.023210198            3 
 2372000   0.87707121   -7.5482677    662.28203  0.023267356  0.023203194            1 
 2373000   0.87144142   -7.5613546    662.70403  0.023272371  0.023196173            2 
 2374000    0.8845194    -7.582591    661.12393  0.023207102   0.02318913            4 
 2375000   0.88753537   -7.5398544    662.20206   0.02323516  0.023182117            2 
 2376000   0.86961318    -7.558555    662.68851  0.023242442  0.023175109            3 
 2377000    0.8805009   -7.5327725    662.79514  0.023236402  0.023168112            3 
 2378000   0.87195977   -7.5288398    663.58835  0.023254428  0.023161074            1 
 2379000   0.84894184   -7.5287992     662.0616  0.023191173  0.023154073            3 
 2380000   0.86402984   -7.5105398    663.82065   0.02324302  0.023147055            2 
 2381000   0.89346725   -7.5045875    664.29757   0.02324995  0.023139998            5 
 2382000   0.87834095   -7.5369317    662.92426  0.023192145  0.023132991            3 
 2383000   0.87602521   -7.5000367    663.17715  0.023191256  0.023125993            2 
 2384000   0.86035612   -7.5390424    662.58846   0.02316095  0.023119023            4 
 2385000   0.87961161   -7.5221591    662.02087  0.023131407  0.023112038            3 
 2386000   0.83569415   -7.5307245    663.34911  0.023168102  0.023105016            2 
 2387000   0.89301429    -7.551074    664.12107  0.023185347  0.023098043            2 
 2388000   0.88324212   -7.5401685    663.84692   0.02316607  0.023091019            4 
 2389000   0.87479802   -7.5524113    664.79819  0.023189556  0.023084008            3 
 2390000   0.87115401   -7.5450344    664.75053  0.023178191  0.023077027            3 
 2391000   0.87167683   -7.5440517    665.18691  0.023183707   0.02307003            3 
 2392000   0.87785968   -7.5335265    665.94634  0.023200472  0.023063109            3 
 2393000   0.85908948   -7.5523585    663.63862  0.023110413  0.023056098            2 
 2394000   0.86568248    -7.545075    663.01398  0.023079016  0.023049094            2 
 2395000   0.86834215   -7.5059838    666.30707  0.023183962  0.023042123            3 
 2396000   0.87048284    -7.525827    665.03463   0.02313003  0.023035208            3 
 2397000   0.87169197   -7.5105805    664.84559  0.023113808  0.023028258            3 
 2398000   0.87414132    -7.510048    664.79964  0.023102573  0.023021358            5 
 2399000   0.87355033   -7.5205316    665.96938  0.023133576  0.023014479            4 
 2400000   0.86934364   -7.5306658    666.46399  0.023141111  0.023007615            4 
 2401000   0.86256003   -7.5419542    663.35625   0.02302361  0.023000724            3 
 2402000   0.87413796   -7.5583504    664.78471  0.023063583  0.022993784            4 
 2403000   0.85702898    -7.546161    666.94979  0.023129068  0.022986867            1 
 2404000   0.86198808    -7.576754    665.13862  0.023056663   0.02297995            1 
 2405000    0.8631382   -7.5539575    666.25032  0.023085597  0.022973052            2 
 2406000   0.86989566   -7.5678073    667.20654  0.023109121   0.02296623            3 
 2407000     0.834569   -7.5524595    665.44068  0.023038384  0.022959348            2 
 2408000   0.87203187   -7.5624531    667.93538   0.02311515  0.022952491            2 
 2409000   0.87385021   -7.5562861    665.88107  0.023034491  0.022945608            4 
 2410000   0.87553584   -7.5507156    668.05495  0.023100102  0.022938708            3 
 2411000   0.84856872    -7.552214    667.14947  0.023059224  0.022931803            3 
 2412000    0.8674272   -7.5647197    666.39767   0.02302369  0.022924901            2 
 2413000   0.86637067   -7.5565925    666.38213  0.023013611  0.022918028            3 
 2414000   0.87004274   -7.5727277    665.30924  0.022967041  0.022911139            2 
 2415000   0.86849778   -7.5567416    666.53264  0.022999746   0.02290426           14 
 2416000   0.86308688   -7.5589233    668.00221  0.023040915  0.022897413            3 
 2417000   0.86791361   -7.5620824    667.04218  0.022998282  0.022890572            3 
 2418000   0.86315857   -7.5595388     667.8618  0.023017018  0.022883761            2 
 2419000   0.85639285   -7.5615337    666.62417  0.022964867  0.022876864            2 
 2420000   0.86676991   -7.5677239    667.51392  0.022986016  0.022869957            2 
 2421000    0.8746778   -7.5925383    666.44207  0.022939628  0.022863059            3 
 2422000   0.83475789   -7.5631735    668.67296  0.023006914  0.022856176            2 
 2423000   0.86018181   -7.5667232    667.04337  0.022941373  0.022849316            3 
 2424000   0.85843381    -7.515872    668.88242  0.022995133  0.022842464            1 
 2425000    0.8743271   -7.5593682    666.78157  0.022913456  0.022835616            1 
 2426000   0.86981076   -7.5670865    668.30196  0.022956237  0.022828789            3 
 2427000   0.87682517    -7.500785    668.97895  0.022970023   0.02282196            2 
 2428000   0.85324763   -7.5360693    669.27502  0.022970724  0.022815189            2 
 2429000   0.87112631     -7.55572    667.96385  0.022916284  0.022808379            3 
 2430000    0.8717761   -7.5617868    669.30629   0.02295289  0.022801492            2 
 2431000   0.87844743   -7.5387179    668.14522  0.022903648  0.022794597            9 
 2432000   0.85222649    -7.551304    668.98348  0.022922954  0.022787703            5 
 2433000    0.8677875   -7.5553989    668.26103  0.022888787  0.022780856            6 
 2434000   0.86983695   -7.5593378    670.28455  0.022948663  0.022774027            2 
 2435000   0.87261611   -7.5729423    668.87378  0.022890957  0.022767142            2 
 2436000   0.85211775   -7.5929617    667.70012  0.022841411  0.022760285            2 
 2437000   0.86348895   -7.5519017    668.76461  0.022868438   0.02275345            2 
 2438000   0.86585466   -7.5678329     670.2815  0.022910907  0.022746594            2 
 2439000   0.89050164   -7.5574014    668.73001  0.022848504  0.022739799            2 
 2440000   0.86439102   -7.5452331    671.64139  0.022938572  0.022733019            4 
 2441000   0.86122432   -7.5605731    669.15067  0.022844144   0.02272618            3 
 2442000   0.84897858   -7.5480188    668.88624  0.022825766  0.022719295            2 
 2443000   0.87503488   -7.5709187    669.76449   0.02284638  0.022712416            3 
 2444000   0.87877129   -7.5361996    670.78239   0.02287174  0.022705566            2 
 2445000   0.86559408   -7.6109346    669.19938  0.022808432  0.022698711            2 
 2446000   0.85288103   -7.5637931    670.90885  0.022857347  0.022691828            2 
 2447000   0.84945998    -7.551748    672.22511  0.022892832  0.022685035            3 
 2448000   0.87374225   -7.5782224     670.9021  0.022838443  0.022678244            3 
 2449000   0.86701697   -7.5660074    670.91243  0.022829469  0.022671492            2 
 2450000   0.85902323   -7.5353205     671.5229  0.022840915  0.022664781            3 
 2451000   0.86079056   -7.5434726    672.08033  0.022850548  0.022658021            3 
 2452000   0.84270071   -7.5288871    671.17965  0.022810619  0.022651277            3 
 2453000    0.8390212    -7.569446    672.92647  0.022860663  0.022644581            3 
 2454000   0.87173914   -7.5749481    671.31903  0.022796761  0.022637848            3 
 2455000     0.855804   -7.5731606     671.1545  0.022781891  0.022631141            2 
 2456000   0.83420984   -7.5559771    672.86291  0.022830582   0.02262441            2 
 2457000   0.85283957   -7.5703368    671.42713  0.022772593  0.022617654            2 
 2458000   0.84328982    -7.561751    672.79578  0.022809729  0.022610921            2 
 2459000   0.86171863   -7.5907214    669.90832    0.0227026  0.022604156            3 
 2460000   0.85428073   -7.5533905    671.95061  0.022762554  0.022597438            2 
 2461000   0.85064635   -7.5743404    673.24854  0.022797255  0.022590731            2 
 2462000   0.85003308   -7.5560976    672.89321  0.022775968  0.022584003            3 
 2463000    0.8637646     -7.57201    671.19376  0.022709222  0.022577316            3 
 2464000    0.8552128   -7.5503887    673.57473  0.022780531  0.022570594            2 
 2465000    0.8491407   -7.5570456    674.68861  0.022808946  0.022563898            2 
 2466000   0.86753052   -7.5630276    673.85256  0.022771444   0.02255721            2 
 2467000   0.86041011   -7.5568386    673.07811  0.022736053  0.022550492            3 
 2468000   0.84924464   -7.5790405    672.57518  0.022709859  0.022543735            2 
 2469000   0.86003843   -7.5815122    674.55259  0.022767402  0.022537024            1 
 2470000   0.85343961    -7.582144    672.45233  0.022687326  0.022530244            2 
 2471000   0.86223966   -7.5589172    673.73267  0.022721323  0.022523515            3 
 2472000   0.85050066   -7.5582758    673.79862  0.022714355  0.022516792            1 
 2473000   0.85287954   -7.5492999    673.33761  0.022689635  0.022510097            2 
 2474000    0.8546697    -7.546516     673.7602  0.022694698  0.022503393            2 
 2475000   0.83889411   -7.6048867    674.31298  0.022704141  0.022496629            4 
 2476000   0.86357597   -7.5880606    673.46025  0.022666271  0.022489949            2 
 2477000   0.84767874   -7.5874313    670.93109  0.022572032  0.022483232            6 
 2478000   0.85237309   -7.5792673    671.95574  0.022597382    0.0224765            5 
 2479000   0.86959423   -7.5721585    672.88593  0.022619535  0.022469764            5 
 2480000   0.84642913   -7.5505678    674.22577  0.022655436   0.02246307            3 
 2481000   0.86310353    -7.581057    673.77858  0.022631284  0.022456325            2 
 2482000   0.83744472   -7.5796376    674.49615  0.022646258   0.02244955            4 
 2483000   0.85888545   -7.5612124    674.10709   0.02262408  0.022442808            1 
 2484000   0.84204572   -7.5703688     672.9228  0.022575241  0.022436049            2 
 2485000   0.85297638   -7.5885214    675.02176  0.022636545  0.022429325            9 
 2486000      0.84466   -7.5533024    674.94339  0.022624812  0.022422617            2 
 2487000   0.84980351   -7.5763716    672.60926  0.022537504  0.022415889            1 
 2488000   0.83845358   -7.6020217     672.2822  0.022517491  0.022409127            3 
 2489000   0.85319449   -7.5648638    674.10345  0.022569421   0.02240236            4 
 2490000   0.87544402   -7.5760425    674.67511  0.022579488   0.02239561            3 
 2491000   0.87608214   -7.5583475    675.20207  0.022588053  0.022388897            2 
 2492000   0.84508403   -7.5446245    675.37808  0.022584874  0.022382186            2 
 2493000   0.83706486    -7.584487    673.77229  0.022522138  0.022375461            3 
 2494000   0.86354502   -7.5903423    674.60499  0.022540931  0.022368732            2 
 2495000   0.87305502   -7.5644803    674.59244  0.022531478  0.022362009            3 
 2496000   0.86294376   -7.5939777     674.7009  0.022526072  0.022355291            3 
 2497000    0.8450192   -7.5860573    676.30694  0.022570649   0.02234866            5 
 2498000   0.86179789   -7.5661091    677.25932  0.022593385  0.022342008            2 
 2499000   0.85917603   -7.5898074     676.3168  0.022552914  0.022335355            4 
 2500000   0.85734969   -7.5863201    675.52152  0.022517384   0.02232868            2 
 2501000   0.84155016   -7.5788466    676.26265  0.022533075  0.022322009            3 
 2502000   0.84216254   -7.5655235    676.52175  0.022532699  0.022315328            3 
 2503000   0.86678139   -7.6035593    676.47737  0.022522219  0.022308697            2 
 2504000   0.84784844   -7.5869039    678.16384   0.02256935  0.022302049            2 
 2505000   0.84748436   -7.5890856    675.96166  0.022487081  0.022295377            5 
 2506000   0.84870276   -7.5772937    676.78136  0.022505366  0.022288717            2 
 2507000   0.85222834   -7.6111522    675.93311  0.022468193  0.022282029            1 
 2508000   0.83085557    -7.573832    677.60502  0.022514787  0.022275388            1 
 2509000    0.8369911   -7.5967836    677.91405  0.022516077   0.02226877            5 
 2510000   0.82633928   -7.5805659    677.20372  0.022483523  0.022262162            2 
 2511000   0.85729034   -7.5766362    676.66223  0.022456598  0.022255553            2 
 2512000   0.84167942   -7.6139861    677.15511   0.02246401  0.022248898            6 
 2513000    0.8440009    -7.543961    680.36624  0.022561555  0.022242273            2 
 2514000   0.83659743   -7.5953782    677.55467  0.022459383  0.022235701            2 
 2515000   0.85558291   -7.5944805     676.9946  0.022431895  0.022229136            7 
 2516000   0.84533258   -7.5951439    678.16926  0.022461886  0.022222561            2 
 2517000   0.84769816    -7.586871    677.65099  0.022435803  0.022215966            2 
 2518000   0.84408496   -7.5942072     677.5256  0.022422743  0.022209412            1 
 2519000   0.83559938   -7.5706311    679.53229  0.022480227  0.022202834            3 
 2520000   0.85986471   -7.6149783    676.89282  0.022384022  0.022196258            4 
 2521000   0.85309726   -7.5880811     679.8137  0.022471695  0.022189701            3 
 2522000    0.8318032   -7.5847542    681.18402  0.022508063  0.022183147            2 
 2523000    0.8413608   -7.5812579    679.86114  0.022455448  0.022176638            2 
 2524000   0.83365007   -7.6031173    678.77252  0.022410609  0.022170114            1 
 2525000   0.84182188   -7.5897831    679.81846  0.022436253  0.022163574            2 
 2526000   0.85341362   -7.5770935    680.96554  0.022465213  0.022157097            9 
 2527000   0.80952132   -7.5952519    678.34804  0.022370005  0.022150554            2 
 2528000   0.84936672   -7.5596242    680.13022  0.022419904  0.022144012            3 
 2529000   0.84280717    -7.598899    678.98233  0.022373215  0.022137471            3 
 2530000   0.84071918   -7.5792035    677.80847  0.022325707  0.022130936            4 
 2531000   0.83822081   -7.6083552    678.82133  0.022350235  0.022124385            2 
 2532000    0.8364081   -7.6080228    678.98067  0.022346652  0.022117806            2 
 2533000   0.84055107   -7.5892086    679.35813  0.022350248  0.022111237            6 
 2534000   0.86145891   -7.6406164    679.41692  0.022343361  0.022104663            3 
 2535000   0.84730301   -7.6074664    681.24431  0.022394619  0.022098072            3 
 2536000   0.86327254   -7.6190674    680.79748  0.022371105  0.022091535            2 
 2537000   0.83609646   -7.5798363     678.2712  0.022279306  0.022084992            5 
 2538000   0.85988169   -7.5538433    680.87141  0.022355904  0.022078464            2 
 2539000   0.83996254    -7.619401    679.05824  0.022287588  0.022071895            2 
 2540000   0.82553891   -7.5833133    680.54483  0.022327586  0.022065334            3 
 2541000   0.84152073   -7.5858236    679.53648   0.02228573  0.022058759            1 
 2542000    0.8412788   -7.6122248    681.41772  0.022338635  0.022052228            3 
 2543000   0.84875344   -7.6155483    681.25208  0.022324423  0.022045629            2 
 2544000   0.83248407   -7.6150992    680.58703  0.022293862  0.022039026            3 
 2545000   0.82351837   -7.6013493    679.15708   0.02223828  0.022032396            4 
 2546000   0.83759363   -7.5985774    678.47942  0.022207365   0.02202578            1 
 2547000   0.83682504   -7.5876053    680.21651  0.022255481  0.022019135            2 
 2548000   0.83970777   -7.6056575    679.66351   0.02222866  0.022012564            2 
 2549000   0.86020675   -7.6023285    680.51085  0.022247641  0.022005943            2 
 2550000   0.84047704    -7.618746     679.8145   0.02221616  0.021999322            2 
 2551000   0.83889283   -7.5910419    680.64986   0.02223474  0.021992699            3 
 2552000   0.83776878   -7.6153221    680.09083  0.022207773  0.021986079            3 
 2553000    0.8295717   -7.6502628    679.62723  0.022183941  0.021979405            1 
 2554000   0.83867114   -7.6087108    678.55459  0.022140257  0.021972723            7 
 2555000    0.8308702   -7.6300765    680.06933  0.022180996  0.021966118            2 
 2556000   0.84895539   -7.5806033    681.32709  0.022213325  0.021959508            2 
 2557000   0.83005515   -7.5873436    679.90435   0.02215827  0.021952925            2 
 2558000   0.83604226   -7.5754696    680.34847  0.022164076  0.021946302            2 
 2559000   0.83531553    -7.614268    679.42294  0.022125275  0.021939668            3 
 2560000   0.85397002   -7.5742479    681.56751  0.022186442  0.021933081            3 
 2561000   0.84910423    -7.610496    682.42469  0.022205671  0.021926456            2 
 2562000   0.84074445   -7.6060295    683.02338  0.022216477  0.021919839           11 
 2563000   0.82708363   -7.6044922    681.35167  0.022153455  0.021913226            3 
 2564000   0.83803309   -7.5974629    679.97673  0.022100128  0.021906635            5 
 2565000   0.84298159   -7.5955719     679.7895  0.022085429  0.021900031            3 
 2566000   0.83763285   -7.5958117    680.86425  0.022111725  0.021893435            2 
 2567000   0.83816145    -7.590041    683.66415  0.022194006   0.02188687            3 
 2568000   0.83299708   -7.5850758    682.13299  0.022135676  0.021880334            2 
 2569000   0.83405899   -7.5900177    683.13828  0.022159669  0.021873802            1 
 2570000   0.84416448   -7.6195618    680.29047  0.022058705   0.02186723            4 
 2571000   0.84241045   -7.6100387    681.84302  0.022100448  0.021860664            3 
 2572000   0.85766772   -7.5635473    683.57789  0.022148065  0.021854102            1 
 2573000    0.8525671   -7.5913205    682.49429  0.022104362  0.021847536            2 
 2574000   0.80435919   -7.5963268    681.23853  0.022055119  0.021840938            5 
 2575000   0.84306007   -7.6179996    682.63992  0.022091907  0.021834382            2 
 2576000   0.82914691   -7.6044403    682.95566  0.022093545  0.021827812            6 
 2577000   0.84581961   -7.6014876    683.49809  0.022102512  0.021821244            5 
 2578000   0.85247307   -7.6305051    681.81323  0.022039476  0.021814664            3 
 2579000   0.83212025    -7.644959    680.77561  0.021997402  0.021808057            3 
 2580000   0.83241964   -7.6457197    680.28444  0.021973012  0.021801456            2 
 2581000   0.81921751   -7.6296443    681.30077  0.021997313  0.021794833            3 
 2582000   0.84519633   -7.6157772    682.94347  0.022041811  0.021788209            1 
 2583000   0.84922836   -7.5964882    682.09902  0.022006034  0.021781637            3 
 2584000   0.84086746    -7.638615    682.84714  0.022021644  0.021775106            3 
 2585000   0.82853239   -7.6096856    683.36534   0.02202983  0.021768561            2 
 2586000   0.85283087   -7.5889004    683.32119  0.022019889  0.021762046            3 
 2587000   0.84002675   -7.6057845    683.82763  0.022027691  0.021755559            3 
 2588000   0.83996017   -7.5646981    685.04653  0.022058428  0.021749083            3 
 2589000   0.84362303   -7.6132907    684.15517  0.022021217  0.021742571            5 
 2590000    0.8572987   -7.6190826    682.26055  0.021951755  0.021736076            4 
 2591000   0.81709775   -7.6123237     684.5547  0.022017069   0.02172957            3 
 2592000   0.85692878   -7.6161054    684.31843  0.022000978  0.021723089            2 
 2593000   0.83679923   -7.6184185    683.82424  0.021976611  0.021716643            2 
 2594000   0.82572031   -7.5942417     686.3048  0.022047828  0.021710191            2 
 2595000   0.84151448   -7.6275692    684.40403  0.021978293  0.021703738            1 
 2596000   0.82448179   -7.6168244    683.57698  0.021943278  0.021697246            2 
 2597000   0.83384808   -7.6003418    684.00252  0.021948483  0.021690768            3 
 2598000   0.83876404   -7.6484287    683.65834  0.021928995  0.021684316            3 
 2599000   0.82381388   -7.6245396    685.34622  0.021974677  0.021677837            2 
 2600000   0.82692983   -7.6429966    684.61862  0.021942904   0.02167137            3 
 2601000   0.83357891   -7.6459419    684.44816  0.021929007  0.021664897            4 
 2602000   0.82642827   -7.6375722    685.15513  0.021943221  0.021658444            4 
 2603000   0.82862383   -7.6395082    685.25962  0.021938136  0.021651993            5 
 2604000   0.82963714   -7.6222647    686.06871  0.021955604  0.021645527            2 
 2605000   0.83782914   -7.6015889    686.72611  0.021968206  0.021639026            3 
 2606000   0.85046496    -7.618191    684.72326   0.02189573  0.021632531            3 
 2607000   0.83570965   -7.6714683    684.20428  0.021870742  0.021626007            2 
 2608000    0.8504744    -7.645807    682.90714  0.021820908  0.021619493            1 
 2609000    0.8550881   -7.6436842    683.87812  0.021843558  0.021612959            1 
 2610000   0.81563582   -7.6255854    685.02375  0.021871767   0.02160643            2 
 2611000   0.83083858       -7.633    685.49404    0.0218784  0.021599926            3 
 2612000   0.85610047   -7.6489779    684.91177  0.021851447  0.021593426            3 
 2613000   0.81611268   -7.6272829    684.99862  0.021845855  0.021586892            3 
 2614000   0.83992284     -7.59344    687.09235  0.021904245  0.021580408            3 
 2615000   0.84408402   -7.6487449    685.43819  0.021843155  0.021573943            3 
 2616000   0.85305181   -7.6520719    684.81791  0.021815046  0.021567423            5 
 2617000   0.81158718   -7.6618556     683.8646  0.021776353  0.021560895            3 
 2618000   0.82954845   -7.6121386    684.86677  0.021799935  0.021554342            3 
 2619000   0.84868239   -7.6350633    686.41718  0.021840944  0.021547821            4 
 2620000   0.82705416   -7.6045046    687.00178  0.021851202  0.021541359            1 
 2621000   0.82334627   -7.5906182    685.87081  0.021806906  0.021534937            3 
 2622000   0.82475459   -7.6105694    686.19879  0.021809013  0.021528528            2 
 2623000   0.83477424    -7.631043    687.00401  0.021826281  0.021522086            7 
 2624000   0.84074726   -7.6087103    686.52098  0.021802623  0.021515607            4 
 2625000   0.83872873   -7.6376817    685.59444  0.021764903  0.021509128            2 
 2626000   0.84722434   -7.6281556    685.47223  0.021752736  0.021502604            9 
 2627000   0.84391184   -7.6415868    687.86983  0.021820512  0.021496141            5 
 2628000   0.82816576   -7.6395526    685.32063  0.021731375   0.02148967            2 
 2629000   0.82683899   -7.6027132    686.75356  0.021768529  0.021483227            3 
 2630000   0.83620405   -7.6434131    686.74045  0.021759837  0.021476834            6 
 2631000   0.83148654   -7.5960549     687.2796  0.021768643  0.021470423            2 
 2632000    0.8529034    -7.638406    688.03725  0.021784361   0.02146403            2 
 2633000   0.81898146   -7.6760419    685.91888  0.021709042  0.021457557            2 
 2634000   0.80485258   -7.6280784      686.669  0.021724532  0.021451119            5 
 2635000   0.83924762    -7.640388    686.97292  0.021725899  0.021444682            4 
 2636000   0.82382295   -7.6589293    687.19394  0.021724644  0.021438221            4 
 2637000   0.82175319   -7.6489456    685.82634  0.021673187  0.021431758            1 
 2638000    0.8260126   -7.6725812    686.51173  0.021686623  0.021425283            4 
 2639000   0.83963516   -7.6268935    688.05043  0.021726993   0.02141881            2 
 2640000    0.8445624   -7.6540298    688.35542  0.021728391  0.021412382            3 
 2641000   0.83958425   -7.6684797    686.75772   0.02166975  0.021405961            2 
 2642000   0.82835867   -7.6666084    687.30592  0.021678839  0.021399544            4 
 2643000   0.83007148   -7.6466537    686.75879  0.021653386  0.021393105            3 
 2644000   0.82396742    -7.645406    689.89514  0.021744048   0.02138671            4 
 2645000   0.83988686   -7.6229644    689.09397  0.021710585  0.021380359            3 
 2646000   0.84330112   -7.6592882    687.75758  0.021660292  0.021373968            4 
 2647000   0.82677901   -7.6240169    689.44625  0.021705272  0.021367587            3 
 2648000   0.82056537   -7.6390152    687.88318  0.021647885  0.021361225            4 
 2649000   0.81373846   -7.6275583    691.69638   0.02175967  0.021354874            2 
 2650000   0.81919059   -7.5943413    691.16556  0.021734766  0.021348546            2 
 2651000   0.81916087   -7.6391064    689.86871  0.021685801  0.021342216            3 
 2652000   0.81981695   -7.6125553    690.23498  0.021689133  0.021335847            2 
 2653000   0.82693022   -7.6410305    690.93821  0.021703047  0.021329526            3 
 2654000   0.83358771   -7.6593904    689.53781  0.021650898  0.021323147            2 
 2655000   0.82685506   -7.6526556    688.45837  0.021608863  0.021316739            3 
 2656000   0.81616608   -7.6740373    688.65756  0.021606977  0.021310361            2 
 2657000   0.83454629   -7.6295092    690.59321  0.021659554  0.021303989            4 
 2658000   0.83304035    -7.642871    689.90829  0.021629931  0.021297702            3 
 2659000   0.83130575   -7.6506586    691.15354  0.021660823  0.021291361            2 
 2660000   0.81621774   -7.6365765    690.93623  0.021645872  0.021285057            3 
 2661000    0.8447682   -7.6230207    690.93636  0.021637742  0.021278797            2 
 2662000   0.82769359    -7.618353    693.03322  0.021695255   0.02127255            1 
 2663000   0.81365164    -7.637088    690.92437  0.021621116  0.021266256            2 
 2664000   0.81303146    -7.652418     689.9417   0.02158226  0.021259903            1 
 2665000   0.84201735   -7.6516033    690.52205  0.021592309   0.02125358            3 
 2666000   0.81845206   -7.6430184    690.41198   0.02158077  0.021247251            2 
 2667000   0.84032073   -7.6589152    688.62932  0.021516977   0.02124089            4 
 2668000   0.83135881   -7.6787068    689.62912   0.02154014    0.0212345            1 
 2669000   0.82668989   -7.6774331    688.88094  0.021508709  0.021228111            2 
 2670000   0.83491043   -7.6763363    689.43903  0.021518072   0.02122171            3 
 2671000   0.82049283   -7.6562592    690.99331  0.021558508  0.021215348            1 
 2672000   0.81832938   -7.6496683     691.2695  0.021559054  0.021208948            2 
 2673000   0.83159086   -7.6630022    691.56525  0.021560209  0.021202593            2 
 2674000   0.82062457    -7.654698    690.88734  0.021531019  0.021196231            2 
 2675000   0.82865822    -7.624794    689.98128  0.021494744  0.021189871            2 
 2676000   0.83566729   -7.6306007    690.77212  0.021511339  0.021183529            5 
 2677000   0.83578042   -7.6397319    690.63516   0.02149904  0.021177163            4 
 2678000   0.80673341   -7.6336335    690.68501  0.021492563   0.02117081            2 
 2679000   0.80625331   -7.6496819    690.63792  0.021483076  0.021164451            2 
 2680000   0.82165048   -7.6306183      690.081  0.021457743   0.02115807            2 
 2681000   0.81616547   -7.6203767    691.48868  0.021493494  0.021151747            5 
 2682000   0.81585079   -7.6052886    692.54453  0.021518286  0.021145455            5 
 2683000   0.81766148   -7.6356627    690.71213  0.021453352  0.021139168            4 
 2684000   0.83124937   -7.6634353     690.8761   0.02145045  0.021132848            2 
 2685000   0.79780771   -7.6697097    691.19177  0.021452258  0.021126493            3 
 2686000   0.81702511   -7.6552227      691.226  0.021445334  0.021120142            2 
 2687000   0.83488054   -7.6687415    691.68623  0.021451626  0.021113799            2 
 2688000   0.81216881    -7.670101    692.23701  0.021460721   0.02110749            2 
 2689000   0.80205969   -7.6545948    693.41247  0.021489168  0.021101196            4 
 2690000   0.80976681   -7.6762424    691.33275  0.021416752  0.021094886            2 
 2691000   0.82506344   -7.6542522    690.84221  0.021393602  0.021088584            4 
 2692000   0.84054169   -7.6708377    692.35896  0.021432608  0.021082271            3 
 2693000   0.82264227   -7.7108773    691.55381  0.021399734  0.021075966            2 
 2694000   0.82327143   -7.6706106    692.14781  0.021410165   0.02106966            2 
 2695000   0.83670017   -7.6614975     694.4498  0.021473401  0.021063346            2 
 2696000   0.81252837   -7.6615333    691.67927  0.021379799  0.021057079            4 
 2697000   0.80906366   -7.6519101    694.66549  0.021464142  0.021050815            4 
 2698000   0.82029005   -7.6386554    693.90877  0.021432813  0.021044568            8 
 2699000   0.82454494   -7.6346489     693.1602   0.02140176  0.021038319            1 
 2700000   0.80783059   -7.6276602    694.10813   0.02142309  0.021032049            4 
 2701000   0.80723721   -7.6602512     692.4095  0.021362752  0.021025774            2 
 2702000   0.80525387   -7.6878876    693.77379  0.021396922  0.021019502            5 
 2703000    0.8226981   -7.6543075    693.91966  0.021393503  0.021013193            1 
 2704000   0.81769605   -7.6658853    691.27048  0.021303947  0.021006861            2 
 2705000   0.80589271   -7.6386083    691.59932  0.021306202  0.021000511            2 
 2706000   0.82641325   -7.6789502    692.50578  0.021326244  0.020994213            6 
 2707000   0.81154212    -7.658438    693.28267  0.021342281  0.020987927            3 
 2708000    0.8309492    -7.646836    692.29251   0.02130393  0.020981615            4 
 2709000   0.81397027   -7.6932044    692.19592  0.021293095    0.0209753            2 
 2710000    0.8295721   -7.6790274    693.46959  0.021324403  0.020968961            2 
 2711000    0.8275249   -7.6614521    693.28064  0.021310729  0.020962653            2 
 2712000   0.79607075   -7.6482381    693.47003  0.021308691  0.020956373            3 
 2713000   0.81037158   -7.6349647    694.49236  0.021332239  0.020950103            3 
 2714000   0.80472264   -7.6669897    693.34253  0.021289073  0.020943852            2 
 2715000   0.82059263   -7.6782114    692.54054  0.021256616  0.020937572            3 
 2716000   0.80469477   -7.6736093    693.48279    0.0212777  0.020931265            2 
 2717000   0.82180305   -7.6682526    694.40449  0.021298138  0.020924991            5 
 2718000    0.8149082   -7.6476594    694.94421   0.02130685  0.020918732            3 
 2719000   0.83531277   -7.6663699    694.21718  0.021276731  0.020912462            1 
 2720000    0.8254731   -7.6631124    697.17535  0.021359539  0.020906197            2 
 2721000   0.81286735   -7.6453159    693.46743   0.02123813  0.020899898            2 
 2722000   0.81686089   -7.6618147    693.91691  0.021244089  0.020893629            3 
 2723000   0.81141263   -7.6773725    693.07121  0.021210406  0.020887341            2 
 2724000   0.82719023   -7.6677237    693.36414   0.02121158  0.020881029            3 
 2725000   0.81834902   -7.6446898    694.91152  0.021251117  0.020874747            5 
 2726000   0.82572478   -7.6772551    693.34942  0.021195568   0.02086846            2 
 2727000   0.81371633   -7.6508195    692.79486  0.021170849  0.020862166            4 
 2728000   0.82317991   -7.6977321     693.3237  0.021179243  0.020855878            1 
 2729000   0.82185811   -7.6553483    694.86354  0.021218503  0.020849601            3 
 2730000   0.81001682   -7.6692815    695.25246  0.021222602  0.020843347            2 
 2731000   0.82448042    -7.680753    692.09267  0.021118414  0.020837046            2 
 2732000   0.80474352   -7.6639745    694.77577  0.021192526  0.020830726            4 
 2733000   0.82588074   -7.6873703    692.13747  0.021104326  0.020824453            3 
 2734000   0.81660011    -7.678781    694.66593  0.021173675  0.020818194            5 
 2735000   0.80312372   -7.6880175     694.2887  0.021154439  0.020811917            5 
 2736000   0.80318145   -7.6769087    695.31225  0.021177883  0.020805655            2 
 2737000   0.82973738    -7.687144    693.39078  0.021111642  0.020799387            2 
 2738000   0.78628032   -7.6713121    693.66468  0.021112268  0.020793142            2 
 2739000   0.82833111   -7.6891968    695.59836  0.021163392   0.02078689            2 
 2740000   0.82222139   -7.6789169    694.58666  0.021124898  0.020780655            7 
 2741000   0.82187305    -7.656193    695.88465  0.021156653   0.02077444            2 
 2742000   0.81194015   -7.6604446    693.90868  0.021088885  0.020768236            3 
 2743000   0.81875915   -7.7014891     695.6373  0.021133713  0.020761998            4 
 2744000   0.80042317   -7.6983128    696.06558  0.021139018  0.020755765            1 
 2745000   0.83673993   -7.6547243     699.2659  0.021228473  0.020749558            3 
 2746000   0.80309454   -7.6673178    695.84444  0.021116911  0.020743322            2 
 2747000   0.79461194   -7.6647832    694.47679  0.021067734  0.020737127            3 
 2748000   0.80415923   -7.6897064    696.00976  0.021106555  0.020730877            2 
 2749000   0.81031689   -7.6926181    696.52288  0.021114432  0.020724613            3 
 2750000   0.81653954   -7.7063794    694.83654  0.021055653  0.020718369            2 
 2751000   0.81135527   -7.7018238    696.85695  0.021109201  0.020712117            3 
 2752000    0.8054719   -7.6887528    695.85863    0.0210713  0.020705874            3 
 2753000   0.81288541   -7.6466026    695.53529  0.021053859  0.020699643            2 
 2754000   0.81465805   -7.6686149    697.41209  0.021103004  0.020693401            2 
 2755000    0.8122377    -7.676619    695.82262  0.021047266  0.020687195            2 
 2756000   0.80545771    -7.673815    696.45249  0.021058675  0.020680989            2 
 2757000   0.81061601   -7.6882066    698.11674   0.02110134  0.020674806            2 
 2758000   0.80313846   -7.6447467    697.94839  0.021088603  0.020668619            2 
 2759000   0.82182799   -7.6893415    697.19801  0.021058294  0.020662442            6 
 2760000   0.80543204   -7.6938599    696.72304  0.021036324  0.020656233            2 
 2761000   0.81054327   -7.7153158    695.79583  0.021000719  0.020650015            2 
 2762000   0.80127314   -7.6533369    695.85656  0.020994948   0.02064376            3 
 2763000   0.80816256   -7.6600403    697.39491  0.021033747  0.020637534            4 
 2764000   0.80319988   -7.6873533    698.66719  0.021064496  0.020631296            2 
 2765000    0.8215969   -7.6759227    697.11137  0.021009987  0.020625043            4 
 2766000   0.78963946   -7.6815296    694.65811   0.02092848  0.020618767            8 
 2767000    0.7974975    -7.686565    695.08076  0.020933645  0.020612474            4 
 2768000   0.80297938   -7.6653719    697.50588  0.020999093  0.020606233            3 
 2769000   0.80459682   -7.6814954    697.91067  0.021003692  0.020599981            5 
 2770000   0.82177627   -7.6775989    696.62029  0.020957289   0.02059377            5 
 2771000   0.81320582    -7.713764     696.0117  0.020931424  0.020587521            3 
 2772000   0.80592649    -7.721438    696.29409  0.020932362  0.020581265            4 
 2773000   0.79030468    -7.715122    695.40841  0.020898197  0.020574982            2 
 2774000   0.79140085   -7.6927339    696.03238  0.020909408  0.020568735            5 
 2775000   0.79676535   -7.6838185    697.36729  0.020941961  0.020562477            4 
 2776000   0.78925892   -7.6763008    696.27435  0.020901608  0.020556205            4 
 2777000    0.8115676   -7.6862596     697.2824  0.020924331   0.02054994            5 
 2778000   0.80652211   -7.7008728    696.25154  0.020885875  0.020543735            6 
 2779000   0.81548929   -7.6762835    696.50125  0.020885848  0.020537529            2 
 2780000   0.80427283   -7.6873779    697.19876  0.020899243  0.020531298            4 
 2781000   0.81380871   -7.6837346    697.40786  0.020897994  0.020525053            3 
 2782000   0.80821432   -7.6870875      697.834  0.020903247   0.02051882            3 
 2783000   0.79674367   -7.6865387    698.77433  0.020923893  0.020512566            2 
 2784000   0.83445984     -7.68851    697.52199  0.020878891  0.020506292            2 
 2785000   0.80693502   -7.7056174    696.91519  0.020853237  0.020500011            3 
 2786000   0.78851536   -7.6781121    696.88982  0.020844993  0.020493716            2 
 2787000   0.79026901   -7.6995304    697.31734  0.020850297  0.020487453            2 
 2788000   0.79430766   -7.6915962    698.11033  0.020866521  0.020481192            3 
 2789000   0.81061872   -7.6833802     696.0879   0.02079861  0.020474917            1 
 2790000    0.8076779   -7.6948588    698.30281  0.020857312  0.020468637            7 
 2791000   0.81731216   -7.7299996    694.98355  0.020750733  0.020462329            3 
 2792000   0.80363332   -7.6963566    696.18729  0.020779229  0.020456018            5 
 2793000   0.80061757   -7.7021175    696.92828  0.020793898   0.02044973            3 
 2794000   0.80370235   -7.7105894    696.27496   0.02076697  0.020443461            2 
 2795000   0.81295044    -7.692095    696.71853  0.020772765  0.020437203            3 
 2796000   0.79977343   -7.6929464    696.88269  0.020770228  0.020430922            4 
 2797000   0.81091149   -7.6568228    699.51994  0.020841376  0.020424634            4 
 2798000   0.79196478   -7.6952552    696.89854  0.020755854  0.020418381            3 
 2799000   0.80366943   -7.6965451    699.93984  0.020838985  0.020412128            2 
 2800000   0.80799843   -7.7014803    697.10651  0.020747218  0.020405857            7 
 2801000   0.79389957   -7.6921856       696.44  0.020719981  0.020399603            6 
 2802000    0.8076902   -7.7174637    697.60106  0.020747117  0.020393365            3 
 2803000   0.81972194   -7.7030046    697.29559  0.020730634  0.020387102            1 
 2804000   0.79975365   -7.7023401    698.79681  0.020767856  0.020380847            2 
 2805000   0.81873374   -7.7003182    699.95641  0.020794902  0.020374624            3 
 2806000   0.80802628   -7.7426277    696.88024  0.020696135   0.02036836            2 
 2807000   0.80656521   -7.6851587    698.89675  0.020748627   0.02036208            3 
 2808000   0.80270617   -7.7390118    697.33747  0.020694963  0.020355821            6 
 2809000   0.80433577   -7.7209929    698.00259  0.020707327  0.020349507            3 
 2810000   0.79924862   -7.7125083    696.49199   0.02065516  0.020343207            4 
 2811000   0.79576563   -7.6887468    698.53764  0.020708456  0.020336934            2 
 2812000    0.7795668   -7.6992466    699.63679  0.020733665  0.020330693            4 
 2813000   0.81724936   -7.6669532     697.6915  0.020668666  0.020324472            3 
 2814000   0.80395089   -7.6974407    697.35811  0.020651448  0.020318242            2 
 2815000   0.80528124   -7.6951792    698.85666  0.020688474  0.020311991            3 
 2816000   0.80409283   -7.6912944    698.86838  0.020681474  0.020305737            2 
 2817000   0.79682812   -7.6831736    699.99745  0.020707533  0.020299487            2 
 2818000    0.7942267   -7.6955267    699.39855  0.020682474  0.020293231            5 
 2819000   0.79820416   -7.7366227    697.91338  0.020631234   0.02028696            3 
 2820000   0.82881903   -7.7247742     698.6181  0.020644743  0.020280698            2 
 2821000    0.7947206   -7.7093503    698.65301  0.020638456  0.020274469            3 
 2822000   0.80831562   -7.7064707    697.81666  0.020606445  0.020268248            3 
 2823000    0.7997068   -7.6767498    699.90955  0.020660927  0.020262042            2 
 2824000   0.80233527   -7.7179711     697.8929  0.020594101  0.020255789            5 
 2825000   0.81276792   -7.7001276    698.77102  0.020612714  0.020249568            2 
 2826000   0.80982783   -7.7378951    698.39782  0.020594415  0.020243323            4 
 2827000   0.80056727   -7.7284795    698.64941  0.020594547  0.020237046            2 
 2828000   0.79092037   -7.7234838    699.81805  0.020621701  0.020230789            2 
 2829000   0.78189117   -7.7375665    700.10978  0.020623005   0.02022453            2 
 2830000   0.83396507   -7.7212264    700.02501  0.020613222  0.020218276            3 
 2831000   0.78726331   -7.7219801    700.25964  0.020612847  0.020212072            4 
 2832000    0.8067715   -7.7038413    699.77669  0.020591358  0.020205856            3 
 2833000   0.79317634   -7.6958621    697.93076  0.020529791  0.020199651            8 
 2834000   0.79650681   -7.6766997    700.44481  0.020596472  0.020193432            2 
 2835000    0.7959669   -7.7455816    699.06131  0.020548539  0.020187208            2 
 2836000   0.78203132   -7.7184951    697.95884  0.020508899  0.020180963            2 
 2837000   0.78635671   -7.7216019     698.5946  0.020520344  0.020174706            2 
 2838000   0.80049327   -7.7179824    699.18307  0.020530393  0.020168438            3 
 2839000    0.7845286   -7.7039568    700.27703  0.020555273   0.02016223            5 
 2840000   0.79160412   -7.7179066    700.03013   0.02054079  0.020156017            2 
 2841000   0.79427279   -7.7072432     699.7557   0.02052551  0.020149805            2 
 2842000   0.80121715   -7.7019999    699.63912   0.02051487  0.020143611            1 
 2843000   0.78114051   -7.6978399    699.67312   0.02050865  0.020137414            2 
 2844000   0.79151195   -7.7218862    699.74982  0.020503687  0.020131198            7 
 2845000   0.78093957   -7.7141237    699.61109  0.020492416  0.020124958            1 
 2846000   0.79209222   -7.7408292    700.10051  0.020499547   0.02011872            6 
 2847000   0.77334305    -7.684562    700.89649  0.020515645  0.020112506            2 
 2848000    0.7860767   -7.7210821    700.41559   0.02049437  0.020106305            1 
 2849000    0.7957841   -7.7151614    700.68211  0.020494972  0.020100132            4 
 2850000   0.78908891   -7.7292552    700.69119  0.020488046  0.020093961            4 
 2851000   0.79185602   -7.7039093    700.77487  0.020483306  0.020087804            1 
 2852000   0.78155689   -7.7176406    701.75324  0.020504711  0.020081663            6 
 2853000   0.79459293   -7.7089791    701.15913  0.020480171  0.020075542            3 
 2854000   0.80009089   -7.7090341     699.0987  0.020412833  0.020069417            9 
 2855000   0.79920815   -7.7558422    700.83063  0.020456236  0.020063284            4 
 2856000   0.79633371   -7.6923927    703.04616  0.020513719  0.020057182            3 
 2857000   0.81037694   -7.7125802    703.38635  0.020516461  0.020051082            4 
 2858000   0.78532244   -7.7368308    703.04262   0.02049926  0.020044992            2 
 2859000   0.79080031     -7.75229    701.52425  0.020447833  0.020038878            3 
 2860000   0.78603998   -7.7736391    700.39792  0.020407865  0.020032755            3 
 2861000   0.80340678   -7.6870892     702.9477     0.020475  0.020026647            2 
 2862000   0.79638788   -7.7028739    701.30907  0.020420134  0.020020557            2 
 2863000   0.79204872   -7.7445614     701.8986  0.020430161  0.020014425            2 
 2864000   0.79507632   -7.7283746    702.93762  0.020453259  0.020008317            3 
 2865000   0.80156202   -7.7169593    703.54004  0.020463643  0.020002203            3 
 2866000   0.79064976    -7.712223    703.09268  0.020443495  0.019996139            3 
 2867000   0.78245519   -7.7338225    700.14201  0.020350599   0.01999004            4 
 2868000   0.79479487   -7.7218401    703.90398  0.020452812  0.019983906            4 
 2869000   0.80376046   -7.7468738    702.73907  0.020411847  0.019977802            7 
 2870000   0.80366743   -7.7584397    700.70061  0.020345546   0.01997167            3 
 2871000   0.78145052   -7.7274647    704.56557  0.020450644  0.019965588            2 
 2872000    0.8069739   -7.7413495     703.2982  0.020406749   0.01995955            3 
 2873000   0.79679239   -7.6918687    704.22084  0.020426408   0.01995352            4 
 2874000   0.81079994   -7.7343512    704.68562  0.020432777  0.019947455            2 
 2875000   0.79964784   -7.7141277    703.43206  0.020389335  0.019941377            5 
 2876000   0.79206522   -7.7163661    703.27922  0.020377817  0.019935301            4 
 2877000    0.7945701   -7.7406344    702.45226  0.020346781  0.019929221            3 
 2878000   0.80992944   -7.7297644    702.64835  0.020345389  0.019923132            4 
 2879000   0.78272024   -7.7251919     703.0905   0.02035112  0.019917078            2 
 2880000   0.79271977    -7.719918    702.73956  0.020333899  0.019911011            4 
 2881000   0.78040327   -7.7306145    704.07457  0.020365457  0.019904934            3 
 2882000   0.80539164   -7.7468543    703.20434  0.020333227  0.019898855            2 
 2883000   0.77994558   -7.7256878    702.89641  0.020317274   0.01989277            2 
 2884000   0.78832585   -7.7193246    702.73669  0.020305614  0.019886679            2 
 2885000   0.79388741   -7.7374278    703.94915  0.020333598  0.019880628            2 
 2886000   0.81047158   -7.7327275     703.5991  0.020316444  0.019874577            2 
 2887000   0.81631036   -7.7098065    704.48538   0.02033499  0.019868539            1 
 2888000   0.80805449   -7.7214268    703.62775  0.020303201  0.019862482            2 
 2889000   0.79827458   -7.7222019    701.96596  0.020248239    0.0198564            2 
 2890000   0.78837282   -7.7523032    702.55329  0.020258169  0.019850318            2 
 2891000     0.791448   -7.7179966    703.67118  0.020283385  0.019844244            3 
 2892000    0.7842528   -7.7274076    703.36476  0.020267542  0.019838167            3 
 2893000   0.76744621   -7.7229058    703.86709  0.020275005  0.019832128            3 
 2894000   0.79786138   -7.7277828    704.31924  0.020281019  0.019826077            3 
 2895000   0.78686759   -7.7493694    701.99825  0.020207204  0.019820015            3 
 2896000   0.79034798   -7.7293386    704.25853  0.020265266  0.019813979            2 
 2897000   0.78861857   -7.7531984    703.41291  0.020233946  0.019807964            2 
 2898000    0.7841537    -7.736312    703.46122  0.020228354  0.019801954            1 
 2899000   0.78225315   -7.7340871    703.04103  0.020209297  0.019795935            1 
 2900000   0.77578817   -7.7263739    705.41737  0.020270614  0.019789915            3 
 2901000   0.80777062   -7.7260333    704.08756  0.020225427  0.019783884            2 
 2902000   0.77929692   -7.7365547    705.90255  0.020270576  0.019777908            3 
 2903000   0.76504112    -7.746845    705.00934  0.020237953   0.01977188            3 
 2904000   0.79196609   -7.7387831    705.62031  0.020248517  0.019765873            3 
 2905000   0.78798724   -7.7452283    705.55823  0.020239766  0.019759859            4 
 2906000   0.77839615   -7.7233016    706.27712  0.020253416  0.019753844            3 
 2907000   0.78655776   -7.7466945    703.47693  0.020166177  0.019747843            4 
 2908000   0.79933718   -7.7352743    704.10035  0.020177108  0.019741831            3 
 2909000   0.80735607   -7.7727955    703.33825   0.02014834  0.019735807            5 
 2910000   0.76467754   -7.7165539    705.14954  0.020193286  0.019729788            3 
 2911000   0.76082759   -7.7255847    705.73212  0.020203027  0.019723776            1 
 2912000   0.78069359   -7.7488863    704.86841  0.020171372  0.019717789            3 
 2913000   0.79625693    -7.746217    703.76317  0.020132829  0.019711768            6 
 2914000   0.80096039   -7.7518408    706.24906   0.02019701  0.019705726            3 
 2915000   0.79675503   -7.7552668    704.20582   0.02013167  0.019699689            3 
 2916000   0.77091471   -7.7313903    705.53742  0.020162821  0.019693636            3 
 2917000   0.78415737   -7.7269808    706.06097  0.020170865  0.019687594            5 
 2918000   0.77663376   -7.7600468    704.71671  0.020125563  0.019681558            2 
 2919000   0.80422399   -7.7571313    704.79342  0.020120858  0.019675522            4 
 2920000   0.78488245   -7.7399077    705.35908  0.020130111  0.019669504            9 
 2921000   0.79087926   -7.7428719    704.46669   0.02009776  0.019663476            4 
 2922000   0.79101368   -7.7530858    704.97144  0.020105277   0.01965746            4 
 2923000   0.78153917   -7.7299241    704.51831   0.02008548  0.019651453            4 
 2924000   0.77603567   -7.7395756    706.32509  0.020130104  0.019645426            2 
 2925000   0.77090592    -7.760182    704.36976  0.020067514  0.019639378            2 
 2926000   0.77619254   -7.7382672    706.55774  0.020122971  0.019633363            4 
 2927000   0.78389471   -7.7432866    704.43252  0.020055589  0.019627346            2 
 2928000   0.77953155   -7.7640908    707.01941  0.020122365  0.019621352            2 
 2929000   0.79457835   -7.7381478    705.18587  0.020063329  0.019615364            2 
 2930000   0.77598696   -7.7559961    706.70231  0.020099611  0.019609358            2 
 2931000   0.78551978   -7.7725901    706.19326   0.02007828  0.019603338            3 
 2932000   0.76870908   -7.7241978    706.05816  0.020067592  0.019597352            1 
 2933000   0.78307377   -7.7625407    706.04228  0.020060299  0.019591352            3 
 2934000   0.76228882   -7.7769412    703.73467   0.01998792  0.019585329            2 
 2935000   0.77784029   -7.7544523    706.43946  0.020057906  0.019579316            4 
 2936000   0.78062215   -7.7327721    706.80645  0.020061491  0.019573334            5 
 2937000   0.77553911   -7.7568381    705.84118  0.020027272  0.019567361            2 
 2938000   0.77880161    -7.746597    707.26631  0.020060878  0.019561367            4 
 2939000   0.76811345   -7.7532293     706.8731  0.020042903   0.01955538            5 
 2940000   0.77159748   -7.7673507    704.83744  0.019978385  0.019549385            3 
 2941000   0.79082225   -7.7443681    705.04789  0.019977556  0.019543398            1 
 2942000   0.80005964   -7.7790687    704.85012  0.019965163  0.019537406            2 
 2943000   0.79854327   -7.7694246    706.79998  0.020013591  0.019531412            1 
 2944000   0.76535489   -7.7626681    704.55753  0.019943318  0.019525432            2 
 2945000   0.77530344   -7.7796588    703.75544  0.019913849  0.019519428            6 
 2946000   0.76824711   -7.7447475     705.9777  0.019969951  0.019513451            6 
 2947000   0.78889268   -7.7572385    707.83384  0.020015661  0.019507477            1 
 2948000   0.79700036    -7.749296     705.4237  0.019940742  0.019501541            2 
 2949000   0.79250294   -7.7773555    707.11636  0.019981812  0.019495582            3 
 2950000   0.78594298   -7.7680443    706.71476  0.019963694  0.019489628            3 
 2951000   0.78287283   -7.7752416    706.68848  0.019956187  0.019483674            3 
 2952000   0.77760871   -7.7378191    706.78422  0.019952129   0.01947769            7 
 2953000   0.78548704   -7.7354613    707.28294  0.019959446   0.01947169            2 
 2954000   0.78721999   -7.7610507    705.97707  0.019915851  0.019465707            6 
 2955000   0.77136596   -7.7862813    704.53149  0.019868344  0.019459711            6 
 2956000   0.78402457   -7.7400949    707.45973  0.019944174   0.01945372            3 
 2957000   0.77926643   -7.7661048    706.68379  0.019915562  0.019447742            2 
 2958000   0.78305354   -7.7473755     707.0794  0.019919974  0.019441747            4 
 2959000   0.77689165   -7.7609243    706.27751  0.019890659  0.019435773            6 
 2960000   0.77677706    -7.764314    707.28101  0.019912191  0.019429798            2 
 2961000   0.78039894   -7.7375744    708.56126  0.019941497  0.019423842            2 
 2962000   0.79266533   -7.7524687     708.6048  0.019935989  0.019417869            3 
 2963000   0.78156862   -7.7383189    707.92755  0.019910213  0.019411896            4 
 2964000   0.76236126   -7.7379817    706.49671  0.019863268  0.019405963            2 
 2965000   0.80268803   -7.7343285    707.50411  0.019884882  0.019400032            5 
 2966000    0.7676146   -7.7517509    706.97683  0.019863363  0.019394052            2 
 2967000   0.78653163    -7.748867    708.25753  0.019892639  0.019388098            3 
 2968000    0.7919247   -7.7599456    707.44952   0.01986325  0.019382147            5 
 2969000    0.7807682   -7.7577582    709.39372  0.019911129  0.019376202            2 
 2970000   0.76313155    -7.768172    705.39104  0.019792117  0.019370247            2 
 2971000   0.77736298   -7.7760525    707.62674  0.019848164  0.019364299            3 
 2972000    0.8131121   -7.7630691     706.2886  0.019803965   0.01935832            2 
 2973000   0.77693779   -7.7617977    706.51744  0.019803718  0.019352363            4 
 2974000   0.76750825   -7.7872126    707.06617  0.019812435  0.019346426            4 
 2975000   0.78010015   -7.7654917    707.20478  0.019809658  0.019340499            2 
 2976000   0.77947154   -7.7588175    710.00165  0.019881319  0.019334587            3 
 2977000   0.76438839   -7.7591473    709.52979  0.019861432  0.019328637            3 
 2978000   0.79308042   -7.7934013    706.47215  0.019769201  0.019322684            1 
 2979000   0.79125709   -7.7659074    706.63455  0.019767107  0.019316731            3 
 2980000   0.77774238   -7.7662706    706.66582  0.019761348  0.019310785            6 
 2981000   0.77645491   -7.8107831    707.14049  0.019767989  0.019304829            2 
 2982000   0.77421074   -7.7994535    706.89737  0.019754565  0.019298874            2 
 2983000   0.76609411   -7.7725336    708.76394  0.019800088   0.01929293            2 
 2984000   0.75499085   -7.7762471    709.22129  0.019806225  0.019287024            3 
 2985000   0.76399741   -7.7716849    710.12259  0.019824751  0.019281101            2 
 2986000    0.7687007   -7.7611721    709.80743  0.019809317   0.01927521            4 
 2987000   0.77532957    -7.738107    708.05745  0.019753863  0.019269356            6 
 2988000   0.78468922   -7.7731551    709.44515  0.019785953  0.019263483            1 
 2989000   0.78743912    -7.777303     708.0554  0.019740588  0.019257616            3 
 2990000   0.78784719   -7.7722345    709.07353  0.019762361  0.019251747            3 
 2991000   0.75606187   -7.7710167    708.84276  0.019749325  0.019245882            3 
 2992000   0.76323817   -7.7824979    708.79969  0.019741524  0.019240032            2 
 2993000   0.76746526   -7.7906226    708.68811  0.019731822  0.019234193            3 
 2994000   0.77267423   -7.7986652     708.8385  0.019729417  0.019228334            2 
 2995000   0.78119078   -7.7536259     711.3872  0.019793745  0.019222499            3 
 2996000    0.7745634   -7.7741633    709.78345   0.01974253  0.019216644            2 
 2997000   0.79169903   -7.7736724    712.20413  0.019803251  0.019210805            4 
 2998000   0.77316321   -7.7423857     710.5876  0.019751712  0.019204972            5 
 2999000   0.77977875   -7.7872362    708.48615  0.019686733  0.019199133            6 
 3000000   0.77479703   -7.7819499    708.99121    0.0196942  0.019193306            3 
 3001000    0.7689598   -7.7643701     709.0778  0.019690042  0.019187485            4 
 3002000   0.78594317   -7.7812993    710.69242  0.019728304  0.019181668            2 
 3003000   0.76036891   -7.7292023    710.99391  0.019730101  0.019175823            3 
 3004000    0.7741841   -7.7657416    710.66614   0.01971444  0.019170025            1 
 3005000   0.75273382   -7.7656841    709.96879  0.019688541  0.019164207            2 
 3006000   0.77706262   -7.7712896    710.20486  0.019688536  0.019158424            2 
 3007000   0.75682525   -7.7561694    709.88855  0.019673222   0.01915263            5 
 3008000   0.76823028   -7.7766918    709.39543  0.019653021  0.019146827            4 
 3009000    0.7690186   -7.7868336    709.61503  0.019652571  0.019140996            4 
 3010000   0.76676882   -7.7582566    711.78266  0.019706054  0.019135166            3 
 3011000   0.77196967   -7.7813498    710.14105  0.019654075  0.019129351            6 
 3012000   0.76785425   -7.7735038    712.26076  0.019706196  0.019123528            2 
 3013000   0.74010685   -7.7968288    709.01631  0.019609921  0.019117671            2 
 3014000   0.77388306   -7.7856058    710.34888  0.019640259  0.019111815            3 
 3015000   0.74590432   -7.7535817    711.32362  0.019660686  0.019105965            2 
 3016000   0.76319082   -7.8054648    710.38721  0.019628294   0.01910015            3 
 3017000   0.77171009   -7.7478636    711.00185  0.019638765  0.019094351            2 
 3018000   0.78416381   -7.7904635    710.63993  0.019622265  0.019088546            3 
 3019000   0.77642432   -7.7798888    711.09507  0.019628328   0.01908274            5 
 3020000   0.78817597   -7.7918862    710.58418  0.019607731  0.019076936            3 
 3021000   0.76625229   -7.7781727    711.47347  0.019625772  0.019071128            3 
 3022000   0.77605467   -7.7961912    710.96206  0.019605175  0.019065334            8 
 3023000   0.77107445   -7.7765704    711.07552  0.019601817  0.019059548            7 
 3024000   0.77822241   -7.7986534    711.62277  0.019610416   0.01905376            2 
 3025000   0.76432097   -7.7257263    711.58942  0.019603014  0.019047992            6 
 3026000   0.76633775   -7.7715041    711.96628  0.019606915  0.019042227            3 
 3027000   0.77133697   -7.7825795    710.86352  0.019570078  0.019036463            2 
 3028000   0.75717691   -7.7778711    711.06939  0.019569281  0.019030682            2 
 3029000   0.76055018   -7.8011995    711.91832  0.019586176   0.01902489            2 
 3030000     0.759713    -7.798479    711.84085  0.019577581  0.019019081            3 
 3031000   0.77096813   -7.7807619    711.95316   0.01957421  0.019013262            1 
 3032000   0.76638138   -7.7916257    711.31357  0.019550175   0.01900747            3 
 3033000   0.76452254   -7.7839578    710.27344  0.019515151  0.019001661            6 
 3034000   0.76788611   -7.8047025     711.2487  0.019535506  0.018995846            2 
 3035000   0.76544262   -7.7857559    712.08535  0.019552041  0.018990051            3 
 3036000    0.7801644   -7.7972195    709.71934  0.019480658  0.018984236            5 
 3037000   0.76960866   -7.7584127    712.18578  0.019541921  0.018978431            3 
 3038000   0.76981398   -7.7964944    710.62516  0.019492681  0.018972649            4 
 3039000   0.76131371   -7.7796285    710.98508  0.019496136  0.018966846            2 
 3040000   0.75661283   -7.8128428     711.2984  0.019498311  0.018961033            3 
 3041000   0.76600755   -7.7781188    710.38162  0.019466777  0.018955211            3 
 3042000   0.76584536   -7.7833818    709.52686  0.019436962  0.018949385            4 
 3043000   0.75255301   -7.7876456    711.06507  0.019472699  0.018943594            3 
 3044000   0.76586691   -7.7921969    711.19781  0.019469936  0.018937785            3 
 3045000   0.77110622    -7.790609    711.61443  0.019474943  0.018931977            3 
 3046000   0.74772015   -7.7915633    712.75016  0.019499621  0.018926166            4 
 3047000   0.76993364   -7.8098713    711.22047  0.019451386  0.018920361            4 
 3048000   0.78384935     -7.81341    712.13489  0.019470005   0.01891457            3 
 3049000   0.75970189   -7.7926979    712.00805  0.019460152  0.018908774            3 
 3050000   0.77068701   -7.7761568    711.98786   0.01945322  0.018902992            4 
 3051000   0.76384338   -7.7903719    712.20385  0.019452744  0.018897227            2 
 3052000   0.76204712   -7.7779919    711.58916  0.019429586  0.018891452            3 
 3053000    0.7671473   -7.8024787    712.25101  0.019441288  0.018885702            2 
 3054000   0.75942943   -7.7859682    712.70163  0.019447218  0.018879904            3 
 3055000   0.78478475    -7.787503    713.42242  0.019460513   0.01887414            3 
 3056000   0.76916526   -7.8105048    712.91576  0.019440329   0.01886836            3 
 3057000   0.77651476   -7.7640169    712.35552  0.019418698  0.018862584            3 
 3058000   0.77456884   -7.8004232    711.13174  0.019378999  0.018856814            7 
 3059000   0.76298509   -7.7963627    712.24738  0.019403056  0.018851045            4 
 3060000   0.76063395   -7.7946648     713.8278  0.019439755  0.018845282            3 
 3061000   0.75668577   -7.7866979    713.19638  0.019416214  0.018839529            3 
 3062000    0.7689549   -7.7853982    712.61681    0.0193941  0.018833774            3 
 3063000   0.75253615   -7.8003994     712.9276  0.019396224  0.018828011            7 
 3064000    0.7670179   -7.8252363    711.44005  0.019349436  0.018822247            3 
 3065000   0.77522843   -7.7670204    713.35677  0.019395236   0.01881651            2 
 3066000   0.76335651   -7.7943843    714.32537  0.019415236  0.018810823            3 
 3067000   0.75828049   -7.8115125    714.39169  0.019410708  0.018805097            5 
 3068000   0.76188832   -7.7995858    714.28633  0.019401519  0.018799353            3 
 3069000   0.74989605   -7.7801818    713.59398  0.019376398  0.018793611            1 
 3070000   0.74848928   -7.7943091    712.96713  0.019353071  0.018787867            3 
 3071000   0.75841396   -7.7850819     713.0801  0.019349834  0.018782125            3 
 3072000   0.76763462   -7.8170154    712.44566  0.019326326  0.018776372            2 
 3073000   0.76689212   -7.7774596    712.37041  0.019317996  0.018770643            2 
 3074000   0.74566856   -7.7966656    712.65745  0.019319493  0.018764923            4 
 3075000   0.75144732   -7.8105958     712.7639  0.019316095  0.018759198            3 
 3076000   0.76005649   -7.7883074    712.25203  0.019295948  0.018753453            3 
 3077000   0.77324756   -7.7854894    714.11042  0.019340007   0.01874772            3 
 3078000    0.7544242   -7.7987613    714.92603  0.019355805  0.018741994            3 
 3079000    0.7407996   -7.7953061    712.54322  0.019285028  0.018736261            2 
 3080000   0.75942951   -7.8278461    713.15678  0.019295367  0.018730512            4 
 3081000   0.76643571    -7.840587    710.80881  0.019225598  0.018724765            3 
 3082000   0.75721647   -7.8090075    713.13782  0.019282334  0.018719032            2 
 3083000   0.76252863   -7.8088287    714.74523  0.019319527  0.018713324            4 
 3084000   0.76880363   -7.8028116    713.94998  0.019291774  0.018707609            5 
 3085000   0.75874513   -7.8297142    713.72935  0.019279561  0.018701911            3 
 3086000   0.75491802     -7.82049    714.74704  0.019300795  0.018696221            4 
 3087000   0.75551122   -7.7966629    713.95299  0.019273107  0.018690541            4 
 3088000   0.77006094   -7.8268207    711.90353  0.019211559  0.018684857            4 
 3089000   0.74613614   -7.7960023    715.19598  0.019294161  0.018679189            4 
 3090000   0.77428402   -7.8113073    716.43926  0.019321447  0.018673533            4 
 3091000    0.7552769   -7.8213515    714.65938  0.019267211  0.018667859            4 
 3092000   0.76424337   -7.8232392    716.00201  0.019297165  0.018662159            3 
 3093000    0.7498694   -7.8218372    715.37574  0.019274053   0.01865649            5 
 3094000   0.74415472   -7.7930954     715.0781  0.019259807  0.018650822            3 
 3095000   0.76883935   -7.8052314    713.53515   0.01921204  0.018645138            2 
 3096000   0.76362839    -7.814324    715.50241  0.019258786  0.018639438            4 
 3097000   0.76729694   -7.7939801    715.46193  0.019251478  0.018633782            4 
 3098000   0.75504943   -7.7818099    715.13674  0.019236517   0.01862812            1 
 3099000   0.76147044   -7.8226475    715.48308  0.019239623  0.018622442            4 
 3100000   0.76952373   -7.8109821    715.30238  0.019228559  0.018616775            2 
 3101000   0.75764256   -7.7983927    714.14223  0.019191181  0.018611071            2 
 3102000   0.77085105   -7.8006544    715.09168  0.019210501  0.018605395            4 
 3103000   0.74635558    -7.782465    713.90949  0.019172561  0.018599709            1 
 3104000   0.76632492   -7.8016244    716.18159  0.019227384  0.018594033            2 
 3105000   0.76908421   -7.7932539     714.7651  0.019183175  0.018588353            2 
 3106000   0.75972436    -7.835016    715.07525   0.01918532  0.018582673            4 
 3107000   0.75300188   -7.8273499    714.39424   0.01916088  0.018576968            5 
 3108000   0.74427441   -7.8013944    715.29068  0.019178751  0.018571254            6 
 3109000    0.7443323   -7.8231435    714.56158  0.019153039  0.018565568            5 
 3110000   0.74747289   -7.8247067    714.62982  0.019148709  0.018559862            3 
 3111000   0.74928253   -7.8173437    716.26028  0.019186228  0.018554163            6 
 3112000   0.74194607   -7.8346716    713.89702   0.01911678  0.018548438            6 
 3113000   0.74224959   -7.8169628    714.90525  0.019137629  0.018542709            9 
 3114000   0.75871144   -7.8370543    713.16068  0.019084797  0.018536987            5 
 3115000    0.7543435   -7.8289814    715.17765  0.019132628  0.018531273            7 
 3116000   0.75281434    -7.859698    714.02212  0.019095585  0.018525566            3 
 3117000   0.74532441   -7.8298201    714.31764   0.01909736  0.018519856            3 
 3118000   0.74293935   -7.8238068    715.09486  0.019112007  0.018514179            4 
 3119000   0.76228937   -7.8120031    715.05226  0.019104741  0.018508492            2 
 3120000   0.74556255   -7.8287587     715.2338  0.019103467  0.018502798            5 
 3121000    0.7455402   -7.8046315    714.83442  0.019086682  0.018497122            2 
 3122000   0.74674471   -7.8290147    714.69851  0.019076941  0.018491454            3 
 3123000   0.73217046   -7.8129189    714.27189  0.019059449  0.018485786            2 
 3124000   0.76643703    -7.803786    715.04611     0.019074  0.018480135            7 
 3125000   0.74631795    -7.791827    715.51694  0.019080452  0.018474481            2 
 3126000   0.77076673   -7.8282489    716.30082  0.019095245  0.018468864            2 
 3127000   0.76059777   -7.8222639    715.15619  0.019058634  0.018463231            5 
 3128000   0.76687226   -7.8235443    715.19127  0.019053476  0.018457568            4 
 3129000   0.75225725   -7.8269937    714.86567  0.019038715  0.018451919            5 
 3130000   0.73811923   -7.8152725    717.34889  0.019098746  0.018446266            2 
 3131000   0.75144851   -7.8093552    715.08082   0.01903228  0.018440613            2 
 3132000   0.75498228   -7.8259109    717.02683  0.019077981  0.018434966            4 
 3133000   0.74621455   -7.8273239    716.93537  0.019069459  0.018429326            5 
 3134000   0.75232295   -7.8376719    716.08999  0.019040895  0.018423699            2 
 3135000   0.74397183   -7.8182674    716.63553  0.019049323  0.018418047            8 
 3136000   0.73204635   -7.8421282     716.4434  0.019038143  0.018412399            4 
 3137000   0.75535285   -7.8322174    714.31635   0.01897557  0.018406751            2 
 3138000   0.74109234    -7.823116    717.19248  0.019045902  0.018401112            2 
 3139000   0.75190352   -7.8051037    715.55764  0.018996433  0.018395485            2 
 3140000   0.74343728    -7.869777    715.93876  0.019000498  0.018389844            2 
 3141000   0.74018744   -7.8377866    714.29704  0.018950892  0.018384176            4 
 3142000   0.75630705   -7.8159563    716.65056  0.019007282  0.018378522            2 
 3143000   0.75882894   -7.8124975    717.25673  0.019017307  0.018372908            1 
 3144000   0.74982742    -7.820661    716.51409  0.018991574  0.018367261            4 
 3145000    0.7507168   -7.8440184    716.23521  0.018978145  0.018361597            1 
 3146000   0.74185796   -7.8171284    717.64541  0.019009467  0.018355947            3 
 3147000   0.74639474   -7.8909586    714.75293  0.018926833  0.018350297            5 
 3148000   0.72191627   -7.8124522    717.13014   0.01898375  0.018344671            4 
 3149000   0.73228273   -7.8426344    715.98251  0.018947351  0.018339064            4 
 3150000   0.74625681   -7.8409144    716.29992  0.018949733  0.018333454            3 
 3151000   0.73770449   -7.8277239    716.48847  0.018948706  0.018327847            3 
 3152000    0.7636823   -7.8379118    716.52789  0.018943737  0.018322221            2 
 3153000   0.74358421   -7.8606705    715.45363  0.018909336   0.01831656            3 
 3154000   0.74155621   -7.8874393    713.92876  0.018863051  0.018310907            3 
 3155000   0.73807254   -7.8659913    716.38529  0.018921957  0.018305245            2 
 3156000   0.74285778   -7.8550558    715.86189  0.018902141  0.018299601            4 
 3157000   0.75791258   -7.8418921    716.90073  0.018923575  0.018293967            2 
 3158000   0.74614207   -7.8426343    717.45857  0.018932304  0.018288341            2 
 3159000   0.72937399   -7.8399529    716.83709  0.018909916  0.018282714            4 
 3160000   0.73132586   -7.8277401    716.65137  0.018899034  0.018277099            7 
 3161000   0.74391847   -7.8346278    715.68431  0.018867561  0.018271502            3 
 3162000    0.7555915   -7.8431916    717.43578  0.018907753  0.018265897           11 
 3163000   0.76300482   -7.8314887    717.48614  0.018903102  0.018260304            5 
 3164000    0.7311855   -7.8267571    717.49316  0.018897312  0.018254711            2 
 3165000   0.75191132   -7.8297077    717.38187  0.018888412  0.018249089            3 
 3166000   0.75571881   -7.8309107    715.58089  0.018835041  0.018243476            5 
 3167000   0.74373635   -7.8293413     717.1814  0.018871208  0.018237878            6 
 3168000   0.74576148   -7.8320962    716.31519  0.018842466  0.018232284            2 
 3169000   0.74322221   -7.8569773    716.40583  0.018838904  0.018226696            4 
 3170000    0.7527249   -7.8433549    716.32963  0.018830958  0.018221088            6 
 3171000   0.73993742   -7.8179717    716.45921  0.018828424  0.018215468            4 
 3172000    0.7256543   -7.8076362    718.42336   0.01887409  0.018209854            2 
 3173000   0.74638882   -7.8713112    715.62722  0.018794706  0.018204265            2 
 3174000   0.72655128   -7.8575606    714.71069  0.018764721  0.018198656            1 
 3175000   0.73362357   -7.8362185    717.33692  0.018827741  0.018193047            1 
 3176000   0.73451055   -7.8484146    715.49756  0.018773551  0.018187441            3 
 3177000   0.73610324   -7.8494931    717.93539  0.018831586  0.018181841            5 
 3178000   0.74383088   -7.8603308    717.84297  0.018823237   0.01817625            4 
 3179000   0.73308852   -7.8392578    717.97639  0.018820813  0.018170662            4 
 3180000   0.75133429   -7.8593174    718.52979  0.018829397  0.018165102            1 
 3181000   0.73776357   -7.8280339    718.45972  0.018821642  0.018159537            3 
 3182000   0.73743924   -7.8493832    718.22154  0.018809489  0.018153972            5 
 3183000   0.75469457   -7.8682479    716.89514  0.018768854  0.018148417            4 
 3184000   0.73683139   -7.8336772    718.71659  0.018810631  0.018142856            3 
 3185000   0.74249548   -7.8389076    717.59606  0.018775407  0.018137325            4 
 3186000   0.75372523   -7.8390369    718.04682  0.018781304   0.01813179            2 
 3187000   0.74981141   -7.8314748    718.29155   0.01878181  0.018126272            3 
 3188000    0.7357224   -7.8353084    717.43992  0.018753657   0.01812076            2 
 3189000   0.73788243   -7.8093609    718.79203  0.018783109   0.01811523            2 
 3190000   0.72705432   -7.8555039    718.87501  0.018779389  0.018109686            7 
 3191000   0.75188453   -7.8575314    716.17773  0.018703064  0.018104139            3 
 3192000   0.75580628   -7.8337409    719.09192  0.018773285  0.018098596            5 
 3193000    0.7410784   -7.8644449    718.69134  0.018756951  0.018093053            4 
 3194000   0.74895771   -7.8362207    717.86583   0.01872954   0.01808752            4 
 3195000   0.74493955   -7.8376288     717.9221  0.018725146   0.01808199            7 
 3196000   0.74863746   -7.8705957    717.85775  0.018717609  0.018076431            5 
 3197000   0.74506722   -7.8707774    716.82897  0.018684938  0.018070857            7 
 3198000   0.72700177   -7.8632799    718.44055   0.01872109  0.018065274            3 
 3199000   0.73578035   -7.8581583    717.28517   0.01868514  0.018059705            5 
 3200000   0.73558702   -7.8577394    716.37659   0.01865564   0.01805415            2 
 3201000    0.7492057   -7.8709784    717.18651  0.018670897  0.018048583            3 
 3202000   0.73190295   -7.8493394    718.05016  0.018687543  0.018043023            3 
 3203000   0.74068376   -7.8714934    717.65982  0.018671553  0.018037476            4 
 3204000   0.73461977   -7.8676367    717.96982  0.018673789  0.018031933            3 
 3205000   0.72821254   -7.8575396    717.28644  0.018650193  0.018026396            5 
 3206000   0.73675865   -7.8678078    716.97307  0.018636231  0.018020847            2 
 3207000   0.72078055    -7.864977    717.89057  0.018654261  0.018015288            2 
 3208000   0.74939132   -7.8250161    719.04809  0.018678514  0.018009757            5 
 3209000   0.73836086   -7.8485362    719.50124  0.018684461  0.018004233            3 
 3210000   0.74489889   -7.8789971    717.09696  0.018616224  0.017998703            3 
 3211000    0.7396431   -7.8241984    719.25783  0.018666506   0.01799317            4 
 3212000   0.72333501   -7.8682537    717.58193  0.018617215   0.01798764            2 
 3213000   0.74962781   -7.8377157    717.69404  0.018614328  0.017982101            5 
 3214000   0.72622904   -7.8541755    719.22024  0.018648108  0.017976557            2 
 3215000   0.73841253   -7.8748459    717.61485  0.018600696  0.017971011            4 
 3216000   0.72380815   -7.8604224    717.52722  0.018592641  0.017965457            3 
 3217000   0.73867655   -7.8335155    720.37582  0.018660652  0.017959933            5 
 3218000   0.74993361   -7.8698252    719.08272  0.018621367    0.0179544            2 
 3219000   0.73490267   -7.8798955    719.22992  0.018619393  0.017948883            3 
 3220000    0.7735409   -7.8518406    720.74932  0.018652933  0.017943392            3 
 3221000   0.73864094   -7.8576617    720.08675      0.01863  0.017937885            4 
 3222000   0.75228166   -7.8509678    719.41586  0.018606866  0.017932367            3 
 3223000   0.73584039    -7.880835    717.89674  0.018561815  0.017926832            8 
 3224000    0.7357387   -7.8596337    718.24434  0.018565042  0.017921305            2 
 3225000   0.73522046   -7.8527048    719.27712  0.018585972  0.017915795            2 
 3226000   0.73691678   -7.8575971    718.34841  0.018556221  0.017910274            2 
 3227000   0.72659714    -7.867896    718.08802  0.018543746  0.017904758            5 
 3228000    0.7211368   -7.8495172    719.12255  0.018564708  0.017899235            1 
 3229000   0.72599961   -7.8680457    719.28029   0.01856303  0.017893736            3 
 3230000   0.74487336   -7.8398707    719.44152  0.018561443  0.017888229            3 
 3231000   0.71954209   -7.8475358    718.78514  0.018538769  0.017882723            3 
 3232000   0.72780695   -7.8417401    719.12199  0.018541718  0.017877202            3 
 3233000   0.73409851   -7.8463911    720.57066  0.018573324  0.017871714            3 
 3234000   0.73521552   -7.8519955    718.23391  0.018507367  0.017866224            3 
 3235000   0.72673243   -7.8366392    719.34399  0.018530242  0.017860727            2 
 3236000   0.72898972   -7.8663998    718.45593  0.018501646  0.017855219            2 
 3237000   0.73432926   -7.8618796    718.23052  0.018490128   0.01784969            6 
 3238000   0.74352382    -7.874739    718.39595  0.018488675  0.017844154            5 
 3239000   0.71615235   -7.8639447    717.10874  0.018449849  0.017838644            5 
 3240000   0.73479169   -7.8898705    720.17929   0.01852313  0.017833129            3 
 3241000   0.73779372   -7.8888415    718.78908  0.018481669  0.017827618            2 
 3242000    0.7317113   -7.8572276     720.1465   0.01851086  0.017822136            4 
 3243000    0.7481037   -7.8718946    718.05726  0.018451466  0.017816662            4 
 3244000   0.73285752   -7.8571244      718.097  0.018446799  0.017811176            3 
 3245000   0.73487335   -7.8824201    719.29554  0.018471894  0.017805702            2 
 3246000   0.73471909   -7.8507794     720.2711  0.018491248  0.017800235            7 
 3247000   0.73314412   -7.8798585    718.57634  0.018442058   0.01779475            2 
 3248000   0.74125314   -7.8685472     719.6351  0.018463544  0.017789259            4 
 3249000   0.74408665   -7.8699977    717.65434  0.018407057  0.017783753            5 
 3250000   0.72571749   -7.8628182    719.93509  0.018459874   0.01777826            9 
 3251000   0.72887863   -7.8807604    719.89901  0.018453271  0.017772779            4 
 3252000   0.72223111   -7.8766527    719.81076  0.018445335  0.017767294            5 
 3253000   0.72705953   -7.8824752    718.76323   0.01841283  0.017761809            6 
 3254000   0.74227021   -7.8719961    719.91667  0.018436711  0.017756305            1 
 3255000   0.73344895   -7.8621477    719.18251  0.018412251  0.017750819            3 
 3256000   0.74446032   -7.8590581     720.1826  0.018432192   0.01774532            5 
 3257000   0.71677955   -7.8692312    720.45076  0.018433394   0.01773983            1 
 3258000   0.73853559   -7.8758631    719.75538  0.018409949  0.017734339            4 
 3259000    0.7295074    -7.882411    719.08834  0.018387244  0.017728857            4 
 3260000    0.7357672   -7.8524447    720.11308  0.018407799  0.017723387            2 
 3261000   0.73217718   -7.8886243    719.19395  0.018378666  0.017717917            4 
 3262000   0.72831567   -7.8466745    720.76806  0.018413245  0.017712433            4 
 3263000   0.74495823   -7.8758433    720.27238  0.018394943  0.017706961            4 
 3264000   0.72846927   -7.8828345    718.38867  0.018341214  0.017701489            6 
 3265000   0.71880388   -7.9053576    720.06887  0.018378481  0.017696012            3 
 3266000   0.72754796   -7.9075432    719.05423  0.018346964  0.017690538            2 
 3267000   0.73208689   -7.8965377    720.45659  0.018377119  0.017685068            2 
 3268000   0.72266136    -7.887813     719.1037  0.018336998  0.017679614            1 
 3269000   0.72103364   -7.8827131    720.29397  0.018361731  0.017674152            6 
 3270000   0.72532812   -7.8897898    720.01765  0.018349074  0.017668701            3 
 3271000    0.7414031   -7.8302234    721.32845  0.018376858   0.01766327            2 
 3272000   0.75280699   -7.8478739    719.70283   0.01832984   0.01765785            3 
 3273000   0.73000747   -7.8756707    720.32961  0.018340198  0.017652407            3 
 3274000   0.72233747   -7.8766241    720.39809  0.018336339  0.017646966            1 
 3275000   0.72890083   -7.8629316    720.12093  0.018323688  0.017641501            4 
 3276000   0.73143141   -7.8835528    720.51443  0.018328104  0.017636048            2 
 3277000   0.72046417   -7.8846591    719.99341  0.018309262   0.01763059            3 
 3278000   0.73093421   -7.8747675    720.69643  0.018321548  0.017625139            3 
 3279000   0.71919425   -7.8971575    718.42831  0.018258318  0.017619662            5 
 3280000   0.70666317   -7.9043612    719.59273  0.018282336  0.017614164            5 
 3281000   0.72664303   -7.9011249    719.43702  0.018272808  0.017608686            5 
 3282000   0.72551847   -7.8886096    720.20843  0.018286828  0.017603206            4 
 3283000   0.73546538   -7.9262733    719.45329   0.01826209  0.017597724            3 
 3284000    0.7125644   -7.8828347    720.21736  0.018275918  0.017592255            1 
 3285000   0.70755461   -7.8897582    721.59222  0.018305231  0.017586825            2 
 3286000   0.72427684   -7.8959682     719.8575  0.018255668  0.017581377            4 
 3287000   0.72302686   -7.8795467    720.18695  0.018258466  0.017575939            2 
 3288000    0.7245817   -7.8914845    720.32318  0.018256366  0.017570506            3 
 3289000   0.72997062    -7.859916    721.92177  0.018291319  0.017565088            3 
 3290000    0.7186203   -7.8723799    719.94347   0.01823565  0.017559674            2 
 3291000   0.71171151   -7.8956989    720.69087  0.018249034  0.017554249            2 
 3292000   0.73349891   -7.8931357    720.15522  0.018229932  0.017548836            2 
 3293000   0.72532046   -7.8793883    719.99073  0.018220233  0.017543444            5 
 3294000   0.72547781   -7.9032769      720.382    0.0182246  0.017538041            2 
 3295000    0.7348455   -7.8795692    720.19535  0.018214349  0.017532633            5 
 3296000   0.72649516   -7.8510082    721.68701  0.018246536  0.017527248            2 
 3297000   0.72739902   -7.8590905    722.19412   0.01825382  0.017521883            3 
 3298000   0.72562393   -7.8733157    722.19392   0.01824828  0.017516509            2 
 3299000   0.72523757    -7.882791    723.08692  0.018265306  0.017511111            2 
 3300000   0.72474169   -7.8678309    720.08053  0.018183852  0.017505711            2 
 3301000    0.7272616   -7.8798677     721.6061  0.018216856  0.017500313            3 
 3302000   0.70610816   -7.8779669    722.14164  0.018224855  0.017494909            2 
 3303000   0.72667828   -7.8797969    721.51579  0.018203547  0.017489499            1 
 3304000   0.71120402   -7.8772553    721.12308  0.018188133  0.017484104            3 
 3305000   0.72668444   -7.9053038    721.63873  0.018195631  0.017478723            2 
 3306000   0.72928995   -7.8922645    720.96983  0.018173266  0.017473313            4 
 3307000   0.70517012   -7.9118989    720.59698  0.018158376   0.01746791            5 
 3308000   0.73671403   -7.8860519    720.08999  0.018140115  0.017462489            4 
 3309000    0.7297275   -7.9156541    721.27539  0.018164485  0.017457054            3 
 3310000   0.73614283   -7.9171092    720.45464  0.018138334  0.017451631            2 
 3311000    0.7183622   -7.9160065    721.29698  0.018154057  0.017446218            2 
 3312000   0.71979479   -7.8752311    721.75087  0.018159996  0.017440834            2 
 3313000    0.7161281   -7.8611636    723.26206  0.018192526  0.017435464            5 
 3314000   0.73502782   -7.8782061    722.89531  0.018177814  0.017430082            4 
 3315000   0.71460482   -7.9024885    720.13984  0.018103063  0.017424689            6 
 3316000   0.73190548   -7.9103037    720.52801  0.018107358  0.017419297            2 
 3317000   0.72702512   -7.8873628    721.26848  0.018120503  0.017413884            2 
 3318000   0.71279981    -7.873047    722.94248  0.018157085  0.017408464            4 
 3319000   0.73354059   -7.9098637    721.54793    0.0181166  0.017403048            3 
 3320000   0.70503417     -7.88482    719.32839  0.018055431  0.017397623            2 
 3321000   0.72913732   -7.8781186    721.00257  0.018092005  0.017392195            3 
 3322000   0.71736301   -7.8868733    720.13273  0.018064738  0.017386795            2 
 3323000   0.72411889   -7.9125235    720.14578  0.018059629  0.017381384           10 
 3324000   0.72157934   -7.9066576    718.90879  0.018023185  0.017375968            2 
 3325000   0.71303678   -7.8800132    720.65288  0.018061476  0.017370559            4 
 3326000   0.72815532   -7.9136661    719.94067  0.018038201  0.017365135            2 
 3327000    0.7039863   -7.9295114    719.81219  0.018029561  0.017359709            2 
 3328000   0.72986665   -7.9005543    721.30772  0.018061592  0.017354297            2 
 3329000   0.71399627   -7.9046854    720.33953   0.01803193  0.017348876            3 
 3330000    0.7186688   -7.9089727    719.94671  0.018016685  0.017343467            6 
 3331000   0.72129381   -7.9299565    720.57939  0.018027104  0.017338045            4 
 3332000   0.73582626   -7.8907849    721.09785   0.01803466  0.017332629            7 
 3333000   0.72192965   -7.8892589    721.45356  0.018038143   0.01732722            5 
 3334000   0.71160053   -7.8825459    721.09015  0.018023649  0.017321811            3 
 3335000   0.71410211   -7.9361412    720.79101   0.01801077  0.017316393            3 
 3336000    0.6990199   -7.9116453    721.30781  0.018018281  0.017310983           10 
 3337000   0.71903359   -7.9108584    722.14891  0.018033886  0.017305583            4 
 3338000   0.70671033    -7.903585    721.41466  0.018010152  0.017300194            4 
 3339000   0.72673215   -7.9039984    721.55845  0.018008347  0.017294819            3 
 3340000   0.71026017   -7.8973359    721.43534  0.017999884  0.017289441            4 
 3341000   0.72316444   -7.9028342    721.45103  0.017994887   0.01728406            3 
 3342000   0.72191879   -7.8834583    722.75293  0.018021966   0.01727869            6 
 3343000     0.707122   -7.8941436    722.27923  0.018004767  0.017273302            1 
 3344000   0.72743286   -7.8923987    723.16036  0.018021341   0.01726791            3 
 3345000   0.71710237    -7.906517    720.28265  0.017944261   0.01726253            5 
 3346000   0.70756549   -7.8745476    721.50859  0.017969431  0.017257134            2 
 3347000   0.72510193   -7.9103639     722.8822  0.017998262  0.017251769            2 
 3348000   0.71656489   -7.9026508    721.49224  0.017958289  0.017246387            2 
 3349000   0.70999815   -7.8968201    721.47715  0.017952552  0.017241005            4 
 3350000   0.71705153   -7.9213748    720.22647  0.017916081  0.017235629            2 
 3351000   0.71440942   -7.9146833    721.87318  0.017951685  0.017230254            4 
 3352000   0.73522414    -7.938175    720.53181  0.017912983  0.017224871            5 
 3353000   0.72223737   -7.9048973    721.03447  0.017920133  0.017219486            8 
 3354000   0.72781554   -7.8846378    722.71389  0.017956517  0.017214114            1 
 3355000   0.71209357   -7.9356039    718.68623  0.017851123  0.017208714            5 
 3356000   0.71025712    -7.906316    719.33931  0.017862021  0.017203322            3 
 3357000   0.71564749   -7.9191837    721.71224  0.017915605  0.017197913            5 
 3358000    0.7032408   -7.9129337    720.80709  0.017887807   0.01719252            3 
 3359000   0.71506327   -7.9297424    720.01603  0.017862857  0.017187126            5 
 3360000   0.72666599    -7.924553     719.5905  0.017846987  0.017181722            2 
 3361000   0.70028019   -7.9423397    719.81085   0.01784714  0.017176331            2 
 3362000   0.73269785   -7.9389001    721.85649  0.017892536  0.017170929            5 
 3363000   0.71752605   -7.9284401    721.72647  0.017883994  0.017165549            2 
 3364000    0.7325712   -7.9304009    721.13346  0.017863988  0.017160173            5 
 3365000   0.72575448   -7.9342846    720.86792  0.017852103  0.017154792            4 
 3366000   0.71957633   -7.9541945    720.38669  0.017834885  0.017149416            6 
 3367000   0.71217801   -7.9138059    721.82819  0.017865265  0.017144035            7 
 3368000   0.71550592   -7.9425596    720.32234  0.017822702  0.017138677           10 
 3369000   0.73647282    -7.898383    721.95276  0.017857741  0.017133314            2 
 3370000   0.69999273   -7.9198199     721.2505  0.017835077  0.017127956            3 
 3371000   0.71408814   -7.9232765    721.58472  0.017838048  0.017122601            2 
 3372000   0.69869779   -7.8960609     722.0851  0.017845124  0.017117245            4 
 3373000   0.72412322   -7.9175017    721.38704  0.017822587  0.017111899            2 
 3374000   0.71077482   -7.9366699    720.60777  0.017798058  0.017106543            5 
 3375000   0.70154836   -7.9278226     722.8638  0.017848489  0.017101198            4 
 3376000   0.71106321   -7.9073692    722.42253   0.01783231  0.017095846            2 
 3377000   0.71694817   -7.9284713    721.81659  0.017812077  0.017090489            3 
 3378000   0.71330735   -7.9318777     721.8232  0.017806967  0.017085148            3 
 3379000   0.71568175   -7.8975921     722.2154  0.017811369  0.017079801            4 
 3380000   0.71686281   -7.9360888    721.42191  0.017786536  0.017074451            3 
 3381000   0.69418166   -7.9382287    722.04392  0.017796606  0.017069092            3 
 3382000   0.71274607   -7.9693613    721.66318  0.017781963  0.017063723            3 
 3383000   0.71363269   -7.9488739     720.9504  0.017759149  0.017058358            2 
 3384000   0.70663461   -7.9569622    721.43138  0.017765745  0.017052984            2 
 3385000   0.69858565   -7.9325538    720.66673  0.017741672  0.017047611            1 
 3386000   0.71343545    -7.944554     721.8079  0.017764518  0.017042229            5 
 3387000   0.71387517   -7.9291485    721.43771  0.017750165  0.017036856            3 
 3388000   0.70075522   -7.9291122    722.44042  0.017769589  0.017031488            2 
 3389000   0.71327839   -7.9539149     720.6214  0.017719617  0.017026149            3 
 3390000   0.71141354    -7.964494    722.70831  0.017765691  0.017020801            3 
 3391000    0.7050885   -7.9151878    722.22638  0.017748609  0.017015447            3 
 3392000   0.70835299   -7.9319815    721.82724   0.01773357  0.017010127            6 
 3393000   0.72267201   -7.9554387    721.56432  0.017721886  0.017004795            4 
 3394000   0.69743794   -7.9306948    722.41432  0.017737535  0.016999461            4 
 3395000   0.70856612   -7.9354777    722.12214  0.017725139  0.016994121            2 
 3396000   0.71010815     -7.90242     721.5847  0.017706731  0.016988775            6 
 3397000   0.72714327   -7.9543313    721.41968   0.01769747  0.016983421            4 
 3398000   0.70385842   -7.9251133    721.50902  0.017694453  0.016978068           11 
 3399000    0.7144991   -7.9437166    722.31473  0.017709001  0.016972714            5 
 3400000   0.71395722   -7.9316133    720.67599  0.017663627  0.016967376            5 
 3401000    0.7186483   -7.9136047    722.79173  0.017710275   0.01696204            3 
 3402000   0.71504531   -7.9436932    722.34321  0.017694082    0.0169567            6 
 3403000   0.70729763   -7.9270181    723.83008  0.017725293  0.016951367            2 
 3404000   0.71119744   -7.9211273    722.49037  0.017687289  0.016946045            4 
 3405000   0.71950533   -7.8983657    722.24704  0.017676139  0.016940727            5 
 3406000   0.71453958   -7.9216156    720.93192  0.017638773  0.016935393            3 
 3407000    0.7022727   -7.9336101    721.10669   0.01763787  0.016930063            3 
 3408000   0.71316411   -7.9201163    722.26208  0.017660947  0.016924729            4 
 3409000   0.70739648   -7.9454223    723.22623  0.017679335  0.016919422            2 
 3410000   0.69531199   -7.9406575    722.50583  0.017656545  0.016914099            4 
 3411000   0.71023369   -7.9329459     723.2252  0.017668944  0.016908774            2 
 3412000   0.70504809   -7.9071429    721.72803  0.017627199  0.016903463            9 
 3413000   0.70082882   -7.9263085    721.11379  0.017607036  0.016898146            3 
 3414000   0.69592652   -7.9179352    721.33386  0.017607251  0.016892859            3 
 3415000   0.71460525   -7.9423185    722.59103  0.017632773  0.016887559            3 
 3416000   0.69958552   -7.9416131    722.33944  0.017621474  0.016882251            2 
 3417000   0.71886806   -7.9643419    720.07727  0.017561147   0.01687692            4 
 3418000   0.71521652   -7.9211943    720.16216  0.017558079   0.01687159            2 
 3419000   0.70151965   -7.9689614    721.84952   0.01759407  0.016866242            4 
 3420000   0.69575983   -7.9145357    722.16954  0.017596724  0.016860912            7 
 3421000   0.70386865   -7.9573634    721.83231  0.017583365  0.016855571            4 
 3422000   0.71583015   -7.9406242    720.04727  0.017534757   0.01685023            3 
 3423000   0.70357307   -7.9228875    720.26985  0.017535053  0.016844886            2 
 3424000   0.70006918   -7.9508338    721.90218   0.01756966  0.016839561            2 
 3425000   0.71462397    -7.940007    722.42849  0.017577336  0.016834229            5 
 3426000   0.70056944   -7.9199758    721.44924  0.017548386  0.016828896            2 
 3427000   0.70205269    -7.951366    720.00788  0.017508216  0.016823558            4 
 3428000   0.69903413   -7.9548004    720.57409  0.017516873  0.016818207            3 
 3429000   0.70095895   -7.9437465     720.1048   0.01750036   0.01681286            8 
 3430000   0.70034007   -7.9211355     721.9639  0.017540425  0.016807528            2 
 3431000   0.68643666   -7.9519473    720.73422  0.017505446    0.0168022            3 
 3432000   0.70174536   -7.9375844    720.48524    0.0174943  0.016796869            2 
 3433000   0.71787911   -7.9511109    720.83343  0.017497656  0.016791539            4 
 3434000   0.70043338    -7.953918    719.85256  0.017468758  0.016786212            2 
 3435000   0.68912252   -7.9391031     720.9243  0.017489673  0.016780886            2 
 3436000   0.71634761   -7.9482219    721.65448  0.017502291  0.016775567            2 
 3437000   0.69515968   -7.9425897    722.40079  0.017515294  0.016770254            6 
 3438000   0.70523401   -7.9313048     722.2057  0.017505471  0.016764951            2 
 3439000   0.68275412   -7.9280351     721.7289  0.017488827  0.016759635            8 
 3440000   0.70985442   -7.9302117    721.94242  0.017488915  0.016754336            2 
 3441000   0.68674617   -7.9301534     722.2129  0.017490383  0.016749042            5 
 3442000   0.68911265   -7.9494816    722.76608  0.017498694  0.016743755            3 
 3443000   0.69291108   -7.9431092    721.73578  0.017468675  0.016738452            4 
 3444000   0.70627305   -7.9351926    722.53474  0.017482935  0.016733151            3 
 3445000   0.69578169   -7.9493458    722.28002  0.017471699  0.016727849            6 
 3446000   0.69281426   -7.9560117    722.35077  0.017468339  0.016722547            8 
 3447000    0.6781478   -7.9567575    722.30365  0.017462132  0.016717259            2 
 3448000   0.70675394     -7.92577    723.36847  0.017482803  0.016711971            3 
 3449000   0.69335062    -7.932185    722.12899  0.017447787   0.01670669            5 
 3450000   0.68747323   -7.9477692    723.83205  0.017483866  0.016701391            2 
 3451000   0.69409314   -7.9435976    722.25825  0.017440796  0.016696103            3 
 3452000   0.69073763    -7.977445    721.45607  0.017416379  0.016690806            2 
 3453000    0.6961924   -7.9450758      723.875  0.017469712  0.016685508            3 
 3454000   0.71242287    -7.947681    722.01777  0.017419846  0.016680241            3 
 3455000   0.69023468   -7.9358077    723.05304  0.017439774   0.01667497            3 
 3456000   0.70756558   -7.9675831    722.45744  0.017420367  0.016669704            5 
 3457000   0.69656543   -7.9584052    722.09418  0.017406571  0.016664419            3 
 3458000   0.70355729   -7.9505012    720.72953  0.017368651  0.016659119            2 
 3459000   0.69662549   -7.9591088    720.81481  0.017365684  0.016653838            2 
 3460000   0.67673974   -7.9272511    722.70014  0.017406073  0.016648547            3 
 3461000    0.7028357   -7.9446562      720.958  0.017359097  0.016643269            2 
 3462000   0.70719495   -7.9488388    722.68777  0.017395719  0.016637994            2 
 3463000   0.71360117   -7.9677066    722.80039  0.017393406  0.016632726            3 
 3464000   0.69182799   -7.9491363    723.34176  0.017401409  0.016627457            2 
 3465000   0.69243094    -7.947426    722.30286  0.017371401  0.016622195            4 
 3466000    0.6904102   -7.9400257    723.82679  0.017403029  0.016616934            3 
 3467000   0.67745876   -7.9703088    723.11618  0.017380929   0.01661167            4 
 3468000   0.68181468   -7.9454753    723.27874  0.017379824  0.016606406            4 
 3469000   0.70884013   -7.9637178    722.86123  0.017364784  0.016601139            2 
 3470000   0.70102456   -7.9442262    721.31203  0.017322575   0.01659588            3 
 3471000   0.68347541   -7.9775393    723.81977  0.017377791  0.016590614            3 
 3472000   0.69739351    -7.969547     722.2107  0.017334166   0.01658536            6 
 3473000   0.69756023    -7.957014    722.85456  0.017344624  0.016580096            4 
 3474000    0.6937902    -7.969643     722.3542  0.017327629  0.016574832            3 
 3475000   0.70274901   -7.9495248    723.74562   0.01735601  0.016569572            2 
 3476000   0.69396016   -7.9646206    722.08304  0.017311158  0.016564317            5 
 3477000   0.70089451   -7.9567512    723.58023  0.017342063  0.016559065            2 
 3478000   0.68984099   -7.9556296    724.25411  0.017353223   0.01655382            3 
 3479000   0.69518371   -7.9748706    723.82683     0.017338  0.016548568            3 
 3480000   0.69131707   -7.9456939    720.97014  0.017264611   0.01654333            3 
 3481000   0.69488922      -7.9515    722.05589  0.017285643  0.016538088            1 
 3482000   0.70310094    -7.960562    723.70463  0.017320138   0.01653285            6 
 3483000   0.69044295   -7.9384406    723.54909  0.017311443  0.016527613            3 
 3484000   0.69724105   -7.9741694    722.40929  0.017279212  0.016522371            4 
 3485000   0.69930173    -7.971274    720.89153  0.017237961  0.016517138            5 
 3486000   0.68774756   -7.9698217    723.40758  0.017293163  0.016511931            3 
 3487000   0.69395608    -7.943194    723.61332   0.01729312  0.016506709            4 
 3488000   0.69634489   -7.9589434    724.20546  0.017302309  0.016501497            5 
 3489000   0.69267183   -7.9550159    722.57793  0.017258477   0.01649628            4 
 3490000   0.68066111   -7.9489289    723.76896  0.017281971  0.016491082            3 
 3491000   0.71405017   -7.9651841    722.86213  0.017255374  0.016485865            4 
 3492000   0.69549226   -7.9612278    722.41987  0.017239879  0.016480642            3 
 3493000   0.69549403   -7.9672289    722.77614  0.017243443  0.016475416            3 
 3494000   0.69101157   -7.9642172    724.27848  0.017274339  0.016470206            2 
 3495000   0.68543028   -7.9436599     722.3128  0.017222527  0.016464982            3 
 3496000   0.68712951   -7.9836789    722.29736  0.017217233  0.016459766            4 
 3497000   0.67150022   -7.9840627    724.10832  0.017255465  0.016454547            9 
 3498000   0.69294148   -7.9953111    723.86816   0.01724481  0.016449325            5 
 3499000   0.70218067   -7.9643642    722.53918   0.01720823  0.016444111            3 
 3500000   0.68330368    -7.991328    722.00792  0.017190665    0.0164389            7 
 3501000   0.69135869   -7.9683078    721.28321  0.017168505   0.01643368            3 
 3502000   0.68038645   -7.9920703    722.52862  0.017193238  0.016428471            5 
 3503000   0.70327215     -7.98031    723.59128  0.017213609  0.016423269            4 
 3504000   0.69477747   -7.9559601    724.43858  0.017228848  0.016418067            2 
 3505000   0.68547382   -7.9682462    723.96691  0.017212718   0.01641288            4 
 3506000   0.69993529   -7.9799852    723.87815  0.017205699  0.016407699            3 
 3507000    0.6881387   -7.9795653     723.0191   0.01718038  0.016402515            3 
 3508000   0.69342879   -7.9808421    723.96534   0.01719796  0.016397326            3 
 3509000   0.67057965   -7.9676393    723.11126  0.017172776  0.016392153            2 
 3510000   0.68551769   -7.9644093    723.36916  0.017174007  0.016386996            3 
 3511000   0.68212614   -7.9691885    723.34274  0.017168488  0.016381823            4 
 3512000   0.69439946   -7.9755301    724.97157  0.017202249  0.016376658            4 
 3513000   0.70229208   -7.9639336    724.04283  0.017175321  0.016371499            8 
 3514000   0.68689058    -7.980179      723.668  0.017161544  0.016366332            2 
 3515000   0.68766023   -8.0121019    722.97929  0.017140334  0.016361159            2 
 3516000   0.70068714   -7.9766017     724.5308  0.017172232  0.016355989            2 
 3517000   0.68653472   -7.9626496    724.91898  0.017176547  0.016350823            2 
 3518000   0.68458765   -7.9919111     723.7999  0.017145156  0.016345658            2 
 3519000   0.68644541    -7.981628    722.71638  0.017114625  0.016340493            2 
 3520000   0.69701811   -7.9938183    724.16378  0.017144029  0.016335324            3 
 3521000   0.68211379   -7.9666658    724.75365  0.017153121   0.01633016            4 
 3522000   0.68044973    -7.982894    723.33446  0.017114671  0.016324995            8 
 3523000   0.68738775   -7.9673389     723.6588  0.017117485  0.016319844            2 
 3524000   0.67706934   -7.9998714    723.60147  0.017111272  0.016314684            2 
 3525000   0.68304213   -7.9936226    724.26393  0.017122079  0.016309519            3 
 3526000   0.69349674    -7.997406    723.50249  0.017099227  0.016304354            2 
 3527000   0.70142922   -7.9738129    724.43401  0.017116388  0.016299213            2 
 3528000   0.68550605   -7.9911464    723.74565  0.017095277  0.016294073            5 
 3529000   0.67602576   -8.0020784    723.69925  0.017089337  0.016288915            7 
 3530000    0.7002243    -7.966749    725.33476  0.017123106  0.016283764            5 
 3531000   0.67984573   -7.9618648    725.72344  0.017127429   0.01627864            3 
 3532000   0.68082978   -7.9634675    725.43185  0.017115701  0.016273512            2 
 3533000    0.6751003   -7.9903271    724.06318  0.017078573  0.016268387            3 
 3534000   0.67723693   -7.9700217    724.74962  0.017089927  0.016263279            2 
 3535000   0.69028036   -7.9753756    724.36595  0.017076048  0.016258156            3 
 3536000   0.68483509   -7.9798197    725.71923  0.017103112  0.016253052            4 
 3537000   0.68723363   -7.9728386    724.59194  0.017071717  0.016247961            2 
 3538000   0.68488244    -7.971366    724.91103  0.017074407  0.016242848            5 
 3539000   0.68413826   -7.9789865    724.04521  0.017049195   0.01623773            3 
 3540000   0.69041118   -7.9967327    723.59823  0.017033857  0.016232616            5 
 3541000   0.69185386   -7.9715956    725.36732   0.01707068  0.016227502            3 
 3542000   0.69025661   -7.9625603    725.32231  0.017064801  0.016222375            2 
 3543000   0.67045656   -7.9740811    724.33638  0.017036795  0.016217268            4 
 3544000   0.67958822   -7.9815302    724.16879  0.017028047  0.016212162            3 
 3545000   0.67997895   -7.9601908    723.82926  0.017015262  0.016207068            5 
 3546000   0.69290956   -7.9849367    724.04238  0.017015472  0.016201972            2 
 3547000   0.67912601   -7.9678277    723.20657  0.016991039   0.01619687            3 
 3548000   0.68906331   -7.9657586    724.79333  0.017023519   0.01619178            5 
 3549000   0.66731607   -7.9575241     725.0058  0.017023711  0.016186698            2 
 3550000   0.67561023    -7.968217    724.97524  0.017018198  0.016181616            3 
 3551000     0.682454   -7.9655432    725.01143  0.017014255  0.016176517            9 
 3552000   0.67914946   -7.9994746    723.19265  0.016966795  0.016171412            3 
 3553000   0.67746616   -7.9763099    724.09597  0.016983206  0.016166314            3 
 3554000   0.66878463   -7.9992785    724.91078  0.016997533  0.016161203            6 
 3555000   0.69209316   -7.9916426    724.51514  0.016983477  0.016156092            3 
 3556000   0.68790604   -8.0139237    724.45246  0.016977232  0.016150986            5 
 3557000   0.68002344   -7.9958429    723.85126  0.016958375  0.016145855            2 
 3558000   0.68483112    -7.994626    725.10646  0.016983007  0.016140739            2 
 3559000   0.68921477   -7.9904763    725.73156  0.016992872  0.016135635            3 
 3560000   0.68704942   -8.0089946    725.38373  0.016979956  0.016130537            3 
 3561000   0.69127282   -7.9922748    723.80928  0.016938343  0.016125437            4 
 3562000   0.68614666   -7.9929511     724.5501  0.016950919  0.016120351            4 
 3563000   0.67313404    -7.988692    726.44249  0.016990422   0.01611527            4 
 3564000   0.68463142   -7.9736859    725.96684  0.016974533  0.016110199            5 
 3565000    0.6790875   -8.0011897    724.28626  0.016930488  0.016105123            4 
 3566000   0.67615203   -8.0018024    724.47658  0.016930187  0.016100037            5 
 3567000   0.67181307   -8.0098288    724.12483  0.016917223  0.016094945            3 
 3568000   0.67435669   -7.9991151    723.39981  0.016895549  0.016089867            5 
 3569000   0.68889587   -7.9964297    725.58701  0.016941884  0.016084791            3 
 3570000   0.68278179   -7.9846116    724.78859  0.016918501  0.016079715            3 
 3571000   0.68813838   -8.0129852    724.62882  0.016910035  0.016074643            2 
 3572000   0.66903822   -7.9749899    724.29732  0.016897567  0.016069563            7 
 3573000   0.68770221    -7.998182    724.93535  0.016907719  0.016064491            3 
 3574000   0.69491288   -7.9715348     724.5523  0.016894057  0.016059429            8 
 3575000   0.68856547   -7.9944399    723.04541  0.016854205  0.016054353            2 
 3576000   0.68122399   -8.0192083    724.41173  0.016881332  0.016049273            3 
 3577000   0.68783123   -8.0075717    724.82444  0.016886228    0.0160442            1 
 3578000   0.66647833   -7.9856254     724.9534  0.016884512  0.016039129            4 
 3579000   0.68815684   -7.9965263    724.43249  0.016867665  0.016034051            3 
 3580000   0.66542793   -8.0042211    725.45284  0.016886705  0.016028963            5 
 3581000   0.67090372    -8.025249    722.91507  0.016822933  0.016023885            3 
 3582000   0.67958171   -8.0287451    725.91348  0.016887993  0.016018806            2 
 3583000   0.69635005   -8.0071782    724.32903  0.016846428  0.016013738            3 
 3584000   0.67189072     -8.01142    723.76398   0.01682859  0.016008659            2 
 3585000   0.68257791   -8.0145423    723.58433  0.016819719  0.016003572            3 
 3586000   0.66838484   -7.9793458    725.69375  0.016864049  0.015998503            3 
 3587000   0.67570697   -8.0378529    723.77736  0.016814826  0.015993426            3 
 3588000   0.68433652   -8.0149045    724.41573  0.016824966  0.015988345            4 
 3589000   0.68780684     -8.00989    724.85301  0.016830431  0.015983278            2 
 3590000   0.68522928   -7.9951306    723.98295  0.016805547  0.015978215            4 
 3591000   0.68694972   -7.9931285    725.26837  0.016830696  0.015973146           11 
 3592000    0.6686371   -8.0121872    725.08999  0.016821872  0.015968068            2 
 3593000   0.68269607   -8.0179881     724.4815  0.016803078  0.015962992            3 
 3594000   0.67816036   -8.0060885    724.65259  0.016802369  0.015957926            3 
 3595000   0.68078507   -8.0094142    724.83208  0.016801856  0.015952866            3 
 3596000   0.66700248   -8.0028428     725.0401  0.016802005  0.015947805            4 
 3597000   0.68286527     -8.02619    724.16812  0.016777132  0.015942718            2 
 3598000   0.68646529   -8.0346874    725.02669  0.016792354  0.015937639            4 
 3599000   0.66917043   -8.0115785    723.45854  0.016751379  0.015932572            1 
 3600000   0.66436384    -8.021285    725.09132  0.016784521  0.015927511            3 
 3601000   0.68156617   -8.0045569    725.14451  0.016781091  0.015922456            3 
 3602000   0.66690608   -8.0337128    723.60928  0.016740914  0.015917378            3 
 3603000   0.68066079    -8.000889    723.52312  0.016734275  0.015912315            3 
 3604000   0.67967577   -8.0338672     723.9709  0.016739986  0.015907255            6 
 3605000   0.67428809    -8.015548     723.6275  0.016727404  0.015902187            3 
 3606000   0.68578331   -8.0326556    724.97769  0.016753968  0.015897111            2 
 3607000   0.68146273   -8.0174789    724.64985  0.016741749  0.015892048            3 
 3608000   0.67036092   -8.0259286    724.28694  0.016728726  0.015886979            2 
 3609000   0.67222024   -8.0277497    725.13617    0.0167437  0.015881907            4 
 3610000   0.66763632   -8.0191738    724.36375  0.016721232  0.015876836            2 
 3611000   0.67715517   -8.0115716    724.77577  0.016726109  0.015871767            3 
 3612000   0.64865762   -8.0242472    724.33844  0.016711389  0.015866709            7 
 3613000   0.67125897   -7.9845976    724.59668   0.01671272  0.015861668            5 
 3614000   0.67047582   -8.0358035    722.61987  0.016662513  0.015856625            3 
 3615000   0.66164376   -8.0130583    724.76207  0.016707286  0.015851578            5 
 3616000   0.67226047   -8.0089401    725.34525  0.016716106  0.015846524            2 
 3617000   0.67716692   -8.0012129    725.33181  0.016711174  0.015841467            5 
 3618000   0.68730894   -8.0335279    724.95944  0.016697979  0.015836417            4 
 3619000   0.66624308   -8.0149288    724.62062  0.016685563  0.015831377            3 
 3620000   0.67085558   -8.0067418    723.59553  0.016657356  0.015826338            2 
 3621000   0.66930993   -7.9966286    724.57808  0.016675368  0.015821294            4 
 3622000   0.67093657   -7.9986654    725.01947  0.016680919   0.01581626            3 
 3623000   0.68791486   -8.0157591    725.04563  0.016676917  0.015811222            2 
 3624000   0.66573215   -8.0161281    725.31088  0.016678414  0.015806183            5 
 3625000   0.66934146    -8.018323    725.96217  0.016688785  0.015801134            5 
 3626000   0.69033952   -8.0313915    724.66063  0.016654271  0.015796087            3 
 3627000   0.67635768   -8.0135171    725.39439  0.016666538  0.015791051            3 
 3628000   0.66812045   -8.0458391    723.86581  0.016626833  0.015786008            1 
 3629000   0.68337524   -8.0340378    723.25251  0.016608168  0.015780972            3 
 3630000   0.67151158   -8.0176261    722.63422  0.016589399  0.015775934            2 
 3631000   0.66654719   -8.0492324    724.36287  0.016624504  0.015770894            1 
 3632000   0.67008945   -8.0188825    724.41268  0.016621069   0.01576585            3 
 3633000   0.67547271   -8.0273944    724.49994  0.016618496  0.015760795            2 
 3634000   0.67286443    -8.018889    724.11858  0.016605177  0.015755755            5 
 3635000   0.67910758   -8.0331411    725.20935  0.016625616  0.015750722            3 
 3636000   0.67306124   -8.0021947    723.97938  0.016592853  0.015745678            4 
 3637000   0.67804942   -8.0296586    723.40555  0.016575143  0.015740652            3 
 3638000   0.66362707    -8.036666    724.80016  0.016602532  0.015735612            3 
 3639000   0.67012518   -8.0164981    723.92728  0.016577981  0.015730558            2 
 3640000   0.68202703   -8.0077918    724.46041  0.016585632  0.015725521            3 
 3641000   0.65796583   -8.0414351    724.82781  0.016589486  0.015720484            7 
 3642000   0.66713988   -8.0294124    723.92839  0.016564351  0.015715433            2 
 3643000    0.6669951   -8.0423114     723.8043  0.016556965   0.01571038            3 
 3644000   0.67635154   -8.0308895    723.50713  0.016545626  0.015705333            8 
 3645000   0.67370954    -8.014212    724.22906  0.016557592  0.015700285            3 
 3646000   0.67186892   -8.0285635    724.33632  0.016555502   0.01569525            3 
 3647000   0.66912633   -8.0422119    723.78077  0.016538268  0.015690208            2 
 3648000   0.67993611   -8.0224377    724.62389  0.016552995  0.015685175            3 
 3649000   0.66444367   -8.0395386    722.67452   0.01650394  0.015680148            2 
 3650000   0.65364717   -8.0271483    723.59588  0.016520454  0.015675117            4 
 3651000   0.66107773   -8.0143693    724.48099  0.016536131  0.015670085            5 
 3652000   0.65535298   -8.0301063    722.06332  0.016476436  0.015665059            3 
 3653000   0.66749477   -8.0387137    724.67045    0.0165314  0.015660026            3 
 3654000   0.66439365   -8.0413558    722.88151  0.016486077  0.015654984            3 
 3655000   0.64470976   -8.0212749    724.69786  0.016522979  0.015649951            4 
 3656000   0.66216023    -8.060869    723.63208  0.016494167  0.015644918            3 
 3657000   0.66306893   -8.0229198    723.76091  0.016492592  0.015639891            3 
 3658000   0.67387539   -8.0467028    722.12484  0.016450812   0.01563487            2 
 3659000   0.66954614   -8.0375832    723.51515   0.01647798   0.01562983            3 
 3660000   0.66143801   -8.0333978    723.08182  0.016463612  0.015624799            2 
 3661000   0.66916696    -8.029828    723.00474   0.01645736  0.015619778            2 
 3662000   0.68946483   -8.0339151    722.81049  0.016448445  0.015614761            4 
 3663000   0.67246526   -8.0544364    722.78958  0.016443479  0.015609732            2 
 3664000   0.66593821   -8.0175871    723.22489  0.016448892  0.015604714            3 
 3665000   0.66109871   -8.0416232    723.07226  0.016440934  0.015599691            2 
 3666000   0.66629105   -8.0414553    723.71738  0.016451113  0.015594669            2 
 3667000   0.66529735   -8.0500689    723.09156  0.016432405  0.015589628            2 
 3668000   0.66222309   -8.0257825    723.22709  0.016431004   0.01558459            3 
 3669000   0.65888229   -8.0240453    723.04193   0.01642232  0.015579558            2 
 3670000   0.66104459   -8.0243254    724.36323  0.016447848  0.015574518            3 
 3671000   0.66181523   -8.0334626    722.40577  0.016398932  0.015569484            2 
 3672000    0.6808232   -8.0385446    722.86941  0.016404989  0.015564453            9 
 3673000   0.65606311   -8.0234111    722.89222  0.016401039  0.015559432            4 
 3674000   0.66976708   -8.0244299    723.85963  0.016418518  0.015554413            4 
 3675000   0.65980465   -8.0175863    724.36224  0.016425448  0.015549393            4 
 3676000   0.65731348    -8.032259    724.03589  0.016413581  0.015544378            4 
 3677000   0.65346073   -8.0528197    723.06362  0.016387082  0.015539373            4 
 3678000   0.65729048   -8.0329789    724.63791  0.016418296  0.015534358            3 
 3679000   0.65508104   -8.0295692    725.09946  0.016424288  0.015529351            4 
 3680000    0.6661039   -8.0375585    723.70553  0.016388259  0.015524351            3 
 3681000   0.66174365   -8.0352336    723.81708  0.016386333   0.01551934            4 
 3682000   0.65620067    -8.005862    724.02202  0.016386521  0.015514351            2 
 3683000   0.66727706    -8.032212    724.69214  0.016397234  0.015509346            2 
 3684000   0.65713966   -8.0370136    723.51649  0.016366189  0.015504349            3 
 3685000   0.66757691    -8.044511     722.9833   0.01634969  0.015499347            2 
 3686000   0.66552717   -8.0712049    723.64036  0.016360109  0.015494336            2 
 3687000   0.66205261   -8.0371538    723.22902  0.016346375  0.015489322            3 
 3688000   0.66143498   -8.0324191    721.68991  0.016307165   0.01548431            2 
 3689000   0.65120357   -8.0346798    723.14943  0.016335715  0.015479299            4 
 3690000   0.66505433   -8.0721519    724.26927  0.016356578   0.01547428            3 
 3691000   0.65556343   -8.0479935    722.65612  0.016315726  0.015469276            5 
 3692000    0.6708303   -8.0556852     722.5125  0.016308065  0.015464268            4 
 3693000    0.6611526   -8.0457107      722.287   0.01629856  0.015459256            3 
 3694000   0.66765987   -8.0460263    723.79725  0.016328218  0.015454245            5 
 3695000   0.66159165   -8.0624557    722.81342  0.016301611  0.015449239            3 
 3696000   0.66597333   -8.0485981    722.90705  0.016299311   0.01544423            5 
 3697000   0.65860705   -8.0680463    723.31983  0.016304207  0.015439218            6 
 3698000   0.65755185   -8.0422068    723.01583  0.016292947  0.015434204            6 
 3699000   0.67620386   -8.0562053    723.19764  0.016292639  0.015429208            6 
 3700000   0.66543961   -8.0751541    722.53328  0.016273272  0.015424206            7 
 3701000   0.65900243    -8.046696    724.13364   0.01630491  0.015419207            2 
 3702000   0.65309934   -8.0590757     722.3199  0.016259677   0.01541421            3 
 3703000   0.66630598   -8.0622369    723.41876  0.016280015  0.015409213            2 
 3704000   0.65608464   -8.0662045    723.28484  0.016272607  0.015404227            2 
 3705000   0.64835938   -8.0506243    721.94651  0.016238113   0.01539924            3 
 3706000   0.65645334   -8.0477407    721.74814  0.016229271  0.015394249            2 
 3707000   0.64700021   -8.0573964     722.7532  0.016247487  0.015389265            2 
 3708000   0.64571485   -8.0545985    722.03583  0.016226983  0.015384288            4 
 3709000   0.65864044   -8.0501215    723.04576  0.016245299  0.015379303            4 
 3710000   0.66873209    -8.063901    723.03591  0.016240699  0.015374323            9 
 3711000   0.67491105   -8.0352619    722.95088  0.016234413  0.015369355            4 
 3712000    0.6650947   -8.0677323    723.49254    0.0162422  0.015364391            4 
 3713000   0.65984488   -8.0367498    722.47795  0.016215054  0.015359431            3 
 3714000   0.66088862   -8.0339026    723.66847  0.016237401  0.015354474            3 
 3715000   0.66645337   -8.0456082    724.69434  0.016256042  0.015349516            2 
 3716000   0.65307995   -8.0427245    723.48248   0.01622449  0.015344565            2 
 3717000   0.65967809   -8.0620371    723.30024   0.01621604   0.01533961            5 
 3718000   0.66769604   -8.0423752    724.12631  0.016230193  0.015334651            8 
 3719000   0.65557839   -8.0584671    724.63776   0.01623729  0.015329691            4 
 3720000   0.65359591   -8.0635847    723.34684  0.016204006  0.015324723            2 
 3721000   0.65443213   -8.0403338    723.76344  0.016208981  0.015319766            4 
 3722000   0.65397292   -8.0706227     723.6034  0.016201043  0.015314804            5 
 3723000   0.66310005   -8.0396493    723.21021  0.016187891   0.01530984            5 
 3724000   0.65321074   -8.0422342    722.51714  0.016168035  0.015304887            4 
 3725000    0.6750069   -8.0600148    723.56912  0.016187229   0.01529994            3 
 3726000   0.64931621   -8.0528623    723.62273  0.016184083  0.015294988            3 
 3727000   0.65649988   -8.0641334     722.9934  0.016165669   0.01529003            3 
 3728000   0.65455426   -8.0556116    723.09808  0.016163673  0.015285071            4 
 3729000   0.66432171   -8.0563537     723.4865  0.016168019  0.015280115            3 
 3730000   0.66046383     -8.04047    723.26302  0.016158691  0.015275162            6 
 3731000   0.65076382   -8.0341951    722.17279   0.01613001   0.01527022            4 
 3732000   0.64477444   -8.0208742    723.05754  0.016145444  0.015265267            3 
 3733000   0.65741699   -8.0391276    724.94671  0.016183291  0.015260325            3 
 3734000   0.64917795    -8.053971    723.80285  0.016153429  0.015255397            2 
 3735000   0.64615784    -8.060979    722.36861  0.016117104  0.015250468            2 
 3736000   0.64605063   -8.0642503    724.28016  0.016155428   0.01524553            2 
 3737000   0.64694177    -8.076614    722.67101  0.016115222  0.015240589            2 
 3738000   0.65045745   -8.0682008    723.12009  0.016120922  0.015235645            4 
 3739000   0.65826049   -8.0606098    723.20648  0.016118536  0.015230714            3 
 3740000   0.65291478   -8.0685462    722.80715  0.016105329  0.015225768            3 
 3741000   0.63633751    -8.043605    724.77639   0.01614489  0.015220832            3 
 3742000   0.64362068   -8.0649878    722.63578  0.016092904  0.015215892            3 
 3743000   0.64885223   -8.0766726    722.81043  0.016092493   0.01521094            2 
 3744000   0.64924931   -8.0607932    720.50769  0.016036941  0.015206003            4 
 3745000   0.65306694   -8.0600263    723.77734  0.016105415  0.015201066            4 
 3746000    0.6503343    -8.060507    721.85868  0.016058433  0.015196143            6 
 3747000   0.65902228   -8.0645952    722.66309  0.016072037    0.0151912            3 
 3748000   0.65961905   -8.0717869    721.55641  0.016043143  0.015186263            4 
 3749000   0.64993205    -8.093349    722.58831  0.016061801   0.01518133            2 
 3750000   0.65526007   -8.0848037    723.29412  0.016073203  0.015176392            3 
 3751000    0.6582094   -8.0624209    722.92748  0.016060772  0.015171458            2 
 3752000   0.65345804   -8.0631015    723.90489    0.0160782  0.015166543            5 
 3753000   0.64423107   -8.0698856    723.05495  0.016055044  0.015161622            4 
 3754000    0.6449059   -8.0636314     722.5805  0.016040235  0.015156699            3 
 3755000   0.65398088   -8.0567766    723.82272  0.016063531  0.015151787            2 
 3756000   0.65004436   -8.0994393    722.26884  0.016024779  0.015146871            3 
 3757000   0.65062669   -8.0600611     722.8256  0.016032863  0.015141956            7 
 3758000   0.64400729    -8.074782    722.42872  0.016019796  0.015137041            7 
 3759000   0.64709886   -8.0686127    722.99637  0.016028119  0.015132132            4 
 3760000   0.65477784   -8.0523623    724.13872  0.016049174  0.015127217            5 
 3761000   0.65607435   -8.0731101    723.64607  0.016033991  0.015122306            2 
 3762000   0.65085035   -8.0760634    721.85593  0.015990075  0.015117389           11 
 3763000   0.64831512   -8.0751201    722.03629   0.01598982  0.015112468            4 
 3764000   0.64526071   -8.0688761    721.84363  0.015981306  0.015107545            7 
 3765000   0.66383099   -8.0816019    722.26536  0.015986396  0.015102625            5 
 3766000   0.64939877   -8.0587278    722.76637  0.015993237  0.015097708           12 
 3767000   0.64540237   -8.1193468    722.87564  0.015991409  0.015092802            5 
 3768000   0.64870096   -8.1056014    722.29799  0.015974389  0.015087883            4 
 3769000    0.6549337   -8.0910527    723.05435  0.015986874  0.015082961            5 
 3770000   0.62608129   -8.0847462    722.04523  0.015960328  0.015078034            5 
 3771000   0.65042874    -8.071332    723.02975  0.015977852  0.015073113            2 
 3772000   0.65936951    -8.082654    722.71473  0.015966656    0.0150682            3 
 3773000   0.65486171   -8.0832662    723.95448  0.015989806  0.015063294            2 
 3774000   0.65568566   -8.0725865     723.6873   0.01597967  0.015058396            4 
 3775000   0.64965818   -8.0706819    722.64775  0.015952489  0.015053505            4 
 3776000   0.64746837   -8.0942333    721.28801  0.015918256  0.015048605            5 
 3777000   0.64355302   -8.0650878    724.26605  0.015979747  0.015043706            5 
 3778000   0.65017997   -8.0649999    723.12125  0.015950266  0.015038812            4 
 3779000   0.64898894   -8.0696644    722.89563   0.01594107  0.015033923            7 
 3780000   0.65052769   -8.0642693    722.76878  0.015934056  0.015029039            4 
 3781000   0.63839474   -8.1035849     722.6519  0.015927266  0.015024154            5 
 3782000   0.65387595   -8.0765914    722.78125  0.015925904  0.015019264            3 
 3783000   0.63271097   -8.0844145     723.3826  0.015934941  0.015014381            2 
 3784000   0.66144035   -8.0759845    721.49474  0.015889155  0.015009501            4 
 3785000   0.64717205   -8.0711755    721.83518  0.015892452  0.015004608            2 
 3786000   0.63917532   -8.1100128    723.02132  0.015914363  0.014999716            3 
 3787000   0.64145176   -8.0802076    724.09228  0.015933727  0.014994828            5 
 3788000   0.65589137   -8.0701439    722.92973  0.015903945  0.014989935            3 
 3789000   0.64367514   -8.1101807    722.91235  0.015899365   0.01498504            3 
 3790000   0.64272942   -8.1096459    722.33502  0.015882476  0.014980149            3 
 3791000   0.64154771   -8.0861902    722.91599  0.015891057  0.014975261            3 
 3792000   0.63938661   -8.1001939    723.36612  0.015896759   0.01497037            5 
 3793000    0.6450863   -8.1077668    722.16673  0.015866217   0.01496547            4 
 3794000   0.65895681   -8.0924414    722.38259  0.015866776   0.01496058            3 
 3795000   0.65789306   -8.0802756    722.83069  0.015872435  0.014955688            3 
 3796000    0.6466542   -8.1028284    722.53698  0.015861806  0.014950792            3 
 3797000   0.65936683   -8.0866879    722.04499  0.015846831   0.01494591            4 
 3798000    0.6511135   -8.0989027    721.87331  0.015838891  0.014941032            4 
 3799000    0.6367498   -8.1048926    722.47987  0.015848027  0.014936162            2 
 3800000   0.63782894    -8.098818    722.35334  0.015841082  0.014931282            5 
 3801000   0.64355102   -8.0979838    722.83647  0.015847507  0.014926404            3 
 3802000   0.64446015   -8.0661622    721.94506    0.0158238  0.014921535            5 
 3803000   0.65125089   -8.0926958    722.96053  0.015841891  0.014916659            2 
 3804000   0.64829086    -8.103526    722.22952  0.015821712  0.014911776            3 
 3805000   0.64063576   -8.0934056    722.37829  0.015820812  0.014906889            3 
 3806000   0.65854048   -8.1025099    721.80599  0.015804125  0.014902008            3 
 3807000   0.63758358   -8.0955075    723.09083  0.015828098  0.014897125            4 
 3808000   0.65738888   -8.1120891    721.81956  0.015796121  0.014892248            2 
 3809000   0.62400614   -8.1028334    721.57195  0.015786557  0.014887383            5 
 3810000    0.6253268   -8.0847269    723.17309  0.015817434  0.014882523            4 
 3811000   0.62968897   -8.1087953    722.34198   0.01579511  0.014877654            4 
 3812000   0.63534283    -8.098791    721.90198  0.015781348  0.014872788            4 
 3813000     0.648798    -8.101668    721.69132  0.015772605  0.014867928            6 
 3814000   0.65098096   -8.1035694    723.24519  0.015802421  0.014863067            3 
 3815000   0.63926206   -8.1150503    721.82811  0.015767324  0.014858204            5 
 3816000   0.63793407   -8.1123022    722.30035  0.015773505  0.014853339            3 
 3817000   0.64098124   -8.1141315    722.49288  0.015773576  0.014848479            6 
 3818000   0.64573766   -8.1156155    722.31842  0.015765637  0.014843618            6 
 3819000   0.62390561   -8.1158467    721.92358  0.015752893  0.014838761            6 
 3820000   0.64460176     -8.11374    720.94372  0.015727394  0.014833894            6 
 3821000   0.63748049   -8.1118661    721.56157  0.015736752  0.014829028            4 
 3822000   0.63960736   -8.1169567    721.83845  0.015738672  0.014824156            3 
 3823000   0.62952492    -8.112223    720.81406  0.015712226  0.014819287            7 
 3824000   0.64469922   -8.0929544    722.59596  0.015746948  0.014814426            4 
 3825000   0.61938718   -8.1230862    720.37005  0.015694337  0.014809562            2 
 3826000   0.63856693   -8.1115712     721.8076  0.015721545  0.014804692            5 
 3827000    0.6333923   -8.1211005    721.26955  0.015705721  0.014799832            3 
 3828000   0.65167933   -8.1300074    721.46781  0.015705935  0.014794968            3 
 3829000   0.63678015   -8.1113029    721.74687  0.015707906  0.014790099            3 
 3830000   0.62115663   -8.1354505    720.76626  0.015682469  0.014785236            2 
 3831000   0.63378545   -8.1403589    721.58943  0.015696281  0.014780378            3 
 3832000    0.6535715   -8.1123017     722.3772  0.015709316  0.014775531            3 
 3833000   0.63757499   -8.0959785    722.94225  0.015717503  0.014770701            3 
 3834000   0.63224348   -8.1093119     721.0353  0.015671955  0.014765877            4 
 3835000    0.6392689   -8.1067131    720.81159  0.015663007  0.014761047            7 
 3836000   0.64043415   -8.1407516    722.06978  0.015686257  0.014756204            5 
 3837000   0.64126709   -8.1119762    722.54282  0.015692442  0.014751374            3 
 3838000   0.64776443   -8.1283113    721.61302  0.015668165   0.01474654            5 
 3839000   0.63545089   -8.1404338     721.6146  0.015664118    0.0147417            4 
 3840000   0.66033608   -8.1057033    720.96052  0.015645845  0.014736863            4 
 3841000    0.6417907   -8.1256597    721.86455  0.015661385  0.014732034            3 
 3842000    0.6436711   -8.1200057    720.98374  0.015638204  0.014727201            5 
 3843000   0.63716004   -8.1236379    722.57495  0.015668639  0.014722366            3 
 3844000   0.63021107   -8.1174804    722.27883  0.015658143  0.014717539            3 
 3845000   0.62513264   -8.1197562    722.21709  0.015652733  0.014712711            3 
 3846000   0.63039805   -8.1574332    720.63258   0.01561433  0.014707893            5 
 3847000   0.63753769   -8.1270048    721.50269   0.01562912  0.014703066            5 
 3848000   0.63722549   -8.1277678    721.70928  0.015629532  0.014698228            5 
 3849000    0.6373669   -8.1091065    720.58748  0.015601184  0.014693397            3 
 3850000   0.64805699   -8.1119865    722.06981  0.015629217  0.014688582            5 
 3851000    0.6385778   -8.1392424    721.87993  0.015621049  0.014683762            5 
 3852000   0.63761512   -8.1324575    722.29242  0.015625918  0.014678952            7 
 3853000   0.63401141   -8.1392904    720.96878  0.015593234   0.01467414            4 
 3854000   0.63686708   -8.1173431    722.50975  0.015622508  0.014669331            9 
 3855000   0.61954379   -8.1075341    722.70704   0.01562272  0.014664525            3 
 3856000   0.64758768   -8.1164808    722.24874  0.015608764  0.014659725            3 
 3857000   0.62575503   -8.1128888     721.8302  0.015595674  0.014654913            4 
 3858000   0.62876279   -8.1225139    721.47694  0.015584002  0.014650108            5 
 3859000   0.63645679   -8.1359706     721.2505  0.015575073  0.014645303            8 
 3860000   0.63800325   -8.1131898     721.9733  0.015586643  0.014640498           10 
 3861000   0.63963421   -8.1359532    722.96791  0.015604073  0.014635695            4 
 3862000   0.63081756   -8.1301848    721.93504  0.015577746  0.014630906            5 
 3863000   0.64065576   -8.1268315    722.07429  0.015576717  0.014626112            3 
 3864000   0.63801339   -8.1267519    721.46646  0.015559577  0.014621312            3 
 3865000   0.63689976   -8.1257882    722.43686  0.015576474  0.014616524            2 
 3866000   0.64556423   -8.1362666    722.87623  0.015581916  0.014611735            8 
 3867000   0.63119112   -8.1392473    722.20297  0.015563378  0.014606955            4 
 3868000   0.62488333   -8.1061448    723.89651   0.01559584  0.014602176            2 
 3869000   0.62624849   -8.1146542    723.17058  0.015576173  0.014597406            4 
 3870000   0.62655427   -8.1184399    723.52793  0.015579843  0.014592635            4 
 3871000   0.63395881   -8.1376477    721.95417  0.015541939  0.014587847            7 
 3872000   0.64188272    -8.116066    723.20778  0.015564906  0.014583079            3 
 3873000   0.63329265   -8.1051559    723.26956  0.015562216  0.014578317            2 
 3874000   0.63201499   -8.0977096    722.50529  0.015541759  0.014573564            4 
 3875000   0.62607997   -8.1299128    722.26048  0.015532483  0.014568796            3 
 3876000   0.61956234   -8.1361179    721.99936  0.015522862   0.01456402            1 
 3877000   0.62774406   -8.1274415    720.48509   0.01548631  0.014559244            3 
 3878000   0.63700509   -8.1171516    721.64306    0.0155072  0.014554475            5 
 3879000   0.63383671   -8.1191243    720.87572  0.015486717  0.014549705            2 
 3880000   0.63949359   -8.1297346    720.68487  0.015478627  0.014544934            4 
 3881000   0.61632942   -8.1349855    721.83721  0.015499382  0.014540169            3 
 3882000   0.62840717   -8.1197871    721.89287  0.015496584  0.014535409            2 
 3883000   0.63004332   -8.1026918    722.74925  0.015510972  0.014530656            2 
 3884000   0.63564351   -8.1072777    722.79613  0.015507984    0.0145259            3 
 3885000    0.6178465   -8.1154796     722.5206  0.015498082  0.014521152            3 
 3886000   0.62043422   -8.1321797    722.45666  0.015492723  0.014516388            3 
 3887000   0.63329253   -8.1283473    721.84787  0.015475685  0.014511626            2 
 3888000    0.6185072   -8.1170379    720.21391  0.015436684  0.014506859            2 
 3889000   0.61925978   -8.1112105    721.09045  0.015451497  0.014502105            2 
 3890000    0.6231828   -8.1206269    721.78908  0.015462491  0.014497346            1 
 3891000    0.6304661   -8.1137036    722.56111  0.015475052  0.014492584            5 
 3892000   0.62094188   -8.1180248     722.1302  0.015461849  0.014487833            3 
 3893000   0.62292649   -8.1332608    721.04073  0.015434556  0.014483073            2 
 3894000   0.62386413    -8.125944    722.72313  0.015466597  0.014478322            2 
 3895000   0.61817174   -8.1234905    721.86696  0.015444308  0.014473573            2 
 3896000   0.61701756    -8.115021    721.98466  0.015442862  0.014468829            2 
 3897000   0.62340115    -8.126539    721.66435  0.015432049  0.014464091            3 
 3898000   0.62205513    -8.150134    721.30215  0.015420347  0.014459347            2 
 3899000   0.62186243    -8.132307    723.27259  0.015458506  0.014454599           11 
 3900000   0.62620903   -8.1339427    720.75533  0.015400755  0.014449864            1 
 3901000   0.61553145   -8.1358374    721.90697  0.015421408  0.014445127            2 
 3902000   0.62686748   -8.1353857    721.51856  0.015409161   0.01444039            2 
 3903000   0.63582791    -8.113846    722.66779  0.015429751  0.014435666            2 
 3904000   0.63594664   -8.1146209     721.5764  0.015402502  0.014430936            2 
 3905000    0.6360576   -8.1408531    721.00341   0.01538633  0.014426196            5 
 3906000   0.62972926   -8.1425184    721.66719  0.015396552  0.014421465            3 
 3907000   0.62205594   -8.1369409    721.94166  0.015398466  0.014416744            3 
 3908000   0.62963426   -8.1165658    722.34032  0.015403026  0.014412017            2 
 3909000   0.63834333   -8.1152187    722.42667  0.015400927  0.014407298            3 
 3910000   0.62822728   -8.1514946    721.00363  0.015366659  0.014402572            4 
 3911000   0.62245589   -8.1249964    722.15701  0.015387305  0.014397837            3 
 3912000   0.62035213   -8.1417167    721.44783  0.015368265  0.014393103            1 
 3913000   0.62087246   -8.1541994    721.35973  0.015362461  0.014388378            4 
 3914000   0.62521535   -8.1409436    720.70698  0.015344638  0.014383649            3 
 3915000    0.6106054   -8.1452506    721.12764  0.015349673  0.014378928            3 
 3916000   0.62080449    -8.140578    722.97931  0.015385157  0.014374201            4 
 3917000   0.61535398   -8.1266736    722.46803  0.015370352  0.014369475            1 
 3918000   0.63206916   -8.1521364     720.7941  0.015330826  0.014364749            2 
 3919000   0.62587422   -8.1432499    722.07877  0.015354231  0.014360025            3 
 3920000   0.61135313   -8.1474665    722.35572  0.015356202  0.014355302            4 
 3921000   0.62216844    -8.170655    721.54798  0.015335118  0.014350584            2 
 3922000   0.62764126    -8.152626     721.0636  0.015320916  0.014345867            6 
 3923000   0.63124403   -8.1418193    721.81863  0.015333049  0.014341153            4 
 3924000   0.62348696   -8.1446322    721.51703  0.015322737  0.014336445            5 
 3925000   0.61902151   -8.1328529    721.36005    0.0153155  0.014331747            6 
 3926000   0.62310307   -8.1416447    720.43365  0.015291935  0.014327043            2 
 3927000   0.62269999   -8.1413275    721.75112  0.015315999   0.01432234            2 
 3928000   0.62652104   -8.1403415    721.41457  0.015304959  0.014317637            4 
 3929000   0.61498805   -8.1432626    722.00494  0.015313586  0.014312931            8 
 3930000   0.62702229   -8.1329541    721.13456  0.015291233  0.014308231            3 
 3931000   0.61954782   -8.1279832    721.67226  0.015298742  0.014303525            4 
 3932000   0.62662153   -8.1191163    721.87725  0.015299196  0.014298828           10 
 3933000   0.62611997   -8.1331863    721.54797  0.015288329  0.014294119            9 
 3934000   0.62712292   -8.1324366    721.93746  0.015292693  0.014289413            2 
 3935000   0.62465908   -8.1379744    722.13708  0.015293034  0.014284706            3 
 3936000   0.61915642   -8.1567873    721.69542  0.015279798  0.014280004            2 
 3937000   0.61197662    -8.135329    721.46408   0.01527102  0.014275298            2 
 3938000   0.61127959   -8.1480244    722.23065  0.015283364  0.014270595            9 
 3939000   0.62604809   -8.1401783    721.44741  0.015262914  0.014265892            2 
 3940000   0.61279588   -8.1392942    720.11061  0.015230766  0.014261184            3 
 3941000   0.60646312   -8.1592473     720.4727  0.015234558  0.014256475            4 
 3942000   0.62140053   -8.1599908    722.24015  0.015268057   0.01425177            3 
 3943000   0.62508149   -8.1502022    721.69934  0.015252755  0.014247061            2 
 3944000   0.61832727   -8.1403049    721.03015  0.015234748   0.01424236            3 
 3945000   0.60325862   -8.1588579    721.63045  0.015243567  0.014237659            5 
 3946000   0.61687857   -8.1436627    722.03739  0.015248298  0.014232961            2 
 3947000    0.6223956   -8.1453275     720.8998  0.015220416  0.014228268            2 
 3948000   0.61847163   -8.1578198    721.30295  0.015225071  0.014223574            2 
 3949000   0.63558726   -8.1356861    719.36188  0.015180254  0.014218881            2 
 3950000   0.62373972   -8.1681901    719.86074  0.015186935  0.014214192            3 
 3951000   0.63312229   -8.1477851    721.34103  0.015214314  0.014209509            5 
 3952000   0.62166994   -8.1528082    720.78503   0.01519874  0.014204825            6 
 3953000   0.62855298   -8.1580861     720.7207  0.015193539  0.014200137            4 
 3954000   0.62301415   -8.1657741    720.70022  0.015189264  0.014195454            2 
 3955000   0.62207662   -8.1488295    721.32643  0.015198618  0.014190767            3 
 3956000   0.62057325   -8.1306553    721.04021  0.015188747  0.014186092            2 
 3957000   0.61066037   -8.1413631    720.99626  0.015183983  0.014181426            2 
 3958000   0.61516063   -8.1599748    721.24298  0.015185341  0.014176759            3 
 3959000   0.60860807   -8.1729451    722.56988  0.015209436  0.014172086            3 
 3960000   0.61674579   -8.1436971    721.36007  0.015180136  0.014167409            3 
 3961000   0.62282561   -8.1401312    719.97302  0.015147122  0.014162742            3 
 3962000   0.63205613   -8.1540919    721.24779  0.015170112  0.014158071            3 
 3963000   0.62858929   -8.1813535    720.32646   0.01514691  0.014153402            3 
 3964000   0.61639239   -8.1604962    721.29365  0.015163422  0.014148732            6 
 3965000   0.61358366   -8.1321241    721.35677  0.015160924  0.014144059            2 
 3966000   0.60871552   -8.1854209    720.24762  0.015133796  0.014139387            5 
 3967000   0.61233222    -8.159315     721.8705  0.015164072  0.014134721            2 
 3968000    0.6031106   -8.1621624    720.23892  0.015125985  0.014130059            3 
 3969000   0.62009771   -8.1449163    721.63909  0.015151572  0.014125398            3 
 3970000   0.60672097   -8.1627929    721.21988  0.015138956  0.014120746            4 
 3971000   0.61997417   -8.1697451    721.54244  0.015141913  0.014116088            6 
 3972000   0.61401019   -8.1508053    722.43391  0.015156804  0.014111434            4 
 3973000   0.62018513    -8.149338    720.82381  0.015119218  0.014106778            3 
 3974000   0.61994555    -8.183573    720.48031   0.01510821  0.014102128            4 
 3975000   0.62591125   -8.1611104    719.49957  0.015083848  0.014097468            4 
 3976000   0.62394873   -8.1548037    721.64899  0.015125105  0.014092825            2 
 3977000   0.60784615   -8.1730552    720.29895  0.015093013  0.014088171            2 
 3978000   0.61515264   -8.1618015    721.13617  0.015106757   0.01408352            3 
 3979000   0.61034094    -8.167648    719.94069  0.015077923  0.014078866            4 
 3980000     0.622058   -8.1624403    720.87372  0.015093671  0.014074214            3 
 3981000   0.63001834   -8.1731958    722.22377   0.01511814  0.014069558            3 
 3982000   0.62849855   -8.1768146    720.32602  0.015074628  0.014064899            4 
 3983000   0.62141592   -8.1608437    720.26297  0.015069524  0.014060253            3 
 3984000    0.6129781   -8.1747327    719.98217  0.015059868  0.014055607            2 
 3985000   0.61152311   -8.1715811    721.21297  0.015081827   0.01405096            7 
 3986000   0.60940985   -8.1458423    720.54938   0.01506417  0.014046309            3 
 3987000   0.59525757   -8.1644879    720.40618  0.015057399  0.014041674            2 
 3988000   0.61534469   -8.1646227    720.59908  0.015057654  0.014037034            5 
 3989000   0.60881034   -8.1690721    721.35967  0.015069768    0.0140324            3 
 3990000   0.62033479   -8.1613666      719.914  0.015035798  0.014027761            3 
 3991000   0.61151586    -8.188674    719.78428  0.015029322  0.014023122            4 
 3992000   0.61505809   -8.1583567    720.37476  0.015037883  0.014018487            3 
 3993000   0.62006837   -8.1812852    721.74636  0.015062742  0.014013843            3 
 3994000   0.63484447   -8.1953735    721.33975  0.015050487  0.014009207            6 
 3995000   0.59712044   -8.1596344    719.75999  0.015013767  0.014004579            3 
 3996000   0.61310444   -8.1806992    721.53865  0.015047102  0.013999954            5 
 3997000   0.61030587   -8.1518305    722.10855   0.01505522  0.013995335            3 
 3998000   0.59689657   -8.1662697     719.2541  0.014991956  0.013990716            3 
 3999000   0.61540272    -8.160552    721.15857  0.015027894  0.013986096            2 
 4000000    0.6179614   -8.1488936    720.19162  0.015003992  0.013981482            6 
 4001000   0.61295974   -8.1901967    720.91855  0.015015383  0.013976863            4 
 4002000   0.61128937   -8.1691631    719.87637  0.014989929  0.013972243            4 
 4003000   0.61385702   -8.1879381    720.78822  0.015005167  0.013967621            6 
 4004000    0.6062938   -8.1648179    720.74454  0.015000511  0.013963016            3 
 4005000    0.6154757   -8.1610111    721.08807  0.015003913  0.013958402            5 
 4006000   0.61746819    -8.169593    720.90205  0.014996298  0.013953791            4 
 4007000   0.60797444    -8.159299    720.53483  0.014984919  0.013949181            3 
 4008000   0.61414321   -8.1909046    720.28475   0.01497598  0.013944571            3 
 4009000   0.61127316   -8.1692252     720.1607  0.014969666  0.013939946            3 
 4010000   0.61304092   -8.1794236     720.6814  0.014976754  0.013935326            4 
 4011000   0.59433349   -8.1807263    719.98054  0.014958459  0.013930715            5 
 4012000   0.60143175    -8.174231    721.88794  0.014994349  0.013926105            3 
 4013000   0.60069035   -8.1787862    720.27256  0.014957068  0.013921492            4 
 4014000   0.61200324   -8.1799364    719.83868  0.014944334  0.013916879            4 
 4015000   0.61920586   -8.1755173    719.80727   0.01493996  0.013912268            3 
 4016000   0.61440313   -8.2007515    720.27036  0.014945849  0.013907657            4 
 4017000   0.60910633   -8.1749533    719.15412  0.014918972  0.013903055            3 
 4018000   0.60766525   -8.1734408    720.35149  0.014940092   0.01389845            5 
 4019000   0.59824177   -8.1688326    720.11592   0.01493149  0.013893852            6 
 4020000    0.6113343   -8.1978776    719.18302  0.014908437  0.013889254            3 
 4021000   0.62278131    -8.204576    720.81589   0.01493857  0.013884652            5 
 4022000   0.60764467   -8.2082386    719.97812  0.014917498  0.013880058            3 
 4023000    0.6081071   -8.1792104    719.62487  0.014906473   0.01387546            5 
 4024000   0.62101236   -8.2104271    720.13067  0.014913243  0.013870864            2 
 4025000   0.61735229   -8.1902309    719.76142  0.014901893  0.013866271            3 
 4026000   0.59940575     -8.19866     719.7538  0.014898034  0.013861684            2 
 4027000   0.61823523   -8.1972767    719.07973  0.014880385  0.013857096            2 
 4028000   0.60759998   -8.1809887    720.53517  0.014906802   0.01385251            5 
 4029000    0.6119881   -8.2049719    718.81954  0.014867617  0.013847927            4 
 4030000   0.58811217   -8.1862577     720.5775  0.014900279  0.013843338            3 
 4031000   0.61536185    -8.201648    719.70179  0.014878479  0.013838747            3 
 4032000   0.60634131   -8.2031488    719.25019  0.014865455  0.013834159            3 
 4033000    0.6078526    -8.192369    719.51495   0.01486724  0.013829583            6 
 4034000   0.59644923   -8.2036315    719.68391  0.014867045  0.013825004            3 
 4035000   0.60895568   -8.2031185    720.26513  0.014875364  0.013820427            5 
 4036000   0.61259155   -8.1913171    719.79506  0.014861973  0.013815853            3 
 4037000   0.61005119   -8.1831837    720.12572  0.014865117  0.013811288            2 
 4038000   0.61261501   -8.1952412    720.32445  0.014865537  0.013806716            6 
 4039000   0.61319261   -8.1990741    719.99035  0.014854963  0.013802147            1 
 4040000   0.59967853   -8.1872525    720.11285  0.014853813  0.013797579            4 
 4041000   0.59584982   -8.1785661    719.38904  0.014835211  0.013793008            5 
 4042000   0.61449806    -8.189573     719.1093  0.014825773  0.013788441            3 
 4043000    0.6141475   -8.1930726    720.08702  0.014842259  0.013783874            2 
 4044000   0.60669523   -8.1935804    720.12942  0.014839462  0.013779304            7 
 4045000   0.60642889    -8.202242    720.30951  0.014839504  0.013774737            3 
 4046000    0.6045459   -8.1917565     719.3144   0.01481534  0.013770173            3 
 4047000   0.61476606   -8.1961319    720.23836  0.014830705  0.013765607            3 
 4048000   0.60271088   -8.1805326    719.29925  0.014807709  0.013761044            2 
 4049000   0.60072782   -8.1952766    718.83239  0.014794443  0.013756477            2 
 4050000   0.59613005   -8.2146278    719.92802  0.014813334   0.01375191            5 
 4051000   0.59967036    -8.181881    719.90121  0.014809125  0.013747358            3 
 4052000   0.60698115   -8.1930442    720.18356  0.014811278    0.0137428            3 
 4053000   0.58995655   -8.2084512    720.18141  0.014807579  0.013738248            2 
 4054000   0.60361931   -8.1964998    720.86589  0.014817997  0.013733699            2 
 4055000   0.61550443   -8.2126932    720.13852  0.014799394  0.013729142            4 
 4056000   0.59733573   -8.1983944    718.62931  0.014764738  0.013724586            2 
 4057000   0.59594294   -8.1888665    719.15763   0.01477195  0.013720038            4 
 4058000   0.61178278   -8.2084969    719.51568  0.014775663  0.013715495            4 
 4059000   0.60447311   -8.1977094    720.50792  0.014792394  0.013710952            2 
 4060000   0.59280785   -8.2003051    719.66718  0.014771494  0.013706416            4 
 4061000   0.59621262   -8.2146653    720.90947  0.014793349  0.013701884            2 
 4062000   0.60804584   -8.2040237    719.77289   0.01476639  0.013697349            4 
 4063000   0.60904098    -8.209271    719.34222  0.014753922  0.013692812            4 
 4064000   0.59076052   -8.2044355    720.13954  0.014766641  0.013688269            2 
 4065000   0.58894893   -8.1996023    719.97818    0.0147597  0.013683732            3 
 4066000   0.59021708     -8.18486    721.44286  0.014786089    0.0136792            3 
 4067000   0.60012393    -8.215454    720.43516  0.014761806  0.013674666            4 
 4068000   0.60788794   -8.2125094    720.75951  0.014764821  0.013670131            2 
 4069000   0.60619509   -8.2065409    720.26904  0.014751148  0.013665597            6 
 4070000   0.59987685   -8.1943335    718.78987  0.014717237  0.013661057            3 
 4071000   0.59881049   -8.2110141    719.00765   0.01471808  0.013656524            3 
 4072000   0.60033197   -8.2002135    720.53084  0.014745638  0.013651993            3 
 4073000   0.59689612   -8.1996163    720.40452  0.014739433  0.013647466            7 
 4074000   0.59338316   -8.2011764    718.49657  0.014696788  0.013642941            4 
 4075000   0.59350262   -8.2018858    718.73756   0.01469811  0.013638421            3 
 4076000   0.60254847   -8.1927456    718.99109  0.014699687  0.013633903            4 
 4077000   0.59339746   -8.2007987     718.9794  0.014695843  0.013629391            3 
 4078000   0.59275827   -8.1957192    718.88194  0.014690247  0.013624884            3 
 4079000   0.60546624   -8.2168293    721.17635   0.01473352  0.013620365            3 
 4080000   0.60528468   -8.2003323    720.25874  0.014711167   0.01361585            3 
 4081000   0.59901285    -8.202638    721.65999  0.014736176  0.013611332            4 
 4082000   0.59584945    -8.196373    719.82761  0.014695158  0.013606816            3 
 4083000   0.61274486   -8.2196252    718.46226  0.014663692  0.013602292            2 
 4084000   0.59828595   -8.2076648    719.94372  0.014690331  0.013597775            4 
 4085000   0.60025086   -8.2139489    719.60556  0.014679836  0.013593265            3 
 4086000    0.6046563   -8.2224795    718.75077   0.01465881  0.013588749            2 
 4087000   0.60067985   -8.1983084    718.74585  0.014655123  0.013584241            2 
 4088000   0.61276172    -8.203884    719.60746  0.014669102  0.013579736            2 
 4089000   0.59876277   -8.2090741    719.61518  0.014665672  0.013575237            3 
 4090000   0.60593843   -8.1938429    720.38327  0.014677736  0.013570742            3 
 4091000   0.60160281   -8.1864117    719.73945  0.014661033  0.013566251            3 
 4092000   0.60666066   -8.2012128    720.25363  0.014667922  0.013561755            3 
 4093000   0.59259721   -8.1912565    719.43959  0.014647764  0.013557269            2 
 4094000   0.59641746   -8.1889243    720.51386  0.014666053  0.013552787            1 
 4095000   0.58696031   -8.1953598    718.78351  0.014627259  0.013548313            4 
 4096000   0.59366329   -8.2012716    721.18406  0.014672527  0.013543837            4 
 4097000   0.59923855   -8.2109254    720.06951  0.014646276  0.013539351            3 
 4098000   0.58767051   -8.2061835    720.48504  0.014651152  0.013534866            3 
 4099000   0.61586835   -8.2053756    720.10812  0.014639915  0.013530384            2 
 4100000   0.58673595   -8.2003773    720.18797  0.014637967  0.013525907            5 
 4101000   0.60258278   -8.2123787    719.65784  0.014623625  0.013521419            3 
 4102000   0.60062411   -8.1941602    718.59683  0.014598505   0.01351694            3 
 4103000   0.59276881   -8.2084054    716.47044   0.01455176   0.01351246            1 
 4104000   0.58945442   -8.2037377    717.86985  0.014576629   0.01350798            7 
 4105000    0.6006736    -8.218768    718.85338  0.014593045  0.013503495            6 
 4106000   0.59010953   -8.2317597    718.10914  0.014574386  0.013499015            3 
 4107000   0.59276719   -8.2152759    719.56783  0.014600435  0.013494538            3 
 4108000    0.5940634   -8.1881713    720.84355  0.014622759   0.01349006            7 
 4109000   0.58692661   -8.2098899    719.16129  0.014585083  0.013485584            3 
 4110000   0.60025031   -8.2074698    719.02053  0.014578681  0.013481106            2 
 4111000   0.58857266    -8.203054    718.03968  0.014555252  0.013476637            3 
 4112000    0.5859198   -8.2127437    718.61712  0.014563414  0.013472159            3 
 4113000   0.59444706    -8.204756    719.95022  0.014586883   0.01346769            3 
 4114000   0.59078575   -8.2137397    718.86494  0.014561354  0.013463221            3 
 4115000   0.59337825   -8.2147125    718.52489  0.014550929  0.013458753            3 
 4116000   0.58726558   -8.2014091    720.52873  0.014587964  0.013454286            4 
 4117000   0.57379624   -8.2132565    719.67343  0.014567108  0.013449827            4 
 4118000   0.59655516   -8.1945428    718.76813  0.014545251  0.013445367            4 
 4119000   0.59175811   -8.2144376     719.9075  0.014564771  0.013440904            6 
 4120000    0.5859678    -8.215672    720.33561  0.014569895  0.013436444            4 
 4121000   0.59846959   -8.2166892    718.16592  0.014522485  0.013431983            5 
 4122000   0.57977073   -8.2202384    718.76839  0.014531142   0.01342752            2 
 4123000   0.59836698    -8.217475    719.05839  0.014533479  0.013423068            2 
 4124000   0.58196954   -8.2047846    719.41268  0.014537114  0.013418615            2 
 4125000   0.58309791   -8.2203364    719.30193  0.014531352  0.013414167            3 
 4126000   0.58175226   -8.2355313    718.73699   0.01451642  0.013409714            3 
 4127000   0.58820477   -8.2171834    719.20529  0.014522359   0.01340527            6 
 4128000   0.58366194   -8.2083609    719.95066  0.014533888  0.013400828            2 
 4129000   0.58158016   -8.1918474    718.94336  0.014510038  0.013396386            3 
 4130000   0.58529798   -8.2118697    718.63427  0.014500288  0.013391947            4 
 4131000   0.59694498   -8.2112568    718.79361  0.014499992  0.013387511            3 
 4132000   0.60331822   -8.2177945     719.1092  0.014502848  0.013383078            4 
 4133000   0.58296348   -8.2101785    718.89871  0.014495095  0.013378649            6 
 4134000   0.59536709   -8.2152322    719.65806  0.014506895  0.013374219            4 
 4135000   0.58440935   -8.2146017    719.45518  0.014499298  0.013369787            2 
 4136000   0.58636398   -8.2372354    719.30946  0.014492857  0.013365361            2 
 4137000   0.59791837   -8.2228509    719.51908  0.014493576  0.013360941            3 
 4138000   0.58988235   -8.2327739    719.57176  0.014491134  0.013356521            4 
 4139000   0.59005514   -8.2275871    720.13332  0.014498939  0.013352099            3 
 4140000   0.60017679   -8.2160933     718.6599  0.014465779  0.013347685            2 
 4141000   0.58740898   -8.2060552    719.87546  0.014486748  0.013343264            7 
 4142000   0.58884498   -8.2117141    718.96326  0.014464897  0.013338843            2 
 4143000   0.59250266   -8.2298028    719.40393   0.01447027   0.01333443            2 
 4144000   0.58274576   -8.2177034    718.91197  0.014456885  0.013330016            2 
 4145000   0.58651729   -8.2287925    718.39903  0.014443085  0.013325606            3 
 4146000    0.5989452   -8.2242083    718.56575  0.014442952  0.013321188            2 
 4147000   0.59467951   -8.2198495    719.50106  0.014458264  0.013316775            4 
 4148000   0.59620379   -8.2310819    718.21617  0.014428965  0.013312357            4 
 4149000   0.58609362   -8.2355206    719.33487  0.014447957  0.013307946            2 
 4150000   0.57393662   -8.2062439    718.42169  0.014426138  0.013303537            3 
 4151000   0.58700661   -8.2328587    719.59387  0.014446195  0.013299124            3 
 4152000   0.57739165   -8.2281564    718.43044  0.014419365  0.013294712            5 
 4153000    0.5773129   -8.2267541    719.09689  0.014429266  0.013290297            2 
 4154000   0.58383624    -8.235225    718.26294  0.014409062  0.013285883            4 
 4155000   0.58106065   -8.2204921    717.87286  0.014397771  0.013281477            2 
 4156000   0.58067788   -8.2290379    719.41132  0.014425155  0.013277071            3 
 4157000   0.59068476   -8.2278291    718.77796  0.014408988  0.013272662            3 
 4158000   0.59114601    -8.219064    718.09062  0.014391747  0.013268254            3 
 4159000    0.5955397   -8.2356177     718.4503  0.014395494  0.013263848            3 
 4160000   0.57841888    -8.231255    719.16562  0.014406363  0.013259452            7 
 4161000   0.59602515   -8.2273042    719.60014  0.014411603  0.013255053            5 
 4162000   0.57248556   -8.2056469    718.85924  0.014393305  0.013250665            5 
 4163000   0.59555654   -8.2267378    718.45205  0.014381697  0.013246273            4 
 4164000   0.59244033   -8.2230342    719.22353  0.014393683   0.01324188            5 
 4165000    0.5768195   -8.2390405    720.24278   0.01441062  0.013237493            3 
 4166000   0.59265563   -8.2170421     718.9826  0.014381953  0.013233108            2 
 4167000   0.58348431   -8.2219893    719.69696  0.014392788  0.013228718            3 
 4168000   0.59112044   -8.2367692    718.50631  0.014365529  0.013224333            6 
 4169000   0.58417361   -8.2278776    718.74512  0.014366857  0.013219949            2 
 4170000   0.59733363   -8.2339399    719.49586  0.014378414  0.013215566            3 
 4171000   0.56267847   -8.2367836    719.11225  0.014367303  0.013211184            3 
 4172000   0.57674165   -8.2315079    717.71692  0.014335988  0.013206806            2 
 4173000   0.58292138   -8.2127089    718.38607  0.014345916   0.01320243            3 
 4174000   0.57534478   -8.2428999    717.83411  0.014331459  0.013198055            4 
 4175000   0.56846582   -8.2391803    719.00039  0.014351305  0.013193682            3 
 4176000   0.58004207   -8.2258528    719.22438  0.014352338  0.013189299            3 
 4177000   0.57822527   -8.2533087    718.06943   0.01432586  0.013184924            3 
 4178000   0.59562641   -8.2245775    718.45654  0.014330153  0.013180552            2 
 4179000   0.58214608   -8.2138419    719.06855  0.014338928  0.013176174            3 
 4180000   0.58739303   -8.2315547    717.03176  0.014294892  0.013171796            2 
 4181000   0.59053391   -8.2297622    717.96136  0.014310001  0.013167425            3 
 4182000   0.58035999   -8.2334632    718.74153  0.014322125  0.013163053            3 
 4183000   0.57855386   -8.2242047    717.86853  0.014301309  0.013158692            2 
 4184000   0.58065106   -8.2214931    718.23867  0.014305264  0.013154328            7 
 4185000   0.57301739   -8.2349812    718.55093  0.014308063  0.013149959            4 
 4186000   0.57364422   -8.2334924     717.3596  0.014280929  0.013145592            3 
 4187000   0.57224704   -8.2527593    718.69347  0.014304065  0.013141225            3 
 4188000    0.5816448   -8.2546297     717.5861  0.014278616  0.013136862            3 
 4189000   0.58992133   -8.2468323    718.27119  0.014288836  0.013132499            3 
 4190000   0.58636816   -8.2224625    718.69497  0.014293854  0.013128137            3 
 4191000   0.58168972   -8.2204176    718.93763  0.014295268  0.013123783            3 
 4192000    0.5681475   -8.2367095    718.29125  0.014279009   0.01311943            2 
 4193000   0.58594047   -8.2610962    718.87383  0.014287182  0.013115077            3 
 4194000   0.58497224   -8.2542292    717.85624  0.014263556  0.013110716            2 
 4195000   0.58651956   -8.2290329    718.89168  0.014280725  0.013106355            2 
 4196000   0.59117279   -8.2701523    718.71742   0.01427386  0.013102008            3 
 4197000   0.58704661    -8.237612     717.9755  0.014255728  0.013097661            3 
 4198000   0.58082657   -8.2322409    717.95174  0.014251861  0.013093314            2 
 4199000   0.57931987   -8.2472855    718.21979  0.014253786  0.013088971            2 
 4200000    0.5886515   -8.2500993    719.75474  0.014280848  0.013084625            2 
 4201000   0.57226213   -8.2350091    718.88845  0.014260264  0.013080279            3 
 4202000   0.56860355   -8.2414334    716.99984  0.014219416  0.013075935            2 
 4203000   0.58636657   -8.2499189    716.95205  0.014215085  0.013071594            3 
 4204000   0.58396342   -8.2421462    718.69164  0.014246187   0.01306726            3 
 4205000   0.58331524   -8.2674516    718.36938  0.014236413  0.013062923            3 
 4206000   0.59134674   -8.2426276    718.77992  0.014241162  0.013058586            3 
 4207000   0.57384558   -8.2329127    719.48824  0.014251807  0.013054252            4 
 4208000   0.57764278   -8.2544219    718.11064  0.014221139  0.013049919            2 
 4209000   0.58346877   -8.2482906    718.61699  0.014227786  0.013045586            2 
 4210000   0.57351934   -8.2419157    718.87135  0.014229441  0.013041252            2 
 4211000    0.5748106   -8.2573879    717.15089  0.014192015   0.01303692            4 
 4212000   0.58413813    -8.249396    716.85765  0.014182844  0.013032591            4 
 4213000   0.58525326   -8.2447247    718.22124  0.014206449  0.013028258            4 
 4214000    0.5818331   -8.2515887    717.29156  0.014184693  0.013023922            3 
 4215000   0.57742598   -8.2370487    718.94309   0.01421398  0.013019594            3 
 4216000   0.57670023   -8.2403768     718.0951  0.014193847  0.013015273            3 
 4217000   0.57003628   -8.2316843    719.03924  0.014209138  0.013010951            7 
 4218000   0.58731412   -8.2577338    719.43305   0.01421355  0.013006636            4 
 4219000   0.57851741    -8.233895    719.45511  0.014210617  0.013002315            5 
 4220000   0.56649147   -8.2597031    718.67188  0.014191783  0.012997992            5 
 4221000   0.59106682   -8.2615366    717.64911  0.014168229  0.012993672            2 
 4222000   0.57148646   -8.2399754    717.61692  0.014164237  0.012989354            4 
 4223000   0.57727265   -8.2493161    718.75801  0.014183401  0.012985038            3 
 4224000   0.58543314   -8.2609872    716.68273    0.0141391  0.012980721            6 
 4225000   0.58068443   -8.2606999     717.7322  0.014156454  0.012976406            7 
 4226000   0.57870498   -8.2726254    718.42297  0.014166725   0.01297209            3 
 4227000   0.56847544   -8.2394247    717.46221  0.014144433  0.012967776            3 
 4228000   0.58160076   -8.2545181    718.34955  0.014158577  0.012963472            3 
 4229000   0.56453555   -8.2524996     716.7948  0.014124592  0.012959168            3 
 4230000   0.58900484   -8.2547595    718.35843  0.014152057  0.012954865            8 
 4231000   0.57026642   -8.2390648    718.23981  0.014146376  0.012950559            2 
 4232000   0.58107563    -8.250265    718.09714  0.014140224  0.012946256            3 
 4233000   0.57679603   -8.2590297    719.18768  0.014158353  0.012941958            4 
 4234000   0.57390295   -8.2535964    718.12174  0.014134029  0.012937661            5 
 4235000   0.56779353   -8.2571058    717.11339   0.01411085   0.01293336            5 
 4236000   0.57178045   -8.2680344    717.86375   0.01412228  0.012929064            2 
 4237000   0.57212595   -8.2494782    717.29995  0.014107858  0.012924772            4 
 4238000    0.5904042   -8.2781324    718.30845   0.01412436  0.012920475            8 
 4239000   0.56979304   -8.2820664    717.36653  0.014102511  0.012916175            2 
 4240000   0.58666007   -8.2677348     718.9771  0.014130839  0.012911881            4 
 4241000   0.57823782   -8.2582015    716.48314  0.014078502  0.012907588            5 
 4242000   0.56271036   -8.2742416     717.9935  0.014104854  0.012903299            5 
 4243000   0.55974466   -8.2587406    718.70909  0.014115584  0.012899014            4 
 4244000   0.57657069   -8.2551777    718.31741  0.014104567  0.012894726            4 
 4245000   0.56961072   -8.2537849    717.32181    0.0140817  0.012890445            6 
 4246000   0.59193069   -8.2564202    717.80854  0.014087936  0.012886166            3 
 4247000   0.56850767   -8.2734426    717.53057  0.014079165  0.012881889            7 
 4248000   0.58116254   -8.2612509    718.02228  0.014085497  0.012877614            2 
 4249000   0.56921299   -8.2705577    716.81463  0.014058497  0.012873335            3 
 4250000   0.55130072   -8.2549913    717.55327  0.014069672  0.012869053            4 
 4251000   0.57065761     -8.27267    716.98501  0.014055223  0.012864776            5 
 4252000   0.57917184   -8.2406266    716.91372   0.01405052  0.012860507            3 
 4253000   0.56946678   -8.2601216     717.0803   0.01405048  0.012856232            3 
 4254000   0.56749619   -8.2616573    718.49821  0.014074953   0.01285196            5 
 4255000   0.57413958   -8.2657808    717.39326  0.014050005  0.012847692            5 
 4256000   0.57339159   -8.2528084    716.84084  0.014035887  0.012843425            3 
 4257000   0.56019341   -8.2858726    717.53826  0.014046243  0.012839157            3 
 4258000   0.56259449   -8.2712546    717.86615  0.014049361  0.012834889            3 
 4259000   0.56950093   -8.2630633    717.96225  0.014047943  0.012830625            6 
 4260000   0.57299222   -8.2765001    718.01371  0.014045652  0.012826361            7 
 4261000   0.56662187   -8.2508936    718.52268  0.014052309  0.012822101            1 
 4262000   0.57553302   -8.2642449     717.7673  0.014034243  0.012817849            2 
 4263000   0.56141896   -8.2627612    717.28321  0.014021487  0.012813593            3 
 4264000    0.5696436   -8.2670406    718.26444  0.014037376  0.012809338            2 
 4265000   0.56110201   -8.2595868     717.8429  0.014025848  0.012805082            2 
 4266000   0.55331566   -8.2737379    718.07197  0.014027035  0.012800829            4 
 4267000   0.57046195   -8.2666507    717.61087  0.014014742   0.01279658            4 
 4268000    0.5640174   -8.2795835    716.22925  0.013984482  0.012792332            2 
 4269000   0.57090529   -8.2547676    717.46513  0.014005332  0.012788082            2 
 4270000   0.56764098   -8.2728118    716.66242  0.013986386  0.012783837            3 
 4271000   0.57079811   -8.2693568    718.42186   0.01401744  0.012779593            5 
 4272000   0.56817429     -8.28749    717.22251  0.013990764  0.012775349            4 
 4273000   0.57955011   -8.2668077    718.45305  0.014011488  0.012771108            4 
 4274000    0.5681894   -8.2732196    718.44904  0.014008131  0.012766868            3 
 4275000   0.56802992   -8.2612458    716.86459  0.013973969  0.012762629            3 
 4276000   0.56520101   -8.2692492     716.4252  0.013962138  0.012758392            7 
 4277000   0.56050383   -8.2745385    715.85821  0.013947826  0.012754156            6 
 4278000   0.56802515   -8.2766773    717.00855  0.013966973  0.012749916            5 
 4279000   0.57330326    -8.277476    716.97566  0.013963069  0.012745687            3 
 4280000   0.57653981    -8.255967    716.40941  0.013948781  0.012741455            4 
 4281000   0.56463749   -8.2797861    717.46156  0.013966004  0.012737225            4 
 4282000   0.55961254   -8.2873767    716.66035   0.01394715  0.012732994            5 
 4283000   0.56207385   -8.2716694    716.88708  0.013948305  0.012728764            3 
 4284000   0.56664186   -8.2782023    715.68781  0.013921721  0.012724535            2 
 4285000   0.55577698   -8.2677817    717.22149  0.013948298  0.012720307            3 
 4286000   0.57031884   -8.2892657    717.40434  0.013948599  0.012716082            4 
 4287000   0.57150223   -8.2754824      715.985  0.013917755  0.012711857            4 
 4288000    0.5594121   -8.2587292    715.97764  0.013914367  0.012707634            7 
 4289000   0.56523076   -8.2801047    717.15103  0.013933921  0.012703403            5 
 4290000   0.55710815   -8.2867859    717.53557  0.013938142  0.012699181            5 
 4291000   0.57178652   -8.2833072    716.17044  0.013908383   0.01269496            5 
 4292000   0.56229623   -8.2758947    716.93078  0.013919905  0.012690739            6 
 4293000   0.55390767   -8.2835098    716.12343  0.013900991  0.012686519            6 
 4294000   0.57122239    -8.289164    716.69095  0.013908767  0.012682299            3 
 4295000   0.56756696   -8.2669935    716.31097  0.013898156  0.012678085            3 
 4296000   0.57139786   -8.2878252     714.8951  0.013867456  0.012673873            3 
 4297000   0.57215459   -8.2822905    716.09359  0.013887472  0.012669665            3 
 4298000    0.5624143   -8.2661953    717.73063  0.013915981  0.012665461            5 
 4299000   0.58063579   -8.2867004    717.41737  0.013906672  0.012661255            4 
 4300000   0.55864235    -8.280699    716.27885  0.013881373  0.012657051            5 
 4301000   0.55901343   -8.2780793    716.36373   0.01387979  0.012652845            5 
 4302000   0.58421908   -8.2611081    715.28545  0.013855677  0.012648639            3 
 4303000   0.56919466   -8.2810607    716.91482  0.013884012  0.012644438            3 
 4304000   0.57334858   -8.2818812     717.9547   0.01390092  0.012640235            2 
 4305000     0.576442   -8.2880126    716.75055  0.013874381  0.012636037            6 
 4306000   0.56411886   -8.2876786    717.11115  0.013878138  0.012631838            5 
 4307000   0.56933594   -8.2960542    715.61245  0.013845919  0.012627637            2 
 4308000   0.57502727   -8.2876704    717.54118  0.013880013  0.012623444            7 
 4309000   0.55925079   -8.2733595    716.56752  0.013857962  0.012619256            4 
 4310000   0.56047705   -8.2843044    717.78183  0.013878226  0.012615067            8 
 4311000   0.57350697   -8.2779499    717.88852  0.013877069  0.012610883            4 
 4312000   0.57038786   -8.2865033    716.61044  0.013849151  0.012606703            6 
 4313000   0.55716837   -8.2814718    717.48218  0.013862783  0.012602523            3 
 4314000   0.55902352   -8.2877135    716.79378  0.013846271  0.012598345            3 
 4315000   0.56015852   -8.2796449    716.94869  0.013846054  0.012594167            6 
 4316000   0.55852454    -8.276593     717.4949  0.013853392  0.012589991            4 
 4317000   0.55127686   -8.2873967    718.46916   0.01386899  0.012585819            5 
 4318000    0.5565601   -8.2771947    716.76792  0.013832946  0.012581642            4 
 4319000   0.55794202   -8.2832538    715.69636  0.013809068  0.012577465            5 
 4320000   0.57180011   -8.2867448     717.3706  0.013838167  0.012573295            2 
 4321000   0.55406549   -8.2928153    716.48019  0.013817793  0.012569125            4 
 4322000   0.56609579   -8.2802284    717.50745  0.013834402  0.012564958            5 
 4323000   0.56629281   -8.2873624    717.02226  0.013821849  0.012560787            6 
 4324000    0.5507862    -8.310528    716.47831   0.01380817  0.012556616            4 
 4325000   0.55960807   -8.3126749    716.38874  0.013803251  0.012552446            4 
 4326000   0.54768823   -8.3029059    715.98064  0.013792199  0.012548275            4 
 4327000   0.55304406   -8.2867106    715.45988  0.013778982  0.012544103            2 
 4328000   0.56128438    -8.288871    717.37117    0.0138126  0.012539941            7 
 4329000   0.55029175   -8.3012267    715.31388  0.013769806  0.012535778            3 
 4330000   0.55641235   -8.2935145    716.21051  0.013783882  0.012531615            6 
 4331000   0.55645191   -8.2722255    716.33331  0.013783062  0.012527459            4 
 4332000   0.55579036   -8.3036821    716.86721  0.013790151  0.012523306            7 
 4333000   0.53996292   -8.2876433    716.39025  0.013777795  0.012519151            4 
 4334000   0.56120254   -8.2936374    717.82113  0.013802129  0.012514999            3 
 4335000    0.5632827   -8.2903044    715.83612  0.013760787  0.012510848            6 
 4336000   0.57007088   -8.2946765    717.22635  0.013784332  0.012506701            6 
 4337000   0.55752584   -8.2934905    717.17748  0.013780215  0.012502557            4 
 4338000   0.53383048   -8.2870602    717.10979  0.013775737  0.012498415            4 
 4339000    0.5536132   -8.2915459    716.34399  0.013757855  0.012494272            4 
 4340000   0.55495461   -8.2883556    717.02559  0.013767772   0.01249013            5 
 4341000   0.56510443   -8.2882758    716.93096  0.013762784  0.012485994            5 
 4342000   0.56139349   -8.2836088    716.94907  0.013759962  0.012481854            7 
 4343000   0.55954388   -8.2993018    716.40903  0.013746432  0.012477715            6 
 4344000    0.5726871   -8.2818356    717.90248  0.013771917  0.012473582            4 
 4345000   0.55553606   -8.2796063     715.8157  0.013728725  0.012469447            3 
 4346000   0.55001357   -8.2949279    717.28328  0.013753706  0.012465315            6 
 4347000   0.55260634   -8.2780398      715.641  0.013719059   0.01246118            4 
 4348000   0.55848698   -8.3070858    717.36078  0.013748865   0.01245705            4 
 4349000   0.56720114   -8.2915824    715.68437  0.013713581  0.012452922            4 
 4350000   0.54553766   -8.3029738    716.13011  0.013718968  0.012448792            3 
 4351000   0.55610366   -8.2955737    717.15622  0.013735467  0.012444665            6 
 4352000   0.56160936   -8.2952269    717.26154  0.013734328  0.012440537            2 
 4353000   0.56119067    -8.292317    717.46091  0.013734989  0.012436415            3 
 4354000   0.54453242   -8.2749271    716.26049   0.01370886  0.012432293            4 
 4355000   0.55960917   -8.2890268    716.21074   0.01370476  0.012428172            3 
 4356000    0.5600248    -8.281859    716.69127  0.013710806  0.012424051            6 
 4357000   0.55317271     -8.30634    715.62359  0.013687239   0.01241993            2 
 4358000    0.5512165   -8.2750313    716.57626  0.013702315  0.012415812            3 
 4359000   0.55064518    -8.291707      715.896  0.013686167  0.012411697            3 
 4360000   0.55433685   -8.2812988    717.51761  0.013714022  0.012407585            3 
 4361000    0.5552867   -8.3058445    716.01973  0.013682254  0.012403472            4 
 4362000   0.55541787   -8.3049654    716.43406  0.013687033  0.012399359            5 
 4363000   0.56220065   -8.2949665     715.9491  0.013674633  0.012395248            3 
 4364000   0.55954246   -8.2974555    715.53245  0.013663544  0.012391139            2 
 4365000   0.55898145   -8.3089833    716.43433  0.013677631  0.012387032            5 
 4366000   0.57343046   -8.2966322     716.1719   0.01366949  0.012382931            7 
 4367000   0.55296649   -8.2792707    717.04455  0.013683012   0.01237883            3 
 4368000   0.54039567   -8.2983804    716.89775  0.013677079  0.012374733            2 
 4369000   0.56014354   -8.2981186    716.20027  0.013660645  0.012370635            4 
 4370000   0.55228763   -8.2888833    717.75761  0.013687216  0.012366536            5 
 4371000   0.56774662   -8.2976894     717.7639  0.013684205  0.012362441            3 
 4372000    0.5518592   -8.2940248    716.59882  0.013658867  0.012358349            3 
 4373000   0.54840046   -8.2766547    716.57974   0.01365538  0.012354257            5 
 4374000   0.53154332   -8.3032377     715.2522  0.013626966  0.012350166            4 
 4375000   0.54772992   -8.3246992    716.46649  0.013646981  0.012346074            4 
 4376000   0.54307638   -8.3095599    715.28161  0.013621298  0.012341983            2 
 4377000    0.5517016   -8.2831946    716.69401  0.013645077  0.012337895            3 
 4378000   0.54668458   -8.2950077    716.54992  0.013639217  0.012333805            4 
 4379000   0.54863225   -8.2987393    716.30836  0.013631506  0.012329718            4 
 4380000   0.55280747   -8.3039181    716.52474   0.01363251  0.012325638            3 
 4381000   0.55921039   -8.2893817    715.75577  0.013614772  0.012321558            5 
 4382000   0.54703418   -8.3236525    716.17248  0.013619589  0.012317478            5 
 4383000   0.55411101   -8.2995742    715.67452  0.013607014  0.012313395            4 
 4384000   0.55971353    -8.300036    715.65935  0.013603622  0.012309318            3 
 4385000   0.55724898   -8.3030889    715.87563   0.01360463  0.012305239            3 
 4386000   0.54544049   -8.3007077    715.05706  0.013585976  0.012301164            3 
 4387000   0.54097437   -8.2844423    716.40946  0.013608568  0.012297093            4 
 4388000   0.55080257   -8.2895404    716.42332   0.01360573  0.012293021            3 
 4389000   0.53764983    -8.297781    715.07869    0.0135771  0.012288948            3 
 4390000    0.5565683   -8.3033873    715.28341  0.013577893   0.01228488            5 
 4391000   0.55843549   -8.2906406    718.00559  0.013626463  0.012280817            2 
 4392000   0.54722736   -8.2968853    716.35832  0.013592105  0.012276754            2 
 4393000   0.54790458   -8.3143255    715.32488  0.013569407  0.012272688            3 
 4394000   0.54658586   -8.2937793    716.69637   0.01359233  0.012268624            5 
 4395000   0.55596925   -8.3080545    716.36204  0.013582898  0.012264563            4 
 4396000   0.54431702   -8.3129788    717.03883  0.013592638  0.012260499            3 
 4397000    0.5481729   -8.3019307    717.68435  0.013601781  0.012256441            2 
 4398000   0.55030088   -8.3211089    716.77672   0.01358149  0.012252387            3 
 4399000   0.55132016   -8.2902113    715.78189  0.013559557  0.012248336            3 
 4400000   0.55380063   -8.3103163    716.19301  0.013564262  0.012244277            4 
 4401000   0.55880305   -8.2992556    715.23537  0.013543047  0.012240225            5 
 4402000   0.54879495   -8.3165631    717.12176  0.013575681  0.012236173            3 
 4403000    0.5499714   -8.3108012    716.67518  0.013564145  0.012232125            3 
 4404000   0.55110418   -8.3170586    715.37904  0.013536539  0.012228076            4 
 4405000   0.55044154   -8.3111892    715.79209  0.013541281   0.01222403            4 
 4406000   0.54026348   -8.3145224    716.15774  0.013545123  0.012219985            7 
 4407000   0.54823444   -8.3112821    716.78446    0.0135539  0.012215943            6 
 4408000   0.54717603   -8.2852163     716.2945  0.013541563  0.012211898            4 
 4409000   0.55275562   -8.3067452     716.2659  0.013537951   0.01220786            4 
 4410000   0.54179754   -8.3176124    715.30172  0.013516661  0.012203824            3 
 4411000    0.5506299   -8.3176427    716.57967   0.01353774  0.012199787            6 
 4412000   0.54465483   -8.2925539    716.14011   0.01352637  0.012195756            8 
 4413000   0.54327291   -8.3068808    715.45659  0.013510397   0.01219173            5 
 4414000   0.54924559   -8.3078105    716.07379  0.013518989  0.012187699            3 
 4415000    0.5488408    -8.299802    716.22919   0.01351886  0.012183681            4 
 4416000   0.54170444   -8.3080931    716.76046  0.013525824  0.012179654            3 
 4417000   0.53752687   -8.3049224    716.41892  0.013516318  0.012175635            5 
 4418000   0.53795594   -8.3115859    716.16291   0.01350843  0.012171621            8 
 4419000   0.53126158   -8.3061959    716.11246  0.013504421  0.012167611            4 
 4420000   0.54725179   -8.3030162    716.58334  0.013510244  0.012163599            4 
 4421000   0.54622753   -8.3156078     716.4163  0.013504039  0.012159589            4 
 4422000   0.53620632   -8.3098371    716.54855  0.013503478  0.012155573            2 
 4423000   0.55588217    -8.306089    715.97292  0.013489579  0.012151556            3 
 4424000   0.53815803   -8.3187591    714.82968  0.013464995   0.01214754            2 
 4425000   0.54552732   -8.3096671     715.3614  0.013471966  0.012143523            6 
 4426000   0.53778506   -8.3145453    715.50316  0.013471591  0.012139512            4 
 4427000   0.53797215   -8.3211356    715.78713  0.013473894  0.012135499            3 
 4428000   0.54838158   -8.3014901    716.68006  0.013487655  0.012131494            2 
 4429000   0.54623647   -8.3213557    716.04125  0.013472591  0.012127488            5 
 4430000   0.55682064   -8.3051665    715.94251  0.013467692  0.012123479            3 
 4431000    0.5530327   -8.3107671      715.514  0.013456594  0.012119475            3 
 4432000   0.54286704   -8.2983801    715.60097  0.013455193  0.012115472            6 
 4433000   0.54303874   -8.3307414    715.69359  0.013453899  0.012111466            3 
 4434000   0.54494401   -8.3152069    715.02695  0.013438335  0.012107464            5 
 4435000   0.53967481   -8.3238704    717.25598  0.013477189  0.012103462            5 
 4436000   0.53712304   -8.3381329    715.22706  0.013436036  0.012099461            3 
 4437000   0.54058489   -8.3152052    716.49907  0.013456898  0.012095466            5 
 4438000   0.54569049   -8.3303886     715.5394  0.013435846  0.012091474            4 
 4439000   0.54955809   -8.3075662    717.34618  0.013466738  0.012087485            3 
 4440000   0.55397709   -8.3157944    715.63186  0.013431529  0.012083497            3 
 4441000   0.55189789   -8.2981254    716.89317  0.013452172  0.012079512            4 
 4442000   0.54625452    -8.316927    716.23342  0.013436767  0.012075528            4 
 4443000    0.5462555    -8.307867    715.28646  0.013415981  0.012071543            4 
 4444000   0.55463035     -8.31787    717.05842   0.01344619  0.012067557            2 
 4445000   0.53441632   -8.3105294    716.66341  0.013435759  0.012063578            5 
 4446000    0.5471254   -8.3229269    715.62988  0.013413366  0.012059597            5 
 4447000   0.54909302   -8.3214706    715.73309  0.013412283  0.012055616            2 
 4448000   0.53809939   -8.3100113    715.48341   0.01340459  0.012051643            5 
 4449000   0.54040908   -8.3027521    716.41645  0.013419054   0.01204767            5 
 4450000   0.53462536   -8.3192402    714.81524  0.013386053  0.012043702            4 
 4451000   0.54325424   -8.3117994     717.1853  0.013427419  0.012039732            3 
 4452000   0.53949401   -8.3252772    715.41382  0.013391244  0.012035764            4 
 4453000   0.54056197   -8.3240336    716.24265  0.013403747   0.01203179            3 
 4454000   0.54290898   -8.3176172    715.92842  0.013394859  0.012027824            4 
 4455000   0.52940225   -8.3299857    716.33471  0.013399452  0.012023857            5 
 4456000   0.54951414   -8.3022553    715.96606  0.013389551  0.012019898            5 
 4457000   0.53487178   -8.3239385    716.62862  0.013398935  0.012015943            3 
 4458000   0.54880517   -8.3108641    716.50273  0.013393576  0.012011985            4 
 4459000   0.54932573   -8.3288046    715.04462  0.013363322  0.012008027            3 
 4460000    0.5438962   -8.3210424    715.33616  0.013365773  0.012004069            4 
 4461000    0.5346602   -8.3181155    716.00184  0.013375212  0.012000112            5 
 4462000   0.54103454   -8.3082972    714.69608  0.013347828  0.011996153            5 
 4463000    0.5399822   -8.3452333    715.79765  0.013365405  0.011992199            4 
 4464000   0.53975496   -8.3034023    716.43398   0.01337429  0.011988242            3 
 4465000   0.52713133    -8.326767    716.29197  0.013368644  0.011984289            3 
 4466000   0.53754886    -8.317908    715.32484  0.013347605  0.011980342            8 
 4467000   0.54469825   -8.3306957    716.31332  0.013363057   0.01197639            5 
 4468000   0.54194864    -8.319278    715.01116   0.01333578  0.011972439            5 
 4469000   0.54717646    -8.323691      716.081  0.013352745  0.011968489            3 
 4470000   0.53806045   -8.3256912    715.87895  0.013345991  0.011964545            4 
 4471000   0.54396144   -8.3429316    715.06772  0.013327886  0.011960602            3 
 4472000   0.52937199   -8.3374621    715.30462   0.01332932  0.011956659            6 
 4473000   0.53727657   -8.3386559    715.29711    0.0133262  0.011952714            3 
 4474000   0.53950385   -8.3183222    715.09362  0.013319431  0.011948771            5 
 4475000   0.54479631   -8.3305056    715.33635  0.013320975  0.011944831            5 
 4476000   0.53809509   -8.3097201    716.02352  0.013330792  0.011940896            3 
 4477000   0.54133294   -8.3252497     715.6827  0.013321471   0.01193696            2 
 4478000   0.54032119   -8.3415589    717.20113  0.013346753  0.011933028            3 
 4479000   0.53897629    -8.315645    716.43345   0.01332949  0.011929096            3 
 4480000   0.54210002   -8.3353635    716.21011  0.013322361  0.011925167            4 
 4481000   0.53794027   -8.3311109    715.52809  0.013306704  0.011921238            2 
 4482000   0.53593812      -8.3309    714.69731  0.013288289  0.011917308            3 
 4483000   0.52997354   -8.3232339    715.74641  0.013304826  0.011913385            3 
 4484000   0.53470354   -8.3255913    715.57571  0.013298686  0.011909461            5 
 4485000   0.53580837   -8.3227358    715.73522  0.013298685  0.011905536            2 
 4486000   0.53973262   -8.3373197    716.29411  0.013306103  0.011901617            4 
 4487000   0.53172183    -8.326037    715.70745  0.013292241  0.011897693            3 
 4488000   0.53840116    -8.322082    715.42182  0.013283976  0.011893776            4 
 4489000   0.52253051    -8.327856    714.67512  0.013267155  0.011889859            3 
 4490000   0.52404219   -8.3231309    715.27985  0.013275424  0.011885941            4 
 4491000   0.53233846   -8.3387418    714.62692  0.013260353  0.011882027            4 
 4492000   0.51593821   -8.3152361    715.07588  0.013265729  0.011878116            3 
 4493000   0.53973836    -8.314819    716.09183   0.01328162  0.011874205            3 
 4494000    0.5287948   -8.3122644    715.82404  0.013273699  0.011870298            3 
 4495000   0.54043235   -8.3295036    715.92038  0.013272532  0.011866391            3 
 4496000    0.5267582   -8.3404106    714.82959  0.013249362  0.011862484            3 
 4497000    0.5448702   -8.3408206    714.80447  0.013245951  0.011858579            2 
 4498000   0.53807991   -8.3273707    716.89437  0.013281725  0.011854676            3 
 4499000   0.52947631    -8.370407    715.29935  0.013249228  0.011850774            4 
 4500000   0.53128452   -8.3288567    715.21253  0.013244677  0.011846874            3 
 4501000   0.53212265   -8.3391207    715.70732  0.013250895  0.011842978            3 
 4502000    0.5206789   -8.3449738    715.09234  0.013236568  0.011839075            3 
 4503000   0.54086906   -8.3348498    714.46305  0.013221983  0.011835176            3 
 4504000   0.52468058   -8.3383152    716.88502  0.013263858  0.011831281            3 
 4505000   0.53471447   -8.3356128     715.5141  0.013235555   0.01182739            2 
 4506000   0.52518494   -8.3440465    715.20724  0.013226943  0.011823494            6 
 4507000   0.52866205   -8.3207696     714.9671  0.013219568  0.011819602            2 
 4508000   0.54272558   -8.3280683    716.25325  0.013240411  0.011815715            2 
 4509000   0.52656287    -8.336804    715.47752  0.013223137  0.011811833            4 
 4510000   0.52782511   -8.3318591    716.38765  0.013237022  0.011807947            2 
 4511000   0.52140536   -8.3183744    714.94126  0.013207368  0.011804062            3 
 4512000   0.52739788   -8.3288739    716.89544  0.013240533  0.011800178            3 
 4513000    0.5251704   -8.3459508    714.95451   0.01320176  0.011796297            4 
 4514000    0.5238378   -8.3253932    715.16177  0.013202661  0.011792414            2 
 4515000   0.51796956   -8.3363449    715.62677   0.01320832  0.011788534            3 
 4516000   0.53326445   -8.3242473    714.89759   0.01319194   0.01178465            3 
 4517000   0.53638922   -8.3164951     715.0291  0.013191445  0.011780774            2 
 4518000   0.52317263   -8.3480092    715.06275  0.013189146  0.011776897            5 
 4519000   0.52510427   -8.3308833    715.69386  0.013197866  0.011773021            3 
 4520000   0.53831794   -8.3475416    716.35899  0.013207208  0.011769146            3 
 4521000   0.53010148   -8.3292134    715.48886  0.013188249  0.011765279            2 
 4522000   0.51788703   -8.3408299     715.4303  0.013184253  0.011761405            5 
 4523000   0.51532396   -8.3576191    715.58372  0.013184165  0.011757532            2 
 4524000   0.52252814   -8.3368695     713.6557  0.013145736  0.011753658            7 
 4525000   0.52706434   -8.3420339    714.97793  0.013167181  0.011749793            7 
 4526000   0.52159108   -8.3400834    714.96149  0.013163969  0.011745928            7 
 4527000   0.53243011   -8.3230702    715.14605  0.013164459  0.011742064            6 
 4528000   0.52532839   -8.3206274    714.42693  0.013148317  0.011738198            7 
 4529000   0.52627554   -8.3186699    715.35449  0.013162481  0.011734337            7 
 4530000   0.52487307   -8.3317959    715.78677  0.013167527  0.011730475            3 
 4531000   0.52560204   -8.3290752     715.0901  0.013151808  0.011726612            5 
 4532000   0.52269665   -8.3565404    715.50462  0.013156528  0.011722754            8 
 4533000   0.54051807    -8.330706    715.12675  0.013146679    0.0117189           10 
 4534000   0.52454535   -8.3156589     714.9292  0.013140149  0.011715048            5 
 4535000   0.53278151   -8.3573437    715.00741  0.013138688    0.0117112            8 
 4536000   0.51747853   -8.3239198    714.83422   0.01313261  0.011707345            7 
 4537000   0.52666763    -8.322981    714.88166  0.013130587  0.011703493            8 
 4538000   0.52451205   -8.3323012    714.18416  0.013114885  0.011699646            6 
 4539000   0.51934779    -8.331925    715.06832  0.013128228    0.0116958            3 
 4540000   0.54305839   -8.3404258    715.17122  0.013127225  0.011691954            5 
 4541000   0.51488984   -8.3233541    715.46673  0.013129757  0.011688106            8 
 4542000   0.51395225   -8.3473957     715.4926  0.013127341  0.011684264            7 
 4543000    0.5211698   -8.3454875    715.01764  0.013115739  0.011680422           10 
 4544000   0.52820991   -8.3347779    715.23507   0.01311684  0.011676579            3 
 4545000   0.52780807   -8.3376468    714.68668  0.013103899  0.011672738            4 
 4546000   0.53045296   -8.3365852     713.9711    0.0130879  0.011668894            7 
 4547000   0.52949952   -8.3389655    715.05302   0.01310485  0.011665061            5 
 4548000   0.52264631   -8.3445293    714.48062   0.01309148  0.011661226            3 
 4549000   0.52432234   -8.3434501    715.51847  0.013107615  0.011657395            5 
 4550000    0.5205726   -8.3328111    715.43132  0.013103138  0.011653568            5 
 4551000   0.52632819   -8.3356073    714.04797  0.013074928  0.011649731            7 
 4552000   0.52444741   -8.3386231    715.58348  0.013100166  0.011645894            3 
 4553000   0.53160783   -8.3428752    714.55445  0.013078455  0.011642065            7 
 4554000    0.5178299   -8.3653254    715.27334  0.013088738  0.011638233            7 
 4555000   0.52317981   -8.3486813    714.19453  0.013066127  0.011634407            5 
 4556000   0.51799553   -8.3425454    715.24215  0.013082421  0.011630579            7 
 4557000    0.5244461   -8.3499511    715.81641  0.013090052  0.011626754            2 
 4558000   0.51991388   -8.3367416    713.40827  0.013043152  0.011622928            4 
 4559000   0.51752898   -8.3482559    715.19753  0.013072997  0.011619106            4 
 4560000   0.52097958   -8.3508111    714.79015  0.013062685  0.011615283            3 
 4561000   0.51564802   -8.3418185    715.09389  0.013065371  0.011611464            3 
 4562000   0.52110083   -8.3406121    713.35381  0.013030721  0.011607646            9 
 4563000   0.51387463    -8.357369    715.02782  0.013058438  0.011603826            2 
 4564000   0.52888289   -8.3647332    713.83697  0.013033833  0.011600009            3 
 4565000    0.5160829   -8.3528704    715.05882  0.013053283  0.011596195            3 
 4566000   0.51938171   -8.3395147    714.02977  0.013031643  0.011592382            3 
 4567000   0.52321712   -8.3538423    714.29771  0.013033678  0.011588572            8 
 4568000   0.51537735   -8.3445217    715.07515  0.013045008  0.011584764            7 
 4569000   0.52102194   -8.3610826    713.33871  0.013010482  0.011580953            4 
 4570000   0.51586669   -8.3398028    714.52252  0.013029222  0.011577144            6 
 4571000    0.5227297    -8.331787    713.79836  0.013013169  0.011573334            3 
 4572000   0.51272367   -8.3400475    714.23664  0.013018311   0.01156953            5 
 4573000   0.51614009   -8.3542211    714.87813  0.013027154   0.01156573            4 
 4574000   0.52624167   -8.3685129    715.03656  0.013027193  0.011561928            6 
 4575000   0.52083482   -8.3538789    713.42327  0.012994959  0.011558127            4 
 4576000   0.50844513    -8.366633    715.03888  0.013021541  0.011554331            7 
 4577000   0.51351597   -8.3459119     713.6509  0.012993426  0.011550534            5 
 4578000   0.51819831   -8.3434442     714.9727  0.013014648  0.011546736            7 
 4579000   0.51523346   -8.3518689     714.6011  0.013005043  0.011542944            7 
 4580000     0.515829   -8.3534644    714.14764  0.012993953  0.011539157            8 
 4581000   0.53060732   -8.3441847    714.71173  0.013001378  0.011535372            7 
 4582000   0.52152162   -8.3378375    714.77991   0.01299978  0.011531582            2 
 4583000    0.5065139   -8.3490959    714.56567  0.012993048  0.011527795            6 
 4584000   0.51999705    -8.354462     713.6194  0.012973011  0.011524007            6 
 4585000   0.51607508   -8.3433946    713.36379  0.012965536  0.011520222            2 
 4586000   0.51717301   -8.3321385    714.52957  0.012983893  0.011516437            2 
 4587000    0.5100229   -8.3590594    714.38404  0.012978418  0.011512658            5 
 4588000   0.51101796   -8.3497824    714.28536  0.012973797   0.01150888            7 
 4589000   0.51659189   -8.3673613    715.27134  0.012988874  0.011505103            5 
 4590000   0.51233551   -8.3539017    713.51238   0.01295411  0.011501323            6 
 4591000   0.51913174   -8.3466749    713.54407  0.012951864  0.011497546            6 
 4592000   0.51390522   -8.3566311    714.40685    0.0129647  0.011493769            5 
 4593000   0.51240372   -8.3421181    714.90408  0.012970899  0.011489996            6 
 4594000   0.52119885   -8.3308623    714.71157  0.012964584  0.011486226            6 
 4595000   0.50473243   -8.3483374    713.43438    0.0129386  0.011482457            7 
 4596000   0.51282965   -8.3615168    713.54866  0.012937857  0.011478688            2 
 4597000   0.51160816   -8.3544466    713.39169  0.012932197  0.011474919            7 
 4598000    0.5188566   -8.3493376    714.84121  0.012955655  0.011471157            4 
 4599000   0.51310009   -8.3528331    714.33339  0.012943636  0.011467395            6 
 4600000   0.52274575   -8.3488728    714.27481  0.012939761  0.011463634            6 
 4601000   0.51966226   -8.3609572     714.6767  0.012944228  0.011459878            8 
 4602000   0.51303884    -8.346176    713.95311  0.012928312  0.011456123           16 
 4603000   0.52721089   -8.3416151    714.66273   0.01293835  0.011452368            1 
 4604000   0.50795681   -8.3696364    715.11986  0.012943814  0.011448614            5 
 4605000    0.5089439   -8.3512561     714.1468  0.012923395  0.011444861            3 
 4606000   0.52697859   -8.3532761    713.10565  0.012901752  0.011441109            5 
 4607000   0.52110718    -8.355632    714.64257  0.012926752  0.011437357            6 
 4608000   0.50280345   -8.3457266    714.77808  0.012926398  0.011433607            5 
 4609000   0.51145494   -8.3654768     714.9483  0.012926671  0.011429856            4 
 4610000   0.52000481   -8.3537714    714.50476  0.012915849  0.011426106            3 
 4611000   0.51602426   -8.3644445    714.13543  0.012906373  0.011422354            3 
 4612000   0.50897643   -8.3609917     714.2891  0.012906351  0.011418605            5 
 4613000   0.52492393   -8.3638436     714.3108  0.012903945  0.011414856            3 
 4614000   0.50253277   -8.3709316    715.08441  0.012915121   0.01141111            3 
 4615000   0.52304193   -8.3596302    713.19862   0.01287827  0.011407368            9 
 4616000   0.50893447   -8.3574441    713.21671  0.012875807  0.011403624            8 
 4617000   0.50810888   -8.3589594    713.99889  0.012887136  0.011399883            9 
 4618000   0.51640413   -8.3864213    714.11093  0.012886367  0.011396143            5 
 4619000   0.51669866    -8.364188    713.22701   0.01286763  0.011392403            7 
 4620000   0.51309156    -8.371283    713.38508  0.012867696  0.011388669            5 
 4621000   0.51555697   -8.3516162    714.08447  0.012877524  0.011384935            5 
 4622000   0.52193592   -8.3550682    714.79816  0.012887606  0.011381204            5 
 4623000   0.50616201   -8.3681579    713.21504  0.012856281  0.011377471            4 
 4624000   0.50530465   -8.3640072    713.30885  0.012855191  0.011373739            4 
 4625000   0.51385751   -8.3659019    713.79787  0.012861223  0.011370011            6 
 4626000   0.51106762   -8.3865472    713.84469  0.012859286   0.01136628            4 
 4627000   0.51772552   -8.3690804     713.7183  0.012854231  0.011362553            9 
 4628000   0.50963872   -8.3628079    712.30548  0.012826013  0.011358829            8 
 4629000   0.51280924   -8.3628177    714.11416  0.012855803  0.011355099            4 
 4630000   0.51407606   -8.3608471    714.14136  0.012853516  0.011351377            3 
 4631000   0.51607233   -8.3489631     713.6456   0.01284182  0.011347656            6 
 4632000   0.51371433   -8.3564739    713.31373  0.012833077  0.011343935            8 
 4633000   0.51061438   -8.3699198    714.51378  0.012851892  0.011340213            4 
 4634000   0.51074049   -8.3670486    713.87606   0.01283765  0.011336491            3 
 4635000   0.50312873    -8.375331    714.64639   0.01284873  0.011332774            3 
 4636000   0.50999336   -8.3636901     713.9273  0.012833033  0.011329057           10 
 4637000   0.50674429   -8.3678096    714.41885    0.0128391  0.011325339            4 
 4638000   0.51339797   -8.3836282    712.86108  0.012808342  0.011321625            6 
 4639000   0.50643902   -8.3721903    713.34248  0.012814229  0.011317912            3 
 4640000   0.50129516   -8.3814438    713.60784  0.012816233  0.011314201            5 
 4641000   0.51169386   -8.3637276    713.04148  0.012803302   0.01131049            6 
 4642000   0.51158775   -8.3855922    714.22185  0.012821734   0.01130678           12 
 4643000   0.51029713   -8.3718429    714.26798    0.0128198  0.011303075            8 
 4644000   0.51397144   -8.3710978     713.7684  0.012808075  0.011299367            8 
 4645000   0.50398903   -8.3788539    714.14487  0.012812072  0.011295661            7 
 4646000   0.50161062   -8.3690692    714.82612  0.012821533  0.011291959            6 
 4647000   0.51640216   -8.3594295    713.27781  0.012791009  0.011288254            3 
 4648000   0.51074652   -8.3828859    713.74034  0.012796549  0.011284556            5 
 4649000   0.51256374   -8.3822792     713.2605  0.012785196  0.011280857            7 
 4650000   0.51740315   -8.3761692    714.63208  0.012807026  0.011277158            7 
 4651000   0.50616742    -8.375858    714.11058  0.012794929  0.011273461            4 
 4652000   0.50972766   -8.3770595    713.38278  0.012779141  0.011269768            8 
 4653000   0.50134962    -8.372956    713.34248  0.012775673  0.011266076            2 
 4654000   0.51004044   -8.3736926    713.34913  0.012773047  0.011262387            5 
 4655000   0.51410018   -8.3807423    714.10019  0.012783749  0.011258694            7 
 4656000   0.51514236     -8.36724    713.97441  0.012778752  0.011255007            8 
 4657000   0.50136743   -8.3654621    713.86844  0.012774111  0.011251319            6 
 4658000   0.50607667   -8.3749343    714.79228  0.012787897  0.011247635            3 
 4659000   0.49715637   -8.3804171    713.77696  0.012766992   0.01124395            7 
 4660000   0.51014031   -8.3663915    713.60069    0.0127611  0.011240272            4 
 4661000    0.5095557   -8.3693062    712.86101  0.012745137  0.011236586            4 
 4662000    0.5073767   -8.3667291    714.85306  0.012778011  0.011232907            4 
 4663000   0.51075679   -8.3918792    714.29844  0.012765359  0.011229227            5 
 4664000   0.51211919   -8.3723862    712.90188  0.012737669  0.011225546            6 
 4665000   0.51108086   -8.3566397    713.16978  0.012739725  0.011221871            3 
 4666000   0.50768611   -8.3715059    713.85756  0.012749278  0.011218201            9 
 4667000   0.49723376   -8.3739851      712.855  0.012728644  0.011214527            4 
 4668000   0.51282195   -8.3531174    714.25351  0.012750884  0.011210857            6 
 4669000    0.5083838   -8.3757948     713.1473  0.012728409  0.011207191            6 
 4670000   0.50373432   -8.3849793    713.45227  0.012731126  0.011203523            3 
 4671000   0.50951947   -8.3861731    713.90174  0.012736419  0.011199856           12 
 4672000   0.49908396   -8.3804303    714.26152   0.01274011  0.011196187            3 
 4673000   0.50149747   -8.3745735    714.52803  0.012742136  0.011192524            5 
 4674000   0.50681305   -8.3883868    714.73323  0.012743069  0.011188864            4 
 4675000   0.50478927   -8.3830385    712.41403  0.012699002  0.011185204            6 
 4676000    0.4957302   -8.3869694    713.90852  0.012722921  0.011181545            5 
 4677000   0.50286177   -8.3724906    713.21178  0.012707786  0.011177887            6 
 4678000   0.49363768   -8.3803696    713.41776  0.012708739  0.011174228            7 
 4679000   0.50218204    -8.376889    712.65094  0.012692365  0.011170574            7 
 4680000   0.48558368    -8.379727    713.54323  0.012705542  0.011166918            3 
 4681000    0.5079897   -8.3985116    712.77362  0.012689127  0.011163263            5 
 4682000   0.50379656   -8.3819338    712.90173  0.012688697  0.011159612            4 
 4683000   0.49178565    -8.375839    712.49808  0.012678804  0.011155961            8 
 4684000   0.50166815   -8.3886933    714.09364  0.012704484  0.011152312            6 
 4685000   0.50293933   -8.3857465    713.81945  0.012696895  0.011148665            3 
 4686000   0.50800106   -8.3903175    712.59496   0.01267241  0.011145017            2 
 4687000    0.5047685   -8.3854403    713.01295  0.012677138   0.01114137            9 
 4688000     0.497173   -8.4027042    713.91618   0.01269049  0.011137724            9 
 4689000   0.49947004   -8.3996805    712.88311  0.012669423  0.011134077            3 
 4690000    0.5142365    -8.377663    713.41445  0.012676163  0.011130433            6 
 4691000   0.50398226   -8.3891675    713.17648  0.012669233  0.011126795            5 
 4692000   0.49635853   -8.3822861    714.23094  0.012685261  0.011123157            2 
 4693000   0.50126515   -8.3942745    713.89878   0.01267666  0.011119521            2 
 4694000   0.49858727   -8.3837166    712.11254  0.012642248  0.011115885            6 
 4695000   0.49761854   -8.3804066    712.80795  0.012651898   0.01111225            3 
 4696000   0.49730782   -8.3841301    713.09188  0.012654243  0.011108618            4 
 4697000   0.49714586   -8.3834687    713.75855  0.012663376  0.011104986            4 
 4698000   0.49764097   -8.3843658    712.11442  0.012631517  0.011101359            6 
 4699000   0.50392409    -8.394137    713.17181  0.012647581  0.011097734            4 
 4700000   0.50043677   -8.3828725    713.15745  0.012644636  0.011094108            5 
 4701000   0.50192363    -8.378462    712.64717    0.0126329  0.011090482            3 
 4702000   0.49511369   -8.3908663    713.65022  0.012647991   0.01108686            3 
 4703000   0.50534182   -8.3900502    712.40782  0.012623287  0.011083235            3 
 4704000   0.49091478   -8.3862178    712.50923    0.0126224  0.011079615            5 
 4705000    0.4992676   -8.3666783    712.73012  0.012623629  0.011075998            5 
 4706000    0.4881608   -8.3744572    712.47288  0.012616392  0.011072385            6 
 4707000   0.50152082   -8.3822666    712.30485  0.012610737  0.011068768            5 
 4708000   0.49626355   -8.3750143    713.60293  0.012631035  0.011065156            5 
 4709000   0.49382204   -8.4051761    711.94716  0.012599051   0.01106154            5 
 4710000   0.50455626   -8.3745441    712.69474  0.012609603  0.011057925            3 
 4711000   0.49364188   -8.3747453    712.80688   0.01260891  0.011054312            7 
 4712000   0.49826525   -8.3990991    714.23202  0.012631438    0.0110507            2 
 4713000   0.50405555     -8.39713     712.2709  0.012594082  0.011047089            3 
 4714000   0.49970848   -8.4041961    712.89982  0.012602528  0.011043479            4 
 4715000   0.49773226   -8.3859216    712.79024  0.012597919   0.01103987            5 
 4716000   0.48126441   -8.3863904    712.53117   0.01259067  0.011036263            4 
 4717000    0.4944408   -8.3843905     710.9643  0.012560319  0.011032659            5 
 4718000   0.49002508   -8.3866385    712.67284  0.012587834  0.011029057            7 
 4719000   0.49925479   -8.3915135    713.11689  0.012593009  0.011025457            6 
 4720000   0.48768695   -8.3938581     711.7965  0.012567029  0.011021854            5 
 4721000   0.49007958   -8.3892811    713.31493  0.012591169  0.011018253            9 
 4722000     0.493659    -8.390213    712.82106  0.012579787  0.011014653            9 
 4723000   0.49849542   -8.4024548    712.02415  0.012563063  0.011011054            4 
 4724000   0.49472674   -8.3989771    713.59759   0.01258816  0.011007458            7 
 4725000   0.49786209   -8.3937792    712.64888  0.012568763  0.011003864            6 
 4726000   0.50296131   -8.3974682    713.31837  0.012577909  0.011000268            3 
 4727000   0.50754336   -8.3882551    713.05709  0.012570642  0.010996675            6 
 4728000   0.49615711    -8.394183    712.40463  0.012556483  0.010993086            4 
 4729000   0.48557498   -8.3877733    712.87347   0.01256209  0.010989499            3 
 4730000   0.50107937   -8.3991833    712.91716  0.012560204  0.010985911            5 
 4731000   0.47756564   -8.4047709    712.47636  0.012549784  0.010982322            9 
 4732000   0.49202651   -8.4018656    712.76086  0.012552143  0.010978739            6 
 4733000   0.50017964   -8.3809516    712.69602  0.012548349  0.010975154            1 
 4734000   0.49855739   -8.3941379    713.08132  0.012552481  0.010971573            7 
 4735000   0.49745019   -8.3914047    712.87844  0.012546259  0.010967989            4 
 4736000   0.48914205   -8.3833113    711.63606  0.012521749  0.010964413            5 
 4737000   0.50414578   -8.3908221    713.20906  0.012546778  0.010960835            4 
 4738000   0.50541644   -8.3990453    711.19149  0.012508645  0.010957261            9 
 4739000   0.49372174   -8.4058035    712.48289  0.012528714  0.010953687            4 
 4740000   0.49772806   -8.3890788    713.02816  0.012535657  0.010950111            5 
 4741000   0.49979425   -8.4047681    713.70304  0.012544875  0.010946539            3 
 4742000   0.49792144   -8.3995123    712.30933  0.012517737  0.010942968            4 
 4743000   0.49570212    -8.390899    711.98401  0.012509382  0.010939398            6 
 4744000   0.48581132   -8.3987164    712.32465  0.012512729   0.01093583            4 
 4745000   0.49262286   -8.3940074     711.1959  0.012490269  0.010932261            5 
 4746000   0.48952645   -8.4141262    712.53864  0.012511214  0.010928699            7 
 4747000   0.49903167   -8.4051064    712.21783  0.012502946  0.010925136            4 
 4748000   0.49834566   -8.4000088    712.15803  0.012499263  0.010921574            4 
 4749000   0.50187861   -8.3982321    711.69982  0.012488591  0.010918014            2 
 4750000   0.48427885   -8.3924441    713.28587  0.012513787  0.010914451            4 
 4751000   0.48838991   -8.3963633    712.96961  0.012505606  0.010910894            4 
 4752000    0.4974575   -8.4161485    712.71092  0.012498438  0.010907338            4 
 4753000   0.48609163   -8.3972253    713.00735  0.012501006  0.010903784            5 
 4754000   0.49316759   -8.4101844     712.2398  0.012484922  0.010900233            4 
 4755000   0.49880013    -8.394157    711.43429  0.012468179  0.010896679            7 
 4756000     0.493154   -8.4101659    713.09995  0.012494743   0.01089313            4 
 4757000   0.48396173    -8.396193    712.97006  0.012489841  0.010889581            2 
 4758000   0.48561858   -8.4047041    712.69528  0.012482403  0.010886031            5 
 4759000   0.48528506   -8.4272933    712.41307  0.012474838  0.010882483            5 
 4760000   0.48050374   -8.4095639    713.35669  0.012488737  0.010878935            6 
 4761000   0.48604988   -8.3998778    713.39934  0.012486861  0.010875391            5 
 4762000   0.49138786   -8.4049234    712.19766   0.01246321  0.010871846            5 
 4763000   0.48950406   -8.3946042    712.19608  0.012460566  0.010868305            4 
 4764000   0.48756773   -8.3955771    712.26286  0.012459118  0.010864766            3 
 4765000   0.48717021   -8.4085597    712.37442  0.012458454   0.01086123            3 
 4766000   0.48894483   -8.4040086    711.71683  0.012444342  0.010857694            4 
 4767000   0.49426345   -8.4118785    711.88047  0.012444593  0.010854155            4 
 4768000   0.48037348   -8.4005911    713.77319  0.012475063  0.010850616            3 
 4769000   0.48946986   -8.3978566    712.35328  0.012447635  0.010847082            3 
 4770000   0.48846487   -8.3897163    712.35256  0.012445013  0.010843549            4 
 4771000   0.48783629    -8.415828    711.90191  0.012434533   0.01084002            2 
 4772000   0.48311003   -8.4098807    712.79533   0.01244753  0.010836493            2 
 4773000   0.48796654   -8.4233805    712.48407  0.012439487  0.010832965            5 
 4774000   0.49067638   -8.4013876    711.68356  0.012422908  0.010829439            4 
 4775000   0.47975423    -8.406307    711.72659  0.012421057  0.010825915            2 
 4776000    0.4881098   -8.3994098    713.42844  0.012448151  0.010822392            3 
 4777000   0.49960617   -8.3919852    712.35365  0.012426796  0.010818871            6 
 4778000   0.48731784   -8.4063398    712.20537  0.012421609  0.010815352            3 
 4779000   0.49179437    -8.427319    712.93742  0.012431775  0.010811834            5 
 4780000   0.48938144   -8.4014821     712.7841  0.012426501  0.010808315            3 
 4781000   0.48776871   -8.3867866    712.20903  0.012413878    0.0108048            4 
 4782000   0.49064145   -8.4110306     711.9191   0.01240623  0.010801285            4 
 4783000   0.49014502   -8.4157627    712.49477  0.012413666  0.010797773            5 
 4784000   0.47540522   -8.4321212    711.84797  0.012399804  0.010794257            5 
 4785000   0.49225981   -8.4110078    712.02569  0.012400308  0.010790745            7 
 4786000   0.48465888   -8.4047753    713.29391  0.012419799  0.010787236            5 
 4787000   0.48429335   -8.4117158    710.97223  0.012376788  0.010783729            4 
 4788000   0.48740865   -8.4157206    710.62811  0.012368214  0.010780219            9 
 4789000   0.48598665   -8.4126102    712.35787  0.012395731  0.010776712            4 
 4790000   0.48714341   -8.4241345    711.10715  0.012371384  0.010773206            5 
 4791000   0.47753114    -8.400269    711.21214  0.012370628  0.010769703            7 
 4792000   0.47893277   -8.4027464    711.34296  0.012370321  0.010766199            4 
 4793000   0.48262706   -8.4184013     711.6342  0.012372804  0.010762696            6 
 4794000   0.48389817   -8.4114663    711.87862  0.012374472  0.010759198            4 
 4795000   0.48894691   -8.4111747    711.98639  0.012373764  0.010755697            3 
 4796000   0.48630988   -8.4079265    712.81706  0.012385617  0.010752202            4 
 4797000   0.47860723   -8.4039109    712.53354   0.01237811  0.010748707            3 
 4798000   0.47913205   -8.4125339    711.81412  0.012363035  0.010745212            4 
 4799000   0.49237075   -8.4030188    712.03263  0.012364254  0.010741722            5 
 4800000   0.48290248   -8.4147387    712.43807  0.012368716  0.010738231            4 
 4801000   0.48708631   -8.4127265    713.41833  0.012383155  0.010734743            3 
 4802000   0.48411372   -8.4143688    713.58303  0.012383434  0.010731256            3 
 4803000    0.4827677   -8.4129392    713.05904  0.012371765   0.01072777            4 
 4804000   0.48910432    -8.423216    710.88329  0.012331448  0.010724282            5 
 4805000   0.47779119   -8.4152625    712.12869   0.01235048  0.010720796            2 
 4806000   0.47722684   -8.4158093    711.88794  0.012343736  0.010717317            3 
 4807000   0.48028356   -8.4048759    712.04531  0.012343896  0.010713838            2 
 4808000   0.48023905   -8.4069656    711.23775  0.012327332  0.010710359            6 
 4809000   0.47131835   -8.4240931    713.04056  0.012356009  0.010706883            3 
 4810000   0.47454471    -8.413637    712.11223  0.012337357  0.010703407            4 
 4811000   0.48339338   -8.4144055    711.18916  0.012318803  0.010699934            3 
 4812000   0.48631519   -8.4142291     711.5324  0.012322188  0.010696459            3 
 4813000   0.47872184   -8.4266103    711.78288  0.012323964  0.010692985            6 
 4814000   0.48735813   -8.4235951    711.36536  0.012314177  0.010689512            4 
 4815000   0.46897456   -8.4154476    712.76664  0.012335871  0.010686042            2 
 4816000   0.46921206   -8.4063499      710.699  0.012297533  0.010682573            3 
 4817000   0.48153903   -8.4274563    711.68648  0.012312063  0.010679101            4 
 4818000   0.47548925   -8.4222223    710.68054  0.012292108  0.010675633            4 
 4819000   0.48573783    -8.406168    712.54582  0.012321813  0.010672167            7 
 4820000    0.4705203   -8.4119689    711.54319  0.012301922  0.010668702            4 
 4821000    0.4814418   -8.4242636    711.45713  0.012297883   0.01066524            6 
 4822000   0.48245399   -8.4314587    711.30246   0.01229266  0.010661778            2 
 4823000   0.48596241   -8.4178355    712.85643  0.012316961  0.010658319            6 
 4824000   0.47132909   -8.4203139     711.8218  0.012296535  0.010654861            5 
 4825000   0.46738529   -8.4210166    711.35032  0.012285843  0.010651402            3 
 4826000   0.48220446   -8.4229084    712.44702  0.012302235  0.010647945            5 
 4827000    0.4802308   -8.4190228    710.41901  0.012264675  0.010644488            4 
 4828000   0.47438862   -8.4079675    713.08061  0.012308075  0.010641033            5 
 4829000   0.47856275   -8.4138058    711.48329  0.012277961   0.01063758            5 
 4830000     0.480269   -8.4250844    711.90685  0.012282727  0.010634124            3 
 4831000   0.46386459   -8.4274784    710.41616   0.01225447   0.01063067            8 
 4832000    0.4828457   -8.4318565    711.32715  0.012267645  0.010627219            3 
 4833000   0.47276025    -8.425081    711.90452  0.012275062  0.010623771            5 
 4834000   0.46752154   -8.4268951     711.0702   0.01225814  0.010620324            6 
 4835000   0.48115406   -8.4282193    711.74928  0.012267309  0.010616877            7 
 4836000   0.47752299   -8.4212492    711.45618  0.012259722  0.010613431            8 
 4837000   0.47972258   -8.4229242    711.81829  0.012263426  0.010609988            4 
 4838000   0.47229467   -8.4058665    710.45793  0.012237459  0.010606542            4 
 4839000    0.4713461   -8.4245312    711.38766  0.012250941  0.010603101            4 
 4840000   0.48299068   -8.4167242    711.75171  0.012254678   0.01059966            4 
 4841000   0.47132617    -8.423137    710.68957  0.012233863  0.010596223            6 
 4842000   0.47576083   -8.4198505    711.13194   0.01223895  0.010592786            5 
 4843000   0.47081505   -8.4322675    712.12879  0.012253575  0.010589352            4 
 4844000   0.47661236   -8.4337796    712.29706  0.012253941  0.010585916            4 
 4845000   0.46387616   -8.4249383    712.06674   0.01224745  0.010582482            8 
 4846000   0.48199655   -8.4340654    712.36114  0.012249985  0.010579051            5 
 4847000   0.47738846   -8.4300013    712.46185  0.012249189  0.010575618            4 
 4848000   0.47932678   -8.4245696    711.89461  0.012236912  0.010572187            3 
 4849000   0.47342697   -8.4484939    711.49263   0.01222748  0.010568755            6 
 4850000   0.47838034   -8.4238421    711.39252  0.012223239  0.010565328            8 
 4851000   0.47566061   -8.4237183    711.37004  0.012220333  0.010561904            2 
 4852000   0.47285868   -8.4388626     712.4532  0.012236418   0.01055848            6 
 4853000   0.48330645   -8.4375317    710.89873  0.012207204  0.010555059            4 
 4854000   0.46876823   -8.4343517    710.37368  0.012195675  0.010551635            5 
 4855000   0.46903881    -8.423299     710.8402  0.012201171  0.010548212            2 
 4856000   0.46929356   -8.4218925    710.05477  0.012185179  0.010544796            2 
 4857000   0.46728687   -8.4304596    711.23707  0.012202956  0.010541379            7 
 4858000   0.47530751   -8.4379855    711.42274  0.012203629  0.010537963            6 
 4859000   0.46439376   -8.4142093    710.97877  0.012193503   0.01053455            2 
 4860000   0.46990309   -8.4298626    711.02893  0.012191854  0.010531135            4 
 4861000   0.47097068   -8.4268961    711.39159  0.012195563  0.010527726            3 
 4862000    0.4708949   -8.4413114    711.91552  0.012202035  0.010524319            7 
 4863000   0.47818059   -8.4359087    711.81677  0.012197834  0.010520908            2 
 4864000   0.47059436   -8.4309279    711.57766  0.012191229    0.0105175            9 
 4865000   0.48065579   -8.4304024    711.03095  0.012179358  0.010514092            5 
 4866000   0.47203551   -8.4232642    710.76472  0.012172296  0.010510689            4 
 4867000   0.48055769   -8.4307661    713.01725  0.012208363  0.010507287            5 
 4868000   0.46444576   -8.4348674    711.97667  0.012188042  0.010503885            4 
 4869000   0.46214409   -8.4237493    711.00793  0.012168959  0.010500484            4 
 4870000   0.47937944   -8.4430674    711.12765  0.012168509  0.010497083            3 
 4871000   0.47185287   -8.4260665    711.56759  0.012173537  0.010493684           11 
 4872000   0.46541056   -8.4354168    711.61087  0.012171779  0.010490285            6 
 4873000   0.47194875   -8.4276494    710.08861  0.012143249   0.01048689            4 
 4874000   0.46545241   -8.4330191    711.48394  0.012164614  0.010483497            4 
 4875000   0.47689384   -8.4489672    711.35965  0.012159994  0.010480103            4 
 4876000   0.47844089   -8.4239171    711.11033  0.012153239   0.01047671            6 
 4877000   0.47264647   -8.4374064    711.65708   0.01216009   0.01047332            4 
 4878000   0.48111075    -8.431041    710.25113  0.012133578  0.010469928            6 
 4879000    0.4670833   -8.4347858    711.68942  0.012155657  0.010466542           10 
 4880000   0.46370399   -8.4140476    710.86497  0.012139088  0.010463157            3 
 4881000   0.46430885   -8.4307657    711.56218  0.012148504  0.010459773            4 
 4882000   0.46846853   -8.4351345    712.11434  0.012155441  0.010456388            9 
 4883000   0.46996396   -8.4453965    711.75751  0.012146862  0.010453003            3 
 4884000   0.47265842   -8.4234488    711.11169  0.012133355  0.010449624            3 
 4885000   0.47266002   -8.4384792    710.40704  0.012118851  0.010446247            4 
 4886000   0.47532653   -8.4333488    711.14388  0.012128938  0.010442867            4 
 4887000    0.4651069   -8.4255756    711.28174  0.012128807  0.010439489            4 
 4888000   0.46313966   -8.4472702    711.12743  0.012123695   0.01043611           10 
 4889000   0.46307847   -8.4386269    710.71998   0.01211427  0.010432735            2 
 4890000   0.48136622   -8.4195644    710.84492  0.012113922   0.01042936            6 
 4891000   0.47899667   -8.4395519    711.61121  0.012124501  0.010425988            3 
 4892000   0.46425541    -8.429479    711.56411   0.01212122  0.010422617            6 
 4893000   0.45977093   -8.4326375    711.32255  0.012114629  0.010419249            4 
 4894000   0.46984301   -8.4394447    710.72014  0.012101896  0.010415882            5 
 4895000   0.46190862   -8.4419495    712.43871  0.012128681  0.010412515            5 
 4896000   0.47128783   -8.4270236    711.03438  0.012102301  0.010409151            6 
 4897000   0.46797617   -8.4475433    710.93734  0.012098178  0.010405788            6 
 4898000   0.46057812   -8.4311324    710.85469  0.012094302  0.010402426            6 
 4899000   0.46142643    -8.440344    710.62246  0.012087883  0.010399067            2 
 4900000   0.47211075   -8.4326329     711.4045  0.012098716   0.01039571            3 
 4901000   0.45356621   -8.4595155     710.5732  0.012082113  0.010392349            3 
 4902000    0.4671152   -8.4389957    711.23751  0.012090941  0.010388991            6 
 4903000   0.47661709   -8.4492214    711.02873  0.012084926  0.010385637            4 
 4904000   0.48127967   -8.4301427    711.43985  0.012089448  0.010382283            9 
 4905000   0.47245305   -8.4430149    711.83683  0.012093728  0.010378929            5 
 4906000   0.47495503   -8.4336495    711.22852   0.01208093  0.010375578            2 
 4907000   0.46289319   -8.4351145    711.27594  0.012079274  0.010372227            3 
 4908000    0.4625578   -8.4362711    711.20871  0.012075671  0.010368875            7 
 4909000   0.47136343   -8.4514702    710.75075  0.012065437  0.010365528            2 
 4910000   0.46732354   -8.4484438    710.87167  0.012065032  0.010362179            3 
 4911000    0.4663229   -8.4448621    711.28187  0.012069536  0.010358835            8 
 4912000   0.46586408   -8.4308884    710.75945  0.012058215  0.010355493            6 
 4913000   0.47088156   -8.4369968    710.18702  0.012046052  0.010352152            3 
 4914000   0.46554009   -8.4339589    711.26431  0.012061869  0.010348809            8 
 4915000   0.46415954   -8.4389798    710.88239   0.01205294  0.010345468            3 
 4916000   0.46372423   -8.4456893    711.07768  0.012053799   0.01034213            5 
 4917000   0.46543488   -8.4385128    710.59131  0.012043104  0.010338793            7 
 4918000   0.46964652   -8.4472987    710.80069  0.012044203  0.010335459            9 
 4919000   0.46169201   -8.4418643      710.787  0.012041523  0.010332124            5 
 4920000   0.46370444   -8.4322235    710.05104   0.01202661  0.010328792            3 
 4921000   0.45677969   -8.4597701    711.78452  0.012053521   0.01032546            6 
 4922000   0.46072713   -8.4442243    711.88794  0.012052823  0.010322131           10 
 4923000   0.45563384   -8.4388153    711.95511  0.012051512  0.010318801            7 
 4924000   0.46779412   -8.4359966    710.18352  0.012019082  0.010315473            5 
 4925000   0.47432675   -8.4518425    710.90899  0.012028917  0.010312149            4 
 4926000   0.45562703     -8.44124    710.23366   0.01201505  0.010308825            2 
 4927000   0.46676998   -8.4282008    711.67965  0.012037069  0.010305504            9 
 4928000   0.45723138   -8.4248986    710.59334  0.012016256  0.010302182            5 
 4929000   0.46830476   -8.4187624    711.37871  0.012027097  0.010298861            5 
 4930000   0.46284336   -8.4418875    710.81915  0.012015199  0.010295541            8 
 4931000   0.46557579   -8.4518789    711.38042  0.012022247  0.010292223            3 
 4932000   0.46787009   -8.4250323    711.50134  0.012021853  0.010288906            4 
 4933000   0.45845836    -8.446756    710.72117  0.012006236  0.010285593            6 
 4934000   0.46403667   -8.4615571    711.19833  0.012011862  0.010282283            3 
 4935000   0.46592311   -8.4383761    711.28181  0.012010838  0.010278975            8 
 4936000   0.46373128   -8.4450931    710.72714   0.01199904  0.010275667            5 
 4937000   0.46389828   -8.4557877    711.37646   0.01200757  0.010272359            6 
 4938000   0.46057949   -8.4462953    710.13358  0.011984163  0.010269055            6 
 4939000   0.46712225   -8.4421502     710.5061  0.011988022   0.01026575            7 
 4940000   0.46082837   -8.4496417    711.39232  0.012000545  0.010262445            6 
 4941000   0.45005422   -8.4422487    710.41162  0.011981576  0.010259141            5 
 4942000   0.46623745   -8.4479223     710.5261  0.011981082  0.010255837            7 
 4943000   0.45382148   -8.4301928    710.96237  0.011986013  0.010252536            4 
 4944000   0.46649778   -8.4563406    710.71179  0.011979365  0.010249237            4 
 4945000   0.45826744   -8.4472307    710.82789  0.011978899  0.010245937            7 
 4946000   0.46162006    -8.453936    710.44172  0.011969971  0.010242641            3 
 4947000   0.46772692   -8.4483862    710.32676  0.011965615  0.010239346            5 
 4948000   0.45001013   -8.4353026    710.96892  0.011974012  0.010236049            5 
 4949000   0.46506182   -8.4580584    710.73706  0.011967688  0.010232757            6 
 4950000   0.45890366   -8.4535368     710.3939  0.011959493  0.010229465            9 
 4951000   0.46561164   -8.4482954    711.51855  0.011976007  0.010226176            2 
 4952000   0.45456425   -8.4372858    710.13057  0.011950232  0.010222884            7 
 4953000    0.4592723   -8.4368131    710.33019  0.011951178  0.010219592            7 
 4954000   0.45752983   -8.4451066    710.43213   0.01195048    0.0102163            2 
 4955000   0.47229752   -8.4441875    710.75025  0.011953418  0.010213014            8 
 4956000   0.45756524   -8.4354749    709.97673     0.011938  0.010209726            4 
 4957000   0.45956807   -8.4437331    711.49945   0.01196119   0.01020644            4 
 4958000    0.4650295   -8.4522749    710.90336  0.011948759  0.010203158            6 
 4959000    0.4528095   -8.4632528    710.45183  0.011938762  0.010199878            2 
 4960000   0.45914125   -8.4494007    710.89333  0.011943772  0.010196597            5 
 4961000   0.46154401   -8.4599184     711.1487  0.011945654  0.010193317            6 
 4962000   0.46286753   -8.4500932    710.06848  0.011925105  0.010190036            6 
 4963000   0.46053988   -8.4562919    710.46858  0.011929421  0.010186761            6 
 4964000   0.45407609   -8.4525898    709.59149  0.011912293  0.010183486            7 
 4965000    0.4557456   -8.4581646    710.29204  0.011921652  0.010180212            3 
 4966000   0.45414705   -8.4285732    711.79821  0.011944526   0.01017694            3 
 4967000   0.45348991   -8.4524904    710.86787  0.011926513   0.01017367            4 
 4968000   0.45892529   -8.4578717    709.91847  0.011908187  0.010170398            4 
 4969000   0.45712825   -8.4618048    709.79799   0.01190377  0.010167129            3 
 4970000   0.45204553   -8.4838122    711.01264  0.011921741   0.01016386           10 
 4971000   0.45575437   -8.4469922    710.58527  0.011912179  0.010160593            2 
 4972000    0.4594567   -8.4442027    710.95745  0.011916021  0.010157329            4 
 4973000   0.45931782   -8.4452455    710.51212  0.011906162  0.010154065            8 
 4974000   0.45680954   -8.4522697    711.45213  0.011919517  0.010150803            8 
 4975000   0.45101563   -8.4576158    712.09983   0.01192797  0.010147542            6 
 4976000   0.46107198    -8.451536    710.98848  0.011906961  0.010144285            5 
 4977000   0.45683425   -8.4456317    710.11696  0.011889977  0.010141026            6 
 4978000   0.46094632   -8.4406858    710.83843  0.011899666   0.01013777            7 
 4979000   0.45820647   -8.4435797    711.01005  0.011900148  0.010134517            3 
 4980000   0.45855045   -8.4543788     710.4913  0.011889078  0.010131264            7 
 4981000   0.45426083   -8.4525163    710.13575  0.011880743  0.010128011            3 
 4982000   0.45194994   -8.4672343    710.69171  0.011887657  0.010124761            5 
 4983000   0.45851127   -8.4552888     710.6808  0.011885089   0.01012151            4 
 4984000    0.4533241    -8.469701    710.45929  0.011879001  0.010118263            7 
 4985000   0.45303075   -8.4502212    709.96746  0.011868396  0.010115015            3 
 4986000    0.4531371   -8.4619834     710.4731  0.011874467  0.010111768            4 
 4987000   0.46254372   -8.4513556     710.6691  0.011875361  0.010108522            4 
 4988000   0.45514779   -8.4678982    710.55397  0.011871057  0.010105278            3 
 4989000   0.44790715   -8.4449766     710.0008  0.011859437  0.010102033            5 
 4990000    0.4554465   -8.4456427    710.30878  0.011862204  0.010098791            6 
 4991000   0.45686224   -8.4668612    709.66052  0.011849004  0.010095549            8 
 4992000   0.45597795   -8.4688932    710.32987  0.011857804  0.010092311            6 
 4993000   0.44953101   -8.4366028    709.72494  0.011845332  0.010089075           10 
 4994000    0.4524187   -8.4640148    710.01315   0.01184777   0.01008584            5 
 4995000   0.46160488   -8.4685147    710.25616  0.011849452  0.010082608            4 
 4996000   0.45301385   -8.4685947    711.83903  0.011873483  0.010079376            7 
 4997000   0.45455941   -8.4477363    709.50166  0.011832127  0.010076143            4 
 4998000   0.45380176   -8.4630205    710.52593  0.011846838  0.010072913           11 
 4999000   0.44902531   -8.4630705    709.72811  0.011831168  0.010069683            4 
 5000000   0.44530763   -8.4464502    710.70113  0.011845019  0.010066457            8 
 5001000   0.45559478   -8.4490118    710.60601  0.011841065   0.01006323            5 
 5002000   0.46378961   -8.4675298    709.40053  0.011818615  0.010060005            8 
 5003000   0.45546048   -8.4515482    710.17912  0.011829221  0.010056782            9 
 5004000   0.46060921    -8.462271    710.56434  0.011833272   0.01005356            4 
 5005000   0.45787447   -8.4528988    710.60858  0.011831645  0.010050339            6 
 5006000   0.46332781   -8.4510121    710.36771  0.011825271  0.010047121            7 
 5007000   0.45144322   -8.4549339    710.36612  0.011822883  0.010043903            8 
 5008000     0.442009   -8.4537799    710.71864  0.011826389  0.010040685            9 
 5009000   0.45051721   -8.4561548     711.1175  0.011830663  0.010037471            5 
 5010000   0.45900084   -8.4454173    709.88001  0.011807718  0.010034256            4 
 5011000   0.45647371   -8.4548079    710.35508  0.011813262  0.010031043            8 
 5012000   0.45585299   -8.4558742    709.61485  0.011798597  0.010027833            6 
Loop time of 11807.2 on 48 procs for 5000000 steps with 4000 atoms

Performance: 73175.605 tau/day, 423.470 timesteps/s
99.4% CPU use with 48 MPI tasks x no OpenMP threads

MPI task timing breakdown:
Section |  min time  |  avg time  |  max time  |%varavg| %total
---------------------------------------------------------------
Pair    | 762.7      | 799.65     | 845.58     |  69.9 |  6.77
Neigh   | 77.279     | 79.901     | 82.124     |  15.3 |  0.68
Comm    | 741.43     | 788.66     | 832.31     |  72.7 |  6.68
Output  | 13.695     | 13.7       | 13.795     |   0.4 |  0.12
Modify  | 9991.6     | 10019      | 10043      |  12.3 | 84.86
Other   |            | 105.9      |            |       |  0.90

Nlocal:        83.3333 ave          91 max          73 min
Histogram: 1 0 3 5 1 17 8 7 4 2
Nghost:        1997.58 ave        2017 max        1975 min
Histogram: 2 2 1 4 7 13 11 4 2 2
Neighs:        12785.6 ave       14203 max       11190 min
Histogram: 3 2 5 4 8 8 5 6 4 3
FullNghs:      25571.2 ave       27851 max       22057 min
Histogram: 1 0 1 5 6 13 5 7 6 4

Total # of neighbors = 1227416
Ave neighs/atom = 306.85400
Neighbor list builds = 268201
Dangerous builds = 1

#clear
#
#next RN
#
#jump SELF
Total wall time: 3:16:50
