
units lj                  # Use reduced LJ style units
atom_style atomic         # Uncharged point particles
atom_modify map hash      # Needed for indexing of clusters etc
                          # Used to be able to find where atoms are in relation to each other.

lattice fcc 1.0 spacing 1 1 1
Lattice spacing in x,y,z = 1.5874011 1.5874011 1.5874011
region box block 0 10 0 10 0 10 units lattice
create_box 2 box
Created orthogonal box = (0.0000000 0.0000000 0.0000000) to (15.874011 15.874011 15.874011)
  3 by 4 by 4 MPI processor grid
create_atoms 1 box
Created 4000 atoms
  using lattice units in orthogonal box = (0.0000000 0.0000000 0.0000000) to (15.874011 15.874011 15.874011)
  create_atoms CPU = 0.002 seconds
set type 1 type/fraction 2 0.02 78393
Setting atom values ...
  77 settings made for type/fraction
mass 1 1.0
mass 2 1.0
pair_style lj/cut  3.5
pair_modify tail  yes
pair_coeff 1  1  1.0  1.0   # Intearaction between 1 and 1 set with epsilon = 1 and sigma = 1
pair_coeff 1  2  1.5  0.8
pair_coeff 2  2  0.5  0.88

write_data data.0
System init for write_data ...
Neighbor list info ...
  update every 1 steps, delay 10 steps, check yes
  max neighbors/atom: 2000, page size: 100000
  master list distance cutoff = 3.8
  ghost atom cutoff = 3.8
  binsize = 1.9, bins = 9 9 9
  1 neighbor lists, perpetual/occasional/extra = 1 0 0
  (1) pair lj/cut, perpetual
      attributes: half, newton on
      pair build: half/bin/atomonly/newton
      stencil: half/bin/3d
      bin: standard
WARNING: Not all mixed pair coeffs generated from mixing. Use write_data with 'pair ij' option to store all pair coeffs. (../write_data.cpp:312)


#############################
#   M E L T   S Y S T E M   #
#############################

velocity all create 2.4 5300450 mom yes dist gaussian # Assign velocities
                                                    # Temperature 2.4, random number seed, zero linear momentum
                                                                                # Gaussian distribution

timestep 0.002   # simulation timestep
thermo 1000       # output thermodynamic data every 1000 steps bf 100

# Define a fix  in this case with index 1 applied to all
# particles in the simulation. This fix is for simulations
# in the anisotropic NPT ensemble. Note that we use the MTK
# correction.
fix 1 all npt temp 2.4 2.4 0.1 iso 5.68 5.68 0.5 mtk yes tchain 5 pchain 5 # Use NPT ensemble
                                                                         # Set temperature and pressure and damping
                                                                         # Numbers of thermostats in chain and in barostat
run 10000          # run for 10000 steps
Per MPI rank memory allocation (min/avg/max) = 3.642 | 3.644 | 3.648 Mbytes
Step Temp E_pair E_mol TotEng Press Volume 
       0          2.4   -8.2581388            0   -4.6590388   -2.3989133         4000 
    1000    2.4203393   -4.5334098            0  -0.90380847    5.5081049    5111.0873 
    2000    2.3595033   -4.3667723            0  -0.82840219    5.5503253    5205.8828 
    3000    2.3723738   -4.4427465            0  -0.88507539    5.5123874    5156.8917 
    4000    2.4015997   -4.4018746            0  -0.80037566    5.6624344    5172.9765 
    5000    2.3613134   -4.3969029            0  -0.85581837    5.8207448    5137.5447 
    6000    2.3982628   -4.4478981            0  -0.85140329    5.5065501    5148.8538 
    7000    2.3620988    -4.434982            0  -0.89271949    5.5016023    5168.3839 
    8000    2.3835918   -4.4778028            0  -0.90330896    5.8891505     5084.306 
    9000    2.4065335   -4.3923466            0  -0.78344888    5.7215818    5165.6961 
   10000    2.3939822    -4.466817            0  -0.87674136    5.2741465    5174.3164 
Loop time of 2.13049 on 48 procs for 10000 steps with 4000 atoms

Performance: 811079.516 tau/day, 4693.747 timesteps/s
99.6% CPU use with 48 MPI tasks x no OpenMP threads

MPI task timing breakdown:
Section |  min time  |  avg time  |  max time  |%varavg| %total
---------------------------------------------------------------
Pair    | 0.83314    | 0.91607    | 1.0033     |   3.1 | 43.00
Neigh   | 0.17013    | 0.17391    | 0.19301    |   1.1 |  8.16
Comm    | 0.6534     | 0.73491    | 0.86619    |   4.6 | 34.49
Output  | 0.00024269 | 0.00024921 | 0.00033369 |   0.0 |  0.01
Modify  | 0.24503    | 0.29109    | 0.33549    |   4.6 | 13.66
Other   |            | 0.01427    |            |       |  0.67

Nlocal:        83.3333 ave          90 max          75 min
Histogram: 2 2 1 4 10 6 11 3 4 5
Nghost:        1386.67 ave        1408 max        1365 min
Histogram: 3 0 5 9 9 4 8 6 3 1
Neighs:        7356.04 ave        8252 max        6059 min
Histogram: 1 1 1 4 8 10 10 6 3 4

Total # of neighbors = 353090
Ave neighs/atom = 88.272500
Neighbor list builds = 904
Dangerous builds = 203

# Equilibrate just above the melting temperature to avoid step fn in T

fix 1 all npt temp 1.25 1.25 0.1 iso 5.68 5.68 0.5 mtk yes tchain 5 pchain 5
run 2000
Per MPI rank memory allocation (min/avg/max) = 3.642 | 3.644 | 3.648 Mbytes
Step Temp E_pair E_mol TotEng Press Volume 
   10000    2.3939822    -4.466817            0  -0.87674136    5.2741465    5174.3164 
   11000    1.2796567   -5.8953072            0    -3.976302    5.6168688    4289.1436 
   12000    1.2499625   -5.9111599            0    -4.036685    5.6986767    4274.4395 
Loop time of 0.462461 on 48 procs for 2000 steps with 4000 atoms

Performance: 747305.590 tau/day, 4324.685 timesteps/s
99.6% CPU use with 48 MPI tasks x no OpenMP threads

MPI task timing breakdown:
Section |  min time  |  avg time  |  max time  |%varavg| %total
---------------------------------------------------------------
Pair    | 0.19491    | 0.21201    | 0.23193    |   1.5 | 45.84
Neigh   | 0.030845   | 0.032224   | 0.034297   |   0.4 |  6.97
Comm    | 0.13512    | 0.16064    | 0.18411    |   2.2 | 34.73
Output  | 5.0873e-05 | 5.2413e-05 | 6.7157e-05 |   0.0 |  0.01
Modify  | 0.044955   | 0.053045   | 0.06359    |   2.1 | 11.47
Other   |            | 0.004492   |            |       |  0.97

Nlocal:        83.3333 ave          90 max          74 min
Histogram: 1 2 2 3 5 10 13 5 4 3
Nghost:        1573.67 ave        1593 max        1556 min
Histogram: 1 3 8 5 10 9 3 5 2 2
Neighs:        8925.98 ave        9744 max        7644 min
Histogram: 1 0 2 6 5 8 11 4 6 5

Total # of neighbors = 428447
Ave neighs/atom = 107.11175
Neighbor list builds = 142
Dangerous builds = 15

#############################
# L I N E A R  Q U E N C H  #
#############################

# Define solid atoms. This closely follows ten Wolde  Ruiz-Montero and Frenkel  Faraday Discuss  1996  104  93-110
# Compute components of the per-atom q6 vector
compute q6 all orientorder/atom degrees 1 6 components 6 nnn NULL cutoff 1.3 # compute the Q6 parameter.
                                                                             # Use all neighbours within 1.3 unit cell.

# get number of connections
compute coord_number all coord/atom orientorder q6 0.5

# An atom is solid if it has 8 or more connections (of a possible 14)
variable is_solid atom c_coord_number>=8
group solid dynamic all var is_solid    # Must be dynamic to update
dynamic group solid defined

# do clustering
compute cluster solid cluster/atom 1.3 # Create a cluster where all atoms within are solid and max 1.3 units from another member

# define chunks one chunk per cluster
compute clus_chunks solid chunk/atom c_cluster nchunk every compress yes  # Says which atoms are in which chunk

# count the size of each chunk
compute size_chunks solid property/chunk clus_chunks count


# Find the maximum entry in the vector of chunk sizes
variable max_n equal max(c_size_chunks)


# Thermo style which includes this variable
# thermo_style custom step temp pe vol v_max_n

thermo ${N}  # Print the thermo information every 100 steps
thermo 1000  

# Reset the npt fix at a lower temperature (below freezing)
fix 1  all npt temp  ${temp} ${temp}  0.1  iso  5.68  5.68  0.5  mtk yes tchain  5  pchain  5
fix 1  all npt temp  0.45 ${temp}  0.1  iso  5.68  5.68  0.5  mtk yes tchain  5  pchain  5
fix 1  all npt temp  0.45 0.45  0.1  iso  5.68  5.68  0.5  mtk yes tchain  5  pchain  5

dump dmp2 all dcd ${N} traj.dcd
dump dmp2 all dcd 1000 traj.dcd


compute msd all msd com yes
variable twopoint equal c_msd[4]/6/(step*dt+1.0e-6)
fix 9 all vector 10 c_msd[4]
variable fit equal slope(f_9)/6/(10*dt)
thermo_style custom step temp pe c_msd[4] v_twopoint v_fit v_max_n

fix 1 all npt temp 1.25 ${temp} 0.1 iso 5.68 5.68 0.5 mtk yes tchain 5 pchain 5
fix 1 all npt temp 1.25 0.45 0.1 iso 5.68 5.68 0.5 mtk yes tchain 5 pchain 5
run 500000 # 5000000  # Run for this many steps
Neighbor list info ...
  update every 1 steps, delay 10 steps, check yes
  max neighbors/atom: 2000, page size: 100000
  master list distance cutoff = 3.8
  ghost atom cutoff = 3.8
  binsize = 1.9, bins = 9 9 9
  4 neighbor lists, perpetual/occasional/extra = 1 3 0
  (1) pair lj/cut, perpetual
      attributes: half, newton on
      pair build: half/bin/atomonly/newton
      stencil: half/bin/3d
      bin: standard
  (2) compute orientorder/atom, occasional
      attributes: full, newton on
      pair build: full/bin/atomonly
      stencil: full/bin/3d
      bin: standard
  (3) compute coord/atom, occasional
      attributes: full, newton on
      pair build: full/bin/atomonly
      stencil: full/bin/3d
      bin: standard
  (4) compute cluster/atom, occasional
      attributes: full, newton on
      pair build: full/bin/atomonly
      stencil: full/bin/3d
      bin: standard
Per MPI rank memory allocation (min/avg/max) = 9.733 | 9.736 | 9.739 Mbytes
Step Temp PotEng c_msd[4] v_twopoint v_fit v_max_n 
   12000    1.2499625   -5.9111599 8.4625054e-31 5.8767396e-33 8.3333333e+20            3 
   13000    1.2613373   -5.8972688   0.57315882 0.0036740949  0.047001147            3 
   14000    1.2464374   -5.9134633    1.0920625 0.0065003715  0.045507823            3 
   15000    1.2573572   -5.9006085    1.6527039 0.0091816878  0.045885696            3 
   16000    1.2634385   -5.9020554    2.2112455  0.011516903  0.045743253            3 
   17000      1.24133   -5.9390506    2.7471652  0.013466496  0.045587834            5 
   18000    1.2514024   -5.8659177    3.2862416  0.015214081  0.045457214            4 
   19000    1.2280786   -5.9523248     3.797651  0.016656364  0.045016234            4 
   20000    1.2371316   -5.9395682    4.3213649  0.018005687  0.044813364            6 
   21000    1.2296017   -5.9408199    4.8454308    0.0192279  0.044692402            2 
   22000    1.2133254   -5.9205359    5.4421654  0.020614262  0.044725252            3 
   23000    1.2272772   -5.9720299    6.0144838  0.021791608  0.044916729            3 
   24000     1.193604   -5.9457571    6.6057393  0.022936594  0.045247274            2 
   25000    1.2157208   -5.9449306    7.2283193  0.024094397  0.045518212            6 
   26000    1.2363081   -5.9575336    7.7074857  0.024703479  0.045760347           11 
   27000    1.2078826   -5.9420376    8.2762665  0.025544032  0.045878115            2 
   28000    1.2253078   -5.9362848    8.7679161  0.026094988   0.04585036            3 
   29000    1.1986997   -5.9111467    9.4138386   0.02705126  0.045881414            3 
   30000    1.2813431   -5.9596791    9.8748567  0.027430157    0.0458623            2 
   31000    1.1794352   -5.9959417    10.281512  0.027638472  0.045730704            5 
   32000    1.2051047   -5.9743612    10.690227  0.027839133  0.045466564            3 
   33000    1.2099262   -5.9931932    11.161785  0.028186325  0.045166431            4 
   34000    1.2116005   -5.9162237    11.624264  0.028490842  0.044856637            2 
   35000    1.1954279   -5.9471342    12.077495   0.02875594  0.044555329            3 
   36000    1.1747113   -5.9393922    12.504729  0.028946131  0.044224825            4 
   37000    1.2113009   -5.9371959    12.937982  0.029139599  0.043911064            2 
   38000     1.223102   -5.9581325    13.410413  0.029408799  0.043609227            2 
   39000    1.1991001   -6.0238444    13.953729   0.02981566  0.043340674            3 
   40000    1.2258429   -5.9821722    14.522436  0.030255075  0.043157921            6 
   41000    1.2037099   -5.9542577    14.921089  0.030327417  0.043007032            2 
   42000    1.2029096   -5.9925303    15.376713  0.030509352  0.042849589            4 
   43000    1.1931938   -5.9509335     15.95551   0.03092153  0.042717552            3 
   44000    1.2190017   -5.9770892    16.337636  0.030942493  0.042589164            5 
   45000    1.2078855     -6.00348    16.876919  0.031253554  0.042451566            6 
   46000    1.1988681   -5.9746279     17.30925  0.031357337  0.042305701            4 
   47000    1.1737432   -5.9888938    17.841714  0.031634243  0.042177469            5 
   48000    1.1692377   -5.9978504    18.178654  0.031560162  0.042063585            7 
   49000    1.1873128   -6.0255608    18.474903  0.031419903  0.041899284            4 
   50000    1.2072187   -5.9614152    18.977744  0.031629574  0.041737311            3 
   51000    1.2004953   -6.0332934    19.457566  0.031793408  0.041577454            2 
   52000     1.166721   -6.0188738    19.946716  0.031965891  0.041456515            2 
   53000     1.196805   -6.0061049     20.47851  0.032198915  0.041351229            5 
   54000    1.1881552   -6.0416687    20.983926  0.032382602  0.041250583            3 
   55000    1.1756142   -5.9938878    21.701231  0.032880653  0.041202219            3 
   56000     1.166189   -6.0301234    22.103943  0.032892772   0.04115714            4 
   57000    1.1937356   -6.0356133    22.646839  0.033109414  0.041135634            4 
   58000    1.1778897   -6.0258259    23.269258  0.033432842  0.041130528            5 
   59000    1.1803989   -6.0393013    23.751742  0.033547658  0.041144063            5 
   60000    1.1965656   -6.0365436    24.337176  0.033801633  0.041161928            4 
   61000    1.1606215   -6.0376902    24.993269  0.034143809  0.041199101            8 
   62000    1.1644136   -6.0323547    25.333999  0.034051073    0.0412228            3 
   63000    1.1637675   -6.0694313    25.728148  0.034031942  0.041237728            2 
   64000    1.1680029    -6.059448    26.273872  0.034210771   0.04124086            4 
   65000    1.1393312   -6.0947906    26.794307  0.034351675  0.041253907            3 
   66000    1.1488936   -6.0722558    27.110895  0.034230928  0.041249059            5 
   67000    1.1610942   -6.0538765    27.515765  0.034223588  0.041234553            3 
   68000    1.1495366   -6.0571478    27.885726  0.034173683  0.041202117            3 
   69000    1.1615834   -6.0727325    28.146249  0.033993054   0.04114602            2 
   70000    1.1638444   -6.0568829    28.545569   0.03398282  0.041050531            3 
   71000    1.1568331    -6.043038    29.000327  0.034037942  0.040954187            3 
   72000    1.1577863   -6.0850722    29.506616  0.034151176  0.040864032            7 
   73000    1.1675587   -6.0772875    29.909519  0.034143286  0.040791115            4 
   74000      1.14101    -6.062267    30.471688  0.034314964  0.040727321            3 
   75000    1.1459607   -6.0553309    30.992728  0.034436364  0.040665929            3 
   76000    1.1478101   -6.0661158    31.652856  0.034707078  0.040632394            3 
   77000    1.1562456    -6.086219    31.803195  0.034419042  0.040595966            4 
   78000     1.130729   -6.0542885    32.328867  0.034539387  0.040541838            9 
   79000    1.1494163   -6.0684382    32.705294  0.034499255  0.040486382            4 
   80000    1.1618736    -6.125624    33.221802  0.034606043  0.040433411            3 
   81000    1.1390896   -6.0650647    33.438058  0.034401294   0.04036793            4 
   82000    1.1267804   -6.1150121    33.849672  0.034400073  0.040292104            3 
   83000    1.1315648   -6.0934432    34.010807  0.034147396  0.040204432            2 
   84000    1.1353075   -6.1069528    34.505501  0.034231647  0.040116493            7 
   85000    1.1181382   -6.1009189    35.094783   0.03440665  0.040033971            7 
   86000    1.1234142   -6.0713741    35.391253   0.03429385  0.039957546            4 
   87000    1.1079004   -6.0847496    35.906949   0.03439363  0.039875525            3 
   88000    1.1208679   -6.1423788    36.291943   0.03436737  0.039798083            6 
   89000    1.1205616   -6.1249776     36.61417  0.034282931  0.039717023            6 
   90000    1.1201935    -6.134772    37.227737  0.034470127   0.03964105            5 
   91000     1.112191   -6.1200016    37.651492  0.034479388  0.039572328            3 
   92000    1.1550065   -6.1361222     38.16912  0.034573478  0.039509232            4 
   93000    1.1180205   -6.1288915    38.484421  0.034484248  0.039448157            6 
   94000    1.1380423   -6.1311117    38.795899  0.034393527  0.039382316            4 
   95000    1.1281996   -6.1544716    39.201833  0.034387573  0.039312518            4 
   96000    1.1269891   -6.1284088    39.448445  0.034243441   0.03923392            4 
   97000    1.1226163   -6.1456664    39.923227  0.034298305  0.039155552            3 
   98000    1.0941342   -6.1508477    40.282413  0.034253752  0.039078764            4 
   99000    1.0959617   -6.1413192    40.452093  0.034050583  0.038994081            4 
  100000    1.1044464   -6.1441429    40.856498  0.034047082  0.038903218            6 
  101000    1.1218614   -6.1422204    41.143794  0.033947025  0.038812498            6 
  102000     1.086398   -6.1427485    41.266751  0.033714666  0.038709395            7 
  103000    1.1054943   -6.1588611    41.703313  0.033740544  0.038605227            5 
  104000    1.0707402   -6.1820883    42.066618  0.033707226  0.038499936            4 
  105000    1.1048301   -6.1589812    42.451549  0.033691705  0.038395113            4 
  106000    1.1030479   -6.1544744    43.055041  0.033848302   0.03830163            2 
  107000     1.108298   -6.1472542     43.34851  0.033760522  0.038209919            3 
  108000    1.0706209    -6.164296    43.830947  0.033820175  0.038117932            4 
  109000    1.0990518   -6.1841493     44.02186  0.033655856  0.038025055            3 
  110000    1.0817015   -6.1800693    44.385008  0.033625006  0.037936167            4 
  111000    1.0788924   -6.1842539    44.869967  0.033686161  0.037849087            5 
  112000      1.10036   -6.1694103    45.116506  0.033568828  0.037759304            4 
  113000    1.0723924   -6.1496071    45.608714  0.033634744  0.037671207            7 
  114000    1.0881109   -6.1975263    45.832181  0.033503056   0.03758287            3 
  115000    1.0764475   -6.2186986     46.23715  0.033505181  0.037494796            6 
  116000    1.0976174   -6.1663157    46.630622   0.03349901   0.03741041            4 
  117000    1.0742531   -6.1568095    47.072075  0.033527119  0.037326645            4 
  118000     1.066959   -6.2166717    47.494506  0.033541318  0.037245873            6 
  119000    1.0905925   -6.1982321    47.693663  0.033398924   0.03716915            7 
  120000    1.0861745   -6.2112294    48.215211  0.033482785  0.037093459            9 
  121000    1.0815938   -6.2291072    48.591288  0.033465074  0.037016815            4 
  122000    1.0494486    -6.236702    48.649172  0.033230309  0.036937367            8 
  123000    1.0682697   -6.2289769    49.124308  0.033282051  0.036859888            5 
  124000    1.0872905   -6.2029923    49.773618  0.033450012  0.036786202            4 
  125000    1.0825979    -6.230613    49.856164  0.033237443  0.036712689            3 
  126000    1.0903126   -6.2095103    50.233655  0.033223317  0.036631728            4 
  127000    1.0628355   -6.2469743    50.520729  0.033150085  0.036550052            3 
  128000    1.0769437   -6.2271574    50.961194  0.033177861  0.036472296            5 
  129000    1.0479164   -6.2131227    51.405336  0.033207582  0.036399343            5 
  130000    1.0712692   -6.2139114    51.680878  0.033128768   0.03632908            5 
  131000    1.0422345   -6.2205074    51.870241  0.032996336  0.036254817            3 
  132000    1.0621528     -6.23857     52.06665   0.03287036  0.036177966           13 
  133000    1.0687227   -6.2115808    52.488115   0.03288729  0.036101004            8 
  134000    1.0390865   -6.2261035    52.860283   0.03287331   0.03602357            4 
  135000    1.0158423   -6.2273593     53.24741  0.032868772  0.035947779            8 
  136000    1.0414517    -6.242439    53.575565  0.032828165  0.035872959            7 
  137000    1.0283181   -6.2650065    53.737755  0.032687199  0.035797898            5 
  138000    1.0448423    -6.257509    53.958918  0.032583888  0.035720091            3 
  139000    1.0503512   -6.2683458    54.317705  0.032564571  0.035638929            5 
  140000    1.0397313   -6.2600813    54.507341  0.032444846   0.03555684            5 
  141000     1.060544   -6.2627003    54.438099  0.032173817  0.035468124            4 
  142000    1.0352116   -6.2574276    54.968027  0.032258232  0.035380216            6 
  143000    1.0690856   -6.2490659     55.45472   0.03231627  0.035294718            5 
  144000    1.0368887   -6.2822943    55.601185  0.032176612  0.035210652            6 
  145000    1.0162802   -6.2664117    55.919489  0.032137637  0.035128313            8 
  146000    1.0434955   -6.2874735    56.060195  0.031997828  0.035042997           11 
  147000    1.0065104   -6.2726928    56.486706  0.032021942  0.034955196            9 
  148000    1.0395508   -6.2918381    56.518763  0.031823628  0.034866518            7 
  149000    1.0192363   -6.3207224     56.82871  0.031783394  0.034777934            5 
  150000    1.0406141   -6.2820064    57.110521  0.031728067  0.034692042            8 
  151000    1.0205833   -6.2848229    57.710258  0.031848928   0.03461017            7 
  152000    1.0268706   -6.2640553    57.869594  0.031726751  0.034527118            5 
  153000    1.0209507   -6.2839884    58.168443  0.031682158  0.034442405            9 
  154000    1.0279247   -6.2740712    58.563947  0.031690447  0.034359697            6 
  155000    1.0474723    -6.278877    58.769577  0.031596547  0.034277458            5 
  156000    1.0348587   -6.3379153    58.929215  0.031479281  0.034194608            7 
  157000    1.0360289   -6.3016224    59.282057   0.03146606  0.034111086            7 
  158000    1.0268049   -6.3112112    59.330846   0.03129264  0.034025047            9 
  159000    1.0361271   -6.3400159    59.531913  0.031201212  0.033936154            5 
  160000    1.0091278   -6.2963054    59.662898  0.031074426  0.033843706            3 
  161000    1.0278935    -6.360532    59.921037  0.031015029  0.033753826            7 
  162000     1.018319   -6.3093462     60.41398   0.03107715  0.033664475            9 
  163000    1.0139772   -6.3076981    60.737629  0.031051957  0.033576672            4 
  164000   0.99418697   -6.3438889    60.737735   0.03086267  0.033488869            6 
  165000   0.98667332   -6.3329756    61.284315  0.030951674  0.033402931            9 
  166000    1.0085346    -6.367951     61.46353  0.030855186  0.033319843            9 
  167000   0.97448685   -6.3455745    61.811194  0.030843909  0.033237759            6 
  168000    1.0004222   -6.3166826    61.689648  0.030600024  0.033153541            9 
  169000   0.99203084   -6.3433597    62.235299  0.030688017  0.033068855           11 
  170000   0.99421385   -6.3597249    62.557619    0.0306655  0.032986808            4 
  171000   0.98998312   -6.3363514    62.617605  0.030515402   0.03290051            4 
  172000    1.0179655   -6.3804452    62.843865  0.030447609  0.032814932           12 
  173000   0.98375591   -6.3835482    62.793862  0.030247525  0.032728805            5 
  174000   0.99524729   -6.3664854    63.390474  0.030359422  0.032644824            5 
  175000   0.97717028   -6.3492348    63.603952  0.030287596  0.032562991            3 
  176000   0.98052503   -6.3824794    63.845501  0.030229877  0.032480669           13 
  177000    1.0065082    -6.379583    64.127479  0.030191845  0.032398042            7 
  178000   0.97710488   -6.3789883    64.252426  0.030080724  0.032315942            9 
  179000   0.96723911   -6.3796687    64.515038  0.030034934  0.032232736            6 
  180000   0.99516429   -6.3477276     64.64516  0.029928315  0.032148233            7 
  181000   0.98445681   -6.4045861    64.822098  0.029844428  0.032063441            4 
  182000   0.96905435   -6.4062109    65.184951  0.029846589  0.031980793            5 
  183000   0.98058225   -6.3781065    65.533723  0.029842315  0.031900684           18 
  184000   0.97964294   -6.3752738    65.754515  0.029780124  0.031819848            4 
  185000   0.95566006   -6.3930069    66.073446  0.029762813  0.031739645           16 
  186000   0.96985313   -6.3627159    66.235612  0.029675453  0.031660829            4 
  187000     0.966749   -6.3776691    66.608179  0.029682789  0.031582287            5 
  188000   0.97258019   -6.4081118    66.808172  0.029613551  0.031503414            4 
  189000   0.96767294   -6.4144572    66.943772  0.029516654  0.031425164            5 
  190000   0.96625926   -6.3602419    67.415247  0.029568091  0.031347295           25 
  191000   0.96118209   -6.4398025    67.707361  0.029540733  0.031273096           12 
  192000   0.96285516   -6.4181129    67.492791  0.029293746  0.031195953            7 
  193000   0.95055215   -6.4181615    67.995486  0.029359018  0.031119401           13 
  194000   0.96526283   -6.4174993    68.073555  0.029241218  0.031040934            6 
  195000   0.96659659   -6.3998121    68.194932  0.029143133  0.030963366            5 
  196000    0.9685431   -6.4444695    68.607441   0.02916983  0.030886176            5 
  197000   0.97101939   -6.3905995    68.481663  0.028968554  0.030806797            5 
  198000   0.95039792   -6.4324469     68.50631  0.028832622  0.030725474            5 
  199000   0.96503334   -6.4402645    68.682889  0.028761679  0.030643087           10 
  200000   0.93103307   -6.4201697    68.851818  0.028688257  0.030562346            5 
  201000   0.93968252   -6.4325479    69.351398  0.028752653  0.030482993            4 
  202000   0.98121968   -6.4567263    69.561206  0.028696867  0.030403982            8 
  203000   0.94509459   -6.4323289    69.647285  0.028590839  0.030325419            8 
  204000   0.95521293   -6.4652301    69.897587  0.028552936  0.030246729            6 
  205000   0.94720161   -6.4377569    69.930077   0.02842686  0.030167535            8 
  206000    0.9280261   -6.4775292    70.223639  0.028407621  0.030088026            6 
  207000   0.95975367   -6.4469419    70.519426  0.028389463  0.030009424            9 
  208000   0.94876482   -6.4093775    70.968225  0.028432782  0.029933697            4 
  209000   0.92263749   -6.4519681    71.264442  0.028414849  0.029859403            3 
  210000    0.9387107   -6.4829275    71.397163  0.028332207  0.029785491            7 
  211000   0.94027176   -6.4697932    71.469302  0.028226423  0.029711343            4 
  212000   0.92787107    -6.469118    71.583266  0.028138076  0.029635253           10 
  213000   0.91475402   -6.4545052    71.878497  0.028121477  0.029559721           14 
  214000    0.9328035   -6.4386192    72.023855  0.028046672  0.029484115            9 
  215000   0.92979168   -6.5107953    72.118289  0.027952825  0.029409383            7 
  216000   0.92616043    -6.501025    72.360668  0.027916924  0.029335541            6 
  217000   0.92498443   -6.5028323     72.54914  0.027860653  0.029262317           19 
  218000   0.90679556    -6.473585    72.907672  0.027869905  0.029190635            8 
  219000   0.90408851   -6.4542398    73.312757  0.027896787  0.029119637            6 
  220000    0.9285399   -6.4761025    73.421992   0.02781136  0.029049472            8 
  221000   0.89022033   -6.4901875    73.541236  0.027730481  0.028979246            8 
  222000   0.91532791   -6.4918991    74.032145  0.027789844  0.028910062            7 
  223000   0.90180733   -6.5069141    74.336558  0.027778983  0.028842239            5 
  224000    0.9164817   -6.5110984    74.263409  0.027627756  0.028774804            4 
  225000   0.91352418   -6.5143613    74.513803  0.027597705  0.028707078           10 
  226000   0.90192074    -6.513243    74.809526  0.027584633  0.028639976           14 
  227000   0.92452716    -6.484825    75.196041  0.027605008  0.028574288            4 
  228000   0.91933393   -6.5330983    75.182861  0.027479116  0.028509579            6 
  229000   0.92259124   -6.5374267    75.387924  0.027433742  0.028446231            8 
  230000   0.89996393   -6.5136736    75.712303  0.027431994  0.028381543           19 
  231000   0.90247864   -6.5538395    75.738078  0.027322539  0.028317176           11 
  232000   0.89994615   -6.5413425    75.890836  0.027259639  0.028252471            6 
  233000   0.89119187   -6.5682169    75.954721  0.027165494  0.028187374           36 
  234000   0.88743826   -6.5498172    75.967129  0.027053821  0.028121264           16 
  235000   0.90227711   -6.5599552     76.22595  0.027030479  0.028053883            4 
  236000   0.86749034   -6.5591776    76.506439  0.027014986  0.027987617            9 
  237000   0.86506405   -6.5732211    76.557923  0.026919101  0.027922088           13 
  238000   0.89529064   -6.5622692    76.902932  0.026926797  0.027856548            7 
  239000   0.89224588   -6.5538182    77.065465  0.026870804  0.027790982            5 
  240000   0.87938859    -6.572291    77.163942  0.026793035  0.027726591            8 
  241000   0.88129636   -6.5790957    77.633405  0.026844193  0.027662374           22 
  242000   0.88344507   -6.5541891     77.91594  0.026830558  0.027600451            6 
  243000   0.87632877    -6.584704    78.290042  0.026848437  0.027538709           10 
  244000   0.88748042   -6.5861177    78.155158  0.026692335  0.027477818            9 
  245000   0.88183266   -6.5232761    78.407013  0.026669052  0.027415892           23 
  246000   0.88282797   -6.5479129    78.305463  0.026526241  0.027353953           12 
  247000   0.85342032   -6.5949657    78.577366  0.026510582  0.027292499            6 
  248000   0.86346669   -6.5722376    78.826221  0.026487305  0.027230813           17 
  249000   0.84754852   -6.5550287    78.910442  0.026409117    0.0271691           18 
  250000   0.86664517   -6.5900803    78.834206  0.026278069  0.027106384            8 
  251000   0.87384881   -6.5777915    79.150565  0.026278408  0.027043618            8 
  252000   0.87235455   -6.6183716    79.478945   0.02628272  0.026981161           10 
  253000   0.86035601   -6.5745387    79.476254  0.026177949  0.026919023            8 
  254000   0.85564038   -6.5715742    79.511329  0.026086394  0.026856241           16 
  255000   0.86625425   -6.6119118    79.626549  0.026021748   0.02679386            7 
  256000   0.86471908   -6.5882361     79.88907  0.026005556  0.026731434            7 
  257000   0.84852116   -6.6021232    79.992744  0.025937985  0.026669627            9 
  258000   0.86307912   -6.6368146    80.398796  0.025968603  0.026608369            8 
  259000    0.8676725   -6.6212438    80.614247   0.02593766  0.026547888            8 
  260000   0.85690455   -6.6197507    80.893766  0.025927489  0.026488195            8 
  261000   0.85342001   -6.5972496    80.842732  0.025811856  0.026428979            4 
  262000   0.86140678   -6.6394068    80.959272  0.025750405  0.026368872           17 
  263000   0.83609273   -6.6068064    81.222379  0.025735861  0.026308765            5 
  264000   0.84257717    -6.636034    81.224378  0.025639008  0.026248543           12 
  265000   0.86253088   -6.6249815    81.420449  0.025603915  0.026188529           21 
  266000   0.86990244   -6.6244747    81.505619  0.025534342  0.026128841           11 
  267000   0.85788311   -6.6359481    81.602787  0.025469035  0.026069441           29 
  268000   0.85211583   -6.6445556    82.043143  0.025510928  0.026010174           38 
  269000   0.82341619   -6.6242351    81.650796  0.025294546   0.02594978           34 
  270000   0.83929749   -6.6338009    82.111206  0.025342965  0.025890097           10 
  271000   0.83040435   -6.6850932    82.104029  0.025247241  0.025829853           22 
  272000   0.82172141   -6.6818948    81.977923  0.025115785  0.025769297           11 
  273000   0.83758506   -6.6859483    82.483046  0.025177975  0.025709026           16 
  274000   0.79929825   -6.6631113    82.349449  0.025045453  0.025648286            7 
  275000   0.82465492   -6.6812029    82.456394  0.024986786  0.025586944           20 
  276000   0.82719546   -6.6620775    82.669725  0.024960666  0.025526507           10 
  277000   0.83588745   -6.6739023    82.858589  0.024927373   0.02546593           14 
  278000   0.82004782   -6.7096329     82.76735  0.024810357   0.02540504            5 
  279000   0.81161214   -6.6955737    82.882003  0.024755676  0.025343427            9 
  280000   0.82861356   -6.6997954    83.026984  0.024710412   0.02528229           13 
  281000   0.81915783   -6.6763062    83.211769  0.024677274  0.025220967           10 
  282000   0.81591613   -6.6838393    83.196698  0.024585313  0.025160431           13 
  283000   0.84544769    -6.698257    83.196845  0.024498482  0.025099801           15 
  284000    0.8189447   -6.7002909    83.269596  0.024433567  0.025038297           23 
  285000   0.81906264   -6.6879717    83.484529  0.024410681  0.024976292           11 
  286000   0.79001258   -6.6900111      83.3803  0.024294959  0.024913915           28 
  287000   0.81598452   -6.6960299    83.560535  0.024262641  0.024852101           13 
  288000   0.80547111    -6.699771    83.776688   0.02424094  0.024790144           22 
  289000    0.7822352   -6.7241035    83.792368  0.024161582  0.024727588           15 
  290000   0.79546197   -6.7392434    83.952451  0.024124268  0.024664984            8 
  291000   0.81353417   -6.7208945    83.923449  0.024033061  0.024602043           16 
  292000   0.80903962   -6.6906065    84.021586  0.023978763  0.024540122           14 
  293000   0.78645028   -6.7250443    84.187062  0.023943988  0.024478473           19 
  294000   0.79074311   -6.7440767    84.189566  0.023863256  0.024416005           22 
  295000   0.80513272   -6.7232289    84.374309  0.023834551  0.024353842           21 
  296000   0.78676327   -6.7214219    84.576406  0.023810925  0.024292437           13 
  297000   0.78507803   -6.7238302    84.463449   0.02369906  0.024230693           13 
  298000   0.78941944   -6.7163371    84.582946  0.023652949  0.024168718            9 
  299000   0.80035097   -6.7243604    84.943954  0.023674458  0.024106703           32 
  300000    0.7738634   -6.7522865    84.776574  0.023549048  0.024045745           28 
  301000   0.76821635   -6.7179551    84.889593  0.023502102  0.023984282           27 
  302000   0.79625577   -6.7408733    84.880203   0.02342169  0.023922719            8 
  303000    0.7767557   -6.7475482     85.10631  0.023406576  0.023861572           14 
  304000    0.8046703   -6.7352326    85.344144  0.023394776  0.023800809           28 
  305000    0.7649625   -6.7536705    85.076288  0.023244887  0.023740258           26 
  306000   0.78788045   -6.7488942    85.258548  0.023218559  0.023678987           14 
  307000   0.77760498   -6.7583203    85.451454  0.023195291  0.023618326           19 
  308000   0.77989543   -6.7858088    85.345518   0.02309132  0.023557122           23 
  309000   0.78578744   -6.7829808    85.554577  0.023072971  0.023495918           13 
  310000   0.77444239    -6.759103    85.412737  0.022960413  0.023435438           15 
  311000   0.76575606   -6.7595415    85.844857  0.023002373  0.023374868           15 
  312000   0.77267265   -6.7510261    85.953107  0.022957561  0.023314555           29 
  313000   0.76321606   -6.7716982    85.922541  0.022876076  0.023254248           24 
  314000   0.76667016   -6.7854224    85.947366  0.022809811   0.02319388           18 
  315000   0.76876114   -6.7885556    85.948139  0.022737603  0.023133483           23 
  316000   0.77200589   -6.8151304    86.065085  0.022696489  0.023072991           37 
  317000    0.7589419   -6.7899359    86.123055   0.02264013  0.023012447           21 
  318000   0.77795655   -6.8042935    86.127574  0.022570119  0.022952119           54 
  319000     0.754664   -6.8267747       86.109  0.022494514   0.02289127           30 
  320000   0.75813248   -6.8182813    86.370738   0.02249238  0.022830724           27 
  321000   0.76563511   -6.8154734    86.268688  0.022395817  0.022769644           16 
  322000   0.73803041   -6.8141652    86.225866  0.022315183  0.022708316           25 
  323000   0.74653907   -6.8425731    86.328195  0.022272496  0.022647146           26 
  324000    0.7363492   -6.8046444    86.263165  0.022187028  0.022586021           39 
  325000   0.75016518   -6.7945364    86.423303  0.022159821  0.022524759           23 
  326000   0.75414124   -6.8226725    86.401894  0.022086374   0.02246437           27 
  327000   0.77010005    -6.809723    86.763362  0.022110948  0.022404038           26 
  328000   0.73902704      -6.8413    86.651795  0.022015192  0.022343597           20 
  329000   0.75486412   -6.8697458    86.869845  0.022003507  0.022283713           22 
  330000   0.72645697   -6.8710716    87.046522  0.021981445  0.022224118           42 
  331000   0.74260458   -6.8299161    86.960408  0.021893355  0.022164614           18 
  332000   0.73025128   -6.8539389    87.009087   0.02183963  0.022105212           78 
  333000   0.73953133   -6.8471015     87.15356    0.0218102  0.022045972           63 
  334000   0.73295711   -6.8674881    87.035749  0.021715506  0.021986494           95 
  335000   0.73397983    -6.870265    87.138892  0.021676341  0.021927122          105 
  336000   0.74204401    -6.868879    87.164723  0.021618235  0.021867739          165 
  337000   0.75358216   -6.8276524     87.50269  0.021637658  0.021809017           82 
  338000   0.72489787   -6.8203327    87.437387  0.021557541  0.021750525          123 
  339000   0.71500528   -6.8700024    87.483308  0.021505238  0.021691988          113 
  340000   0.72204226     -6.85452     87.29996  0.021397049  0.021633203          105 
  341000   0.73214518   -6.8548951    87.429234  0.021365893  0.021574337           42 
  342000   0.71157352    -6.861815    87.305989  0.021273389  0.021515263           63 
  343000   0.71661508   -6.8882428    87.504742  0.021259656  0.021456155           42 
  344000   0.71420291   -6.8598788    87.382744    0.0211683  0.021397442           19 
  345000   0.71377987   -6.8895894    87.668397  0.021175941  0.021339021           37 
  346000   0.71236077   -6.9051199    87.609871  0.021100643  0.021280411           52 
  347000   0.70469516   -6.8888032    87.689441  0.021058944  0.021222209           28 
  348000   0.70705154   -6.9193448    87.770102  0.021017745  0.021164031           23 
  349000    0.7055109   -6.8932717    87.985209  0.021008885  0.021106391           34 
  350000   0.70800391    -6.906048    87.929821  0.020935672  0.021048708           42 
  351000   0.70375693   -6.9246232    87.691103   0.02081935   0.02099055           40 
  352000   0.70609665   -6.9383825    87.768306  0.020778482  0.020932185           24 
  353000   0.69642959    -6.895512    87.845039  0.020737733  0.020873988           25 
  354000   0.69815651   -6.8933967    87.878247   0.02068697  0.020816082           47 
  355000   0.69537134   -6.9029355    87.825848  0.020616396  0.020758454           12 
  356000   0.69927867    -6.890636    87.777321  0.020547126  0.020700928           20 
  357000   0.69089458   -6.9233035    88.041838  0.020551316  0.020643407           49 
  358000   0.68190199   -6.9345054    87.894011    0.0204595  0.020585996           20 
  359000   0.70068719    -6.916617    88.001218  0.020427395  0.020528527           25 
  360000   0.69128269   -6.9061372    87.973603   0.02036426  0.020471034           21 
  361000   0.69678996   -6.9228663    88.013267  0.020317005  0.020413216           44 
  362000   0.68591971   -6.9426818    88.047653  0.020268797  0.020355565           27 
  363000   0.69387003   -6.9455823    87.773089  0.020149929  0.020297601           51 
  364000   0.67368568   -6.9655323    87.840192  0.020109934  0.020239315           32 
  365000   0.68858022   -6.9497061    87.596691  0.019999244     0.020181           22 
  366000   0.68165709   -6.9849306    87.643485  0.019955256  0.020122505           67 
  367000    0.6603475   -6.9413799    88.099402  0.020004405  0.020064261           47 
  368000   0.66867906   -6.9773635    87.851667  0.019893946  0.020006218           35 
  369000   0.68473117   -6.9677417    87.799934   0.01982835  0.019948195           61 
  370000   0.65494622   -6.9489894    87.900267  0.019797357  0.019890297           66 
  371000   0.66593308   -6.9728051    87.984697   0.01976296  0.019832733           64 
  372000   0.67687743   -6.9661259    88.031247  0.019720261  0.019775547           91 
  373000   0.66656025   -6.9521662    87.807983  0.019617512  0.019718117           59 
  374000   0.67442294   -6.9756408    87.917847  0.019589538  0.019661164           78 
  375000   0.67518144    -6.984914     88.07637  0.019572527  0.019604121          142 
  376000   0.66610812   -6.9786096    87.882033  0.019477401  0.019547072           84 
  377000   0.66868348   -6.9908568    88.143518  0.019483536  0.019490231          164 
  378000   0.67518464   -6.9941717    88.111763  0.019424992  0.019433532           58 
  379000   0.66317713   -7.0055984    87.964816  0.019341428   0.01937697           57 
  380000   0.68643885   -6.9812576     88.23159  0.019349033  0.019320341          134 
  381000   0.65077231   -7.0025401    88.039532   0.01925624  0.019264016          240 
  382000   0.66249846   -6.9999944    87.946047  0.019185438  0.019207711          232 
  383000   0.65759845   -7.0115467    87.970998  0.019140774  0.019151354          278 
  384000   0.64577232    -6.993786     88.04099  0.019106118  0.019094773          142 
  385000   0.65348367    -7.022338    88.136305  0.019077122  0.019038379          215 
  386000   0.65056256   -7.0372896     87.94387  0.018986155  0.018981809          161 
  387000      0.65714   -7.0364762    87.929007  0.018933895  0.018925169          172 
  388000   0.64309815   -7.0523322     88.01582  0.018903741  0.018868752          153 
  389000   0.64890028   -7.0300774    88.072232   0.01886723  0.018812529          174 
  390000   0.65136006   -7.0492241    87.930198  0.018788504  0.018756363          229 
  391000   0.63129881   -7.0670666    87.921847  0.018738672  0.018700255          389 
  392000   0.64074743   -7.0807526    88.029672  0.018713791  0.018644026          421 
  393000   0.64104334   -7.0504534    88.021731  0.018664489  0.018588189          378 
  394000   0.64099513   -7.0639595    88.117405  0.018637353  0.018532614          513 
  395000   0.62884026   -7.0761274    87.961775  0.018557336   0.01847703          550 
  396000   0.62989807   -7.0898646    88.082319  0.018535842  0.018421779          427 
  397000   0.64331062   -7.0687812    88.190809  0.018511925  0.018366795          650 
  398000   0.61829898   -7.0813874     88.00124   0.01842572  0.018311738          721 
  399000   0.62565543   -7.1078403    88.056831  0.018391151  0.018256717          731 
  400000   0.63337226   -7.1032232    88.103169  0.018354827  0.018201717          803 
  401000    0.6262376   -7.0989448    87.761313  0.018238012  0.018146725          909 
  402000   0.62704343    -7.118399    87.939917  0.018229668  0.018091812          862 
  403000   0.62116932   -7.1326369    88.142513  0.018226326  0.018037216          901 
  404000   0.62800952   -7.1211273    87.883332   0.01812775  0.017982691          929 
  405000   0.62682304    -7.126639    87.720721  0.018049531  0.017928004         1095 
  406000   0.62179203   -7.1398724    87.698389   0.01800049  0.017873328         1071 
  407000   0.62216785   -7.1400986    87.917156  0.018001056  0.017818626         1053 
  408000   0.61809161   -7.1484945    87.913787  0.017956247  0.017764125         1124 
  409000   0.60353704   -7.1452144    87.807549  0.017890699  0.017709763         1224 
  410000   0.59756202   -7.1805744    87.860975  0.017857922  0.017655634         1213 
  411000   0.61401051   -7.1739495    87.645957  0.017770875  0.017601501         1374 
  412000   0.61050214   -7.1826667    87.814702  0.017761873  0.017547397         1514 
  413000   0.61181149   -7.1986083    87.756603  0.017707143  0.017493383         1617 
  414000   0.60022502   -7.1958748    87.756563  0.017664365  0.017439529         1733 
  415000   0.60659876    -7.191573    87.765516  0.017623597  0.017385925         1752 
  416000   0.59805958   -7.1990432    87.904778   0.01760913  0.017332441         1836 
  417000   0.60259125   -7.2249805    87.704917  0.017526962  0.017278861         1961 
  418000   0.58997773   -7.2076911    87.556974  0.017455537  0.017225339         2072 
  419000   0.60092506   -7.2363532    87.606704  0.017423768   0.01717189         2041 
  420000   0.58545782   -7.2379593     87.58032  0.017377048  0.017118731         2213 
  421000    0.6087302   -7.2614245    87.462342  0.017312419  0.017065584         2237 
  422000   0.60229287   -7.2443698    87.576775  0.017293992  0.017012587         2366 
  423000   0.58366312   -7.2751975    87.478741  0.017233795  0.016959573         2330 
  424000   0.58706845   -7.2908418    87.244431  0.017147097  0.016906632         2434 
  425000   0.59376034   -7.2981411    87.383446  0.017134009  0.016853528         2515 
  426000    0.5762105   -7.3282885    87.293629  0.017076218  0.016800476         2794 
  427000   0.58544984   -7.3631478    87.284386  0.017034424  0.016747365         2981 
  428000   0.58932631   -7.3650971    87.204623  0.016979093  0.016694325         3038 
  429000   0.59148758   -7.3942203    87.189478  0.016936573  0.016641386         3086 
  430000    0.5780803   -7.4139061    87.165094   0.01689246  0.016588551         3203 
  431000    0.5728306   -7.3884951    87.085782  0.016837932  0.016535752         3209 
  432000   0.58204037   -7.4210834    87.132201  0.016807909  0.016482964         3302 
  433000   0.58945117   -7.4435294    86.944367  0.016732942  0.016430394         3419 
  434000   0.55867595   -7.4500398    86.926733  0.016691001  0.016377918         3454 
  435000   0.58002408    -7.493041     86.93111  0.016653469  0.016325587         3569 
  436000   0.58162396   -7.5024487    87.022422  0.016632726  0.016273325         3579 
  437000   0.57939801   -7.5040105    86.818548  0.016555787  0.016221075         3622 
  438000   0.57222805   -7.5259755    86.834111  0.016520949   0.01616889         3707 
  439000   0.57354045   -7.5307132    86.727164  0.016463015  0.016116778         3772 
  440000   0.56319794   -7.5598453    86.602197  0.016401931  0.016064665         3826 
  441000   0.57040663   -7.5972482    86.712526  0.016385587  0.016012577         3846 
  442000    0.5633384   -7.6060953    86.534018   0.01631486  0.015960576         3868 
  443000   0.56682575   -7.6003074    86.552179  0.016281448  0.015908608         3854 
  444000   0.56673966   -7.6019291    86.406485  0.016217433   0.01585686         3880 
  445000   0.56154654    -7.605678    86.595461  0.016216379    0.0158053         3858 
  446000   0.55360994   -7.6162616    86.590947  0.016179175  0.015753846         3869 
  447000   0.55697879   -7.6071019    86.440623  0.016114956  0.015702587         3885 
  448000   0.55501248   -7.6235764    86.362759  0.016064501   0.01565145         3854 
  449000   0.55599043   -7.6148058    86.456501  0.016046121  0.015600579         3886 
  450000    0.5380053    -7.622539    86.450689  0.016009387  0.015549914         3898 
  451000   0.55338067   -7.6276027     86.46808  0.015977103  0.015499452         3878 
  452000   0.54395725   -7.6406956    86.420813  0.015933041  0.015449177         3897 
  453000   0.53575994   -7.6480461    86.530479  0.015918042  0.015399142         3891 
  454000   0.54645204   -7.6625909    86.555116  0.015887503  0.015349317         3870 
  455000   0.54059257   -7.6539984      86.4316  0.015829963  0.015299671         3904 
  456000   0.53965905   -7.6506775     86.45606  0.015799719  0.015250157         3920 
  457000   0.55094603   -7.6643759    86.312037  0.015738884  0.015200802         3915 
  458000   0.52341245   -7.7002467    86.429953  0.015725974  0.015151631         3916 
  459000   0.54638311   -7.6838516    86.467377  0.015698507  0.015102569         3908 
  460000    0.5390528    -7.695984    86.385056  0.015649467  0.015053658         3916 
  461000   0.52798244   -7.6839163     86.38883  0.015616202  0.015004969         3915 
  462000   0.53684987   -7.6879506    86.448033   0.01559308  0.014956452         3915 
  463000   0.51503031   -7.6956762    86.388433  0.015548674  0.014908167         3910 
  464000   0.51799026   -7.6885374    86.309322  0.015500956  0.014860016         3914 
  465000   0.53816747    -7.710809    86.302744  0.015466442  0.014812048         3917 
  466000   0.52606405   -7.7066248     86.31259  0.015435012  0.014764167         3910 
  467000   0.53272205   -7.7196006    86.309664  0.015401439  0.014716509         3910 
  468000   0.51878794   -7.7032199    86.360302  0.015377547  0.014668997         3918 
  469000    0.5144761   -7.7115492    86.213925   0.01531875   0.01462162         3906 
  470000    0.5155309   -7.7206277    86.316832  0.015304403  0.014574436         3899 
  471000   0.52150692   -7.7340935    86.262099  0.015262226  0.014527383         3881 
  472000   0.52052142   -7.7378681    86.211601  0.015220975  0.014480553         3908 
  473000   0.52041286    -7.719494    86.289886  0.015202587  0.014433855         3927 
  474000   0.50395291   -7.7385995    86.322655  0.015176275  0.014387358         3934 
  475000   0.51056337   -7.7311521    86.305378  0.015141294  0.014341015         3936 
  476000   0.49807592   -7.7262629    86.092494  0.015072215  0.014294835         3928 
  477000   0.49813916   -7.7357952    86.192309  0.015058055  0.014248858         3927 
  478000   0.51058406   -7.7412818     86.22033  0.015031438  0.014203027         3931 
  479000   0.49932686   -7.7359088    86.049634  0.014970361  0.014157384         3936 
  480000   0.48883931   -7.7404529    86.143647  0.014955494  0.014111946         3926 
  481000    0.4989419   -7.7538694    86.140341  0.014923829  0.014066685         3933 
  482000    0.4968785   -7.7479088    86.138277   0.01489251  0.014021557         3939 
  483000   0.49455182   -7.7466809    85.993358  0.014836673  0.013976587         3929 
  484000   0.49443003   -7.7662234    86.174011  0.014837123  0.013931794         3927 
  485000   0.48394271   -7.7449816    86.114239  0.014796261  0.013887236         3927 
  486000   0.50172224   -7.7781163    86.002129  0.014746593  0.013842821         3932 
  487000   0.48644873   -7.7568396    86.102506  0.014733488  0.013798575         3925 
  488000   0.48289177   -7.7554569     86.05046  0.014694409  0.013754502         3931 
  489000   0.50050107   -7.7719245    85.994626  0.014654844  0.013710636         3936 
  490000   0.49327045    -7.761712    86.092108  0.014641515  0.013666917         3926 
  491000   0.48417331   -7.7715916    86.101694  0.014613322  0.013623398         3931 
  492000   0.47474805   -7.7728531    86.005512  0.014567329   0.01358003         3933 
  493000   0.49679423   -7.7843625    85.993583  0.014535765  0.013536872         3927 
  494000   0.48127636   -7.7662518    86.045509  0.014515099  0.013493819         3938 
  495000   0.46563862   -7.7789056    86.022832  0.014481958   0.01345099         3932 
  496000   0.46943965   -7.7911527    85.890222  0.014430481  0.013408334         3928 
  497000    0.4756205   -7.7889114    86.010704  0.014421647    0.0133658         3933 
  498000   0.47612054   -7.7854426    85.905022  0.014375004  0.013323452         3921 
  499000   0.46394459     -7.78571    85.907952  0.014346685  0.013281234         3939 
  500000   0.46882919   -7.7838217     85.96027  0.014326712  0.013239253         3935 
  501000   0.46643411   -7.7883501    85.843824  0.014278747  0.013197429         3927 
  502000   0.46541527    -7.788497    85.968165  0.014270944  0.013155746         3923 
  503000   0.46484493   -7.7926852    85.908055  0.014232614  0.013114233         3936 
  504000   0.45443467   -7.7924078    85.953978  0.014211967  0.013072858         3934 
  505000   0.46430428   -7.7984879    85.909364  0.014176463  0.013031613         3936 
  506000   0.46091179   -7.7951999    85.920303  0.014150248  0.012990537         3939 
  507000     0.466747    -7.806882     85.85173  0.014111067  0.012949619         3927 
  508000   0.45042732   -7.7841428     85.81684  0.014077566  0.012908902         3936 
  509000   0.45384086   -7.7941802    85.848666  0.014055119  0.012868315         3935 
  510000   0.45725617   -7.8037915    85.865279  0.014030274  0.012827908         3929 
  511000   0.46142453    -7.793865    85.803581  0.013992756  0.012787638         3918 
  512000   0.44711848   -7.8038747    85.896744   0.01398059  0.012747532         3936 
Loop time of 1059.84 on 48 procs for 500000 steps with 4000 atoms

Performance: 81521.877 tau/day, 471.770 timesteps/s
99.4% CPU use with 48 MPI tasks x no OpenMP threads

MPI task timing breakdown:
Section |  min time  |  avg time  |  max time  |%varavg| %total
---------------------------------------------------------------
Pair    | 62.66      | 68.741     | 75.796     |  33.4 |  6.49
Neigh   | 6.6189     | 6.769      | 6.8593     |   2.0 |  0.64
Comm    | 58.287     | 63.474     | 68.384     |  34.3 |  5.99
Output  | 0.90196    | 0.90247    | 0.91193    |   0.1 |  0.09
Modify  | 903.59     | 907.57     | 912.15     |   8.2 | 85.63
Other   |            | 12.39      |            |       |  1.17

Nlocal:        83.3333 ave          89 max          78 min
Histogram: 3 4 5 7 7 6 4 8 1 3
Nghost:        1763.04 ave        1776 max        1753 min
Histogram: 3 4 3 13 9 5 6 2 0 3
Neighs:        10726.4 ave       11492 max        9992 min
Histogram: 3 6 2 7 6 6 8 5 1 4
FullNghs:      21452.8 ave       23151 max       20010 min
Histogram: 2 4 4 12 5 6 9 2 3 1

Total # of neighbors = 1029732
Ave neighs/atom = 257.43300
Neighbor list builds = 27030
Dangerous builds = 0

#clear
#
#next RN
#
#jump SELF
Total wall time: 0:17:42
