
units lj                  # Use reduced LJ style units
atom_style atomic         # Uncharged point particles
atom_modify map hash      # Needed for indexing of clusters etc
                          # Used to be able to find where atoms are in relation to each other.

lattice fcc 1.0 spacing 1 1 1
Lattice spacing in x,y,z = 1.5874011 1.5874011 1.5874011
region box block 0 10 0 10 0 10 units lattice
create_box 2 box
Created orthogonal box = (0.0000000 0.0000000 0.0000000) to (15.874011 15.874011 15.874011)
  3 by 4 by 4 MPI processor grid
create_atoms 1 box
Created 4000 atoms
  using lattice units in orthogonal box = (0.0000000 0.0000000 0.0000000) to (15.874011 15.874011 15.874011)
  create_atoms CPU = 0.003 seconds
set type 1 type/fraction 2 0.79 78393
Setting atom values ...
  3145 settings made for type/fraction
mass 1 1.0
mass 2 1.0
pair_style lj/cut  3.5
pair_modify tail  yes
pair_coeff 1  1  1.0  1.0   # Intearaction between 1 and 1 set with epsilon = 1 and sigma = 1
pair_coeff 1  2  1.5  0.8
pair_coeff 2  2  0.5  0.88

write_data data.0
System init for write_data ...
Neighbor list info ...
  update every 1 steps, delay 10 steps, check yes
  max neighbors/atom: 2000, page size: 100000
  master list distance cutoff = 3.8
  ghost atom cutoff = 3.8
  binsize = 1.9, bins = 9 9 9
  1 neighbor lists, perpetual/occasional/extra = 1 0 0
  (1) pair lj/cut, perpetual
      attributes: half, newton on
      pair build: half/bin/atomonly/newton
      stencil: half/bin/3d
      bin: standard
WARNING: Not all mixed pair coeffs generated from mixing. Use write_data with 'pair ij' option to store all pair coeffs. (../write_data.cpp:312)


#############################
#   M E L T   S Y S T E M   #
#############################

velocity all create 2.4 9622624 mom yes dist gaussian # Assign velocities
                                                    # Temperature 2.4, random number seed, zero linear momentum
                                                                                # Gaussian distribution

timestep 0.002   # simulation timestep
thermo 1000       # output thermodynamic data every 1000 steps bf 100

# Define a fix  in this case with index 1 applied to all
# particles in the simulation. This fix is for simulations
# in the anisotropic NPT ensemble. Note that we use the MTK
# correction.
fix 1 all npt temp 2.4 2.4 0.1 iso 5.68 5.68 0.5 mtk yes tchain 5 pchain 5 # Use NPT ensemble
                                                                         # Set temperature and pressure and damping
                                                                         # Numbers of thermostats in chain and in barostat
run 10000          # run for 10000 steps
Per MPI rank memory allocation (min/avg/max) = 3.642 | 3.644 | 3.648 Mbytes
Step Temp E_pair E_mol TotEng Press Volume 
       0          2.4   -3.7530074            0  -0.15390738    -3.337815         4000 
    1000    2.4024615   -3.1399309            0   0.46286046    5.7260329    3782.4954 
    2000    2.4109539   -3.0707925            0   0.54473425    5.6607984    3828.5108 
    3000    2.3876832   -3.1660761            0   0.41455336    5.8931752     3748.242 
    4000    2.3958659    -3.196409            0   0.39649142    5.9513644    3710.3069 
    5000    2.4739724   -3.1874542            0   0.52257677    5.3642912    3796.3685 
    6000    2.3748531   -3.1620298            0   0.39935923    5.4651097    3783.8506 
    7000    2.3928578   -3.1501961            0   0.43819322    5.6081005    3793.7448 
    8000     2.361452    -3.192792            0   0.34850052    5.5752949    3745.6928 
    9000    2.4544133   -3.1304228            0   0.55027672    5.7404102    3781.8939 
   10000    2.3490165   -3.1303548            0   0.39228909    5.4996968    3791.6105 
Loop time of 2.59649 on 48 procs for 10000 steps with 4000 atoms

Performance: 665512.727 tau/day, 3851.347 timesteps/s
99.6% CPU use with 48 MPI tasks x no OpenMP threads

MPI task timing breakdown:
Section |  min time  |  avg time  |  max time  |%varavg| %total
---------------------------------------------------------------
Pair    | 1.1594     | 1.2263     | 1.3737     |   3.2 | 47.23
Neigh   | 0.21404    | 0.22244    | 0.25169    |   1.2 |  8.57
Comm    | 0.73359    | 0.87579    | 0.96382    |   4.7 | 33.73
Output  | 0.00024681 | 0.0002529  | 0.00031493 |   0.0 |  0.01
Modify  | 0.21463    | 0.25632    | 0.29584    |   4.6 |  9.87
Other   |            | 0.01536    |            |       |  0.59

Nlocal:        83.3333 ave          91 max          73 min
Histogram: 1 0 0 9 3 12 13 6 3 1
Nghost:        1706.19 ave        1728 max        1681 min
Histogram: 2 5 3 4 9 4 6 4 7 4
Neighs:        10067.4 ave       11131 max        8468 min
Histogram: 1 0 0 3 9 13 9 6 4 3

Total # of neighbors = 483234
Ave neighs/atom = 120.80850
Neighbor list builds = 911
Dangerous builds = 237

# Equilibrate just above the melting temperature to avoid step fn in T

fix 1 all npt temp 1.25 1.25 0.1 iso 5.68 5.68 0.5 mtk yes tchain 5 pchain 5
run 2000
Per MPI rank memory allocation (min/avg/max) = 3.644 | 3.646 | 3.649 Mbytes
Step Temp E_pair E_mol TotEng Press Volume 
   10000    2.3490165   -3.1303548            0   0.39228909    5.4996968    3791.6105 
   11000    1.2326793   -4.6441917            0   -2.7956351    5.9650069    2880.4507 
   12000    1.2168462    -4.629041            0   -2.8042281    5.7702098    2892.8519 
Loop time of 0.64094 on 48 procs for 2000 steps with 4000 atoms

Performance: 539207.823 tau/day, 3120.416 timesteps/s
99.7% CPU use with 48 MPI tasks x no OpenMP threads

MPI task timing breakdown:
Section |  min time  |  avg time  |  max time  |%varavg| %total
---------------------------------------------------------------
Pair    | 0.29808    | 0.31509    | 0.34375    |   1.9 | 49.16
Neigh   | 0.041944   | 0.043574   | 0.048929   |   0.6 |  6.80
Comm    | 0.20055    | 0.23189    | 0.25083    |   2.5 | 36.18
Output  | 5.1747e-05 | 5.3491e-05 | 6.8822e-05 |   0.0 |  0.01
Modify  | 0.040946   | 0.045343   | 0.04864    |   1.0 |  7.07
Other   |            | 0.004993   |            |       |  0.78

Nlocal:        83.3333 ave          91 max          78 min
Histogram: 4 2 6 13 9 4 8 0 0 2
Nghost:        2042.38 ave        2071 max        2015 min
Histogram: 1 5 3 6 7 12 8 3 2 1
Neighs:        13197.3 ave       14634 max       12033 min
Histogram: 3 2 5 15 5 6 6 1 3 2

Total # of neighbors = 633469
Ave neighs/atom = 158.36725
Neighbor list builds = 144
Dangerous builds = 16

#############################
# L I N E A R  Q U E N C H  #
#############################

# Define solid atoms. This closely follows ten Wolde  Ruiz-Montero and Frenkel  Faraday Discuss  1996  104  93-110
# Compute components of the per-atom q6 vector
compute q6 all orientorder/atom degrees 1 6 components 6 nnn NULL cutoff 1.3 # compute the Q6 parameter.
                                                                             # Use all neighbours within 1.3 unit cell.

# get number of connections
compute coord_number all coord/atom orientorder q6 0.5

# An atom is solid if it has 8 or more connections (of a possible 14)
variable is_solid atom c_coord_number>=8
group solid dynamic all var is_solid    # Must be dynamic to update
dynamic group solid defined

# do clustering
compute cluster solid cluster/atom 1.3 # Create a cluster where all atoms within are solid and max 1.3 units from another member

# define chunks one chunk per cluster
compute clus_chunks solid chunk/atom c_cluster nchunk every compress yes  # Says which atoms are in which chunk

# count the size of each chunk
compute size_chunks solid property/chunk clus_chunks count


# Find the maximum entry in the vector of chunk sizes
variable max_n equal max(c_size_chunks)


# Thermo style which includes this variable
# thermo_style custom step temp pe vol v_max_n

thermo ${N}  # Print the thermo information every 100 steps
thermo 1000  

# Reset the npt fix at a lower temperature (below freezing)
fix 1  all npt temp  ${temp} ${temp}  0.1  iso  5.68  5.68  0.5  mtk yes tchain  5  pchain  5
fix 1  all npt temp  0.45 ${temp}  0.1  iso  5.68  5.68  0.5  mtk yes tchain  5  pchain  5
fix 1  all npt temp  0.45 0.45  0.1  iso  5.68  5.68  0.5  mtk yes tchain  5  pchain  5

dump dmp2 all dcd ${N} traj.dcd
dump dmp2 all dcd 1000 traj.dcd


compute msd all msd com yes
variable twopoint equal c_msd[4]/6/(step*dt+1.0e-6)
fix 9 all vector 10 c_msd[4]
variable fit equal slope(f_9)/6/(10*dt)
thermo_style custom step temp pe c_msd[4] v_twopoint v_fit v_max_n

fix 1 all npt temp 1.25 ${temp} 0.1 iso 5.68 5.68 0.5 mtk yes tchain 5 pchain 5
fix 1 all npt temp 1.25 0.45 0.1 iso 5.68 5.68 0.5 mtk yes tchain 5 pchain 5
run 5000000 # 5000000  # Run for this many steps
Neighbor list info ...
  update every 1 steps, delay 10 steps, check yes
  max neighbors/atom: 2000, page size: 100000
  master list distance cutoff = 3.8
  ghost atom cutoff = 3.8
  binsize = 1.9, bins = 8 8 8
  4 neighbor lists, perpetual/occasional/extra = 1 3 0
  (1) pair lj/cut, perpetual
      attributes: half, newton on
      pair build: half/bin/atomonly/newton
      stencil: half/bin/3d
      bin: standard
  (2) compute orientorder/atom, occasional
      attributes: full, newton on
      pair build: full/bin/atomonly
      stencil: full/bin/3d
      bin: standard
  (3) compute coord/atom, occasional
      attributes: full, newton on
      pair build: full/bin/atomonly
      stencil: full/bin/3d
      bin: standard
  (4) compute cluster/atom, occasional
      attributes: full, newton on
      pair build: full/bin/atomonly
      stencil: full/bin/3d
      bin: standard
Per MPI rank memory allocation (min/avg/max) = 9.835 | 9.841 | 9.847 Mbytes
Step Temp PotEng c_msd[4] v_twopoint v_fit v_max_n 
   12000    1.2168462    -4.629041            0            0 8.3333333e+20            2 
   13000    1.2156799    -4.683687   0.76844813 0.0049259494  0.064022185            2 
   14000    1.2509225   -4.6814932    1.5904827 0.0094671589  0.066230559            2 
   15000    1.2502314   -4.6821242    2.4448856  0.013582698  0.068205691            2 
   16000    1.2728351   -4.6444715    3.2396592  0.016873224  0.068958522            1 
   17000     1.238469   -4.6372557    4.0761032  0.019980897  0.068771352            3 
   18000    1.2491066     -4.69075    4.8748809  0.022568893  0.068750777            4 
   19000    1.2702621   -4.6258122    5.7347354  0.025152348  0.068925126            3 
   20000    1.2413121   -4.6830714    6.5007671  0.027086529  0.068660826            3 
   21000    1.2806407   -4.6522351    7.3626419  0.029216832  0.068562776            2 
   22000    1.2527912   -4.6466022    8.2978749  0.031431344  0.068778691            5 
   23000     1.243859   -4.6620169    9.2013577  0.033338252  0.069199809            3 
   24000    1.2374566   -4.6852958    9.8451302  0.034184479  0.069256161            2 
   25000    1.2417269   -4.6703718    10.591766  0.035305887  0.069009886            3 
   26000    1.2338155   -4.7089914    11.399182   0.03653584  0.068644065            2 
   27000    1.2562784   -4.6469151    12.236007  0.037765454  0.068457448            2 
   28000    1.2670934   -4.7013762    13.087475  0.038950819  0.068386551            2 
   29000    1.2593528   -4.6684067    13.933866  0.040039844  0.068396179            2 
   30000    1.2264559   -4.6485212    14.974876  0.041596878  0.068490183            1 
   31000    1.2282117   -4.6699835    15.773983  0.042403178  0.068720737            2 
   32000    1.2373716   -4.6693363    16.680565   0.04343897  0.068876088            1 
   33000    1.2175321    -4.665458    17.391133  0.043917001    0.0690168            3 
   34000    1.2213782   -4.6505714      18.2903  0.044829165  0.069053579            1 
   35000    1.2276415   -4.6850463     18.94345  0.045103453  0.069030285            2 
   36000    1.2365082   -4.6417361    19.576059   0.04531495  0.068924843            5 
   37000    1.2339655   -4.6828053    20.120711  0.045316917  0.068679478            5 
   38000     1.275208   -4.6677239    20.828999  0.045677628  0.068370908            3 
   39000    1.2347121    -4.717093    21.451771  0.045837116  0.067966431            3 
   40000    1.2410086   -4.6672079    22.426671   0.04672223  0.067668818            3 
   41000    1.2494704   -4.6649699    23.254148  0.047264528  0.067431538            2 
   42000    1.2573075   -4.6815905    23.961626  0.047542908  0.067241289            1 
   43000    1.2768139   -4.6760144    24.820275  0.048101308  0.067062296            1 
   44000    1.2458382   -4.6522967    25.475476  0.048249006  0.066918333            3 
   45000    1.2593158   -4.6225351    26.522326  0.049115418  0.066801876            2 
   46000    1.2453291   -4.6545944    27.147568  0.049180376   0.06671275            2 
   47000    1.2325644   -4.6639047    27.968458  0.049589463   0.06663991            4 
   48000    1.2486394   -4.7030147    28.998128  0.050343971  0.066610975            2 
   49000    1.2645455   -4.7436259    29.795418  0.050672479  0.066655565            1 
   50000    1.2552399   -4.7090789     30.59995  0.050999917  0.066668215            1 
   51000    1.2415384   -4.6708551    31.379401   0.05127353  0.066659558            1 
   52000    1.2224536   -4.7152448    32.026463   0.05132446  0.066626014            2 
   53000    1.2595989   -4.6967611    32.742066  0.051481235  0.066585554            1 
   54000    1.2539579   -4.6801168    33.834723  0.052214079  0.066561811            2 
   55000     1.271777   -4.6615559    34.517847  0.052299768  0.066551501            1 
   56000    1.2467559   -4.6872131    35.219383  0.052409795  0.066543118            2 
   57000    1.2120073   -4.6855837    35.952728  0.052562468  0.066494821            2 
   58000    1.2464204   -4.6763294    36.674474  0.052693209  0.066444591            2 
   59000    1.2635243   -4.6562871    37.521793  0.052996883  0.066384484            3 
   60000    1.2621953   -4.6699728     38.36366   0.05328286  0.066337599            3 
   61000    1.2260894   -4.7084424    39.163971  0.053502692   0.06631463            3 
   62000    1.2541183   -4.7195952    40.121019    0.0539261  0.066326402            3 
   63000    1.2501257   -4.7044827    40.992279  0.054222591  0.066347096            2 
   64000     1.237255   -4.6818123    41.799178  0.054426013  0.066380775            2 
   65000    1.2279675   -4.6931752    42.573832  0.054581835  0.066416989            2 
   66000    1.2495545    -4.651776    43.273849  0.054638698  0.066426676            1 
   67000    1.2455475   -4.6535756    44.112437  0.054866214  0.066415399            4 
   68000    1.2840939   -4.6854964    44.837076  0.054947396  0.066418809            2 
   69000    1.2710413    -4.696377     45.69879  0.055191775  0.066427953            3 
   70000    1.2629045   -4.7032776    45.995288  0.054756295  0.066419348            4 
   71000    1.2520899   -4.7022195     46.96042  0.055117863  0.066380385            3 
   72000    1.2464492   -4.6456601    48.028194  0.055588187  0.066352835            1 
   73000    1.2509587   -4.7097795    48.622615  0.055505268  0.066346155            1 
   74000    1.2306804   -4.6861349    49.591524   0.05584631  0.066344266            4 
   75000    1.2506719   -4.6678613    50.658812  0.056287568  0.066354848            2 
   76000    1.2718865   -4.6595873    51.567783  0.056543621  0.066383409            1 
   77000    1.2024527   -4.7009965    52.288657  0.056589455  0.066409713            2 
   78000    1.2370404   -4.6321787    53.253679  0.056894956  0.066414868            1 
   79000    1.2518019   -4.6700002    53.941924  0.056900763  0.066438405            2 
   80000    1.2425902   -4.6758584    54.823812  0.057108137  0.066468484            2 
   81000    1.2501388   -4.6984579    55.239877  0.056831149  0.066491123            2 
   82000    1.2215796   -4.6937132    56.187219  0.057100832  0.066509545            2 
   83000    1.2429576   -4.6914715    57.342855  0.057573147    0.0665126            2 
   84000    1.2531348   -4.6742966    57.964306  0.057504271  0.066518436            1 
   85000    1.2510641   -4.7079004    58.586692  0.057437933  0.066530952            1 
   86000    1.2281599   -4.6447796    59.392109  0.057550493  0.066538669            2 
   87000    1.2119672   -4.6866921     60.35857  0.057814721   0.06655282            3 
   88000    1.2491044   -4.6812125    60.787018  0.057563463   0.06656917            6 
   89000    1.2566899   -4.6964114    61.943955  0.057999958  0.066579189            1 
   90000    1.2375069   -4.7150382    62.208109  0.057600101   0.06658223            1 
   91000     1.244925   -4.6526854    62.818561  0.057526154   0.06655993            3 
   92000    1.2611667   -4.6735084    63.532205  0.057547287  0.066513123            2 
   93000    1.2267637   -4.7200143    64.057292  0.057399007   0.06646117            5 
   94000    1.2094431   -4.6710737     65.42628  0.058002021  0.066427142            2 
   95000    1.2144906    -4.698579    65.704789  0.057635779  0.066402023            3 
   96000    1.2212907   -4.6850393    66.669544  0.057872868  0.066365282            5 
   97000    1.2526181   -4.7044127    67.462622  0.057957579  0.066336881            1 
   98000     1.248937   -4.6661084    68.678082  0.058399729  0.066323518            2 
   99000    1.2484018   -4.6723531    69.261771  0.058301153  0.066310345            4 
  100000    1.2380146    -4.717511    69.634805  0.058029004  0.066287057            3 
  101000    1.2386132   -4.6921617    70.538246  0.058199873   0.06625561            2 
  102000    1.2142593   -4.7162831    71.158411  0.058135957  0.066221048            2 
  103000    1.2192941   -4.7041012    71.813038  0.058101163  0.066188531            2 
  104000    1.2554833   -4.7019553    72.876459  0.058394598  0.066154058            2 
  105000    1.2319299   -4.7030775    73.638066  0.058442909  0.066118264            2 
  106000    1.2009386   -4.7198273    74.230992  0.058357698  0.066089237            2 
  107000    1.2471204   -4.7274831    74.884344   0.05832114  0.066058676            1 
  108000    1.2439252   -4.6483986    76.293983  0.058868814  0.066034803            3 
  109000    1.2391361   -4.7233205    77.057627  0.058912558  0.066024434            2 
  110000     1.232789   -4.6577512    77.652467  0.058827626  0.066012199            1 
  111000    1.2444357   -4.7035717    78.282383  0.058770558  0.065999143            6 
  112000    1.2191564   -4.6703174    79.106539  0.058859032  0.065971109            1 
  113000    1.2139018   -4.7166914    79.674878  0.058757284  0.065935045            1 
  114000    1.2443928   -4.6921929    80.314616  0.058709514  0.065893349            6 
  115000    1.2474791   -4.7189797    80.657014  0.058447111  0.065856783            1 
  116000    1.2562488    -4.689757     81.46626  0.058524612  0.065815231            2 
  117000    1.2470247   -4.7231193    82.684641  0.058892195  0.065775748            2 
  118000    1.2162826   -4.7102222    82.832687   0.05849766  0.065735054            1 
  119000    1.2484941   -4.6888498    84.270637  0.059013051  0.065699586            3 
  120000    1.2496769   -4.6767574    85.288617  0.059228206  0.065666077            1 
  121000    1.2246242   -4.6910375    85.669452     0.059001  0.065632503            2 
  122000    1.2280986   -4.6959021    86.496229  0.059082123  0.065603061            1 
  123000    1.2419264    -4.691592    87.216921  0.059090055  0.065567557            6 
  124000    1.2189661   -4.7021949    87.995632  0.059136849  0.065542295            2 
  125000    1.2398765   -4.6779815    89.088351  0.059392234  0.065522397            1 
  126000    1.2591211   -4.6862035     89.37685  0.059111673  0.065499205            2 
  127000    1.2262708   -4.6935546    90.579056  0.059435076  0.065478558            2 
  128000    1.2413159   -4.6994288    91.365045  0.059482451  0.065463654            1 
  129000    1.2483963   -4.7410586    92.014877  0.059441134  0.065447385            4 
  130000    1.2527102   -4.7198479    92.677697   0.05940878  0.065432284            1 
  131000    1.2274691    -4.706027    93.979402  0.059783334   0.06541586            2 
  132000    1.2470934   -4.6976773    94.865664  0.059889939  0.065409038            1 
  133000    1.2417883   -4.7050733    95.273842   0.05969539   0.06540642            3 
  134000    1.2439149   -4.7325827    96.170191  0.059807332  0.065402767            1 
  135000    1.2343523   -4.7116115    96.868776  0.059795541  0.065395701            4 
  136000    1.2568885   -4.7565168    97.365484  0.059660223  0.065380651            3 
  137000    1.2140487   -4.6790623    98.475371  0.059899861  0.065366798            2 
  138000    1.2395621   -4.7307043     98.67715   0.05958765  0.065355863            1 
  139000     1.207156   -4.7030982    99.971858  0.059935167  0.065338541            1 
  140000    1.2269627   -4.7028306    100.79314  0.059995919  0.065326704            2 
  141000    1.2327065   -4.6893649    101.69243  0.060101906  0.065316461            3 
  142000    1.2529631   -4.7219227    102.24767  0.060004504  0.065309698            3 
  143000    1.2477142   -4.6570478    103.20309  0.060141663  0.065309465            2 
  144000    1.2178622   -4.7113234    103.66559  0.059991659  0.065298127            2 
  145000    1.2210148   -4.7256586     104.8928  0.060283221  0.065301057            1 
  146000    1.2201901   -4.6934519    105.69651  0.060329057  0.065300934            2 
  147000    1.2412535   -4.7012038      106.304  0.060263038    0.0653006            3 
  148000    1.2352849   -4.6742736    106.85004  0.060163312  0.065295187            2 
  149000    1.2106608   -4.7047454    108.66887  0.060776772  0.065293705            2 
  150000    1.2069589   -4.6725541    108.99852  0.060554735  0.065293508            5 
  151000    1.2028461   -4.6933877    110.00772  0.060710664  0.065291523            3 
  152000    1.1994837   -4.7295096    109.97717    0.0602945  0.065288805            4 
  153000    1.2255026    -4.712309    110.97069   0.06044155  0.065281155            2 
  154000    1.2372953   -4.7000042    112.11182  0.060666571   0.06527953            4 
  155000    1.2187384   -4.7474435    112.15174  0.060296634  0.065271106            2 
  156000    1.2232058    -4.686835    113.56833  0.060666845   0.06525976            2 
  157000    1.2034682   -4.6926878    114.12876  0.060577899  0.065247889            1 
  158000    1.2436422   -4.7218501    113.87255  0.060059362  0.065227179            3 
  159000    1.2643003   -4.7190861    114.82306  0.060179801  0.065205378            2 
  160000    1.2178203   -4.7252243    115.75317  0.060288108  0.065184926            3 
  161000    1.2134808   -4.7256734    116.58327  0.060343307  0.065162835            2 
  162000    1.2385037   -4.7096161    117.21439  0.060295468  0.065143073            2 
  163000    1.2099156   -4.6978054    117.54652  0.060095357  0.065121628            3 
  164000    1.2529562   -4.7280102    118.40148  0.060163354  0.065101316            1 
  165000    1.2324189   -4.7011768     119.0588  0.060130705  0.065077868            1 
  166000     1.222962   -4.7351253    120.03782  0.060259951  0.065062318            3 
  167000     1.220023   -4.7011867    121.01744  0.060387942  0.065045687            2 
  168000    1.2118276   -4.7169845    121.38137  0.060209013   0.06502779            4 
  169000     1.235657   -4.6816734       122.91  0.060606507  0.065012143            1 
  170000    1.2156425   -4.6958876    123.63042  0.060603145  0.064995964            2 
  171000    1.2383716   -4.6877052    124.44619   0.06064629  0.064986816            1 
  172000    1.2348767   -4.6543086    125.99881  0.061045934  0.064982733            1 
  173000    1.2275842   -4.7150375    125.80517  0.060599791  0.064976329            4 
  174000    1.2152721   -4.7136769    126.73813  0.060698339  0.064967047            1 
  175000     1.220667   -4.7242203    126.53832  0.060256342  0.064958152            6 
  176000    1.2242247   -4.7127589    127.54932  0.060392669   0.06493774            3 
  177000    1.2166916   -4.6862307    128.29989  0.060404846  0.064914817            1 
  178000    1.2205992   -4.7183465    128.97936  0.060383597  0.064894627            2 
  179000    1.2185579   -4.7092888    129.51197  0.060294215  0.064869334            2 
  180000    1.2335859   -4.7078763      130.072  0.060218518  0.064837351            3 
  181000    1.2135912   -4.7380492    130.54065  0.060101587  0.064809261            2 
  182000    1.2213182   -4.6912907    131.51131    0.0602158  0.064783003            7 
  183000    1.2084872   -4.7316535    132.09462  0.060152375  0.064755281            2 
  184000    1.2594434   -4.6873845    133.63404  0.060522665  0.064740511            1 
  185000    1.2205635   -4.7243152    134.15018   0.06042801   0.06472066            3 
  186000    1.2349336   -4.7170771    134.81873  0.060402658  0.064698427            3 
  187000    1.2239324   -4.7367656    135.32293  0.060304335  0.064674292            2 
  188000    1.2160096   -4.7013699    136.01742   0.06029141  0.064648581            4 
  189000    1.2395498    -4.722404    137.13779  0.060466396  0.064622288            2 
  190000    1.1973197   -4.7245694    137.26756  0.060205071  0.064599199            3 
  191000      1.23947   -4.7371879    138.85353  0.060581818  0.064572215            4 
  192000     1.235669   -4.7197078    138.80034  0.060243203  0.064549325            2 
  193000    1.2124088   -4.6891162    139.33231  0.060160754  0.064521744            1 
  194000    1.2099842   -4.7024555    140.16072  0.060206494  0.064496151            1 
  195000    1.2045987   -4.7132801    140.73517  0.060143233  0.064463895            2 
  196000    1.2311326    -4.702697    141.97959  0.060365472  0.064431714            1 
  197000    1.2272822   -4.7462544    141.71657  0.059947789  0.064397173            1 
  198000    1.2172738   -4.6807563    142.65123  0.060038398  0.064361595            4 
  199000    1.2271767   -4.6820962    144.15641  0.060367005   0.06432961            2 
  200000    1.2124133   -4.7145596    144.06036  0.060025151  0.064297455            3 
  201000    1.2082616   -4.7449751    144.15201  0.059764513  0.064261446            2 
  202000    1.2108507     -4.69945    145.69372   0.06010467  0.064225575            1 
  203000    1.2299559   -4.6881682    146.40805  0.060101826  0.064194275            5 
  204000    1.2096131   -4.6864326    147.42768  0.060223725  0.064163962            2 
  205000    1.1907708   -4.7443352    147.35661  0.059901062  0.064134481            2 
  206000    1.2092035   -4.6763424    148.67645  0.060144194  0.064100609            2 
  207000    1.2328357   -4.6999084    149.14745  0.060043257  0.064066026            2 
  208000    1.1883081   -4.6868189     150.4015  0.060257011  0.064037533            3 
  209000    1.2268914    -4.710471     150.5837  0.060041349  0.064006669            1 
  210000    1.2138624   -4.7195521    151.74654  0.060216882  0.063975121            3 
  211000    1.2276328   -4.7237175    151.89602  0.059990531  0.063945438            2 
  212000    1.2308089   -4.6716821    153.56467   0.06036347  0.063916801            1 
  213000    1.2168774   -4.7578636     153.2809  0.059969054  0.063895189            1 
  214000    1.1982613   -4.7273441    154.74775  0.060260025  0.063873318            1 
  215000     1.237301    -4.742429     155.0084  0.060080775  0.063849695            3 
  216000    1.2275869   -4.7506474    155.54979  0.060011493  0.063820128            3 
  217000    1.1869764   -4.7130523    156.51653  0.060106192  0.063793938            2 
  218000    1.2257414   -4.7135607    157.38703  0.060163239   0.06376836            2 
  219000     1.225453   -4.7610396    157.74239  0.060023742  0.063742923            3 
  220000    1.2485189   -4.7134537    158.19988  0.059924196  0.063713338            2 
  221000    1.1971364   -4.7395635    158.73575  0.059855108  0.063681674            3 
  222000    1.2041285   -4.7181483    159.85193  0.060004478  0.063651432            3 
  223000    1.1991829   -4.7142172    160.72165  0.060060407   0.06362253            4 
  224000    1.2296255   -4.7344402     161.7833   0.06018724  0.063594991            2 
  225000    1.2210312   -4.7113469    161.37145  0.059767204  0.063563827            3 
  226000    1.2170577   -4.7285595    163.37992  0.060243334  0.063536457            2 
  227000    1.2303817   -4.7515378    163.34751  0.059966044  0.063511446            3 
  228000    1.1804205   -4.7157965    164.78472  0.060228335  0.063487605            5 
  229000    1.2214898   -4.7048705    166.01465  0.060412899  0.063468644            3 
  230000    1.2118456   -4.7203645    166.43881  0.060303916  0.063450227            1 
  231000    1.1865203   -4.7492605    166.57046  0.060090352  0.063434381            4 
  232000    1.2101312   -4.7546896    167.81691  0.060279064  0.063417075            3 
  233000     1.192678   -4.7246938    168.99305  0.060441004  0.063401972            1 
  234000    1.2223699   -4.7293735    169.61474   0.06040411  0.063386521            3 
  235000     1.192274   -4.7293786    169.78019  0.060205742  0.063371174            3 
  236000     1.226333   -4.6939351    172.45174  0.060893976  0.063359507            3 
  237000    1.2092721   -4.7118158    172.72114  0.060731767   0.06335173            4 
  238000    1.2002055    -4.757476    173.20086  0.060644559  0.063346447            2 
  239000    1.2035855   -4.7771593    173.78475  0.060594405  0.063339376            3 
  240000    1.2278012   -4.7514306    173.69156  0.060309568  0.063329471            3 
  241000    1.2145019   -4.7064589    175.33663  0.060628155  0.063319362            3 
  242000    1.2043315   -4.7156723    176.32373  0.060717537  0.063310516            2 
  243000     1.197629   -4.7161567    177.00224  0.060700356  0.063301163            4 
  244000     1.219328   -4.6877091     179.1511  0.061185485  0.063296688            4 
  245000    1.2259024   -4.7511555    178.15844  0.060598109   0.06329103            1 
  246000    1.2097615   -4.7682161    178.38767  0.060429428  0.063277157            2 
  247000    1.2017509   -4.7314855    179.64324  0.060608381  0.063271414            1 
  248000    1.2317154   -4.7697433    180.36432  0.060606291  0.063266483            3 
  249000    1.1895681    -4.732593       181.92  0.060883534  0.063262865            2 
  250000    1.2244421   -4.7061824    182.59259  0.060864196  0.063258266            1 
  251000    1.2046883   -4.7391502    182.80186  0.060691189  0.063252874            2 
  252000    1.2205184   -4.7196154    183.26977  0.060605082  0.063243444            2 
  253000      1.21025   -4.7335972    184.48273  0.060765063  0.063232932            3 
  254000     1.197924   -4.7525323    184.30038  0.060466005  0.063224234            2 
  255000    1.2120313   -4.7189272    185.35074  0.060572137  0.063216059            6 
  256000    1.2281305    -4.742026     185.6087  0.060419497  0.063205057            4 
  257000    1.2115472   -4.7527621    186.48156  0.060467432  0.063195042            5 
  258000    1.1965979   -4.7369946    187.11872  0.060438864  0.063182901            4 
  259000    1.1956905   -4.7242427    188.31427  0.060590177  0.063169528            2 
  260000    1.1855047   -4.7215016    188.64531  0.060463242   0.06315715            2 
  261000    1.2284575    -4.743947    189.67401  0.060560028  0.063142693            2 
  262000     1.177541    -4.792515    189.79946  0.060368786  0.063128281            2 
  263000    1.2309683   -4.7278182     191.3658  0.060635552  0.063112852            1 
  264000    1.2067441   -4.7648728    191.09635  0.060320817  0.063097638            4 
  265000    1.2279898   -4.7271852     191.8404  0.060327169  0.063079566            2 
  266000    1.2092662   -4.7679364    191.62072  0.060031555  0.063058122            2 
  267000    1.2177804   -4.7214298    193.23709  0.060311203  0.063040373            3 
  268000    1.1895742   -4.6920562    195.14515  0.060679461  0.063024032            2 
  269000    1.2193484   -4.7388324    194.92491  0.060385659  0.063009355            1 
  270000    1.2031384    -4.741914    195.06685  0.060205818  0.062990415            2 
  271000    1.1921178   -4.7066406    196.56132  0.060443212  0.062971725            1 
  272000    1.1904619   -4.7657547    196.56335  0.060221613  0.062955281            5 
  273000    1.2011761   -4.7056535    197.56301  0.060306168  0.062941113            4 
  274000    1.2170891   -4.7313508     198.3076  0.060312531  0.062926439            2 
  275000    1.2012837   -4.7542903    198.75566  0.060228987  0.062911402            3 
  276000    1.2136201   -4.7002151    199.84773  0.060340498   0.06289771            3 
  277000    1.2187756   -4.7123315    201.14477  0.060512867  0.062881584            3 
  278000     1.217015   -4.7599411    200.69507  0.060160393  0.062868563            3 
  279000    1.2029882   -4.7611487    202.92827   0.06061179  0.062855877            2 
  280000    1.2370634   -4.7923478    201.64295  0.060012784  0.062844785            3 
  281000    1.2182992    -4.750517    203.68662  0.060405285  0.062833008            3 
  282000    1.1849449   -4.7324562    204.51799  0.060436758  0.062823116            7 
  283000    1.2014572   -4.7498609    205.68383  0.060566497  0.062811669            2 
  284000    1.2204972   -4.7618483     205.9407   0.06042861  0.062800327            1 
  285000    1.2098664   -4.7355783    207.12351  0.060562431  0.062790592            1 
  286000    1.1887943   -4.7584284    207.30772  0.060404349  0.062776926            2 
  287000    1.2203569   -4.7483669    207.54738  0.060263466  0.062761903            2 
  288000    1.2093679   -4.7013478    207.90316  0.060157166  0.062745911            2 
  289000    1.2187579   -4.7305018    208.41565  0.060096785  0.062728106            2 
  290000    1.1901029   -4.7395344    209.15734  0.060102683  0.062708441            2 
  291000    1.2126369   -4.6995559    209.96815  0.060128335  0.062688175            3 
  292000    1.2374333   -4.7709346    209.26814  0.059722644   0.06266569            2 
  293000    1.2025217   -4.7386751    210.47439  0.059861886  0.062642839            2 
  294000     1.201943   -4.7627241    210.62649  0.059701387  0.062618393            2 
  295000    1.1932842   -4.7870318    211.38567  0.059713467   0.06259231            2 
  296000    1.2140338   -4.7688999    212.55243  0.059840211    0.0625672            1 
  297000    1.2094201     -4.76021    213.87197   0.06000897  0.062543958            1 
  298000    1.1835492   -4.7422048    213.99015  0.059840646  0.062522585            2 
  299000    1.2163299   -4.7685513    214.53478  0.059792301  0.062503746            2 
  300000    1.1911111   -4.7565421      216.208  0.060057779  0.062482727            1 
  301000    1.2050052   -4.7503696    216.52406  0.059945752  0.062463794            3 
  302000    1.1699387   -4.7154969     217.2516  0.059948014  0.062446352            2 
  303000    1.2276442   -4.7729444    217.75858  0.059889598  0.062426159            2 
  304000    1.2093438   -4.7192877    218.04352  0.059770701  0.062405215            2 
  305000    1.1972333    -4.764919    218.97035  0.059827965  0.062386214            2 
  306000    1.1931964   -4.7552439    220.65781  0.060091997  0.062368467            3 
  307000    1.1657102   -4.7509071    220.04193   0.05972908  0.062349086            1 
  308000    1.2098694   -4.7704727    221.54516  0.059941873  0.062329725            2 
  309000    1.2145905   -4.7905953    221.82698   0.05982389  0.062311248            1 
  310000    1.1789408   -4.7638015    221.90555  0.059652029  0.062293796            3 
  311000    1.2177293   -4.7758826    223.00379    0.0597545  0.062276325            2 
  312000    1.2090347   -4.7779083      223.836  0.059785257  0.062258437            2 
  313000     1.193662   -4.7637774    224.87757  0.059871558  0.062242746            4 
  314000    1.2015281   -4.7672989     225.3475  0.059805601  0.062225711            3 
  315000    1.2110518   -4.7514044    226.77145  0.059992447  0.062211671            2 
  316000    1.2317334   -4.7334512    227.61591  0.060025293  0.062195105            2 
  317000     1.219627   -4.7846664    227.69346  0.059856326  0.062177856            2 
  318000    1.1897346   -4.7436283    227.54948  0.059630367  0.062161662            4 
  319000    1.2006055   -4.7600382    229.60224  0.059979686  0.062143981            3 
  320000    1.1976325   -4.7629496    230.38838  0.059996975   0.06212648            1 
  321000    1.2127004   -4.7706929    230.09019  0.059732657  0.062110075            1 
  322000    1.2072527    -4.712888    231.37658  0.059880068  0.062092873            3 
  323000    1.1997223   -4.7446605    231.47034  0.059718871  0.062077265            5 
  324000    1.2028377   -4.7413523    232.83176  0.059884711  0.062060844            1 
  325000    1.1911502   -4.7591726    234.19686  0.060050478  0.062045617            4 
  326000    1.1996709   -4.7360433     234.7988  0.060020144  0.062029608            2 
  327000    1.2095705    -4.688616       235.03  0.059895514   0.06201567            2 
  328000    1.2122286   -4.7489074    236.41876  0.060065741   0.06200313            3 
  329000    1.1883747   -4.7678651    236.57967  0.059923929  0.061988058            2 
  330000    1.2072529   -4.7459532    237.09915  0.059873523  0.061973786            9 
  331000     1.187553   -4.7469377    238.02764  0.059926395  0.061960633            2 
  332000    1.2050884   -4.7533243    238.61806   0.05989409   0.06194589            2 
  333000    1.2013788   -4.7702162     239.8491  0.060022296  0.061933128            2 
  334000    1.1829818   -4.7485739    240.39969  0.059979962  0.061920908            1 
  335000     1.174275   -4.7332129    241.62938  0.060106812  0.061907041            1 
  336000    1.1634899   -4.7204953    242.07567  0.060038608  0.061895764            6 
  337000    1.1905727   -4.7659853    243.45215  0.060200828  0.061887438            2 
  338000     1.214332   -4.7633724     244.0633  0.060173398  0.061878238            3 
  339000    1.2107344   -4.7500916    245.04929  0.060238273  0.061869454            2 
  340000    1.1856914   -4.7842409    245.33534   0.06013121  0.061861051            2 
  341000    1.1513132   -4.7477014    246.28147  0.060186088  0.061852431            2 
  342000     1.193599   -4.7560097    246.92629  0.060167225   0.06184343            1 
  343000    1.1939764   -4.7682611    247.28371  0.060078646  0.061833217            1 
  344000    1.1865357   -4.7549011    247.92973  0.060060497  0.061823382            4 
  345000    1.1955172   -4.7814324     249.0843   0.06016529  0.061812937            3 
  346000    1.1961089   -4.7457297    248.88121  0.059942488  0.061803543            2 
  347000    1.2044384   -4.7454808    251.06892   0.06029513  0.061796027            1 
  348000    1.2086684   -4.7816013    251.09094   0.06012714  0.061787003            3 
  349000    1.1877252   -4.7072329    253.34607  0.060493331  0.061779573            2 
  350000     1.206577   -4.7713253    252.33719  0.060080283  0.061770144            2 
  351000    1.2030095   -4.7703007    252.93053  0.060049983  0.061761545            2 
  352000    1.2050536   -4.7673275    253.60422  0.060038877  0.061748837            6 
  353000    1.2175983   -4.7744195    253.25214  0.059785681  0.061737722            4 
  354000    1.1971068    -4.799906    254.31054  0.059865945  0.061727611            2 
  355000    1.1755545    -4.768846    255.47738  0.059971216  0.061716881            2 
  356000    1.1847464   -4.7771628    257.49736    0.0602756  0.061708278            4 
  357000    1.2004248    -4.790154     257.1694  0.060030206  0.061699505            5 
  358000    1.1978511   -4.7292372    259.35411  0.060371068  0.061690307            1 
  359000    1.1963651   -4.7375519    259.25609  0.060180151  0.061681364            3 
  360000     1.186136   -4.7583355    258.71463  0.059887646  0.061671979            2 
  361000    1.1940053   -4.7478474    260.20329  0.060065395  0.061660749            1 
  362000     1.161824   -4.7594906    260.09232  0.059873922  0.061648322            2 
  363000    1.1883209   -4.7654394    260.91292  0.059897364  0.061635734            2 
  364000    1.1766645   -4.7860865    261.25042  0.059810077  0.061623758            1 
  365000    1.2067601   -4.7775133    262.35207  0.059897732  0.061612226            2 
  366000    1.1676837   -4.7492906    263.33783  0.059958522  0.061599363            4 
  367000    1.1924089   -4.7382928    264.09459  0.059966983  0.061587919            3 
  368000    1.1806524   -4.7791816    264.52704  0.059901957  0.061575241            1 
  369000    1.1927825   -4.7441836    265.90888  0.060051689  0.061561482            3 
  370000    1.2251972   -4.7476544    264.50655  0.059573547  0.061546861            2 
  371000    1.1596283   -4.7675884     266.1724  0.059787151  0.061534954            5 
  372000    1.1979088    -4.778552    267.06561  0.059826526  0.061521406            2 
  373000    1.2168812   -4.7440779    267.82245   0.05983522  0.061509938            4 
  374000    1.1918675   -4.8017842    267.28049  0.059554475  0.061496981            2 
  375000    1.2057491   -4.7591928    269.68691  0.059930424  0.061483568            2 
  376000    1.1588665   -4.7503423     269.6631  0.059765758  0.061472056            2 
  377000    1.1880266   -4.7890644    270.91182  0.059883249  0.061461005            3 
  378000    1.1730581   -4.7811201    272.47052  0.060068458  0.061452209            3 
  379000    1.2027346   -4.7272314    273.87565  0.060218921  0.061444466            2 
  380000    1.1932619   -4.7625156    273.53324  0.059985359  0.061437699            3 
  381000    1.1944738   -4.7723746    275.18028  0.060188162  0.061432025            3 
  382000    1.1725629   -4.7602431    277.06307  0.060441333  0.061426888            4 
  383000    1.1921273   -4.7936526    276.10234  0.060074487  0.061423581            2 
  384000    1.1661187   -4.7417793    278.61696  0.060463749  0.061420442            1 
  385000    1.1824943   -4.7758356    279.27605  0.060449362  0.061418115            3 
  386000    1.1886986    -4.760835    279.29194  0.060296188  0.061416223            2 
  387000    1.1800676   -4.7846726    279.18317  0.060116962  0.061411787            2 
  388000    1.1846646   -4.7828445    279.04713  0.059932802  0.061406918            2 
  389000     1.203011   -4.7700118    280.40574  0.060069781  0.061399311            2 
  390000    1.1959047   -4.7507936    280.79904  0.059999795  0.061391837            2 
  391000    1.2051195   -4.8053682    279.34517  0.059536481  0.061384513            3 
  392000    1.1709487   -4.7445041    282.64107   0.06008526  0.061375825            2 
  393000    1.1895622   -4.7742113    283.13397  0.060036888  0.061368535            1 
  394000    1.1698851   -4.7534457    282.89734  0.059834463  0.061358524            5 
  395000    1.1742087   -4.7426902    283.48427  0.059806809  0.061346657            2 
  396000    1.2215875   -4.7817861    283.01716  0.059557482  0.061333893            2 
  397000    1.1989716   -4.7744469    284.45373  0.059709012   0.06132027            1 
  398000    1.2020497   -4.7779006     285.0348  0.059680654  0.061308595            3 
  399000    1.2147027   -4.7881389    285.34262  0.059595368  0.061296503            2 
  400000    1.2092485   -4.7653418    286.42166  0.059671179  0.061283631            2 
  401000    1.1749822   -4.7735542    287.42571  0.059731028  0.061272382            1 
  402000    1.1840744    -4.744966    288.76455  0.059859981  0.061262371            1 
  403000    1.1852065   -4.7464513    289.15599  0.059792388  0.061250701            3 
  404000    1.1610794   -4.7703136    289.34956  0.059684315  0.061241578            4 
  405000    1.1847655   -4.7956593    290.44898  0.059763164  0.061232586            4 
  406000    1.2227741   -4.7565813    292.10022   0.05995489  0.061223066            1 
  407000    1.1753792   -4.7853698    291.55882  0.059696729  0.061214156            2 
  408000    1.2055822   -4.8081475    290.89451  0.059414727  0.061202497            1 
  409000     1.182312   -4.7991674    292.63219  0.059623511  0.061192346            2 
  410000    1.1718624   -4.8006466    292.36873  0.059424539  0.061181092            2 
  411000    1.1760107   -4.7971613    293.78223  0.059566552  0.061169268            3 
  412000    1.1927284   -4.7818274    295.42008  0.059753252  0.061157246            4 
  413000    1.1789956   -4.8018967    296.79122  0.059885235  0.061147795            4 
  414000     1.181775   -4.7654723    296.04712  0.059590805  0.061138278            2 
  415000    1.1880415   -4.7661697     298.0786  0.059855141  0.061129856            2 
  416000    1.1763099    -4.805933    297.63322  0.059622039  0.061121217            4 
  417000    1.1855325   -4.7928402    298.82822  0.059717869  0.061111742            3 
  418000    1.1871153   -4.7897746    299.61114  0.059731089  0.061102007            3 
  419000    1.2065286    -4.814123    299.26218  0.059519128  0.061091828            2 
  420000    1.1831771   -4.8078388    300.50721  0.059624446   0.06108054            2 
  421000    1.1746369   -4.7944553       300.44  0.059469517  0.061068416            2 
  422000    1.1819881   -4.8217122    301.43906   0.05952588  0.061057082            1 
  423000    1.1991866   -4.7508365    302.29395  0.059553576  0.061045824            3 
  424000    1.1845905    -4.799325    302.37356  0.059428766  0.061034658            2 
  425000    1.1761442   -4.7219202    304.94677  0.059793484  0.061023955            2 
  426000    1.1828633     -4.87335    304.25488  0.059517778  0.061014413            3 
  427000    1.1527124   -4.8335072     304.7104  0.059467292   0.06100272            2 
  428000    1.1892962   -4.7885977    304.89349  0.059363997  0.060990906            1 
  429000    1.1746671   -4.8100934    306.16233  0.059472092   0.06097764            2 
  430000    1.1773558   -4.8385314    305.82504  0.059268418  0.060965914            2 
  431000    1.1851068   -4.7967934    307.30037  0.059416158  0.060954004            3 
  432000    1.1714385   -4.7840047    308.23791  0.059459474   0.06094163            3 
  433000     1.164583   -4.7125677    310.54873  0.059766884  0.060929599            3 
  434000    1.1687918   -4.7568574     310.4427  0.059608813  0.060918812            3 
  435000    1.1767314   -4.7978757    309.78742   0.05934625   0.06090626            1 
  436000    1.1992147    -4.764391    309.99977   0.05925072  0.060893499            2 
  437000    1.2000145   -4.8021353    311.63835  0.059427603  0.060882988            6 
  438000    1.2011315   -4.7905215    312.42694  0.059441959  0.060873237            4 
  439000    1.1959935   -4.7572784    314.22828  0.059648496   0.06086271            1 
  440000    1.1714532    -4.798215    313.00588  0.059281417  0.060850016            3 
  441000     1.168447   -4.7762737    314.42492   0.05941514  0.060836708            1 
  442000    1.1471521   -4.8021979    314.36811  0.059270006  0.060823496            2 
  443000    1.1751856   -4.7841358    315.35431  0.059321729   0.06081052            1 
  444000    1.1733185   -4.7934476    315.37418  0.059191851  0.060795469            3 
  445000    1.2032196   -4.7683776    315.51459   0.05908513  0.060780703            4 
  446000    1.2022031    -4.771456    317.70004  0.059360994  0.060765432            2 
  447000     1.164024   -4.7775266    317.71095  0.059230229  0.060749687            2 
  448000    1.1894697   -4.8145552    317.15386  0.058994393   0.06073373            4 
  449000    1.1950289   -4.7916206    317.56172    0.0589387  0.060719045            3 
  450000    1.1665762   -4.8034849    318.58907  0.058997976  0.060701798            3 
  451000    1.1585393   -4.8334633    318.64204  0.058876947  0.060687908            3 
  452000    1.1891201   -4.7543547    321.59749  0.059291573  0.060675216            3 
  453000    1.1515746   -4.8041776    321.24553  0.059095941  0.060662484            1 
  454000    1.1721157   -4.8063695    322.28729  0.059156992   0.06064816            2 
  455000    1.1676661   -4.8128983    322.48105  0.059062464  0.060632136            1 
  456000    1.1623104   -4.7625976    323.32138   0.05908651   0.06061894            4 
  457000     1.192698   -4.8111292    324.66503   0.05920223  0.060606782            2 
  458000    1.1710841   -4.7965742    325.51834  0.059228228  0.060592997            3 
  459000    1.1394025   -4.8074021    325.81327  0.059152736  0.060580646            3 
  460000    1.1464759   -4.7732091    326.45084  0.059139646  0.060568376            3 
  461000    1.1836722   -4.7977608    326.17752  0.058961952  0.060555163            1 
  462000     1.179274    -4.773039    327.88439  0.059142206  0.060543052            4 
  463000     1.163663   -4.8051875    328.58791  0.059141093  0.060531646            3 
  464000    1.1827587   -4.8042099    328.95882  0.059080247  0.060519664            1 
  465000     1.189656   -4.8018454    328.93118  0.058948241  0.060506529            2 
  466000    1.1556917   -4.7948478    329.89668  0.058994399  0.060494781            2 
  467000    1.1913449   -4.8235039    330.60222  0.058993972  0.060482183            2 
  468000    1.1483965   -4.7978108    333.12458  0.059317056  0.060470326            3 
  469000    1.1628033    -4.796063    332.45434  0.059071488  0.060458837            4 
  470000    1.1929566   -4.8129226    333.04538  0.059050599  0.060447534            3 
  471000    1.1780559   -4.8329508    331.74712  0.058695528  0.060435638            1 
  472000    1.1766318   -4.7690901    335.74513  0.059277035  0.060422882            2 
  473000     1.174005   -4.8110316    335.11289  0.059040326  0.060412077            1 
  474000    1.1786997   -4.7867502    336.53466  0.059165729  0.060399924            2 
  475000    1.1985748   -4.7780833     337.7983  0.059262859  0.060388978            3 
  476000    1.1793906   -4.7931408    338.60291   0.05927922  0.060377209            3 
  477000     1.163388   -4.7867748    338.48203  0.059133827  0.060365868            1 
  478000    1.1779685   -4.7825363    338.85254  0.059074711   0.06035481            4 
  479000    1.1733762   -4.8337352    338.14833  0.058828868  0.060341806            4 
  480000    1.1806826   -4.7635087    340.18759  0.059060346  0.060330337            1 
  481000    1.1811367   -4.7992721    337.85462  0.058533371  0.060317847            2 
  482000    1.1870337   -4.8015378    339.91045  0.058767367  0.060303758            4 
  483000    1.1572518   -4.8202231    341.11422  0.058853385  0.060289297            6 
  484000    1.1643805   -4.7970954    341.68326  0.058829763  0.060275598            1 
  485000    1.1706034    -4.827128    341.24809  0.058633693  0.060261209            2 
  486000    1.1752418   -4.8146984    341.89905  0.058624666  0.060246546            6 
  487000    1.1574409   -4.8104674    342.93492   0.05868154  0.060231287            3 
  488000    1.1570868   -4.7614085    345.42935  0.058987253  0.060217224            1 
  489000    1.1674027    -4.811877     345.3024  0.058844989  0.060203061            2 
  490000     1.198632   -4.7998476    346.78368  0.058976817  0.060188547            2 
  491000    1.1741464   -4.7647114    347.36073  0.058954638  0.060174955            2 
  492000    1.1646948   -4.8235406    346.40879  0.058673576  0.060160335            1 
  493000    1.1702264   -4.8160341    346.96489  0.058648562  0.060146246            2 
  494000    1.1538859   -4.8410799    346.34593  0.058425427  0.060130308            5 
  495000    1.1666289   -4.7932609    347.02653  0.058421974  0.060114476            1 
  496000    1.1882187   -4.7894128    346.97089   0.05829484  0.060097329            5 
  497000    1.1714514   -4.8043784    348.46145  0.058427473  0.060080037            3 
  498000    1.1732301   -4.8237164    348.57692  0.058329471  0.060060797            3 
  499000     1.190302   -4.8218065    349.41722  0.058352909  0.060043714            1 
  500000    1.1463133   -4.7980501    351.11514   0.05851919  0.060026483            4 
  501000    1.1485056   -4.8301965    350.44785  0.058291392  0.060009547            1 
  502000    1.2005884   -4.8037679    351.43867  0.058339753  0.059992877            2 
  503000    1.1592433   -4.8014263    352.82548  0.058453525  0.059976187            3 
  504000    1.1783924   -4.7879607    352.95541   0.05835903  0.059959425            7 
  505000    1.1706881   -4.7997992    353.28272  0.058297479  0.059942717            3 
  506000    1.1543748   -4.8249279     353.7893  0.058265695  0.059927353            2 
  507000    1.1570292   -4.8022502    357.03845  0.058684821  0.059911921            2 
  508000    1.1604152   -4.8080951    357.41448  0.058630984   0.05989806            2 
  509000    1.1740234   -4.8241719    358.35488  0.058669758  0.059884244            2 
  510000     1.172652   -4.7991611    358.29332   0.05854466  0.059870157            2 
  511000    1.1748992   -4.7977002    360.45773  0.058783061  0.059857605            2 
  512000    1.1700293   -4.8148027    360.02099  0.058597167  0.059846064            3 
  513000    1.1769434   -4.8356468    361.49215  0.058721922  0.059833635            3 
  514000    1.1709318   -4.8293217    359.99105  0.058364308  0.059821411            4 
  515000    1.1622701   -4.7758185    363.93714  0.058889505  0.059809129            2 
  516000    1.1429087   -4.7605715    363.16322  0.058650391  0.059797655            1 
  517000    1.1562169   -4.8171146    362.90025  0.058494559   0.05978446            2 
  518000    1.1821712    -4.750789    365.03953  0.058725793  0.059772383            3 
  519000    1.1522437   -4.7975503    364.72937   0.05856284  0.059760977            4 
  520000    1.1730418   -4.8315604    364.59238  0.058428266  0.059748539            3 
  521000    1.1609377   -4.8160525    366.20181  0.058573545  0.059736276            4 
  522000     1.136415   -4.8052225    365.98947  0.058427437  0.059723603            3 
  523000    1.1841626   -4.8212255    366.09618  0.058332724  0.059710483            2 
  524000    1.1738809   -4.8207393    367.30458  0.058413578  0.059698217            1 
  525000    1.1534007   -4.8368389    366.65181    0.0581987   0.05968757            4 
  526000    1.1677863   -4.8240821     368.3906   0.05836353  0.059675934            3 
  527000    1.1801716   -4.8384228    368.93293   0.05833854  0.059662518            3 
  528000    1.1665353   -4.8093192    369.83124  0.058369829  0.059649524            3 
  529000    1.1446864   -4.8371514    369.97955  0.058282853  0.059636599            2 
  530000    1.1516744   -4.8219593     373.5394   0.05873261  0.059624665            2 
  531000    1.1712336   -4.8030173    373.57631  0.058627795  0.059613571            5 
  532000    1.1512604   -4.8032591     373.0147  0.058429622  0.059602274            1 
  533000    1.2080178   -4.8044005    373.26032  0.058358399  0.059591462            1 
  534000    1.1742721    -4.809361     374.9164  0.058507554  0.059580211            2 
  535000    1.1544727    -4.837614    375.16945  0.058437609  0.059569227            4 
  536000    1.1711539   -4.8467755    376.15579  0.058481932  0.059558783            2 
  537000    1.1749172   -4.7868461    376.79417  0.058472093  0.059548508            5 
  538000    1.1627718   -4.8474619    375.78432  0.058206989  0.059537911            2 
  539000    1.1692328   -4.8073349    376.97606   0.05828325  0.059526214            3 
  540000    1.1651754   -4.8254926    378.51491  0.058412794   0.05951409            2 
  541000    1.1657472   -4.8444001     378.2694  0.058267006  0.059502007            2 
  542000    1.1702784    -4.828441    379.18887  0.058300871  0.059490157            2 
  543000    1.1489149   -4.8564677    378.51118    0.0580895  0.059477707            2 
  544000    1.1720009   -4.8559004    380.79898  0.058333176  0.059466329            2 
  545000     1.151601   -4.8222197    381.19155  0.058286169  0.059454115            3 
  546000    1.1859438   -4.8184445     381.5864  0.058239682  0.059442847            3 
  547000    1.1717907   -4.8010589    382.45844  0.058266064  0.059430882            3 
  548000    1.1523749   -4.7974218     383.9206  0.058382087  0.059418196            4 
  549000    1.1816931   -4.8409764    382.72207  0.058093817  0.059405286            4 
  550000     1.150221   -4.8240241    382.74773   0.05799208  0.059392119            2 
  551000    1.1653599   -4.8660405    382.79754  0.057894365  0.059379112            6 
  552000     1.179099   -4.8266687    384.01366  0.057973076  0.059366111            1 
  553000    1.1613644   -4.8096383    385.71274  0.058124283  0.059353914            5 
  554000    1.1690848   -4.8326655    386.16466  0.058087344  0.059341286            1 
  555000    1.1516762   -4.7909276    387.61918  0.058201077  0.059328875            2 
  556000    1.2039517   -4.8169631    387.72396  0.058112105   0.05931669            2 
  557000    1.1654065   -4.8386089    387.06542  0.057909249  0.059303623            4 
  558000    1.1646598    -4.797184    390.82695  0.058367226  0.059290805            3 
  559000    1.1667769   -4.8215777     389.1196  0.058008289  0.059277904            3 
  560000    1.1597391   -4.7964359    391.08445  0.058197091  0.059264556            2 
  561000    1.1427321   -4.8051971    391.64988  0.058177343   0.05925194            1 
  562000    1.1576886   -4.8168933    391.23982  0.058013022  0.059239167            1 
  563000    1.1571816   -4.7936565    390.51295  0.057802391  0.059225841            2 
  564000    1.1484745   -4.8107467    392.39766  0.057978378  0.059212315            3 
  565000    1.1650694   -4.8542625     393.1492  0.057986608    0.0591984            4 
  566000    1.1849639   -4.8593122    391.17811   0.05759395  0.059184216            1 
  567000        1.149   -4.7997358    396.14507  0.058222379  0.059170366            1 
  568000     1.135364   -4.8166961    394.59043  0.057891788  0.059156535            2 
  569000    1.1749005   -4.8245688    395.56637  0.057932978  0.059144038            3 
  570000    1.1325211   -4.8099556    396.47793  0.057964609  0.059130574            2 
  571000    1.1441652    -4.808161    398.62206  0.058176016  0.059117746            2 
  572000    1.1931079   -4.8335534    397.87135   0.05796494   0.05910399            2 
  573000    1.1645995   -4.7951024    399.54088  0.058106585  0.059090667            3 
  574000    1.1527124   -4.8287461    397.54891  0.057716159    0.0590769            2 
  575000    1.1510819   -4.8501391    398.20099  0.057710289  0.059062048            3 
  576000    1.1459339   -4.8583553    400.13082  0.057889296  0.059047437            2 
  577000    1.1553714   -4.8300612      403.351  0.058254044  0.059034789            1 
  578000    1.1356706   -4.8208464    401.71477  0.057917355  0.059021752            5 
  579000    1.1487115   -4.8160943    403.55162  0.058081696  0.059009164            3 
  580000    1.1462902   -4.8387282    401.71175  0.057717206  0.058995997            3 
  581000     1.165531    -4.851203    401.73112  0.057620642  0.058982777            2 
  582000     1.144047   -4.8430656    404.46085  0.057912493  0.058969583            2 
  583000     1.173332   -4.8124926    404.82569  0.057865307  0.058957273            2 
  584000    1.1681453   -4.8227158    406.04315  0.057939947  0.058944759            3 
  585000    1.1791599   -4.8636349    406.18407  0.057860979  0.058932473            4 
  586000    1.1439641   -4.8385129    405.37115  0.057646637  0.058919816            2 
  587000    1.1510095   -4.8578268    407.00563  0.057780469   0.05890843            1 
  588000    1.1545536   -4.8542979    408.74281  0.057928403  0.058896155            3 
  589000    1.1495634   -4.8450408    407.15283  0.057605098  0.058883242            3 
  590000    1.1293987   -4.8223352    409.88726  0.057893681  0.058869196            2 
  591000    1.1676241   -4.8248073    408.60583  0.057615035  0.058855735            2 
  592000    1.1427232   -4.8156351    410.94823  0.057847443  0.058843996            3 
  593000    1.1733619   -4.8384513    410.33292  0.057663423  0.058830701            1 
  594000    1.1401112   -4.8242597    412.32808  0.057846251   0.05881864            2 
  595000    1.1666402   -4.8472736    412.42096  0.057762039  0.058807285            2 
  596000    1.1762435   -4.8486681    412.67751  0.057700995  0.058795379            2 
  597000    1.1763317   -4.8185869    415.81886  0.058042834  0.058783939            2 
  598000    1.1669655   -4.8392665    416.36687  0.058022139  0.058772518            3 
  599000    1.1735339   -4.8435481    415.29516  0.057776177  0.058762122            2 
  600000    1.1766965   -4.8557588    416.25982  0.057813864  0.058751439            2 
  601000    1.1651062   -4.8291116      417.618  0.057905991  0.058740285            2 
  602000    1.1447212   -4.8382573    417.12568  0.057741649  0.058729796            2 
  603000    1.1589366   -4.8796985    416.87205  0.057610842  0.058719357            3 
  604000    1.1602856   -4.8192836    418.27849  0.057709505  0.058708843            2 
  605000    1.1596385   -4.7967623    420.73345  0.057952266  0.058698187            2 
  606000    1.1589979    -4.845269    419.41751  0.057675674  0.058686819            3 
  607000     1.155771   -4.8498999    421.96275  0.057930087  0.058676092            2 
  608000    1.1724011   -4.8224768    419.42857  0.057487468  0.058664968            3 
  609000    1.1242631    -4.866185    421.19844  0.057635255  0.058653442            2 
  610000    1.1645243    -4.873037     422.6346  0.057736968  0.058642066            3 
  611000    1.1308307   -4.8594759    424.40372  0.057883758  0.058631994            2 
  612000    1.1467324    -4.838961    424.19646  0.057760956  0.058620931            2 
  613000    1.1232531   -4.8366415    424.96342  0.057770993  0.058610164            3 
  614000    1.1548903   -4.8075886    426.85964  0.057934262   0.05859981            2 
  615000    1.1722091   -4.7832379    427.09842  0.057872415  0.058589872            2 
  616000    1.1421123    -4.838825    426.78531  0.057736108  0.058578907            4 
  617000    1.1502108   -4.8511422    427.12735  0.057688729   0.05856765            2 
  618000    1.1685765     -4.83792    427.82141  0.057688972   0.05855681            3 
  619000    1.1601667   -4.7939016    428.68034  0.057711409  0.058544132            2 
  620000    1.1809335   -4.7802046     428.9693  0.057657163  0.058531545            3 
  621000    1.1411693   -4.8296288    428.24952   0.05746773  0.058518982            1 
  622000    1.1473057   -4.8109723     430.5096  0.057678134  0.058506294            2 
  623000    1.1678954   -4.7955568     429.8922  0.057502969  0.058493401            5 
  624000    1.1651146   -4.8320403    430.15745  0.057446241  0.058480675            2 
  625000    1.1454764   -4.8358254    432.10371  0.057613828  0.058467276            2 
  626000    1.1562159   -4.7965584    432.70254  0.057601509   0.05845467            4 
  627000    1.1591835   -4.8226079    431.08497  0.057294654  0.058441442            3 
  628000    1.1574723   -4.8368035     433.0775  0.057467821  0.058429286            2 
  629000    1.1621518   -4.8578316    431.85643  0.057214683  0.058416233            4 
  630000    1.1577929   -4.8884425    434.05268  0.057414376  0.058402257            2 
  631000    1.1382839   -4.8715405    434.48898  0.057381006  0.058388645            2 
  632000     1.163498   -4.8233235    435.57324  0.057433181  0.058375543            3 
  633000    1.1336968   -4.8489314    434.92085  0.057256563  0.058362458            3 
  634000    1.1533437   -4.8469473    434.76412  0.057145652  0.058349946            4 
  635000    1.1439102   -4.8146584     438.7187  0.057574633  0.058337988            3 
  636000    1.1446387   -4.8574851    436.44906  0.057186722  0.058324927            2 
  637000     1.153816    -4.888258    437.29627   0.05720778  0.058312331            2 
  638000    1.1501209   -4.8413432    439.66519  0.057427533  0.058300659            2 
  639000    1.1214622   -4.8467915    440.64577  0.057465541   0.05828901            4 
  640000     1.148204   -4.8080528    441.46519  0.057482446  0.058277201            1 
  641000    1.1566407   -4.8294288    441.97256  0.057458731  0.058265886            3 
  642000    1.1358854   -4.8578994     440.2053  0.057139836  0.058254076            4 
  643000    1.1233817   -4.8290151    443.49392   0.05747718  0.058243266            2 
  644000    1.1690365   -4.8396459    443.69514  0.057413968  0.058231889            6 
  645000    1.1212379   -4.8450113    445.25654  0.057526684  0.058222008            2 
  646000    1.1545538   -4.8809062      444.779  0.057376032  0.058211424            3 
  647000    1.1679368   -4.8526259    446.13632  0.057462174  0.058200893            2 
  648000    1.1328922   -4.8493366    447.69861  0.057574409  0.058190129            3 
  649000    1.1372041   -4.8304458    447.00928  0.057397185  0.058179673            1 
  650000    1.1682664   -4.8580877    448.03672  0.057440605  0.058169337            3 
  651000    1.1606411   -4.8596162    446.86605  0.057202515  0.058158949            3 
  652000    1.1397601    -4.834618    449.07326   0.05739689  0.058148048            2 
  653000    1.1502709   -4.8736312    450.92359  0.057545123  0.058138099            4 
  654000    1.1659956   -4.8571053    449.72518  0.057304432  0.058128422            2 
  655000    1.1223524   -4.8521424    451.04847  0.057385301  0.058118194            2 
  656000    1.1521117   -4.8408674    451.20978  0.057318316  0.058107962            2 
  657000    1.1559478   -4.8443884    452.54981  0.057401041  0.058097836            2 
  658000    1.1497388   -4.8242629    453.50691  0.057435019  0.058087705            6 
  659000    1.1409919   -4.8251968    454.18252  0.057433298  0.058077886            5 
  660000    1.1445941   -4.8449014    454.47555  0.057383277  0.058067916            2 
  661000    1.1474562   -4.8816242    456.04173  0.057493914  0.058058374            2 
  662000    1.1319469   -4.8782504    455.18576  0.057299315  0.058048306            2 
  663000    1.1175934   -4.8679452    456.17564   0.05733731  0.058037918            5 
  664000      1.11784   -4.8700319    458.03238  0.057483984  0.058028289            2 
  665000    1.1359979   -4.8235613    458.09253  0.057405079  0.058018485            2 
  666000    1.1362457   -4.8636648    460.16083  0.057577681  0.058008542            2 
  667000    1.1420746   -4.8590907    459.48879  0.057407395  0.057999036            3 
  668000    1.1301676   -4.8992708     459.2142  0.057287201  0.057989955            1 
  669000    1.1497776   -4.8578438    459.29498  0.057211632  0.057979943            2 
  670000    1.1452933   -4.8572519    460.31705  0.057253365  0.057969543            3 
  671000    1.1556403    -4.869287    460.94958  0.057246594  0.057959631            8 
  672000    1.1518188   -4.8408729    461.32973  0.057208548  0.057949807            3 
  673000    1.1727575   -4.8721971    460.83723   0.05706256  0.057939822            3 
  674000    1.1364588   -4.8489965    464.57798  0.057440403  0.057929922            4 
  675000    1.1750264   -4.8731434    461.97624  0.057034103  0.057920572            3 
  676000    1.1217479   -4.8608474    465.59797  0.057396199  0.057911647            3 
  677000    1.1177396   -4.8508702    465.46633  0.057295216  0.057902398            2 
  678000    1.1426916   -4.8410671    467.45518   0.05745516   0.05789348            3 
  679000    1.1390408   -4.8568139    464.78814  0.057043218  0.057883962            3 
  680000    1.1396364   -4.8361223    467.97097  0.057349384   0.05787422            2 
  681000    1.1598273   -4.8582886    469.50572  0.057452975  0.057864765            2 
  682000    1.1213379     -4.84745    469.72495  0.057395522  0.057856146            2 
  683000    1.1422046   -4.8185203    470.64383    0.0574236  0.057848367            2 
  684000    1.1239527   -4.8190865    470.97502  0.057379997  0.057840335            3 
  685000    1.1237891   -4.8785942    470.30011  0.057214125  0.057832081            2 
  686000    1.1443705   -4.8803638     473.4239  0.057510192  0.057824279            3 
  687000    1.1515353   -4.8875517    472.26895  0.057286384  0.057816169            2 
  688000     1.119688   -4.8649374    473.16293  0.057311401  0.057808543            1 
  689000    1.1135567   -4.8679194    475.23291  0.057478582  0.057801047            2 
  690000    1.1527443   -4.8566208    473.61626  0.057200031  0.057793541            4 
  691000    1.1415202   -4.8070032    476.46125  0.057460353  0.057785359            2 
  692000     1.142663   -4.8484288     476.5761  0.057391149   0.05777788            3 
  693000    1.1423317   -4.8622716    477.38086  0.057405105  0.057769963            3 
  694000    1.1291715   -4.8633904    476.51159   0.05721801  0.057761041            3 
  695000    1.1383969   -4.8713087    477.15199  0.057212469  0.057752446            4 
  696000    1.1401713   -4.8633571    480.11605   0.05748516  0.057743758            3 
  697000    1.1438052   -4.8401567    479.53536  0.057333256  0.057735901            2 
  698000    1.1646352   -4.8270253    478.71056  0.057152646  0.057728036            3 
  699000    1.1284971   -4.8612035    479.56416  0.057172647  0.057719826            3 
  700000    1.1390014    -4.826776    481.33818  0.057302164   0.05771057            2 
  701000     1.137087   -4.8587786    482.28659  0.057333166  0.057702043            3 
  702000    1.1202278   -4.8750978    482.49252   0.05727594  0.057693938            1 
  703000    1.1343478   -4.8445791    483.44572  0.057307458  0.057686152            2 
  704000    1.1475018   -4.9029699    480.71445  0.056902752  0.057677821            2 
  705000    1.1477269     -4.89457    483.98627  0.057208779    0.0576694            1 
  706000    1.1418788   -4.8978266    484.54049  0.057193165  0.057661348            5 
  707000    1.1296302    -4.832841    485.96092  0.057279694  0.057653527            4 
  708000    1.1378948   -4.8723297    486.29111  0.057237654  0.057645766            4 
  709000    1.1276665   -4.8822494    487.05173  0.057246325  0.057638141            2 
  710000    1.1319672    -4.866745     486.6095  0.057113791  0.057629722            3 
  711000    1.1185866   -4.8366205     487.6335  0.057153481  0.057621701            4 
  712000    1.1474649   -4.8983247    488.42152  0.057165441  0.057613988            3 
  713000    1.1488776   -4.9006221    489.99045  0.057268636  0.057607137            3 
  714000    1.1708892   -4.8476452    490.07559  0.057198365  0.057599748            2 
  715000     1.150323   -4.8518263    490.37797  0.057153609  0.057592092            6 
  716000    1.1281333   -4.8784516     493.0495  0.057384719  0.057584538            3 
  717000    1.1397572   -4.8439902    494.35087  0.057455936  0.057577158            3 
  718000    1.1470943   -4.8531044    492.41756  0.057151527  0.057570088            2 
  719000    1.1269709   -4.8568982    492.96061   0.05713498  0.057563158            1 
  720000    1.1125535   -4.8553388    495.75297  0.057378816   0.05755586            5 
  721000    1.1334221   -4.8393585    496.72324  0.057411377  0.057549792            2 
  722000    1.1195862   -4.8549384    495.80479  0.057225853  0.057542896            2 
  723000    1.1308001   -4.8903744    496.37879  0.057212862  0.057535433            4 
  724000    1.1269797    -4.884697    496.50416  0.057148269  0.057527896            2 
  725000    1.1280758   -4.8910796    496.80455  0.057103971  0.057520596            2 
  726000    1.1261545   -4.8524406    499.27375   0.05730874  0.057513645            2 
  727000    1.1276594   -4.8932738    496.14554  0.056871336  0.057506553            7 
  728000     1.125606   -4.8675936    500.32685  0.057271846  0.057499009            2 
  729000    1.1513369   -4.8548639    500.88208  0.057256754  0.057490356            2 
  730000    1.1295639   -4.8314116    498.96431  0.056959396  0.057482209            1 
  731000    1.1485418   -4.8594194    500.53309  0.057060316  0.057474608            2 
  732000    1.1423054   -4.8374316    502.35341  0.057189596  0.057466694            4 
  733000    1.1569382   -4.8667807    501.66892  0.057033756   0.05745935            3 
  734000     1.123758   -4.8524242    504.92784  0.057326049  0.057452096            3 
  735000     1.116853   -4.9213716    504.55829  0.057206155  0.057445262            5 
  736000      1.15071   -4.8417084     506.5666   0.05735582  0.057438896            3 
  737000    1.1478979   -4.8907385    504.84734  0.057083597  0.057432482            2 
  738000    1.1233375   -4.8911056    507.97987  0.057359967  0.057425946            4 
  739000    1.1588223   -4.8794221     509.2588  0.057426568  0.057421013            1 
  740000    1.1284986   -4.8827193     510.3012  0.057466351  0.057415843            2 
  741000    1.1247712   -4.8975131    510.62556  0.057425276  0.057410978            2 
  742000    1.1474069   -4.8535556    512.19173   0.05752378  0.057406452            3 
  743000    1.1249551   -4.8678806    513.48687  0.057591618  0.057401983            4 
  744000    1.1369969   -4.8493252    512.84245   0.05744203  0.057397159            3 
  745000    1.1259542   -4.8740948    512.74629  0.057354171  0.057393153            3 
  746000    1.1397291   -4.9020837    512.79317  0.057282526  0.057388386            2 
  747000    1.1042562   -4.8610538    514.36266   0.05738093  0.057383873            2 
  748000    1.1410123   -4.8605154    514.08713  0.057273522  0.057378157            2 
  749000    1.1189548   -4.8497098    516.43951   0.05745878   0.05737287            4 
  750000    1.1092695   -4.8719985    517.64357  0.057515952  0.057367622            4 
  751000    1.1340634   -4.8371674    514.67288  0.057109729  0.057361675            3 
  752000    1.1316594   -4.8808161    515.76969  0.057155329  0.057354587            1 
  753000    1.1362463   -4.8794624    516.04303  0.057109676   0.05734846            3 
  754000    1.1380237   -4.8858896    516.24818  0.057056607  0.057342357            2 
  755000    1.1385064   -4.8802944    516.93228  0.057056543  0.057336135            4 
  756000    1.1272169   -4.8777075    520.43759  0.057367459  0.057330147            2 
  757000    1.1282159   -4.8670082    520.01731  0.057245411  0.057323961            1 
  758000    1.1228035   -4.9141956     517.0994  0.056849098  0.057317642            2 
  759000    1.1653407   -4.8997599    520.69013  0.057168437  0.057311488            4 
  760000    1.1122542   -4.8757544    520.23947  0.057043802  0.057304817            5 
  761000    1.1407033   -4.8787552    522.33225  0.057198012  0.057298841            6 
  762000    1.1105901   -4.8917421    520.99576  0.056976789  0.057292022            1 
  763000    1.1265144   -4.9103353    520.85328  0.056886553  0.057285302            2 
  764000    1.1590646   -4.8640642    522.30602  0.056970552  0.057279069            1 
  765000     1.112544   -4.8853288    523.48072  0.057024043  0.057272356            2 
  766000    1.1054396   -4.8710038    522.55028  0.056848377  0.057265192            5 
  767000    1.1139016   -4.8795916    523.97674  0.056929241    0.0572575            2 
  768000    1.1420042   -4.9141335    523.92597  0.056849607  0.057249867            6 
  769000    1.1253157   -4.8468585    525.41421  0.056936954  0.057242779            3 
  770000    1.1123533   -4.8870015     526.6454  0.056996256  0.057235759            4 
  771000    1.1196764    -4.879903    527.44526  0.057008783  0.057228095            2 
  772000    1.1347081    -4.902634    525.65649  0.056741849  0.057220672            2 
  773000    1.1181269   -4.8955006    526.71095  0.056782121  0.057212481            4 
  774000    1.1066438   -4.8569917    528.49405  0.056900737  0.057204446            2 
  775000    1.1358855    -4.910992    527.62692  0.056734078  0.057196618            1 
  776000    1.1365811   -4.9032415    526.96274  0.056589641  0.057188314            5 
  777000    1.1166651     -4.91109    528.13925  0.056642991  0.057179716            2 
  778000    1.1390029   -4.8790753    528.19594  0.056576258  0.057170949            2 
  779000    1.1182404   -4.8840805    529.92993  0.056689124  0.057161907            3 
  780000    1.1458246   -4.8822651    531.12482  0.056744105  0.057153198            3 
  781000    1.1271207   -4.8896306    532.75292  0.056845168  0.057145195            2 
  782000    1.1428533   -4.8708214    533.89912   0.05689462  0.057137392            3 
  783000    1.1177634   -4.8872978    532.96055  0.056722068   0.05712933            5 
  784000    1.1416479   -4.9106327    532.27722  0.056577085  0.057122142            2 
  785000    1.1491882   -4.8656915    533.94942  0.056682529  0.057113676            1 
  786000    1.1387026   -4.9176211    534.92524  0.056713871  0.057105517            2 
  787000    1.1274567   -4.8956278    536.37166  0.056794966  0.057097944            4 
  788000    1.1307101   -4.9034384    536.75556   0.05676349  0.057089753            1 
  789000    1.1215522   -4.9387715     536.4984  0.056664385  0.057080991            4 
  790000    1.1019428   -4.8742254    539.68743  0.056929053  0.057072677            2 
  791000    1.1243372   -4.8938831    539.21099  0.056806889  0.057064512            4 
  792000    1.1363758   -4.8593027    536.42909  0.056442455  0.057056322            4 
  793000     1.119896    -4.887738    538.54502  0.056593634  0.057048633            2 
  794000    1.1112975   -4.9060289    539.05843  0.056576241  0.057040805            3 
  795000    1.1421664   -4.8715357    539.00606  0.056499587  0.057032816            2 
  796000    1.1139212   -4.8794199    540.82362  0.056618888  0.057024306            2 
  797000    1.1242224    -4.884916     542.1376  0.056685236  0.057015998            2 
  798000     1.120138   -4.8954413    541.83642  0.056582751  0.057007833            3 
  799000    1.1181687   -4.8743718    541.61019  0.056488338  0.056999834            4 
  800000    1.1268181   -4.9130209    543.07685  0.056570505   0.05699159            3 
  801000    1.1323996   -4.9097408    543.33738  0.056526985  0.056983326            2 
  802000    1.1364864    -4.846122    546.41159  0.056775934   0.05697543            2 
  803000    1.1356184   -4.8662528    545.66133   0.05662737  0.056967572            7 
  804000    1.1793316   -4.9434874    542.62964  0.056242707  0.056959554            3 
  805000    1.1269317   -4.9133275    546.03281  0.056525136  0.056950915            3 
  806000    1.1543038   -4.8800821    546.32784  0.056485509  0.056942406            9 
  807000    1.1392477   -4.9197464    547.13833  0.056499208  0.056934102            4 
  808000    1.1269213   -4.8918546    549.61927  0.056685155  0.056925982            5 
  809000    1.0988342   -4.8837336    550.09805  0.056664406   0.05691858            3 
  810000     1.122114    -4.904219    547.85702  0.056363891  0.056910887            3 
  811000    1.1438292    -4.861407    550.90293   0.05660737  0.056903353            3 
  812000    1.0923731   -4.9440344     548.9243  0.056334596  0.056895615            2 
  813000    1.1372873   -4.8552285    550.82076  0.056459693  0.056887325            3 
  814000    1.1100579   -4.9130306    552.16732  0.056528186  0.056879328            4 
  815000    1.1157153   -4.8623347    552.41398  0.056484047  0.056871511            1 
  816000    1.1287807   -4.9135696    553.57534  0.056533429  0.056863569            2 
  817000    1.1293795   -4.9103465    554.02714  0.056510316  0.056855738            4 
  818000    1.1214296   -4.8789911    554.81003   0.05652099  0.056848551            2 
  819000     1.129505   -4.9085303    556.14225   0.05658753  0.056840889            2 
  820000    1.1164943   -4.8914472    554.50347  0.056351978  0.056832322            4 
  821000    1.1324845   -4.8921952    554.92741  0.056326372   0.05682371            1 
  822000    1.1164702   -4.8982214    557.93025  0.056562272  0.056815476            6 
  823000    1.1109968   -4.9143045    558.30858  0.056531853  0.056806948            3 
  824000    1.1158453    -4.911277    557.42361  0.056373747  0.056798825            3 
  825000    1.0939358    -4.909939    557.29171  0.056292092  0.056790837            3 
  826000    1.1393352   -4.9283524    559.61389  0.056458221  0.056782451            2 
  827000    1.1273648   -4.8908861    558.87602    0.0563156  0.056774192            1 
  828000      1.10681   -4.9093178     560.0591  0.056366657  0.056766288            2 
  829000    1.1176296   -4.9234031    560.91731  0.056384933  0.056758679            2 
  830000    1.0924573    -4.878918    562.37147  0.056462999  0.056750445            2 
  831000    1.1225621   -4.9130131    562.65448  0.056423433  0.056741865            6 
  832000    1.1093029   -4.8925233    562.52081  0.056342229  0.056733504            8 
  833000    1.1291805    -4.911244    560.06612  0.056029024  0.056725122            4 
  834000    1.1218115   -4.9354396    562.57401  0.056212431  0.056716728            3 
  835000    1.1286204   -4.9018584    564.69999  0.056357284  0.056708764            2 
  836000    1.1201719   -4.9155853    562.94646  0.056115078  0.056700484            2 
  837000     1.121994    -4.854223    566.62942  0.056414717  0.056691848            3 
  838000    1.1370276   -4.9013619    565.52236  0.056237307  0.056683021            2 
  839000    1.1432438   -4.9038814    565.16354  0.056134638  0.056673615            2 
  840000    1.1089317   -4.9248017     564.0644   0.05595877  0.056663949            3 
  841000    1.1187702   -4.9241351    562.85133   0.05577203  0.056654261            3 
  842000    1.1192754    -4.921262    566.22873  0.056040056  0.056644858            2 
  843000    1.1212077   -4.8879033    569.76185   0.05632284  0.056635697            4 
  844000    1.1040603   -4.9084342    568.65641   0.05614696  0.056626272            1 
  845000    1.1126305   -4.9350052    568.74296  0.056089049  0.056616608            2 
  846000    1.1008991   -4.9329363     569.4845  0.056095794  0.056606926            2 
  847000     1.116411   -4.9001528    570.72861  0.056151968  0.056598008            3 
  848000    1.1101156   -4.8998337    568.39117   0.05585605  0.056588158            3 
  849000    1.0946649    -4.883718    568.83157  0.055833487  0.056578873            2 
  850000    1.1190272   -4.9503248    570.73201  0.055954119  0.056569706            2 
  851000    1.1225405   -4.9260853    573.40473  0.056150091  0.056560383            2 
  852000    1.0920231   -4.9454528    573.32126  0.056076023  0.056550788            3 
  853000    1.1149453   -4.8600391    575.20505  0.056194319  0.056541336            4 
  854000    1.0776708   -4.9409958    573.23464  0.055936245  0.056532012            2 
  855000    1.1069431   -4.8503011    576.09485  0.056149595  0.056522565            3 
  856000    1.1493312   -4.8861642    574.19629  0.055899172   0.05651281            2 
  857000     1.114423   -4.8727537    576.80455  0.056087568  0.056503526            1 
  858000    1.1140945   -4.9009978    575.09503  0.055856161  0.056493946            3 
  859000    1.1366319    -4.914759    575.44702  0.055825283   0.05648379            5 
  860000    1.1399005   -4.9627241    574.69586  0.055687584   0.05647322            4 
  861000    1.1168712   -4.9026215    578.45532  0.055986772   0.05646294            2 
  862000    1.0850462   -4.8864992    579.05493  0.055979788  0.056453581            2 
  863000     1.110579   -4.9399338    578.95404  0.055905179  0.056443974            2 
  864000    1.1256791    -4.880206    581.43707  0.056079965  0.056434397            4 
  865000    1.1201272    -4.872414      581.068  0.055979576  0.056424869            8 
  866000    1.1273081   -4.8576284    580.24226  0.055835475  0.056415148            2 
  867000    1.1111412   -4.9298335    579.91767  0.055739876   0.05640586            3 
  868000    1.1037215   -4.9199528    580.48659   0.05573028  0.056395883            2 
  869000    1.0864318   -4.9114529    579.66674  0.055587527  0.056385813            2 
  870000    1.1098588   -4.9046387      581.738  0.055722031  0.056375372            2 
  871000    1.1327352    -4.881677    582.37336  0.055718845  0.056365243            3 
  872000    1.1480287   -4.9533343    580.83551   0.05550798  0.056354597            4 
  873000    1.1193935   -4.9368723    581.53889   0.05551154  0.056344508            2 
  874000    1.1044832   -4.9108921    585.84773  0.055858861  0.056334564            2 
  875000    1.0907972    -4.904196    585.68855  0.055779862  0.056324898            1 
  876000     1.103198   -4.9317941    585.47065  0.055695458  0.056314728            3 
  877000    1.1080246   -4.9401616     586.5289  0.055732507  0.056304528            2 
  878000    1.1119992   -4.8902139    588.96693   0.05590043  0.056294874            4 
  879000    1.1227409   -4.9189154    587.13362  0.055663028  0.056285484            2 
  880000    1.1027048   -4.9014875    588.48672  0.055727909  0.056276392            3 
  881000    1.0979242   -4.9509827    585.10308  0.055344597  0.056267044            2 
  882000    1.1265044   -4.9035717    591.44792  0.055881322  0.056258031            2 
  883000    1.1024079   -4.9052293    590.73615  0.055750864  0.056249331            1 
  884000    1.1028374   -4.9245461     591.8651  0.055794221  0.056239937            2 
  885000    1.1267758   -4.9384659    591.80998  0.055725987  0.056230309            3 
  886000    1.0940588   -4.9301413    593.20307  0.055794118  0.056221579            2 
  887000    1.1066636   -4.9040658    594.82406  0.055883508  0.056212408            3 
  888000    1.1064426   -4.9108055     593.8549  0.055729626  0.056204084            4 
  889000    1.1110687    -4.956101    593.93073  0.055674046   0.05619605            4 
  890000    1.0904051   -4.9044685    595.44487  0.055753265   0.05618744            6 
  891000     1.138214   -4.9414387     595.3226  0.055679255  0.056178823            3 
  892000    1.1101537   -4.8972756    598.19123  0.055884831  0.056170498            3 
  893000    1.1076407   -4.9370589    598.42287  0.055843867  0.056161836            5 
  894000    1.1070433   -4.9234783    598.17289    0.0557581  0.056153719            2 
  895000    1.1165256   -4.9208589    597.89967  0.055670361   0.05614587            2 
  896000    1.1132848   -4.9159932    597.91557  0.055609707  0.056137514            2 
  897000    1.1083882   -4.9253417    599.99055  0.055740483   0.05612821            4 
  898000    1.1084267   -4.9011439    600.46625  0.055722555  0.056119085            4 
  899000    1.1180367   -4.9080608    600.27005  0.055642385  0.056109604            3 
  900000    1.0987677   -4.9445433    600.54982  0.055606465   0.05609993            2 
  901000    1.1027002   -4.9621456    598.83548  0.055386189  0.056090611            2 
  902000    1.1151501    -4.901345    601.37033  0.055558973  0.056081128            5 
  903000    1.1018057   -4.9457137      600.127  0.055382706  0.056071961            2 
  904000    1.1153095   -4.9566887    601.50876  0.055448817  0.056062519            2 
  905000    1.0990274   -4.9260536    602.72117  0.055499187  0.056052864            5 
  906000    1.1252824   -4.9634212    604.84732  0.055633491  0.056043572            3 
  907000    1.1264976   -4.9570614    602.78172   0.05538237   0.05603451            2 
  908000    1.0954494   -4.9380763    603.03109  0.055344263  0.056025529            4 
  909000    1.1066578   -4.9067838     606.7952  0.055628456  0.056016528            2 
  910000    1.1163311   -4.9207744    607.52747  0.055634384  0.056007501            3 
  911000    1.1089214   -4.9046525    609.11778  0.055718787  0.055998669            3 
  912000    1.1205912   -4.9010476    608.71294    0.0556207  0.055990257            1 
  913000    1.1116453   -4.9216952    608.48953  0.055539387  0.055981962            4 
  914000    1.1253866   -4.9498993    611.54248  0.055756973  0.055973339            2 
  915000     1.116475   -4.9280596    610.69141  0.055618526  0.055964627            2 
  916000     1.085197   -4.9761843    609.14783  0.055417379  0.055956086            2 
  917000    1.0940071    -4.909689    612.94369  0.055701898  0.055947572            6 
  918000    1.1139319   -4.9223519      615.404   0.05586456  0.055939163            4 
  919000    1.1060016   -4.9173691    613.44008  0.055625687  0.055931154            1 
  920000    1.0900226   -4.9290129    612.47472  0.055477783  0.055922596            3 
  921000    1.1087423    -4.950103    613.83851  0.055540944  0.055914198            7 
  922000     1.090902   -4.9476785    612.56136  0.055365271  0.055905093            2 
  923000    1.1048712   -4.9431317    614.51257  0.055481453   0.05589652            4 
  924000    1.1055694   -4.9756263    612.54345  0.055243818  0.055887602            5 
  925000    1.1164775   -4.9370209     615.8335  0.055480495  0.055878965            4 
  926000    1.0925364   -4.9090314    615.74728  0.055412822  0.055870088            2 
  927000    1.0928273   -4.9711924    616.55618  0.055425762  0.055861141            3 
  928000    1.0974297   -4.9171159    616.93006   0.05539961  0.055852351            4 
  929000      1.08863   -4.8995614    619.10459  0.055535037  0.055843198            3 
  930000    1.0835036   -4.9606753    615.17645  0.055123338  0.055833804            3 
  931000     1.093063   -4.9343125    618.90006  0.055397428  0.055824341            4 
  932000    1.0989929   -4.9142862    618.85063  0.055333568  0.055815143            3 
  933000     1.111769   -4.9374963    617.49608  0.055153276  0.055806413            3 
  934000     1.128915   -4.9475905     619.2919  0.055254452  0.055797223            2 
  935000    1.1108511   -4.8886117    622.01074  0.055437678  0.055788264            3 
  936000    1.1147215   -4.9258013    621.07547  0.055295181  0.055779707            3 
  937000    1.1144342   -4.9397474    620.03127  0.055143301  0.055770755            2 
  938000    1.0803183   -4.9314115    624.11772  0.055447559  0.055762119            5 
  939000    1.1032018   -4.9463399    622.32575  0.055229478  0.055752793            4 
  940000    1.0992685   -4.9450614    622.35977  0.055173739  0.055743568            4 
  941000    1.0781665   -4.8936714    626.38935  0.055471958  0.055733686            3 
  942000    1.1199765   -4.8960283    623.87823  0.055190926  0.055724289            1 
  943000    1.1058115   -4.9159445    625.08446  0.055238995  0.055714595            2 
  944000    1.0877826   -4.9434286    622.33204  0.054937504   0.05570421            4 
  945000     1.106596   -4.8960561    624.77551  0.055094842  0.055694123            2 
  946000    1.0848661   -4.9635157    622.41006  0.054828229  0.055683323            2 
  947000    1.1166754   -4.9190999    626.50781  0.055130923  0.055672736            2 
  948000    1.0846296   -4.9676778    624.99136  0.054939466  0.055662135            2 
  949000    1.1023712   -4.9384368    626.52772  0.055016484  0.055651252            4 
  950000    1.0864897   -4.9137054    626.82119  0.054984315   0.05564039            5 
  951000    1.0739915   -4.9042832    626.72142  0.054917755  0.055629385            4 
  952000    1.0758983   -4.9342068    627.71807   0.05494731  0.055618654            3 
  953000    1.0900806   -4.9608052    626.23473  0.054759944  0.055607389            2 
  954000    1.0770411   -4.9397602    627.85305  0.054843907   0.05559605            2 
  955000    1.1036264   -4.9111251    630.37393  0.055006451  0.055585312            3 
  956000    1.0912201    -4.928124    630.05514  0.054921124  0.055575125            4 
  957000    1.0766339   -4.8871546    630.14121   0.05487123   0.05556391            2 
  958000    1.0798299   -4.9359082    631.67219  0.054947129  0.055552385            6 
  959000    1.0944828   -4.9517388    628.85809  0.054645298  0.055540645            2 
  960000    1.0854621   -4.9025939    632.47666  0.054902488  0.055529503            4 
  961000    1.0787344   -4.9616228      632.335  0.054833073  0.055518658            4 
  962000    1.0927323   -4.9337347    631.23945  0.054681172    0.0555077            3 
  963000    1.0865469   -4.9193257    634.46501  0.054903514  0.055497129            2 
  964000    1.0869182   -4.9227941    635.34837  0.054922922  0.055486594            3 
  965000    1.0861735   -4.9546007    635.22528  0.054855378  0.055476206            2 
  966000    1.0861283   -4.9135909    637.05722  0.054956627  0.055466345            4 
  967000    1.0764841   -4.9183959    638.36266  0.055012294  0.055456185            3 
  968000    1.1235027    -4.938759    639.64865  0.055066172  0.055446241            5 
  969000    1.1133233   -4.9398604    638.00593  0.054868071  0.055436777            3 
  970000    1.0808734   -4.9704362    635.55862  0.054601256  0.055427049            3 
  971000    1.1051155   -4.9140656    640.98296  0.055010552  0.055417225            2 
  972000    1.0939162   -4.9602661    639.77568  0.054850453  0.055407558            3 
  973000     1.104847   -4.9158277    642.52754  0.055029765  0.055398879            2 
  974000    1.1398758   -4.9611312    641.15056  0.054855455  0.055389492            2 
  975000    1.1016088   -4.9409652    643.14295  0.054969483  0.055380144            1 
  976000    1.0718139    -4.944575    643.66012  0.054957319  0.055370638            2 
  977000    1.1216776   -4.9497669    642.96119  0.054841452  0.055360876            3 
  978000     1.085864   -4.9357771    645.20281  0.054976382  0.055351485            2 
  979000    1.1111243   -4.9290852    642.31729  0.054674607  0.055342021            4 
  980000     1.075621   -4.9528301    644.80734  0.054830556  0.055332059            2 
  981000    1.0670634   -4.9345724    647.62457   0.05501398  0.055322307            3 
  982000    1.0607491   -5.0101508    643.30068  0.054591028  0.055312665            7 
  983000    1.1133213   -4.9185625    648.89223  0.055009515  0.055303198            3 
  984000    1.0865613    -4.942944    645.79167  0.054691029  0.055294009            2 
  985000    1.0762085   -4.9333013     649.5477  0.054953274  0.055284005            1 
  986000    1.0808991   -4.9756456     646.9089  0.054674518  0.055274595            2 
  987000    1.1083425   -4.9694836    648.96098  0.054792383  0.055264675            3 
  988000     1.122477   -4.9197004    651.64415  0.054963238  0.055255094            1 
  989000    1.0862985   -4.9390132    652.55499  0.054984411  0.055246336            1 
  990000    1.0953144   -4.9378196    652.86385  0.054954869  0.055237815            2 
  991000    1.1004905   -4.9493036    650.70419  0.054717809  0.055228536            4 
  992000     1.084594   -4.9470443     652.3902  0.054804284  0.055219649            1 
  993000    1.1097283   -4.9568307     653.7636   0.05486435  0.055211012            3 
  994000    1.1013303   -4.9267788    655.20192  0.054929739   0.05520217            2 
  995000    1.0817192   -4.9762305    652.05472  0.054610948  0.055192877            2 
  996000    1.0762121   -4.9504339    655.42999   0.05483852  0.055184201            4 
  997000    1.0893252   -4.9520242    657.30135  0.054939932  0.055175521            5 
  998000    1.1038407   -4.9551151     655.7342  0.054754025  0.055166793            1 
  999000    1.0845285   -4.9441255    656.95556  0.054801098  0.055157662            2 
 1000000    1.1065213   -4.9585276    659.56005  0.054963337  0.055149273            2 
 1001000    1.1072783   -4.9763728    657.99092  0.054777799  0.055140261            3 
 1002000     1.097236   -4.9210065    660.25344  0.054911297  0.055131779            1 
 1003000    1.0730687   -4.9742159    658.20617  0.054686455  0.055123555           11 
 1004000    1.1130591   -4.9565746    660.04374  0.054784507   0.05511517            7 
 1005000     1.075855   -4.9712813    660.29057  0.054750462  0.055106255            2 
 1006000    1.1066273   -4.9358355    660.57768  0.054719821  0.055097239            2 
 1007000    1.0984485   -4.9661327    658.85916  0.054523267  0.055088296            3 
 1008000    1.0916595    -4.950066    662.75407  0.054791176  0.055079353            4 
 1009000     1.106365   -4.9658676    662.34575  0.054703151  0.055070607            2 
 1010000    1.0740532   -4.9327102    661.82383  0.054605927  0.055061785            5 
 1011000    1.0920917   -4.9470344    665.99481  0.054895714  0.055052156            2 
 1012000    1.0960463   -4.9435573    665.16725  0.054773324  0.055043477            3 
 1013000    1.0891343   -4.9449429    664.85435  0.054693513  0.055034723            3 
 1014000    1.1141343    -4.952349    667.35003  0.054844677  0.055026307            6 
 1015000     1.099824   -4.9358002    665.89647  0.054671303  0.055017556            3 
 1016000    1.1042954   -4.9343962    666.03887  0.054629172  0.055008635            2 
 1017000    1.0944236   -4.9657643    669.24048  0.054837797  0.054999606            1 
 1018000     1.077497   -4.9672743    666.23301  0.054537738   0.05499082            3 
 1019000    1.1012591   -4.9571364    667.22549  0.054565382  0.054981443            3 
 1020000    1.0880521   -4.9580423    668.25987  0.054596394   0.05497239            3 
 1021000    1.0717819   -4.9506516    672.58509  0.054895943  0.054964006            2 
 1022000    1.0998091    -4.933581    672.53007  0.054837742  0.054955794            2 
 1023000    1.0918134   -4.9550382    671.74085  0.054719848   0.05494731            5 
 1024000    1.0944094   -4.9236302    673.39482  0.054801011  0.054939036            3 
 1025000     1.082579   -4.9410696    672.88017  0.054705705  0.054930672            3 
 1026000    1.0885835   -4.9708265     673.1865  0.054677266  0.054922623            5 
 1027000     1.074785   -4.9794403    671.87666  0.054517742   0.05491396            3 
 1028000    1.0911898   -4.9767949    673.20161  0.054572115  0.054905048            3 
 1029000    1.1012438   -4.9135049     676.5278  0.054788452  0.054896702            1 
 1030000    1.0619633   -4.9306425    674.21194  0.054547891  0.054887805            2 
 1031000    1.1030376   -4.9746656    674.80285  0.054542746  0.054879117            2 
 1032000    1.0972839   -4.9641102    674.10127  0.054433242  0.054869816            5 
 1033000    1.1086488   -4.9765819    675.16195  0.054466114  0.054860927            4 
 1034000    1.0891371    -4.959707    678.22556  0.054660345  0.054851761            2 
 1035000    1.0686679   -4.9825932    673.14424  0.054198409  0.054842508            4 
 1036000    1.0940118   -5.0103088    675.80142  0.054359831   0.05483273            4 
 1037000    1.0800079   -4.9526742    679.52435  0.054606585  0.054823713            5 
 1038000     1.097778   -4.9413755    678.73549  0.054490646  0.054815253            3 
 1039000    1.1044165   -4.9550287     679.6115  0.054508461  0.054807091            8 
 1040000    1.0997412   -4.9742056    678.83164  0.054393561  0.054798197            2 
 1041000    1.0991108   -4.9579907    682.58169  0.054641506  0.054788849            3 
 1042000     1.099211   -4.9729773    678.52711  0.054264804   0.05477941            1 
 1043000    1.0601596   -4.9507327    680.60663  0.054378925  0.054770115            3 
 1044000    1.0940508   -4.9656398     678.7008  0.054174712  0.054760528            2 
 1045000    1.0922464   -4.9692571    680.34393  0.054253902  0.054750804            3 
 1046000    1.1001514    -4.951036    681.12497  0.054264258  0.054740759            1 
 1047000    1.0959889    -4.965617    682.36498  0.054311125  0.054730593            1 
 1048000    1.0660617   -4.9504376    683.37911  0.054339942  0.054720854            1 
 1049000    1.0700899   -4.9658973     681.1331  0.054109715   0.05471119            2 
 1050000    1.0970834   -4.9829141    682.67753  0.054180756  0.054701215            3 
 1051000    1.0770966   -4.9884297    682.77243  0.054136729  0.054691511            2 
 1052000    1.0606626   -4.9548835    684.95889  0.054258467  0.054682295            6 
 1053000    1.0647704   -5.0056601    687.77844  0.054430076  0.054673765            1 
 1054000     1.077412   -4.9587052    687.78737  0.054379141   0.05466452            2 
 1055000    1.0756189   -4.9286921     689.5609  0.054467686  0.054656048            2 
 1056000    1.0760817   -4.9560284    689.09708  0.054379504  0.054647266            4 
 1057000    1.0727161   -4.9886234    687.70258  0.054218116  0.054638322            3 
 1058000    1.0760803   -4.9816735    691.59481  0.054473441  0.054629613            3 
 1059000    1.0811799   -4.9674299    691.71172  0.054431203  0.054620735            6 
 1060000    1.0515971   -4.9672822    691.10429  0.054332098  0.054612156            3 
 1061000    1.0785489   -4.9541631    691.91758  0.054344768  0.054603397            6 
 1062000    1.0894472   -4.9405852    693.59451  0.054425181   0.05459455            3 
 1063000    1.0696821    -4.955497      692.847  0.054315381  0.054585797            1 
 1064000    1.0986528   -4.9868004    694.61146  0.054402526  0.054576918            2 
 1065000    1.0990486   -4.9735302    692.33727  0.054173495  0.054567939            3 
 1066000    1.0995515   -4.9926457    692.27291  0.054117645  0.054558798            6 
 1067000    1.0844928   -4.9825457    691.05202  0.053971573  0.054549636            2 
 1068000    1.0748389   -4.9823859    695.57241  0.054273752  0.054540049            3 
 1069000    1.0795591   -4.9854277    691.68177  0.053919689  0.054530582            2 
 1070000    1.0731768   -4.9683188    695.86613  0.054195181  0.054521038            2 
 1071000    1.0685515   -5.0033555    693.15038  0.053933269  0.054511648            5 
 1072000    1.0874011   -5.0119101    693.44683  0.053906004  0.054502357            2 
 1073000    1.0833268   -4.9598036    695.16444  0.053989161  0.054492937            4 
 1074000    1.0649752   -4.9658463     697.2994  0.054104547  0.054483445            2 
 1075000    1.1255521   -4.9857343    697.90857   0.05410144  0.054473926            3 
 1076000    1.0771626   -4.9737104    696.08738  0.053910113  0.054464287            4 
 1077000    1.0899597   -4.9801936     699.8664   0.05415246  0.054454793           10 
 1078000    1.0837716   -4.9764045     696.1221  0.053812779  0.054445065            5 
 1079000    1.0677693      -4.9728    697.64284  0.053880355   0.05443552            2 
 1080000     1.073128   -4.9858501    697.02503  0.053782796  0.054425678            4 
 1081000    1.1040878   -4.9851773      699.582  0.053930157  0.054415856            3 
 1082000    1.0726093   -5.0219764    698.89171   0.05382715  0.054406135            3 
 1083000    1.0664767   -4.9637571    702.66776  0.054068003  0.054396775            4 
 1084000       1.0747   -4.9701008    703.45722  0.054078815  0.054387474            4 
 1085000    1.1004667   -5.0023727    702.69786   0.05397065   0.05437821            4 
 1086000    1.0669861   -4.9710786     705.7768  0.054157213  0.054368778            2 
 1087000    1.0783854   -4.9660977    703.35626  0.053921823  0.054359484            2 
 1088000     1.065645   -5.0067773     706.2417  0.054093267  0.054350212            2 
 1089000    1.0784582    -4.988906    702.84106  0.053783368  0.054340851            2 
 1090000    1.0582043   -4.9807659    707.02467  0.054053873  0.054331276            1 
 1091000    1.0920867   -4.9761283    707.59806  0.054048125  0.054321826            2 
 1092000    1.0795733   -4.9513847    709.16573  0.054118264  0.054312591            3 
 1093000    1.0924675    -4.995546    706.61776  0.053874486  0.054303471            3 
 1094000    1.0915453    -4.979034    707.50138  0.053892549  0.054294143            4 
 1095000     1.076084   -4.9689017    709.87269  0.054023797   0.05428478            2 
 1096000    1.0702433   -4.9679558    709.55727  0.053950522  0.054275214            3 
 1097000    1.1035526    -4.977528    708.77225  0.053841708  0.054266106            2 
 1098000    1.0723788   -5.0026393    710.80772  0.053947155  0.054256886            1 
 1099000    1.0551321   -4.9667078    710.44461  0.053870535  0.054247531            3 
 1100000     1.065724   -4.9811827    711.59717  0.053908876  0.054238112            4 
 1101000    1.0735303   -4.9662898    710.90601    0.0538076  0.054228806            5 
 1102000    1.0854867   -4.9553529    710.93529  0.053760986  0.054219421            2 
 1103000    1.0870438    -4.974384    713.86486   0.05393358  0.054210569            2 
 1104000    1.0798147   -4.9849791    712.04588  0.053747424  0.054201617            3 
 1105000    1.0526593   -5.0006608     712.8162  0.053756878  0.054192452            2 
 1106000     1.065945    -4.962832    713.65564  0.053771522  0.054182789            4 
 1107000    1.0854748    -4.981277    713.54134  0.053714343  0.054173473            2 
 1108000     1.071959   -4.9903303    713.19805  0.053640046  0.054163642            5 
 1109000      1.07946   -4.9770158    714.64939  0.053700736    0.0541541            3 
 1110000    1.0783715   -4.9757111    716.89739  0.053821126  0.054144347            2 
 1111000    1.0557133   -4.9701528    717.39499  0.053810005  0.054134802            4 
 1112000    1.0892373   -5.0110794    715.22456  0.053598963   0.05412484            3 
 1113000    1.0738203   -4.9456123    716.31109  0.053632157  0.054114928            2 
 1114000    1.0517321   -4.9295291    720.44069   0.05389293  0.054105613            2 
 1115000    1.0612219   -4.9969326    719.91365  0.053805205  0.054095743            6 
 1116000    1.0706053   -4.9764607    719.84238  0.053751671  0.054086999            3 
 1117000    1.0650754   -5.0109102    717.70766   0.05354429  0.054077947            4 
 1118000    1.0752922   -4.9659557    722.84129  0.053879047  0.054068461            2 
 1119000    1.0684927   -4.9824344    722.12296  0.053777402  0.054058843            3 
 1120000    1.0771441   -4.9916632     720.0039  0.053571718  0.054049192            5 
 1121000    1.0680269   -4.9947077    720.94138   0.05359362  0.054039324            4 
 1122000    1.0823754   -4.9801791     722.1334  0.053634388  0.054030249            3 
 1123000     1.060116    -4.976408    724.08259   0.05373127  0.054020855            5 
 1124000    1.0666453   -4.9853671    722.19626  0.053543613  0.054011546            3 
 1125000    1.0912078   -5.0049065    723.54287  0.053595768  0.054002122            3 
 1126000    1.0728672   -4.9938034    724.20693  0.053597316  0.053992436            2 
 1127000    1.0655198   -4.9884421    727.61888  0.053802047  0.053983451            2 
 1128000    1.0653145    -5.007824    723.88581  0.053478561  0.053974272            5 
 1129000    1.0761399   -5.0258127    725.58062   0.05355629  0.053964944            6 
 1130000    1.0929638   -4.9735196    728.61014  0.053732311  0.053955535            5 
 1131000     1.071871   -5.0165643    723.17316    0.0532842  0.053946206            2 
 1132000    1.0608956   -4.9646449    729.92642  0.053734277  0.053936771            3 
 1133000    1.0764037   -4.9901292    729.07935  0.053624547  0.053927572            1 
 1134000    1.0782974    -4.974767    729.56624  0.053613039  0.053918176            3 
 1135000    1.0730579   -4.9651882    728.35527  0.053476892  0.053908872            2 
 1136000     1.080757   -5.0000495    729.55781  0.053518032   0.05389963           11 
 1137000    1.0706028   -4.9799334    727.66938  0.053332555  0.053890527            3 
 1138000    1.0734529   -5.0259595    728.72086  0.053362687  0.053881036            6 
 1139000    1.0937839   -5.0037763    733.25729  0.053647738  0.053871514            2 
 1140000    1.0344487   -4.9867775    732.69979  0.053559926  0.053862286            1 
 1141000    1.0610614   -5.0147362    730.10462  0.053323446  0.053852736            2 
 1142000    1.0642491   -5.0034085    734.11372  0.053569303  0.053843192            9 
 1143000    1.0699912   -5.0194852    731.40892  0.053325235  0.053833319            3 
 1144000    1.0646697   -5.0014636     730.3001  0.053197851  0.053823888            4 
 1145000    1.0795443   -5.0287005    730.89778  0.053194889  0.053814114            2 
 1146000      1.06738   -5.0117943    733.61479  0.053346043  0.053803906            4 
 1147000    1.0481599   -5.0172221    733.04863  0.053258401   0.05379403            5 
 1148000    1.0576226   -4.9690789    736.04092  0.053429219  0.053784339            2 
 1149000    1.0634578   -4.9983573    736.21321  0.053395214  0.053774728            3 
 1150000    1.0900446   -5.0212083    736.77273  0.053389328  0.053765167            4 
 1151000    1.0346218   -4.9684732    739.08635  0.053510451  0.053755615            6 
 1152000    1.0688354   -5.0277795    738.37341  0.053412428  0.053746139            2 
 1153000    1.0764331   -5.0463963    738.39901  0.053367954  0.053736535            6 
 1154000    1.0818765   -4.9925326    739.56405  0.053405838  0.053726868            5 
 1155000    1.0546762   -5.0403465    735.60794  0.053074166  0.053717384            4 
 1156000    1.0757279   -5.0070404    737.36601  0.053154989  0.053707646            2 
 1157000    1.0729273   -4.9885126    741.94358  0.053438748  0.053697938            2 
 1158000    1.0786476   -5.0008577    738.87113  0.053171497  0.053688561            6 
 1159000     1.075976   -5.0168344    741.30204  0.053300406  0.053679253            3 
 1160000    1.0817768   -4.9869231    745.81327  0.053578539  0.053670204            2 
 1161000     1.065792   -5.0292116     743.4892  0.053365576   0.05366082            6 
 1162000    1.0432653   -5.0285576    740.90789   0.05313453  0.053651706            4 
 1163000    1.0595492   -4.9606695     743.7301  0.053291065  0.053642246            3 
 1164000    1.0780861   -4.9781987    746.44783   0.05343985  0.053633344            2 
 1165000    1.0635134   -5.0177352     742.8642   0.05313764  0.053623871            2 
 1166000    1.0926323   -4.9912648    743.32516  0.053125011  0.053614452            3 
 1167000    1.0751448   -4.9991998    741.29669  0.052934639  0.053605039            2 
 1168000    1.0718301   -5.0317331    743.13175  0.053020245    0.0535955            5 
 1169000    1.0485555   -5.0263697    743.77789   0.05302095  0.053585507            2 
 1170000    1.0715193   -5.0283935    744.23811  0.053008412  0.053575587            4 
 1171000    1.0692294   -4.9932616     748.9348  0.053297381   0.05356573            1 
 1172000    1.0524085   -5.0077379    744.89345  0.052964551  0.053555728            2 
 1173000    1.0576702   -4.9635572    747.34841  0.053093805  0.053545938            4 
 1174000    1.0811155   -4.9951308    748.89997  0.053158715  0.053536148            3 
 1175000    1.0402366    -4.996534    749.44205  0.053151919   0.05352641            2 
 1176000    1.0851921   -5.0231791    749.72762  0.053126957  0.053516983            3 
 1177000    1.0698866   -4.9870631    749.95411  0.053097855   0.05350754            3 
 1178000    1.0607727    -5.004271    751.37622  0.053153383  0.053497877            6 
 1179000    1.0614329   -5.0238681     754.0012  0.053293836  0.053488349            2 
 1180000     1.050208   -4.9821208    752.48633   0.05314169  0.053478755            4 
 1181000    1.0582808    -5.035371    752.12095  0.053070911  0.053469464            4 
 1182000    1.0609866   -5.0214092    749.50728  0.052841743  0.053459578            3 
 1183000    1.0549669    -4.996831    751.99757  0.052972497  0.053449715            2 
 1184000    1.0453746    -5.018251    753.90303  0.053061869  0.053440078            2 
 1185000    1.0639929   -5.0507452     751.0089  0.052813566  0.053429938            5 
 1186000    1.0520897   -5.0043712    754.59588  0.053021071   0.05342001            4 
 1187000    1.0338639   -4.9798624    753.51766  0.052900707  0.053409922            2 
 1188000    1.0590526   -4.9927795    756.96533  0.053098017  0.053399871            4 
 1189000    1.0452444   -5.0056989    755.58037  0.052956292  0.053390076            1 
 1190000     1.036403   -4.9821319    754.62461  0.052844861  0.053380104            4 
 1191000     1.060338   -5.0066816    756.08473  0.052902654  0.053370213            5 
 1192000    1.0615716   -4.9662449     757.1699  0.052934137  0.053360039            5 
 1193000    1.0427895   -5.0204347    754.94636  0.052734448  0.053350466            3 
 1194000     1.055577   -5.0215913    758.57017    0.0529432  0.053340341            3 
 1195000    1.0447293   -4.9942152    756.89627  0.052782166  0.053330347            6 
 1196000    1.0724332   -4.9715192    760.74496  0.053006198   0.05332052            2 
 1197000    1.0827983    -4.984262    761.59559  0.053021136  0.053311042            3 
 1198000    1.0639533   -5.0013448    761.73889  0.052986845  0.053301866            3 
 1199000    1.0570063   -4.9880487    761.77571  0.052945212  0.053292052            5 
 1200000    1.0499492   -4.9983846    761.72818   0.05289779  0.053282708            4 
 1201000    1.0663513   -5.0506807    759.62108  0.052707541  0.053273431            3 
 1202000    1.0516305   -4.9784076    765.26454  0.053054946  0.053263553            5 
 1203000    1.0734102   -5.0083622    764.12952   0.05293222  0.053254143            3 
 1204000    1.0523474   -4.9707228    765.56534  0.052987634  0.053244736            3 
 1205000    1.0406823   -5.0013605    763.34778  0.052790303  0.053235316            3 
 1206000     1.051953   -5.0305938    763.64799  0.052767274  0.053225457            5 
 1207000    1.0562273   -5.0612856    768.01124  0.053024803  0.053215673            2 
 1208000    1.0653833   -4.9899731    766.77158   0.05289539  0.053206214            4 
 1209000    1.0530883   -5.0087556    766.96161  0.052864737  0.053196668            3 
 1210000    1.0711269   -4.9952177    766.79897  0.052809846   0.05318709            3 
 1211000    1.0657029   -5.0225196    766.49114  0.052745055  0.053177643            4 
 1212000    1.0554333   -5.0193472     768.8433  0.052863263  0.053168064            2 
 1213000    1.0478051    -5.014392    766.93787  0.052688779  0.053158686            5 
 1214000    1.0593798   -5.0262662    770.05706  0.052859491  0.053149549            4 
 1215000    1.0728257   -4.9963799    771.99645  0.052949002  0.053140203            1 
 1216000     1.051403   -5.0229899    773.72564  0.053023961   0.05313136            3 
 1217000     1.067984   -5.0201844    771.80773  0.052849064  0.053122875            3 
 1218000    1.0357565   -5.0481595    769.86631  0.052672846  0.053114293            2 
 1219000    1.0822335   -5.0370665    772.36195  0.052800243   0.05310531            4 
 1220000    1.0560332   -5.0124342    776.68812  0.053052467  0.053096217            5 
 1221000      1.05511   -5.0355441    773.16764  0.052768744  0.053087559            7 
 1222000    1.0715331   -5.0256556      775.232  0.052866339  0.053078841            1 
 1223000    1.0826504   -4.9905154    780.79733  0.053202326  0.053070264            3 
 1224000    1.0398609   -5.0131672    775.22336  0.052779368  0.053061742            2 
 1225000    1.0649413   -5.0101524    778.29269  0.052945081  0.053053342            2 
 1226000    1.0488409   -5.0668032    776.03563  0.052748479  0.053044555            4 
 1227000    1.0239024   -5.0584204    776.71273  0.052751476  0.053035431            3 
 1228000    1.0591358   -5.0123976    779.33121  0.052886211  0.053026645            5 
 1229000    1.0781919   -5.0466833    774.03676  0.052484185  0.053017837            4 
 1230000    1.0541196   -5.0420959      778.859  0.052768225  0.053008623            4 
 1231000    1.0674819   -5.0570545    776.32255  0.052553652  0.052999683            2 
 1232000    1.0502996   -5.0316701    779.69377  0.052739027  0.052991252            7 
 1233000    1.0326897   -5.0326141    780.09081  0.052723088  0.052982252            2 
 1234000    1.0649786   -5.0130554    781.87969  0.052801168  0.052973492            5 
 1235000    1.0565792   -5.0371827    779.96493  0.052629213  0.052964798            4 
 1236000    1.0442047   -5.0100623    781.66448  0.052701219  0.052956274            8 
 1237000    1.0643314   -5.0098994    784.31668  0.052837286  0.052947554            5 
 1238000    1.0554635   -5.0292985    783.06795  0.052710551  0.052938922            3 
 1239000    1.0532762   -5.0369293    783.39451  0.052689973  0.052930481            4 
 1240000    1.0489048   -5.0453301    782.82585  0.052609264  0.052921906            3 
 1241000    1.0404902   -5.0169672    782.57633  0.052550116  0.052913271            2 
 1242000    1.0515517   -5.0105827    788.43747  0.052901065  0.052904627            2 
 1243000    1.0504594    -5.009209    785.56734  0.052666086  0.052896186            2 
 1244000    1.0655798      -5.0107    788.12129  0.052794834  0.052887909            3 
 1245000    1.0775641    -4.999642     786.9516  0.052674137  0.052879685            3 
 1246000    1.0203472   -5.0180465    787.54836  0.052671774  0.052870904            2 
 1247000    1.0264393   -5.0163784    788.58846  0.052699042  0.052862059            3 
 1248000    1.0540392   -5.0357146     787.2567  0.052567888  0.052853642            3 
 1249000    1.0631932   -5.0352104    787.81458  0.052563022  0.052844782            3 
 1250000    1.0459295   -5.0061711    789.81518  0.052654345  0.052835764            2 
 1251000    1.0549472   -5.0695129    787.55418  0.052461642  0.052826657            2 
 1252000    1.0550389   -5.0148884     790.6806  0.052627835  0.052817699            2 
 1253000    1.0217581   -5.0287482    792.92885  0.052735358  0.052809039            4 
 1254000    1.0580939   -5.0282722    789.64085  0.052474804  0.052800361            3 
 1255000    1.0707059   -5.0462119    789.86211  0.052447683  0.052791796            2 
 1256000    1.0306787   -5.0599473    787.92772  0.052277582  0.052782556            3 
 1257000    1.0481771   -5.0569162    791.03883  0.052442245   0.05277306            7 
 1258000    1.0612325   -5.0005606     792.4685  0.052495264  0.052763984            3 
 1259000    1.0522627   -5.0085535    792.28481  0.052441409   0.05275485            4 
 1260000    1.0471329   -5.0042709    794.98475  0.052578357  0.052745791            2 
 1261000    1.0515307   -5.0640888    792.48942  0.052371757  0.052737127            2 
 1262000    1.0466849   -5.0200361      793.651   0.05240696  0.052727936            8 
 1263000    1.0635031   -5.0351242    795.68077  0.052499391  0.052718522            2 
 1264000    1.0723573   -5.0792589     793.5058  0.052314465  0.052709094            2 
 1265000     1.064154   -5.0375084    791.96577  0.052171658   0.05269976            2 
 1266000    1.0395685   -5.0243222    795.73705  0.052378689  0.052690228            3 
 1267000    1.0688021   -5.0383659    797.31549  0.052441166  0.052680781            2 
 1268000    1.0685499   -5.0126162    797.85988  0.052435586  0.052671482            3 
 1269000    1.0441685   -5.0517767    795.39858  0.052232636  0.052661975            6 
 1270000    1.0452538   -5.0503934    796.50516  0.052264118   0.05265239            5 
 1271000    1.0622295   -5.0034511    801.22329  0.052532343  0.052643283            3 
 1272000    1.0578837   -5.0482157    797.83311  0.052268941  0.052633958            1 
 1273000    1.0402564   -5.0184905    798.40454  0.052265288  0.052624572            2 
 1274000    1.0425196   -5.0785243    797.02273  0.052133878  0.052615497            3 
 1275000     1.038186   -4.9943988    799.33345  0.052244016  0.052606079            3 
 1276000    1.0451975   -5.0294599    799.69294   0.05222655  0.052596803            4 
 1277000    1.0630334   -5.0386976    801.66947  0.052314635  0.052587341            2 
 1278000    1.0635287   -5.0480574    800.40435  0.052191207  0.052578088            4 
 1279000    1.0593044    -5.049359    801.57069  0.052226393   0.05256849            3 
 1280000    1.0481179   -5.0572179    802.49964   0.05224607  0.052558998            2 
 1281000    1.0502131    -5.035388    803.85229  0.052293279  0.052549807            3 
 1282000    1.0462567    -5.069535     800.1272  0.052010349  0.052540378            3 
 1283000    1.0640184   -5.0635348    804.95874  0.052283628  0.052530488            3 
 1284000    1.0633687   -5.0436455    801.37957  0.052010616  0.052520987            3 
 1285000    1.0264119   -5.0142804    804.35161   0.05216288  0.052511041            5 
 1286000    1.0333493    -5.045363    803.58025  0.052072334  0.052501302            3 
 1287000     1.045534   -5.0371069    803.30088  0.052013784  0.052492006            1 
 1288000    1.0516625   -5.0476345     806.7278  0.052195122  0.052482483            3 
 1289000    1.0553808   -5.0132109    809.21233  0.052315253  0.052473001            2 
 1290000    1.0513245   -5.0551717    805.54351  0.052037694  0.052463875            2 
 1291000    1.0609001   -5.0319519    807.56213  0.052127687  0.052454314            3 
 1292000    1.0659976   -5.0539119    806.11554  0.051994036  0.052444972            2 
 1293000    1.0318511   -5.0535137    806.73815  0.051993951  0.052435239            6 
 1294000    1.0356534   -5.0545895    807.76544  0.052019928  0.052425917            3 
 1295000    1.0632941   -5.0608077    807.98959  0.051994182  0.052416154            6 
 1296000    1.0653306    -5.061844    808.83398  0.052008358  0.052406782            4 
 1297000    1.0299516   -5.0168828    812.88221  0.052228361  0.052397625            5 
 1298000    1.0735157   -5.0514433    811.56691  0.052103679  0.052388291            3 
 1299000    1.0672376   -5.0166465    813.32298  0.052176224  0.052379163            5 
 1300000    1.0548689   -5.0627768    812.27298  0.052068781  0.052370008            3 
 1301000    1.0232385    -5.005661    813.48083  0.052106125  0.052360915            6 
 1302000    1.0644652   -5.0417332    814.28578  0.052117625  0.052351638            2 
 1303000    1.0444741   -5.0093868    815.60517  0.052162009  0.052342628            3 
 1304000    1.0300617   -5.0432787    813.32863  0.051976523  0.052333081            3 
 1305000    1.0564081   -5.0610476    813.80956  0.051967405  0.052323673            4 
 1306000    1.0505959   -5.0411913    813.76902  0.051925027  0.052314131            2 
 1307000    1.0477429   -5.0542317    812.57218  0.051808989  0.052304812            6 
 1308000    1.0310906   -5.0528901    815.90983  0.051982023   0.05229511            1 
 1309000    1.0971679   -5.0468291    812.07454   0.05169815  0.052285461            7 
 1310000    1.0657588   -5.0654883    816.07039  0.051912875  0.052275755            2 
 1311000    1.0322471   -5.0725006     816.2996  0.051887846  0.052266084            7 
 1312000     1.027786   -5.0535266    815.10772  0.051772594  0.052256567            4 
 1313000    1.0407616   -5.0741824    817.19754  0.051865799  0.052247064            4 
 1314000    1.0506225   -5.0547108    820.89757  0.052060983  0.052237466            4 
 1315000    1.0451634   -5.0199249      820.915  0.052022497  0.052228264            2 
 1316000      1.05593   -5.0379933    821.65564  0.052029866  0.052218877            5 
 1317000    1.0334264   -5.0390047    820.14467  0.051894753  0.052209703            7 
 1318000     1.051194   -5.0643861    818.78511  0.051769418  0.052200401            4 
 1319000    1.0314382   -5.0726805    822.20601  0.051946298  0.052190943            5 
 1320000    1.0560707   -5.0574896    819.92056  0.051762662  0.052181667            6 
 1321000    1.0430679    -5.046965    823.50224  0.051949422  0.052172368            4 
 1322000    1.0372736   -5.0540753    822.80874  0.051866411   0.05216329            7 
 1323000    1.0432307    -5.073553    821.52244  0.051746185  0.052153991            2 
 1324000    1.0234823    -5.062818     822.6885  0.051780495  0.052144254            4 
 1325000      1.02941   -5.0361101    822.88873  0.051754008  0.052134459            4 
 1326000    1.0550683    -5.056637    824.93366  0.051843493  0.052125135            4 
 1327000    1.0503495   -5.0307834    828.56244  0.052032306  0.052115597            5 
 1328000    1.0367264   -5.0532746    824.12861  0.051714898  0.052106599            3 
 1329000    1.0351554   -5.0820172    822.95636   0.05160248  0.052097143            4 
 1330000    1.0408327   -5.0660343     826.7915  0.051803979  0.052087932            4 
 1331000    1.0471652   -5.0796174    826.30997  0.051734909  0.052078672            5 
 1332000    1.0395973   -5.0363751    829.44817  0.051892403  0.052069592            3 
 1333000    1.0230969   -5.0408175    828.89117  0.051818652  0.052060818            2 
 1334000    1.0258407   -5.0498139    831.21409  0.051924918  0.052051536            3 
 1335000    1.0305387   -5.0527789    831.76745  0.051920565  0.052042871            3 
 1336000     1.031727   -5.0709617    830.95067  0.051830756  0.052033681            3 
 1337000    1.0132094   -5.0383109    829.77141  0.051718487  0.052024938            2 
 1338000    1.0488533   -5.0476613    834.74356  0.051989509  0.052015881            5 
 1339000    1.0490806   -5.0343793    832.86138  0.051833544  0.052006961            3 
 1340000    1.0454478   -5.0433831    830.20655  0.051629761  0.051997797            2 
 1341000    1.0498662   -5.0716104    831.99236  0.051702235  0.051988633            4 
 1342000    1.0224254   -5.0409259    832.80672  0.051714277  0.051979312            7 
 1343000    1.0439739   -5.0587171    834.75528  0.051796679  0.051969775            2 
 1344000    1.0290248   -5.0685692    831.20952  0.051538288  0.051960119            4 
 1345000    1.0430546   -5.0365918    833.65672  0.051651593   0.05195053            8 
 1346000    1.0295341     -5.07295    832.11153  0.051517554  0.051940919            2 
 1347000    1.0446838   -5.0500102    834.11131  0.051603026  0.051931461            4 
 1348000      1.03968   -5.0881508    834.23138  0.051572167  0.051921869            5 
 1349000    1.0295726   -5.0442945    833.82597  0.051508894  0.051912385            6 
 1350000     1.038922   -5.0795525    835.40385  0.051568139  0.051902908            2 
 1351000    1.0324031   -5.0663145    833.96246   0.05144106  0.051893223            9 
 1352000    1.0170942   -5.0769983    835.41898  0.051492787  0.051883438            3 
 1353000    1.0137437   -5.0880831    832.84862  0.051296417  0.051873478            8 
 1354000    1.0310699   -5.0743359    836.86612  0.051505793  0.051863458            4 
 1355000    1.0305145   -5.0661467    835.29184  0.051370962  0.051853422            2 
 1356000    1.0392574   -5.0548028    837.09679  0.051444001  0.051843574            4 
 1357000    1.0628058   -5.0862007    833.08839  0.051159935  0.051833339            2 
 1358000     1.035034   -5.0673465    837.13385  0.051370511  0.051823225            5 
 1359000     1.040156   -5.0783458    836.32359  0.051283026  0.051813295            3 
 1360000    1.0218209   -5.0754904    836.81073  0.051275167  0.051803265            2 
 1361000     1.025792   -5.0300739    840.45011   0.05146033  0.051793309            3 
 1362000    1.0557355   -5.0344649    843.02237   0.05157993  0.051783675            4 
 1363000    1.0381705   -5.0704908    840.83172  0.051408151  0.051773638            4 
 1364000    1.0374388   -5.0719947    842.41179  0.051466996  0.051763705            4 
 1365000    1.0566092   -5.0609552     842.5384  0.051437021  0.051753809            2 
 1366000    1.0332814   -5.0802936    839.10408  0.051189854  0.051744196            4 
 1367000    1.0426546    -5.033064    843.15188  0.051399164  0.051734335            3 
 1368000    1.0262612   -5.0463355    842.15078  0.051300608   0.05172464            5 
 1369000     1.053234   -5.0825144    845.42403  0.051462383  0.051715144            3 
 1370000    1.0187627   -5.0373536    844.35947  0.051360065  0.051705472            1 
 1371000    1.0629368   -5.0696464    845.54211  0.051394488  0.051696009            2 
 1372000    1.0266571   -5.0978629    843.26457  0.051218693  0.051686603            3 
 1373000    1.0282637   -5.1052423    847.17991  0.051419028  0.051677486            3 
 1374000      1.02932   -5.0866094    844.19333  0.051200469  0.051668056            4 
 1375000    1.0226993   -5.0855519    843.61132  0.051127959  0.051658563            1 
 1376000    1.0470913   -5.0544851    850.86714  0.051530229  0.051649109            5 
 1377000    1.0420793    -5.077808    848.80608  0.051368076  0.051639649            3 
 1378000     1.040516   -5.0553574     847.8104  0.051270585  0.051629723            3 
 1379000    1.0287473    -5.073004    847.80893  0.051233317  0.051619721            3 
 1380000    1.0339905   -5.0736248    845.10942  0.051033177  0.051609652            4 
 1381000    1.0264622   -5.0443105    849.12292   0.05123841  0.051599516            4 
 1382000    1.0385172   -5.0815342    846.62815  0.051050901  0.051589414            3 
 1383000    1.0082285   -5.0576696    851.83563  0.051327768  0.051579599            2 
 1384000    1.0175485   -5.0762523    851.25202  0.051255541  0.051569952            2 
 1385000    1.0410449   -5.0911151    849.06375  0.051086868  0.051560134            3 
 1386000    1.0368544   -5.0739412     850.7324  0.051150337  0.051550003            4 
 1387000      1.00027   -5.0819957    850.20399  0.051081711  0.051540073            3 
 1388000    0.9897942   -5.0747783    853.60779  0.051249267  0.051530281            2 
 1389000    1.0203535   -5.0835963    854.56832  0.051269997  0.051520607            2 
 1390000    1.0327504   -5.0736876    852.63296  0.051117084   0.05151109            3 
 1391000    1.0322199   -5.0994387     853.0092  0.051102876  0.051501134            5 
 1392000    1.0079529   -5.0713361    853.60031  0.051101551   0.05149135            6 
 1393000    1.0219168   -5.0818446    853.75274  0.051073985  0.051481216            3 
 1394000    1.0182887    -5.060569    854.40412  0.051076286   0.05147143            3 
 1395000    1.0381164   -5.0862565    854.34807  0.051036325  0.051461319            3 
 1396000    1.0197516   -5.1198999    852.96319  0.050917096  0.051451246            8 
 1397000      1.01957   -5.0750941    856.79166  0.051109023  0.051441343            1 
 1398000    1.0393264   -5.0628846    855.84066  0.051015776  0.051431384            2 
 1399000    1.0320962   -5.0914312    858.32858  0.051127506   0.05142142            3 
 1400000    1.0125785   -5.0873076    856.59379  0.050987725  0.051411718            3 
 1401000    1.0296747   -5.0956654    855.51802  0.050887344   0.05140147            3 
 1402000    1.0099785    -5.085417    858.16206  0.051008206  0.051391467            3 
 1403000    1.0499578   -5.0662419    860.44746  0.051107594  0.051381384            4 
 1404000    1.0407015   -5.0799387    855.48031  0.050776371  0.051371674            5 
 1405000    1.0287909   -5.0864185     857.9147   0.05088462  0.051361615            4 
 1406000    1.0129532   -5.0450331    857.17929  0.050804842  0.051351618            5 
 1407000    1.0246098   -5.1186039    857.76827  0.050803617  0.051341554            4 
 1408000     1.038062   -5.0467533    860.89287  0.050952467  0.051331196            2 
 1409000    1.0252214   -5.1121507    859.93056  0.050859389  0.051321068            3 
 1410000    1.0597226   -5.0892768    859.00142  0.050768405  0.051310705            7 
 1411000    1.0113812   -5.0991434    858.07981  0.050677995  0.051300532            2 
 1412000    1.0295776   -5.0956652    859.11368  0.050703121  0.051290178            8 
 1413000     1.017359   -5.0717063    861.41387  0.050802894  0.051279866            5 
 1414000    1.0053091   -5.0457861    865.37586  0.051000463  0.051269698            3 
 1415000     1.038269   -5.1027244    860.55763  0.050680661   0.05125984            3 
 1416000    1.0006987   -5.0754746      864.237  0.050861405  0.051249571            3 
 1417000    1.0196655   -5.1001941    860.29546  0.050593711  0.051239342            3 
 1418000    1.0238459   -5.0884969    865.08969   0.05083978  0.051228853            5 
 1419000    1.0286696   -5.0869606    863.11027  0.050687706   0.05121859            3 
 1420000    1.0269325   -5.0551575    865.97458  0.050820104  0.051208339            4 
 1421000    1.0130142   -5.0487271     869.1001  0.050967634  0.051198058            1 
 1422000    1.0216468   -5.0623832    866.10299  0.050756152  0.051187284            6 
 1423000    1.0302661   -5.1356722    863.41775  0.050563232   0.05117694            4 
 1424000    1.0137349   -5.0671879    866.40207  0.050702368  0.051166538            3 
 1425000    1.0199306    -5.064111    864.98512  0.050583925  0.051156197            4 
 1426000    1.0275715   -5.0856079    867.00668   0.05066659  0.051145962            4 
 1427000    1.0111431   -5.1001207     862.5581  0.050371297  0.051135139            3 
 1428000    1.0088008   -5.0877059    864.97333  0.050476968  0.051124439            2 
 1429000     1.009468   -5.0682187    865.86879  0.050493865  0.051113838            2 
 1430000    1.0305796   -5.0949784    866.72216  0.050508284  0.051103364            2 
 1431000    1.0089455   -5.0926395    866.93557  0.050485416  0.051092933            6 
 1432000    1.0068972   -5.0937961    869.84711  0.050619594  0.051082526            3 
 1433000      1.02975    -5.092427    869.64135  0.050572305   0.05107195            2 
 1434000    1.0244061   -5.0962147    872.01148  0.050674772  0.051061514            4 
 1435000    1.0366263   -5.0870467    873.78816  0.050742634  0.051051476            4 
 1436000    1.0172364   -5.0684801    872.51544   0.05063344  0.051041027            2 
 1437000    1.0530234   -5.1207057    872.67252  0.050607314  0.051030738            8 
 1438000    1.0253728    -5.099904    867.62905  0.050279847  0.051020391            8 
 1439000    1.0345214   -5.0812167    872.73549  0.050540624   0.05100967            2 
 1440000   0.99352518   -5.0757313    874.34009  0.050598385  0.050999505            5 
 1441000    1.0338261   -5.0679515    872.85524  0.050477402  0.050989056            5 
 1442000    1.0264563    -5.063819    876.36258  0.050645087  0.050978858            3 
 1443000     1.031388   -5.1042877    874.68203  0.050512938   0.05096832            2 
 1444000    1.0376158   -5.0973163    874.63074  0.050474997  0.050957718            2 
 1445000    1.0098642   -5.1097745    874.02336  0.050405038  0.050947219            7 
 1446000    1.0432365   -5.0683007    874.40898  0.050392403   0.05093645            3 
 1447000    1.0207752   -5.0841167    874.21021   0.05034613  0.050925756            4 
 1448000    1.0262706   -5.0918851    875.16647  0.050366394  0.050915095            4 
 1449000    1.0156747   -5.0835909    878.44226  0.050520029  0.050904592            6 
 1450000    1.0159831   -5.0820161    873.19075  0.050183377    0.0508938            2 
 1451000    1.0255741   -5.1199562    872.53232  0.050110976  0.050883076            6 
 1452000    1.0331156   -5.0951103    875.16312  0.050227452   0.05087219            2 
 1453000    1.0097854   -5.0751943    873.77178  0.050113087  0.050861487            3 
 1454000    1.0148562   -5.0934292    879.72535  0.050419839  0.050850752            5 
 1455000    1.0229737   -5.0700433    880.01855  0.050401979  0.050840045            6 
 1456000    1.0278247    -5.066078     878.0381  0.050254012  0.050829347            3 
 1457000     1.010357   -5.0667555     879.4214  0.050298639  0.050818584            4 
 1458000    1.0282248   -5.0863092    880.62723  0.050333061  0.050807802            3 
 1459000     1.006665   -5.1076775    876.77228   0.05007838   0.05079682            3 
 1460000    1.0100768   -5.1056947    879.81837  0.050217944   0.05078591            1 
 1461000    1.0295585   -5.0978065    880.74272  0.050236295  0.050774725            5 
 1462000    1.0298804   -5.0654527    883.40453  0.050353655  0.050763612            3 
 1463000    1.0089318   -5.0715715    881.50629  0.050211112  0.050752498            3 
 1464000    1.0230474   -5.0656721    880.97178   0.05014639  0.050741439            3 
 1465000    1.0093318    -5.076705    879.93363  0.050053107   0.05073066            3 
 1466000    1.0201605   -5.0784721    884.45264  0.050275844  0.050719685            2 
 1467000    1.0400279   -5.1439689    879.33961  0.049951125  0.050708812            6 
 1468000    1.0064583   -5.1232246    879.79347  0.049942863  0.050697837            2 
 1469000    1.0201995   -5.1414951    881.17784  0.049987397  0.050687077            4 
 1470000    1.0006499   -5.0967165    882.64692  0.050036674  0.050676096            5 
 1471000    1.0149669    -5.085636    885.55243  0.050167257  0.050665556            2 
 1472000    1.0257297   -5.0812389    885.76796  0.050145378  0.050654761            3 
 1473000    1.0221749   -5.1063173    886.26071  0.050139212  0.050644112            2 
 1474000    1.0189682   -5.0968642    885.96386  0.050088414  0.050633476            4 
 1475000     1.010975   -5.0848216    887.97066  0.050167834  0.050622785            3 
 1476000     1.012877   -5.1300467     886.4277  0.050046731  0.050612089            4 
 1477000    1.0313755   -5.0775774    888.79214   0.05014625  0.050601408            4 
 1478000    1.0062103   -5.0789993    890.66608  0.050217979  0.050590933            2 
 1479000   0.99897297    -5.082181    891.69642  0.050242079  0.050580375            3 
 1480000   0.99226212   -5.0990423    888.70484  0.050039687  0.050569927            3 
 1481000    1.0314264   -5.0976467    889.23796  0.050035897  0.050559481            4 
 1482000    1.0017338   -5.0704465      888.019  0.049933592  0.050549027            5 
 1483000    1.0255818   -5.0761868    891.92743  0.050119546  0.050538628            2 
 1484000   0.99446912   -5.1257951    889.58858  0.049954435   0.05052808            4 
 1485000    1.0160668   -5.1147985    892.26527  0.050071003  0.050517575            2 
 1486000    1.0461819    -5.063045    893.06355  0.050082074  0.050507208            4 
 1487000    1.0200829   -5.1242396    891.91662  0.049984119  0.050496634            3 
 1488000    1.0224714   -5.0884016    894.51788  0.050096208  0.050486145            4 
 1489000    1.0005983   -5.1337115    892.40464  0.049944293  0.050475392            1 
 1490000     1.019424   -5.1344313    890.69075  0.049814919  0.050464751            4 
 1491000    1.0306945   -5.0788428    895.36809  0.050042929  0.050454142            2 
 1492000   0.99917593    -5.064364    896.44305  0.050069429  0.050443635            3 
 1493000    1.0131241   -5.0759063     896.3488  0.050030632  0.050433172            4 
 1494000    1.0093807   -5.0638533    899.46746  0.050171099  0.050422884            1 
 1495000    1.0044839   -5.1064963     895.5912  0.049921471  0.050412658            3 
 1496000    1.0078987   -5.1115665    893.34676  0.049763077  0.050402236            4 
 1497000    1.0166454   -5.1319025    896.85462  0.049925107  0.050392036            3 
 1498000   0.99795414   -5.1278631    894.37083  0.049753606  0.050381494            4 
 1499000   0.99328464   -5.1028225     900.5256  0.050062575  0.050371236            3 
 1500000   0.99362176   -5.0908571    897.70967  0.049872759  0.050361196            4 
 1501000    1.0115582   -5.1377662    898.15491  0.049864252  0.050350757            3 
 1502000    1.0413496   -5.1289536    900.10165  0.049939062  0.050340503            2 
 1503000    1.0208047   -5.1281268    900.58628  0.049932706  0.050330403            4 
 1504000    1.0255697   -5.1153792    901.86369  0.049970284   0.05032024            4 
 1505000    1.0279398   -5.1220511    899.21336   0.04979033  0.050310193            4 
 1506000   0.99927263   -5.0906498    904.22888  0.050034798  0.050300208            3 
 1507000    1.0211591   -5.1109047      904.014  0.049989715  0.050290105            3 
 1508000    1.0233587   -5.1387066    900.93448  0.049786388  0.050280118            4 
 1509000    1.0211898   -5.1100938    903.35877  0.049887275  0.050270129            4 
 1510000    1.0124458    -5.119623    902.03414  0.049781134  0.050259699            8 
 1511000    1.0144269   -5.1137882    904.48112  0.049883141  0.050249602            4 
 1512000   0.99125074   -5.1085909    905.74321   0.04991971  0.050239609            4 
 1513000    1.0275991   -5.1184585    905.13092  0.049852992  0.050229485            5 
 1514000   0.99785456   -5.0975831    907.11571   0.04992931  0.050219649            3 
 1515000    1.0031593   -5.0914063    906.77493  0.049877609  0.050209686            4 
 1516000   0.98695947   -5.1032047    907.64707  0.049892649  0.050199749            5 
 1517000    1.0265845   -5.1296537    907.43287  0.049847993  0.050189798            5 
 1518000    1.0015091   -5.1226983    905.89879  0.049730939  0.050179883            6 
 1519000    1.0170501   -5.1304961    903.23339  0.049551975  0.050169418            3 
 1520000    1.0260989   -5.1019248    907.49938  0.049753255  0.050159034            2 
 1521000   0.99811742   -5.1094561     905.8525  0.049630314  0.050148864            7 
 1522000    1.0054844   -5.1046514    906.45019  0.049630431  0.050138994            2 
 1523000    1.0149069   -5.1282484    910.44379   0.04981636  0.050128749            5 
 1524000    1.0017724   -5.1023788    910.36494   0.04977936  0.050118788            5 
 1525000   0.99820291   -5.0927612    909.25885  0.049686276  0.050108465            3 
 1526000    1.0064547   -5.1321431    911.39573  0.049770409  0.050098573            8 
 1527000      1.02857   -5.1027775    911.26787  0.049730838  0.050088726            2 
 1528000    1.0143299   -5.1143761    911.84548  0.049729793  0.050078616            4 
 1529000    0.9909011    -5.107474    913.27817  0.049775353  0.050068685           11 
 1530000    1.0023639   -5.1440021    908.92267  0.049505592  0.050058664            4 
 1531000    1.0010985   -5.1238734    913.99608  0.049749406  0.050048585            6 
 1532000   0.99772625   -5.1377428    910.86422  0.049546574  0.050038114            2 
 1533000    1.0001482   -5.1382107    911.99418  0.049575679  0.050027776            5 
 1534000   0.98954213   -5.0966021     913.7884   0.04964083  0.050017649            4 
 1535000    1.0250883   -5.1102696    912.83463  0.049556712  0.050007168           13 
 1536000    1.0121078   -5.1102427    915.24123  0.049655015  0.049996735            6 
 1537000     1.016039   -5.1471198    911.62998  0.049426913   0.04998636            4 
 1538000    0.9972465   -5.1019261    914.06396  0.049526656  0.049975825            2 
 1539000    1.0093165    -5.141787    913.38143  0.049457517  0.049965261            2 
 1540000    1.0234431   -5.0901903    914.82557  0.049503548  0.049954562            3 
 1541000    1.0087082   -5.1557264    911.98439   0.04931778  0.049943916            5 
 1542000   0.98310521   -5.1166829    919.52916  0.049693534  0.049933504            2 
 1543000   0.99810243   -5.1195718    917.12572  0.049531525  0.049923422            4 
 1544000   0.99792393   -5.0868734    918.21111  0.049558026  0.049913515            2 
 1545000    1.0048952   -5.1358638    915.73964  0.049392645  0.049903448            9 
 1546000    1.0181515   -5.1186574    919.53417  0.049565231  0.049893478            5 
 1547000    1.0038159     -5.13643    918.20145  0.049461401  0.049883366            2 
 1548000    1.0186411   -5.1447563    920.43402  0.049549635  0.049873407            5 
 1549000    1.0084006    -5.133498     921.2732  0.049562793  0.049863417            4 
 1550000    1.0040912    -5.140955     919.1669  0.049417575  0.049853512            2 
 1551000   0.99723887   -5.1061554    925.32981  0.049716839  0.049843871            2 
 1552000     1.011956   -5.1106597     922.0422   0.04950828  0.049834028            2 
 1553000    1.0212172   -5.1261281    923.51062  0.049555195  0.049823889            4 
 1554000   0.98897447    -5.096552    925.31154  0.049619881  0.049813964            4 
 1555000    1.0165452   -5.1082327     924.3901  0.049538591  0.049803891            7 
 1556000    1.0145809   -5.1425339    922.08152  0.049383115  0.049793612            3 
 1557000    1.0069906   -5.1537377    923.77279  0.049441918  0.049783497            3 
 1558000     0.985802   -5.1200479    924.38857   0.04944312  0.049773319            3 
 1559000    1.0205074   -5.1219642     925.7914  0.049486391  0.049763429            3 
 1560000    1.0143905   -5.1253482    926.58732  0.049497186  0.049753744            5 
 1561000    1.0090576   -5.1275104    925.08308  0.049385174  0.049743549            3 
 1562000    1.0152568   -5.1644279    922.29865  0.049205007  0.049733521           10 
 1563000   0.99867767   -5.1098653    928.05886  0.049480639  0.049723386            4 
 1564000   0.99836962   -5.1236263    926.00344  0.049339484  0.049713353            1 
 1565000   0.98718052   -5.1255931    925.81549  0.049297949  0.049703248            5 
 1566000    1.0075781   -5.1656227    926.55843  0.049306004  0.049693381            3 
 1567000   0.99096868   -5.1486344    926.93519  0.049294575  0.049683119            5 
 1568000   0.97262961   -5.1193636    925.94279  0.049210395  0.049672973            4 
 1569000    1.0024031   -5.1341863    924.12884  0.049082687  0.049662899           18 
 1570000   0.99221407   -5.1192599    930.49327  0.049389239  0.049652905            4 
 1571000    1.0230138   -5.1188306    927.76389  0.049213022  0.049642755            6 
 1572000     1.000981   -5.1628825    929.29599  0.049262934  0.049632604            6 
 1573000   0.99634687   -5.1311821    931.24185  0.049334703  0.049622449            3 
 1574000     1.008316   -5.1170201    931.77941   0.04933182  0.049612427            8 
 1575000   0.97442488   -5.0977219    932.85898  0.049357618  0.049602311            2 
 1576000    1.0036836   -5.1382564     927.6328  0.049049957  0.049591949            7 
 1577000    1.0031009   -5.1176647    930.51465   0.04917114  0.049581521            3 
 1578000   0.98143068   -5.1449888    928.94605  0.049057142  0.049571272            3 
 1579000    1.0191531   -5.1291312    929.30796  0.049045174  0.049560759            3 
 1580000    1.0123188   -5.1277341    932.72272  0.049194236  0.049550239            3 
 1581000    0.9977634   -5.1338068    931.81405  0.049115225  0.049539912            6 
 1582000    1.0022934    -5.150144     930.7455  0.049027892  0.049529341            4 
 1583000   0.99269439   -5.1503758    931.63442  0.049043715  0.049518453            3 
 1584000     1.019641   -5.1434699    931.76165  0.049019447  0.049507953           10 
 1585000    0.9963591   -5.1356829    933.29695   0.04906924  0.049497275            3 
 1586000    1.0020943   -5.1328874    933.10387  0.049028156  0.049486708            5 
 1587000    1.0041098   -5.1680465    930.61749  0.048866703   0.04947603            3 
 1588000    1.0128946   -5.1312792    935.05411  0.049068751  0.049465594            7 
 1589000    1.0099412   -5.1119154    936.57899  0.049117841  0.049455274            3 
 1590000    1.0176325   -5.1489085    934.93841  0.049000965   0.04944487            2 
 1591000     1.005049    -5.158748    935.77996  0.049014245  0.049434116            3 
 1592000   0.98684575    -5.122744    936.56018  0.049024298   0.04942368            3 
 1593000    0.9901522   -5.1613942    934.72794  0.048897674  0.049413089            3 
 1594000   0.98288229   -5.1464962    937.99208  0.049037645  0.049402769            6 
 1595000   0.97960571   -5.1547053    939.29079  0.049074754  0.049392407            4 
 1596000    1.0205465   -5.1176147    939.59599  0.049059941  0.049382252            3 
 1597000   0.97530548   -5.1542035     935.9065  0.048836699  0.049371828            3 
 1598000      1.00209   -5.1446365    938.98857  0.048966863  0.049361202            3 
 1599000   0.99139537   -5.1446109    939.66214  0.048971344    0.0493508            3 
 1600000   0.98820996    -5.132753    938.24646  0.048867003  0.049340486            8 
 1601000    1.0028027   -5.1332353    939.62868  0.048908426  0.049330454            3 
 1602000    1.0080773   -5.1123578     939.4407  0.048868118  0.049320202            4 
 1603000     1.000594   -5.1730653    939.80474  0.048856558  0.049309945            3 
 1604000    0.9985529   -5.1547602     940.2835  0.048850972  0.049299748            5 
 1605000    0.9756995    -5.162793    941.74642  0.048896491  0.049289342            4 
 1606000     1.023233   -5.1421042    941.20911  0.048838165  0.049278923            3 
 1607000   0.98115608   -5.1386946    940.98892  0.048796356  0.049268359            6 
 1608000   0.99873428   -5.1174826    942.39083  0.048838663  0.049258018            2 
 1609000    1.0048264    -5.145079    941.09934   0.04874142  0.049247508            8 
 1610000   0.96676889   -5.1819872    941.82413  0.048748661  0.049236903            6 
 1611000   0.99554568   -5.1013154    944.73683  0.048869068  0.049226264            2 
 1612000   0.98702186   -5.1363886    945.55487  0.048881041  0.049215826            3 
 1613000   0.98283884   -5.1497613    944.37975  0.048790026  0.049205513            5 
 1614000    1.0122944   -5.1565597    940.67883  0.048568713  0.049195016            4 
 1615000    1.0044029   -5.1540472    946.41352  0.048834547  0.049184264            7 
 1616000    1.0003986   -5.1496099      943.869  0.048673113  0.049173641            3 
 1617000   0.98585834    -5.164508    946.36114  0.048771446  0.049163085            3 
 1618000   0.97791479   -5.1714081    944.98132  0.048670237   0.04915251            4 
 1619000   0.98665865   -5.1492318    947.31194  0.048760137   0.04914219            8 
 1620000    1.0070373   -5.1488764    945.34948  0.048629088  0.049131471            2 
 1621000   0.97527593   -5.1159896    950.37779  0.048857587  0.049121096            3 
 1622000   0.98509993   -5.1121678    949.97553  0.048806799  0.049111089            3 
 1623000   0.99898593   -5.1445873    947.88387   0.04866933  0.049100864            5 
 1624000   0.96232251   -5.1572141    950.10037  0.048753098  0.049090493            8 
 1625000   0.98943568   -5.1393199    949.48123  0.048691345  0.049080155            6 
 1626000   0.97453325   -5.1435496      950.283  0.048702491  0.049069936            4 
 1627000   0.99119219    -5.147362     948.6559  0.048589218  0.049059749            4 
 1628000    1.0048491   -5.1078359    952.19325  0.048740441  0.049049578            2 
 1629000    1.0004989   -5.1599861    952.15093  0.048708356  0.049039539            4 
 1630000   0.97626259   -5.1366184    955.66194  0.048857972  0.049029726            5 
 1631000   0.97836775   -5.1334775    953.61393  0.048723377  0.049019876            4 
 1632000    1.0150879   -5.1728544    951.16289  0.048568366  0.049009867            7 
 1633000    1.0101332   -5.1453479    951.92271  0.048577399   0.04899964            4 
 1634000    1.0012462   -5.1717723    952.32073  0.048567969  0.048989513            4 
 1635000    1.0138951   -5.1660208    954.95858   0.04867271  0.048979262            4 
 1636000     1.007007   -5.1612349    951.34723  0.048459007  0.048969318            3 
 1637000    0.9982164   -5.1671383    955.34171  0.048632748  0.048959053            5 
 1638000    1.0005542   -5.1734777    952.43141  0.048454997  0.048948499            2 
 1639000   0.99680515   -5.1555741    953.24134  0.048466613  0.048938196            3 
 1640000    0.9864378   -5.1692249    953.68144  0.048459423  0.048927953            2 
 1641000   0.99591403   -5.1684924    955.49937   0.04852221  0.048917632            7 
 1642000   0.98897203   -5.1401131    956.51481  0.048544194  0.048907275            3 
 1643000   0.99378471   -5.1876216    954.31946    0.0484033  0.048896843            3 
 1644000    1.0129733   -5.1542197    955.19489  0.048418232  0.048886505            4 
 1645000   0.99356174   -5.1698829     954.8053  0.048369063  0.048876109            4 
 1646000   0.97287358    -5.155822    958.04009  0.048503447  0.048865937            3 
 1647000    1.0206548   -5.1716558    957.73416  0.048458518   0.04885565            5 
 1648000   0.97793504   -5.1797799    957.70667  0.048427724  0.048845475            2 
 1649000    1.0033852    -5.175043    956.38353   0.04833149  0.048835085            2 
 1650000   0.99979852   -5.1649296    957.78866  0.048373165  0.048824802            3 
 1651000    1.0055279   -5.1660614    959.52903   0.04843171  0.048814604            2 
 1652000   0.96019252   -5.1407912    961.81291  0.048517601  0.048804383            6 
 1653000     1.000568   -5.1349522     962.3923  0.048517458  0.048794188            3 
 1654000   0.96946718   -5.1567925    959.36523  0.048335612  0.048784044            3 
 1655000   0.96970338   -5.1789435    961.03472  0.048390469  0.048773606            3 
 1656000    1.0043316   -5.1575171    959.78931  0.048298577  0.048763082            3 
 1657000   0.99346874   -5.1702469    959.32922   0.04824629  0.048752768            4 
 1658000   0.98219998    -5.163132    962.29893  0.048366452  0.048742329            2 
 1659000   0.95722581   -5.1775887    957.27945  0.048085164  0.048731784            4 
 1660000   0.96294149   -5.1629476     959.7352  0.048179478  0.048721287            4 
 1661000   0.98200499   -5.1744867    965.23221   0.04842626  0.048710705            4 
 1662000   0.98204919   -5.1611525    962.92427  0.048281402  0.048700412            4 
 1663000    0.9733156   -5.1568575    965.46863  0.048379867  0.048690142            6 
 1664000    1.0081361     -5.15882    967.20144  0.048437572  0.048680065            3 
 1665000   0.99022505   -5.1764501    966.84629  0.048390705   0.04866978            3 
 1666000   0.98545205   -5.1512641    964.55684  0.048247141  0.048659784            2 
 1667000   0.97273277   -5.2107529     964.0238  0.048191552  0.048649443            4 
 1668000   0.98616354   -5.1419229    967.78873  0.048350756  0.048639202            5 
 1669000   0.97741119   -5.1209164    970.61267  0.048462785  0.048629041            6 
 1670000   0.97892595   -5.1593835    967.99147  0.048302967  0.048618868            5 
 1671000   0.97157604    -5.155931    967.85784  0.048267397  0.048608571            6 
 1672000     0.983217   -5.1515988    969.19991  0.048305418  0.048598258            2 
 1673000   0.99756493    -5.153994    965.59905  0.048097183  0.048588136            3 
 1674000   0.98676802    -5.183914    971.39673  0.048357065  0.048578047            3 
 1675000   0.99094407   -5.1824512    969.64404  0.048240997  0.048567834            3 
 1676000   0.99092809   -5.1711584    968.49087  0.048154876  0.048557737            3 
 1677000   0.97843664   -5.1627083    972.21378   0.04831116  0.048547825            3 
 1678000   0.99182541   -5.1806978    968.21691  0.048083875  0.048537909            6 
 1679000   0.97194718   -5.1293547    972.74217  0.048279838  0.048528115            5 
 1680000   0.98272338   -5.1646768    967.93097  0.048012449  0.048518019            5 
 1681000   0.98900418   -5.1852592    970.89709  0.048130929  0.048507881            2 
 1682000   0.99191186   -5.1775946    973.09828  0.048211369  0.048498026            2 
 1683000   0.97144019   -5.1992887    969.74106  0.048016492  0.048487656            2 
 1684000   0.98975383   -5.1816442    975.39062  0.048267548  0.048477576            3 
 1685000   0.97893369   -5.1699296    971.52392  0.048047672  0.048467343            1 
 1686000   0.96490834   -5.1616357    971.73009  0.048029364  0.048457108            2 
 1687000   0.98780604   -5.1624483    975.20671  0.048172629  0.048447043            3 
 1688000   0.96719685   -5.1568857    976.10676  0.048188525  0.048436902            4 
 1689000   0.97846472   -5.1748012    975.02489  0.048106616  0.048426889           12 
 1690000    1.0083505   -5.1728068    976.18795  0.048135501  0.048416797            4 
 1691000   0.98867551   -5.1656656    975.79587  0.048087713  0.048406823            9 
 1692000   0.96667676    -5.171755    975.70299  0.048054718  0.048397043            5 
 1693000   0.97104535   -5.1659487     979.8132  0.048228647   0.04838712            5 
 1694000   0.98489144   -5.1782394    979.67434  0.048193346  0.048377117            6 
 1695000   0.95996144   -5.1370644    979.15962  0.048139608  0.048367266            4 
 1696000   0.96683499    -5.134856     982.0046  0.048251012  0.048357408            5 
 1697000   0.98191759   -5.1799886    977.49506  0.048001132  0.048347457            4 
 1698000   0.95729725   -5.1711908    981.84026  0.048186114  0.048337543            8 
 1699000   0.97117665   -5.1693946    977.31393  0.047935743  0.048327478            3 
 1700000   0.95608607    -5.163146    982.06579   0.04814048  0.048317663            4 
 1701000   0.97243421   -5.1893736    978.90029  0.047957098  0.048307896            3 
 1702000   0.97914382   -5.1243673    982.10427  0.048085794   0.04829785            2 
 1703000   0.97149003   -5.1854761    982.38863  0.048071473  0.048288049            2 
 1704000   0.97892752   -5.1187168    985.78789  0.048209501  0.048278215            6 
 1705000   0.94442026   -5.1568886     982.3982  0.048015552  0.048268487            3 
 1706000   0.96829507   -5.1503498    986.91689  0.048208132  0.048258872            3 
 1707000   0.98687523   -5.2205566     979.7553  0.047830273  0.048249046            2 
 1708000   0.98005806    -5.155318    985.72081  0.048093326  0.048239311            4 
 1709000    1.0032556   -5.1785486    984.82252  0.048021383  0.048229538            3 
 1710000   0.97569085   -5.1655354    984.50711  0.047977929  0.048219644            5 
 1711000   0.98012561   -5.1663896    982.66164  0.047860006  0.048209821            4 
 1712000   0.96448736   -5.1905675    983.86882  0.047890811  0.048200066            3 
 1713000   0.97890525   -5.1708107    985.95115  0.047964154  0.048190101            7 
 1714000   0.98419024   -5.1900558    984.75869  0.047878194  0.048180222            4 
 1715000    0.9818919   -5.1943862    982.02876  0.047717627  0.048170187            4 
 1716000   0.97424837   -5.2136409    981.59765  0.047668883  0.048160155            5 
 1717000    0.9960783   -5.1955344    983.63215  0.047739864  0.048150142            3 
 1718000   0.98240987   -5.1933249    985.45793  0.047800637  0.048140004            3 
 1719000   0.95276022    -5.175186    986.78456  0.047837142  0.048130256            3 
 1720000    1.0032083   -5.1804301     987.9143  0.047864065  0.048120294            4 
 1721000   0.96025408   -5.1903466    988.53557  0.047866336  0.048110488           10 
 1722000   0.95999559   -5.1675766    987.91713   0.04780861  0.048100603            5 
 1723000   0.99002346   -5.1778445     989.9491   0.04787914  0.048090562            3 
 1724000   0.95526156   -5.1654252    988.57716  0.047785052  0.048080825            2 
 1725000   0.98454997   -5.1538278    991.56833  0.047901852  0.048070954            3 
 1726000   0.97454998   -5.1763859    992.26374  0.047907674  0.048061187            3 
 1727000    0.9781424   -5.1627918    993.65504  0.047947068  0.048051347            7 
 1728000   0.96197896   -5.2138283    986.91886  0.047594466  0.048041444            3 
 1729000   0.97349015    -5.179806    988.15424  0.047626481  0.048031444            2 
 1730000   0.96206845   -5.1882844    991.53365  0.047761737  0.048021443            4 
 1731000   0.95496278   -5.1873432    991.60176  0.047737423  0.048011545            6 
 1732000   0.96190267   -5.1935737    996.33572  0.047937631  0.048002166            2 
 1733000   0.99063178   -5.1898203    993.18038  0.047758241  0.047992406            5 
 1734000   0.98661098   -5.2047708    992.93704  0.047719004  0.047982751            2 
 1735000   0.97129623   -5.2074417    994.13976  0.047749268  0.047972825            3 
 1736000   0.98116017   -5.1505676    1001.8918  0.048093887  0.047963106            6 
 1737000   0.97951813   -5.1604372     997.0278  0.047832844  0.047953578            3 
 1738000   0.96162774   -5.1751685    997.70735  0.047837905  0.047943952            2 
 1739000    0.9751346    -5.175966    996.96985  0.047775055  0.047934392            3 
 1740000   0.97244207   -5.1662842    997.86138  0.047790296  0.047924987            3 
 1741000    0.9950186   -5.1621591    998.61565  0.047798949  0.047915279            4 
 1742000   0.96680198   -5.1791474    997.77486  0.047731289  0.047905644            2 
 1743000   0.98749789   -5.1999039    996.68752  0.047651918  0.047895996            3 
 1744000   0.97535777   -5.1875738    999.26892  0.047747941  0.047886604            5 
 1745000   0.96835329   -5.1615647    1002.5009  0.047874924  0.047877068            5 
 1746000   0.96555034   -5.1994764    1000.8578  0.047769081  0.047867878            5 
 1747000   0.96658106   -5.1709142      1001.45  0.047769989  0.047858471            5 
 1748000   0.98181869   -5.2144162    997.31396  0.047545479  0.047848924            5 
 1749000   0.96049344   -5.1937144     1001.462  0.047715931  0.047839368            6 
 1750000    0.9709932   -5.1833954     1001.942  0.047711523  0.047829916            3 
 1751000   0.98066033   -5.1652924    1002.6515   0.04771804  0.047820544            4 
 1752000   0.96159019   -5.2306127     996.7547  0.047410326  0.047811062            4 
 1753000   0.98385398    -5.164317    1003.9009  0.047722995  0.047801589            2 
 1754000    0.9872504   -5.2028312    1001.6464  0.047588674  0.047792124            3 
 1755000   0.95004245   -5.1920828    1001.8918   0.04757321  0.047782658            5 
 1756000   0.96188349   -5.1802461    1004.1134  0.047651545  0.047772976            6 
 1757000   0.96013643    -5.208863     1000.044  0.047431419  0.047763213            4 
 1758000    0.9661129    -5.204464    1005.2672   0.04765203  0.047753485            8 
 1759000   0.95950362   -5.1930401    1003.5514   0.04754365   0.04774363            7 
 1760000   0.95494476    -5.150866    1004.8378  0.047577547  0.047734013            4 
 1761000   0.95908526   -5.2213224    1001.4234  0.047388957  0.047724247            3 
 1762000   0.98684939   -5.1878172    1005.7475  0.047566567  0.047714555            4 
 1763000   0.96983553   -5.1928122    1004.9184  0.047500395  0.047705101            4 
 1764000   0.95332531   -5.1557867     1009.534  0.047691516  0.047695426            5 
 1765000    1.0000318   -5.1731907    1007.7421  0.047579893  0.047685862            5 
 1766000    0.9764284   -5.1820835    1010.5624  0.047686033  0.047676361            4 
 1767000   0.96199621   -5.2159051    1003.6834  0.047334624  0.047666892            2 
 1768000   0.97197104   -5.1742128    1009.1452  0.047565288   0.04765705            4 
 1769000     0.966375   -5.1930903    1008.0107  0.047484957  0.047647334            3 
 1770000   0.95673659   -5.1955433    1011.2606  0.047611141  0.047637723            3 
 1771000   0.97073187   -5.1786755    1009.7273  0.047512107  0.047628307            4 
 1772000   0.97895711   -5.1653151    1009.6207   0.04748028  0.047618881            3 
 1773000    0.9680401   -5.1931541      1011.16  0.047525851  0.047609469            5 
 1774000   0.99216329   -5.2305122    1008.6864  0.047382863  0.047599904            2 
 1775000   0.96348646   -5.2504477    1010.5411  0.047443244   0.04759031            2 
 1776000   0.95607618   -5.1762581    1013.1809  0.047540393  0.047580989            6 
 1777000   0.97346124   -5.1851917    1013.0207  0.047506127  0.047571506            5 
 1778000   0.97612632    -5.183048    1012.3343   0.04744724   0.04756213            2 
 1779000   0.96550958   -5.2095018    1017.8916  0.047680889  0.047552772            2 
 1780000   0.95903278   -5.2040454    1015.7388  0.047553316  0.047543529            3 
 1781000   0.96771754   -5.1787562      1013.97   0.04744385  0.047534264            9 
 1782000   0.97270072    -5.218671    1015.5464  0.047490948  0.047525005            7 
 1783000   0.97179103   -5.1932935    1012.8428  0.047337953  0.047515782            3 
 1784000   0.97199856   -5.1722545    1018.0926  0.047556644  0.047506519            4 
 1785000   0.98268854   -5.1933728    1012.5579  0.047271609  0.047497332            2 
 1786000   0.98026289   -5.1921537    1014.5442  0.047337823  0.047487939            4 
 1787000   0.95684205   -5.1907039    1014.0127  0.047286547    0.0474787            4 
 1788000   0.96938603   -5.2154585    1013.6121   0.04724143  0.047469422            3 
 1789000   0.97624301   -5.1886328    1018.8647  0.047459693  0.047460062            8 
 1790000   0.96947425   -5.2120403    1016.8877  0.047341141  0.047450711            2 
 1791000   0.95238276    -5.221151    1020.2524  0.047471265   0.04744153            5 
 1792000   0.96616962   -5.2080736    1017.6638  0.047324394  0.047432155            4 
 1793000   0.95484519    -5.206545    1018.0082  0.047314007  0.047423009            3 
 1794000    0.9533787   -5.1794885    1017.0087  0.047241207  0.047413638            2 
 1795000   0.96669112   -5.2226009    1019.5123  0.047331119  0.047404354            4 
 1796000   0.93832989   -5.2026238    1019.9267  0.047323993  0.047395288            4 
 1797000   0.94778135   -5.1951648    1021.7553  0.047382456  0.047386081            3 
 1798000   0.95221956   -5.1918671    1021.4677  0.047342777   0.04737686            5 
 1799000    0.9642579   -5.2152022     1018.483    0.0471782  0.047367653            4 
 1800000   0.95360064   -5.2147094    1022.8806  0.047355582  0.047358251            4 
 1801000   0.95790371   -5.2165409     1022.365  0.047305431  0.047348841            4 
 1802000   0.97374965   -5.2036598    1018.7909  0.047113896  0.047339605            9 
 1803000   0.95297342   -5.1779801    1022.6208  0.047264781  0.047330127            5 
 1804000   0.98047097   -5.2037345    1022.6118  0.047238166  0.047320929            4 
 1805000   0.94887004   -5.2098353    1025.0297  0.047323625  0.047311614            7 
 1806000   0.96048859   -5.2349923    1022.0515  0.047159998  0.047302289            6 
 1807000   0.96527316   -5.2152376    1024.2944  0.047237338  0.047293225            7 
 1808000   0.96584119   -5.1701891    1026.7575  0.047324739  0.047284074            5 
 1809000   0.95363979   -5.1948303    1027.4094  0.047328607  0.047274895            2 
 1810000   0.96318732   -5.1848746    1028.5193  0.047353561  0.047266021            3 
 1811000   0.98108169   -5.2151334    1029.2227  0.047359776  0.047257039            6 
 1812000   0.96151169   -5.2421063    1022.1981  0.047010583   0.04724806            3 
 1813000   0.93470504   -5.2039233    1025.6047  0.047141235  0.047238857            5 
 1814000   0.95852759   -5.2246652    1028.4379    0.0472454  0.047229819            4 
 1815000   0.96773029    -5.179679    1029.9766  0.047290018  0.047220869            4 
 1816000   0.96905833   -5.2078416    1030.2368  0.047275918  0.047211948            5 
 1817000   0.95001005   -5.2576054    1025.9011  0.047051049  0.047202785            4 
 1818000   0.93391374   -5.2006168    1030.8456  0.047251817  0.047193622            6 
 1819000   0.96988726   -5.2028108     1027.301  0.047063452   0.04718462            5 
 1820000   0.94033916   -5.2404508    1029.2017  0.047124621  0.047175436            2 
 1821000   0.96390592   -5.1936327     1033.204  0.047281897  0.047166245            5 
 1822000   0.98933952   -5.2058854    1032.3971  0.047219039  0.047157011            5 
 1823000   0.94296949   -5.1996673    1031.4212  0.047148526  0.047147927            3 
 1824000   0.96722958   -5.2163712    1028.9999  0.047012057  0.047138688            5 
 1825000   0.98059257   -5.1998999    1031.2321  0.047088222  0.047129291            7 
 1826000   0.95607676   -5.2021441     1029.086  0.046964494  0.047120142           11 
 1827000    0.9504472   -5.2211975    1032.0651  0.047074671   0.04711078            3 
 1828000   0.95684697   -5.2130484    1028.2401   0.04687455   0.04710118            3 
 1829000   0.96034744   -5.2353612    1029.5967  0.046910728   0.04709184            6 
 1830000   0.96999061   -5.1797299    1032.9724  0.047038816   0.04708262            4 
 1831000   0.96425663   -5.1946683    1030.0075  0.046878186  0.047073493            3 
 1832000   0.96895135   -5.1969082    1033.4181  0.047007736  0.047064321            3 
 1833000    0.9612898   -5.2499296    1033.5796  0.046989434  0.047055174            5 
 1834000   0.94958022   -5.2129162    1037.0089  0.047119632  0.047046182            5 
 1835000   0.96276172   -5.2358004    1035.0552  0.047005231  0.047037138            6 
 1836000   0.95929057     -5.21969    1038.1056  0.047118083  0.047027972            6 
 1837000   0.97349135   -5.2159184    1036.1698   0.04700462  0.047018919            4 
 1838000   0.96864181     -5.19672    1039.7631  0.047141959  0.047009907            7 
 1839000   0.95944345   -5.2212679    1039.3616  0.047098135  0.047000925            5 
 1840000   0.95714178   -5.2507857    1037.0774  0.046969086  0.046991837            2 
 1841000   0.97535889     -5.18787     1039.864  0.047069709  0.046982847            5 
 1842000   0.96377234   -5.2101339    1038.9303  0.047001914  0.046973861            3 
 1843000    0.9465479   -5.2018588    1038.8868  0.046974444  0.046964639            4 
 1844000   0.93997303   -5.1859681     1038.012  0.046909438  0.046955757            2 
 1845000   0.97456738   -5.1958318    1040.7802   0.04700904  0.046946893            3 
 1846000    0.9532738   -5.2275423    1037.5314  0.046836918  0.046937969            3 
 1847000   0.94509207   -5.2167169    1037.7898  0.046823217  0.046928917            2 
 1848000   0.96234698   -5.2204575    1038.2158  0.046817092  0.046919784            3 
 1849000   0.96100498   -5.1916474    1039.5608  0.046852388  0.046910564            3 
 1850000   0.96175171   -5.2298184    1040.1006  0.046851378  0.046901492            3 
 1851000   0.95926936   -5.2380628    1046.5207  0.047115102  0.046892366            2 
 1852000   0.94458557   -5.1863503    1045.6682  0.047051305  0.046883364            2 
 1853000   0.97154597   -5.1932334    1043.8176  0.046942688  0.046874545            2 
 1854000   0.94512285   -5.1866077    1043.4524  0.046900954  0.046865509            4 
 1855000   0.95910312   -5.2256779    1045.2168  0.046954931  0.046856411            4 
 1856000    0.9606657   -5.2433836    1046.6365  0.046993379  0.046847733            2 
 1857000   0.96615916   -5.2112991    1042.6551  0.046789404  0.046838769            3 
 1858000   0.93829045   -5.2469828     1041.115  0.046695148  0.046829795            4 
 1859000   0.96929994   -5.2295004    1042.5542  0.046734544  0.046820727            5 
 1860000   0.94789906   -5.2624354    1044.6463  0.046803149  0.046811422            6 
 1861000   0.94922646   -5.2254348    1044.4671  0.046769975  0.046802306            5 
 1862000   0.95573986   -5.2391416     1044.661  0.046753536  0.046793091            4 
 1863000    0.9631541    -5.218326    1045.5527  0.046768328  0.046783905            3 
 1864000   0.96320181   -5.2347356    1043.2978  0.046642428  0.046774966            4 
 1865000   0.94455824   -5.2203903    1045.0044  0.046693673  0.046765762           10 
 1866000   0.94840034   -5.2552582    1042.3296  0.046549196   0.04675653            4 
 1867000   0.96467498   -5.2480355    1045.0262  0.046644625  0.046747068            3 
 1868000   0.97397009   -5.2514064    1046.7461  0.046696382  0.046737777            5 
 1869000   0.94865961   -5.2396365    1046.4814  0.046659597  0.046728541            5 
 1870000   0.92300805    -5.239713    1048.0541   0.04670473  0.046719339            3 
 1871000   0.95447451   -5.2857138    1043.5956  0.046481188  0.046710052            4 
 1872000   0.97145529   -5.2465315    1047.0032   0.04660805  0.046700795            4 
 1873000   0.94642703   -5.2081472     1047.843   0.04662053  0.046691897            2 
 1874000   0.93287689   -5.2637671    1049.9555   0.04668959   0.04668299            4 
 1875000   0.93214113   -5.2308693    1047.6521  0.046562314  0.046673749            5 
 1876000   0.94923348   -5.2190719    1047.1141  0.046513597  0.046664745            4 
 1877000   0.94780538   -5.2180378    1050.3619  0.046633007   0.04665557            3 
 1878000   0.95380177   -5.2242329    1051.9375  0.046678095  0.046646504            7 
 1879000   0.95407689   -5.1927031    1051.0949   0.04661588  0.046637415            3 
 1880000   0.95486805   -5.2371808    1053.7268  0.046707746  0.046628404            4 
 1881000   0.94259453   -5.2409745    1053.1364  0.046656761   0.04661902            5 
 1882000   0.94873662   -5.2256276    1051.8535  0.046575162  0.046609664            5 
 1883000   0.95312658   -5.2433115    1052.2871  0.046569619  0.046600613            2 
 1884000   0.95054777   -5.2722596    1049.0606  0.046402186  0.046591418            3 
 1885000   0.94264208   -5.2270051    1052.3677  0.046523773  0.046582135            2 
 1886000   0.95267873   -5.2381065    1051.6878  0.046469061  0.046572728            5 
 1887000   0.94735833   -5.2234441     1054.619  0.046573882  0.046563462            4 
 1888000   0.93992839   -5.2150365     1056.461  0.046630516  0.046554196            3 
 1889000   0.97588156   -5.2473412    1054.7846  0.046531877  0.046545052            4 
 1890000   0.95245133    -5.241849     1055.351   0.04653223  0.046535819            5 
 1891000   0.94447715   -5.2387528    1053.6403  0.046432237  0.046526769            3 
 1892000   0.95853342   -5.2031932    1059.2267  0.046653748  0.046517755            5 
 1893000   0.95331755    -5.264784    1053.4834  0.046376273  0.046508722            3 
 1894000   0.94047479   -5.2158022    1061.1631  0.046689684  0.046499621            3 
 1895000   0.93271637   -5.2476908    1058.0969  0.046530209  0.046490504            4 
 1896000   0.96131349   -5.2308774    1057.7252  0.046489326  0.046481579            3 
 1897000   0.94428583   -5.2351187     1062.293  0.046665481  0.046472504            4 
 1898000   0.93196389   -5.2048996    1060.2133  0.046549585  0.046463438            4 
 1899000   0.95117208   -5.2406297    1057.7562  0.046417247  0.046454369            2 
 1900000   0.96598184   -5.2196491    1059.1111  0.046452242  0.046445265            4 
 1901000   0.96611772   -5.2525855    1057.9539   0.04637708  0.046436393            8 
 1902000   0.93750232   -5.2479013    1058.2544  0.046365862  0.046427225            5 
 1903000   0.94695771    -5.248836    1059.1378  0.046380182  0.046418273            5 
 1904000   0.95546665   -5.2152351    1060.3892  0.046410591  0.046409233            6 
 1905000   0.94509833   -5.2439697    1058.3663  0.046297739  0.046400139            3 
 1906000   0.93310067   -5.2288511    1058.1891    0.0462657  0.046391205            4 
 1907000   0.96270654    -5.284903    1055.6158  0.046128989   0.04638211            7 
 1908000   0.94308479    -5.241141    1057.2484  0.046176116  0.046372885            3 
 1909000   0.94777066   -5.2511268    1060.8173  0.046307721  0.046363614            4 
 1910000   0.94333507   -5.2227717    1061.2445  0.046302117  0.046354558            7 
 1911000   0.97312068   -5.2345306    1062.3519  0.046326179  0.046345283            5 
 1912000   0.92165125   -5.2620227    1059.4205  0.046174186  0.046336154            3 
 1913000   0.95230429   -5.2638311    1060.3579  0.046190881  0.046326732            9 
 1914000   0.96072305   -5.2443653    1059.3117  0.046121198  0.046317388            2 
 1915000   0.93711805   -5.2462616     1063.709  0.046288468   0.04630815            5 
 1916000   0.93909934   -5.2637983    1059.1063  0.046064121  0.046298733            3 
 1917000   0.92460172   -5.2576117    1061.1897   0.04613066  0.046289238            5 
 1918000   0.94276969   -5.2510203    1063.9087  0.046224745  0.046280063            3 
 1919000   0.95192794   -5.2401049    1067.5591  0.046359177  0.046270622            5 
 1920000   0.92278686   -5.2701309     1061.018   0.04605113  0.046261243            7 
 1921000   0.94716397   -5.2157362    1066.1459  0.046249604  0.046251909            2 
 1922000   0.95462114   -5.2358903    1063.4581  0.046109004  0.046242529            4 
 1923000   0.93708173   -5.2294707    1067.6526  0.046266795  0.046233375            7 
 1924000   0.93796776   -5.2506088    1066.5563  0.046195268  0.046224201            2 
 1925000   0.94821463    -5.276968    1065.2974  0.046116772  0.046214945            5 
 1926000   0.93060135   -5.2401915    1066.5061  0.046145126  0.046205586            3 
 1927000   0.95603977   -5.2713769    1066.1502  0.046105784  0.046196048            6 
 1928000   0.93727144   -5.2538339    1066.6398  0.046103033  0.046186853            5 
 1929000   0.95061999   -5.2443527    1068.4165   0.04615589  0.046177695            7 
 1930000   0.94290868    -5.261328    1066.8191  0.046063003  0.046168426            4 
 1931000   0.95180877   -5.2854014    1067.3521   0.04606215  0.046158942            4 
 1932000   0.94343896   -5.2414109    1066.3407  0.045994681  0.046149558            3 
 1933000    0.9417029   -5.2471188    1069.5479  0.046109153  0.046140229            3 
 1934000   0.94382783   -5.2578077    1067.0298  0.045976808  0.046130993            6 
 1935000   0.94088036   -5.2169788    1069.3416   0.04605261  0.046121911           11 
 1936000   0.95018987   -5.2284307    1070.3447     0.046072   0.04611255            2 
 1937000    0.9310641   -5.2826403    1071.4299  0.046094903  0.046103111            6 
 1938000   0.92607765   -5.2513947    1070.3707  0.046025571  0.046093631            3 
 1939000   0.96265495   -5.2352016    1072.6634  0.046100368  0.046084389            3 
 1940000   0.93926172    -5.259719    1069.2519  0.045930064     0.046075            3 
 1941000   0.95308491   -5.2608066    1072.2627  0.046035665  0.046065763            6 
 1942000   0.93358173   -5.2554241    1074.0031  0.046086643  0.046056425            4 
 1943000   0.94015383   -5.2459015    1072.3489  0.045991977  0.046047151            3 
 1944000   0.94469421   -5.2262881    1072.4233  0.045971506  0.046037963            4 
 1945000   0.96522499   -5.2566009     1070.385  0.045860541   0.04602857            4 
 1946000   0.93738268   -5.2688706     1070.612  0.045846696  0.046018958            3 
 1947000   0.94302853   -5.2633455    1073.8181  0.045960369  0.046009505            5 
 1948000   0.93398121   -5.2629051    1069.3613  0.045746119  0.045999958            3 
 1949000   0.95188752   -5.2715629    1071.2679  0.045804168   0.04599041            6 
 1950000    0.9515421   -5.2848099    1073.2691    0.0458662   0.04598096            6 
 1951000   0.94526237    -5.291307    1070.6276  0.045729865  0.045971393            6 
 1952000   0.94352365   -5.2822188    1070.9078  0.045718398  0.045961824            7 
 1953000   0.93370456   -5.2533549    1070.8321  0.045691762  0.045952281            3 
 1954000   0.94765481   -5.2484075    1073.5569  0.045784582  0.045942821            7 
 1955000    0.9212098   -5.2442622    1077.9649  0.045949059  0.045933313            3 
 1956000   0.92677683   -5.2759568    1071.9286  0.045668397  0.045923781            6 
 1957000    0.9377165   -5.2816338    1074.0864  0.045736943  0.045914177            5 
 1958000   0.95917501   -5.2454384    1074.4581  0.045729405  0.045904508            2 
 1959000   0.93507412   -5.2442408    1076.8766  0.045808944  0.045895079            4 
 1960000   0.93558029   -5.2733619    1075.2255  0.045715368  0.045885777            8 
 1961000   0.94158333   -5.2477215    1074.5048  0.045661431  0.045876337            5 
 1962000   0.92171901   -5.2401266    1074.8037  0.045650853  0.045866858            7 
 1963000   0.93703637   -5.2779679    1079.6801  0.045834613  0.045857495            3 
 1964000   0.93835836   -5.2845878    1076.2725  0.045666688  0.045848232            2 
 1965000   0.94148985   -5.2462545    1077.8204  0.045709093  0.045838771            7 
 1966000   0.94101527   -5.2656017    1077.2683  0.045662442  0.045829561            2 
 1967000   0.94551351   -5.2878285    1081.8153  0.045831864  0.045820119            9 
 1968000   0.93320806   -5.2311526    1082.0661  0.045819195   0.04581065            9 
 1969000   0.93381929   -5.2609221      1080.29  0.045720753  0.045801446            7 
 1970000   0.91769405     -5.28567     1079.484  0.045663452  0.045791906            4 
 1971000   0.92881301   -5.2511751    1083.3869    0.0458053    0.0457827           11 
 1972000   0.93504532   -5.2389743    1085.0942  0.045854215  0.045773459            4 
 1973000    0.9505679   -5.2569574      1080.87  0.045652561  0.045764126            8 
 1974000   0.93144475   -5.2568086     1078.755  0.045540147  0.045754658            4 
 1975000    0.9542815   -5.2683559    1083.7624   0.04572837  0.045745326            3 
 1976000   0.91640452   -5.2669004    1080.0561  0.045548925  0.045736006            4 
 1977000    0.9362289   -5.2523551    1083.4432  0.045668658  0.045726745            3 
 1978000   0.91710878   -5.2635036    1083.5355  0.045649458  0.045717593            7 
 1979000   0.95797729   -5.3010363    1080.7253  0.045508056  0.045708245            6 
 1980000   0.91878819   -5.2419932    1086.6693  0.045735238  0.045699179            3 
 1981000   0.93874056   -5.2358616     1088.401  0.045785001  0.045690232            5 
 1982000   0.91202155   -5.3233693    1080.2109  0.045417547  0.045681177            6 
 1983000   0.92330139   -5.2445705    1091.1534  0.045854487  0.045671991            4 
 1984000   0.92515641   -5.2680333    1087.8954  0.045694529  0.045662978            3 
 1985000   0.90935428   -5.2589041    1087.6041  0.045659282   0.04565376            5 
 1986000   0.92439739   -5.2819202    1089.4305  0.045712928  0.045644535           13 
 1987000    0.9410238   -5.3057831    1083.8255  0.045454854  0.045635288            5 
 1988000   0.92621756   -5.2728067    1087.0374  0.045566623  0.045626085            7 
 1989000   0.93639638   -5.2779214    1087.6886  0.045570999  0.045616876           10 
 1990000   0.94829382   -5.3092747    1087.5333  0.045541596  0.045607702            5 
 1991000    0.9414241   -5.2781032    1086.0095  0.045454944  0.045598619            3 
 1992000   0.92356732   -5.2646921    1090.4733  0.045618863  0.045589451            3 
 1993000   0.92575382   -5.2835356    1088.5736  0.045516543  0.045580013            3 
 1994000   0.94420644   -5.2883441    1086.9289  0.045424979  0.045570606            5 
 1995000   0.93359668   -5.2713558    1089.6176  0.045514518  0.045561378            6 
 1996000   0.95788824   -5.2640637    1092.2812  0.045602924  0.045552299            2 
 1997000   0.95151478   -5.3013264    1091.3801  0.045542483  0.045542932            5 
 1998000   0.93252651   -5.2900909    1090.2662  0.045473232  0.045533661            7 
 1999000   0.94055089   -5.2555005    1095.8221  0.045682097  0.045524455            3 
 2000000   0.91149589   -5.3195209    1089.2998  0.045387491  0.045515124            6 
 2001000   0.93921161   -5.2776044    1089.5686  0.045376002  0.045505624            2 
 2002000   0.90850917   -5.2834471    1090.3322  0.045385125  0.045496117            3 
 2003000   0.94492958   -5.2838606    1088.1734   0.04527265  0.045486737            5 
 2004000   0.93440495   -5.2762976     1089.482  0.045304474  0.045477304            7 
 2005000   0.92139066   -5.2866651    1090.0922  0.045307238  0.045467913            7 
 2006000   0.93429989   -5.2752696    1090.4919  0.045301257  0.045458423            3 
 2007000   0.93887121   -5.2885697    1088.3353  0.045189143  0.045448886            4 
 2008000   0.94194451   -5.2949938    1090.3152  0.045248807  0.045439257            2 
 2009000   0.95115375   -5.3225021    1088.3897  0.045146412  0.045429577            6 
 2010000    0.9367889   -5.2894471    1091.1014  0.045236378  0.045419873            4 
 2011000   0.91662543   -5.2544587    1092.3704  0.045266468  0.045410225            2 
 2012000   0.92591677   -5.2783303    1089.1617  0.045111071  0.045400634            5 
 2013000   0.92951155   -5.2823829    1092.2736  0.045217488  0.045391118            3 
 2014000    0.9264081   -5.3161455     1093.537  0.045247311  0.045381433            3 
 2015000   0.91479902   -5.2616577    1091.8669  0.045155787  0.045371833            3 
 2016000   0.93425672    -5.303301    1094.9942  0.045262659  0.045362219            3 
 2017000   0.94351818   -5.2785174    1088.5749  0.044975002  0.045352641            3 
 2018000   0.91502702   -5.3002595     1089.594  0.044994797  0.045342898            4 
 2019000   0.93466921    -5.255377    1095.1942  0.045203657  0.045333198            7 
 2020000    0.9407784   -5.2762106    1095.4641  0.045192415  0.045323699            3 
 2021000   0.91068462   -5.2734801    1096.6015  0.045216951  0.045314162            5 
 2022000   0.90719948     -5.27548    1096.2897  0.045181738  0.045304488            5 
 2023000   0.93311788   -5.2262536    1102.7994  0.045427557  0.045295104            2 
 2024000    0.9189359   -5.2503316    1097.9513  0.045205503  0.045285671            3 
 2025000   0.94537511   -5.2537001    1099.9114  0.045263845  0.045276294            2 
 2026000   0.90838044    -5.279525    1101.1188  0.045291164   0.04526683            2 
 2027000   0.93031929    -5.295751    1099.6083   0.04520672  0.045257355            5 
 2028000   0.94564263   -5.3220188    1094.8494  0.044988883  0.045247813            4 
 2029000    0.9170939   -5.2732633    1099.2185  0.045146151  0.045238135            2 
 2030000   0.90617186   -5.2827969    1097.4393  0.045050874   0.04522875            4 
 2031000   0.93758442    -5.263915    1102.9988  0.045256802  0.045219145            5 
 2032000   0.92892054     -5.30263    1098.7123   0.04505874  0.045209705            5 
 2033000   0.92333733   -5.2709243    1099.0784  0.045051582  0.045200278            7 
 2034000   0.91496668   -5.2820382    1101.0201  0.045108985  0.045190888            4 
 2035000   0.93403852    -5.274844    1099.7209  0.045033615  0.045181515            6 
 2036000   0.94407742   -5.2751145    1099.1071  0.044986373  0.045172031            3 
 2037000   0.93598871   -5.3071472    1097.1923  0.044885956  0.045162324            7 
 2038000   0.92375048   -5.2855368    1104.3553  0.045156823  0.045152727            5 
 2039000   0.92704646   -5.2847289    1099.9421  0.044954314  0.045143164            9 
 2040000   0.91871377   -5.2842673    1100.7019  0.044963312  0.045133617            7 
 2041000   0.91651904    -5.298026    1099.3458  0.044885912  0.045124098            6 
 2042000   0.93324112    -5.315043    1100.1181  0.044895451   0.04511464            2 
 2043000   0.93089637   -5.2680072    1104.3332  0.045045407    0.0451052            5 
 2044000   0.90715293   -5.2841999    1102.9285  0.044966099  0.045095827            4 
 2045000   0.92284902   -5.2890737    1109.5353  0.045213336   0.04508656            5 
 2046000   0.92410596   -5.2818964    1102.0671  0.044887061  0.045077173            5 
 2047000    0.9199291   -5.2991175    1102.4251  0.044879706  0.045067624            3 
 2048000   0.90644763   -5.3076003    1103.7611  0.044912152  0.045058094            5 
 2049000   0.90244708   -5.3157581    1099.6309  0.044722259  0.045048477            4 
 2050000   0.92184237   -5.2776354    1103.7601  0.044868298  0.045038967            8 
 2051000   0.95094437   -5.2762061      1104.34  0.044869982  0.045029309            4 
 2052000   0.92337549   -5.3029475      1103.36  0.044808317  0.045019724            4 
 2053000   0.92475814   -5.2936424    1102.8168  0.044764442  0.045010013            2 
 2054000   0.93575622   -5.2988367    1104.5212  0.044811798  0.045000427            4 
 2055000   0.91907941   -5.2705881    1112.2918  0.045105103   0.04499084            7 
 2056000   0.91960598    -5.266477    1109.1312  0.044955058  0.044981247            8 
 2057000    0.9332446    -5.297351     1103.751  0.044715239  0.044971553            2 
 2058000    0.9192265   -5.3170545    1103.5586  0.044685721  0.044961789            5 
 2059000     0.917326   -5.3059142    1104.3957  0.044697901  0.044951982            2 
 2060000   0.90514781   -5.3138474    1106.2323  0.044750497   0.04494214            7 
 2061000   0.93990646   -5.3265183    1104.6726   0.04466572  0.044932296            3 
 2062000   0.94240903   -5.2678935    1106.6584  0.044724312  0.044922533            4 
 2063000   0.90177651   -5.3119637     1105.556  0.044658103  0.044912796            5 
 2064000   0.94006217   -5.2983656    1106.0242   0.04465537  0.044902942            3 
 2065000   0.91674351   -5.2800298    1109.0933  0.044757598  0.044893285            3 
 2066000   0.92663253   -5.2817238    1110.0565  0.044774788  0.044883503            5 
 2067000   0.90409119    -5.268452    1108.6923  0.044698125  0.044873776            3 
 2068000   0.95604098   -5.2836751    1106.1415  0.044573722   0.04486413           11 
 2069000   0.92256374   -5.3185921     1106.523  0.044567544  0.044854329            3 
 2070000   0.92193038   -5.2781771    1105.2677  0.044495479  0.044844484            9 
 2071000   0.90922597   -5.2831258    1111.4999  0.044724768  0.044834805            3 
 2072000   0.92028534   -5.2859932     1111.633  0.044708534  0.044824896            3 
 2073000    0.9221292   -5.2933028    1110.4012  0.044637451  0.044815038            3 
 2074000   0.92279453   -5.2990327    1112.1518  0.044686266  0.044805239            4 
 2075000   0.90997177   -5.3151219    1109.3647  0.044552799  0.044795279            9 
 2076000    0.9198465   -5.2671409    1112.9846  0.044676648  0.044785343            4 
 2077000   0.92314954   -5.3490006    1109.8257  0.044528396  0.044775464            6 
 2078000   0.90578097   -5.2654551    1111.2965   0.04456595  0.044765486            4 
 2079000   0.92017526   -5.2841156    1111.4287   0.04454981  0.044755805            4 
 2080000   0.93936867    -5.294336    1112.1594  0.044557669  0.044746062            3 
 2081000   0.91810895   -5.2875756    1111.9758  0.044528903   0.04473615            3 
 2082000    0.9033955   -5.2912166    1112.4914  0.044528155  0.044726177            8 
 2083000   0.90016179   -5.3127303    1110.6854  0.044434526  0.044716046            3 
 2084000   0.93000832   -5.3095295    1108.6035  0.044329956  0.044706137            5 
 2085000   0.91767499   -5.3447989    1108.5965  0.044308412  0.044695993            3 
 2086000    0.9184388   -5.3085485    1113.7574  0.044493345  0.044685844            5 
 2087000   0.88941908   -5.3263341      1110.92  0.044358729  0.044675905            5 
 2088000   0.92745844    -5.291421    1110.7582  0.044331027  0.044666073            4 
 2089000   0.89952647   -5.2869017    1115.1911  0.044486639  0.044656211            6 
 2090000   0.91048295   -5.2929799    1114.8519  0.044451831  0.044646366            5 
 2091000   0.90574508   -5.3105043     1116.319   0.04448904  0.044636589            5 
 2092000   0.91562869   -5.2965073     1116.247  0.044464905  0.044626779            3 
 2093000     0.918123   -5.3155403    1118.0962  0.044517286  0.044617057            3 
 2094000   0.94406105   -5.2815856    1114.9795  0.044371996  0.044607331            4 
 2095000   0.91765354   -5.3034401    1113.9859  0.044311294  0.044597505            5 
 2096000   0.90377641   -5.3007322    1117.8111  0.044442234  0.044587728            5 
 2097000   0.90500583   -5.2957941    1115.2856   0.04432068  0.044577914            3 
 2098000   0.92768543    -5.314897    1115.0994  0.044292159  0.044568024            3 
 2099000   0.93067008   -5.3077871    1115.7822  0.044298164  0.044558046            5 
 2100000    0.9421869   -5.2917753    1114.2483  0.044216202   0.04454815            4 
 2101000   0.89568158   -5.2946541    1115.0962  0.044228786  0.044538258            3 
 2102000   0.92914014   -5.3288111      1114.27  0.044174991  0.044528331            3 
 2103000   0.90988109   -5.3017348    1115.4554   0.04420096  0.044518435            5 
 2104000   0.91163639   -5.3156422    1119.1717  0.044327141  0.044508662            3 
 2105000   0.89338196   -5.3150599     1116.438  0.044197861  0.044498843            7 
 2106000   0.93924981   -5.2856348    1119.6199  0.044302781  0.044488913            4 
 2107000   0.91714407   -5.2914063     1117.574  0.044200839  0.044478836            5 
 2108000   0.89414214   -5.3059511    1115.7718  0.044108625  0.044468793            3 
 2109000    0.9075067   -5.3346801    1115.9314  0.044094017  0.044458789            4 
 2110000   0.91859337     -5.30794    1117.7134  0.044143498  0.044448572            5 
 2111000   0.90861804   -5.3158352    1118.1077  0.044138154  0.044438526            5 
 2112000   0.91666745   -5.3270066    1116.8105   0.04406607  0.044428476            3 
 2113000    0.9162942     -5.27033    1121.8066  0.044242254  0.044418608            2 
 2114000   0.92055301   -5.2804125    1120.0481  0.044152006  0.044408718            2 
 2115000   0.92768227   -5.2804442    1125.8326  0.044359046  0.044398835            4 
 2116000   0.90093564   -5.3010615     1119.438  0.044086246  0.044388814            3 
 2117000    0.9223237   -5.3079008    1124.1445  0.044250687  0.044378897            5 
 2118000   0.92246375   -5.3206043    1118.4315  0.044005015  0.044369066            5 
 2119000   0.92291099   -5.3370103    1121.9022  0.044120741  0.044359093            5 
 2120000   0.90356493   -5.3415866    1122.0456  0.044105565  0.044349159            3 
 2121000   0.88050137   -5.2991734    1123.5583  0.044144203  0.044339234            7 
 2122000   0.89426205   -5.2850826     1121.887  0.044057768  0.044329443            8 
 2123000   0.90573393   -5.3141424    1123.2853    0.0440919  0.044319645            4 
 2124000   0.88733016   -5.2929694    1124.1972  0.044106921  0.044309922            5 
 2125000   0.90402501   -5.3347572    1122.0463  0.044001814   0.04430012            2 
 2126000   0.92293956   -5.3217803    1122.9471  0.044016427  0.044290351            4 
 2127000   0.90754287   -5.2893371    1125.5931  0.044099401  0.044280548            5 
 2128000   0.92523585   -5.3251868    1123.0212  0.043977959  0.044270838            5 
 2129000   0.90451134   -5.3336596    1121.8473  0.043911357  0.044260899            8 
 2130000   0.89816324   -5.2938609    1126.8089  0.044084857  0.044250938            5 
 2131000   0.92218852   -5.2983823     1124.929  0.043990653   0.04424114            5 
 2132000   0.90369555   -5.3206468    1127.2143  0.044059347  0.044231062            5 
 2133000   0.90858117   -5.3331425    1125.3119  0.043964367   0.04422092            5 
 2134000   0.88929539   -5.3158253    1124.0904  0.043896064  0.044210977            6 
 2135000   0.90996226   -5.3216474    1123.4128  0.043849056  0.044201105            5 
 2136000   0.93319569   -5.3326033    1124.4554  0.043869202   0.04419092            7 
 2137000   0.91611186   -5.3052052    1124.0491  0.043832832  0.044180825            4 
 2138000   0.91365043   -5.3045456    1127.3523  0.043941076  0.044170702            4 
 2139000   0.90803764   -5.3237572    1125.5134  0.043848895  0.044160678            4 
 2140000   0.92327193   -5.3342788    1123.3401  0.043743772  0.044150736           15 
 2141000   0.91951112   -5.3035508    1126.6147  0.043850796  0.044140801            2 
 2142000   0.91183556   -5.3355211    1129.0749   0.04392604   0.04413083            4 
 2143000      0.91971   -5.3364207     1129.198   0.04391033  0.044120925            5 
 2144000   0.90914809   -5.2904717     1129.133  0.043887322  0.044111148            5 
 2145000   0.91170705   -5.3363065    1125.8972  0.043741152  0.044101371            3 
 2146000   0.89728058   -5.3279503    1129.4653  0.043859322  0.044091518            4 
 2147000   0.89301702   -5.3351206    1130.6189  0.043883671  0.044081566            5 
 2148000   0.90395834   -5.3431041    1128.8318  0.043793909  0.044071519            4 
 2149000   0.90044782   -5.3010593    1130.2712  0.043829348  0.044061633            4 
 2150000   0.92243125   -5.3216885    1131.3326    0.0438501  0.044051757            5 
 2151000   0.90576109   -5.3133884    1130.4628  0.043796016  0.044041989            5 
 2152000   0.92780841    -5.323482    1130.3531  0.043771418  0.044032158            3 
 2153000   0.88323489   -5.3225568    1131.0669  0.043778715  0.044022195            3 
 2154000    0.9173853   -5.3081619    1133.8457  0.043865898  0.044012409            7 
 2155000   0.91231854   -5.3344884    1132.8778  0.043808112  0.044002593            2 
 2156000   0.90224101   -5.3093674     1131.411    0.0437311   0.04399292            5 
 2157000   0.90744043    -5.324394    1134.8365  0.043843167  0.043983412            5 
 2158000     0.903969   -5.3117746    1135.7744  0.043859066  0.043973701            4 
 2159000    0.9491291   -5.3436591    1133.0342  0.043732988  0.043963972            5 
 2160000    0.8973838   -5.3280043    1136.6374   0.04385175  0.043954282            2 
 2161000   0.90317475   -5.3427792    1133.5917  0.043714011  0.043944617            5 
 2162000   0.91734177   -5.3146481    1137.3183  0.043837432  0.043934952            5 
 2163000   0.89665341   -5.3789408    1131.1265  0.043578612  0.043925215            5 
 2164000   0.90999187   -5.3342344    1133.1323  0.043635716  0.043915266            4 
 2165000   0.90293547   -5.3288341     1136.143  0.043731448  0.043905596           10 
 2166000   0.90335212   -5.3312913    1140.1041  0.043863656  0.043895711            3 
 2167000   0.89595144   -5.3374336    1135.7559  0.043676201  0.043885796            5 
 2168000   0.89370001   -5.3181748    1138.0174  0.043742983  0.043875949            4 
 2169000   0.90354148    -5.320486    1135.7296  0.043634918  0.043866234            3 
 2170000   0.92949487    -5.326961    1139.5019  0.043759675  0.043856459            5 
 2171000   0.88754147   -5.3053365    1136.3818  0.043619752  0.043846679            6 
 2172000   0.91698022   -5.3410231    1136.2621  0.043595076   0.04383689            6 
 2173000    0.9195121   -5.3262428    1137.0303  0.043604474  0.043827048            2 
 2174000    0.8961939   -5.3179717    1138.3912  0.043636584  0.043817079            9 
 2175000   0.90558659   -5.3449943    1132.2557  0.043381443  0.043807169           11 
 2176000   0.90230947   -5.3151491    1135.9181  0.043501767  0.043797293            3 
 2177000   0.90854046   -5.3405025     1135.458   0.04346417  0.043787248            4 
 2178000   0.91334562   -5.3181723      1134.83  0.043420187  0.043777398            5 
 2179000   0.89179925   -5.3331884    1137.8559  0.043515983  0.043767551            5 
 2180000   0.91184472   -5.3322213    1137.6934  0.043489808  0.043757594            6 
 2181000   0.89727208   -5.3323782    1139.7198  0.043547293   0.04374758            2 
 2182000   0.91532547   -5.3349159    1138.2205  0.043470077  0.043737653            4 
 2183000   0.91890554   -5.3536471    1138.0516  0.043443717  0.043727766            3 
 2184000   0.90767752   -5.3456987    1138.2398  0.043431005  0.043717848            3 
 2185000   0.91957907   -5.4070274    1140.1429   0.04348371  0.043707882            7 
 2186000   0.90578443   -5.3321247    1140.3362   0.04347119  0.043697833            8 
 2187000   0.90078591   -5.3610531    1139.5499  0.043421351  0.043687906            3 
 2188000   0.90037483   -5.3369566     1140.965  0.043455402  0.043678058            7 
 2189000   0.91941978   -5.3202155    1143.7962  0.043543332  0.043668257            2 
 2190000   0.89795676   -5.3225524    1143.4839  0.043511565  0.043658611            2 
 2191000   0.91434229   -5.3176664    1143.3273  0.043485748   0.04364884            9 
 2192000   0.90470456   -5.3374261    1143.2007  0.043461096  0.043639045            5 
 2193000   0.90217199    -5.354626    1142.8405   0.04342759  0.043629319            4 
 2194000   0.89653901   -5.3492464    1140.8491  0.043332159    0.0436195            8 
 2195000   0.89853863   -5.3781347    1141.2337  0.043327021    0.0436096            3 
 2196000   0.90843492   -5.3021197    1145.5373  0.043470601   0.04359971            3 
 2197000   0.88873324   -5.3350867    1141.4628  0.043296268  0.043589912            4 
 2198000   0.90920083   -5.3014307    1142.1798  0.043303753  0.043580025            6 
 2199000   0.88758937   -5.3475153    1145.1457  0.043396456  0.043570257            5 
 2200000   0.90232278   -5.3403477    1143.3398  0.043308325  0.043560331            4 
 2201000   0.88688915   -5.3550274    1142.8545  0.043270273  0.043550588            5 
 2202000   0.90295152   -5.3555595    1143.5332  0.043276311  0.043540745            5 
 2203000   0.88891966   -5.3300855    1144.7791  0.043303793  0.043531019            6 
 2204000   0.91227894   -5.3281308    1148.5736  0.043427618  0.043521279           10 
 2205000    0.8823138   -5.3205267    1148.7017  0.043412764  0.043511572            6 
 2206000   0.90006872    -5.325267    1145.7619  0.043282032  0.043501592            7 
 2207000   0.91562556   -5.3419024    1143.7199  0.043185316  0.043491711            3 
 2208000   0.89740586   -5.3760309    1144.9217  0.043211116  0.043481811            5 
 2209000   0.89203603   -5.3527034    1146.5762  0.043253967  0.043471886            3 
 2210000   0.91040499    -5.324251    1144.8181  0.043168104  0.043462072            8 
 2211000    0.9100305    -5.363148    1145.9262  0.043190345  0.043452219            9 
 2212000   0.89595961   -5.3588305    1146.6753   0.04319904   0.04344239            2 
 2213000   0.90368706   -5.3274916    1151.2016  0.043349962  0.043432683            4 
 2214000   0.88019673   -5.3091794    1149.3032  0.043258928  0.043422907            4 
 2215000   0.87466738   -5.3526992     1151.017  0.043303876  0.043413277            7 
 2216000   0.90985086   -5.3545133    1150.6544  0.043270697   0.04340353            7 
 2217000   0.88909156   -5.3466863    1145.6037  0.043061333  0.043393672            2 
 2218000   0.90795588   -5.3102514    1155.2444  0.043404133  0.043383967            5 
 2219000   0.89710347   -5.3380981    1152.2378  0.043271662  0.043374337            4 
 2220000   0.85923062   -5.3718677    1153.4619  0.043298119  0.043364566            6 
 2221000   0.91289626   -5.3566608    1150.1873   0.04315576  0.043354769            2 
 2222000   0.88127423   -5.3759206    1147.4925  0.043035271  0.043345141            3 
 2223000   0.87273121    -5.378177    1153.9705  0.043258752  0.043335405            5 
 2224000   0.89594525   -5.3003373    1153.9223  0.043237498  0.043325774            3 
 2225000   0.89578749   -5.3212891     1154.226  0.043229438  0.043316286            4 
 2226000   0.88082372   -5.3571957    1151.4082  0.043104529  0.043306863            5 
 2227000   0.87887844   -5.3756972    1153.9229  0.043179272   0.04329719            6 
 2228000   0.89693632   -5.3529048     1153.931  0.043160194   0.04328755            4 
 2229000   0.90239229   -5.3569994    1152.3757  0.043082687  0.043277885            8 
 2230000   0.87824234   -5.3701054    1154.4189  0.043139719  0.043268255            5 
 2231000   0.87877028   -5.3345588    1150.3569  0.042968656  0.043258496            4 
 2232000   0.89308576   -5.3515243    1156.9382  0.043195123    0.0432488            6 
 2233000   0.91335866   -5.3551665    1154.0995  0.043069842  0.043239064            8 
 2234000   0.90451939   -5.3553073    1156.2711   0.04313157  0.043229517            6 
 2235000   0.89831559   -5.3402173     1154.385  0.043041946  0.043219845            6 
 2236000    0.9155708   -5.3635094    1156.3661  0.043096529  0.043210215            2 
 2237000   0.87411501   -5.3779973    1153.4627  0.042969105  0.043200734            6 
 2238000   0.87840445   -5.3518167    1160.0316  0.043194504  0.043191092            4 
 2239000   0.89535433   -5.3433928    1160.3559  0.043187281  0.043181571            5 
 2240000    0.8818991   -5.3421236    1157.9158  0.043077224    0.0431721            4 
 2241000   0.90688934   -5.3386038    1160.2811  0.043145958   0.04316246            6 
 2242000   0.89561335   -5.3366852    1160.5493  0.043136682  0.043152993           11 
 2243000   0.88157619   -5.3459642    1159.4206  0.043075517  0.043143558            3 
 2244000   0.89077257    -5.365225    1160.9837  0.043114366  0.043134064            3 
 2245000   0.89043109   -5.3803435    1160.1376  0.043063758  0.043124571            5 
 2246000   0.90177315   -5.3551804    1157.2381  0.042937002  0.043115087            5 
 2247000   0.91093639   -5.3350374    1160.1734  0.043026754  0.043105556           10 
 2248000   0.89053717   -5.3351824    1162.3446  0.043088099  0.043096089            4 
 2249000   0.88573505    -5.351992    1161.2536  0.043028515  0.043086698            4 
 2250000   0.89381186   -5.3436997    1158.0346  0.042890169  0.043077086           11 
 2251000     0.891297   -5.3640861    1156.6489  0.042819817  0.043067348            2 
 2252000   0.88860797    -5.351593    1158.8765  0.042883235  0.043057898            4 
 2253000   0.90163142    -5.341211    1160.8161   0.04293594  0.043048209            6 
 2254000   0.90767403   -5.3370717     1162.651   0.04298473  0.043038626            5 
 2255000   0.87941868   -5.3329344    1162.9547  0.042976893  0.043029071            9 
 2256000   0.89755566   -5.3523025    1160.6759  0.042873666  0.043019635            3 
 2257000   0.90016351   -5.3710826    1161.1833  0.042873405  0.043009983            2 
 2258000   0.88281624   -5.3656163    1159.1817  0.042780546  0.043000391            4 
 2259000   0.90376819   -5.3614728    1162.0989  0.042869222  0.042990827            2 
 2260000    0.8829568   -5.3520674    1162.2686  0.042856513  0.042981288            5 
 2261000    0.8762063   -5.3465036    1162.8597  0.042859343  0.042971747            7 
 2262000   0.89722955   -5.3448129    1165.3257  0.042931244  0.042962313            4 
 2263000    0.8914181   -5.3655051    1162.4741  0.042807266  0.042952725            3 
 2264000   0.89351334   -5.3428696    1164.7442  0.042871914  0.042943087            5 
 2265000   0.89782469   -5.3614078    1164.8698  0.042857608  0.042933579            3 
 2266000   0.88335863   -5.3698117    1162.8581  0.042764715   0.04292405            5 
 2267000   0.89607577   -5.3716266    1165.7588  0.042852479  0.042914441            8 
 2268000   0.90013191     -5.37456    1162.1717   0.04270178    0.0429049            4 
 2269000    0.8841948   -5.3745936    1165.6253  0.042809801  0.042895409            3 
 2270000   0.88494624   -5.3570787    1165.9879  0.042804254  0.042885872            5 
 2271000   0.88601839   -5.3736196    1167.3377  0.042834937  0.042876182            3 
 2272000   0.88439098   -5.3645506    1168.8919  0.042873087  0.042866695            4 
 2273000   0.87941758   -5.3764025     1169.852  0.042889425  0.042857157            4 
 2274000   0.89478729   -5.3847031      1166.04  0.042730871  0.042847717            4 
 2275000   0.86838854   -5.3569699    1165.7671  0.042702093  0.042838235            2 
 2276000   0.88531276   -5.3592522    1171.7346  0.042901824  0.042828782            3 
 2277000   0.89516453    -5.390977    1169.4383  0.042798943  0.042819411            5 
 2278000   0.87968767   -5.3258047    1171.0081  0.042837581  0.042809962            5 
 2279000   0.87016452   -5.3459309    1171.3839  0.042832524  0.042800508            4 
 2280000   0.87675146   -5.3606868    1169.1094  0.042730607   0.04279107            8 
 2281000    0.8723676   -5.3587164    1169.0046  0.042708045  0.042781567            4 
 2282000   0.88305491   -5.3540978    1167.3212  0.042627856  0.042772122            4 
 2283000   0.88651468   -5.3675459    1167.9909  0.042633629   0.04276258            5 
 2284000   0.88808058   -5.3256782    1170.2744  0.042698278   0.04275301            3 
 2285000   0.88848057   -5.3717699    1168.7769  0.042624978   0.04274335            4 
 2286000   0.89178063   -5.3563882    1167.5828  0.042562803  0.042733724            5 
 2287000   0.89252682   -5.3495407    1166.1841  0.042493224  0.042724093            7 
 2288000   0.88207593   -5.3964358    1167.4112  0.042519347  0.042714444            8 
 2289000   0.88008006   -5.3903819    1168.6346  0.042545313  0.042704733           13 
 2290000   0.88565193   -5.3872669    1166.5115  0.042449471  0.042695009            6 
 2291000   0.88850811   -5.4061101     1171.403  0.042608868  0.042685343            5 
 2292000   0.89704503    -5.382456    1168.3968  0.042480978  0.042675657            5 
 2293000   0.89329345   -5.3592137    1169.7823  0.042512804  0.042666035           10 
 2294000   0.86544909   -5.3594168    1174.6154  0.042669843  0.042656599            3 
 2295000   0.89163496   -5.3474589    1175.5351  0.042684643  0.042647134            7 
 2296000   0.89132396   -5.3788355    1172.4417  0.042553778  0.042637679            4 
 2297000   0.88107237   -5.3479533    1172.4658  0.042536126  0.042628164            9 
 2298000   0.85482809   -5.3566126    1174.0744  0.042575949  0.042618786            2 
 2299000   0.88665924   -5.3794274    1172.7541  0.042509573  0.042609367            7 
 2300000   0.89861447   -5.3689836    1175.0579   0.04257456  0.042599992           10 
 2301000    0.8875938   -5.3686864    1175.4523  0.042570343  0.042590641            7 
 2302000   0.89535321   -5.3654485    1177.9034   0.04264058  0.042581365            7 
 2303000   0.89760994   -5.3710694    1176.6839   0.04257794  0.042572024            9 
 2304000   0.89517814   -5.3839912    1175.4965   0.04251651  0.042562639            5 
 2305000   0.89025291   -5.3484502    1177.6966  0.042577608  0.042553221            2 
 2306000   0.89375166   -5.3904836    1176.5181  0.042516555  0.042543899            6 
 2307000   0.87196845   -5.4116916    1171.4166  0.042313848  0.042534486            6 
 2308000   0.88047806   -5.3778271     1180.166  0.042611423  0.042525029            4 
 2309000   0.89086363   -5.3661281    1176.2622  0.042452078  0.042515771           11 
 2310000   0.91236035   -5.3565545    1178.9667  0.042531265  0.042506339            7 
 2311000   0.89583673   -5.3771806    1177.1031  0.042445661  0.042497064            3 
 2312000   0.88128912    -5.341229    1178.8823  0.042491433   0.04248784            5 
 2313000   0.85903329   -5.3714704    1178.8401   0.04247154  0.042478533            3 
 2314000   0.88226201   -5.3811949    1177.1968  0.042394006  0.042469242            3 
 2315000   0.87561166   -5.3915666    1177.4184   0.04238367   0.04245971            8 
 2316000   0.88230245   -5.3578015     1179.398  0.042436602  0.042450405            4 
 2317000   0.88857475    -5.371644    1179.2004   0.04241118  0.042441119            4 
 2318000   0.87878765   -5.4008918    1174.3144  0.042217227  0.042431874            4 
 2319000   0.89718489   -5.3705172    1178.0786  0.042334289  0.042422483            6 
 2320000   0.86640143   -5.3662248    1181.6597  0.042444673  0.042413124            6 
 2321000   0.88005811   -5.3686035    1181.8377  0.042432775  0.042403791            9 
 2322000   0.88729975   -5.3887793       1182.6   0.04244186  0.042394621            6 
 2323000   0.89318049   -5.3969707    1178.8114   0.04228768  0.042385281           10 
 2324000   0.87251429    -5.406631    1177.7098  0.042229986   0.04237581            4 
 2325000   0.87340587   -5.4046386    1180.0142  0.042294417  0.042366496            3 
 2326000   0.87977124   -5.3964679    1179.9984  0.042275666  0.042357287            6 
 2327000   0.87774601    -5.401508    1179.8529  0.042252288  0.042348022           10 
 2328000    0.8837212   -5.3824397    1182.5296  0.042329955  0.042338715            3 
 2329000   0.85824004   -5.3853391    1182.4388   0.04230853  0.042329313            3 
 2330000   0.88899612   -5.4046273    1182.2303  0.042282914   0.04231992           10 
 2331000   0.88648111    -5.408353    1180.3932  0.042199099  0.042310388            3 
 2332000   0.86387732   -5.3645475    1182.3431  0.042250681  0.042300919            9 
 2333000   0.88276231   -5.3666442    1184.5379  0.042310969  0.042291505            7 
 2334000   0.88867804    -5.380464    1184.4276  0.042288905   0.04228217            6 
 2335000   0.88459082   -5.3678313     1184.238  0.042264025  0.042272923            3 
 2336000   0.86032901   -5.4204405    1181.5461  0.042149903  0.042263523            4 
 2337000   0.88308272   -5.4164042    1180.8124  0.042105706  0.042254027           12 
 2338000   0.87067151   -5.3943188    1188.8256  0.042373309  0.042244406            7 
 2339000   0.88782237   -5.4109892    1181.7272  0.042102294  0.042234933            5 
 2340000   0.87109349   -5.3861588    1183.8183  0.042158772  0.042225555           17 
 2341000   0.87940735   -5.3698584    1186.7587  0.042245433  0.042216211            3 
 2342000   0.88602367   -5.3965708    1186.3893  0.042214249  0.042206903           13 
 2343000   0.89536743   -5.3774229    1188.1803  0.042259932  0.042197623            7 
 2344000   0.88875734    -5.394216    1184.0048  0.042093457  0.042188221            7 
 2345000   0.87846728   -5.4022433    1186.3248  0.042157955   0.04217875            6 
 2346000   0.88462457   -5.3729602    1192.4762  0.042358491  0.042169425            4 
 2347000   0.88302429   -5.3615738    1188.6659   0.04220515  0.042160047            4 
 2348000   0.86342852   -5.3644476      1188.24  0.042172061  0.042150688            3 
 2349000   0.89190175   -5.3574741    1187.1169  0.042114264  0.042141371            5 
 2350000   0.88389756   -5.3551707     1190.445   0.04221436  0.042132122            4 
 2351000   0.86989693   -5.3903178    1187.2272  0.042082347  0.042122723           13 
 2352000   0.87065693   -5.3909598    1188.6198  0.042113796  0.042113262            5 
 2353000   0.87400154   -5.3641015    1188.1802  0.042080332  0.042103871            5 
 2354000    0.8743618   -5.4185125    1186.4171   0.04200004  0.042094475            6 
 2355000   0.87157152   -5.4190564     1183.469  0.041877883   0.04208499            7 
 2356000   0.88231291    -5.391631     1189.499  0.042073393  0.042075427            3 
 2357000   0.85976746   -5.3932504    1188.1605   0.04200822   0.04206598            5 
 2358000   0.87000424   -5.3740038    1190.5274  0.042074051  0.042056468            5 
 2359000   0.88454193   -5.4019093    1184.6724  0.041849385   0.04204708            5 
 2360000   0.86538846   -5.3944079    1187.7849  0.041941556  0.042037651            5 
 2361000   0.87839804   -5.3874324    1188.2246  0.041939311  0.042028363            7 
 2362000   0.88424914    -5.412318    1192.4316  0.042069983  0.042019011            5 
 2363000   0.89349775   -5.3513409    1191.6588  0.042024926  0.042009644            4 
 2364000   0.89795632   -5.3926825    1187.9916  0.041877876  0.042000388            7 
 2365000   0.87320188   -5.4215816    1187.0294  0.041826265  0.041990918            9 
 2366000   0.87971245   -5.3842983    1193.1933  0.042025685  0.041981281            4 
 2367000   0.86142705   -5.4041298    1191.4544  0.041946713  0.041971822            5 
 2368000   0.87522484   -5.4188955    1185.3623  0.041714607  0.041962232           16 
 2369000   0.88017545   -5.3865513    1190.9905   0.04189498  0.041952637            5 
 2370000   0.86194966   -5.3991203    1189.8228  0.041836246  0.041943097            7 
 2371000   0.88423052   -5.3962383    1191.9902  0.041894778  0.041933379            5 
 2372000   0.85556868   -5.3708976    1190.3217  0.041818498  0.041923659            3 
 2373000   0.88107752   -5.4146308    1187.2013  0.041691295   0.04191396            6 
 2374000   0.86278322   -5.3747732    1193.4508  0.041893107  0.041904352            3 
 2375000    0.8762856    -5.393492    1188.4557  0.041700201   0.04189473            6 
 2376000   0.87974824   -5.3747914    1192.6802  0.041830815  0.041885043            6 
 2377000   0.86709842   -5.4134839    1188.6362  0.041671442  0.041875345            6 
 2378000   0.88517536   -5.4055342    1191.2067  0.041743995  0.041865558            8 
 2379000   0.87247025     -5.36976    1191.6322  0.041741356  0.041855945            9 
 2380000    0.8827652   -5.3580288    1191.6654  0.041724981  0.041846352            5 
 2381000   0.86417835   -5.4121339    1186.7176  0.041534284  0.041836698            8 
 2382000   0.86106953   -5.4098534    1191.0149  0.041667187  0.041826934            9 
 2383000   0.87515427   -5.4114489    1191.9928  0.041683901  0.041817264            3 
 2384000   0.88158907   -5.3895431    1192.0751  0.041669291  0.041807585            4 
 2385000   0.87334303   -5.4074808    1192.3714  0.041662173  0.041797837            9 
 2386000   0.88310044   -5.3640788    1190.0184  0.041562533  0.041788124            4 
 2387000   0.85248638   -5.4012132    1192.8078  0.041642499  0.041778482            7 
 2388000   0.88663328   -5.3943071    1191.4324  0.041577068   0.04176875            5 
 2389000   0.88242416   -5.3968517    1193.2076  0.041621584  0.041759045            6 
 2390000   0.88737704   -5.3679052    1195.2485  0.041675331  0.041749258            4 
 2391000   0.86659363   -5.4212904    1193.2444  0.041588051   0.04173954            4 
 2392000    0.8595046   -5.3882066    1191.6468  0.041515007  0.041729773            6 
 2393000   0.87103569    -5.377924    1192.9376  0.041542611  0.041720079            4 
 2394000   0.86195455   -5.3753432    1194.4231  0.041576968  0.041710478            4 
 2395000   0.88364576   -5.4233303    1195.4294  0.041594622  0.041700695           10 
 2396000   0.89351792   -5.3867106    1196.5151  0.041615023  0.041691049            5 
 2397000   0.88451285   -5.3977746    1194.2709  0.041519639  0.041681567            4 
 2398000   0.86272975   -5.4288258    1196.0442   0.04156395  0.041671837            6 
 2399000   0.88940052   -5.4157988     1192.497  0.041423405  0.041662168            6 
 2400000   0.86206609   -5.3979595    1196.7618   0.04155423  0.041652564            8 
 2401000   0.85543419   -5.4063262    1196.0021  0.041510553   0.04164289            3 
 2402000   0.84799675   -5.4145582    1197.9823  0.041561974  0.041633228            8 
 2403000   0.85853823   -5.4052042    1190.4043  0.041281879  0.041623521            5 
 2404000   0.86339224   -5.4318475    1195.6997  0.041448269  0.041613741            7 
 2405000    0.8619577   -5.4076046    1198.2101  0.041518023  0.041604049           10 
 2406000   0.87655969   -5.3975425    1198.0493  0.041495195  0.041594399            4 
 2407000   0.89057841   -5.4110982    1199.6436  0.041533152  0.041584791           10 
 2408000   0.85729587   -5.4248047    1200.6803  0.041551782  0.041575192            7 
 2409000   0.85909742   -5.4103774    1198.4366  0.041456918  0.041565626            4 
 2410000   0.86725817   -5.4213529    1197.2144  0.041397453  0.041556032            5 
 2411000   0.85426292   -5.3950535    1198.7487  0.041433317  0.041546492            5 
 2412000   0.87654786   -5.4356887    1200.4687  0.041475564  0.041536928            7 
 2413000    0.8631521   -5.4157083    1197.0697  0.041340991  0.041527378            4 
 2414000   0.85226637     -5.37366    1203.4053  0.041542575  0.041517872            5 
 2415000   0.87760973    -5.385768    1202.1649  0.041482571  0.041508516            3 
 2416000   0.86287782   -5.4155157    1205.1581  0.041568643  0.041499073            5 
 2417000   0.85735381   -5.4140064    1200.7041   0.04139788  0.041489655            4 
 2418000    0.8794141     -5.44847    1198.6496  0.041309954  0.041480139            5 
 2419000   0.87444106   -5.4191973    1200.6489   0.04136175  0.041470647            3 
 2420000   0.86667574   -5.4186464    1202.4621  0.041407096   0.04146123            6 
 2421000   0.85344977   -5.4061708    1204.0929  0.041446127  0.041451755            3 
 2422000   0.85640388   -5.3936216    1203.0185   0.04139205  0.041442336            7 
 2423000   0.87898881    -5.400117    1204.1719  0.041414634  0.041432904            8 
 2424000   0.88388327   -5.4429022    1199.5592  0.041238973  0.041423542            6 
 2425000   0.85005556   -5.4062272    1203.6198  0.041361506  0.041414159            4 
 2426000   0.85631234   -5.3988647    1203.9638  0.041356274   0.04140488            7 
 2427000   0.87577261   -5.4113326    1205.4909  0.041391668  0.041395392            4 
 2428000   0.85460777    -5.421686     1208.672  0.041483801  0.041386043            3 
 2429000   0.85582977   -5.4199854    1203.5248  0.041290132  0.041376665            4 
 2430000   0.87023414   -5.4335609     1203.209   0.04126231  0.041367241            7 
 2431000   0.85170794   -5.4132427    1206.9321  0.041372963  0.041357944            4 
 2432000   0.86064263   -5.4224732    1206.6349   0.04134577  0.041348644            8 
 2433000   0.87143557   -5.4236851    1208.0168  0.041376106  0.041339418            8 
 2434000   0.87245377   -5.4165908    1206.6201  0.041311289  0.041330093           12 
 2435000   0.86996836   -5.4348363    1208.4473  0.041356855  0.041320705            8 
 2436000   0.86076643   -5.4447786    1203.5561  0.041172554  0.041311283            5 
 2437000   0.86539788   -5.4252896    1204.0481  0.041172485  0.041301887            8 
 2438000   0.87585039   -5.4404944    1205.1502  0.041193266  0.041292386            4 
 2439000   0.86375059   -5.4290635    1200.0792  0.041003117  0.041282988            3 
 2440000   0.87412749   -5.4413667    1204.3045  0.041130618  0.041273533            8 
 2441000   0.86960263   -5.4069144    1207.7929   0.04123286  0.041264045            5 
 2442000   0.87504064   -5.4085596    1212.0015  0.041359593  0.041254639            4 
 2443000   0.86149117    -5.430329    1206.5336  0.041156148  0.041245203            8 
 2444000   0.84568474   -5.4513206    1207.4654  0.041171079  0.041235745            7 
 2445000    0.8420484   -5.3776165    1210.0238  0.041241439  0.041226308            6 
 2446000   0.88360174   -5.4231627    1206.1931  0.041094068  0.041216998           10 
 2447000   0.87030643   -5.4489239    1209.3114   0.04118347   0.04120763            6 
 2448000   0.83855124   -5.4140218    1210.5922  0.041210245  0.041198297           11 
 2449000   0.84988455   -5.4195286    1210.5323  0.041191381  0.041189057            4 
 2450000   0.86246795   -5.4218619    1213.7172  0.041282898  0.041179767            5 
 2451000   0.83949037   -5.4367978    1210.6832  0.041162899  0.041170398            5 
 2452000   0.84303432   -5.4097153    1210.4897  0.041139536  0.041161003            2 
 2453000   0.86802461    -5.427325    1210.5706  0.041125512  0.041151765            5 
 2454000   0.85216624   -5.3976044     1215.864  0.041288507   0.04114243            8 
 2455000    0.8582692   -5.4194609    1210.2416  0.041080841  0.041133069            5 
 2456000   0.84949736   -5.4263546    1209.7893  0.041048767  0.041123718            8 
 2457000     0.869962   -5.4502345     1215.647  0.041230734  0.041114466            7 
 2458000   0.84731786    -5.398108    1212.6415  0.041112067   0.04110524            5 
 2459000   0.83248187   -5.4007344    1215.4968  0.041192111  0.041095976            5 
 2460000   0.85567539   -5.4140979    1214.5085  0.041141888  0.041086671            2 
 2461000   0.87158074   -5.4516711     1212.716  0.041064473   0.04107732            6 
 2462000   0.85617385   -5.4472634    1216.1329  0.041163447  0.041067733            5 
 2463000   0.85282913   -5.4299196    1213.5637  0.041059808  0.041058353            5 
 2464000   0.86171273   -5.4079794     1213.087  0.041027024  0.041048857            4 
 2465000   0.85653374   -5.4285048    1212.3855  0.040986665  0.041039353            4 
 2466000   0.85952323   -5.4581955    1215.3261  0.041069413  0.041029806            5 
 2467000   0.85259224   -5.3994102    1211.5999    0.0409269  0.041020305            7 
 2468000   0.84776969   -5.4466193    1210.0982  0.040859608   0.04101082           11 
 2469000   0.86348015   -5.4359244    1211.4485  0.040888635  0.041001277            5 
 2470000   0.87738639   -5.4541501    1210.1029  0.040826684  0.040991661            8 
 2471000   0.85221321   -5.4440533    1211.6056   0.04086084  0.040982111            8 
 2472000   0.85402428   -5.4420271    1212.3283  0.040868673  0.040972521            4 
 2473000   0.85161814   -5.4360202     1213.603  0.040895099  0.040962969            6 
 2474000   0.85559512   -5.4352377    1210.8729   0.04078661  0.040953392            4 
 2475000   0.86546482   -5.4151253    1213.3172  0.040852432  0.040943909            4 
 2476000   0.85838335   -5.4376589    1214.4507   0.04087408  0.040934325            9 
 2477000   0.84111785   -5.4444399    1214.6278  0.040863539  0.040924708            2 
 2478000   0.84641517   -5.4340925    1215.4548  0.040874859  0.040915149            7 
 2479000   0.85542397   -5.4199765    1214.2501  0.040817872  0.040905507            3 
 2480000   0.86482566   -5.4419092    1217.7499  0.040919015  0.040895953            5 
 2481000   0.85357526   -5.4141173    1210.6134  0.040662818  0.040886543            3 
 2482000   0.85039969   -5.4376145    1215.6286  0.040814821  0.040876982            5 
 2483000   0.82718388   -5.4378468    1212.1655  0.040682156  0.040867461            5 
 2484000   0.83625759    -5.425308     1220.843  0.040956892  0.040857893            6 
 2485000   0.86239475   -5.4593965    1217.1061  0.040815092   0.04084845            6 
 2486000    0.8741978    -5.468368     1212.959  0.040659662  0.040838981           10 
 2487000   0.85344243   -5.4336036    1216.5464  0.040763518  0.040829429            3 
 2488000   0.85009951   -5.3858071    1217.9838  0.040795277  0.040820023            4 
 2489000   0.84225477   -5.4423579    1214.9859  0.040678515  0.040810632            3 
 2490000   0.84592982   -5.4383345    1217.7452  0.040754525  0.040801208            5 
 2491000   0.86275451   -5.4275917    1218.8918  0.040776523  0.040791718            9 
 2492000   0.83671789    -5.428065    1217.5862  0.040716498  0.040782245            5 
 2493000   0.86409327   -5.4558393    1214.1385  0.040584921  0.040772856            3 
 2494000   0.84940317   -5.3998226    1220.7373  0.040789137  0.040763454            8 
 2495000   0.85543041   -5.4212172    1220.7209  0.040772242  0.040754086            5 
 2496000   0.86849366   -5.4221584    1219.3828  0.040711232   0.04074469            4 
 2497000   0.86387265   -5.4327808    1216.4854  0.040598233  0.040735245            9 
 2498000   0.84224798   -5.4521205    1218.9238  0.040663325  0.040725822            4 
 2499000   0.84857378   -5.4115555    1224.1875  0.040822579  0.040716427            5 
 2500000   0.85177805   -5.4089404    1224.4599  0.040815331  0.040707208            4 
 2501000   0.85938004   -5.4520311    1222.8213  0.040744411  0.040697762            4 
 2502000   0.86785924   -5.4565409    1217.8732  0.040563322  0.040688239            5 
 2503000   0.86374188    -5.443293    1222.3422  0.040695906  0.040678754            7 
 2504000   0.86847182   -5.4583436    1224.7535  0.040759901  0.040669411            4 
 2505000   0.84835876   -5.4578116    1220.6186  0.040606076  0.040660133            4 
 2506000   0.84828261   -5.4413903    1222.5592  0.040654403  0.040650855            3 
 2507000   0.84483464   -5.4565709    1222.2649  0.040628403   0.04064145            5 
 2508000   0.84709108   -5.4630328    1218.6102  0.040490771  0.040632112            2 
 2509000   0.86532339   -5.4333011    1222.1618  0.040592594  0.040622806            3 
 2510000   0.83078929   -5.4557771    1227.2672  0.040745924  0.040613549           11 
 2511000   0.85975851    -5.456306    1222.3991  0.040568138   0.04060417            5 
 2512000   0.87284027   -5.4712118    1221.4424  0.040520248  0.040594848            4 
 2513000   0.84795182   -5.4436374    1225.6466  0.040643541  0.040585466            6 
 2514000   0.84690999   -5.4448713    1226.8286  0.040666553  0.040576165            4 
 2515000   0.86369115   -5.4631141    1223.1717  0.040529215   0.04056684            3 
 2516000   0.86257034   -5.4453448    1222.8316  0.040501841  0.040557607            3 
 2517000   0.83889558   -5.4698419    1219.9824  0.040391419  0.040548314            4 
 2518000   0.84101046   -5.4560764    1225.1793  0.040547368  0.040538934            6 
 2519000   0.85537899   -5.4437612    1224.9127  0.040522454  0.040529648            9 
 2520000   0.84886732   -5.4508112    1225.3422  0.040520577  0.040520268            3 
 2521000   0.86456502   -5.4570343     1223.896  0.040456698  0.040510863            5 
 2522000   0.85864989   -5.4562116    1225.9425  0.040508277  0.040501489           12 
 2523000   0.85458118   -5.4716313    1223.5988  0.040414812  0.040492247            7 
 2524000   0.84456993   -5.4740504    1222.5404  0.040363852   0.04048294            3 
 2525000   0.84871824   -5.4745897    1223.9652  0.040394891  0.040473653            4 
 2526000   0.85374558   -5.4818001    1225.6848  0.040435628  0.040464265            5 
 2527000   0.85649223   -5.4455871    1227.9987  0.040495933  0.040454982            3 
 2528000   0.84089609   -5.4890264    1224.5585  0.040366511  0.040445733            6 
 2529000   0.82982545   -5.4429183    1232.2469  0.040603891  0.040436419            5 
 2530000   0.83327287   -5.4362601    1230.9203  0.040544147   0.04042722            2 
 2531000   0.86076576   -5.4443297    1232.5695  0.040582427  0.040418141            8 
 2532000   0.81876815   -5.4414919    1232.7133  0.040571132  0.040408963            4 
 2533000   0.86048333   -5.4357359    1230.0618  0.040467884  0.040399706            5 
 2534000   0.83078777   -5.4394026    1228.4428  0.040398671  0.040390538            4 
 2535000   0.86150928   -5.4585507    1229.2882  0.040410524  0.040381301            7 
 2536000   0.84249515   -5.4628274    1231.5906  0.040470248  0.040372051            6 
 2537000   0.84703447   -5.4637227    1229.7713  0.040394538  0.040362784            2 
 2538000   0.84479782    -5.481232    1226.0311  0.040255815  0.040353548            4 
 2539000   0.83875509    -5.467963    1228.2948  0.040314257  0.040344326            5 
 2540000   0.85000937   -5.4694094    1230.5295  0.040371703  0.040335156            5 
 2541000   0.84342142   -5.4106792    1233.8031  0.040463175  0.040325989            9 
 2542000   0.84302377   -5.4900006    1232.3873  0.040400842  0.040316815            6 
 2543000   0.84441153   -5.4710147    1232.5626    0.0403907  0.040307676            4 
 2544000     0.847977   -5.4612051    1234.7618  0.040446863  0.040298525            3 
 2545000   0.84603967   -5.4416365    1232.4833  0.040356362  0.040289335           18 
 2546000   0.82465636   -5.4292968    1233.0525  0.040359143  0.040280248            9 
 2547000   0.85570642   -5.4757479    1228.8949  0.040207266   0.04027109            5 
 2548000   0.85225098   -5.4577103    1233.9452  0.040356658  0.040262013            5 
 2549000   0.85164489   -5.4641193    1234.9719  0.040374392  0.040252967           10 
 2550000   0.82590128   -5.4589004    1231.4819  0.040244506  0.040243891            5 
 2551000   0.84375166   -5.5036973    1230.5324  0.040197714  0.040234759            6 
 2552000   0.84493024    -5.453158    1230.1636   0.04016992  0.040225693            5 
 2553000   0.82517752   -5.4543998    1234.6629  0.040301049   0.04021659            1 
 2554000   0.84288683   -5.4709873    1235.8757   0.04032484  0.040207523            9 
 2555000   0.84469903   -5.4692085     1235.635  0.040301208  0.040198526            6 
 2556000   0.85739291   -5.4711749    1237.7375  0.040353986  0.040189499            4 
 2557000   0.85310218   -5.4474613    1238.7173  0.040370137  0.040180462            6 
 2558000    0.8368057   -5.4614789    1234.5351   0.04021811  0.040171343            3 
 2559000   0.84766028    -5.463624    1237.5694  0.040301205  0.040162252            5 
 2560000   0.83075051   -5.4907655    1233.1783  0.040142524  0.040153026           12 
 2561000   0.83762103   -5.4407966    1236.4549  0.040233468  0.040143938            9 
 2562000   0.84039891    -5.465214    1234.9864  0.040169998   0.04013483            3 
 2563000   0.85699332   -5.4666666    1236.9525  0.040218251  0.040125702            6 
 2564000   0.83708394    -5.474682    1237.2544  0.040212376  0.040116665            6 
 2565000   0.84104046   -5.4645853    1236.5179  0.040172771  0.040107551            8 
 2566000   0.84270614   -5.4580735    1238.4589  0.040220153   0.04009844            6 
 2567000   0.83817546   -5.4918832    1237.5084  0.040173627   0.04008942            6 
 2568000    0.8394515   -5.4689217    1239.3374  0.040217334  0.040080236            5 
 2569000   0.83118265     -5.48805    1241.9313  0.040285822  0.040071059            4 
 2570000   0.84528405   -5.4577351    1237.8016  0.040136238  0.040061915            9 
 2571000   0.83487917   -5.4718223    1239.2968  0.040169093   0.04005289            9 
 2572000   0.83364381   -5.4802583     1236.997   0.04007896  0.040043744            4 
 2573000   0.82901211   -5.4731614    1242.0371  0.040226621  0.040034601            2 
 2574000   0.82171744   -5.4534183    1239.1219  0.040116613  0.040025407            2 
 2575000   0.83054422   -5.4506993    1241.0705  0.040164094  0.040016325            3 
 2576000   0.82746122   -5.4843061    1238.0735  0.040051551  0.040007181            4 
 2577000   0.81457227   -5.4800409    1238.9887  0.040065604  0.039998012            3 
 2578000   0.84112086   -5.5008982    1239.4997   0.04006658  0.039988806            8 
 2579000   0.85126654   -5.4711306    1236.4814  0.039953515  0.039979652            3 
 2580000   0.82712945   -5.5046626    1238.4002  0.040000008  0.039970351            4 
 2581000   0.83495664   -5.4872252    1236.6107  0.039926729  0.039961057           10 
 2582000       0.8356   -5.4933492    1239.7573  0.040012824   0.03995197            6 
 2583000    0.8279092   -5.4715562    1240.6937  0.040027541  0.039942741            7 
 2584000   0.82903931   -5.4679768    1240.8561  0.040017288  0.039933498            8 
 2585000   0.82933601   -5.4851123    1241.8711   0.04003453  0.039924242            8 
 2586000   0.83731445   -5.4403871    1240.4056  0.039971822  0.039915011            5 
 2587000   0.83956275   -5.4118079    1247.0686  0.040171002  0.039905903            4 
 2588000   0.80602705   -5.4766977    1241.0168  0.039960613  0.039896776            7 
 2589000   0.84511554    -5.472472    1241.2417  0.039952416   0.03988758            5 
 2590000   0.82587501   -5.4869266    1241.1517  0.039934095   0.03987846           11 
 2591000   0.82369656    -5.438676    1244.2442  0.040018148  0.039869272            4 
 2592000   0.82928048   -5.4715917    1244.5482  0.040012482  0.039860177            9 
 2593000    0.8346698   -5.4585106    1243.5885  0.039966207   0.03985106           11 
 2594000   0.84969219   -5.5181016    1241.5176   0.03988427  0.039841916            5 
 2595000   0.82000765   -5.4843916    1240.2483  0.039828141  0.039832622            5 
 2596000   0.84406499   -5.4832841    1242.9674  0.039900083  0.039823427            4 
 2597000   0.84116436   -5.4910745    1241.9273  0.039851345  0.039814248            8 
 2598000   0.81992271   -5.4896793    1240.8446  0.039801276  0.039805078            4 
 2599000   0.83339883   -5.4581973     1241.867  0.039818743  0.039795889            8 
 2600000   0.83508211   -5.4905429    1242.5669  0.039825862  0.039786634            7 
 2601000   0.83733106   -5.5090518    1240.6887  0.039750374   0.03977746            4 
 2602000   0.82974621   -5.4988744      1243.48  0.039824493  0.039768166            4 
 2603000   0.82790192   -5.4982312    1242.2484  0.039769766  0.039758915            6 
 2604000   0.84664557   -5.4703396    1244.7068  0.039833167   0.03974972            7 
 2605000   0.82542847   -5.4981661    1242.8177  0.039757444  0.039740535            2 
 2606000   0.83801682   -5.4853823    1245.9803   0.03984332  0.039731306            6 
 2607000      0.80841   -5.4646142     1246.615  0.039848326  0.039722267            4 
 2608000   0.83315425   -5.4569865    1246.0094  0.039813694  0.039713239            5 
 2609000   0.84185431   -5.4753421    1244.5724  0.039752537   0.03970418            8 
 2610000   0.83741652   -5.4464706    1249.2227  0.039885781   0.03969508            6 
 2611000    0.8504878   -5.4660585    1247.9091  0.039828581  0.039685991            4 
 2612000   0.82683975   -5.4587471    1248.7281  0.039839463   0.03967689            6 
 2613000    0.8511388   -5.4918894     1244.368  0.039685163  0.039667751            7 
 2614000   0.81990807   -5.4755352    1245.7534  0.039714149  0.039658639            7 
 2615000   0.82169252   -5.4856271    1247.9862  0.039770115  0.039649561            4 
 2616000   0.84819813   -5.4658829    1248.9134  0.039784447  0.039640395            3 
 2617000   0.84802474   -5.4963877     1241.279  0.039526143  0.039631324            3 
 2618000   0.85003797   -5.4619246    1247.8976  0.039721722  0.039622211            6 
 2619000   0.84174234   -5.4721657    1245.9425  0.039644346  0.039613099            3 
 2620000   0.84194335    -5.489993    1246.1784  0.039636718  0.039603909            5 
 2621000   0.82225833    -5.463486    1247.4042  0.039660567  0.039594739            5 
 2622000   0.84504208     -5.47194    1251.1049   0.03976306  0.039585625            9 
 2623000   0.83230837   -5.5071968    1245.4013  0.039566696   0.03957637            4 
 2624000   0.84892206   -5.5143567    1243.5751  0.039493621  0.039567016            6 
 2625000   0.82757153   -5.4929495    1245.9317  0.039553388  0.039557742           12 
 2626000   0.83117629   -5.4867299     1247.385  0.039584444  0.039548525            6 
 2627000     0.833161   -5.5073623    1247.7966  0.039582431  0.039539228            5 
 2628000   0.84237136    -5.481607     1248.549  0.039591229  0.039530001            6 
 2629000   0.83421007   -5.4854643    1246.1456  0.039499986  0.039520779            4 
 2630000   0.84117839   -5.4867894    1244.3628   0.03942848  0.039511574            5 
 2631000   0.82076868   -5.4688161    1250.7669  0.039616333  0.039502416            5 
 2632000   0.84295833    -5.497236    1247.2691  0.039490538  0.039493163            6 
 2633000   0.82459026   -5.4867571    1247.6561  0.039487785  0.039483845            4 
 2634000   0.82862999   -5.4926265    1244.9494  0.039387162  0.039474604            8 
 2635000   0.82289283   -5.4762491    1250.2773  0.039540711  0.039465332            7 
 2636000   0.83175205   -5.4732781    1251.5049  0.039564521  0.039456062            8 
 2637000   0.82085615   -5.4824586    1251.1418  0.039538043  0.039446808            5 
 2638000   0.81755661   -5.5059924     1246.348  0.039371619  0.039437476            3 
 2639000   0.83670088   -5.5173711    1246.8479  0.039372487  0.039428306            9 
 2640000   0.81976073   -5.4673125      1250.44  0.039470959  0.039419151            7 
 2641000   0.82203839   -5.4881908    1252.9479  0.039535149  0.039409943            4 
 2642000   0.82864719   -5.4843891    1248.7405  0.039387473  0.039400697            7 
 2643000   0.79524287   -5.5040445    1249.2642  0.039389085  0.039391254           13 
 2644000   0.82500474   -5.4965196    1247.6931  0.039324668  0.039381772            6 
 2645000   0.83640598   -5.5198259    1248.3871  0.039331666  0.039372397            8 
 2646000    0.8067928   -5.5241466    1248.7359  0.039327787   0.03936293           12 
 2647000   0.83639408   -5.4845659    1251.2785  0.039392976  0.039353482            4 
 2648000   0.82504052   -5.4815483    1251.5721   0.03938734  0.039344263            5 
 2649000   0.84923084   -5.5048221    1249.3757  0.039303375  0.039334927            5 
 2650000   0.82451173   -5.4785422    1248.6765  0.039266556  0.039325562            8 
 2651000   0.80800616   -5.5122941    1248.3108   0.03924025   0.03931611            7 
 2652000   0.84139916    -5.542313    1247.0979  0.039187338  0.039306598           14 
 2653000   0.83388185    -5.507241    1251.6316  0.039314977   0.03929714            4 
 2654000   0.83307381    -5.501967    1247.4715  0.039169539  0.039287637            4 
 2655000   0.81481571   -5.5079009    1250.4664  0.039248788   0.03927816            5 
 2656000   0.82559514   -5.5106306    1251.3227  0.039260878  0.039268761           10 
 2657000   0.82688001    -5.494923    1252.0891  0.039270139  0.039259409            5 
 2658000   0.83308352   -5.4779983    1254.4903  0.039330648  0.039250047            4 
 2659000   0.82304205   -5.4873389    1249.7853  0.039168399  0.039240635            6 
 2660000   0.82387606   -5.4793324    1248.0877  0.039100493  0.039231242            4 
 2661000   0.83326478   -5.5052012    1253.4957  0.039255157  0.039221891            2 
 2662000   0.83412649   -5.4737551    1253.1584  0.039229851   0.03921254            4 
 2663000   0.83967503   -5.4861944    1255.1426  0.039277214  0.039203214            4 
 2664000   0.82854156   -5.4892404    1251.0846  0.039135529  0.039193762            6 
 2665000   0.80530722    -5.505322    1251.7816  0.039142638  0.039184227            4 
 2666000   0.82866157   -5.5074456    1249.2053  0.039047428  0.039174828            9 
 2667000   0.81402226    -5.492664     1253.717   0.03917376  0.039165418            8 
 2668000   0.83076896   -5.5011657    1252.7947   0.03913027  0.039156066            7 
 2669000    0.8301344   -5.5071957    1253.3121  0.039131762  0.039146724            8 
 2670000   0.82949346   -5.5211919    1252.1826  0.039081853  0.039137341            9 
 2671000   0.82191969   -5.4930678    1253.0095   0.03909302  0.039127977            9 
 2672000   0.82287681   -5.4940757    1254.9151   0.03913782  0.039118668            8 
 2673000   0.81420464   -5.5331078    1251.0024  0.039001197  0.039109346            8 
 2674000   0.82192727   -5.4943506    1252.5201   0.03903391  0.039099972            4 
 2675000     0.824252   -5.4942631    1252.5367  0.039019835   0.03909069            6 
 2676000   0.82130171   -5.5150143    1253.7792  0.039043945   0.03908131            8 
 2677000   0.80481113   -5.4906809    1255.8536  0.039093937  0.039071914            5 
 2678000   0.81057822   -5.4982575     1253.151   0.03899524  0.039062636            6 
 2679000   0.82282591    -5.510012    1254.6606  0.039027642  0.039053321            6 
 2680000   0.80433774   -5.4996416    1258.7265  0.039139505  0.039044018            5 
 2681000   0.82688388   -5.4815538    1258.9082  0.039130556  0.039034712            5 
 2682000   0.81508422   -5.4813594    1254.9163  0.038991932  0.039025407            5 
 2683000   0.82177626   -5.5152716    1253.9727  0.038948088   0.03901603            6 
 2684000   0.82240078   -5.5025346    1257.1545  0.039032367  0.039006747            5 
 2685000   0.83354112   -5.5161797      1252.88  0.038885166  0.038997384            7 
 2686000   0.80793312   -5.4971827    1258.6328  0.039049167  0.038988044            7 
 2687000   0.81560209   -5.5126395    1253.7895  0.038884429  0.038978577            8 
 2688000   0.81867965   -5.5113276     1257.643  0.038989427  0.038969243            6 
 2689000   0.81701415    -5.533201    1254.8342  0.038887883  0.038959952            5 
 2690000   0.79638227    -5.517314    1258.3622  0.038982721  0.038950559            7 
 2691000   0.82351656   -5.5279468    1257.0689  0.038928183  0.038941238            9 
 2692000   0.83731418   -5.5048167    1256.1222  0.038884418  0.038931764            5 
 2693000   0.81758731    -5.522788    1255.1503  0.038839904  0.038922385            6 
 2694000   0.82067874   -5.5308528    1255.8792  0.038848032  0.038913006            6 
 2695000   0.80280345   -5.5149133    1255.8561  0.038832903  0.038903582            7 
 2696000   0.82127361   -5.5264229    1257.7683  0.038877605  0.038894142            4 
 2697000   0.81610776   -5.5305916    1255.9634  0.038807421  0.038884768            5 
 2698000    0.8083832   -5.5142185    1259.7509  0.038910024  0.038875363           10 
 2699000   0.83079092   -5.5157236    1256.0708   0.03878198  0.038865899           13 
 2700000   0.81800486   -5.4811594    1257.4192  0.038809235  0.038856443            7 
 2701000   0.81899677   -5.5034894      1258.32  0.038822658  0.038847027            4 
 2702000   0.83886417   -5.4935394    1260.1599  0.038865034  0.038837661            6 
 2703000    0.8215458   -5.5115481    1261.8314  0.038902189  0.038828273            8 
 2704000   0.82569519   -5.5194212    1258.1739  0.038775083  0.038818952            7 
 2705000   0.83562803   -5.5291929    1257.8685  0.038751341  0.038809551            6 
 2706000   0.81622564   -5.4963921    1261.6589  0.038853746  0.038800174            6 
 2707000   0.78988361   -5.5197822    1259.5052  0.038773095  0.038790806            5 
 2708000   0.82044754   -5.4903164    1262.9408    0.0388645  0.038781506            5 
 2709000   0.81875504   -5.4975525    1261.7231  0.038812696  0.038772263            3 
 2710000   0.81286382   -5.5276448     1261.217  0.038782812  0.038762914            6 
 2711000   0.81059194   -5.4871281    1263.9942  0.038853874  0.038753549            6 
 2712000   0.81933503   -5.5188139    1261.8702  0.038774282   0.03874417            5 
 2713000   0.83847171   -5.5168753    1260.5694  0.038720034  0.038734723            7 
 2714000   0.80430753   -5.4884011    1263.7339  0.038802931  0.038725343            5 
 2715000   0.82473732    -5.530709    1261.1141  0.038708228    0.0387159            5 
 2716000   0.80313999   -5.5360437    1262.5207  0.038737135  0.038706464            8 
 2717000   0.82910607   -5.5421492    1258.2611  0.038592232  0.038696931            4 
 2718000   0.81355976   -5.5450524    1257.2616  0.038547387   0.03868743            5 
 2719000   0.81921077    -5.520859    1263.3523  0.038719881  0.038678005            5 
 2720000   0.81890157   -5.5248799    1260.4199  0.038615804  0.038668609            4 
 2721000   0.82018634   -5.5143091    1263.1087  0.038683961  0.038659226            5 
 2722000   0.80619756   -5.5281361    1263.7471  0.038689293  0.038649834            6 
 2723000   0.82321677    -5.532353    1260.7069  0.038582045  0.038640441            9 
 2724000   0.81029585   -5.5428638    1261.7474  0.038599713  0.038630991            4 
 2725000   0.79924421   -5.5373872    1259.2837  0.038510203  0.038621601            5 
 2726000   0.79980124   -5.5307634    1261.6468  0.038568317  0.038612175            7 
 2727000   0.82298143    -5.540302    1257.6791  0.038432926  0.038602875            6 
 2728000   0.81129581   -5.4949632    1266.4222  0.038685918  0.038593546            4 
 2729000   0.83789378   -5.5403911    1261.0539  0.038507816  0.038584194           10 
 2730000   0.79585115   -5.5218455    1263.8857   0.03858015  0.038574793            3 
 2731000   0.81946499   -5.5019093    1266.3953  0.038642601  0.038565531            7 
 2732000   0.80950125   -5.5261794    1263.5208  0.038540777  0.038556244            7 
 2733000   0.80726749   -5.5134295    1267.5824  0.038650517  0.038546806           11 
 2734000   0.79919993   -5.5422483    1263.8357  0.038522181   0.03853739            5 
 2735000   0.82278011   -5.5586551    1261.0804  0.038424143  0.038527964            6 
 2736000   0.80916569   -5.5236808    1263.2545  0.038476319   0.03851859            6 
 2737000   0.81045408   -5.4817014    1266.7009  0.038567194  0.038509294            6 
 2738000   0.81971778   -5.5240797     1265.479  0.038515919  0.038500114            8 
 2739000   0.79871362    -5.498852    1263.2806  0.038434972  0.038490838            6 
 2740000   0.80808052   -5.5357631    1264.9757  0.038472497  0.038481454            5 
 2741000   0.81182891   -5.5271779     1261.891  0.038364679  0.038472092            8 
 2742000   0.81878095   -5.5649265    1261.3769  0.038335064  0.038462761            9 
 2743000   0.82590923   -5.5372315    1265.4362  0.038444409  0.038453376            8 
 2744000   0.81048153   -5.5391635    1265.2988  0.038426226  0.038443966            8 
 2745000    0.8047812   -5.5663664    1264.3003  0.038381914  0.038434655            7 
 2746000   0.81353516   -5.5405245    1264.7255   0.03838084  0.038425272           11 
 2747000   0.81134423   -5.5211946     1265.043    0.0383765   0.03841602            9 
 2748000   0.81370404   -5.5493788     1264.956  0.038359899  0.038406709            6 
 2749000   0.81692706   -5.5151295    1269.5831   0.03848621  0.038397353            8 
 2750000   0.81411993   -5.5287982    1266.5515  0.038380349  0.038388138            4 
 2751000    0.8083523   -5.5592599    1266.8491  0.038375412   0.03837882            8 
 2752000   0.80855587   -5.5416858    1269.5897  0.038444455  0.038369559            3 
 2753000   0.81701277   -5.5239718    1268.3166  0.038391956   0.03836031            7 
 2754000    0.8120263   -5.5605251    1267.4511  0.038351825  0.038351052            6 
 2755000    0.8219521   -5.5232392    1269.7023  0.038405997  0.038341789            8 
 2756000   0.82101275   -5.5452134    1270.8613  0.038427107  0.038332512            4 
 2757000   0.80953088   -5.5334192    1270.9282  0.038415191  0.038323212            5 
 2758000   0.79779375   -5.5323904      1267.12  0.038286197  0.038313994            5 
 2759000   0.81686279   -5.5448584    1268.9349  0.038327137  0.038304822            5 
 2760000   0.79467301   -5.5264739    1268.8625  0.038311066   0.03829567            3 
 2761000   0.80516631   -5.5117939    1273.2381  0.038429257  0.038286451            5 
 2762000   0.80850654    -5.546755    1270.7605   0.03834059   0.03827733            4 
 2763000   0.82216328   -5.5368731    1272.2068  0.038370334  0.038268183            3 
 2764000   0.82585174   -5.4984091    1271.8453  0.038345554  0.038259055            3 
 2765000   0.82400721   -5.5069498    1272.9448  0.038364823  0.038249906           11 
 2766000   0.80388844   -5.5276734    1270.7597  0.038285121  0.038240754            3 
 2767000     0.837412   -5.5368432    1273.3385   0.03834895  0.038231564            6 
 2768000   0.82551203   -5.5508834    1271.4545  0.038278375  0.038222367            3 
 2769000   0.80392366    -5.503796    1274.3048  0.038350331  0.038213217            5 
 2770000   0.82122641   -5.5260976    1274.6164  0.038345859    0.0382041            5 
 2771000   0.82700592   -5.5294265    1269.6546  0.038182803  0.038194953           10 
 2772000   0.84255738   -5.5248507    1272.4154  0.038252027  0.038185856            4 
 2773000   0.81257286   -5.5495429    1271.5875  0.038213351  0.038176652            7 
 2774000   0.81563327   -5.5394887     1273.289  0.038250691  0.038167619            5 
 2775000   0.79744509   -5.5639705    1274.3622  0.038269135  0.038158538            5 
 2776000   0.80660303   -5.5371882    1275.0376  0.038275624  0.038149406            5 
 2777000   0.81229347   -5.5010707    1277.4678  0.038334769  0.038140324           10 
 2778000   0.81839929   -5.5336905    1275.1669  0.038251948  0.038131267            4 
 2779000   0.81636822    -5.551507     1275.028  0.038234017  0.038122239            7 
 2780000   0.80065299   -5.5285779    1275.9657  0.038248372   0.03811317            7 
 2781000   0.81177132   -5.5605324    1272.7127  0.038137141   0.03810409            6 
 2782000   0.80314848   -5.5252872    1275.1092  0.038195221  0.038095089            8 
 2783000   0.79674139   -5.5380133    1278.6069  0.038286229  0.038085963            8 
 2784000   0.81869723   -5.5458858    1275.9949  0.038194292  0.038076955            4 
 2785000   0.81801388   -5.5486867    1274.7337  0.038142841  0.038067959            9 
 2786000   0.81247731   -5.5328308    1278.8527  0.038252355  0.038058911            6 
 2787000   0.81687035    -5.571343    1277.9415  0.038211384  0.038049866           12 
 2788000   0.80598869   -5.5671393    1278.5142  0.038214795  0.038040751            3 
 2789000   0.82905791   -5.5592107    1277.3738   0.03816702  0.038031731           13 
 2790000   0.80570132   -5.5507372    1279.5014  0.038216887  0.038022659           12 
 2791000   0.80395258   -5.5224506    1278.3826  0.038169791  0.038013675            3 
 2792000   0.80154899   -5.5447412    1277.2686  0.038122868  0.038004653            9 
 2793000   0.81235627   -5.5458958    1279.6679  0.038180807  0.037995604            6 
 2794000   0.80539287   -5.5455804    1275.9544  0.038056382  0.037986564            6 
 2795000   0.79730904   -5.5771538    1279.2382  0.038140674  0.037977459            6 
 2796000   0.80447231   -5.5637632    1276.2849   0.03803901  0.037968365            5 
 2797000   0.80802714   -5.5441855    1283.4893  0.038240058   0.03795928            8 
 2798000   0.79913837    -5.543473    1282.9498  0.038210323  0.037950325            3 
 2799000    0.7959349   -5.5568205    1282.1252  0.038172122   0.03794136            5 
 2800000   0.79797528   -5.5652037    1282.0517    0.0381563   0.03793235            8 
 2801000   0.79423156   -5.5587519     1280.798   0.03810538  0.037923315            6 
 2802000   0.81933721   -5.5816401    1277.2671  0.037986769  0.037914174            7 
 2803000   0.81725939   -5.5388968    1280.5472  0.038070733  0.037905119           15 
 2804000   0.80385577   -5.5565504    1280.0541  0.038042501  0.037896114            9 
 2805000   0.81002164   -5.5633049     1281.287  0.038065568  0.037887103            4 
 2806000   0.80117739   -5.5696271    1279.5553  0.038000573   0.03787809            7 
 2807000   0.80087267   -5.5728227    1278.3498  0.037951246  0.037868993           13 
 2808000   0.81410418   -5.5714564    1278.7517  0.037949657  0.037859976            6 
 2809000   0.79096381   -5.5640223    1280.6856  0.037993519  0.037851057            6 
 2810000   0.80413937   -5.5733714    1279.6238   0.03794851  0.037842102           10 
 2811000   0.79863295   -5.5461844    1280.7509  0.037968424  0.037833169            8 
 2812000   0.81439873   -5.5671445    1280.4111  0.037944851  0.037824144            4 
 2813000   0.79523403   -5.5613059    1277.1907   0.03783596  0.037815086            7 
 2814000   0.80642743   -5.5686886    1281.0777  0.037937624  0.037806088           15 
 2815000   0.78638429   -5.5861485    1281.7731  0.037944733  0.037797015            9 
 2816000   0.78052436   -5.5422865    1283.0843  0.037970061   0.03778793           10 
 2817000    0.7913248   -5.5627874    1282.3681  0.037935394  0.037778896           12 
 2818000   0.79787646    -5.559373    1283.9474  0.037968635  0.037769843            8 
 2819000   0.81952041   -5.5395298    1282.6623  0.037917179  0.037760838            7 
 2820000   0.81776785   -5.5721293    1281.4149  0.037866872  0.037751761            6 
 2821000   0.79751467   -5.5591244    1285.4944  0.037973957   0.03774268            2 
 2822000   0.79843915   -5.5304237    1285.2308  0.037952717  0.037733704           12 
 2823000   0.81698116   -5.5716127    1281.0706  0.037816467  0.037724733            6 
 2824000   0.80382156   -5.5512617    1288.1272  0.038011306  0.037715742            2 
 2825000   0.78572425   -5.5603831    1283.0307  0.037847514  0.037706743            4 
 2826000   0.80401954   -5.5254016    1287.0317  0.037952103  0.037697766            6 
 2827000   0.79743604   -5.5288769      1284.66  0.037868766  0.037688871            8 
 2828000     0.804164    -5.587191    1284.5894  0.037853293  0.037679873           12 
 2829000   0.81191499   -5.5441414    1287.9369  0.037938519  0.037670964           10 
 2830000   0.81330962   -5.5515472    1289.0124  0.037956785  0.037662167            8 
 2831000   0.80899477   -5.5403436    1288.3426   0.03792366  0.037653324            5 
 2832000   0.79247255   -5.5557217    1283.6047  0.037770853  0.037644427            5 
 2833000   0.80069238   -5.5490117    1284.4243   0.03778163  0.037635506           15 
 2834000   0.80661026   -5.5257178    1284.6712  0.037775558  0.037626606            4 
 2835000   0.79727916   -5.5605495    1286.4043  0.037813178  0.037617729            5 
 2836000    0.7796486   -5.5553119    1286.3169  0.037797277  0.037608849           12 
 2837000   0.80355432   -5.5731814    1286.2575  0.037782209  0.037599801            4 
 2838000   0.78918863   -5.5479848     1289.471  0.037863254  0.037590797            8 
 2839000   0.80003363   -5.5809795    1284.9066   0.03771594  0.037581833           13 
 2840000   0.78446805   -5.5963524    1285.6681  0.037725003  0.037572845            5 
 2841000   0.78379755   -5.5738517    1286.1844  0.037726869   0.03756384            8 
 2842000   0.80224232   -5.5408654     1288.652  0.037785948  0.037554939            4 
 2843000   0.80524094   -5.5957541    1284.6361  0.037654944  0.037546024            7 
 2844000   0.77341248    -5.574835    1287.0723  0.037713088  0.037536962           10 
 2845000   0.80035714   -5.5412507      1289.65  0.037775336  0.037528047            4 
 2846000   0.77781164   -5.5533253    1293.7137  0.037881051  0.037519244            3 
 2847000   0.79805641   -5.5618282    1288.2647   0.03770825    0.0375105            8 
 2848000   0.80842763   -5.5640706    1288.0536  0.037688834  0.037501609            4 
 2849000   0.79718682   -5.6111889    1289.1007  0.037706232  0.037492762            8 
 2850000   0.79280642    -5.590044    1289.4253  0.037702493  0.037483841            5 
 2851000   0.78707899   -5.5946057    1288.7707  0.037670136  0.037474926            4 
 2852000   0.78783334   -5.5487751    1289.4871   0.03767786   0.03746593            5 
 2853000   0.80546143   -5.5642223    1289.7071  0.037671081  0.037456986            7 
 2854000    0.8027777   -5.5973506    1284.9383  0.037518637  0.037448058            7 
 2855000   0.81877585   -5.5438876    1290.4991  0.037667808  0.037439108            5 
 2856000   0.79349227   -5.5813934    1289.5066  0.037625659  0.037430182            8 
 2857000   0.79581349   -5.5560703     1291.744   0.03767775  0.037421212            9 
 2858000   0.78577476    -5.575498    1287.9887  0.037555069  0.037412293            9 
 2859000   0.78846798   -5.5705577    1289.3921   0.03758284  0.037403404           12 
 2860000   0.80386526    -5.550287    1288.6734  0.037548758  0.037394461            6 
 2861000   0.79050705   -5.5920275    1288.2159  0.037522308  0.037385532            3 
 2862000   0.78101981   -5.5666466    1294.3464  0.037687701  0.037376653            6 
 2863000   0.79062622   -5.5761178    1293.7159  0.037656185  0.037367783            8 
 2864000   0.78138377   -5.5515576    1291.3991  0.037575627  0.037358916           10 
 2865000   0.79620313   -5.5861779    1290.3095  0.037530818  0.037349989            7 
 2866000    0.7882936   -5.5748498     1292.719  0.037587782  0.037341132           10 
 2867000   0.79125573   -5.5902059    1289.1236  0.037470167  0.037332211            6 
 2868000   0.79420269   -5.5732857    1289.4392  0.037466272  0.037323232            4 
 2869000   0.77661284   -5.5617407    1294.8997  0.037611818  0.037314301           11 
 2870000   0.76914805   -5.5809889    1290.2705    0.0374643   0.03730535            3 
 2871000   0.76336672   -5.5800369    1288.6948  0.037405516  0.037296425           10 
 2872000   0.79374642    -5.570944    1290.1021  0.037433324  0.037287555            8 
 2873000   0.79041788   -5.6046489    1293.0253  0.037505084  0.037278757           11 
 2874000   0.78483296    -5.566592    1289.8493  0.037399945  0.037269852            4 
 2875000   0.82001265   -5.5532606    1294.3241  0.037516642  0.037261097           17 
 2876000   0.79375111   -5.5879601    1289.0761  0.037351532  0.037252097           14 
 2877000   0.78497894    -5.560306    1294.3649  0.037491742  0.037243168            5 
 2878000   0.78253008   -5.5809936    1291.4244  0.037393572  0.037234278            7 
 2879000   0.78838133   -5.5731026    1296.9718  0.037541153  0.037225349            7 
 2880000   0.78316046      -5.5804    1291.1801  0.037360535  0.037216533            5 
 2881000   0.79508822   -5.5624621    1295.5277  0.037473322  0.037207676            5 
 2882000   0.78590339   -5.5919423    1293.0522   0.03738874  0.037198798            7 
 2883000    0.7791757   -5.5809026    1292.5982   0.03736265  0.037189919           16 
 2884000   0.80164902   -5.5512964    1298.1367   0.03750973  0.037181078            7 
 2885000   0.78641387   -5.5477099    1296.6373  0.037453417  0.037172311           16 
 2886000   0.78815341   -5.5821533    1296.1213  0.037425539  0.037163568            4 
 2887000   0.78713166   -5.5503909    1301.3356  0.037563087  0.037154807            4 
 2888000   0.77772753   -5.5657718    1297.7166  0.037445655  0.037146089            5 
 2889000    0.7913749   -5.5827848    1295.9099  0.037380578  0.037137264            4 
 2890000   0.77722334   -5.5752697    1295.4148  0.037353368  0.037128387           10 
 2891000   0.78610244   -5.5759022    1298.8021  0.037438087  0.037119512            8 
 2892000   0.79655416   -5.6021433    1294.2541  0.037294089  0.037110669            8 
 2893000   0.76859942   -5.5743567    1295.4443  0.037315483  0.037101774            3 
 2894000   0.78935096   -5.5877594     1296.322  0.037327861  0.037092981            6 
 2895000   0.79867056   -5.5984484    1295.4574   0.03729008  0.037084154           11 
 2896000   0.78299387   -5.5728472    1298.8608  0.037375137  0.037075315            7 
 2897000   0.79966398   -5.6149726    1291.5099  0.037150786  0.037066433            5 
 2898000   0.76852932   -5.6032836     1298.703  0.037344808  0.037057573           11 
 2899000   0.77185564   -5.5910897    1293.5772   0.03718458  0.037048657            9 
 2900000   0.79679314   -5.5421244    1298.5258   0.03731396  0.037039949            4 
 2901000   0.77929949   -5.5900012    1296.1861  0.037233889  0.037031191            5 
 2902000   0.80458447   -5.5851296    1296.1736  0.037220698  0.037022305            7 
 2903000   0.77992526   -5.5940381    1303.2208  0.037410174  0.037013484            6 
 2904000   0.77994805   -5.5845996    1299.8254  0.037299856  0.037004637            9 
 2905000   0.79578628   -5.5909044    1297.7688  0.037228021  0.036995731           10 
 2906000   0.78647187   -5.5501966    1299.5494  0.037266272  0.036986852            6 
 2907000   0.79643063   -5.5659242    1299.3087  0.037246553  0.036978096            6 
 2908000   0.77946912   -5.5647137    1297.2207  0.037173908  0.036969314            9 
 2909000   0.79229599   -5.6201748    1295.3189   0.03710665    0.0369604           10 
 2910000   0.77181224   -5.5959801    1300.4019  0.037239459  0.036951547            4 
 2911000    0.7794211   -5.5911955    1297.8709   0.03715421  0.036942811            4 
 2912000    0.7965906   -5.5933175    1298.9189  0.037171443  0.036933952            6 
 2913000   0.81222188   -5.5694128    1298.4742  0.037145962  0.036925274            5 
 2914000   0.77373334   -5.5712642    1303.5641  0.037278773  0.036916547           11 
 2915000   0.78453057   -5.5974975      1298.77  0.037128932  0.036907842            7 
 2916000   0.78708249   -5.5740515    1298.5077  0.037108703  0.036899071            5 
 2917000   0.80370799   -5.6133263     1300.106   0.03714164  0.036890313            7 
 2918000   0.77717212   -5.6233397    1299.7329  0.037118258  0.036881565            9 
 2919000   0.79591704   -5.5767192    1301.8385  0.037165652  0.036872839            5 
 2920000   0.76761834   -5.5888635    1301.6145  0.037146534  0.036864072            4 
 2921000   0.77508251   -5.6196819    1298.1862  0.037036009  0.036855306            5 
 2922000    0.7883451   -5.5779368    1305.0273  0.037218438   0.03684654            8 
 2923000   0.80448994   -5.5989386    1301.3309  0.037100321  0.036837792            7 
 2924000   0.78306423    -5.593517    1300.2652  0.037057261  0.036828962            4 
 2925000   0.78971073   -5.6245507    1301.0711  0.037067554  0.036820153            7 
 2926000   0.78013611   -5.5739167    1303.8375  0.037133672  0.036811526            7 
 2927000   0.77972754   -5.5585319    1303.9009  0.037122791  0.036802886            6 
 2928000   0.79223215   -5.5770762    1303.9898  0.037112643  0.036794231            4 
 2929000   0.77052163   -5.6021383    1301.5663   0.03703102  0.036785519            9 
 2930000   0.79028686   -5.6076375    1304.5164  0.037102286  0.036776781            4 
 2931000   0.78365168    -5.600578    1304.1998  0.037080627  0.036768038            5 
 2932000   0.80011644   -5.6191203    1300.3894  0.036959682  0.036759248           12 
 2933000   0.77002931   -5.5517011    1306.1902  0.037111894  0.036750545            6 
 2934000   0.79574989   -5.5918748    1305.9891  0.037093534   0.03674179            4 
 2935000   0.78687127   -5.5633657    1304.1199  0.037027823  0.036733121           14 
 2936000    0.7769829   -5.5844808    1307.3129   0.03710584  0.036724479            4 
 2937000   0.79140884   -5.5997559    1303.7202  0.036991267  0.036715834            4 
 2938000   0.79114553   -5.5868531    1307.7331  0.037092497  0.036707169            3 
 2939000    0.7999843   -5.6054248    1305.2419  0.037009242  0.036698504            5 
 2940000   0.78321126   -5.6312211    1305.3167  0.036998773  0.036689734            6 
 2941000   0.79138917   -5.6034244    1304.3599   0.03695908  0.036680948            9 
 2942000   0.78641709    -5.604376    1302.8754  0.036904469  0.036672159            7 
 2943000   0.78408086     -5.63115    1302.3746  0.036877749  0.036663337            6 
 2944000   0.80393496   -5.6123685    1302.9073  0.036880302  0.036654564            3 
 2945000     0.799708   -5.6157615    1305.0703  0.036928984  0.036645799            9 
 2946000   0.78220917   -5.6149363    1305.3894  0.036925474  0.036637073           11 
 2947000   0.75918739   -5.5822591     1305.832  0.036925462  0.036628361            7 
 2948000   0.79098716   -5.6140625    1306.3425  0.036927366  0.036619651            6 
 2949000   0.78676721    -5.608006    1305.8658  0.036901374  0.036610989            5 
 2950000   0.78000121   -5.5839796    1306.3075  0.036901342  0.036602273            7 
 2951000   0.77812438   -5.5757376    1308.1008  0.036939477  0.036593511           24 
 2952000   0.75917689   -5.5987924    1304.5925  0.036827927  0.036584753           12 
 2953000   0.79921588   -5.5888116    1303.0128  0.036770877  0.036575976            6 
 2954000   0.77833796   -5.6121634    1307.0345  0.036871883  0.036567178            4 
 2955000   0.76540749    -5.595639    1306.4113  0.036841829  0.036558357           11 
 2956000   0.77518904   -5.5984459    1301.7485  0.036697916  0.036549538           10 
 2957000   0.77757701   -5.5950634    1305.3938  0.036788236  0.036540716            4 
 2958000    0.7689077   -5.5983977    1304.8341  0.036760032  0.036531928            8 
 2959000   0.76664458   -5.6085661    1306.8707  0.036804966  0.036523106           11 
 2960000   0.79808029   -5.6053527    1304.8944  0.036736891  0.036514424            5 
 2961000   0.77939445    -5.594831    1307.0775  0.036785924  0.036505652            4 
 2962000   0.77181931   -5.6103404     1304.746  0.036707911  0.036496896            8 
 2963000   0.77866468   -5.6440357    1305.8081  0.036725394   0.03648813            6 
 2964000   0.79334941   -5.6096825    1306.0843  0.036720767   0.03647928            6 
 2965000   0.77687112   -5.5981566    1306.5985  0.036722836  0.036470501            8 
 2966000   0.80171128   -5.5866494    1308.7105  0.036769794  0.036461764            6 
 2967000   0.75840646   -5.6082819    1304.6587  0.036643599  0.036452989           12 
 2968000   0.78264707   -5.6005881    1303.9004  0.036609961  0.036444263            8 
 2969000   0.78380421   -5.6320327    1307.7279  0.036705062  0.036435446            5 
 2970000   0.78528833   -5.5873224    1305.0245  0.036616849  0.036426683            9 
 2971000   0.78447986   -5.6169769    1309.5207  0.036730638  0.036417857            7 
 2972000   0.76554774    -5.629755    1304.1096  0.036566554  0.036409005            3 
 2973000   0.77590535   -5.6079058    1307.0863  0.036637692  0.036400172            5 
 2974000   0.78284216   -5.6329453    1306.0251  0.036595637  0.036391364            4 
 2975000   0.78717117   -5.6029413     1305.736  0.036575239  0.036382544            6 
 2976000   0.78078434   -5.5817068    1312.1262  0.036741885  0.036373817            4 
 2977000   0.75463799   -5.6067922    1306.8569  0.036582042  0.036365067            9 
 2978000   0.76608115    -5.629129    1309.6015   0.03664656  0.036356373           14 
 2979000   0.79282762   -5.5970335    1307.5622  0.036577212  0.036347625            5 
 2980000   0.75773742   -5.5820994     1309.576  0.036621252  0.036338923            8 
 2981000   0.77268337   -5.5905388    1311.5076  0.036662965   0.03633024            7 
 2982000   0.77331861   -5.6163908    1311.9429  0.036662836  0.036321588            3 
 2983000   0.78490459   -5.6069405    1308.9053  0.036565687  0.036312949            6 
 2984000   0.78941747   -5.6117007    1311.3628  0.036622062  0.036304245           12 
 2985000   0.75861388   -5.6220412    1311.1438   0.03660368  0.036295539            3 
 2986000   0.77221617   -5.6252918    1307.4192  0.036487474  0.036286846           13 
 2987000   0.77950788   -5.6196871    1312.2862  0.036611041  0.036278122            6 
 2988000   0.76936664   -5.6098462    1313.2306  0.036625128  0.036269457            5 
 2989000   0.78945588   -5.6010563    1313.9981  0.036634274  0.036260846           15 
 2990000   0.77094606   -5.6318744    1312.5584  0.036581895  0.036252232            8 
 2991000   0.78666256   -5.6001742    1311.4279  0.036538167  0.036243573            4 
 2992000   0.77264129   -5.6465346    1308.5539  0.036445908  0.036234858           12 
 2993000    0.7711564   -5.6172135    1311.4819  0.036515254   0.03622602            9 
 2994000   0.77213203   -5.6199386    1311.7713  0.036511115  0.036217313           10 
 2995000   0.78807847   -5.6092627    1309.8012  0.036444108  0.036208592           11 
 2996000   0.76571428   -5.6080803    1309.7786  0.036431314  0.036199834            6 
 2997000   0.75791875   -5.6466205    1312.4929  0.036494629  0.036191113            8 
 2998000   0.77417439   -5.6392685    1311.2092  0.036446775  0.036182337            7 
 2999000   0.76900758   -5.6397394    1316.5365  0.036582652  0.036173617            5 
 3000000   0.76456647   -5.6160972    1313.5848  0.036488466  0.036164893            6 
 3001000   0.74952961   -5.6264603    1314.3463  0.036497454  0.036156203            5 
 3002000   0.78071963   -5.6136689    1313.6514  0.036466006  0.036147566            7 
 3003000   0.76157388   -5.6144168    1313.9493  0.036462129   0.03613885            6 
 3004000   0.76985325   -5.6240419    1314.1313   0.03645504  0.036130214            8 
 3005000   0.77529778   -5.6232467     1308.651  0.036290933  0.036121601            8 
 3006000   0.78894409   -5.6313379    1315.2892  0.036462886  0.036112912           14 
 3007000   0.76481241   -5.6347244    1312.3279  0.036368692  0.036104247            5 
 3008000   0.77772371   -5.6043323       1313.4  0.036386302  0.036095614            4 
 3009000   0.76769438   -5.6336552    1312.4117   0.03634684  0.036086949            4 
 3010000   0.75784312   -5.6162449    1313.5138  0.036365277  0.036078243           12 
 3011000   0.76990035   -5.6041814    1316.3582  0.036431923  0.036069546           10 
 3012000   0.76662878   -5.6494832    1310.5873  0.036260162  0.036060792            6 
 3013000   0.77214636   -5.6172001    1314.2958  0.036350698  0.036052072           12 
 3014000   0.76287942   -5.6340454    1311.3299  0.036256633  0.036043291           16 
 3015000   0.77465869   -5.6237205    1314.3963  0.036329361  0.036034483            6 
 3016000   0.75304742   -5.6305745    1315.3414  0.036343428  0.036025792            3 
 3017000   0.78464581   -5.6457124    1310.4994   0.03619764  0.036016999            6 
 3018000   0.76747564    -5.619464    1311.0004  0.036199481  0.036008229           17 
 3019000   0.75897847   -5.6250291    1311.3698  0.036197687  0.035999483            8 
 3020000   0.77264838   -5.6281347    1313.7154  0.036250425  0.035990705            7 
 3021000   0.76850818   -5.6383835    1313.3977  0.036229663  0.035981932           12 
 3022000   0.77554647   -5.6254433    1315.5117  0.036275969  0.035973141           11 
 3023000   0.76209757   -5.6145378    1312.6475  0.036185013   0.03596445            7 
 3024000   0.75888034   -5.6412664    1314.2497  0.036217199  0.035955693            8 
 3025000   0.75223413   -5.6467816    1312.6705   0.03616172  0.035946908            6 
 3026000   0.77273036   -5.6346432    1315.4143  0.036225333  0.035938115            3 
 3027000   0.76553298   -5.6343894    1313.0995   0.03614964  0.035929236            3 
 3028000   0.77613424    -5.635497    1314.2495  0.036169349  0.035920434            6 
 3029000   0.77363108   -5.6216345    1313.2063  0.036128709  0.035911639            4 
 3030000   0.76100762   -5.6327546    1316.8195  0.036216159  0.035902957            7 
 3031000   0.78027098   -5.5964323    1318.6554  0.036254684  0.035894279           11 
 3032000   0.76933658   -5.6098945    1316.7412  0.036190117  0.035885615            8 
 3033000   0.76660675   -5.6271339    1318.4161  0.036224204  0.035876875            7 
 3034000   0.76256881   -5.6352707    1315.8327  0.036141307  0.035868237            8 
 3035000   0.77114883   -5.6428576    1316.0906   0.03613648   0.03585955            7 
 3036000    0.7717871   -5.6466746    1313.5058   0.03605363  0.035850829            9 
 3037000   0.76876354   -5.6268911     1315.154  0.036086982  0.035842074            7 
 3038000   0.76356157   -5.6216245    1320.3022  0.036216321  0.035833425            4 
 3039000   0.75933735   -5.6370083    1313.1255  0.036007609  0.035824711           13 
 3040000    0.7593489   -5.6493903    1317.4587  0.036114548  0.035816035            4 
 3041000   0.76986957   -5.6412941    1316.0131  0.036063058  0.035807312            6 
 3042000   0.77211796   -5.6631908    1316.8328  0.036073657  0.035798572            7 
 3043000   0.76890513    -5.637411    1317.5947  0.036082667   0.03578979            4 
 3044000   0.76735073   -5.6464803    1316.1288  0.036030684  0.035781041            5 
 3045000   0.78278456   -5.6192738    1315.5986  0.036004341  0.035772295            8 
 3046000   0.77465461   -5.6533263    1318.2436  0.036064882  0.035763563           14 
 3047000   0.76476143   -5.6175566    1321.2799  0.036136087  0.035754838            8 
 3048000   0.76004294   -5.6517795    1321.2821  0.036124291  0.035746203            9 
 3049000   0.77865694   -5.6289499     1319.159  0.036054415  0.035737508            5 
 3050000   0.76956043   -5.6320462    1320.2054  0.036071185  0.035728872            6 
 3051000   0.76019197   -5.6200415    1319.6757  0.036044896  0.035720194            7 
 3052000   0.75524011   -5.6497428    1315.5275  0.035919819  0.035711544            5 
 3053000   0.75869636   -5.6111546    1322.4489  0.036096978    0.0357029            4 
 3054000   0.76764238    -5.650663    1317.5106   0.03595041  0.035694273            8 
 3055000   0.75655448   -5.6277743    1319.7016  0.035998408  0.035685667            6 
 3056000   0.76384797   -5.6569184    1319.3452  0.035976908  0.035677014            8 
 3057000   0.77534297    -5.630868    1320.8824  0.036007044  0.035668294            8 
 3058000   0.76650638   -5.6189123    1321.8052  0.036020415  0.035659653           13 
 3059000   0.76293735   -5.6761351    1315.9497  0.035849126  0.035651003           10 
 3060000   0.75028229   -5.6361697    1321.9735  0.036001456  0.035642352            9 
 3061000   0.77752268   -5.6464045    1316.8905  0.035851316  0.035633687           11 
 3062000   0.73936409   -5.6407212    1321.9024  0.035976008  0.035625032            5 
 3063000   0.76222803   -5.6504036    1321.4483  0.035951906  0.035616396           14 
 3064000    0.7732932   -5.6384207    1318.9627   0.03587257  0.035607795            9 
 3065000   0.73129256   -5.6297115     1319.304  0.035870147  0.035599097            9 
 3066000   0.76684176   -5.6562088    1319.8502  0.035873294  0.035590426            4 
 3067000   0.74924247   -5.6549271    1319.1825  0.035843454  0.035581771            7 
 3068000     0.759835   -5.6479557    1321.0752   0.03588318  0.035573113            5 
 3069000   0.77493709   -5.6685815    1321.0703  0.035871357   0.03556442            6 
 3070000   0.75055139   -5.6384223    1320.0489  0.035831947  0.035555689           13 
 3071000   0.76319162   -5.6448432    1315.7345  0.035703204  0.035546987            5 
 3072000   0.76885267   -5.6446809    1319.4404  0.035792112  0.035538309            7 
 3073000    0.7620067    -5.663011     1319.092  0.035771016  0.035529637           21 
 3074000   0.75169431   -5.6558173    1324.0359  0.035893404  0.035520978            7 
 3075000   0.75804317   -5.6468134    1325.8527  0.035930968  0.035512344            9 
 3076000   0.75960831   -5.6756746    1320.1398  0.035764515  0.035503693            6 
 3077000   0.76614902   -5.6287783    1321.9673  0.035802386  0.035495063            5 
 3078000   0.76128102   -5.6818272    1319.4243  0.035721905  0.035486405            9 
 3079000   0.76886673    -5.637844     1320.687  0.035744478  0.035477713            3 
 3080000   0.76315877   -5.6878787    1317.9735  0.035659456  0.035469055            8 
 3081000   0.74625817   -5.6752723    1318.7395    0.0356686   0.03546034           18 
 3082000    0.7666028   -5.6469796     1322.119  0.035748406  0.035451667            9 
 3083000    0.7674331     -5.66101    1321.2617  0.035713637   0.03544307           10 
 3084000    0.7571001   -5.6564988    1320.2677  0.035675196  0.035434403           13 
 3085000   0.76608723   -5.6583683    1322.9213  0.035735313  0.035425639            7 
 3086000   0.76755771   -5.6289681    1325.0394   0.03578093  0.035416968            7 
 3087000   0.75381852   -5.6382089    1326.0386  0.035796313  0.035408298            4 
 3088000   0.76240605   -5.6459712    1319.8953  0.035618937  0.035399641            7 
 3089000    0.7604539   -5.6699401    1322.2305  0.035670404  0.035390882           11 
 3090000    0.7564506   -5.6867376    1320.3943   0.03560934  0.035382154           16 
 3091000   0.76599299   -5.6452095    1321.8303  0.035636533  0.035373462           11 
 3092000   0.76124677    -5.644123    1322.2333  0.035635871  0.035364749            5 
 3093000   0.75158682   -5.6645848    1319.7891  0.035558496   0.03535605            6 
 3094000   0.75432694     -5.67394    1321.7798  0.035600619   0.03534737           10 
 3095000   0.76846478   -5.6195279    1326.9782  0.035729086  0.035338762            3 
 3096000    0.7455359    -5.665804     1323.641  0.035627718  0.035330116            7 
 3097000   0.73277694   -5.6410793    1328.2204  0.035739436  0.035321495            5 
 3098000   0.75070151   -5.6482132    1324.0009  0.035614399  0.035312869           10 
 3099000   0.76411491   -5.6676758    1322.2164  0.035554922  0.035304208           19 
 3100000   0.75422496   -5.6916047    1323.6483  0.035581942  0.035295549            7 
 3101000   0.74979004   -5.6383325     1322.203  0.035531629  0.035286869            9 
 3102000   0.75980646   -5.6683897    1324.6804   0.03558673  0.035278213            9 
 3103000   0.75326927   -5.6687784      1324.15  0.035561017  0.035269597            6 
 3104000   0.74640564   -5.6635017    1323.6631  0.035536489  0.035260967            6 
 3105000   0.75072346   -5.6602172    1325.1323  0.035564475  0.035252349           12 
 3106000   0.75747477    -5.682703    1323.9971  0.035522566  0.035243673            7 
 3107000   0.76671541   -5.6712415     1327.768  0.035612274  0.035235012           13 
 3108000   0.75239212   -5.6468321     1327.311  0.035588562  0.035226402            7 
 3109000   0.72183683   -5.6615287    1325.8606  0.035538239  0.035217868            8 
 3110000   0.75690191   -5.6585483    1328.0919  0.035586599  0.035209298            6 
 3111000   0.77141095   -5.6366515    1328.9146  0.035597197  0.035200683            5 
 3112000   0.75378399   -5.6602204    1326.6502  0.035525122  0.035192075            9 
 3113000   0.75599628   -5.6564609    1321.4734   0.03537513  0.035183409            7 
 3114000   0.75999597   -5.6942548    1322.1972  0.035383142  0.035174762            4 
 3115000   0.74749079   -5.6470836    1327.3858   0.03551059  0.035166108           10 
 3116000   0.75171739   -5.6529535    1329.7981  0.035563706   0.03515751            7 
 3117000   0.76291948   -5.6761933    1324.5246   0.03541131   0.03514891            7 
 3118000   0.76155114   -5.6695463    1327.7158  0.035485241  0.035140306           10 
 3119000   0.74554482    -5.670573    1327.2019  0.035460135  0.035131709            9 
 3120000     0.753414   -5.6703106    1328.4975  0.035483373  0.035123079            5 
 3121000    0.7540764   -5.6293878    1330.9555  0.035537635  0.035114548            7 
 3122000   0.76415886   -5.6492054    1324.6737  0.035358577  0.035106063           18 
 3123000   0.76750559   -5.6438446    1331.2551   0.03552287  0.035097589           10 
 3124000   0.74239766   -5.6371956    1327.4684  0.035410488  0.035089056           15 
 3125000   0.75837614   -5.6524504    1331.8625  0.035516334  0.035080495           28 
 3126000   0.75636548     -5.65045    1324.1037  0.035298138  0.035071951            9 
 3127000   0.75141814   -5.6647785    1330.9791  0.035470075  0.035063408            9 
 3128000   0.73698064   -5.6656965    1329.7216  0.035425236  0.035054876           11 
 3129000    0.7498875   -5.6809589    1328.1438  0.035371893  0.035046364            4 
 3130000   0.75298558   -5.6820258    1328.2728  0.035364026  0.035037777            4 
 3131000   0.74493221   -5.6584472    1327.4836  0.035331727   0.03502918            8 
 3132000   0.73383368   -5.6746704    1331.8454    0.0354365  0.035020613            4 
 3133000   0.76782377   -5.6707405    1329.2015  0.035354865  0.035012015            3 
 3134000   0.74883892   -5.6700486    1330.7622  0.035385083  0.035003482            5 
 3135000   0.74328902    -5.678022     1327.848  0.035296332  0.034994935            8 
 3136000   0.74882069    -5.683491    1327.5008  0.035275849  0.034986278           16 
 3137000   0.74449423   -5.6553447    1328.4142  0.035288868  0.034977614            8 
 3138000   0.74393657   -5.6732441    1330.9999   0.03534629  0.034968969            8 
 3139000    0.7429801   -5.6747302    1331.6125  0.035351293  0.034960264            7 
 3140000   0.73282203   -5.6998076    1328.5426  0.035258562  0.034951628           13 
 3141000   0.75837442   -5.6747374      1327.75  0.035226309  0.034942965           13 
 3142000   0.74231853   -5.6724874     1330.165  0.035279149  0.034934391           11 
 3143000   0.74472174   -5.6985827    1328.8266  0.035232437  0.034925811           15 
 3144000   0.75980896   -5.6740388    1331.8508  0.035301388  0.034917216            9 
 3145000    0.7426676   -5.6770078    1333.5426  0.035334991  0.034908671           11 
 3146000   0.74733091    -5.699804     1329.532  0.035217525  0.034900136            8 
 3147000   0.74017882   -5.6781829    1330.0757   0.03522073  0.034891526           19 
 3148000   0.75623266   -5.6660146    1329.4917  0.035194082  0.034882943            6 
 3149000     0.744834   -5.6703219    1327.8217  0.035138714   0.03487439            3 
 3150000   0.74142241   -5.6668479    1334.2205   0.03529684  0.034865802           13 
 3151000   0.73659061   -5.6633721    1330.4925  0.035187043  0.034857249            4 
 3152000   0.74469597   -5.6900932    1324.3215  0.035012729  0.034848717            6 
 3153000   0.73922932   -5.6794341    1332.4902  0.035217524  0.034840117            5 
 3154000   0.74682305   -5.6834048    1329.7167  0.035133076  0.034831585            6 
 3155000   0.73821128   -5.6779045    1333.0802  0.035210781  0.034823064            6 
 3156000   0.76309736   -5.6880607    1329.6982  0.035110325  0.034814497           13 
 3157000   0.74627098   -5.6916677    1331.0312  0.035134388  0.034806001            9 
 3158000   0.75238373   -5.6792778     1329.862   0.03509241  0.034797415           10 
 3159000   0.75943641   -5.6603773     1333.875  0.035187164  0.034788854           10 
 3160000   0.74735072   -5.6903488    1334.9803  0.035205175  0.034780313            6 
 3161000   0.73966179    -5.663741    1333.9258  0.035166239  0.034771723            4 
 3162000   0.71823389   -5.6805906    1336.6832  0.035227788   0.03476317            5 
 3163000   0.75429445   -5.6892733    1334.9783  0.035171733  0.034754661           16 
 3164000   0.73658208   -5.6734039    1333.1005  0.035111159  0.034746203            5 
 3165000   0.74163268    -5.672662    1333.5019  0.035110634  0.034737689           11 
 3166000   0.75183962   -5.6797626     1336.283  0.035172747  0.034729203           12 
 3167000   0.72581116     -5.69204    1333.0918  0.035077669  0.034720683            8 
 3168000   0.76057488   -5.7084957    1332.4446  0.035049573  0.034712128           10 
 3169000   0.73437085   -5.6804137    1331.5129  0.035014014   0.03470359            9 
 3170000   0.72197627   -5.6955496    1331.1991  0.034994718  0.034695066            5 
 3171000   0.74527488   -5.6941758    1332.3041  0.035012723  0.034686497            6 
 3172000   0.74555109   -5.6919598    1332.9632  0.035019001   0.03467794            9 
 3173000   0.74037749   -5.6720863     1336.039  0.035088744  0.034669403           13 
 3174000    0.7415902   -5.6640124    1335.8479  0.035072671  0.034660944            9 
 3175000   0.75731332   -5.6748129    1333.8119  0.035008185  0.034652448           11 
 3176000   0.74062136   -5.6679023     1334.487  0.035014878  0.034643975           26 
 3177000   0.74330727   -5.6973745    1333.4368  0.034976309   0.03463549           18 
 3178000    0.7286544   -5.7087737    1334.9497  0.035004975  0.034626928           10 
 3179000   0.73904518   -5.6746818    1334.4729  0.034981465  0.034618393            4 
 3180000   0.74906516   -5.7217367    1330.8225  0.034874804  0.034609857           10 
 3181000   0.74234619   -5.6991745    1334.8202  0.034968569  0.034601297            8 
 3182000   0.74423784   -5.6861454    1336.6055  0.035004333  0.034592756            5 
 3183000   0.73722327   -5.6935796    1336.7441  0.034996967  0.034584224           15 
 3184000   0.73534583   -5.7159073    1330.8855  0.034832639  0.034575644           12 
 3185000    0.7569756    -5.689868    1336.7751  0.034975801  0.034567088           16 
 3186000    0.7215602   -5.7041039    1337.9628  0.034995889  0.034558545            8 
 3187000   0.73447673   -5.6925951    1331.9835  0.034828563  0.034549997           11 
 3188000   0.74014091   -5.6948816    1333.4983  0.034857232  0.034541434           14 
 3189000    0.7399776   -5.7339662    1336.9312  0.034936009  0.034532919            6 
 3190000   0.73317909   -5.7184097    1332.7359  0.034815461  0.034524358           16 
 3191000   0.75315032   -5.7074808    1330.1779  0.034737749  0.034515783            9 
 3192000   0.74060695   -5.7010541    1334.3977  0.034837033  0.034507239            9 
 3193000   0.73665395   -5.6862432    1336.1312  0.034871364   0.03449868            4 
 3194000   0.72409237   -5.6961343    1335.1802  0.034835635  0.034490135            7 
 3195000   0.74582794   -5.6968215    1338.5808  0.034913427  0.034481576            6 
 3196000   0.74357393   -5.6846712    1335.3765  0.034818954  0.034473025            7 
 3197000   0.74220422   -5.7029031    1337.7401  0.034869672  0.034464538            7 
 3198000   0.74554617    -5.692243    1336.5176  0.034826912   0.03445591           19 
 3199000   0.75748114   -5.6577853    1332.5752  0.034713326  0.034447374           11 
 3200000   0.72985699    -5.719148     1331.426  0.034672552  0.034438821           12 
 3201000    0.7457016   -5.6738464    1336.1716  0.034785265  0.034430285            5 
 3202000   0.73829182   -5.6774016    1337.3899  0.034806107  0.034421849            7 
 3203000   0.74418501   -5.6674954    1335.8893  0.034756201  0.034413337            7 
 3204000   0.76054706   -5.6889642      1334.29  0.034703757  0.034404794            7 
 3205000   0.74106313   -5.6895471    1337.8021  0.034784246   0.03439623            6 
 3206000   0.73284545   -5.6647723    1337.5689  0.034767335  0.034387701            9 
 3207000   0.74111302   -5.7361348    1329.9554  0.034558658  0.034379075            8 
 3208000    0.7588978   -5.6942162    1334.1821  0.034657681  0.034370391           27 
 3209000   0.72704457   -5.7275221     1333.882  0.034639089   0.03436173            7 
 3210000   0.73101527    -5.709403    1332.7846  0.034599809  0.034353166            9 
 3211000   0.72528791    -5.683565    1338.1289   0.03472773  0.034344569           12 
 3212000   0.75135197   -5.7156748    1335.0549  0.034637166  0.034335954            8 
 3213000   0.73966669   -5.6864614    1333.9641  0.034598093   0.03432733           10 
 3214000   0.73679525   -5.6736655    1336.4691   0.03465228  0.034318746            7 
 3215000   0.73602051   -5.6941338    1337.0964  0.034657762  0.034310101            5 
 3216000   0.74284658   -5.7087221    1338.3498  0.034679463  0.034301472            7 
 3217000   0.72027064   -5.6810465    1338.0705  0.034661448   0.03429286            3 
 3218000   0.72582332   -5.7224212    1332.9819  0.034518902  0.034284255           13 
 3219000   0.72552928   -5.6693195    1336.4348  0.034597567  0.034275621            8 
 3220000   0.73561407   -5.7040752    1338.3737     0.034637  0.034267027            4 
 3221000   0.73804175    -5.677178    1337.2063  0.034596044  0.034258427           16 
 3222000   0.73426887   -5.6923571    1338.2611  0.034612589  0.034249907            7 
 3223000    0.7226979   -5.6954161    1337.5297  0.034582937  0.034241357           14 
 3224000   0.73478981   -5.6973553    1337.6197  0.034574538  0.034232799           13 
 3225000   0.74281558   -5.7055212    1338.6599  0.034590694  0.034224247           19 
 3226000   0.73391437   -5.7000534     1336.294  0.034518858   0.03421565            7 
 3227000   0.72816708   -5.7365168     1337.673  0.034543771  0.034207071           15 
 3228000   0.74833166   -5.6908073    1336.3441  0.034498763  0.034198474           38 
 3229000   0.74509796   -5.6999243    1337.1546  0.034508995  0.034189901            6 
 3230000   0.73084651   -5.6916115    1337.5842  0.034509397   0.03418132            7 
 3231000   0.73420133   -5.7078629    1336.5071  0.034470936  0.034172718            6 
 3232000   0.73808918   -5.6928039    1337.5172  0.034486313  0.034164129            8 
 3233000    0.7218496   -5.7002671    1342.4022  0.034601561  0.034155537            5 
 3234000    0.7381248    -5.702731    1339.0678  0.034504941  0.034146973           13 
 3235000   0.73105256   -5.7045667     1337.755  0.034460458  0.034138412            7 
 3236000   0.73629932   -5.6995852    1337.8328  0.034451813  0.034129772            4 
 3237000   0.72960716   -5.7245894    1337.3366  0.034428395  0.034121223           12 
 3238000   0.74971358   -5.7067804    1337.2407  0.034415296  0.034112637            6 
 3239000   0.73234393   -5.6812593    1341.7794  0.034521441  0.034104147            5 
 3240000   0.75344419   -5.7238164    1334.1721  0.034315126  0.034095569           11 
 3241000   0.73237588   -5.7135547    1338.5064  0.034415984  0.034086981            5 
 3242000   0.73583117   -5.7578723    1335.6816  0.034332757   0.03407839            6 
 3243000    0.7354964   -5.7105408    1342.1005  0.034487114  0.034069777            5 
 3244000    0.7210414   -5.6827638    1343.1856  0.034504357  0.034061348           16 
 3245000   0.72604278   -5.7083258    1339.6743  0.034403551  0.034052847           17 
 3246000   0.72353886   -5.6979046    1341.0033  0.034427072  0.034044329           12 
 3247000   0.74595425   -5.7244147    1338.3428  0.034348187  0.034035775           12 
 3248000   0.75749315   -5.6965172    1343.4754  0.034469299  0.034027285           18 
 3249000   0.72447695   -5.6930075    1339.0819  0.034346002  0.034018798            5 
 3250000   0.73699196   -5.7216524    1341.4237   0.03439548   0.03401031            5 
 3251000   0.73494225   -5.7349436    1336.8848  0.034268553  0.034001736           12 
 3252000    0.7373303   -5.7111569    1343.1785  0.034419293  0.033993174           10 
 3253000   0.74721128   -5.7251881     1337.537  0.034264192  0.033984596            7 
 3254000   0.73662408   -5.7023743    1341.2782  0.034349473  0.033976077            8 
 3255000   0.74713793   -5.7389971    1340.0686  0.034307953  0.033967488           10 
 3256000   0.74198311   -5.7165718    1340.7263  0.034314247  0.033958862            7 
 3257000   0.71817427   -5.7141597    1339.7068  0.034277629  0.033950356           10 
 3258000    0.7370277   -5.6924189    1340.4618  0.034286419  0.033941844           10 
 3259000   0.72236725   -5.7188111    1342.5138  0.034328369  0.033933246            9 
 3260000   0.73571034   -5.6952208    1340.4197  0.034264307  0.033924642            7 
 3261000   0.73239493   -5.7167265    1340.0271  0.034243767    0.0339161            3 
 3262000   0.70917483   -5.7135324    1341.8979  0.034281061  0.033907614            7 
 3263000   0.72487908   -5.7166557    1343.9327  0.034322524  0.033899108           13 
 3264000   0.71834858   -5.7102707    1340.5658  0.034226047  0.033890579           13 
 3265000   0.72225502   -5.7484955    1340.4488  0.034212579     0.033882           16 
 3266000   0.74052043   -5.7171525    1338.5811  0.034154447  0.033873402            7 
 3267000   0.72540395   -5.7239817    1341.2696  0.034212571  0.033864785            5 
 3268000   0.73020844   -5.7491893     1335.954  0.034066555  0.033856166           14 
 3269000   0.74386939   -5.7470691    1338.7246  0.034126763  0.033847586            9 
 3270000   0.72654351   -5.7357767    1341.9906  0.034199557  0.033838994           10 
 3271000   0.74637113   -5.7215582    1343.9338  0.034238606  0.033830459            9 
 3272000   0.73006858   -5.7157335    1343.3501  0.034213277  0.033821975           10 
 3273000   0.72256543    -5.721592    1340.7611  0.034136906  0.033813494            7 
 3274000    0.7253959    -5.704188    1342.2687  0.034164852  0.033804977           10 
 3275000   0.72807011   -5.7124377    1340.1766  0.034101185  0.033796449           15 
 3276000   0.71925174   -5.7105863    1344.3284  0.034196388  0.033787959            7 
 3277000   0.72267845   -5.7208656    1345.0358  0.034203941   0.03377943            5 
 3278000    0.7407484   -5.6974089     1346.589  0.034232993   0.03377094           11 
 3279000   0.72106233   -5.7226351    1342.8897  0.034128538  0.033762465            9 
 3280000   0.72015188   -5.7063506    1344.2901  0.034153712  0.033753933           13 
 3281000   0.71401919   -5.7226488    1341.1726  0.034064121   0.03374543           13 
 3282000   0.71232825   -5.7098495    1348.0632  0.034228702  0.033736922            5 
 3283000   0.72832866   -5.7452267    1342.5697  0.034078833  0.033728377            9 
 3284000   0.72561857   -5.7124083    1343.2322  0.034085268  0.033719794            7 
 3285000   0.71904112   -5.7299073    1344.8951  0.034117075  0.033711216           11 
 3286000   0.73571774   -5.7221311    1343.1994  0.034063688  0.033702623           16 
 3287000   0.73409402   -5.7476071    1343.1062  0.034050962  0.033694057           13 
 3288000   0.73101272   -5.7335254    1339.6934  0.033954112  0.033685419            8 
 3289000   0.72910416   -5.7205185    1344.0471  0.034054096  0.033676822            9 
 3290000     0.741431   -5.7298496    1344.1425  0.034046163  0.033668369           10 
 3291000   0.71385411   -5.7318097    1339.7037  0.033923419  0.033659825           10 
 3292000   0.71063703    -5.715243    1342.0462  0.033972413  0.033651267           14 
 3293000    0.7285213   -5.7288165    1344.0399  0.034012548  0.033642731            6 
 3294000    0.7396693   -5.7033398    1344.4656  0.034012994  0.033634228            8 
 3295000   0.71924506   -5.7292565     1342.125  0.033943474  0.033625674            5 
 3296000   0.72812682   -5.7346015    1344.9011  0.034003366  0.033617128            7 
 3297000    0.7381762    -5.711812    1343.4619  0.033956676  0.033608577            7 
 3298000   0.72495543   -5.7448861    1341.9185  0.033907381  0.033599984           26 
 3299000   0.71093833   -5.7286072    1341.2897   0.03388122   0.03359143           11 
 3300000   0.72337962   -5.7194046    1344.0175  0.033939836  0.033582884            4 
 3301000   0.72054001    -5.744748    1341.6643  0.033870147  0.033574292           10 
 3302000   0.72853234   -5.7257714    1344.1506  0.033922637  0.033565688            8 
 3303000   0.69803434   -5.7449147    1340.9789  0.033832346  0.033557016            4 
 3304000   0.71982919   -5.7326477    1341.6986   0.03384026  0.033548386           11 
 3305000   0.71892461   -5.7398823    1344.3434  0.033896707   0.03353971            6 
 3306000   0.71018309   -5.7010351    1344.0202  0.033878307   0.03353114            5 
 3307000   0.72517552   -5.7442959    1341.2106  0.033797262  0.033522549            8 
 3308000   0.73622337   -5.7181242    1343.3745  0.033841558  0.033513915            5 
 3309000   0.72248533   -5.7292582    1344.2543  0.033853489  0.033505348           19 
 3310000   0.73187163    -5.741641    1342.0656  0.033788158  0.033496687            6 
 3311000   0.70364093   -5.7339546    1343.9872  0.033826317  0.033488041            9 
 3312000   0.73275559    -5.739182    1344.3628  0.033825553  0.033479396           12 
 3313000   0.71613616   -5.7329851    1342.2619  0.033762499   0.03347069           12 
 3314000   0.71749979   -5.7541223    1343.6493  0.033787199  0.033462073           15 
 3315000   0.72576997   -5.7181559    1343.1685  0.033764919  0.033453424           13 
 3316000   0.72612552   -5.7239362    1342.3439  0.033734014  0.033444817           12 
 3317000   0.69982237   -5.7289792     1346.566  0.033829917  0.033436196           10 
 3318000   0.71065447   -5.7193366    1343.6582  0.033746691  0.033427585           13 
 3319000   0.72261656   -5.7282419     1340.812  0.033665059  0.033418937           18 
 3320000   0.72449738   -5.7473079    1344.2854  0.033742104  0.033410327            8 
 3321000   0.72140746   -5.7490043     1341.713  0.033667395  0.033401681            7 
 3322000   0.72926183   -5.7213211    1344.5484  0.033728387  0.033393106            8 
 3323000    0.7190685   -5.7323186    1344.5985  0.033719494  0.033384546           11 
 3324000   0.70753022   -5.7518918     1344.771  0.033713673  0.033375951            6 
 3325000   0.72146259   -5.7343019    1343.2732  0.033665996  0.033367334           11 
 3326000   0.71957981   -5.7133931    1345.2718  0.033705948  0.033358737           11 
 3327000   0.71429808   -5.7230173    1345.9635  0.033713142  0.033350179           10 
 3328000   0.70202276    -5.747805    1343.6098  0.033644075  0.033341609           12 
 3329000   0.70655039    -5.763885    1343.6195  0.033634212  0.033332988            9 
 3330000   0.73396143   -5.7413651      1342.48  0.033595595  0.033324357           13 
 3331000   0.73502296   -5.7408684    1342.6533  0.033589845  0.033315765           15 
 3332000   0.70271478   -5.7389719    1343.1638  0.033592531  0.033307168           10 
 3333000   0.71369758   -5.7473983    1344.5882  0.033618067  0.033298545            8 
 3334000   0.73024594   -5.7453354    1344.2741  0.033600133  0.033289958           19 
 3335000   0.71357429   -5.7645585    1341.6735  0.033525076  0.033281337           12 
 3336000   0.70743431   -5.7561773    1341.0444   0.03349931  0.033272685            4 
 3337000   0.71545053   -5.7535825    1344.9925  0.033587867  0.033264065            7 
 3338000   0.70968688   -5.7192959    1347.4192  0.033638387  0.033255406           13 
 3339000   0.70850403   -5.7473278     1344.102  0.033545523  0.033246787           11 
 3340000   0.70264803   -5.7742904    1344.9979  0.033557833  0.033238185            8 
 3341000   0.70459163   -5.7587309    1345.7789  0.033567267  0.033229592           13 
 3342000   0.72735842   -5.7736278    1342.7869  0.033482617  0.033221002            7 
 3343000   0.69933891   -5.7634451    1340.9557  0.033426953  0.033212344           16 
 3344000   0.71208181    -5.747553    1341.9227  0.033441056  0.033203742            7 
 3345000   0.71146487   -5.7344832     1344.224   0.03348839  0.033195131            4 
 3346000   0.71022923   -5.7273103    1343.9596  0.033471798  0.033186535            5 
 3347000    0.7099156   -5.7538045    1343.4054  0.033447997  0.033177913           12 
 3348000   0.71479368   -5.7704768    1344.5664  0.033466906  0.033169269           15 
 3349000    0.7201037    -5.753136    1341.4744  0.033379975  0.033160606           11 
 3350000   0.69918391    -5.745277    1345.8361  0.033478509  0.033152004            9 
 3351000   0.71524976   -5.7322005     1347.705  0.033514997  0.033143413            5 
 3352000    0.7196657   -5.7437224    1345.2116  0.033443008  0.033134849            5 
 3353000   0.73600853   -5.7673645    1347.0637  0.033479067  0.033126253            5 
 3354000   0.72612674   -5.7734377    1343.2907   0.03337534  0.033117664            8 
 3355000   0.70431276   -5.7426714    1346.1315  0.033435953  0.033109081            6 
 3356000   0.71105344   -5.7428328    1346.1295  0.033425942  0.033100564            9 
 3357000   0.71657147   -5.7472278    1346.6947  0.033430014  0.033091992           16 
 3358000    0.7288489   -5.7534182    1345.6486  0.033394099  0.033083377           10 
 3359000   0.71904457    -5.754205    1346.2555  0.033399212  0.033074755           13 
 3360000   0.72309273    -5.751315    1344.9776  0.033357579  0.033066153            8 
 3361000   0.70893423   -5.7483463    1349.6974  0.033464679  0.033057605            9 
 3362000   0.71452761   -5.7578533    1345.3515  0.033347002  0.033049033           11 
 3363000   0.72149192   -5.7525526     1346.656  0.033369412  0.033040406            7 
 3364000   0.70646618    -5.774888    1347.6203   0.03338338  0.033031797            9 
 3365000   0.72244682   -5.7355847    1345.9482  0.033332051  0.033023269            5 
 3366000   0.72911914   -5.7756886    1345.0157  0.033299063  0.033014662            9 
 3367000   0.72984826   -5.7504564    1350.5134   0.03342524  0.033006077            6 
 3368000   0.69376856   -5.7639416    1349.0236  0.033378455  0.032997572           17 
 3369000   0.70556107   -5.7926688    1345.1341  0.033272339  0.032988994           13 
 3370000   0.72066888   -5.7823769    1344.3839  0.033243915  0.032980376           13 
 3371000   0.73271889   -5.7444559    1348.1191  0.033326389  0.032971855            7 
 3372000   0.69911525   -5.7583151    1346.3064  0.033271707  0.032963348            5 
 3373000   0.71167715   -5.7414165    1346.7312  0.033272339  0.032954847           12 
 3374000   0.70439989   -5.7288406    1352.0912  0.033394862  0.032946326            9 
 3375000   0.70756864   -5.7492858    1351.5146   0.03337073  0.032937823            5 
 3376000   0.71145277   -5.7240655    1353.2695  0.033404164  0.032929354           10 
 3377000   0.69384634   -5.7877669    1348.8069   0.03328415  0.032920825            5 
 3378000   0.69946838   -5.7696415    1348.4529  0.033265564   0.03291226            6 
 3379000   0.71464059   -5.7402072    1348.8071  0.033264454  0.032903709           17 
 3380000   0.73401568   -5.7576925    1350.0356  0.033284902  0.032895208            9 
 3381000   0.69271848   -5.7634125     1347.059   0.03320169  0.032886626           13 
 3382000    0.7083761   -5.7780083     1349.714  0.033257292  0.032878104            8 
 3383000    0.6989205   -5.7568211    1348.8478  0.033226126  0.032869623            5 
 3384000   0.71344073   -5.7591888    1347.4431  0.033181715  0.032861122           18 
 3385000   0.72332352    -5.753107    1351.8033  0.033279253  0.032852578           10 
 3386000   0.70430446   -5.7542649    1350.3604  0.033233915  0.032844015           15 
 3387000   0.70174336   -5.7638114    1346.3068  0.033124367   0.03283551           11 
 3388000   0.70904618   -5.7742194    1347.4714  0.033143237  0.032826955           11 
 3389000   0.71950749   -5.7710246    1348.5188  0.033159211  0.032818413            3 
 3390000   0.70241503   -5.7851673    1343.5667  0.033027698   0.03280986            8 
 3391000   0.71564596   -5.7731171    1348.4688  0.033138425  0.032801231           12 
 3392000   0.70918536   -5.7428679    1346.9829   0.03309215  0.032792683            5 
 3393000   0.72425288   -5.7629237    1349.9413  0.033155057  0.032784202           15 
 3394000   0.70112171   -5.7605712     1347.825  0.033093326  0.032775751           12 
 3395000   0.71530421   -5.7910269    1348.8131  0.033107833  0.032767302            7 
 3396000   0.71681127   -5.7813134     1349.672   0.03311916  0.032758796           20 
 3397000   0.70837646   -5.7809613    1348.8647  0.033089606  0.032750252            9 
 3398000   0.70558956   -5.7524581    1353.2621  0.033187711  0.032741799           13 
 3399000   0.70308525   -5.7542995    1350.6813  0.033114673  0.032733267           12 
 3400000   0.69904921    -5.775416    1350.9411  0.033111301  0.032724703           11 
 3401000   0.70087983   -5.7655386    1351.9895  0.033127254  0.032716149           11 
 3402000   0.72052044   -5.7785434    1348.6975  0.033036879   0.03270758           15 
 3403000   0.71099196   -5.7792084    1349.9076  0.033056803   0.03269898            7 
 3404000   0.71205789   -5.7836786    1349.6222  0.033040105  0.032690415            9 
 3405000   0.70385839   -5.7716925    1347.5858  0.032980563  0.032681881            5 
 3406000   0.71412375   -5.7260937     1355.027  0.033152941  0.032673413            6 
 3407000   0.69914325   -5.7626732    1351.4002    0.0330545   0.03266498           11 
 3408000   0.71235253   -5.7602465    1355.0791  0.033134759    0.0326565            5 
 3409000   0.70103158   -5.7642856    1353.2216  0.033079632  0.032648004           10 
 3410000   0.72119027   -5.7746977    1351.7301  0.033033481  0.032639577            8 
 3411000   0.71632027   -5.7487509    1352.1875  0.033034973  0.032631144            8 
 3412000   0.70727955   -5.7473468    1350.8436  0.032992468  0.032622714           16 
 3413000   0.71044254   -5.7759546    1347.7577  0.032907455  0.032614206            9 
 3414000   0.70426894   -5.8080633    1350.7112  0.032969908  0.032605691           11 
 3415000   0.71865686   -5.7880419    1347.4984  0.032881854  0.032597181            8 
 3416000   0.72454163   -5.7775642    1348.9555  0.032907775  0.032588646           11 
 3417000   0.71247775   -5.7866382    1348.8167  0.032894759  0.032580136           13 
 3418000   0.71611773    -5.808979    1349.4404   0.03290034  0.032571599            8 
 3419000   0.71693324   -5.7695503    1352.6584  0.032969153  0.032563092            7 
 3420000   0.70522484   -5.7529346    1352.7672  0.032962165  0.032554597           13 
 3421000   0.71058711   -5.7713975    1350.7777  0.032904065  0.032546103           11 
 3422000   0.69938136   -5.7855505    1350.1379   0.03287887  0.032537616            7 
 3423000    0.6995008   -5.7586083    1349.7576  0.032860006  0.032529136            6 
 3424000   0.68076677   -5.7876579    1349.8244  0.032852034  0.032520658           14 
 3425000   0.70219151   -5.7888098    1349.8139  0.032842186   0.03251214           16 
 3426000   0.68292821   -5.7890494    1348.5193  0.032801113  0.032503603           18 
 3427000   0.69962011   -5.7616661    1351.3726  0.032860924  0.032495067            9 
 3428000    0.7081695   -5.7773988     1352.997  0.032890826  0.032486569            9 
 3429000   0.70622926   -5.7739075    1348.8057  0.032779374  0.032478104           18 
 3430000   0.68858498    -5.788773     1353.498  0.032883819  0.032469618            9 
 3431000    0.7275821   -5.7780692    1351.6134   0.03282846  0.032461139           12 
 3432000   0.69586447    -5.779043    1353.5908   0.03286691  0.032452624            6 
 3433000   0.70286329   -5.8080382    1351.5312  0.032807341  0.032444178            9 
 3434000   0.71193756   -5.7602412    1353.8134  0.032853168  0.032435742            8 
 3435000   0.69843065   -5.7839837    1352.7117  0.032816878  0.032427284           11 
 3436000   0.69581363   -5.7801497    1354.6307  0.032853869  0.032418848           20 
 3437000   0.69565324   -5.7738229    1353.6131  0.032819636  0.032410416           16 
 3438000   0.70921966    -5.758431    1354.0666  0.032821082  0.032402024           24 
 3439000   0.70498858   -5.7945604    1352.7173  0.032778844  0.032393637            9 
 3440000    0.6996244    -5.780278    1351.0774  0.032729589  0.032385198            7 
 3441000   0.72367885   -5.7672539    1353.8521  0.032787273  0.032376781            9 
 3442000   0.69721671   -5.8005051    1355.2358  0.032811248  0.032368399           10 
 3443000   0.69741027    -5.807194    1355.1259  0.032799058  0.032359992           11 
 3444000   0.69928543   -5.8215842    1352.4846  0.032725624  0.032351542            5 
 3445000   0.71477576   -5.7838259    1356.7685   0.03281975  0.032343142            9 
 3446000   0.70259245   -5.7969116    1353.5661  0.032732785   0.03233472           13 
 3447000   0.70886913   -5.7960359    1352.9062  0.032707335  0.032326276           10 
 3448000   0.70011162   -5.7767427    1353.0536  0.032701412  0.032317832           14 
 3449000   0.70393805   -5.7790183    1351.8352  0.032662491  0.032309357           14 
 3450000   0.70518076   -5.7934076    1354.9418  0.032728062  0.032300887           16 
 3451000   0.68885273   -5.8204269    1350.8077  0.032618752  0.032292427           11 
 3452000   0.71649578   -5.7973289    1352.8989  0.032659783  0.032283927            7 
 3453000   0.69132355   -5.8037268    1353.2695   0.03265927   0.03227546           22 
 3454000   0.68805662   -5.7942236    1353.1136  0.032646053   0.03226703           12 
 3455000   0.68608638   -5.8046094    1352.9451  0.032632539   0.03225863           12 
 3456000   0.70291981   -5.7946878    1358.7808  0.032763812  0.032250231           11 
 3457000     0.704367   -5.7755374    1354.4768  0.032650584  0.032241856            6 
 3458000   0.69564804   -5.7773026     1355.056  0.032655099  0.032233478            6 
 3459000   0.68879708   -5.7726715    1357.9605  0.032715633  0.032225144            6 
 3460000   0.71170335   -5.7568521    1357.6006  0.032697509  0.032216795           15 
 3461000   0.68658932   -5.7904855    1356.4775   0.03266102  0.032208451           12 
 3462000   0.70393113   -5.8069873    1354.6698  0.032608072  0.032200045           14 
 3463000   0.69745104   -5.7808275    1353.7302  0.032576047  0.032191621           25 
 3464000   0.71484874   -5.7789275    1356.1017  0.032623695  0.032183232            6 
 3465000   0.71193252   -5.8015155    1357.9021  0.032657577  0.032174845            5 
 3466000   0.69404939   -5.7727043    1357.2749  0.032633077   0.03216645            8 
 3467000   0.68290267   -5.8138127     1352.578  0.032510768  0.032158068           14 
 3468000     0.690285   -5.7942094    1354.9534  0.032558473  0.032149661           10 
 3469000   0.69712004   -5.8051125     1356.112  0.032576918  0.032141222           14 
 3470000    0.6835834   -5.8036846    1354.7358  0.032534481   0.03213284           19 
 3471000   0.69632022   -5.7772001     1356.057  0.032556828  0.032124428            8 
 3472000   0.70431457   -5.7820928    1358.3732  0.032603043   0.03211608           10 
 3473000   0.68469382   -5.7853946    1357.9665  0.032583897  0.032107736            8 
 3474000   0.69642994   -5.7823923    1353.4786  0.032466864  0.032099377            9 
 3475000   0.70259083   -5.7984769    1355.3195  0.032501667  0.032090993            8 
 3476000    0.6966329   -5.7985168    1356.8779  0.032529677  0.032082643            8 
 3477000   0.69941614   -5.8096561    1358.9495  0.032569973  0.032074255            9 
 3478000   0.71144768   -5.8050041    1354.8173  0.032461599  0.032065849            9 
 3479000   0.69398505   -5.8007429    1356.1772  0.032484842  0.032057448            5 
 3480000   0.69342457   -5.8147798    1355.6557  0.032463021  0.032049009            8 
 3481000   0.70670485   -5.8121081    1354.1791  0.032418345  0.032040607           19 
 3482000   0.68323835   -5.8205908    1355.2597  0.032434897   0.03203219           10 
 3483000   0.68601459   -5.7986054    1358.0587  0.032492553  0.032023788           10 
 3484000   0.68720857   -5.7687538    1358.1813  0.032486158  0.032015451            6 
 3485000   0.68205273    -5.804102    1360.2341  0.032525922  0.032007135           17 
 3486000   0.70242195   -5.7696266    1360.6968  0.032527653  0.031998857            8 
 3487000   0.70097957   -5.8112465    1359.6472  0.032493243  0.031990624           15 
 3488000   0.68603189   -5.7833035    1360.6092   0.03250691  0.031982355           11 
 3489000   0.70411929   -5.7860342    1360.5531  0.032496252  0.031974099            4 
 3490000   0.69829485   -5.8074229    1355.0693  0.032356002  0.031965835            4 
 3491000   0.68908585   -5.8101851    1357.2923  0.032399797  0.031957512            5 
 3492000   0.68777163   -5.8259415    1355.8139  0.032355238  0.031949187           22 
 3493000   0.70017826   -5.8165488    1357.4244  0.032384397  0.031940849            8 
 3494000   0.69226889   -5.7996738     1355.311  0.032324724  0.031932526           15 
 3495000   0.69423692   -5.8029034    1359.3856  0.032412627  0.031924231           15 
 3496000   0.69424428   -5.8073018    1359.8073  0.032413409  0.031915966            8 
 3497000   0.70229899   -5.7735449    1359.6472  0.032400324  0.031907695           10 
 3498000    0.6820741   -5.8404507    1358.4463  0.032362453  0.031899463           11 
 3499000    0.6798105   -5.8316838    1358.4077  0.032352285  0.031891159           12 
 3500000   0.70091869   -5.7643982    1359.5976  0.032371372  0.031882867            9 
 3501000   0.68123018   -5.8009395     1359.277  0.032354494  0.031874613            6 
 3502000   0.69148038   -5.8009426    1359.3473  0.032346928  0.031866298            6 
 3503000   0.66517197   -5.8207999    1358.2159  0.032310778  0.031857989            7 
 3504000   0.68820381   -5.8055783    1360.7197  0.032361104  0.031849665           10 
 3505000   0.70241774   -5.8275911    1356.0712   0.03224135  0.031841378           12 
 3506000   0.68557959   -5.7991391    1360.5949  0.032339677  0.031833124           13 
 3507000    0.6949327   -5.8084983    1360.1928    0.0323209  0.031824822            8 
 3508000   0.68830543   -5.8110478    1357.5691  0.032249362  0.031816484           13 
 3509000   0.68628513   -5.8050204    1361.9546  0.032344321  0.031808131           13 
 3510000   0.69514556   -5.8055684    1358.0513  0.032242434  0.031799794           21 
 3511000    0.7016182    -5.804528    1361.0692  0.032304881  0.031791488           10 
 3512000   0.68346389   -5.7960345     1359.549   0.03225961  0.031783185            9 
 3513000   0.69898697   -5.7937559    1360.0444  0.032262178  0.031774869            4 
 3514000   0.67654158   -5.7938992    1357.5569  0.032194006  0.031766591            8 
 3515000   0.69580595   -5.8054128    1358.1589  0.032199119   0.03175826           12 
 3516000    0.6827348   -5.7803362    1360.0541   0.03223488  0.031749919           11 
 3517000   0.69103066   -5.8142308    1358.5037   0.03218898  0.031741582           21 
 3518000   0.67722341    -5.821186    1360.9609  0.032238036  0.031733236           21 
 3519000   0.69272869   -5.8027049    1361.0522  0.032231037  0.031724917           10 
 3520000   0.69966143   -5.8224479    1358.5848  0.032163465  0.031716638           12 
 3521000   0.68210321   -5.8175282    1358.5319   0.03215308  0.031708349           13 
 3522000   0.68947248   -5.8015973     1359.199  0.032159733  0.031700087            9 
 3523000   0.69353999   -5.7909451    1361.6302  0.032208114  0.031691815           13 
 3524000   0.67419191   -5.8187171    1359.8258  0.032156304  0.031683582            7 
 3525000   0.69373397   -5.8142944    1356.5493  0.032069723   0.03167525           18 
 3526000    0.6965364   -5.8261852    1359.9243  0.032140392  0.031666951           24 
 3527000   0.68907818   -5.8279683    1362.1491  0.032183846   0.03165863            9 
 3528000   0.69199661   -5.8090376    1361.0741  0.032149332  0.031650321           13 
 3529000   0.68716844   -5.8089601    1365.5232  0.032245282  0.031642129           10 
 3530000   0.68968451   -5.8074817    1356.5934   0.03202534  0.031633896           21 
 3531000   0.69598392   -5.8319671    1361.7113  0.032137055   0.03162562           13 
 3532000   0.68232959   -5.8224904    1359.0479  0.032065116  0.031617326           17 
 3533000   0.68554786   -5.8402599    1356.4406  0.031994542  0.031608986           23 
 3534000   0.70242088    -5.835419    1358.5573  0.032035401  0.031600646           10 
 3535000   0.68498061   -5.8494343    1355.8013   0.03196137  0.031592297           12 
 3536000   0.69913577   -5.8229592     1357.367  0.031989229  0.031583938            5 
 3537000   0.68639454   -5.8146289    1360.5254  0.032054599   0.03157561           17 
 3538000   0.69618408   -5.8199311    1357.8041  0.031981443    0.0315673           16 
 3539000   0.67967962    -5.835466    1359.2157  0.032005645  0.031558905            7 
 3540000   0.69380631   -5.8030467     1363.419  0.032095551  0.031550584           29 
 3541000   0.69677933   -5.8437353    1359.0564  0.031983818  0.031542262           27 
 3542000   0.67173833   -5.8347006     1360.267  0.032003271  0.031533913            8 
 3543000   0.66635311   -5.8391604    1359.6554  0.031979852  0.031525612            6 
 3544000   0.68521806   -5.8079532    1360.7424  0.031996387  0.031517334            9 
 3545000   0.68502901    -5.829941    1359.9802  0.031969445  0.031509009            6 
 3546000   0.67182541   -5.8166747    1360.9635  0.031983537  0.031500674           15 
 3547000    0.6765356   -5.8211298    1359.9925  0.031951707   0.03149241           10 
 3548000   0.68395031   -5.8207702    1357.7704  0.031890512   0.03148413           11 
 3549000   0.67910298   -5.8411764    1362.2574  0.031986883  0.031475875            6 
 3550000   0.67175923   -5.8105539    1361.7216  0.031965295  0.031467619           14 
 3551000   0.69992689   -5.8087356     1361.074  0.031941096  0.031459372           11 
 3552000   0.68084671   -5.8329006    1355.6624  0.031805143  0.031451083            9 
 3553000    0.6851036    -5.833533    1359.9243  0.031896151  0.031442787           10 
 3554000   0.69392005   -5.8414038    1360.7958  0.031907611  0.031434546           11 
 3555000   0.66963212   -5.8526674    1359.8028  0.031875358  0.031426201           15 
 3556000   0.68636771   -5.8423513    1360.5766  0.031884529  0.031417914           10 
 3557000   0.68223673   -5.8343759    1363.0685  0.031933945  0.031409642            4 
 3558000   0.68969322   -5.8091862    1361.7191  0.031893364  0.031401409            8 
 3559000   0.68533024   -5.8448025    1359.2498  0.031826585  0.031393163           20 
 3560000   0.69014714   -5.8378752    1360.1764  0.031839335  0.031384909            6 
 3561000    0.6765101   -5.8324459    1363.7107  0.031913103  0.031376685           10 
 3562000   0.67758737   -5.8163737    1363.9509  0.031909763  0.031368461            7 
 3563000   0.68501797    -5.816612    1361.2874  0.031838513  0.031360291           13 
 3564000   0.69160104   -5.8291673    1361.6514   0.03183809  0.031352102            7 
 3565000   0.69067288   -5.8149083    1365.3202  0.031914917  0.031343898            9 
 3566000   0.67408621   -5.8209542    1364.3825  0.031884055   0.03133569           13 
 3567000   0.69435443   -5.8320307    1362.4738  0.031830526  0.031327473            5 
 3568000   0.68136601    -5.839578    1363.4429  0.031844238  0.031319232           15 
 3569000   0.68401331   -5.8598036    1359.3221  0.031739098  0.031310926           11 
 3570000   0.67446716   -5.8357394    1359.8278  0.031742013  0.031302708           13 
 3571000   0.68771869   -5.8323724    1362.0651  0.031785333   0.03129449           12 
 3572000   0.68071389   -5.8414119    1360.3084  0.031735451  0.031286248            6 
 3573000   0.67719999   -5.8472001    1361.9622  0.031765142   0.03127797           23 
 3574000   0.67680129   -5.8271589    1362.2498  0.031762959  0.031269731            8 
 3575000    0.6730062    -5.866287     1361.437  0.031735127  0.031261467           20 
 3576000   0.67201658   -5.8397843     1360.393  0.031701924  0.031253177           17 
 3577000   0.68932256    -5.848663    1363.2639  0.031759945   0.03124493           24 
 3578000   0.68078194   -5.8149617    1366.6654  0.031830292  0.031236718            9 
 3579000   0.67689395    -5.842486    1365.1411  0.031785907  0.031228514           19 
 3580000   0.68439791   -5.8528671    1361.8236  0.031699805   0.03122026           12 
 3581000    0.6649575   -5.8468205    1363.4548  0.031728911  0.031212047            6 
 3582000   0.69342547   -5.8594776    1359.8873  0.031637058  0.031203788            6 
 3583000   0.67707066   -5.8466223    1360.4683  0.031641742  0.031195504            6 
 3584000   0.67683134   -5.8388619    1360.9987  0.031645244  0.031187261            9 
 3585000    0.6857715   -5.8404924    1362.0447  0.031660733  0.031179041           10 
 3586000    0.6788653   -5.8650011    1357.7013  0.031550968  0.031170771           10 
 3587000   0.66915517   -5.8461162    1361.7644  0.031636568    0.0311625           10 
 3588000   0.69809945   -5.8529072    1363.1705  0.031660408  0.031154252           17 
 3589000   0.67719511   -5.8340754    1364.8062  0.031689564  0.031146006            7 
 3590000   0.67342043   -5.8402253    1362.6738  0.031631239  0.031137771            7 
 3591000   0.67281064   -5.8289421    1364.1527   0.03165675  0.031129534           12 
 3592000   0.67201296   -5.8542591    1364.0529  0.031645622  0.031121327            9 
 3593000   0.67704481   -5.8551993    1363.9604  0.031634669  0.031113112            4 
 3594000   0.69569559   -5.8371049    1366.7198   0.03168985  0.031104863            7 
 3595000   0.68020584    -5.851874    1362.2964  0.031578498  0.031096641            6 
 3596000    0.6611619   -5.8538897    1363.0364  0.031586864  0.031088394            6 
 3597000   0.68213711   -5.8482593    1361.3798  0.031539704  0.031080187           13 
 3598000   0.67595495   -5.8475327    1360.0821  0.031500882  0.031071985           18 
 3599000   0.67217232   -5.8597868    1363.1749  0.031563741  0.031063757           13 
 3600000   0.67643802   -5.8415496    1363.6025  0.031564873  0.031055551           14 
 3601000   0.67669304   -5.8459034    1360.5645  0.031485802  0.031047354           16 
 3602000   0.66299855   -5.8474637    1362.7381  0.031527348   0.03103913           13 
 3603000   0.67279753   -5.8359768    1365.1519  0.031574427  0.031030905            8 
 3604000   0.67330561   -5.8240206    1366.1924  0.031589724  0.031022681            7 
 3605000   0.67268252   -5.8424343    1365.0216  0.031553897  0.031014492           13 
 3606000   0.66800531   -5.8587381    1360.6191  0.031443407  0.031006301            8 
 3607000   0.66749245    -5.865014    1361.9671  0.031465832  0.030998092            6 
 3608000   0.65982277   -5.8292418    1363.1056  0.031483408  0.030989862           10 
 3609000    0.6616522   -5.8328221    1365.2812  0.031524918  0.030981679           19 
 3610000    0.6773495   -5.8365283    1365.7382  0.031526737  0.030973509            9 
 3611000    0.6786308   -5.8532455     1364.882  0.031498247  0.030965294           24 
 3612000   0.67866879    -5.842135    1360.3138  0.031384132  0.030957096           29 
 3613000   0.66991851   -5.8472701    1360.7177  0.031384762  0.030948866            9 
 3614000   0.67214842   -5.8591357    1362.5334  0.031417944  0.030940621           19 
 3615000   0.65366659   -5.8398925    1366.9592  0.031511278  0.030932402            9 
 3616000   0.66918918   -5.8492866    1364.6016  0.031448231  0.030924188           22 
 3617000   0.67529408   -5.8435701    1364.1029  0.031428046  0.030916007           14 
 3618000   0.67148834   -5.8332901     1363.748  0.031411185  0.030907805           10 
 3619000   0.68282597   -5.8500911    1366.9981  0.031477344  0.030899603           11 
 3620000   0.66096891   -5.8501502    1363.8973  0.031397267  0.030891407           18 
 3621000   0.65636796   -5.8535535    1365.9442  0.031435704  0.030883163           13 
 3622000   0.66572921   -5.8381326    1362.7128  0.031352677  0.030874915            9 
 3623000   0.66183548   -5.8794302    1361.2896   0.03131129  0.030866653            7 
 3624000   0.66908784   -5.8579536    1366.0563  0.031412259  0.030858438            9 
 3625000   0.66193255   -5.8354955    1366.6236  0.031416633  0.030850193           11 
 3626000   0.66088671   -5.8473152    1365.9352  0.031392149  0.030841968           30 
 3627000   0.66486443    -5.861087    1364.5216  0.031351017  0.030833768            6 
 3628000   0.65892445   -5.8774325    1365.0349  0.031354165  0.030825521            7 
 3629000   0.65495815   -5.8605519    1365.9797   0.03136722  0.030817273           21 
 3630000   0.65839602   -5.8606915     1362.546  0.031279752  0.030808987           10 
 3631000   0.67472943   -5.8763226    1362.7574  0.031275988  0.030800749           10 
 3632000   0.68048948   -5.8477564    1359.6301  0.031195624  0.030792513           12 
 3633000   0.67741986   -5.8656286    1363.1453   0.03126767   0.03078427            7 
 3634000   0.67996467   -5.8517433     1361.133  0.031212919  0.030776039            5 
 3635000   0.67328067   -5.8747242    1366.8606   0.03133564  0.030767842           11 
 3636000   0.66989158   -5.8436235    1367.1772  0.031334278  0.030759624            9 
 3637000   0.66060155    -5.867024    1363.8544  0.031249527  0.030751392           14 
 3638000    0.6752703   -5.8749005    1360.8611  0.031172372  0.030743138           28 
 3639000   0.67248309   -5.8430556    1364.1891  0.031240017  0.030734892           22 
 3640000   0.68042555   -5.8618315    1367.1275  0.031298706  0.030726698           19 
 3641000   0.68112345   -5.8504248    1362.3519  0.031180808  0.030718483           11 
 3642000   0.66742497   -5.8451644    1366.1139  0.031258325  0.030710262           12 
 3643000   0.66965764   -5.8661719    1366.4238  0.031256836  0.030702088           10 
 3644000   0.66596809   -5.8499498     1362.449  0.031157359    0.0306939           39 
 3645000   0.67520272   -5.8489783    1364.0885  0.031186294  0.030685729           18 
 3646000   0.67355601   -5.8636305    1364.8321  0.031194736  0.030677489           14 
 3647000   0.66416621   -5.8793632    1361.5993  0.031112315  0.030669265           13 
 3648000   0.66965195   -5.8677487    1363.5022  0.031147255  0.030661008           20 
 3649000   0.66958648   -5.8822212    1363.8152  0.031145866  0.030652744           14 
 3650000   0.67939648   -5.8766784    1364.5606  0.031154351  0.030644529            9 
 3651000   0.65398241   -5.8846075    1365.9307   0.03117709  0.030636294           13 
 3652000   0.66833168   -5.8654946    1366.1999  0.031174696  0.030628048            7 
 3653000   0.66626116   -5.8817215    1364.8152  0.031134574  0.030619828           16 
 3654000   0.68071475   -5.8971848    1361.0865  0.031041016  0.030611577           16 
 3655000   0.66464369   -5.8743374    1365.3054  0.031128713  0.030603321           15 
 3656000   0.66350947   -5.8538443    1369.4756  0.031215254  0.030595163           12 
 3657000   0.68118163   -5.8638402    1364.4389  0.031091944  0.030587028            8 
 3658000   0.67421473   -5.8371259    1369.1831  0.031191523  0.030578914           19 
 3659000   0.66611722    -5.845748    1367.9148  0.031154114  0.030570825            9 
 3660000   0.65996858   -5.8719488    1370.0144  0.031193407  0.030562712           13 
 3661000   0.65705952   -5.8581792    1367.7876  0.031134198  0.030554602           14 
 3662000   0.68103795   -5.8663579    1367.6145  0.031121758  0.030546534           12 
 3663000   0.65349967   -5.8692796    1365.7027  0.031069766  0.030538477           21 
 3664000   0.68141062   -5.8611317    1369.5428  0.031148626  0.030530402            6 
 3665000   0.67747484   -5.8667505    1368.3172  0.031112261  0.030522276           20 
 3666000   0.66252334   -5.8680716    1369.2184   0.03112426  0.030514227           11 
 3667000   0.65763341   -5.8834685    1366.8094  0.031061026  0.030506132           14 
 3668000   0.68623264    -5.878796    1367.1849   0.03106109  0.030498033            7 
 3669000   0.65245273   -5.8506996     1369.023  0.031094372  0.030489938           12 
 3670000   0.68901105   -5.8659768    1369.0179  0.031085783  0.030481843            8 
 3671000   0.66375863   -5.9052021    1367.4085  0.031040781  0.030473743           11 
 3672000   0.66596282   -5.8559431    1367.4524  0.031033324  0.030465685            8 
 3673000   0.67281469   -5.8942644    1367.4032  0.031023759  0.030457612            8 
 3674000   0.66551795   -5.8792899    1366.9887  0.031005913  0.030449448           17 
 3675000   0.68009737   -5.8787595    1363.5683  0.030919915  0.030441313           11 
 3676000   0.67087862   -5.8853114    1369.2647   0.03104064  0.030433189           11 
 3677000   0.66666507   -5.8708036    1367.2854   0.03098734  0.030425052           14 
 3678000   0.66880251   -5.8859846    1365.9303  0.030948212  0.030416917           14 
 3679000   0.66587875   -5.8588819    1366.4014  0.030950472  0.030408794           16 
 3680000   0.66864219   -5.8686245    1370.5943  0.031037008  0.030400695           11 
 3681000   0.66170254   -5.8791682    1367.9854  0.030969514  0.030392594           10 
 3682000   0.67043758   -5.8933542    1365.9306  0.030914599  0.030384468            8 
 3683000    0.6535551   -5.9077364    1365.7614  0.030902375  0.030376312           10 
 3684000   0.65750063   -5.8718185    1369.7168   0.03098346  0.030368217           13 
 3685000   0.65747585   -5.8640929    1368.8718  0.030955943  0.030360139            4 
 3686000   0.66759256   -5.8880557     1369.779  0.030968055  0.030352051           10 
 3687000   0.66371881   -5.8827184    1362.8735  0.030803579  0.030343867           10 
 3688000   0.67744938   -5.8770707    1366.2017  0.030870429  0.030335694           11 
 3689000   0.67671118   -5.8855098    1369.3544  0.030933279  0.030327543           15 
 3690000   0.67833662   -5.8745177    1367.5508  0.030884164  0.030319413            7 
 3691000   0.67329332   -5.8838934    1367.4575  0.030873691  0.030311278           17 
 3692000   0.66467552   -5.8902294    1364.0326  0.030788023  0.030303124            8 
 3693000   0.66426007   -5.8593762    1369.3317  0.030899263  0.030294995           11 
 3694000   0.66417455   -5.8739168    1365.8491  0.030812332  0.030286866           20 
 3695000   0.65730677   -5.8725272    1366.4727  0.030818058  0.030278736           12 
 3696000   0.65054878   -5.8782706    1367.5129  0.030833172  0.030270593           14 
 3697000   0.66430461   -5.8599854    1364.3197  0.030752855  0.030262513           21 
 3698000   0.66104599   -5.8927758    1365.1832  0.030763999  0.030254391           14 
 3699000   0.67218639   -5.8649699    1367.0034  0.030796689  0.030246278           21 
 3700000   0.65916095    -5.897859    1367.6237  0.030802335   0.03023821           12 
 3701000   0.65659879   -5.8984727    1366.1208  0.030760173    0.0302301            6 
 3702000   0.66444081   -5.8757118    1367.8111  0.030789912  0.030221956           12 
 3703000   0.66121198   -5.8722927    1368.5598  0.030798447  0.030213817           18 
 3704000   0.67106837    -5.869625    1369.3011   0.03080681  0.030205721           10 
 3705000   0.66189083   -5.8759493    1366.4697  0.030734812  0.030197593           10 
 3706000   0.66343012   -5.8975042    1366.3276  0.030723323   0.03018946           13 
 3707000   0.65330041   -5.9133997    1362.1135  0.030620302  0.030181218           16 
 3708000   0.66556911   -5.9147821     1362.463  0.030619899  0.030173023           16 
 3709000   0.65335868   -5.8842177    1369.7085  0.030774434   0.03016488           11 
 3710000   0.65664096     -5.90011    1368.4699  0.030738318  0.030156717           13 
 3711000   0.65164078   -5.8866097    1370.0634  0.030765817  0.030148589            9 
 3712000    0.6577837    -5.881057    1365.5916  0.030657138  0.030140467           11 
 3713000   0.65074821   -5.8690711     1368.192  0.030707245  0.030132375           12 
 3714000   0.67411878   -5.8825411    1365.2899   0.03063386  0.030124284            7 
 3715000   0.64787362   -5.8650116    1368.1832  0.030690516  0.030116174            8 
 3716000   0.66163331   -5.8859448    1368.7853   0.03069576  0.030108074           27 
 3717000   0.65928667    -5.867412    1366.0922  0.030627122  0.030099971            5 
 3718000   0.65544144   -5.9148528    1365.9928  0.030616659   0.03009187           15 
 3719000   0.66472743   -5.9031943    1365.6515  0.030600777  0.030083723           13 
 3720000   0.66758558   -5.8804516    1370.0888  0.030691952  0.030075571           14 
 3721000   0.65678242   -5.9034468    1366.1036  0.030594454  0.030067408            9 
 3722000   0.65682286   -5.8908573    1366.9103  0.030604297  0.030059248           12 
 3723000    0.6419579   -5.8810169    1363.7045   0.03052432  0.030051123           28 
 3724000   0.65714703   -5.9145287    1364.9314  0.030543578  0.030042998           12 
 3725000   0.66662302   -5.9081984    1368.5325  0.030615939  0.030034875           10 
 3726000   0.66142198   -5.8947119    1371.0199  0.030663355  0.030026737           18 
 3727000   0.66086841   -5.9135144    1363.9533  0.030497122  0.030018602           10 
 3728000   0.64954571   -5.8978303    1368.3898  0.030588113  0.030010479           12 
 3729000   0.65648087   -5.8877607    1369.3774  0.030601981  0.030002294           14 
 3730000   0.67699447   -5.8973452    1365.5047  0.030507255  0.029994151           17 
 3731000   0.65386237   -5.8903718    1367.6478  0.030546944  0.029986044           15 
 3732000   0.66528565   -5.9209023    1368.3465   0.03055436   0.02997792            7 
 3733000   0.65342828   -5.9127243    1367.5608  0.030528637  0.029969831           19 
 3734000   0.65288381   -5.8926421    1368.7035  0.030545964  0.029961728            8 
 3735000   0.65855392   -5.9353356    1365.5158  0.030466661  0.029953619            5 
 3736000    0.6675823   -5.9070816    1366.0672  0.030470807  0.029945498            5 
 3737000   0.64712244   -5.9020819    1369.3445  0.030535735   0.02993745            7 
 3738000   0.64286709   -5.9070277    1368.5647  0.030510182  0.029929395            4 
 3739000   0.63746499   -5.9372958    1367.9765  0.030488913  0.029921334           11 
 3740000   0.65164948   -5.8985855    1371.3695  0.030556361  0.029913285           10 
 3741000    0.6541893   -5.9048343    1367.1127   0.03045337  0.029905227            7 
 3742000   0.63841384   -5.9086187    1367.9127  0.030463048  0.029897171           10 
 3743000   0.64404372   -5.9213666    1367.9187  0.030455043  0.029889082           11 
 3744000   0.65549948   -5.9029929    1369.0145  0.030471299  0.029880979           12 
 3745000   0.65171595   -5.9224764    1368.1815  0.030444626  0.029872917           21 
 3746000   0.65834811   -5.9334487    1368.9537  0.030453678  0.029864846            9 
 3747000   0.64376427   -5.9094617    1368.3891  0.030432993  0.029856774           29 
 3748000   0.65557094   -5.9145872    1369.4338  0.030448101  0.029848726           18 
 3749000    0.6454614   -5.9215854    1366.7087  0.030379406  0.029840644            7 
 3750000   0.64639027   -5.9180191    1368.8514  0.030418919  0.029832611           17 
 3751000   0.66269412   -5.9044837    1369.6231  0.030427955   0.02982459           12 
 3752000   0.65887379   -5.9031952    1369.1658  0.030409687  0.029816562           17 
 3753000   0.65282543   -5.8910065    1371.4788  0.030452945  0.029808551           13 
 3754000   0.65057131    -5.898111    1369.2209   0.03039471  0.029800589           12 
 3755000   0.62774877   -5.8851845     1368.509  0.030370817  0.029792596           11 
 3756000   0.65870004    -5.923198    1369.5946  0.030386816   0.02978458           12 
 3757000   0.65699623   -5.9162349    1370.8714  0.030407049  0.029776561           16 
 3758000   0.65687286   -5.8892795    1370.7691  0.030396689  0.029768536            7 
 3759000   0.64891134   -5.9135683    1368.7955   0.03034485  0.029760499           15 
 3760000   0.66069647   -5.9187905    1370.4659  0.030373801  0.029752463           11 
 3761000   0.63978564   -5.9200041    1370.7929  0.030372969  0.029744392           17 
 3762000   0.64829544   -5.9017523    1371.9384  0.030390271  0.029736357           13 
 3763000   0.64703045   -5.9026713    1368.5051  0.030306163  0.029728339           38 
 3764000   0.66253454    -5.917024    1370.4671   0.03034155  0.029720339           16 
 3765000    0.6635275   -5.9054974    1370.4089  0.030332203  0.029712346           31 
 3766000   0.63479929   -5.8954829    1372.4316  0.030368905  0.029704397           20 
 3767000   0.64852632   -5.9185031    1371.6774   0.03034416  0.029696381           10 
 3768000   0.63805168   -5.9222484    1370.0607  0.030300353  0.029688301           20 
 3769000   0.63918947    -5.892205    1372.7764  0.030352358  0.029680285           11 
 3770000   0.64297137    -5.894923    1369.0405  0.030261727  0.029672277           12 
 3771000   0.64618242   -5.9072573    1369.6594  0.030267378    0.0296643           14 
 3772000   0.63961344   -5.9257833    1369.0766  0.030246478  0.029656328            6 
 3773000   0.64810951   -5.9282936    1369.5316  0.030248512  0.029648306            9 
 3774000   0.64417814   -5.9174962    1368.0073  0.030206838  0.029640295           21 
 3775000   0.65384649   -5.9210869    1368.3569  0.030206553  0.029632308           14 
 3776000   0.65387391   -5.9253155    1368.8433   0.03020929  0.029624297            8 
 3777000   0.65340831   -5.8907817    1374.5186  0.030326507   0.02961629            8 
 3778000   0.64552154   -5.9055565    1367.8978  0.030172442  0.029608282           18 
 3779000   0.64242685   -5.9261169      1370.18  0.030214784  0.029600252            6 
 3780000   0.65384908   -5.9262298     1369.439  0.030190454  0.029592221           18 
 3781000   0.64549262   -5.9168033    1368.2612  0.030156511  0.029584204           35 
 3782000   0.65719436   -5.9314679    1370.3179  0.030193855  0.029576209           16 
 3783000   0.65374709   -5.9004089    1371.8215  0.030218995  0.029568215           12 
 3784000   0.64663653   -5.9136173    1369.0638  0.030150278  0.029560233           17 
 3785000   0.65184133    -5.928902    1369.2493  0.030146396  0.029552201           15 
 3786000   0.64112253   -5.9202884    1368.6071  0.030124298  0.029544161           17 
 3787000   0.64566802   -5.9432571    1365.2705  0.030042921  0.029536124           20 
 3788000   0.65461127    -5.928052    1370.5958  0.030152143  0.029528104           12 
 3789000   0.63867575   -5.9461213    1368.6482   0.03010135  0.029520082           14 
 3790000   0.65069453   -5.9218507    1372.8877  0.030186625  0.029512052            7 
 3791000   0.64684206   -5.9539888    1365.8605  0.030024192  0.029503991           25 
 3792000   0.63328297   -5.9188408     1370.411  0.030116274  0.029495964           15 
 3793000   0.63103872   -5.9259404    1373.4849  0.030175869  0.029487966            9 
 3794000   0.64175726   -5.9354951    1368.9067  0.030067358  0.029479917           24 
 3795000   0.66129636   -5.9285539    1367.2993   0.03002414  0.029471896           11 
 3796000   0.65070834   -5.9456294    1369.4192  0.030062768  0.029463936           10 
 3797000   0.64405058   -5.9196736    1367.8428  0.030020253  0.029455928           21 
 3798000   0.64022224   -5.9143411    1374.2339  0.030152579  0.029447922           26 
 3799000    0.6399826   -5.9123518    1370.2531  0.030057319  0.029439948            9 
 3800000    0.6442873   -5.9258145    1367.0028  0.029978132  0.029431978           10 
 3801000   0.63967073   -5.9502771    1368.3494  0.029999767  0.029423965           17 
 3802000   0.65359327   -5.9604541    1368.6998  0.029999558  0.029415912           22 
 3803000   0.64147834   -5.9563544    1366.3667  0.029940545  0.029407868           15 
 3804000   0.65653785   -5.9170435    1369.8719  0.030009463   0.02939983           13 
 3805000    0.6462242   -5.9645533    1366.7132  0.029932395  0.029391777           16 
 3806000   0.63810347   -5.9179824    1370.9061  0.030016337  0.029383763           22 
 3807000   0.63781023   -5.9479201    1365.6016  0.029892338  0.029375708           29 
 3808000   0.65851245   -5.9310522    1367.4612  0.029925183  0.029367645           14 
 3809000   0.64492681   -5.9467026    1369.1585   0.02995446  0.029359635           12 
 3810000   0.65102665   -5.9294935    1366.3563  0.029885308  0.029351639           20 
 3811000   0.64230169   -5.9286609    1368.4906  0.029924136  0.029343639           28 
 3812000   0.65729625   -5.9353348    1368.3038  0.029912203  0.029335647           51 
 3813000   0.65541193   -5.9286062    1370.4424  0.029951096   0.02932766           41 
 3814000   0.63507518   -5.9278674    1373.3139  0.030005986  0.029319687           27 
 3815000    0.6445425   -5.9536898    1369.9176  0.029923932  0.029311699           29 
 3816000   0.64616482   -5.9198338    1374.5582  0.030017432  0.029303694           17 
 3817000   0.64427585   -5.9304067     1367.533  0.029856192  0.029295707           18 
 3818000   0.64378128   -5.9239285    1374.5138  0.030000737  0.029287741           25 
 3819000   0.62834657   -5.9362894    1371.1857  0.029920261  0.029279798            7 
 3820000   0.63672851   -5.9278826     1373.385  0.029960407  0.029271845           39 
 3821000   0.64605976   -5.9376589    1372.9836   0.02994381  0.029263889            8 
 3822000   0.63153157   -5.9328738    1372.9198  0.029934585   0.02925592           17 
 3823000    0.6384688   -5.9266004    1371.2387  0.029890111  0.029247975           12 
 3824000   0.63768282   -5.9338306     1371.704  0.029892434  0.029240011           17 
 3825000   0.64379251   -5.9339416    1370.5936  0.029860426  0.029232037           21 
 3826000   0.63993468   -5.9444749    1369.5814  0.029830576  0.029224014           23 
 3827000   0.64381136   -5.9269066    1369.6283  0.029823803  0.029216037           26 
 3828000   0.64319776   -5.9180586     1371.005  0.029845982  0.029208059           24 
 3829000   0.63018406   -5.9433212    1374.1884   0.02990747  0.029200099           16 
 3830000   0.63751471   -5.9438435    1371.8264  0.029848268  0.029192151           12 
 3831000   0.64334267   -5.9333675    1371.6173  0.029835929  0.029184224           12 
 3832000   0.63841114   -5.9128602    1371.6304  0.029828428  0.029176276           17 
 3833000   0.64234115   -5.9299681     1371.819  0.029824745  0.029168338            6 
 3834000   0.61989755    -5.924599    1370.6344  0.029791219  0.029160421           21 
 3835000    0.6307612   -5.9420066    1371.4964  0.029802181  0.029152467           13 
 3836000   0.62908775   -5.9563514    1371.5226  0.029794982  0.029144511           23 
 3837000   0.62421547   -5.9314969    1371.1237  0.029778553  0.029136575           12 
 3838000   0.63226117   -5.9343458    1369.4292  0.029734002   0.02912864           19 
 3839000   0.63616279   -5.9316336    1374.4664    0.0298356   0.02912071           33 
 3840000   0.64382711   -5.9384529     1373.468  0.029806164  0.029112754           14 
 3841000   0.63511123   -5.9311897    1374.2069  0.029814434  0.029104804           13 
 3842000   0.64894201   -5.9407805    1372.7952  0.029776053  0.029096851           17 
 3843000   0.64119352   -5.9496373    1367.0037  0.029642721  0.029088897           11 
 3844000   0.62796925   -5.9416724    1370.9208  0.029719926  0.029080932           12 
 3845000   0.64401316   -5.9528274    1371.0969  0.029716015  0.029073034           14 
 3846000   0.63356592   -5.9324395    1371.6522  0.029720321  0.029065138           11 
 3847000   0.63831405   -5.9572477    1373.1223   0.02974444  0.029057233            8 
 3848000   0.63748843   -5.9284756    1373.4319  0.029743415  0.029049316           26 
 3849000   0.62120973   -5.9361547    1372.7289  0.029720466  0.029041395           16 
 3850000   0.64178266   -5.9436105    1371.1186  0.029677892  0.029033446           14 
 3851000   0.63816336    -5.927018    1374.4601  0.029742494  0.029025554           16 
 3852000   0.63900907    -5.959365     1373.744  0.029719281  0.029017598           21 
 3853000   0.63326005   -5.9607502     1369.867  0.029627714  0.029009621           38 
 3854000   0.62037409   -5.9707745    1370.6405  0.029636751  0.029001635           31 
 3855000   0.63012336   -5.9651563    1373.2664  0.029685829  0.028993674           33 
 3856000   0.65034491   -5.9316536    1372.1981  0.029655043  0.028985733           15 
 3857000   0.63945627   -5.9563889     1371.312  0.029628208  0.028977778           39 
 3858000   0.63718175   -5.9304561     1373.995  0.029678482  0.028969826           24 
 3859000   0.65523751   -5.9483938    1372.1486  0.029630919  0.028961893            6 
 3860000   0.64450672   -5.9515037    1368.7571  0.029550023  0.028953953           17 
 3861000   0.62689792     -5.93712     1370.785   0.02958614  0.028946006           12 
 3862000    0.6244635   -5.9170328    1373.1692  0.029629924  0.028938119           12 
 3863000   0.63073268   -5.9530528    1371.9304  0.029595529  0.028930222           12 
 3864000   0.62748204   -5.9677183    1368.2088  0.029507609  0.028922295           33 
 3865000   0.64587217   -5.9759639    1370.9129  0.029558278   0.02891435           19 
 3866000   0.62994051   -5.9610814    1370.1822  0.029534881  0.028906431           44 
 3867000   0.62931888   -5.9334555    1374.5805  0.029622027   0.02889853           27 
 3868000   0.63704422   -5.9644368    1372.0324  0.029559471  0.028890598           20 
 3869000   0.63063211   -5.9936332    1369.4402  0.029495998   0.02888267           18 
 3870000   0.62530027   -5.9361449    1372.7828  0.029560352  0.028874765            7 
 3871000   0.63069694   -5.9593631    1372.7421   0.02955184  0.028866915           16 
 3872000   0.62649142   -5.9592847    1377.7527  0.029652046   0.02885906           13 
 3873000   0.64377375   -5.9597569    1373.7681  0.029558657  0.028851196           13 
 3874000   0.63345208   -5.9602984    1371.1281  0.029494237  0.028843351           13 
 3875000   0.63183478   -5.9441173     1373.554  0.029538795    0.0288355            7 
 3876000   0.63247828   -5.9394205    1369.7053  0.029448429  0.028827638           26 
 3877000   0.61731319   -5.9493486    1370.2626  0.029452811  0.028819754           17 
 3878000   0.63112899   -5.9468527    1370.7586  0.029455874  0.028811877           27 
 3879000   0.64410654   -5.9438296     1371.656   0.02946756  0.028804008           12 
 3880000   0.64253007   -5.9495982    1369.6856  0.029417646   0.02879613           14 
 3881000   0.62250432   -5.9413728    1373.5216  0.029492433  0.028788254           16 
 3882000   0.62326194   -5.9564101    1374.1346  0.029497994  0.028780367           20 
 3883000   0.63277643   -5.9496986    1368.9808  0.029379792  0.028772479           11 
 3884000   0.62562718   -5.9543229    1373.6249  0.029471869  0.028764581           14 
 3885000   0.60597744   -5.9767623    1370.0598  0.029387813  0.028756682            9 
 3886000   0.62979109   -5.9557785    1371.9626  0.029421054  0.028748786            9 
 3887000   0.62200845    -5.984808    1371.8184  0.029410394  0.028740861           13 
 3888000   0.63992772   -5.9718884    1372.6521  0.029420698  0.028732932           24 
 3889000   0.63342024   -5.9728423    1373.5645  0.029432683  0.028725035           15 
 3890000   0.62729602   -5.9570617    1371.0139  0.029370477  0.028717157           21 
 3891000   0.62061766   -5.9470141    1369.9444  0.029340023  0.028709265           12 
 3892000   0.63176291   -5.9726429    1372.5844  0.029389012  0.028701383           22 
 3893000   0.61698926   -5.9528144    1375.4534  0.029442876  0.028693488           28 
 3894000   0.62389097   -5.9566828    1375.3791  0.029433725  0.028685606           12 
 3895000   0.63162276   -5.9763781    1368.4421  0.029277752  0.028677696           18 
 3896000   0.62808674   -5.9597828    1372.7433  0.029362236  0.028669809           22 
 3897000   0.63067632    -5.985484    1372.8704   0.02935742  0.028661921           10 
 3898000   0.62656713   -5.9719107    1373.5669  0.029364779   0.02865404           38 
 3899000   0.63099651   -5.9401764    1374.9441  0.029386682  0.028646189           18 
 3900000   0.61636462   -5.9795202    1370.9324  0.029293427  0.028638304           15 
 3901000   0.61561558   -5.9665097     1370.558   0.02927792  0.028630422            9 
 3902000   0.62238516   -5.9493154    1373.2645  0.029328219  0.028622555            9 
 3903000   0.60988397    -5.935258    1369.1301   0.02923243  0.028614682           14 
 3904000   0.63081173   -5.9572199    1370.3209   0.02925036  0.028606841           10 
 3905000   0.60892232   -5.9594214    1376.4008  0.029372617   0.02859899           22 
 3906000   0.62998675   -5.9540084    1374.0278   0.02931447  0.028591183           21 
 3907000   0.62925737     -5.94076    1375.5836   0.02934015  0.028583387           14 
 3908000   0.62403642   -5.9393654    1371.2787  0.029240845  0.028575579            7 
 3909000   0.62402684    -5.951617    1372.4939  0.029259271  0.028567786           18 
 3910000   0.62851499   -5.9463108    1375.2483  0.029310492  0.028559973           12 
 3911000   0.61694175   -5.9585573    1372.0711  0.029235299  0.028552154           29 
 3912000   0.62210391    -5.963379    1373.2015  0.029251907  0.028544312           17 
 3913000    0.6254578   -5.9685253    1373.4694  0.029250136  0.028536468           17 
 3914000   0.63932806   -5.9504959    1376.5626  0.029308521  0.028528626            7 
 3915000   0.63938661   -5.9481727    1373.7901  0.029242019  0.028520794            7 
 3916000   0.62505848    -5.954651    1370.4997  0.029164532   0.02851294           16 
 3917000   0.61871457   -5.9609455    1371.5912  0.029180308  0.028505069           15 
 3918000   0.62123014   -5.9584889    1373.5357  0.029214218  0.028497216           28 
 3919000   0.62985048   -5.9709013    1368.6751  0.029103408  0.028489327           13 
 3920000   0.62017714   -5.9528384    1374.9521  0.029229424  0.028481432           14 
 3921000   0.63002826   -5.9697105    1371.0123  0.029138235  0.028473584           20 
 3922000    0.6234593   -5.9694451    1370.8083  0.029126471  0.028465726            8 
 3923000   0.63516616   -5.9873871    1370.3289  0.029108864  0.028457842           10 
 3924000   0.62905435   -5.9538393    1372.8542  0.029155075  0.028449951           25 
 3925000   0.62611872   -5.9810146    1371.8898  0.029127173   0.02844209           21 
 3926000   0.61478153   -5.9570941    1371.5052  0.029111589  0.028434193            8 
 3927000   0.62881048   -5.9695514    1371.3727  0.029101364  0.028426283           15 
 3928000   0.63041629   -5.9949978    1368.8008  0.029039392  0.028418384           15 
 3929000   0.62236782   -5.9736067    1371.5462   0.02909023  0.028410504           29 
 3930000   0.62322732    -5.968663    1372.8732  0.029110967  0.028402619           10 
 3931000   0.61450329   -5.9827484    1366.9681  0.028978378  0.028394726           39 
 3932000   0.63350057   -5.9914037    1371.7336  0.029072007   0.02838682           15 
 3933000    0.6033888   -5.9763752    1369.4035  0.029015245  0.028378905           19 
 3934000    0.6105499   -5.9939072    1369.2556  0.029004737  0.028370972           11 
 3935000    0.6285304    -5.972758    1368.7948  0.028987607  0.028363066           17 
 3936000    0.6193873   -5.9799466    1367.9182  0.028961682  0.028355164           31 
 3937000   0.61919482   -6.0028016    1372.0804  0.029042427  0.028347272           15 
 3938000   0.62332056   -5.9876389    1370.9818  0.029011803  0.028339383           12 
 3939000   0.62910739   -5.9796635    1372.1547  0.029029252  0.028331481           33 
 3940000   0.61938765   -5.9726092    1373.1027  0.029041936    0.0283236           10 
 3941000   0.61143055   -6.0030507    1370.0568  0.028970159  0.028315729           10 
 3942000   0.62681545    -5.974462    1370.5234  0.028972675  0.028307848           36 
 3943000   0.63489763   -5.9738939    1371.9036  0.028994496  0.028299953           36 
 3944000   0.63308891   -5.9792641    1371.6332  0.028981432  0.028292063           26 
 3945000   0.62383825   -5.9719532    1370.6687  0.028953712  0.028284185           22 
 3946000   0.62065199   -5.9823772    1372.0039  0.028974572  0.028276309           35 
 3947000   0.62451419   -5.9840802    1371.9468  0.028966024   0.02826845           17 
 3948000   0.61710613   -5.9603364    1373.1213   0.02898348  0.028260607           12 
 3949000   0.62201299   -5.9755375    1374.1569  0.028997994  0.028252762           17 
 3950000    0.6262018   -5.9687001     1374.034  0.028988059  0.028244938           25 
 3951000   0.60920219   -5.9791246     1372.627  0.028951046  0.028237086           14 
 3952000   0.62389432   -5.9705951    1372.4359  0.028939691  0.028229213           28 
 3953000   0.60976186   -5.9844618    1369.8568  0.028877999  0.028221367           15 
 3954000   0.61272043   -5.9979184    1370.7459  0.028889436  0.028213506           28 
 3955000   0.62847548   -5.9756598    1372.9893  0.028929399  0.028205675           22 
 3956000   0.61579219   -5.9924715    1368.0975  0.028819041  0.028197837           12 
 3957000   0.60755696   -5.9853184    1370.0075  0.028851982  0.028189995           20 
 3958000   0.60997844   -5.9764159    1374.1299  0.028931487  0.028182153           21 
 3959000   0.60197016   -5.9898112    1369.5975  0.028828777  0.028174297           29 
 3960000    0.6117092   -5.9743105    1370.4362  0.028839145  0.028166436           29 
 3961000   0.60905567   -6.0101376    1372.8499  0.028882645  0.028158623           24 
 3962000   0.61674202   -5.9856684     1372.294  0.028863663  0.028150772           28 
 3963000   0.63194338   -5.9845238    1374.3149  0.028898876  0.028142976           18 
 3964000   0.61498365   -5.9674015    1370.1953  0.028804981  0.028135205           16 
 3965000   0.63594653   -5.9769204    1373.7681  0.028872805  0.028127382           13 
 3966000    0.5959752   -5.9744289    1376.3325  0.028919408  0.028119593           17 
 3967000   0.61172547   -5.9672313    1372.7452  0.028836761  0.028111832           13 
 3968000    0.6090513   -5.9912211    1372.4253  0.028822776  0.028104005           19 
 3969000    0.6219309   -5.9842649    1373.2625  0.028833092  0.028096172           19 
 3970000   0.61096532    -5.945599    1376.1209  0.028885828  0.028088391           14 
 3971000   0.60407476   -6.0102782    1373.0057  0.028813182  0.028080566           15 
 3972000   0.62197064   -5.9962108    1370.4141  0.028751554  0.028072744           17 
 3973000   0.62843652    -6.002281    1372.0987  0.028779652  0.028064926           13 
 3974000   0.62086768   -6.0002816    1373.5735  0.028803337  0.028057096           20 
 3975000   0.61029474   -5.9589519    1373.1338  0.028786872  0.028049279           10 
 3976000   0.61645338   -5.9778289    1372.7193  0.028770944  0.028041472            7 
 3977000   0.62349302   -6.0087542    1373.3881  0.028777724  0.028033663           19 
 3978000   0.61338857   -5.9880198    1371.2167  0.028725002  0.028025827           16 
 3979000   0.62758545   -5.9904718    1372.8252  0.028751471  0.028017997           41 
 3980000     0.611311   -5.9741017    1371.8036  0.028722855  0.028010195           16 
 3981000   0.62022944   -5.9853607    1373.8559  0.028758601  0.028002399           15 
 3982000   0.62076516    -5.967368    1371.7499  0.028707306  0.027994629           26 
 3983000   0.62325754   -6.0110427    1370.0524  0.028664582  0.027986843           26 
 3984000   0.62201111   -6.0102686    1371.6951  0.028691749  0.027979048           24 
 3985000   0.60984379   -5.9937997     1374.434  0.028741824  0.027971273           18 
 3986000   0.62011504   -6.0014042    1373.5416  0.028715956  0.027963505           23 
 3987000   0.62684206   -6.0030907    1367.1088    0.0285743  0.027955743           13 
 3988000   0.60962954   -5.9930417    1374.4313  0.028720147  0.027947949           25 
 3989000   0.61799337   -5.9946203    1376.3119  0.028752234   0.02794018           18 
 3990000   0.63250549   -6.0061486    1371.5619  0.028645821  0.027932406           25 
 3991000   0.61004328   -6.0047776    1372.7694  0.028663856  0.027924635           19 
 3992000   0.60182306    -5.968779     1376.675  0.028738206  0.027916875            8 
 3993000   0.61481485   -6.0079187    1374.3019  0.028681483  0.027909169           32 
 3994000   0.62074645   -5.9888577    1375.6398  0.028702215  0.027901454           13 
 3995000   0.60985011   -6.0004842    1375.8354  0.028699112   0.02789374           15 
 3996000    0.6026582   -6.0085381    1370.5819  0.028582371  0.027885981           12 
 3997000   0.61241134    -6.004213    1374.5117  0.028657152  0.027878224           17 
 3998000   0.62177761   -5.9933691    1374.7691  0.028655351  0.027870492           26 
 3999000   0.62222651   -5.9579905    1378.2054  0.028719793  0.027862765           24 
 4000000   0.62154344   -5.9818444    1373.7326   0.02861943  0.027855038           12 
 4001000   0.60743123   -6.0213448    1371.2972  0.028561551  0.027847301           17 
 4002000   0.61221944   -5.9886155    1372.1579  0.028572336  0.027839551           19 
 4003000   0.61331706   -5.9968176    1374.6273  0.028616606  0.027831826           14 
 4004000   0.61793466   -6.0008432    1372.1919  0.028558772  0.027824069           60 
 4005000   0.60924025   -6.0115684    1369.3619  0.028492757  0.027816315           20 
 4006000   0.60716911   -5.9950806    1372.9494  0.028560272  0.027808585           13 
 4007000   0.60439009   -5.9918365    1373.6082  0.028566845  0.027800848           12 
 4008000   0.61088059   -6.0108158    1374.0681   0.02856928  0.027793136            9 
 4009000   0.61238886   -6.0030983    1372.6462  0.028532597  0.027785421           21 
 4010000    0.6256817   -5.9889748    1373.8919  0.028551369  0.027777705           12 
 4011000    0.6044926   -5.9820175    1377.5146  0.028619516  0.027769991            9 
 4012000   0.61743515   -6.0006122    1375.7055  0.028574806  0.027762288           23 
 4013000   0.60780162   -5.9961971    1373.6803  0.028525631  0.027754603           26 
 4014000    0.6129764   -6.0167338    1373.8052  0.028521118  0.027746916           23 
 4015000   0.61242134   -6.0025784    1377.3898  0.028588415  0.027739225           39 
 4016000   0.61384798   -6.0108822    1375.5009    0.0285421  0.027731559           18 
 4017000   0.61074238   -5.9955849    1374.8564  0.028521625   0.02772389           20 
 4018000   0.60347473   -5.9989229    1371.8191  0.028451532  0.027716219           14 
 4019000   0.61734714   -6.0064814    1374.0141  0.028489967  0.027708528            8 
 4020000   0.60716488   -6.0170394    1372.2771  0.028446873  0.027700854           15 
 4021000   0.59954888   -6.0142491    1377.0048  0.028537776  0.027693175           19 
 4022000    0.6034353   -6.0042982    1373.4794  0.028457636  0.027685514           20 
 4023000    0.6077961   -5.9946239    1376.6157   0.02851553  0.027677839           30 
 4024000    0.5936883   -6.0098304    1374.3354  0.028461221  0.027670178           17 
 4025000   0.61134486   -6.0266794    1372.0243  0.028406301  0.027662496           44 
 4026000   0.61057462   -6.0110045    1376.9538  0.028501279  0.027654818           23 
 4027000    0.5924872   -6.0143885    1374.1607  0.028436402  0.027647142           24 
 4028000   0.61282669   -6.0076313    1374.4732  0.028435807  0.027639454           29 
 4029000   0.60586474   -5.9913029    1373.4077  0.028406713  0.027631786           14 
 4030000   0.62223633   -6.0171625    1376.4053  0.028461648   0.02762413           11 
 4031000   0.61185371   -6.0101674    1371.9769  0.028363039  0.027616489           19 
 4032000    0.6137202   -6.0124406    1376.7787  0.028455248   0.02760884           13 
 4033000   0.62000622   -6.0210436    1373.0019  0.028370153  0.027601171           44 
 4034000    0.5987591   -6.0133217    1371.8206  0.028338718  0.027593485           22 
 4035000   0.60936638   -6.0355837    1373.7756   0.02837207  0.027585787            9 
 4036000   0.60344985     -6.04355    1375.9597  0.028410136  0.027578086           24 
 4037000   0.60269945   -6.0297784     1371.847  0.028318202  0.027570367           29 
 4038000   0.60575178   -6.0020737    1374.6109  0.028368228  0.027562674           25 
 4039000   0.59960485   -6.0321023    1373.9428   0.02834742  0.027555011           13 
 4040000   0.59365547   -6.0204213    1374.0266  0.028342133  0.027547369           14 
 4041000   0.61325223   -5.9971293      1375.48  0.028365091  0.027539697           19 
 4042000    0.6119987   -6.0160971    1370.9918   0.02826554  0.027532051           10 
 4043000   0.61412014   -6.0232191    1374.8121  0.028337294  0.027524414           11 
 4044000   0.62185437   -6.0340583     1373.008  0.028293109  0.027516733           15 
 4045000   0.60519845   -6.0133034    1372.0047  0.028265445  0.027509042           18 
 4046000   0.60707828   -6.0302237    1373.7485  0.028294375  0.027501352           22 
 4047000   0.60945202    -6.031357    1372.8482  0.028268845  0.027493655           15 
 4048000   0.59436456   -6.0224045    1374.0636  0.028286882  0.027485959           45 
 4049000   0.59265797   -6.0403159    1374.1429  0.028281529  0.027478252           23 
 4050000   0.60287089   -6.0187166    1374.5285   0.02828248  0.027470559           27 
 4051000   0.59657702    -6.030287    1373.0055  0.028244168  0.027462892           30 
 4052000   0.61562199   -6.0390327    1374.1463  0.028260659  0.027455208           20 
 4053000   0.61036654     -6.01739    1374.4126  0.028259162  0.027447551           34 
 4054000   0.61071706   -6.0268149    1376.4498  0.028294067  0.027439898           44 
 4055000   0.60106503   -6.0144162    1373.4238  0.028224903  0.027432238           90 
 4056000   0.60829224    -6.027239    1376.4405  0.028279924  0.027424587           49 
 4057000   0.60504984    -6.013037    1375.5361  0.028254377  0.027416955           16 
 4058000   0.59758231   -5.9920605    1376.1436  0.028259889  0.027409316           25 
 4059000   0.61985778   -6.0283164    1373.3183  0.028194922  0.027401707           29 
 4060000    0.6057974    -6.029659    1374.0392  0.028202776    0.0273941           13 
 4061000   0.59747053    -6.003951    1373.5925  0.028186663  0.027386459           18 
 4062000   0.61200165   -6.0259834    1376.8102  0.028245737  0.027378808           22 
 4063000   0.60869289   -6.0161688    1373.9127  0.028179356  0.027371197           28 
 4064000   0.60328167   -6.0270801    1376.0275  0.028215786  0.027363569           13 
 4065000   0.60615029   -6.0192947    1373.5085  0.028157205  0.027355953           28 
 4066000   0.60874089   -6.0222653    1375.7916  0.028197074  0.027348318           18 
 4067000   0.58861153    -6.038765    1371.9681  0.028111796  0.027340687           17 
 4068000    0.6051351   -6.0390456    1373.7597  0.028141588  0.027333038           13 
 4069000   0.59939139    -6.023464    1375.6595  0.028173579  0.027325403           29 
 4070000    0.5889144   -6.0232061    1374.6542  0.028146073  0.027317786           46 
 4071000   0.58566604   -6.0342632    1374.4105  0.028134171  0.027310176            8 
 4072000   0.59321485   -6.0280479    1373.2993   0.02810452  0.027302568           17 
 4073000   0.60888819   -6.0188372    1377.1048   0.02817548  0.027294965           16 
 4074000   0.60152099   -6.0385645    1374.7353  0.028120097  0.027287375           21 
 4075000   0.59617646   -6.0128232    1374.2533   0.02810334  0.027279775           35 
 4076000   0.59396357   -6.0295125    1376.9437   0.02815145   0.02727221           25 
 4077000   0.59146751   -6.0022316    1377.5574  0.028157088  0.027264652           44 
 4078000   0.58977068   -6.0089619    1380.4734  0.028209772  0.027257132           29 
 4079000   0.58619988   -6.0239856    1374.7042  0.028084991  0.027249591           50 
 4080000   0.59603518   -6.0353622    1376.7645   0.02812019   0.02724204           78 
 4081000   0.59936447   -6.0409378    1374.8056  0.028073299  0.027234462           54 
 4082000   0.60619326   -6.0328292    1376.7014  0.028105124  0.027226863           25 
 4083000   0.60015928   -6.0525563    1375.7695  0.028079221  0.027219271           18 
 4084000   0.60561156   -6.0259662    1376.1324   0.02807975  0.027211673           13 
 4085000   0.58718521   -6.0332291    1376.3733  0.028077791  0.027204094           23 
 4086000   0.60834535   -6.0253995    1374.2974   0.02802858   0.02719655           23 
 4087000   0.60090944   -6.0292485    1377.7215   0.02809154  0.027189001           26 
 4088000   0.59048233   -6.0087647     1379.107  0.028112913  0.027181473           47 
 4089000   0.59944283   -6.0351414    1376.8801  0.028060652  0.027173904           16 
 4090000   0.58749563   -6.0243027    1375.2954  0.028021504  0.027166326            9 
 4091000   0.60573406   -6.0375293    1378.8454  0.028086967  0.027158735           19 
 4092000   0.60508204    -6.045943    1376.4511  0.028031343  0.027151139           14 
 4093000   0.59040069   -6.0396283    1376.0194  0.028015705  0.027143545           26 
 4094000   0.59435699   -6.0495341     1374.532  0.027978586  0.027135948            9 
 4095000   0.60394266   -6.0572801    1377.4757  0.028031659  0.027128338           34 
 4096000   0.59424749    -6.049405    1375.1451  0.027977399  0.027120734           41 
 4097000   0.59002298   -6.0542661     1373.131  0.027929603  0.027113142           16 
 4098000   0.59499378    -6.052665     1373.806  0.027936515   0.02710556           18 
 4099000   0.59194354   -6.0432921    1371.9286  0.027891531  0.027097972           14 
 4100000   0.59998311   -6.0552135    1376.3584  0.027974765  0.027090397           15 
 4101000    0.5896676   -6.0185636    1377.4742  0.027990617  0.027082874           24 
 4102000   0.59342391   -6.0267654     1373.908  0.027911344  0.027075366           17 
 4103000   0.58747013   -6.0082007    1377.4017    0.0279755  0.027067847           34 
 4104000    0.5958865   -6.0321746    1374.6334  0.027912472  0.027060308           28 
 4105000   0.60104117   -6.0320898    1377.0919   0.02795558  0.027052815           12 
 4106000   0.58695598   -6.0191569    1379.3164  0.027993919  0.027045314           24 
 4107000    0.5992194   -6.0375577    1375.1707  0.027902985  0.027037785           37 
 4108000   0.58891285   -6.0367824    1377.5426  0.027944307   0.02703025           22 
 4109000    0.5957779   -6.0388636    1375.4933  0.027895947  0.027022729           41 
 4110000   0.59182564   -6.0256493    1375.4435  0.027888149  0.027015207           30 
 4111000   0.60038374   -6.0522821    1377.1152  0.027915252  0.027007683           41 
 4112000   0.59390015   -6.0315926    1374.7414  0.027860355  0.027000136           34 
 4113000   0.58180394   -6.0432752    1372.0341  0.027798731    0.0269926           22 
 4114000   0.59966006   -6.0500239    1375.7356  0.027866949  0.026985068           30 
 4115000   0.59338707   -6.0603817    1373.4101  0.027813084  0.026977514           49 
 4116000   0.57623846   -6.0370986    1376.3509  0.027865868  0.026969952           55 
 4117000   0.60277896   -6.0659644     1376.327  0.027858614  0.026962412           37 
 4118000   0.59256083   -6.0468183    1378.2789  0.027891349  0.026954867           69 
 4119000   0.57642582   -6.0488369    1375.9836  0.027838141   0.02694735           38 
 4120000   0.59362332    -6.044093     1377.457  0.027861185  0.026939831           42 
 4121000   0.61260072   -6.0555404    1372.5066  0.027754319  0.026932292           62 
 4122000   0.59888987   -6.0691213     1373.567  0.027769024  0.026924746           29 
 4123000   0.59105361   -6.0601884    1375.0315  0.027791889  0.026917159           53 
 4124000   0.58765423   -6.0478792    1371.4646  0.027713074  0.026909589           56 
 4125000   0.60644816   -6.0635017    1373.2336  0.027742094   0.02690203           61 
 4126000    0.5811388   -6.0412012    1376.0303  0.027791855  0.026894478           26 
 4127000    0.5920951   -6.0446296    1373.1861  0.027727689  0.026886939           38 
 4128000   0.59366857   -6.0441861    1373.9458  0.027736309  0.026879402           48 
 4129000   0.59468343    -6.040012    1374.4663  0.027740096  0.026871874           53 
 4130000   0.59823241   -6.0452912    1372.7659   0.02769907   0.02686433           29 
 4131000   0.58881714   -6.0613173    1371.9523  0.027675953  0.026856787           56 
 4132000    0.5884031   -6.0640364    1372.6953  0.027684238  0.026849234          105 
 4133000   0.57736915   -6.0430674    1375.9973  0.027744119  0.026841686          111 
 4134000   0.58661685   -6.0555028     1372.049  0.027657818  0.026834137           86 
 4135000   0.58179677   -6.0659731    1371.9076  0.027648279  0.026826579           43 
 4136000   0.60974853   -6.0675742    1371.8475  0.027640383  0.026819012           38 
 4137000   0.58546051    -6.070512    1373.5055  0.027667099  0.026811446           64 
 4138000   0.58906461   -6.0487853    1373.5671  0.027661654  0.026803896           67 
 4139000   0.57915648   -6.0551686      1372.28  0.027629056  0.026796376           57 
 4140000   0.60038606   -6.0646963    1376.8694  0.027714763  0.026788871           27 
 4141000   0.59271428   -6.0441484    1375.1263  0.027672992  0.026781371           22 
 4142000   0.57695848   -6.0455861    1374.9823  0.027663414   0.02677385           75 
 4143000   0.59561018   -6.0597152    1374.3406  0.027643829  0.026766345           23 
 4144000   0.58806146   -6.0393323    1375.0788  0.027652002  0.026758842           23 
 4145000   0.60415279   -6.0534862    1375.1399   0.02764656  0.026751347           46 
 4146000   0.60064001   -6.0474692    1374.5615  0.027628267  0.026743844           28 
 4147000   0.58825802   -6.0552932    1375.9487   0.02764948  0.026736364           29 
 4148000   0.59580211   -6.0526211    1374.3128  0.027609948  0.026728886           47 
 4149000   0.58545431   -6.0580033    1375.8145  0.027633456  0.026721413           36 
 4150000   0.58131075   -6.0633208    1374.6647  0.027603708   0.02671392           17 
 4151000   0.58027948   -6.0670052    1373.9553  0.027582817  0.026706426           20 
 4152000   0.59939874   -6.0682202    1372.1322  0.027539583  0.026698915           71 
 4153000   0.59516944    -6.075827    1373.2439  0.027555259  0.026691407           22 
 4154000   0.58910474   -6.0664239    1374.9219  0.027582288  0.026683896           30 
 4155000   0.59770588   -6.0536676    1373.7879  0.027552906  0.026676384           42 
 4156000   0.58266598   -6.0466225    1377.8269  0.027627264  0.026668909           16 
 4157000   0.58687408   -6.0743823    1372.6091   0.02751602  0.026661416           18 
 4158000   0.59596985   -6.0563614    1371.9772  0.027496738  0.026653914           22 
 4159000   0.57293794    -6.062757    1370.4415  0.027459354  0.026646425           16 
 4160000   0.59073726   -6.0657742    1375.9688  0.027563477  0.026638933           30 
 4161000   0.58174305   -6.0879107     1375.756  0.027552591  0.026631451            8 
 4162000   0.58638943    -6.055081    1374.2007  0.027514831  0.026623954           14 
 4163000   0.58482346   -6.0606646    1375.4462  0.027533154   0.02661648           18 
 4164000    0.5757587   -6.0684131    1374.9324  0.027516259  0.026609006           22 
 4165000   0.58183035   -6.0709862    1376.6488  0.027543994  0.026601541           33 
 4166000   0.59164965   -6.0647863    1375.0587  0.027505574  0.026594072           23 
 4167000   0.59560746   -6.0681348    1375.5075  0.027507949  0.026586588           17 
 4168000   0.57762155   -6.0740945    1375.8454  0.027508106    0.0265791           40 
 4169000   0.58409892   -6.0851526    1373.8969   0.02746256  0.026571593           31 
 4170000   0.58118856   -6.0639004    1373.2539  0.027443124  0.026564121           30 
 4171000   0.58243881    -6.050751    1374.8934    0.0274693   0.02655663           26 
 4172000   0.58187074   -6.0606749    1372.8788  0.027422475  0.026549183           31 
 4173000     0.595781   -6.0540289    1375.8942   0.02747612  0.026541735           18 
 4174000   0.58160203     -6.07922    1374.7154  0.027446003  0.026534242           36 
 4175000   0.58752672   -6.0642133    1373.1563  0.027408309  0.026526752           16 
 4176000   0.58933221   -6.0901865     1370.177  0.027342294  0.026519252           16 
 4177000   0.58437868   -6.0700256    1372.3569  0.027379238  0.026511757           16 
 4178000   0.57799331    -6.076418     1374.456  0.027414552  0.026504263           16 
 4179000   0.57581251   -6.0765838    1373.4829  0.027388588  0.026496804           31 
 4180000   0.58148411   -6.0648054    1373.0087  0.027372581  0.026489347           11 
 4181000    0.5792662    -6.081344     1375.915  0.027423962  0.026481871           19 
 4182000   0.59985212   -6.0448429    1378.1991  0.027462919  0.026474431           23 
 4183000   0.59137537   -6.0966439    1377.5969  0.027444356  0.026466979           12 
 4184000   0.58187315   -6.0798058    1375.2126  0.027390308  0.026459529           16 
 4185000   0.58911135    -6.105819    1373.7432  0.027354504  0.026452064           24 
 4186000   0.59074101   -6.0837793    1373.7405  0.027347916  0.026444605           19 
 4187000   0.56448855   -6.0789908    1370.4587  0.027276067  0.026437123           36 
 4188000   0.57870604   -6.0580523    1370.7379   0.02727511  0.026429639           31 
 4189000   0.58789708   -6.0764161    1376.2742  0.027378734  0.026422169           15 
 4190000   0.58094126   -6.0836084    1371.3696  0.027274655  0.026414721           19 
 4191000   0.59034002   -6.0885382    1375.5864  0.027351993  0.026407238           15 
 4192000   0.58109449   -6.0916513     1374.293  0.027319757  0.026399771           26 
 4193000   0.58096474   -6.0726864    1374.0184  0.027307782  0.026392304           22 
 4194000   0.59187541   -6.0799786    1374.8382  0.027317561  0.026384828           33 
 4195000   0.58092214   -6.0838334    1373.9421  0.027293247  0.026377348           46 
 4196000    0.5790791    -6.093862    1377.9564  0.027366468  0.026369913           31 
 4197000   0.58825575   -6.1061036    1373.4055  0.027269588  0.026362461           36 
 4198000   0.57574486   -6.1169348    1375.1151  0.027297028  0.026355003           15 
 4199000   0.58239695   -6.0851127    1373.2668  0.027253847  0.026347546           19 
 4200000   0.58774822   -6.0923204    1373.7302  0.027256552  0.026340069           20 
 4201000   0.57569809   -6.0762579    1370.5758  0.027187492  0.026332607           19 
 4202000   0.57162229    -6.077115    1373.7681   0.02724433  0.026325148           26 
 4203000    0.5784379   -6.0991469    1372.9415  0.027221459  0.026317671           82 
 4204000   0.57149607   -6.0974277    1374.5337  0.027246545  0.026310218           33 
 4205000    0.5820562   -6.0962657    1372.6303  0.027202345  0.026302771           63 
 4206000   0.58296928   -6.0931793    1372.0966  0.027185304  0.026295325           46 
 4207000   0.56993196    -6.078659    1374.5782  0.027227997   0.02628789           17 
 4208000   0.57495078    -6.078019    1377.0508  0.027270492  0.026280452           39 
 4209000   0.58520547   -6.0919735    1376.0476  0.027244152  0.026273039           29 
 4210000   0.57313568   -6.1006735    1372.2153  0.027161823  0.026265606           26 
 4211000   0.57850805   -6.0881028    1373.3362  0.027177554  0.026258179           26 
 4212000   0.57279655   -6.0649128    1375.0605  0.027205217  0.026250756           36 
 4213000   0.57564582    -6.088416    1376.8597  0.027234347  0.026243347           43 
 4214000   0.57996271   -6.0724941    1373.5977  0.027163378  0.026235943           25 
 4215000   0.58264979   -6.0727729    1372.9124  0.027143384  0.026228538           15 
 4216000   0.58830329   -6.0690958    1375.4192  0.027186496  0.026221124           26 
 4217000   0.57714525   -6.0777773    1372.5722  0.027123789  0.026213725           17 
 4218000   0.57565078   -6.0764945    1375.3853  0.027172936  0.026206306           14 
 4219000   0.58641201   -6.0949887    1377.2834  0.027203986   0.02619889           27 
 4220000   0.57434791   -6.0884008    1374.0151  0.027132999  0.026191489           12 
 4221000   0.58391524   -6.0910818    1372.6944  0.027100498  0.026184088           22 
 4222000   0.57671171   -6.1004548    1374.4884  0.027129488  0.026176677           21 
 4223000    0.5778558   -6.1006408    1375.0574  0.027134292  0.026169258           12 
 4224000     0.575753    -6.070567    1374.6967  0.027120753  0.026161855           24 
 4225000   0.58878413   -6.0753249    1374.0456   0.02710149  0.026154454           18 
 4226000   0.57234704   -6.0792578    1373.1128  0.027076685  0.026147053           22 
 4227000   0.58588815   -6.1054531    1372.8868  0.027065823  0.026139622           49 
 4228000    0.5758834   -6.1018724    1371.9578   0.02704111  0.026132189           28 
 4229000   0.57974666   -6.0935388    1375.8558  0.027111527  0.026124758           26 
 4230000   0.56801101   -6.0846838    1376.3016    0.0271139  0.026117367           21 
 4231000   0.58616838   -6.0838268    1373.3924  0.027050194  0.026109954           27 
 4232000   0.58040566    -6.099057     1374.049   0.02705673  0.026102537           41 
 4233000   0.56906243   -6.0891984     1374.108    0.0270515  0.026095133           61 
 4234000    0.5732603   -6.0946094    1370.7394  0.026978811  0.026087738           57 
 4235000    0.5769727   -6.0857731    1375.7658  0.027071346  0.026080328           24 
 4236000   0.56564995   -6.1135233    1374.4884  0.027039825  0.026072921           39 
 4237000    0.5826316   -6.0923587    1372.9716   0.02700361  0.026065495           56 
 4238000   0.57952535   -6.0936423    1372.8244  0.026994345   0.02605809           67 
 4239000   0.57860411   -6.1091234    1374.2496  0.027015994  0.026050681           33 
 4240000   0.56523843   -6.0950065    1373.8352  0.027001478  0.026043269           34 
 4241000   0.58332349   -6.0956476    1373.8509   0.02699542  0.026035895           39 
 4242000   0.56767038   -6.1030882    1370.8516  0.026930136   0.02602849           26 
 4243000   0.56308759    -6.126979    1371.0127  0.026926952  0.026021056           37 
 4244000   0.55769594   -6.0971343    1371.2599  0.026925461  0.026013633           46 
 4245000   0.56663662   -6.1049412    1372.3548  0.026940612  0.026006217           41 
 4246000   0.56291438   -6.1255761    1370.1307  0.026890618  0.025998803           96 
 4247000   0.56868024   -6.0945398    1374.4871  0.026969766  0.025991387           26 
 4248000   0.56081666   -6.0897751    1372.2839  0.026920195  0.025983999           26 
 4249000   0.57176349   -6.1051685    1371.5193  0.026898864  0.025976603           69 
 4250000    0.5686187    -6.119013      1371.72   0.02689647  0.025969192           49 
 4251000   0.55962919   -6.1045087    1375.0806  0.026956022  0.025961791           35 
 4252000     0.568599   -6.1095181    1371.7785  0.026884966  0.025954374           23 
 4253000     0.565511   -6.1073852    1373.8471  0.026919176  0.025947008           33 
 4254000    0.5818587    -6.122817    1370.5092   0.02684746  0.025939617           29 
 4255000   0.56237182   -6.0989772    1373.5637  0.026900973  0.025932236           32 
 4256000   0.57030241   -6.0952197    1372.9229  0.026882105  0.025924838           20 
 4257000   0.56712294   -6.1118673    1371.7294  0.026852427  0.025917458           46 
 4258000   0.57229494   -6.0963516    1371.7637  0.026846792  0.025910076           19 
 4259000   0.57879921   -6.0911488    1373.6099  0.026876613  0.025902709           31 
 4260000   0.57783179   -6.1114678    1374.2641    0.0268831  0.025895359           15 
 4261000   0.56879144   -6.1076879    1371.3522  0.026819843  0.025887996           36 
 4262000   0.57005822   -6.1032309    1375.0786  0.026886411  0.025880633           22 
 4263000   0.55770476   -6.0960908    1373.1195  0.026841807  0.025873268           38 
 4264000   0.57068217   -6.1177146    1373.3381  0.026839785  0.025865895           27 
 4265000   0.56447975   -6.0928623    1374.0629  0.026847654  0.025858523           38 
 4266000   0.56822601   -6.1060547    1373.6421  0.026833139  0.025851163           46 
 4267000    0.5709512   -6.1106458    1372.9795  0.026813911  0.025843803           33 
 4268000   0.56498346   -6.1168456    1370.8565  0.026766177  0.025836433           20 
 4269000   0.56335648   -6.1158387    1370.8634  0.026760042  0.025829059           13 
 4270000   0.56322407   -6.1112119    1371.9154  0.026774304  0.025821687           22 
 4271000   0.56093887   -6.1056856    1373.7422   0.02680368  0.025814314           14 
 4272000   0.55944116   -6.1132514    1371.2265  0.026748332  0.025806954           34 
 4273000   0.55385935   -6.1017344    1372.5727  0.026768326  0.025799598           19 
 4274000   0.57411637   -6.1072091    1373.4907  0.026779962  0.025792274           38 
 4275000   0.56510264   -6.1038694    1375.3914  0.026810748  0.025784945           50 
 4276000   0.55386859   -6.1194019     1372.105  0.026740431  0.025777632           13 
 4277000   0.57572851   -6.1075815    1374.3516  0.026777953  0.025770282            9 
 4278000    0.5712724    -6.096903    1374.4728  0.026774054  0.025762937           37 
 4279000   0.56741392   -6.0917475    1375.9197  0.026795974  0.025755599           32 
 4280000   0.55479288   -6.1184175    1372.9508  0.026731908  0.025748264           25 
 4281000    0.5691124   -6.1233833    1372.1378  0.026709838  0.025740922           18 
 4282000   0.56005514   -6.1141883    1372.6494  0.026713557  0.025733596           45 
 4283000   0.56516553   -6.1095551     1371.186  0.026678846  0.025726261           40 
 4284000    0.5581919   -6.1344891    1372.6538  0.026701171  0.025718907           30 
 4285000   0.56088421   -6.1237048     1373.228  0.026706107  0.025711542           48 
 4286000   0.57422734    -6.105738    1373.2429  0.026700165  0.025704203           37 
 4287000    0.5691095   -6.1141798    1373.2133  0.026693363  0.025696884           49 
 4288000   0.57540709   -6.1112396    1375.9372  0.026740074  0.025689573           17 
 4289000    0.5617695   -6.1101659    1373.1829  0.026680323  0.025682239           31 
 4290000   0.56553493   -6.1277954    1371.5356  0.026642105  0.025674929           38 
 4291000   0.56641016   -6.1300397    1368.3125  0.026573302  0.025667594           50 
 4292000   0.57482203   -6.1374465    1370.5733  0.026611007  0.025660247           44 
 4293000   0.55959265   -6.1201356    1372.8137  0.026648297  0.025652898           29 
 4294000   0.57133001   -6.1271253    1372.7632  0.026641113  0.025645539           32 
 4295000   0.56237462    -6.127036    1370.1124  0.026583478  0.025638182           23 
 4296000   0.56800048   -6.1172349     1369.174  0.026559086  0.025630828           30 
 4297000   0.55771558   -6.0975486     1373.319   0.02663329  0.025623493           28 
 4298000   0.56721186   -6.1198094    1372.4682  0.026610597  0.025616186           43 
 4299000    0.5512039   -6.1010327    1374.5755  0.026645257  0.025608878           48 
 4300000   0.57054091   -6.1255093    1372.3443  0.026595819   0.02560154           75 
 4301000   0.57630805   -6.1242746    1369.1178  0.026527122  0.025594183           40 
 4302000   0.56413217   -6.0924589    1372.1985  0.026580632  0.025586868           24 
 4303000   0.56487439   -6.1049615    1374.0238  0.026609804  0.025579572            8 
 4304000   0.56472891    -6.118842    1373.7329  0.026597988  0.025572284           27 
 4305000   0.57268849   -6.1284249    1369.0075   0.02650034  0.025564973           42 
 4306000   0.56354821   -6.1341367    1372.6335  0.026564358  0.025557665           17 
 4307000   0.56618205   -6.1398792    1372.0388  0.026546683  0.025550336           58 
 4308000   0.56087198   -6.1231868    1372.7683  0.026554632  0.025542998           45 
 4309000   0.55825151   -6.1279453    1369.2406  0.026480246   0.02553564           33 
 4310000   0.56026552   -6.1308174    1371.0453  0.026508997  0.025528308           38 
 4311000   0.56792671    -6.121512    1367.8434  0.026440953   0.02552097           26 
 4312000   0.56564862   -6.1612785    1366.9625  0.026417798  0.025513633           32 
 4313000   0.56098596   -6.1386981     1369.573  0.026462111  0.025506284           64 
 4314000   0.57683676   -6.1447149    1367.6126  0.026418108  0.025498927           92 
 4315000   0.56654512   -6.1407446    1370.1463  0.026460917  0.025491567          119 
 4316000   0.56639385   -6.1273124    1372.5784  0.026501745  0.025484222           43 
 4317000   0.56205303   -6.1422893    1369.3966  0.026434187  0.025476883           78 
 4318000   0.56357145   -6.1383599    1369.6993  0.026433907  0.025469535           64 
 4319000   0.54984514   -6.1507061    1371.1398   0.02645558  0.025462199           29 
 4320000   0.54778674   -6.1346486     1370.273  0.026432735  0.025454854           42 
 4321000    0.5718771   -6.1338492    1368.2682  0.026387955  0.025447512           96 
 4322000   0.55773556   -6.1345586    1371.0916  0.026436287  0.025440187           91 
 4323000   0.56803985   -6.1177106    1371.4255  0.026436608  0.025432873           43 
 4324000   0.55254415   -6.1376758    1372.7274  0.026455585  0.025425565           25 
 4325000   0.54903953   -6.1354355    1371.8789   0.02643312   0.02541825           28 
 4326000    0.5679327   -6.1385654     1368.624  0.026364309  0.025410936           86 
 4327000   0.55468298   -6.1273071    1366.9731  0.026326421  0.025403607           29 
 4328000    0.5659328   -6.1472565    1369.3853  0.026366784  0.025396288           31 
 4329000   0.55848032   -6.1510472     1366.109  0.026297625  0.025388976           30 
 4330000   0.57674771   -6.1422067    1368.9898  0.026346993   0.02538164           19 
 4331000   0.57216108   -6.1321755    1369.6844  0.026354276  0.025374292           75 
 4332000   0.55339248   -6.1447088    1370.4476  0.026362874  0.025366953          135 
 4333000    0.5618637   -6.1410107    1370.4995  0.026357786  0.025359626          105 
 4334000   0.56801278   -6.1515903    1368.1204  0.026305961   0.02535229           70 
 4335000   0.56927374   -6.1513854    1370.3192  0.026342161  0.025344962           86 
 4336000   0.55504884   -6.1344705    1368.8487  0.026307824  0.025337613           78 
 4337000   0.54768628    -6.148819    1369.8505  0.026321006  0.025330276           39 
 4338000   0.56920912   -6.1580758    1368.6097  0.026291104  0.025322949           52 
 4339000   0.55721572   -6.1422377    1367.8478  0.026270412  0.025315621           67 
 4340000   0.56383746    -6.138175    1371.3346   0.02633131  0.025308304           55 
 4341000   0.56371158    -6.152185    1371.3836  0.026326185  0.025300987           52 
 4342000   0.56167695   -6.1308107    1371.6893  0.026325988  0.025293671           24 
 4343000   0.55170836   -6.1493784     1370.906  0.026304897  0.025286347           38 
 4344000   0.54959841   -6.1534454    1368.6084  0.026254766  0.025279026           54 
 4345000   0.55769925   -6.1372241    1369.6603  0.026268897  0.025271707           30 
 4346000   0.55541249   -6.1481419    1367.8801  0.026228718  0.025264396           42 
 4347000   0.56224508   -6.1516675    1368.6176  0.026236822  0.025257086           58 
 4348000   0.56291694   -6.1127866    1370.0264  0.026257788  0.025249805           40 
 4349000   0.55020278   -6.1297964    1372.8782  0.026306397  0.025242527           29 
 4350000   0.55212877   -6.1455021    1372.5591  0.026294235   0.02523526           16 
 4351000    0.5651856   -6.1529328     1371.495  0.026267811   0.02522797           33 
 4352000   0.56110862   -6.1434615    1370.2228  0.026237416  0.025220669           29 
 4353000    0.5509293    -6.133539    1371.0454  0.026247135  0.025213371           57 
 4354000   0.55983367   -6.1189863    1370.1544  0.026224054  0.025206077           38 
 4355000   0.54948527   -6.1608882    1369.7291  0.026209895  0.025198808          108 
 4356000   0.55520863   -6.1512608    1369.8003   0.02620524   0.02519152           43 
 4357000   0.55807728   -6.1438768    1371.2627  0.026227196  0.025184225           37 
 4358000   0.55552349   -6.1357237    1370.4218  0.026205097  0.025176937           85 
 4359000    0.5486914    -6.169265    1369.3111  0.026177853  0.025169651           37 
 4360000   0.55176478   -6.1414257    1372.3305  0.026229559  0.025162386           63 
 4361000   0.55807717   -6.1511158    1370.2176  0.026183169  0.025155125           33 
 4362000   0.55276834   -6.1594412    1369.5405  0.026164232  0.025147841           67 
 4363000   0.54586852   -6.1602873    1366.8312  0.026106485  0.025140555           83 
 4364000   0.56858435   -6.1615976     1369.735  0.026155954  0.025133265           70 
 4365000   0.55657119   -6.1460193    1368.5869  0.026128044  0.025126014           67 
 4366000   0.55065852   -6.1506498    1371.4368  0.026176454  0.025118743           45 
 4367000   0.56016595    -6.141525    1369.4034  0.026131658  0.025111478          114 
 4368000   0.55354986   -6.1329594    1369.3139  0.026123968  0.025104229           82 
 4369000   0.56889909   -6.1544281    1368.8805  0.026109721  0.025096977           39 
 4370000   0.55382902   -6.1399807    1371.6185  0.026155959  0.025089725           36 
 4371000   0.55353404   -6.1363884    1370.7546  0.026133504   0.02508248           89 
 4372000   0.54851189   -6.1271789    1369.2847   0.02609951  0.025075243           38 
 4373000   0.55330881   -6.1519165    1371.2594  0.026131172  0.025068009           53 
 4374000   0.55164777    -6.138712     1370.709  0.026114712  0.025060778           42 
 4375000   0.56218227   -6.1544289    1368.2803  0.026062482   0.02505354           49 
 4376000    0.5490673    -6.156416    1371.9627  0.026126651  0.025046317           39 
 4377000   0.54708921   -6.1654893     1368.818  0.026060811  0.025039084           38 
 4378000   0.55867097   -6.1340459    1369.1699  0.026061556   0.02503184          112 
 4379000   0.56285355   -6.1561982    1371.6724  0.026103228  0.025024591          132 
 4380000   0.54148319   -6.1473725    1370.5831  0.026076542  0.025017336           67 
 4381000   0.56520373   -6.1482248    1369.4224  0.026048513  0.025010085           56 
 4382000   0.55479743   -6.1553876    1367.3878  0.026003875  0.025002832           68 
 4383000   0.55304981   -6.1487142    1368.7317  0.026023494  0.024995588           90 
 4384000   0.54746335   -6.1386128    1369.4345  0.026030917  0.024988364           72 
 4385000   0.56445948   -6.1524329    1370.6914  0.026048868   0.02498112           71 
 4386000   0.55625557   -6.1637973    1368.1863  0.025995332  0.024973882           90 
 4387000   0.54388761   -6.1388723    1366.9905  0.025966691  0.024966618          265 
 4388000   0.53939716   -6.1706251    1366.3154  0.025947952  0.024959365          238 
 4389000   0.55170305   -6.1519255    1370.4048  0.026019686  0.024952099          225 
 4390000   0.55823039   -6.1639774    1369.3386   0.02599352  0.024944838          199 
 4391000   0.55046887   -6.1705613    1368.3021  0.025967928  0.024937575          252 
 4392000    0.5543872   -6.1471997    1367.0577  0.025938405  0.024930312          162 
 4393000   0.54555452   -6.1638004    1368.1436    0.0259531  0.024923067          250 
 4394000   0.56022062   -6.1504128    1367.8972   0.02594252  0.024915844          202 
 4395000   0.55159867   -6.1728895    1363.0073    0.0258439  0.024908604          121 
 4396000   0.55559958   -6.1630807     1367.522  0.025923604  0.024901374          160 
 4397000   0.56257868   -6.1613309    1370.0574  0.025965761  0.024894156          118 
 4398000   0.54883617   -6.1774147    1366.5402  0.025893213  0.024886924          126 
 4399000   0.54835785    -6.154746    1368.8747   0.02593155  0.024879693          156 
 4400000    0.5519621   -6.1656491    1370.3495  0.025953589  0.024872453          222 
 4401000   0.54543585   -6.1476828    1367.6319  0.025896234  0.024865234          189 
 4402000   0.55410552   -6.1599745    1366.9244  0.025876958  0.024858005          191 
 4403000   0.54710547   -6.1694417    1368.0705  0.025892772  0.024850781          203 
 4404000   0.54206608     -6.16892    1367.7956  0.025881692  0.024843554          117 
 4405000    0.5473347   -6.1800144    1366.2375   0.02584634   0.02483632          167 
 4406000   0.55240013   -6.1851941    1369.7289  0.025906507  0.024829087          177 
 4407000   0.54265404   -6.1780193    1365.7143  0.025824717  0.024821862          107 
 4408000   0.53934643   -6.1876837    1365.9404  0.025823131   0.02481461          199 
 4409000   0.54885253    -6.193217    1365.0514  0.025800472  0.024807354          252 
 4410000   0.54917331   -6.1802205    1366.2526  0.025817321  0.024800092          244 
 4411000   0.55278297    -6.186075    1363.3387  0.025756418  0.024792831          287 
 4412000   0.55066613   -6.2005255    1368.2448  0.025843246  0.024785566          316 
 4413000   0.54658784   -6.2038712    1365.1884  0.025779673    0.0247783          329 
 4414000   0.53789853    -6.184442    1365.8611  0.025786534  0.024771042          270 
 4415000   0.54613411   -6.1988185    1365.0026  0.025764489  0.024763765          204 
 4416000   0.54768309   -6.1760007    1366.3515  0.025784108  0.024756502          269 
 4417000   0.54146944   -6.2015136    1366.3802  0.025778812  0.024749256          267 
 4418000   0.53936109   -6.1887682    1367.0147  0.025784946  0.024741998          179 
 4419000   0.54776826   -6.1841381    1366.3196  0.025766004  0.024734746          328 
 4420000    0.5377824   -6.2073643    1363.8547    0.0257137   0.02472749          273 
 4421000   0.54609042    -6.207934     1364.976  0.025729021  0.024720238          236 
 4422000   0.55131491   -6.1842815     1366.868  0.025758857  0.024712989          211 
 4423000   0.54199121   -6.1912616    1365.6641  0.025730351  0.024705751          269 
 4424000   0.53427288   -6.1852967    1365.4887  0.025721232  0.024698509          374 
 4425000   0.54259511   -6.1765161    1366.4458  0.025733443  0.024691268          297 
 4426000   0.55499493   -6.1936435    1364.4928  0.025690858  0.024684042          255 
 4427000   0.54735962   -6.2073221    1363.4674  0.025665752  0.024676803          265 
 4428000   0.54644505   -6.1940189    1362.6295  0.025644187  0.024669553          326 
 4429000   0.52862214   -6.2004011    1364.9612  0.025682268  0.024662315          367 
 4430000   0.53827561   -6.1951253    1363.9426   0.02565731  0.024655072          376 
 4431000   0.53663327   -6.1883712    1365.9672  0.025689595  0.024647829          337 
 4432000   0.55190329   -6.2026692    1362.5644  0.025619818  0.024640601          394 
 4433000    0.5497255   -6.1979235    1365.5629  0.025670406  0.024633354          439 
 4434000   0.54184377   -6.2198619    1364.1337  0.025637755  0.024626124          403 
 4435000    0.5360463   -6.1988762    1363.4175  0.025618517  0.024618892          317 
 4436000    0.5518491   -6.2018965    1362.0062   0.02558623  0.024611654          452 
 4437000   0.54771503   -6.1842652     1364.982  0.025636353  0.024604433          373 
 4438000   0.53453697   -6.2158898    1360.9456  0.025554785  0.024597207          489 
 4439000   0.54498704   -6.2039502    1364.6054  0.025617733  0.024589973          343 
 4440000   0.54705154   -6.1863284    1366.4575  0.025646725  0.024582737          503 
 4441000   0.54218814   -6.1989194    1364.9157  0.025612018    0.0245755          254 
 4442000   0.54451253   -6.2047993    1363.0594  0.025571429  0.024568271          411 
 4443000   0.54171201   -6.2053316    1363.4641  0.025573264  0.024561053          477 
 4444000   0.53908478   -6.2007472    1362.8836  0.025556623  0.024553837          383 
 4445000   0.53471052   -6.2094389    1365.2508  0.025595253  0.024546621          457 
 4446000   0.53962807   -6.1932279     1364.131  0.025568508  0.024539387          454 
 4447000   0.56013886   -6.1961922    1364.4483  0.025568703  0.024532179          452 
 4448000   0.54048271   -6.1787493    1364.1927  0.025558167  0.024524975          404 
 4449000   0.54138305   -6.2017646    1363.2759   0.02553525  0.024517766          452 
 4450000   0.53787025   -6.1875659    1365.2143   0.02556581  0.024510569          478 
 4451000   0.54393284   -6.1899562    1364.4152  0.025545106  0.024503377          401 
 4452000   0.55554691   -6.2143942    1366.2598  0.025573896  0.024496169          459 
 4453000   0.54556776   -6.1990856    1361.6719  0.025482294  0.024488958          428 
 4454000   0.53441812   -6.2027489     1363.724  0.025514968  0.024481754          382 
 4455000   0.53741729   -6.1960522    1365.1031  0.025535038  0.024474547          327 
 4456000   0.53310976   -6.1933999    1366.0238  0.025546525   0.02446736          275 
 4457000   0.54688275   -6.1910988    1364.3775  0.025510013  0.024460182          347 
 4458000   0.53212385    -6.205026    1365.9674  0.025534009  0.024453008          348 
 4459000   0.54003102   -6.2103579    1364.5642   0.02550206  0.024445833          295 
 4460000   0.53431662   -6.2084781      1363.29  0.025472534  0.024438657          333 
 4461000   0.53038145   -6.1795993    1363.8595  0.025477462  0.024431484          200 
 4462000   0.54931871   -6.1753181    1362.9352  0.025454491  0.024424299          414 
 4463000   0.53709393   -6.2052763    1363.0379  0.025450704  0.024417131          267 
 4464000    0.5371705   -6.2071243    1365.5877  0.025492602  0.024409956          418 
 4465000   0.53458912   -6.2038456    1366.8645  0.025510723  0.024402787          340 
 4466000   0.54931387   -6.2116285    1364.9177  0.025468684  0.024395618          453 
 4467000   0.53655166   -6.1985376    1364.7657  0.025460146  0.024388438          423 
 4468000   0.53464756   -6.1973735    1368.2307  0.025519074  0.024381281          362 
 4469000   0.54013141   -6.2211239     1366.415  0.025479507  0.024374109          459 
 4470000   0.55502466   -6.1954723    1364.6296  0.025440522  0.024366951          387 
 4471000   0.53298073   -6.2070067    1360.7966  0.025363391  0.024359785          457 
 4472000   0.53880659   -6.2122987    1364.2158  0.025421434  0.024352626          322 
 4473000   0.53507576   -6.2161947    1361.9281  0.025373129  0.024345475          370 
 4474000   0.53076554    -6.205258    1365.1212  0.025426933  0.024338331          395 
 4475000   0.53797014   -6.2072225    1362.6354  0.025374961  0.024331173          510 
 4476000   0.52053447   -6.2133307    1364.7547  0.025408749  0.024324018          456 
 4477000   0.53006665   -6.2162662    1364.2904  0.025394431  0.024316856          449 
 4478000    0.5402585   -6.2072786    1364.9631  0.025401279  0.024309707          531 
 4479000   0.54208603   -6.1896197    1365.7322  0.025409917  0.024302567          554 
 4480000    0.5451515   -6.2130394    1365.5688  0.025401205  0.024295413          578 
 4481000   0.53862348   -6.2197207    1365.4317  0.025392988  0.024288259          442 
 4482000   0.53660507   -6.2172664    1363.3996  0.025349538  0.024281098          564 
 4483000   0.52717974   -6.2060016    1363.9749  0.025354578  0.024273942          585 
 4484000   0.53604182   -6.2250226    1363.7168  0.025344128    0.0242668          480 
 4485000   0.54295186   -6.2034992    1366.1477  0.025383645   0.02425968          546 
 4486000   0.53845816   -6.2180802    1365.2279  0.025360898  0.024252545          527 
 4487000   0.53338637   -6.2235359    1364.1834  0.025335848  0.024245423          494 
 4488000    0.5452194    -6.196738    1366.7525  0.025377906  0.024238316          540 
 4489000     0.530143    -6.215452    1363.6081   0.02531388   0.02423121          536 
 4490000   0.54212741   -6.2180926    1365.3034  0.025339706    0.0242241          523 
 4491000   0.53622485   -6.2147641      1363.47  0.025300044  0.024216967          481 
 4492000   0.52319436    -6.209713    1361.6959    0.0252615  0.024209829          498 
 4493000   0.52858326   -6.2115282    1363.9207  0.025297142  0.024202684          553 
 4494000   0.53161489   -6.2217158     1363.672  0.025286901  0.024195528          495 
 4495000   0.53114942   -6.2145639    1361.0655  0.025232954  0.024188383          498 
 4496000   0.53549285   -6.2196905    1361.6021  0.025237288  0.024181252          540 
 4497000    0.5383527   -6.2028203    1364.4026  0.025283571  0.024174129          575 
 4498000   0.53700704   -6.2263432     1361.288  0.025220246  0.024166997          593 
 4499000   0.54252056   -6.2094924     1364.777  0.025279267  0.024159867          652 
 4500000   0.52388638   -6.2094332    1365.1404  0.025280378  0.024152736          685 
 4501000   0.53333201   -6.2015802    1362.4697  0.025225314  0.024145614          669 
 4502000   0.52675876   -6.2248374    1364.0989  0.025249868  0.024138469          659 
 4503000   0.53301881   -6.1982301    1361.5613    0.0251973  0.024131328          698 
 4504000   0.52895431   -6.2135508    1363.6459  0.025230274  0.024124213          651 
 4505000   0.53804482   -6.2273613    1361.6275  0.025187337  0.024117076          599 
 4506000   0.52837216   -6.2442894    1361.1733  0.025173348  0.024109934          644 
 4507000   0.53327747    -6.247904    1361.7054  0.025177602  0.024102782          642 
 4508000   0.53236174   -6.2338451    1360.9149  0.025157403  0.024095641          636 
 4509000   0.53094132   -6.2277441    1362.7059  0.025184924  0.024088508          708 
 4510000   0.52254436   -6.2316487    1363.4244  0.025192616  0.024081372          706 
 4511000   0.52982649   -6.2233883    1365.6652  0.025228426  0.024074244          692 
 4512000   0.51988588   -6.2286153    1359.4853  0.025108697  0.024067123          627 
 4513000   0.52600163   -6.2429748    1361.8386  0.025146587   0.02405999          673 
 4514000   0.52394314   -6.2268402    1364.6267  0.025192489  0.024052869          661 
 4515000    0.5411305   -6.2326256    1362.3699  0.025145254  0.024045756          537 
 4516000   0.53124047   -6.2280649    1362.8382  0.025148328  0.024038637          680 
 4517000   0.52861844   -6.2136782    1361.6598   0.02512102  0.024031535          651 
 4518000   0.53215296   -6.2378764    1362.3905  0.025128938  0.024024413          702 
 4519000   0.52229781   -6.2299178    1359.6375   0.02507261  0.024017291          843 
 4520000   0.52180054   -6.2383626    1359.4338  0.025063307  0.024010164          724 
 4521000    0.5337254   -6.2404064    1362.7816  0.025119473  0.024003035          734 
 4522000   0.53114579   -6.2415247    1362.2079  0.025103346  0.023995901          677 
 4523000   0.52876137   -6.2585644    1360.8017  0.025071887  0.023988763          652 
 4524000   0.53359123   -6.2377407    1361.2191  0.025074034  0.023981623          723 
 4525000   0.51151433   -6.2422666    1360.7122  0.025059156  0.023974483          768 
 4526000   0.51833393   -6.2717863    1361.0995  0.025060751  0.023967332          809 
 4527000   0.51810249   -6.2485295    1359.5014  0.025025798   0.02396018          744 
 4528000   0.52907267   -6.2671824    1353.3797  0.024907607  0.023953037          707 
 4529000   0.52193795   -6.2459327    1359.6685  0.025017821  0.023945882          939 
 4530000   0.53558455   -6.2609221     1361.751  0.025050608  0.023938721          869 
 4531000   0.52029235    -6.225201     1359.561    0.0250048  0.023931562          868 
 4532000   0.53505253   -6.2553292     1358.394  0.024977825  0.023924401          910 
 4533000   0.53763583   -6.2668495    1358.1701  0.024968199  0.023917246          894 
 4534000   0.53055723   -6.2421422    1360.4472  0.025004544  0.023910107          945 
 4535000   0.53722914   -6.2678877    1357.6365  0.024947381  0.023902952          844 
 4536000   0.52677304   -6.2588414    1357.2658   0.02493507  0.023895808          956 
 4537000   0.52376197    -6.249327     1357.955  0.024942235  0.023888665          912 
 4538000   0.51534993    -6.263706     1358.035  0.024938206   0.02388151          875 
 4539000   0.52690039   -6.2664461    1359.8916  0.024966799  0.023874364          897 
 4540000   0.52332262   -6.2416607    1359.4669  0.024953505  0.023867219          896 
 4541000   0.52705069   -6.2590541    1356.8455  0.024899902  0.023860084          921 
 4542000   0.52363843   -6.2621425    1359.1305  0.024936345  0.023852957          986 
 4543000   0.52955845   -6.2715554    1357.7633  0.024905777  0.023845823         1047 
 4544000   0.52633267   -6.2536457    1358.7436  0.024918274  0.023838686         1060 
 4545000   0.53470136   -6.2550809     1359.808  0.024932306  0.023831557          979 
 4546000   0.52990387   -6.2665526    1357.7965   0.02488995  0.023824437         1022 
 4547000   0.51472639   -6.2582879    1356.4068  0.024859005  0.023817314         1036 
 4548000   0.52637265    -6.276821    1353.2766  0.024796185  0.023810182         1100 
 4549000   0.51329783   -6.2548053    1355.7189  0.024835474  0.023803046         1043 
 4550000   0.52919575   -6.2623343    1357.4729  0.024862141  0.023795921         1152 
 4551000   0.53005522   -6.2567285    1359.6597   0.02489672  0.023788794         1104 
 4552000   0.51285013   -6.2684644    1360.5953  0.024908379  0.023781659         1135 
 4553000   0.52603297   -6.2662232    1357.9854   0.02485514  0.023774529         1170 
 4554000   0.52660939   -6.2677989    1359.3365  0.024874405  0.023767404         1086 
 4555000   0.52184766   -6.2442458    1356.4839  0.024816757  0.023760277         1197 
 4556000   0.52556144   -6.2757934    1358.8543  0.024854667  0.023753162         1173 
 4557000   0.52255273   -6.2708749    1359.4216  0.024859586  0.023746054         1086 
 4558000   0.51974559   -6.2774505    1355.9862  0.024791323  0.023738924         1092 
 4559000   0.53416303     -6.25838    1361.3871  0.024884608   0.02373182         1158 
 4560000   0.53007602   -6.2643641    1356.6367  0.024792337  0.023724708         1159 
 4561000   0.52760914   -6.2541213    1358.2717  0.024816774  0.023717613         1134 
 4562000   0.51492011   -6.2895326    1355.7877  0.024765961  0.023710493         1152 
 4563000   0.51718142   -6.2849002    1356.9737  0.024782192  0.023703372         1262 
 4564000   0.52535739   -6.2681647    1358.3531  0.024801948   0.02369625         1232 
 4565000   0.52326235   -6.2589565    1357.0168  0.024772122  0.023689139         1252 
 4566000   0.51750303   -6.2988515     1356.274  0.024753139  0.023682039         1285 
 4567000    0.5292002   -6.2657766    1357.7426  0.024774517  0.023674925         1314 
 4568000   0.51584011   -6.2856972    1358.5474  0.024783776  0.023667813         1254 
 4569000   0.51468101   -6.2734873    1358.2962  0.024773769  0.023660698         1278 
 4570000   0.52063098   -6.2810411    1356.8628  0.024742211  0.023653584         1203 
 4571000   0.52274339   -6.2818547    1359.0795   0.02477721  0.023646459         1285 
 4572000   0.52869208   -6.2712367    1356.5469   0.02472563  0.023639366         1297 
 4573000   0.52846534   -6.2786487    1357.8519  0.024744002  0.023632264         1362 
 4574000   0.50849724   -6.2982723    1355.2449  0.024691096  0.023625146         1468 
 4575000   0.51819001   -6.2937466    1353.7088  0.024657719  0.023618029         1408 
 4576000   0.52408438   -6.2791255    1358.6862  0.024742974  0.023610922         1441 
 4577000   0.52229389    -6.283092    1357.0118  0.024707082  0.023603814         1385 
 4578000   0.51821504   -6.2924675    1354.7222  0.024660007  0.023596708         1504 
 4579000   0.53106332   -6.2875589    1353.9364  0.024640323  0.023589595         1450 
 4580000   0.51138058   -6.2933892    1355.8428   0.02466963  0.023582474         1595 
 4581000   0.50402523   -6.2846459    1355.5202  0.024658376  0.023575347         1497 
 4582000   0.52133131   -6.3004731    1355.5438  0.024653422  0.023568241         1492 
 4583000   0.52493912   -6.2949157    1353.6192  0.024613048  0.023561136         1532 
 4584000   0.52026728    -6.282156    1354.2216   0.02461863  0.023554039         1504 
 4585000   0.51906713   -6.2979415     1353.755   0.02460478  0.023546935         1512 
 4586000   0.52187702   -6.3038474    1354.2647  0.024608678  0.023539829         1588 
 4587000   0.51412855   -6.3066367    1354.3051  0.024604045  0.023532728         1482 
 4588000   0.51234228   -6.2903141    1356.6136  0.024640612  0.023525617         1503 
 4589000   0.50331514   -6.2974996    1357.6506  0.024654076  0.023518526         1553 
 4590000    0.5239635   -6.2938209    1354.4967  0.024591444   0.02351143         1484 
 4591000   0.51568283    -6.291215     1357.933  0.024648461  0.023504329         1448 
 4592000   0.51984147   -6.2902684    1355.4745  0.024598478  0.023497236         1432 
 4593000   0.51499893   -6.2854871    1356.3252  0.024608557  0.023490141         1316 
 4594000   0.52308306   -6.2911204    1354.6904  0.024573545  0.023483038         1511 
 4595000   0.50602439   -6.3048997    1354.3733  0.024562447  0.023475949         1546 
 4596000   0.52345921    -6.293799    1353.6356  0.024543726  0.023468865         1572 
 4597000   0.51276136   -6.2835401    1357.3385  0.024605513  0.023461774         1356 
 4598000   0.49776784   -6.3067888    1356.1394  0.024578429  0.023454696         1534 
 4599000   0.51702528   -6.3040034    1353.8547  0.024531687  0.023447599         1536 
 4600000   0.51289973   -6.2766969    1355.7684  0.024561021  0.023440513         1611 
 4601000    0.5185851    -6.316758    1353.0366  0.024506206  0.023433423         1728 
 4602000   0.49637747   -6.3062623    1354.6882  0.024530788  0.023426333         1749 
 4603000   0.51748206   -6.3157034    1352.1215   0.02447899  0.023419236         1756 
 4604000   0.50039652   -6.3180132    1355.1732  0.024528909  0.023412133         1684 
 4605000   0.51108858   -6.3170695    1352.3836  0.024473101  0.023405035         1644 
 4606000   0.51254165   -6.3179369    1354.4834  0.024505779  0.023397947         1655 
 4607000   0.51896321   -6.3154359    1351.7551  0.024451109   0.02339086         1710 
 4608000   0.50607091    -6.307158    1351.3955  0.024439299  0.023383783         1662 
 4609000   0.51020549    -6.314674    1354.2516  0.024485638  0.023376701         1744 
 4610000   0.51135367   -6.3150326    1354.0291  0.024476303  0.023369617         1677 
 4611000   0.50137349   -6.2955623    1356.2316  0.024510801  0.023362532         1714 
 4612000   0.51528348   -6.3058526    1353.9298  0.024463894  0.023355438         1821 
 4613000   0.50345726   -6.3180063    1354.8031  0.024474368  0.023348352         1845 
 4614000   0.49674848   -6.3257904    1351.9583  0.024417684  0.023341256         1839 
 4615000   0.51143365   -6.3132973    1352.4721  0.024421671  0.023334181         1819 
 4616000   0.51479621   -6.3034446    1352.4194  0.024415428  0.023327096         1770 
 4617000   0.51630268   -6.3264304    1353.1873     0.024424  0.023320009         1895 
 4618000   0.51010309   -6.3087253    1352.7983  0.024411692  0.023312929         1766 
 4619000   0.50318552   -6.3108074    1353.1587  0.024412909  0.023305851         1821 
 4620000   0.50905456   -6.3290184    1349.6485  0.024344309  0.023298775         1919 
 4621000    0.5186083    -6.320024    1355.0219  0.024435943  0.023291702         1916 
 4622000   0.51870144   -6.3094315    1352.4344  0.024384003  0.023284629         1924 
 4623000   0.52025143   -6.3232851    1353.4212  0.024396518  0.023277564         1827 
 4624000   0.52427737   -6.3306929    1353.5241  0.024393096  0.023270495         1940 
 4625000   0.51886112   -6.3193188    1353.0343  0.024378996  0.023263426         1972 
 4626000   0.51036387   -6.3281452    1353.1949  0.024376619  0.023256357         1877 
 4627000   0.50117592   -6.3325943    1349.7338  0.024309016  0.023249276         1982 
 4628000   0.49989793   -6.3358218    1348.3762  0.024279318  0.023242193         1947 
 4629000    0.5093043   -6.3404869     1349.565  0.024295474   0.02323511         1974 
 4630000   0.51860571   -6.3245789    1349.6008  0.024290872  0.023228022         2082 
 4631000    0.4980356   -6.3411163    1350.5811  0.024303266  0.023220931         2114 
 4632000    0.5107437   -6.3364724    1350.5213  0.024296944  0.023213835         2194 
 4633000   0.50990101   -6.3301389    1351.9991   0.02431828  0.023206751         2039 
 4634000   0.51657591   -6.3234748    1351.6482  0.024306723  0.023199674         2107 
 4635000   0.50388359   -6.3440798    1349.3915  0.024260905  0.023192591         2088 
 4636000   0.50594163   -6.3544816    1352.9837  0.024320243  0.023185517         2009 
 4637000   0.51029259   -6.3267871    1351.5068  0.024288455  0.023178436         2123 
 4638000   0.53070542   -6.3385783    1349.9422  0.024255107  0.023171364         2113 
 4639000   0.50952399   -6.3438707     1352.294  0.024292124  0.023164293         2030 
 4640000   0.50370237    -6.359712    1348.7329  0.024222933  0.023157216         2106 
 4641000   0.50530509   -6.3373667    1348.8899  0.024220533  0.023150131         2130 
 4642000   0.50263405   -6.3431119    1349.8945   0.02423335  0.023143052         2135 
 4643000   0.51381943   -6.3260452    1350.9255  0.024246634  0.023135988         2222 
 4644000   0.50824382   -6.3353001    1351.1171  0.024244851  0.023128917         2276 
 4645000   0.50922488   -6.3387657     1352.653  0.024267187   0.02312185         2274 
 4646000   0.49840653   -6.3553661    1349.7896  0.024210605  0.023114791         2305 
 4647000   0.51074082   -6.3450199    1351.1529  0.024229842  0.023107707         2198 
 4648000   0.50853561   -6.3596954    1348.6637      0.02418  0.023100637         2219 
 4649000   0.50765625    -6.352484    1350.5744  0.024209049  0.023093559         2297 
 4650000   0.51328649   -6.3331164    1347.4032   0.02414701  0.023086485         2221 
 4651000   0.50816834   -6.3445533    1348.4331  0.024160272  0.023079418         2295 
 4652000   0.50480678   -6.3697384    1349.6782  0.024177382  0.023072361         2321 
 4653000   0.51726424   -6.3366341    1349.9046  0.024176241  0.023065299         2306 
 4654000   0.50400008   -6.3436772    1349.5594  0.024164866  0.023058241         2372 
 4655000    0.5087163   -6.3496939    1348.2252  0.024135789  0.023051173         2356 
 4656000   0.51147772   -6.3623711    1348.2537  0.024131116  0.023044113         2380 
 4657000   0.50006361   -6.3414555    1350.7824  0.024171182  0.023037066         2228 
 4658000   0.50402032   -6.3668933    1350.2274  0.024156065  0.023030021         2376 
 4659000   0.50014159   -6.3651382    1349.0124  0.024129149  0.023022977         2331 
 4660000   0.50567421   -6.3684706    1349.0085  0.024123901  0.023015939         2350 
 4661000    0.5137559   -6.3696431    1348.9699  0.024118034  0.023008898         2390 
 4662000   0.51551874   -6.3493044    1349.1912  0.024116816  0.023001855         2407 
 4663000   0.49959865    -6.366111    1348.2123  0.024094151    0.0229948         2400 
 4664000   0.50216723   -6.3610506    1347.5974  0.024077998  0.022987747         2432 
 4665000   0.52174068   -6.3564107    1348.8493    0.0240952   0.02298069         2502 
 4666000   0.51448282   -6.3690921    1346.6733  0.024051174  0.022973646         2448 
 4667000    0.4987024   -6.3580214    1348.6328  0.024081008  0.022966606         2415 
 4668000   0.50211533   -6.3697574    1351.4727  0.024126548  0.022959563         2427 
 4669000   0.50608754   -6.3552967    1347.7251  0.024054493  0.022952524         2571 
 4670000   0.49813913   -6.3830165    1348.3598  0.024060667  0.022945476         2515 
 4671000   0.49711293   -6.3674331     1347.354  0.024037572  0.022938428         2586 
 4672000   0.51210851   -6.3742676    1349.4829    0.0240704   0.02293139         2481 
 4673000   0.50557753   -6.3703385    1349.6641  0.024068481  0.022924355         2583 
 4674000   0.51685953   -6.3539044    1348.4178   0.02404111  0.022917322         2526 
 4675000   0.51485989   -6.3604294    1348.8211  0.024043156  0.022910275         2571 
 4676000   0.50238668   -6.3835844    1346.8736  0.024003308  0.022903238         2557 
 4677000   0.49546852   -6.3889595    1346.6508  0.023994206  0.022896211         2606 
 4678000    0.4994942   -6.3586649    1348.4888  0.024021818  0.022889168         2512 
 4679000   0.50632441   -6.3728101    1347.5905  0.024000686   0.02288213         2650 
 4680000   0.51375866   -6.3712187    1345.1048  0.023951297  0.022875085         2665 
 4681000    0.5147306   -6.3895176    1349.8161  0.024030053  0.022868048         2710 
 4682000   0.50485292   -6.3800719    1347.5686  0.023984917  0.022860998         2757 
 4683000   0.50474341    -6.392106    1345.1263  0.023936336  0.022853946         2754 
 4684000   0.50626544   -6.3864804    1346.2155  0.023950603  0.022846892         2824 
 4685000   0.50140342   -6.3850891    1344.6702  0.023918005  0.022839845         2809 
 4686000    0.5029377   -6.3894032    1345.0475  0.023919609  0.022832791         2819 
 4687000   0.49294381   -6.3909439    1344.5958  0.023906475  0.022825736         2810 
 4688000   0.49667316    -6.397603    1345.1222  0.023910734  0.022818683         2784 
 4689000   0.50273108   -6.4041876    1346.1657  0.023924179  0.022811633         2823 
 4690000   0.50126673   -6.3786203    1346.3038  0.023921531  0.022804586         2780 
 4691000   0.49890068   -6.3754008     1346.785  0.023924981   0.02279754         2797 
 4692000   0.50102002   -6.3670771    1347.1687  0.023926697  0.022790489         2783 
 4693000   0.50196101   -6.4169642    1346.1623  0.023903728  0.022783452         2887 
 4694000   0.50120636   -6.3800738    1345.2775  0.023882927  0.022776411         2804 
 4695000   0.51344991   -6.3812702     1347.563  0.023918406   0.02276938         2797 
 4696000   0.50476718   -6.3860855    1344.9297  0.023866583  0.022762345         2751 
 4697000   0.49205246   -6.4014724    1343.5529  0.023837075  0.022755307         2836 
 4698000    0.4923269   -6.3833986    1347.0299  0.023893677   0.02274827         2809 
 4699000   0.49864096   -6.3707453    1346.6257  0.023881424  0.022741238         2802 
 4700000   0.49434091   -6.3904729    1346.9425  0.023881959   0.02273421         2871 
 4701000    0.5020892   -6.3784133    1347.2631  0.023882563  0.022727182         2918 
 4702000   0.49524145   -6.3889309    1343.9989  0.023819632  0.022720168         2852 
 4703000   0.49981314   -6.3944144    1344.1025  0.023816402  0.022713141         2833 
 4704000   0.50273137   -6.3791992    1345.0505  0.023828133  0.022706121         2835 
 4705000   0.50053579   -6.4016199    1343.1384  0.023789203  0.022699094         2827 
 4706000   0.50006225   -6.3810818     1344.955  0.023816316  0.022692079         2836 
 4707000    0.4976185   -6.4007351    1346.6409  0.023841104  0.022685065         2870 
 4708000   0.49863425   -6.3954224    1344.2344  0.023793443  0.022678044         2862 
 4709000    0.5083897   -6.3864164    1346.4503  0.023827605  0.022671033         2796 
 4710000   0.50836966   -6.3983678    1343.6897  0.023773703  0.022664032         2848 
 4711000   0.49851909   -6.3876947    1343.9564  0.023773374  0.022657027         2889 
 4712000   0.49695892   -6.3825278    1345.6538  0.023798347  0.022650029         2799 
 4713000   0.49359671   -6.4054924    1345.4545  0.023789774   0.02264303         2799 
 4714000   0.50219416   -6.3912956    1348.7533  0.023843044  0.022636032         2926 
 4715000   0.49213322   -6.3743411    1344.8397  0.023768817  0.022629034         2846 
 4716000   0.49793305   -6.3893067    1343.7372  0.023744297  0.022622031         2869 
 4717000   0.49707826   -6.3955887    1343.8043  0.023740448  0.022615037         2931 
 4718000   0.50067553   -6.3829199    1346.9369  0.023790747   0.02260805         2894 
 4719000   0.49494897   -6.4019456       1344.1  0.023735607  0.022601053         2834 
 4720000   0.49109703   -6.3887635     1343.218  0.023715007  0.022594067         2915 
 4721000   0.50003053    -6.405256    1344.8568  0.023738911  0.022587074         2822 
 4722000   0.48921432   -6.4085337    1344.2011  0.023722312  0.022580079         2855 
 4723000    0.4915736   -6.4086701     1343.829  0.023710724  0.022573092         2870 
 4724000   0.49469949   -6.4038121    1344.3687  0.023715225  0.022566109         2896 
 4725000   0.48812172   -6.3969807    1344.5235  0.023712937  0.022559127         2894 
 4726000   0.50487413   -6.4112967    1346.0698  0.023735185  0.022552153         2854 
 4727000   0.50044184   -6.3924077    1344.1904   0.02369703  0.022545173         2847 
 4728000   0.50376952    -6.401675    1344.6841  0.023700721  0.022538199         2911 
 4729000   0.50571604   -6.4150758     1345.866  0.023716537  0.022531218         2978 
 4730000    0.4931195    -6.392811    1345.4254  0.023703759  0.022524242         2942 
 4731000   0.48695073   -6.3998512    1345.8718  0.023706613  0.022517262         2956 
 4732000   0.48568397   -6.4134289    1344.0882  0.023670193  0.022510289         2938 
 4733000   0.49222349   -6.4201955    1345.1631  0.023684117  0.022503312         3004 
 4734000   0.49038394   -6.4107521    1345.9423   0.02369283  0.022496323         3087 
 4735000   0.49463281   -6.4083807      1343.49  0.023644667  0.022489354         3040 
 4736000   0.50027978    -6.422017    1344.6403  0.023659916  0.022482373         3043 
 4737000    0.4994468   -6.4123122    1346.9587  0.023695706  0.022475396         3128 
 4738000   0.48438378   -6.4207213    1342.5106  0.023612471  0.022468429         3023 
 4739000   0.49112602   -6.4158749    1343.1073   0.02361798  0.022461462         3030 
 4740000   0.49745327   -6.4181838    1344.4394  0.023636416   0.02245449         3045 
 4741000   0.49120173   -6.4295479     1343.415  0.023613425  0.022447528         3097 
 4742000   0.49259928   -6.4049247     1340.609  0.023559134  0.022440572         3040 
 4743000   0.49475519   -6.4174713    1344.1096  0.023615672  0.022433609         3037 
 4744000   0.49048893    -6.410506    1342.4377  0.023581326  0.022426652         3074 
 4745000   0.49095486   -6.4077226    1340.7286  0.023546341  0.022419695         2957 
 4746000   0.48911166   -6.4261843    1342.6527  0.023575164  0.022412744         3028 
 4747000   0.50218088   -6.4142374    1344.5117  0.023602832  0.022405798         2961 
 4748000   0.48787325    -6.415464    1343.8781  0.023586739  0.022398853         2969 
 4749000   0.49419019   -6.4169558    1342.5794  0.023558984  0.022391904         2935 
 4750000   0.49761007   -6.4251102    1340.0934  0.023510411  0.022384957         3004 
 4751000   0.48642105   -6.4068188    1341.3004  0.023526633  0.022378009         2982 
 4752000   0.49083347   -6.4156685    1343.1365   0.02355388  0.022371064         2961 
 4753000   0.49581072   -6.4141417    1345.9602  0.023598432  0.022364131         3030 
 4754000   0.48567546   -6.4148847    1341.6387  0.023517717  0.022357189         3050 
 4755000   0.49116073   -6.4201686    1341.7061  0.023513952  0.022350252         3029 
 4756000   0.49675089   -6.4119833    1344.8356  0.023563842  0.022343322         3036 
 4757000    0.4978761    -6.430005    1343.4863  0.023535251  0.022336381         3086 
 4758000   0.49078219   -6.4180313    1342.6144  0.023515035  0.022329449         3034 
 4759000   0.48851996   -6.4148666    1344.6162  0.023545146  0.022322515         3087 
 4760000   0.49063881   -6.4180482    1342.5496   0.02350402  0.022315589         3106 
 4761000   0.49565196   -6.4126443    1341.0441  0.023472731  0.022308665         3079 
 4762000   0.47946082    -6.417632    1341.7195  0.023479622  0.022301746         3134 
 4763000   0.48089682    -6.414103    1342.4638  0.023487714   0.02229483         3040 
 4764000    0.4837786   -6.4071366    1341.8642  0.023472295  0.022287906         3158 
 4765000   0.50607743   -6.4217386    1344.8823  0.023520152  0.022280994         3041 
 4766000   0.49161716   -6.4166504    1342.1405  0.023467277  0.022274074         3122 
 4767000   0.49111204   -6.4242319    1341.4565  0.023450397  0.022267154         3045 
 4768000   0.47718406   -6.4193513    1341.2378  0.023441657  0.022260233         3199 
 4769000   0.48978252    -6.427432    1341.3304   0.02343836   0.02225332         3095 
 4770000   0.48559872   -6.4381251    1342.5935  0.023455511  0.022246404         3130 
 4771000    0.4827041   -6.4417938    1340.9626   0.02342211  0.022239485         3146 
 4772000    0.4833172   -6.4523904    1339.5157  0.023391934  0.022232564         3169 
 4773000   0.47866229   -6.4294419     1341.946  0.023429463  0.022225655         3142 
 4774000   0.49196043   -6.4188638    1342.1783  0.023428612   0.02221875         3158 
 4775000   0.48444518   -6.4332852    1346.0221  0.023490787  0.022211851         3160 
 4776000   0.48881424   -6.4166584    1342.4281  0.023423159  0.022204948         3147 
 4777000   0.48392419   -6.4566839    1342.7362   0.02342363  0.022198046         3199 
 4778000   0.47592286   -6.4405842    1341.4704  0.023396651  0.022191143         3139 
 4779000   0.48482233   -6.4414615    1341.1337  0.023385885  0.022184244         3157 
 4780000   0.49746128   -6.4296993    1340.9134  0.023377152  0.022177341         3188 
 4781000   0.48253716   -6.4199704    1342.1949  0.023394599  0.022170441         3207 
 4782000   0.48676388   -6.4269987    1341.0124  0.023369099  0.022163541         3194 
 4783000   0.48511371    -6.434629     1339.696  0.023341279  0.022156652         3240 
 4784000   0.49033604   -6.4255225    1340.4502  0.023349536  0.022149764         3178 
 4785000   0.49228563   -6.4381135    1342.7044  0.023383915  0.022142873         3194 
 4786000   0.48101019   -6.4188562      1341.98  0.023366416  0.022135985         3127 
 4787000   0.47743754   -6.4327134    1339.7069  0.023321963  0.022129101         3126 
 4788000   0.49353756   -6.4378167    1342.3033  0.023362282  0.022122225         3175 
 4789000   0.48430215   -6.4382303    1339.2241  0.023303823  0.022115347         3218 
 4790000   0.48720461   -6.4357916    1338.6095  0.023288266  0.022108473         3208 
 4791000   0.47823243   -6.4358059    1339.8417  0.023304837  0.022101595         3185 
 4792000   0.49562845   -6.4399791    1339.1903  0.023288646  0.022094717         3232 
 4793000   0.48035483   -6.4366721    1341.9438  0.023331661  0.022087848         3185 
 4794000   0.48286742   -6.4370776    1342.4443  0.023335494  0.022080981         3239 
 4795000    0.4868337   -6.4429672     1339.882  0.023286096  0.022074109         3275 
 4796000   0.48451483   -6.4382889    1341.3668  0.023307041  0.022067247         3259 
 4797000   0.47831315   -6.4304964    1340.3351  0.023284259   0.02206038         3167 
 4798000    0.4879923   -6.4307609     1340.161  0.023276382  0.022053522         3245 
 4799000   0.49188291   -6.4548956     1337.931  0.023232808  0.022046662         3278 
 4800000   0.47893216    -6.436316    1341.8278  0.023295621  0.022039807         3207 
 4801000   0.49229824   -6.4226022    1341.3544  0.023282551  0.022032951         3246 
 4802000   0.48087277    -6.441125    1338.9329  0.023235681  0.022026104         3213 
 4803000   0.48456226   -6.4271325    1342.4126  0.023291217  0.022019254         3233 
 4804000   0.48347773   -6.4304284    1339.3139  0.023232616  0.022012408         3240 
 4805000   0.47280173   -6.4313135    1336.4548  0.023178197  0.022005559         3216 
 4806000    0.4817651   -6.4204932    1339.3419  0.023223434  0.021998713         3142 
 4807000   0.48916524   -6.4510541    1340.9916  0.023247202  0.021991865         3199 
 4808000   0.48238862   -6.4303702    1339.9963  0.023225116  0.021985022         3251 
 4809000   0.48121164   -6.4385349     1340.352   0.02322645   0.02197818         3271 
 4810000   0.48307764   -6.4217095      1339.34  0.023204089  0.021971345         3181 
 4811000   0.48403045   -6.4325616    1341.2446  0.023232255  0.021964514         3206 
 4812000   0.48574244   -6.4367997    1340.2057  0.023209436  0.021957682         3176 
 4813000   0.48521865   -6.4231266    1341.2312  0.023222369  0.021950859         3192 
 4814000   0.48507688   -6.4483036    1337.9578  0.023160881   0.02194404         3261 
 4815000   0.48654627   -6.4340497    1340.7908  0.023205103  0.021937217         3225 
 4816000   0.48736277    -6.445722    1339.4965  0.023177888  0.021930401         3266 
 4817000   0.47833362   -6.4418231    1338.3562  0.023153349  0.021923579         3220 
 4818000   0.47763833   -6.4446285    1341.2848  0.023199198  0.021916759         3266 
 4819000   0.47741321   -6.4426942    1341.4291  0.023196879  0.021909949         3304 
 4820000   0.48170528    -6.442185    1339.8033  0.023163958  0.021903123         3257 
 4821000   0.48286243   -6.4411999    1339.3882  0.023151977  0.021896306         3306 
 4822000   0.49214981   -6.4401259    1338.4227  0.023130491   0.02188949         3310 
 4823000     0.481301   -6.4464956    1339.7252  0.023148199  0.021882684         3327 
 4824000   0.47746753   -6.4380154    1339.9089  0.023146574  0.021875876         3336 
 4825000   0.48276814   -6.4395932    1340.6121  0.023153921   0.02186907         3326 
 4826000   0.48128017   -6.4501888    1337.7179  0.023099149  0.021862269         3347 
 4827000   0.47670837   -6.4424621    1338.2552  0.023103639  0.021855469         3304 
 4828000   0.46892358   -6.4526456    1337.9626  0.023093803  0.021848667         3316 
 4829000   0.47285467    -6.454783    1339.4136   0.02311406  0.021841872         3265 
 4830000   0.49004502   -6.4435359    1341.4611  0.023144602  0.021835076         3338 
 4831000   0.47783614   -6.4559158    1338.4574  0.023087997   0.02182828         3246 
 4832000   0.46467354   -6.4494387    1336.1823  0.023043982  0.021821488         3315 
 4833000   0.46440662   -6.4385972     1338.888  0.023085869  0.021814697         3299 
 4834000   0.48367207    -6.449312     1338.783  0.023079282   0.02180791         3312 
 4835000   0.48174098   -6.4431566    1338.5689  0.023070819  0.021801123         3285 
 4836000   0.47454452   -6.4431026    1339.2889  0.023078454  0.021794334         3273 
 4837000   0.47497681   -6.4566354    1337.7468  0.023047116  0.021787553         3391 
 4838000   0.48037925   -6.4522532    1341.8316  0.023112712  0.021780775         3299 
 4839000   0.46689844   -6.4521958    1339.7813  0.023072627  0.021774001         3379 
 4840000   0.47024366   -6.4403455    1338.4494  0.023044928  0.021767215         3349 
 4841000   0.47801109   -6.4481064     1338.812  0.023046409  0.021760442         3367 
 4842000   0.47333016   -6.4555736    1340.1564  0.023064788  0.021753672         3334 
 4843000   0.47914169   -6.4532188    1340.2114  0.023060971  0.021746903         3364 
 4844000   0.47798497   -6.4410333    1342.3842   0.02309359  0.021740142         3406 
 4845000   0.46918064   -6.4563389    1338.0386   0.02301408  0.021733381         3401 
 4846000   0.47627559   -6.4431567    1340.1242  0.023045195  0.021726617         3303 
 4847000    0.4734156   -6.4408848    1340.8776  0.023053393  0.021719855         3384 
 4848000   0.47739428   -6.4481488    1341.1633   0.02305355  0.021713094         3316 
 4849000   0.47117566   -6.4604198     1337.131  0.022979497  0.021706329         3418 
 4850000   0.48139157   -6.4435483     1338.094  0.022991306   0.02169957         3356 
 4851000   0.47463042   -6.4580559     1337.697  0.022979747  0.021692814         3391 
 4852000   0.46844735   -6.4466457    1337.4065  0.022970021  0.021686052         3391 
 4853000    0.4794472   -6.4673588    1340.0327  0.023010383  0.021679303         3398 
 4854000   0.47590265   -6.4535651    1339.4082  0.022994922  0.021672553         3466 
 4855000   0.47701926   -6.4410771    1336.9039    0.0229472  0.021665795         3470 
 4856000   0.47799763   -6.4579856    1337.4003  0.022950994  0.021659051         3466 
 4857000   0.47697011   -6.4579802    1338.2784  0.022961334  0.021652299         3434 
 4858000   0.48216254   -6.4644721    1337.5475  0.022944069  0.021645552         3466 
 4859000   0.46324821   -6.4728145    1336.6844  0.022924545    0.0216388         3391 
 4860000   0.46638218    -6.458983    1339.1181  0.022961558  0.021632054         3498 
 4861000   0.47709099   -6.4600157      1340.09  0.022973496  0.021625313         3435 
 4862000   0.48326337   -6.4518705    1338.8044  0.022946736   0.02161858         3378 
 4863000   0.48084966   -6.4569516    1336.3378   0.02289975  0.021611848         3448 
 4864000   0.47759456   -6.4530575    1336.4461  0.022896897  0.021605114         3434 
 4865000   0.46479768   -6.4572929    1338.2401   0.02292292  0.021598381         3461 
 4866000   0.47848837    -6.453075    1336.7066  0.022891948  0.021591651         3421 
 4867000    0.4683846   -6.4524947    1339.9408  0.022942621  0.021584919         3440 
 4868000   0.47535322   -6.4636659    1340.3203  0.022944405  0.021578198         3483 
 4869000   0.47053176    -6.457295    1336.9225  0.022881538  0.021571479         3444 
 4870000   0.48463007   -6.4626081    1335.5653  0.022853616   0.02156476         3503 
 4871000   0.47861687   -6.4752665    1339.2656  0.022912228  0.021558042         3439 
 4872000   0.47267713   -6.4567314    1338.8554   0.02290051  0.021551326         3473 
 4873000   0.46263006    -6.460349     1336.985  0.022863824  0.021544617         3456 
 4874000   0.46541741   -6.4593512    1334.1081  0.022809946  0.021537902         3474 
 4875000   0.46912722   -6.4489034      1339.06  0.022889915  0.021531192         3465 
 4876000   0.47921423    -6.458063    1338.3817  0.022873628  0.021524482         3468 
 4877000   0.46993929   -6.4482334    1337.6557  0.022856532  0.021517777         3460 
 4878000    0.4757631   -6.4637708    1337.0646  0.022841749  0.021511066         3463 
 4879000   0.47004269   -6.4665325    1336.0202  0.022819229  0.021504368         3483 
 4880000   0.46702699   -6.4606344    1338.9927  0.022865312   0.02149767         3536 
 4881000    0.4700573   -6.4663654    1339.1512  0.022863334  0.021490967         3526 
 4882000   0.46670124   -6.4456075    1339.2882  0.022860989   0.02148428         3468 
 4883000   0.47069894    -6.478707    1339.4959  0.022859851  0.021477589         3484 
 4884000   0.46277927   -6.4523802     1337.111   0.02281448  0.021470906         3497 
 4885000   0.47737542   -6.4612212    1336.5511  0.022800258  0.021464228         3514 
 4886000   0.46880142   -6.4686228     1336.689  0.022797942  0.021457547         3421 
 4887000    0.4662152   -6.4530152    1337.3474  0.022804506   0.02145087         3411 
 4888000   0.46967187   -6.4807539    1339.0722  0.022829245  0.021444195         3455 
 4889000   0.47231752   -6.4653372    1339.4547  0.022831096  0.021437527         3464 
 4890000   0.45564575   -6.4743821    1335.9073  0.022765973  0.021430854         3499 
 4891000   0.46839806   -6.4555674    1335.0522  0.022746749  0.021424181         3403 
 4892000   0.45809911   -6.4510123    1335.2349  0.022745211  0.021417515         3417 
 4893000   0.47637803   -6.4680426    1337.1793  0.022773678  0.021410855         3405 
 4894000   0.47518256   -6.4715799    1338.7161  0.022795193  0.021404196         3409 
 4895000   0.46698491   -6.4568798    1335.5574  0.022736762  0.021397539         3405 
 4896000   0.47451079   -6.4597593    1337.4373  0.022764116  0.021390877         3449 
 4897000   0.47317015   -6.4738401    1338.1873   0.02277223  0.021384225         3428 
 4898000   0.45798825   -6.4644761     1335.891  0.022728512  0.021377569         3418 
 4899000   0.46710302   -6.4826529    1336.6629  0.022737002  0.021370923         3408 
 4900000   0.46461402   -6.4590012    1338.0911  0.022756651  0.021364275         3391 
 4901000   0.46510386   -6.4642768    1338.3987  0.022757239  0.021357635         3359 
 4902000   0.46835305   -6.4784746    1336.4805  0.022719986  0.021350994         3423 
 4903000    0.4752273   -6.4622709    1335.6074  0.022700513  0.021344354         3465 
 4904000   0.45971345   -6.4651517    1337.3342  0.022725228  0.021337719         3374 
 4905000   0.46839204   -6.4656586    1333.2872  0.022651839  0.021331081         3382 
 4906000   0.46949109   -6.4678608    1338.1048  0.022729052  0.021324449         3413 
 4907000   0.46756305   -6.4693058    1337.1924  0.022708927  0.021317821         3364 
 4908000   0.46934947   -6.4689281    1336.2186  0.022687765  0.021311184         3382 
 4909000   0.46352825   -6.4633092    1336.5633  0.022688995   0.02130455         3410 
 4910000   0.47200532    -6.485146    1335.8808   0.02267279  0.021297925         3415 
 4911000   0.46239478   -6.4713018    1337.6795  0.022698695  0.021291295         3421 
 4912000   0.45394824   -6.4838362    1336.3388  0.022671328  0.021284667         3418 
 4913000   0.46468405   -6.4776096    1337.0269  0.022678385  0.021278044         3403 
 4914000   0.47815338   -6.4647382    1334.9627  0.022638765  0.021271427         3410 
 4915000   0.47395709   -6.4730663    1337.0881  0.022670195  0.021264809         3439 
 4916000    0.4577037   -6.4556173    1336.9452  0.022663162  0.021258197         3399 
 4917000   0.46946923    -6.475537    1336.5695  0.022652184  0.021251587         3421 
 4918000   0.46887118   -6.4852761    1334.6923  0.022615771  0.021244983         3442 
 4919000   0.46189506    -6.465828    1337.2349  0.022654247  0.021238377         3448 
 4920000   0.46519011   -6.4735336      1336.47  0.022636688   0.02123177         3449 
 4921000   0.48059707   -6.4928315    1337.7831  0.022654324  0.021225169         3362 
 4922000   0.47271369   -6.4715818    1336.2844  0.022624346  0.021218576         3432 
 4923000    0.4705477   -6.4853399    1334.9788  0.022597651  0.021211976         3466 
 4924000    0.4644798   -6.4737274    1335.7884  0.022606763   0.02120538         3412 
 4925000   0.46297897   -6.4650314    1336.2802  0.022610494  0.021198789         3393 
 4926000    0.4683392   -6.4903096    1336.8535  0.022615603  0.021192197         3426 
 4927000   0.47051773   -6.4827887     1338.015  0.022630657  0.021185613         3408 
 4928000   0.46216569    -6.476688    1336.7463  0.022604611  0.021179024         3465 
 4929000   0.46020555   -6.4794767    1336.0674  0.022588547  0.021172446         3446 
 4930000   0.45868567   -6.4722852    1336.0769  0.022584126  0.021165867         3387 
 4931000   0.45688813    -6.470626    1336.8411   0.02259246  0.021159292         3408 
 4932000   0.45907166   -6.4805246    1336.5757  0.022583397  0.021152717         3435 
 4933000   0.45789835   -6.4736775    1336.2836  0.022573883  0.021146144         3384 
 4934000   0.45791323   -6.4810125    1336.4257  0.022571709  0.021139575         3464 
 4935000    0.4694044   -6.4804501    1336.5364  0.022569003  0.021133002         3433 
 4936000   0.45679687   -6.4928877    1336.7685   0.02256835  0.021126437         3457 
 4937000   0.47112956    -6.493332    1335.2319  0.022537841  0.021119868         3455 
 4938000   0.45775674    -6.476834    1335.7293  0.022541671  0.021113309         3469 
 4939000   0.47556994   -6.4860793    1335.8099  0.022538468  0.021106751         3458 
 4940000   0.46024899   -6.4916771    1334.6831  0.022514897  0.021100196         3402 
 4941000   0.45826079   -6.4853978    1338.5231  0.022575105   0.02109364         3401 
 4942000   0.46608174   -6.4795616    1334.0411   0.02249496   0.02108709         3468 
 4943000   0.45779793   -6.4630892    1336.2249  0.022527225  0.021080547         3375 
 4944000   0.45731595   -6.4851855     1335.501  0.022510467  0.021074005         3463 
 4945000   0.45859508   -6.4811719    1336.9063  0.022529598  0.021067459         3426 
 4946000   0.46763971   -6.4924037    1337.2825   0.02253138  0.021060923         3364 
 4947000   0.46806588   -6.4828954    1335.4044  0.022495188  0.021054396         3370 
 4948000   0.44866616   -6.4657045    1338.2186  0.022538039  0.021047867         3418 
 4949000   0.45736119   -6.4898154    1336.4727  0.022504087  0.021041336         3455 
 4950000   0.45770584   -6.4832292    1338.1924  0.022528491  0.021034805         3454 
 4951000   0.46854454   -6.4780476    1336.7042  0.022498892  0.021028278         3443 
 4952000   0.45158037   -6.4877745    1334.6777  0.022460247  0.021021745         3425 
 4953000   0.45591727   -6.4781549    1336.6285  0.022488534  0.021015216         3375 
 4954000   0.46720359   -6.4680645    1334.5556  0.022449125  0.021008691         3433 
 4955000   0.45638072   -6.4922045      1335.69  0.022463673  0.021002171         3418 
 4956000   0.46018066   -6.4812258    1337.2627  0.022485586  0.020995656         3462 
 4957000   0.46653129   -6.4894816      1336.59  0.022469741   0.02098914         3401 
 4958000   0.45012939   -6.4815998    1335.1594  0.022441163  0.020982628         3393 
 4959000   0.45042232    -6.466394    1336.5317  0.022459698  0.020976117         3364 
 4960000   0.45833397   -6.4752796     1337.348  0.022468884  0.020969608         3425 
 4961000    0.4526764   -6.5000763    1336.9049  0.022456912  0.020963106         3426 
 4962000   0.45508764   -6.4747591    1336.2742  0.022441795  0.020956599         3383 
 4963000   0.44963327   -6.4766771    1337.4465  0.022456956  0.020950105         3367 
 4964000    0.4599162   -6.4714301    1339.0916  0.022480049   0.02094362         3394 
 4965000   0.46782405    -6.472526    1336.3495  0.022429498  0.020937133         3415 
 4966000   0.45983152   -6.4737206    1336.2019  0.022422505  0.020930638         3371 
 4967000   0.45348093   -6.4829929    1334.4499  0.022388597  0.020924148         3382 
 4968000   0.45942996   -6.4774384    1337.4958  0.022435182  0.020917652         3456 
 4969000   0.46405273    -6.486455    1334.6343  0.022382677  0.020911167         3400 
 4970000   0.46248561   -6.4968809    1336.7148  0.022413059  0.020904682         3404 
 4971000   0.45951922   -6.4808402    1334.7085  0.022374916  0.020898205         3405 
 4972000   0.44566422   -6.4947046    1333.8356  0.022355786  0.020891718         3440 
 4973000   0.46730133   -6.4827484    1332.0765  0.022321814  0.020885242         3477 
 4974000   0.45589575   -6.4768769    1334.5758  0.022359198  0.020878761         3430 
 4975000   0.45599965   -6.4767501    1335.2963  0.022366772  0.020872287         3488 
 4976000   0.45241469   -6.4878716    1335.9901  0.022373896  0.020865808         3409 
 4977000   0.45270721   -6.4889667    1333.9585  0.022335385  0.020859336         3488 
 4978000   0.46451642   -6.4791327    1336.4037  0.022371831  0.020852865         3479 
 4979000   0.45663426   -6.4947281    1336.4622  0.022368317  0.020846399         3492 
 4980000   0.45738797   -6.4689109    1335.8654  0.022353839  0.020839932         3460 
 4981000   0.45886916   -6.4899465    1335.0478  0.022335671  0.020833467         3476 
 4982000   0.45367237   -6.4882251    1335.1635  0.022333125  0.020827003         3506 
 4983000   0.45296246   -6.5046783    1334.6113  0.022319407  0.020820539         3529 
 4984000   0.44659507   -6.5062626    1334.4579  0.022312364  0.020814074         3518 
 4985000   0.45109189   -6.4952208    1334.9017  0.022315308  0.020807615         3496 
 4986000   0.45324973   -6.4917366    1335.5891   0.02232232  0.020801165         3529 
 4987000   0.44102991   -6.4966207    1333.7956  0.022287875  0.020794709         3560 
 4988000   0.45243369   -6.4954301     1332.006  0.022253508  0.020788246         3518 
 4989000   0.45986005   -6.4840042    1335.0895  0.022300553    0.0207818         3562 
 4990000   0.44887119   -6.4923207    1335.6898  0.022306109  0.020775357         3553 
 4991000   0.45402192   -6.4984025    1335.1131  0.022292011  0.020768908         3519 
 4992000   0.44435626   -6.4968473    1333.1755    0.0222552  0.020762465         3548 
 4993000    0.4588386     -6.49683    1334.5559  0.022273782  0.020756019         3543 
 4994000   0.45221069   -6.5190656    1335.4141  0.022283643  0.020749583         3560 
 4995000   0.45281513    -6.487143    1338.9768  0.022338618  0.020743146         3532 
 4996000   0.46475918   -6.5057825    1334.6254  0.022261567  0.020736709         3555 
 4997000   0.45409097   -6.5028291     1330.917  0.022195268  0.020730275         3587 
 4998000   0.44425946   -6.4954336    1334.2223  0.022245937  0.020723846         3541 
 4999000   0.45422161   -6.5157452    1335.9254  0.022269877  0.020717426         3532 
 5000000   0.44810535   -6.5022631     1334.229  0.022237151  0.020711002         3528 
 5001000   0.45135836   -6.4949164    1333.5514  0.022221412   0.02070458         3529 
 5002000   0.45216935   -6.5048454    1334.8386  0.022238414  0.020698157         3524 
 5003000   0.46377346    -6.492799      1335.69  0.022248151  0.020691733         3532 
 5004000   0.45209841   -6.5060594    1333.1434  0.022201295  0.020685315         3493 
 5005000   0.45145485   -6.4918615    1333.5756  0.022204056  0.020678896         3513 
 5006000    0.4560763   -6.4865087      1333.83  0.022203855  0.020672481         3533 
 5007000   0.45214161   -6.4944122    1333.0526  0.022186482  0.020666073         3473 
 5008000   0.44759724   -6.5104032    1331.8503  0.022162046  0.020659666         3557 
 5009000   0.43736129   -6.4928204    1334.2498  0.022197541  0.020653257         3560 
 5010000   0.44259999   -6.4890001    1334.6542  0.022199838  0.020646847         3521 
 5011000   0.45845354   -6.4934792    1332.1431  0.022153647  0.020640444         3562 
 5012000   0.45094059   -6.4764156    1334.0594  0.022181089  0.020634044         3511 
Loop time of 13029.2 on 48 procs for 5000000 steps with 4000 atoms

Performance: 66312.829 tau/day, 383.755 timesteps/s
99.4% CPU use with 48 MPI tasks x no OpenMP threads

MPI task timing breakdown:
Section |  min time  |  avg time  |  max time  |%varavg| %total
---------------------------------------------------------------
Pair    | 939.35     | 1012.7     | 1099.5     | 123.5 |  7.77
Neigh   | 87.398     | 91.384     | 95.552     |  23.7 |  0.70
Comm    | 804        | 892.04     | 974.99     | 136.3 |  6.85
Output  | 15.283     | 15.29      | 15.398     |   0.4 |  0.12
Modify  | 10874      | 10899      | 10955      |  15.1 | 83.65
Other   |            | 118.4      |            |       |  0.91

Nlocal:        83.3333 ave          88 max          79 min
Histogram: 1 4 6 5 13 6 5 3 1 4
Nghost:        2390.44 ave        2400 max        2381 min
Histogram: 3 6 6 5 6 8 1 1 7 5
Neighs:        16493.3 ave       18502 max       14661 min
Histogram: 5 6 4 7 2 4 8 7 2 3
FullNghs:      32925.0 ave       35044 max       30605 min
Histogram: 2 1 3 8 8 8 7 7 2 2

Total # of neighbors = 1580399
Ave neighs/atom = 395.09975
Neighbor list builds = 268584
Dangerous builds = 2

#clear
#
#next RN
#
#jump SELF
Total wall time: 3:37:12
