
units lj                  # Use reduced LJ style units
atom_style atomic         # Uncharged point particles
atom_modify map hash      # Needed for indexing of clusters etc
                          # Used to be able to find where atoms are in relation to each other.

lattice fcc 1.0 spacing 1 1 1
Lattice spacing in x,y,z = 1.5874011 1.5874011 1.5874011
region box block 0 10 0 10 0 10 units lattice
create_box 2 box
Created orthogonal box = (0.0000000 0.0000000 0.0000000) to (15.874011 15.874011 15.874011)
  3 by 4 by 4 MPI processor grid
create_atoms 1 box
Created 4000 atoms
  using lattice units in orthogonal box = (0.0000000 0.0000000 0.0000000) to (15.874011 15.874011 15.874011)
  create_atoms CPU = 0.002 seconds
set type 1 type/fraction 2 0.52 78393
Setting atom values ...
  2077 settings made for type/fraction
mass 1 1.0
mass 2 1.0
pair_style lj/cut  3.5
pair_modify tail  yes
pair_coeff 1  1  1.0  1.0   # Intearaction between 1 and 1 set with epsilon = 1 and sigma = 1
pair_coeff 1  2  1.5  0.8
pair_coeff 2  2  0.5  0.88

write_data data.0
System init for write_data ...
Neighbor list info ...
  update every 1 steps, delay 10 steps, check yes
  max neighbors/atom: 2000, page size: 100000
  master list distance cutoff = 3.8
  ghost atom cutoff = 3.8
  binsize = 1.9, bins = 9 9 9
  1 neighbor lists, perpetual/occasional/extra = 1 0 0
  (1) pair lj/cut, perpetual
      attributes: half, newton on
      pair build: half/bin/atomonly/newton
      stencil: half/bin/3d
      bin: standard
WARNING: Not all mixed pair coeffs generated from mixing. Use write_data with 'pair ij' option to store all pair coeffs. (../write_data.cpp:312)


#############################
#   M E L T   S Y S T E M   #
#############################

velocity all create 2.4 1741580 mom yes dist gaussian # Assign velocities
                                                    # Temperature 2.4, random number seed, zero linear momentum
                                                                                # Gaussian distribution

timestep 0.002   # simulation timestep
thermo 1000       # output thermodynamic data every 1000 steps bf 100

# Define a fix  in this case with index 1 applied to all
# particles in the simulation. This fix is for simulations
# in the anisotropic NPT ensemble. Note that we use the MTK
# correction.
fix 1 all npt temp 2.4 2.4 0.1 iso 5.68 5.68 0.5 mtk yes tchain 5 pchain 5 # Use NPT ensemble
                                                                         # Set temperature and pressure and damping
                                                                         # Numbers of thermostats in chain and in barostat
run 10000          # run for 10000 steps
Per MPI rank memory allocation (min/avg/max) = 3.642 | 3.644 | 3.648 Mbytes
Step Temp E_pair E_mol TotEng Press Volume 
       0          2.4   -5.1913276            0   -1.5922276   -4.1950394         4000 
    1000    2.4337896   -4.7960319            0   -1.1462601    5.2620456    3728.3198 
    2000    2.3494394   -4.8504031            0    -1.327125    5.4037851    3682.1637 
    3000    2.3979932   -4.9354735            0    -1.339383    5.5246239    3648.0679 
    4000    2.4604196   -4.8159048            0    -1.126198    6.1043726    3654.9884 
    5000    2.3688913   -4.8903752            0   -1.3379266    5.8531719     3646.279 
    6000    2.4142263   -4.8682178            0   -1.2477836    5.9792694    3638.3811 
    7000    2.3644255   -4.9387354            0   -1.3929839    5.7444942    3615.2747 
    8000    2.4571861   -4.8999433            0   -1.2150855    5.8200721    3633.6357 
    9000    2.3760674   -4.8911897            0   -1.3279796    5.5095722    3661.1465 
   10000    2.4065702    -4.818971            0   -1.2100181    5.7233028    3681.1115 
Loop time of 2.61533 on 48 procs for 10000 steps with 4000 atoms

Performance: 660719.434 tau/day, 3823.608 timesteps/s
99.6% CPU use with 48 MPI tasks x no OpenMP threads

MPI task timing breakdown:
Section |  min time  |  avg time  |  max time  |%varavg| %total
---------------------------------------------------------------
Pair    | 1.1793     | 1.2517     | 1.327      |   3.2 | 47.86
Neigh   | 0.21333    | 0.22208    | 0.23259    |   0.8 |  8.49
Comm    | 0.77534    | 0.87102    | 0.96013    |   4.5 | 33.30
Output  | 0.00024395 | 0.00025078 | 0.00032093 |   0.0 |  0.01
Modify  | 0.2257     | 0.25458    | 0.28229    |   3.2 |  9.73
Other   |            | 0.01571    |            |       |  0.60

Nlocal:        83.3333 ave          93 max          76 min
Histogram: 5 4 6 3 11 8 5 4 1 1
Nghost:        1739.33 ave        1768 max        1715 min
Histogram: 3 3 4 12 6 7 7 4 1 1
Neighs:        10370.4 ave       11749 max        9125 min
Histogram: 3 6 2 6 7 10 6 2 4 2

Total # of neighbors = 497778
Ave neighs/atom = 124.44450
Neighbor list builds = 903
Dangerous builds = 176

# Equilibrate just above the melting temperature to avoid step fn in T

fix 1 all npt temp 1.25 1.25 0.1 iso 5.68 5.68 0.5 mtk yes tchain 5 pchain 5
run 2000
Per MPI rank memory allocation (min/avg/max) = 3.644 | 3.646 | 3.649 Mbytes
Step Temp E_pair E_mol TotEng Press Volume 
   10000    2.4065702    -4.818971            0   -1.2100181    5.7233028    3681.1115 
   11000    1.2308219   -6.9399025            0   -5.0941312    5.6735537    2854.6148 
   12000    1.2257324   -7.0446542            0   -5.2065153    5.3986282     2843.396 
Loop time of 0.6525 on 48 procs for 2000 steps with 4000 atoms

Performance: 529655.055 tau/day, 3065.133 timesteps/s
99.6% CPU use with 48 MPI tasks x no OpenMP threads

MPI task timing breakdown:
Section |  min time  |  avg time  |  max time  |%varavg| %total
---------------------------------------------------------------
Pair    | 0.29587    | 0.31871    | 0.35476    |   2.3 | 48.84
Neigh   | 0.040838   | 0.043672   | 0.048095   |   0.6 |  6.69
Comm    | 0.1984     | 0.23979    | 0.26883    |   3.1 | 36.75
Output  | 5.095e-05  | 5.3407e-05 | 6.9487e-05 |   0.0 |  0.01
Modify  | 0.04051    | 0.045386   | 0.049423   |   1.3 |  6.96
Other   |            | 0.004889   |            |       |  0.75

Nlocal:        83.3333 ave          90 max          77 min
Histogram: 4 3 5 7 5 6 9 3 3 3
Nghost:        2062.17 ave        2086 max        2039 min
Histogram: 4 2 5 8 6 7 5 3 4 4
Neighs:        13436.2 ave       14926 max       11973 min
Histogram: 2 1 6 10 8 4 10 2 2 3

Total # of neighbors = 644939
Ave neighs/atom = 161.23475
Neighbor list builds = 144
Dangerous builds = 13

#############################
# L I N E A R  Q U E N C H  #
#############################

# Define solid atoms. This closely follows ten Wolde  Ruiz-Montero and Frenkel  Faraday Discuss  1996  104  93-110
# Compute components of the per-atom q6 vector
compute q6 all orientorder/atom degrees 1 6 components 6 nnn NULL cutoff 1.3 # compute the Q6 parameter.
                                                                             # Use all neighbours within 1.3 unit cell.

# get number of connections
compute coord_number all coord/atom orientorder q6 0.5

# An atom is solid if it has 8 or more connections (of a possible 14)
variable is_solid atom c_coord_number>=8
group solid dynamic all var is_solid    # Must be dynamic to update
dynamic group solid defined

# do clustering
compute cluster solid cluster/atom 1.3 # Create a cluster where all atoms within are solid and max 1.3 units from another member

# define chunks one chunk per cluster
compute clus_chunks solid chunk/atom c_cluster nchunk every compress yes  # Says which atoms are in which chunk

# count the size of each chunk
compute size_chunks solid property/chunk clus_chunks count


# Find the maximum entry in the vector of chunk sizes
variable max_n equal max(c_size_chunks)


# Thermo style which includes this variable
# thermo_style custom step temp pe vol v_max_n

thermo ${N}  # Print the thermo information every 100 steps
thermo 1000  

# Reset the npt fix at a lower temperature (below freezing)
fix 1  all npt temp  ${temp} ${temp}  0.1  iso  5.68  5.68  0.5  mtk yes tchain  5  pchain  5
fix 1  all npt temp  0.45 ${temp}  0.1  iso  5.68  5.68  0.5  mtk yes tchain  5  pchain  5
fix 1  all npt temp  0.45 0.45  0.1  iso  5.68  5.68  0.5  mtk yes tchain  5  pchain  5

dump dmp2 all dcd ${N} traj.dcd
dump dmp2 all dcd 1000 traj.dcd


compute msd all msd com yes
variable twopoint equal c_msd[4]/6/(step*dt+1.0e-6)
fix 9 all vector 10 c_msd[4]
variable fit equal slope(f_9)/6/(10*dt)
thermo_style custom step temp pe c_msd[4] v_twopoint v_fit v_max_n

fix 1 all npt temp 1.25 ${temp} 0.1 iso 5.68 5.68 0.5 mtk yes tchain 5 pchain 5
fix 1 all npt temp 1.25 0.45 0.1 iso 5.68 5.68 0.5 mtk yes tchain 5 pchain 5
run 5000000 # 5000000  # Run for this many steps
Neighbor list info ...
  update every 1 steps, delay 10 steps, check yes
  max neighbors/atom: 2000, page size: 100000
  master list distance cutoff = 3.8
  ghost atom cutoff = 3.8
  binsize = 1.9, bins = 8 8 8
  4 neighbor lists, perpetual/occasional/extra = 1 3 0
  (1) pair lj/cut, perpetual
      attributes: half, newton on
      pair build: half/bin/atomonly/newton
      stencil: half/bin/3d
      bin: standard
  (2) compute orientorder/atom, occasional
      attributes: full, newton on
      pair build: full/bin/atomonly
      stencil: full/bin/3d
      bin: standard
  (3) compute coord/atom, occasional
      attributes: full, newton on
      pair build: full/bin/atomonly
      stencil: full/bin/3d
      bin: standard
  (4) compute cluster/atom, occasional
      attributes: full, newton on
      pair build: full/bin/atomonly
      stencil: full/bin/3d
      bin: standard
Per MPI rank memory allocation (min/avg/max) = 9.839 | 9.844 | 9.849 Mbytes
Step Temp PotEng c_msd[4] v_twopoint v_fit v_max_n 
   12000    1.2257324   -7.0446542 1.9721523e-34 1.3695501e-36 8.3333333e+20            1 
   13000    1.2290988   -7.0617045   0.45433131 0.0029123801    0.0368724            2 
   14000    1.2495029   -7.0933927   0.85728696 0.0051028984   0.03500692            1 
   15000    1.2390963     -7.01907    1.2503005 0.0069461139   0.03383909            1 
   16000    1.2394369   -7.0745429     1.619922 0.0084370937  0.033361206            1 
   17000    1.2492068   -7.0838923    1.9840921 0.0097259416  0.032668492            2 
   18000    1.2867458   -7.0340527    2.4200286  0.011203836  0.032374088            1 
   19000    1.2544465   -7.0642888    2.8355015   0.01243641  0.032717444            3 
   20000    1.2575097   -7.0377825    3.2803163  0.013667984  0.033020344            1 
   21000    1.2344537   -7.0461202    3.8021711   0.01508798  0.033658382            1 
   22000    1.2518369   -7.0441961     4.192978  0.015882492  0.034283357            2 
   23000    1.2593537   -7.0360138    4.6887807  0.016988335  0.034683921            2 
   24000    1.2257514   -7.0720971    5.0853168   0.01765735  0.035050055            1 
   25000    1.2593195   -7.0981979    5.5109682  0.018369894  0.035264603            2 
   26000    1.2620029   -7.1022943    5.9006897  0.018912467  0.035374282            4 
   27000      1.24572   -7.0558192    6.3155388  0.019492403  0.035344493            4 
   28000    1.2436813   -7.0215262    6.7042816  0.019953219  0.035277555            2 
   29000    1.2648977   -7.0876892    7.1109029  0.020433629  0.035238656            5 
   30000    1.2467997   -7.0435905    7.4844154  0.020790042  0.035132373            1 
   31000    1.2428812   -7.0352234     7.969496  0.021423376  0.035060173            2 
   32000    1.2657735   -7.0194443    8.3916453  0.021853243  0.035061831            2 
   33000    1.2776576   -7.0858937    8.7316564  0.022049637  0.035031872            2 
   34000    1.2276792   -7.0601146    9.0708791  0.022232547  0.034884955            1 
   35000    1.2149122   -7.0365841    9.3653508  0.022298454  0.034702169            2 
   36000    1.2252776   -7.0625642    9.6296257    0.0222908  0.034442303            1 
   37000    1.2614971   -7.0137667    10.083415  0.022710395  0.034165905            2 
   38000     1.224249   -7.0661134    10.415556  0.022841131  0.033978694            2 
   39000    1.2385535   -7.0793521    10.954979  0.023408074  0.033861774            1 
   40000    1.2332641   -7.1262951    11.302019  0.023545872  0.033792009            2 
   41000    1.2195006   -7.0921141    11.704352  0.023789332  0.033706168            3 
   42000    1.2262134   -7.0636198    12.116832  0.024041332  0.033645176            3 
   43000    1.2511436   -7.0617677      12.4617   0.02415058  0.033565075            2 
   44000     1.218556   -7.0559638    12.873119  0.024380906  0.033481552            4 
   45000    1.2354252   -6.9857771    13.238946  0.024516566  0.033388072            2 
   46000    1.2682103   -7.0622162    13.525875  0.024503397  0.033285639            2 
   47000    1.2539395   -7.0626794    13.807115    0.0244807  0.033161458            1 
   48000    1.2400243   -7.1119384    14.000443  0.024306325  0.033010108            4 
   49000    1.2236805   -7.0726248    14.409346   0.02450569  0.032861092            3 
   50000    1.2422484   -7.1165718    14.873993  0.024789988  0.032760078            2 
   51000    1.2374941   -7.1021842     15.23058  0.024886569  0.032663769            2 
   52000    1.2689523   -7.0545233    15.647756  0.025076532  0.032577971            1 
   53000    1.2437175   -7.0914536    16.023464  0.025194125  0.032505796            1 
   54000    1.2816352   -7.1045404    16.353906  0.025237509  0.032436108            2 
   55000    1.2485924   -7.1149824    16.804718  0.025461693   0.03238993            2 
   56000     1.227835    -7.072241    17.032963  0.025346672  0.032319187            4 
   57000    1.2380707   -7.0616947    17.451931  0.025514519   0.03224369            2 
   58000    1.2534073   -7.0656326    17.882416  0.025693126  0.032195262            2 
   59000    1.2532239   -7.0919577    18.357109  0.025928121   0.03216023            2 
   60000    1.2413163   -7.0778597     18.73273  0.026017681  0.032137684            3 
   61000    1.2520135   -7.0821894     19.07411  0.026057527  0.032110434            2 
   62000    1.2519826   -7.0932492    19.492573  0.026199695  0.032079831            4 
   63000     1.235402   -7.0602141    20.019682  0.026481061  0.032066242            3 
   64000    1.2424734   -7.1173018    20.279174  0.026405175  0.032059517            2 
   65000    1.2398661   -7.0805047    20.710748  0.026552241  0.032054494            4 
   66000    1.2481039   -7.1083362    21.182905  0.026746092  0.032049468            1 
   67000    1.2430243   -7.0623289    21.514517   0.02675935  0.032050615            1 
   68000    1.2554103   -7.0971592    21.778414  0.026689233  0.032045491            8 
   69000    1.2538762   -7.0720789    22.167293  0.026772093  0.032025219            3 
   70000     1.231752   -7.1036923    22.430887  0.026703437  0.032004206            3 
   71000    1.2299174    -7.045762    23.101276  0.027114174  0.031987936            2 
   72000    1.2402837   -7.0924269    23.409745  0.027094612   0.03198798            1 
   73000     1.229681   -7.0795959    23.817246  0.027188637  0.031995037            2 
   74000    1.2250982     -7.11615    24.063805  0.027098879  0.031997099            2 
   75000    1.2352563   -7.0687089    24.685155  0.027427949  0.032002218            3 
   76000    1.2447471   -7.0449705    25.288861  0.027729014  0.032023954            2 
   77000    1.2485673   -7.1145146    25.565453  0.027668239   0.03205134            4 
   78000    1.2408985   -7.0772499    25.779794  0.027542515  0.032065827            3 
   79000    1.2169685   -7.0904168     26.08218  0.027512848  0.032058407            1 
   80000    1.2528548   -7.0558605    26.742149  0.027856405  0.032065785            3 
   81000    1.2330884   -7.0700645    27.042434  0.027821434  0.032082729            2 
   82000    1.2576944   -7.0868736    27.565141  0.028013355  0.032102176            2 
   83000    1.2441475   -7.1287747    27.969361  0.028081687  0.032131133            3 
   84000    1.2325928   -7.0898347    28.394427  0.028169074  0.032156219            1 
   85000    1.2480738   -7.1123116    28.709766  0.028146829  0.032167686            1 
   86000    1.2326244   -7.0988372    29.104805   0.02820233  0.032186731            1 
   87000    1.2557368   -7.0528376    29.684933  0.028433844  0.032210171            6 
   88000    1.2453494   -7.1210919    29.950654  0.028362361  0.032234803            4 
   89000    1.2364922   -7.1103175    30.384027  0.028449463  0.032258357            5 
   90000    1.2406203   -7.0845654    30.945951  0.028653658  0.032284954            1 
   91000    1.2353249   -7.0722308     31.33651  0.028696437  0.032313367            2 
   92000    1.2149601   -7.0855124    31.664317  0.028681447   0.03234318            3 
   93000    1.2253294   -7.0931982    32.049249  0.028717965  0.032364288            2 
   94000    1.2275413   -7.1386503    32.202988  0.028548748  0.032378693            4 
   95000    1.2416029   -7.0453841    32.818322  0.028788002  0.032395406            2 
   96000    1.2600026   -7.1274699    33.179695  0.028801818  0.032415857            2 
   97000    1.2486296   -7.1168711    33.572601   0.02884244  0.032432075            2 
   98000    1.2112701   -7.1013806    33.843655  0.028778618  0.032445129            4 
   99000    1.2359237   -7.0619327    34.299222  0.028871399  0.032456066            3 
  100000    1.2366692   -7.1199228    34.512329  0.028760274  0.032458438            1 
  101000    1.2458625   -7.1107475    34.872977  0.028773083  0.032459322            3 
  102000    1.2381111   -7.0573806    35.299687  0.028839613   0.03246025            3 
  103000    1.2451602   -7.1162216    35.588887  0.028793598  0.032455735            2 
  104000    1.2090549   -7.0834347    36.134505   0.02895393  0.032459515            2 
  105000    1.2190642   -7.0929689    36.299161  0.028808858  0.032452839            2 
  106000    1.2338091   -7.1011612    36.656041  0.028817642  0.032442561            1 
  107000    1.2479884   -7.1056455    37.099823  0.028893943  0.032435785            4 
  108000    1.2147968   -7.0817322     37.56993  0.028989144  0.032433063            3 
  109000    1.2190227   -7.0950365    38.080188  0.029113293   0.03243204            4 
  110000    1.2272088   -7.1280339    38.308438  0.029021544  0.032430327            3 
  111000    1.2380569   -7.0626836    38.810164  0.029136759  0.032430824            1 
  112000    1.2336587   -7.0987403    39.004123  0.029020924  0.032425763            1 
  113000    1.2420557   -7.0916771     39.39787  0.029054476  0.032422829            2 
  114000    1.2365092   -7.1184261    39.622161  0.028963568  0.032414463            2 
  115000    1.2305476   -7.1692567    39.985306  0.028974859  0.032408103            3 
  116000    1.2252054   -7.1033659    40.506023  0.029099155   0.03239926            1 
  117000    1.2510095   -7.1151132     40.96036  0.029174045  0.032393753            3 
  118000    1.2136553    -7.083684     41.40899  0.029243637  0.032390492            1 
  119000    1.2340934   -7.0973956    42.090337  0.029475026  0.032396017            3 
  120000    1.2338152    -7.112301    42.426072   0.02946255  0.032402658            2 
  121000    1.2118761   -7.1173398     42.89236  0.029540193  0.032412843            1 
  122000     1.197802   -7.1341952    43.231554   0.02952975  0.032419971            1 
  123000    1.2101906    -7.043395    43.737767  0.029632633  0.032429946            1 
  124000    1.2216006   -7.1080934    44.084957  0.029626987   0.03243865            4 
  125000    1.2247759   -7.1408179    44.096928  0.029397952  0.032439962            2 
  126000     1.227345   -7.1008645    44.492181  0.029426046  0.032434026            2 
  127000    1.2106323   -7.0603867    44.814155  0.029405613   0.03242943            2 
  128000     1.230263   -7.0743202    45.544303  0.029651239  0.032425109            3 
  129000    1.2443956   -7.1003675    45.676476  0.029506767   0.03242086            1 
  130000    1.2250816    -7.105211     45.92527  0.029439275  0.032412058            2 
  131000    1.2347845   -7.1170165    46.117196  0.029336639  0.032400693            3 
  132000    1.2374671   -7.0947443    46.551309  0.029388452  0.032382022            5 
  133000    1.2175023    -7.074139    46.566339  0.029176904  0.032360993            4 
  134000    1.1975097   -7.0896842    46.998004  0.029227614  0.032338852            5 
  135000    1.2290756   -7.1088997    47.370736  0.029241195  0.032320755            2 
  136000    1.2178411   -7.1321174    47.858065  0.029324795  0.032301906            2 
  137000    1.2173817   -7.0838206    48.113268  0.029265978  0.032284671            1 
  138000    1.2276875   -7.0611143    48.447977  0.029256025  0.032262913            3 
  139000    1.2370698   -7.0928111    48.741556  0.029221556  0.032238761            5 
  140000     1.225151   -7.1611577    48.980059  0.029154797   0.03221349            2 
  141000    1.2379513    -7.140307    49.480814   0.02924398  0.032188403            2 
  142000    1.2241263    -7.081354    49.776083  0.029211316  0.032169472            2 
  143000    1.2467126   -7.1280802    50.233692  0.029273713  0.032147841            1 
  144000    1.2458299   -7.1154014    50.594194  0.029279048  0.032127313            1 
  145000    1.2258327   -7.0928583     50.94435  0.029278362  0.032107439            3 
  146000    1.2159916   -7.1192491    51.356176  0.029312886  0.032089261            4 
  147000    1.2094656   -7.0716764    52.002137   0.02947967  0.032073721            2 
  148000    1.2325682   -7.0782282    52.257832  0.029424455   0.03206125            2 
  149000    1.2354934   -7.0979874    52.525482  0.029376668  0.032048566            2 
  150000    1.2359451   -7.1009199    53.003978  0.029446654  0.032033914            2 
  151000    1.2232679   -7.1540251    53.306567  0.029418635  0.032020486            3 
  152000    1.2190126   -7.1117147    53.940025  0.029572382  0.032007423            3 
  153000    1.2171014   -7.0993701    54.061193  0.029445094  0.031994483            4 
  154000     1.210275   -7.1320215    54.615081  0.029553615  0.031984157            2 
  155000    1.2315792   -7.1499683    54.958139  0.029547386  0.031975909            2 
  156000    1.2307437   -7.1487767    55.364427  0.029575014   0.03196611            2 
  157000    1.2260065   -7.1039685     55.84534    0.0296419  0.031955454            2 
  158000    1.2436823   -7.0975589    56.040745  0.029557355  0.031945375            2 
  159000    1.2095788   -7.1042637    56.603861  0.029666594  0.031934468            1 
  160000    1.2359944   -7.0565969    56.985444  0.029679919   0.03192575            3 
  161000    1.2305073   -7.1105031    57.209148   0.02961136  0.031914544            3 
  162000    1.2550249   -7.1879449    57.473522  0.029564569  0.031904161            2 
  163000    1.2225923   -7.1814253    57.831288  0.029566098  0.031896022            3 
  164000    1.2566185   -7.1537033    58.387194   0.02966829  0.031886166            2 
  165000    1.2316937   -7.0926206    58.640536  0.029616432  0.031876937            2 
  166000     1.208622   -7.1254396    59.044907  0.029641018  0.031867712            2 
  167000    1.2179184   -7.0930924    59.425662  0.029653524  0.031859146            2 
  168000    1.2640152   -7.1411734     60.01198  0.029767847  0.031853372            1 
  169000    1.2320351   -7.0844589     60.27673  0.029722254  0.031848425            3 
  170000    1.2051364   -7.1178098    60.690519  0.029750254  0.031842614            2 
  171000    1.2204115   -7.1398896    61.099123  0.029775401  0.031838551            2 
  172000    1.2205105   -7.1338853    61.502753  0.029797845  0.031833528            4 
  173000    1.2253481    -7.154357    61.594223  0.029669664  0.031827606            3 
  174000    1.2376667   -7.1509128    61.902443  0.029646764  0.031821604            2 
  175000     1.195156    -7.158598    62.227998   0.02963238  0.031816497            2 
  176000    1.2324806   -7.2060042    62.265731   0.02948188  0.031805754            4 
  177000    1.2071712   -7.0853753    63.325089  0.029814072  0.031797514            2 
  178000    1.2369124   -7.1080606    63.555446  0.029754422   0.03178935            2 
  179000    1.2129713     -7.13854     63.38967  0.029511019  0.031778391            3 
  180000    1.2320995   -7.1385728    63.708946  0.029494882  0.031766541            2 
  181000     1.220346   -7.1401659    64.316332  0.029611571  0.031754184            2 
  182000    1.2570887   -7.1208207    64.781722   0.02966196  0.031744037            2 
  183000    1.1912916   -7.1018268    65.230486  0.029704229  0.031733649            2 
  184000    1.2081845   -7.1109843    65.423243  0.029630092  0.031723301            1 
  185000    1.2324719   -7.0910059    66.037726  0.029746724  0.031713707            1 
  186000    1.2180721   -7.1395225     66.19137  0.029655632  0.031704253            2 
  187000    1.2268502   -7.1268323    66.558252   0.02966054   0.03169512            3 
  188000    1.2223499   -7.0893321    67.194676  0.029784874  0.031687336            2 
  189000     1.223938   -7.0627986    67.771509  0.029881618   0.03168407            3 
  190000    1.2303767   -7.1259903    68.155419  0.029892728  0.031678614            2 
  191000    1.2031389   -7.1689955    68.179647  0.029746792  0.031675085            2 
  192000    1.2416794   -7.1324843    68.682005  0.029809898  0.031669716            4 
  193000    1.1994229   -7.1511326    68.850572  0.029728226  0.031663153            5 
  194000     1.242143   -7.1421909     69.17762  0.029715472  0.031654974            2 
  195000    1.2368066   -7.1251358     69.70876  0.029790068  0.031646962            2 
  196000    1.2333178   -7.1479223    69.688111  0.029629299  0.031637701            2 
  197000    1.2154038   -7.1339719    70.137979  0.029669196  0.031630153            4 
  198000    1.1955654   -7.1318848    70.699524  0.029755692  0.031621565            2 
  199000     1.238084   -7.1099739    71.159997  0.029798994  0.031612205            1 
  200000    1.2161273   -7.1862002    71.313926  0.029714136  0.031602203            2 
  201000    1.2429005    -7.071334    72.044809  0.029869324  0.031595303            5 
  202000    1.2141091   -7.1419427    72.536781  0.029924414  0.031591275            3 
  203000    1.2428904   -7.1555998    72.390922  0.029717127  0.031585151            3 
  204000     1.241723   -7.1132983    72.884191  0.029772954  0.031576632            1 
  205000     1.206978   -7.1573198    72.918458   0.02964165  0.031567585            3 
  206000    1.2178941   -7.1454671    73.573532  0.029762756  0.031558559            2 
  207000    1.2002826   -7.1603981    74.155374   0.02985321  0.031549808            2 
  208000    1.2215077   -7.1300707    74.375493  0.029797874  0.031542645            1 
  209000    1.2116418   -7.1420461    74.882327  0.029857387  0.031535773            2 
  210000    1.2610054   -7.0776373    75.580817  0.029992388  0.031530279            1 
  211000     1.241468    -7.197114    75.153072  0.029681308  0.031523781            1 
  212000    1.2113052   -7.1742149     75.58551  0.029711285  0.031516413            2 
  213000    1.1809823   -7.0898271    76.205575  0.029814388  0.031507196            3 
  214000    1.2382522   -7.1117934    76.472657  0.029779072  0.031499124            2 
  215000    1.2087272   -7.1532795    76.954339  0.029827263  0.031491572            3 
  216000    1.2378984   -7.1420428    77.371589   0.02985015  0.031484022            3 
  217000    1.2158355   -7.1628125    77.641184  0.029816123  0.031477728            2 
  218000    1.1818116   -7.1163013    78.009133  0.029820005  0.031469159            1 
  219000    1.1906212    -7.185752    78.402235  0.029833423  0.031462211            4 
  220000    1.2130286   -7.1457601    78.610968  0.029776882  0.031453672            2 
  221000    1.2170834   -7.1604371    78.703146  0.029676903  0.031443646            1 
  222000    1.2062575   -7.1293064    79.349298  0.029785773  0.031433002            2 
  223000    1.1852769   -7.1489999    79.396789  0.029669951  0.031420429            4 
  224000    1.2306517   -7.1204419      79.9037  0.029726079  0.031408807            1 
  225000    1.1843777   -7.1201986    80.146416  0.029683858  0.031396771            2 
  226000    1.1974006   -7.1434164     80.24214  0.029587809  0.031384877            3 
  227000     1.208763   -7.1827451    80.331675  0.029490336  0.031372634            7 
  228000    1.2142032   -7.1417822    81.397466  0.029750536  0.031361959            1 
  229000    1.1933915    -7.154041    81.259406  0.029570381  0.031350334            1 
  230000    1.2216698   -7.0686664    82.213754  0.029787592  0.031338379            2 
  231000    1.2285467   -7.1539063     81.83953   0.02952364  0.031324311            1 
  232000    1.2067843   -7.1366594    82.385686  0.029592559  0.031310891            2 
  233000    1.2090657   -7.1668528    82.463713   0.02949346  0.031298594            2 
  234000    1.2164133   -7.1568335    82.966193  0.029546365  0.031286183            1 
  235000    1.2014883   -7.1666297    83.735998  0.029693616   0.03127583            2 
  236000    1.2233136   -7.0990321    84.525366  0.029846527   0.03126714            1 
  237000    1.2244412   -7.1430598    84.500357  0.029711799  0.031259382            3 
  238000    1.1886556   -7.1327335    84.911669  0.029730977  0.031250256            3 
  239000    1.2031358   -7.1501897    85.077626  0.029664444  0.031240532            2 
  240000    1.2062204   -7.1813456     85.26495  0.029605885   0.03123051            1 
  241000    1.2099525   -7.1243905    86.092814    0.0297693  0.031223066            5 
  242000    1.1977706   -7.1499535    86.544815  0.029801933  0.031215589            2 
  243000    1.2241124   -7.1838342     86.87793  0.029793529  0.031207359            2 
  244000     1.210788   -7.1377228    86.813387  0.029649381  0.031200227            2 
  245000    1.2044056   -7.1903802    87.037552   0.02960461  0.031189816            1 
  246000    1.1941408   -7.1288367    87.578417  0.029667485  0.031180705            2 
  247000    1.1977727   -7.1423469    88.446032  0.029840092  0.031173538            1 
  248000    1.2260635   -7.1130318     88.86346  0.029860033  0.031166951            1 
  249000    1.2145211   -7.1427619    89.144194  0.029834067  0.031159588            2 
  250000    1.2230139    -7.155169    88.795231   0.02959841  0.031152041            5 
  251000    1.2180948    -7.233601    89.034278  0.029559853  0.031142075            5 
  252000    1.2076314   -7.1658644    90.024192  0.029769905  0.031132264            2 
  253000    1.1917173   -7.1516859    90.225517   0.02971855   0.03112308            5 
  254000    1.1885908   -7.1855268    90.462053  0.029679151  0.031114577            3 
  255000    1.2057957   -7.1273443    90.878403  0.029698825  0.031105933            1 
  256000    1.2383597   -7.1971418    91.123654  0.029662648  0.031097251            2 
  257000     1.204913   -7.1506526    91.805543  0.029768334  0.031089074            3 
  258000     1.206964   -7.1982373     91.88615  0.029678989  0.031080841            4 
  259000    1.2166886     -7.16518    92.357609   0.02971609  0.031074322            1 
  260000    1.2048317   -7.1406018    92.993591  0.029805638  0.031067214            2 
  261000    1.1936536   -7.1788504    93.067729  0.029715111  0.031060095            4 
  262000    1.2353598   -7.1854318    93.602197  0.029771691  0.031052691            2 
  263000    1.2035952   -7.1265455    94.187903  0.029844076  0.031046263            3 
  264000    1.2017607   -7.1202403    94.181078  0.029728876  0.031040195            2 
  265000     1.185038   -7.2062856    94.321917   0.02966098   0.03103271            3 
  266000    1.2099749   -7.1466617    94.967749  0.029751801  0.031026281            1 
  267000    1.2067832   -7.1554868    94.846447  0.029602511  0.031019192            6 
  268000    1.2538138   -7.1205177    95.552339  0.029711548  0.031010653            1 
  269000    1.2228136   -7.1349731    95.663495  0.029635531  0.031002202            2 
  270000    1.2131707    -7.099832    96.593857  0.029812919   0.03099442            1 
  271000    1.1917397   -7.1979381    96.382862  0.029638026  0.030987304            2 
  272000    1.2151109   -7.1880827    97.057718  0.029735821   0.03097997            3 
  273000    1.1962196   -7.1649051    97.300817  0.029701104   0.03097339            4 
  274000    1.2137328   -7.1889849    97.774301  0.029736709  0.030967012            2 
  275000    1.2067651   -7.1549646    98.799259  0.029939169  0.030961806            3 
  276000    1.2148812   -7.1841796    98.604458  0.029771877  0.030957593            1 
  277000    1.2162082   -7.1249708    99.351145  0.029889033  0.030953253            2 
  278000    1.2113985    -7.199611    99.110711  0.029709446  0.030948561            3 
  279000     1.212526   -7.2061645    98.991712  0.029567417  0.030941919            4 
  280000    1.1838591   -7.1678817    99.794999  0.029700893  0.030934483            1 
  281000     1.204851   -7.1605822    100.06021  0.029673846  0.030927562            2 
  282000    1.2197593   -7.1402622     100.1712  0.029601419  0.030921435            2 
  283000    1.2125488   -7.1654018    100.64253   0.02963561  0.030914066            1 
  284000     1.201534   -7.1647969    101.12084  0.029671609  0.030906215            1 
  285000     1.181706   -7.2010121    101.75183  0.029751998  0.030898544            2 
  286000    1.1932046   -7.1679231    101.83194  0.029671312   0.03089118            2 
  287000    1.1935182   -7.1905727    101.79886  0.029558321  0.030883162            1 
  288000     1.222145   -7.2216705    102.48066   0.02965297  0.030874634            2 
  289000    1.2040769   -7.1411827    102.54834  0.029569878  0.030865664            1 
  290000    1.2266035   -7.2064016    102.49572  0.029452794  0.030856213            8 
  291000    1.1824711   -7.1646345    103.24856   0.02956717  0.030845334            2 
  292000    1.1805382   -7.1550883    103.37532   0.02950209  0.030835586            4 
  293000    1.1923307   -7.1630114    103.61587  0.029469814  0.030825187            2 
  294000    1.2197855   -7.2176434    104.01423  0.029482492  0.030815335            4 
  295000    1.2038059   -7.1663881     104.8447  0.029617146  0.030805352            3 
  296000     1.207404    -7.197064    104.96388  0.029550642  0.030795838            2 
  297000    1.1933939   -7.1813105    105.46329  0.029591272  0.030786596            1 
  298000    1.2161941   -7.2020323    105.77002  0.029577746  0.030778451            2 
  299000    1.2082925   -7.1806452    106.08871  0.029567645  0.030769236            2 
  300000    1.2214971   -7.2041438    106.09055  0.029469598  0.030759355            2 
  301000    1.2201233   -7.1694383    106.46492  0.029475338  0.030750079            1 
  302000    1.1925123   -7.1674102    106.54293  0.029399263  0.030740182            2 
  303000    1.1919078   -7.1854053    107.03094  0.029436453    0.0307303            2 
  304000    1.2121827   -7.1476485    107.83067  0.029558845  0.030721035            2 
  305000    1.1969088   -7.1526445    108.21066  0.029565754  0.030712304            2 
  306000    1.2002375   -7.1681215    108.13758  0.029449231  0.030702993            3 
  307000    1.1972177    -7.170242    108.28143  0.029392354  0.030692381            1 
  308000    1.2261424   -7.1634079    109.02531  0.029498189  0.030681584            4 
  309000    1.1714774   -7.2158379    108.89444  0.029367433  0.030670751            2 
  310000    1.1939114   -7.1527554    109.18902  0.029351887  0.030659412            4 
  311000    1.1696594   -7.1834792    109.25901  0.029276261   0.03064748            3 
  312000    1.1979688    -7.184934    109.66987  0.029292166  0.030635141            2 
  313000    1.2111592    -7.231488    109.66937  0.029198448  0.030621244            3 
  314000     1.200125   -7.2113554    110.20126  0.029246618  0.030608284            2 
  315000    1.1952073   -7.1959111    110.81692  0.029316645  0.030595989            2 
  316000    1.1706356    -7.129583    111.13677  0.029308221  0.030585762            2 
  317000    1.1954887   -7.1880993    111.67353  0.029356868  0.030574473            2 
  318000    1.2000529   -7.1526629    112.79443  0.029558289  0.030564963            3 
  319000    1.2143111   -7.1702954    112.89816  0.029492727  0.030556245            2 
  320000    1.1815788    -7.151114    113.03452  0.029436073  0.030547078            1 
  321000    1.2063837   -7.2236976    112.72716   0.02926458  0.030536859            4 
  322000    1.2122268   -7.1506777    113.37392  0.029341078  0.030526062            7 
  323000    1.2153049   -7.1826407    113.64978  0.029321407   0.03051514            2 
  324000    1.1812017   -7.2244494     113.6983  0.029243391  0.030504778            2 
  325000    1.1839799   -7.1479413    114.58656  0.029381169  0.030494418            1 
  326000    1.1990697   -7.1365848    115.18697  0.029444521  0.030485541            2 
  327000    1.2007183   -7.1953514    115.17873  0.029352378   0.03047683            2 
  328000    1.1876779   -7.1592887    115.69888  0.029395042  0.030468225            2 
  329000    1.2105436   -7.2123187     116.0726  0.029400355   0.03045932            8 
  330000    1.2107029   -7.2261259    116.01766  0.029297389  0.030449695            2 
  331000    1.2064329    -7.196938    116.64096    0.0293658  0.030441261            1 
  332000     1.207677   -7.1787273    117.02257  0.029373135   0.03043335            2 
  333000    1.1846689   -7.2329588    117.34838  0.029366462  0.030424718            1 
  334000    1.1921666   -7.1863119     117.7671  0.029383009  0.030416226            3 
  335000    1.1944065   -7.1817705    118.35305  0.029441056  0.030408237            2 
  336000    1.2135653   -7.2062989    118.40935  0.029367398  0.030400315            2 
  337000    1.1969365   -7.1764046    119.23479  0.029484369  0.030393802            3 
  338000    1.2240833   -7.1812558     119.5368  0.029471597  0.030386998            2 
  339000    1.1878176   -7.1771914    119.28473  0.029322696  0.030379474            2 
  340000    1.1966011   -7.2033969    119.75079  0.029350683  0.030370957            4 
  341000    1.2231247   -7.2074617    120.28993  0.029396367  0.030363351            3 
  342000    1.2002278   -7.1917966    121.26128  0.029547096  0.030357106            4 
  343000    1.1850814    -7.192666    121.41799  0.029499025  0.030351377            4 
  344000    1.1801583   -7.1666659    122.12587  0.029584754   0.03034671            2 
  345000    1.1814895    -7.197171    122.40549  0.029566543  0.030342212            1 
  346000    1.2047152   -7.1737569    122.59842  0.029527557  0.030337978            5 
  347000    1.2010866   -7.1843017    122.96971  0.029531631  0.030333163            1 
  348000    1.1931075   -7.1454101    123.66004   0.02961208  0.030329162            2 
  349000    1.1947591   -7.1883271    123.50185  0.029489457  0.030324071            2 
  350000    1.1955017   -7.2172172     124.0385  0.029532976  0.030318578            2 
  351000    1.1802495   -7.2416875    124.16753  0.029479471   0.03031318            3 
  352000    1.2172536   -7.1865674    124.90472  0.029570246  0.030309199            4 
  353000    1.1929846   -7.2018359    125.31002  0.029582158  0.030305946            4 
  354000    1.2039306   -7.2138903    125.40434  0.029520795  0.030302128            2 
  355000    1.1892331   -7.1522689    126.28016   0.02964323  0.030297528            1 
  356000    1.1900651   -7.2276834     126.0902  0.029515496  0.030293703            2 
  357000    1.2106026   -7.1852907    126.34719  0.029492808  0.030289504            2 
  358000    1.1964955   -7.1927278    127.09648  0.029584841  0.030286382            2 
  359000    1.1712963    -7.222314    127.34928  0.029561115  0.030283327            2 
  360000    1.1775526   -7.1735101     127.8967  0.029605718  0.030280012            2 
  361000     1.210792   -7.1476504    128.33732   0.02962542  0.030276942            2 
  362000    1.1871929   -7.1888669    128.38762  0.029555161   0.03027473            2 
  363000    1.2289107    -7.188922    128.45873  0.029490068  0.030271477            1 
  364000    1.1905037   -7.2283976    128.90973  0.029512301  0.030268229            2 
  365000    1.2260344   -7.1967519    129.63935  0.029598024  0.030264715            2 
  366000    1.1780406    -7.169061    129.87429  0.029570649  0.030260942            4 
  367000    1.1713532    -7.197881    130.45554  0.029622058  0.030258255            2 
  368000    1.1887619   -7.2024342    130.96741  0.029657474  0.030255338            6 
  369000    1.2192099   -7.2089726    130.57708  0.029488953  0.030251887            4 
  370000    1.1823402   -7.1978006    131.07086  0.029520464  0.030247193            3 
  371000    1.2074596   -7.2057562    131.56714  0.029552368  0.030243605            2 
  372000    1.1827978    -7.184898     131.6488  0.029491218  0.030239142            2 
  373000     1.201049   -7.1727643    131.46876   0.02937193  0.030234208            1 
  374000    1.2144532   -7.2535666    131.32864  0.029262175  0.030227885            3 
  375000    1.1945989   -7.2191225     132.4296    0.0294288  0.030221437            3 
  376000    1.2046988   -7.1802795    132.89064  0.029452713  0.030215748            8 
  377000    1.1822594   -7.2440206     132.8181  0.029358554  0.030210472            3 
  378000    1.1727116   -7.2007586    133.69309  0.029473785  0.030205622            2 
  379000    1.1833114   -7.1925698    134.67916  0.029612833  0.030201911            3 
  380000    1.1820069   -7.1821514    134.63229  0.029524625  0.030198046            1 
  381000    1.1943754    -7.204571    134.65097  0.029451219  0.030194186            3 
  382000    1.1781815   -7.1980331    135.64155  0.029590215   0.03019071            1 
  383000    1.1908084   -7.1900024    135.58866   0.02950145  0.030187683            1 
  384000    1.2042269   -7.2408843    135.56975  0.029420518  0.030183274            2 
  385000    1.2045998   -7.2046515    136.27544  0.029496847  0.030178801            2 
  386000    1.1868027   -7.2362472    136.07275  0.029376672  0.030173597            2 
  387000    1.1882586   -7.1975797    136.22588  0.029333739  0.030168052            2 
  388000    1.1869147    -7.204999    136.37708  0.029290609  0.030161794            3 
  389000    1.1950151   -7.2045153    136.95191  0.029338456  0.030154561            1 
  390000    1.1768019   -7.1924521    137.65123  0.029412657  0.030147509            2 
  391000    1.1850403   -7.2481912    137.40204  0.029284322   0.03014058            1 
  392000    1.1797511   -7.2302993    137.65234  0.029262828  0.030134068            5 
  393000    1.1968485   -7.1916286    137.80971  0.029221736   0.03012779            2 
  394000    1.1740457   -7.2603214    138.42741  0.029278216  0.030121392            2 
  395000    1.1885399   -7.2456646    138.96608  0.029317739  0.030114895            3 
  396000    1.2152131   -7.2242557    139.07805  0.029267266  0.030108595            2 
  397000     1.173031   -7.2679891    139.51676  0.029285634  0.030102522            2 
  398000    1.1597329    -7.254143    139.94142  0.029300968  0.030096284            4 
  399000    1.2103479   -7.2065614    140.07504   0.02925544  0.030090642            2 
  400000    1.1715257   -7.1977597    140.29409  0.029227936  0.030084526            2 
  401000    1.1652192   -7.1943367    141.30979  0.029366123   0.03007826            2 
  402000    1.1902794   -7.1969503    141.01425  0.029231809  0.030071576            1 
  403000    1.1744318   -7.1860928    141.90617  0.029343707  0.030065595            3 
  404000    1.1858501   -7.2546819    142.19347  0.029330336   0.03006013            5 
  405000    1.1801046   -7.1955249    142.39649  0.029299688  0.030054916            5 
  406000    1.1593191   -7.1752643    142.91537  0.029334025  0.030049582            1 
  407000    1.1851613   -7.2198357     142.7106  0.029220024  0.030043566            3 
  408000    1.1966616   -7.2223778    143.68458  0.029347341  0.030037018            2 
  409000    1.1774415   -7.2446667    143.76251  0.029291464   0.03003068            3 
  410000    1.2014059   -7.2498025    143.86124   0.02924009   0.03002385            2 
  411000    1.1742672    -7.241505    144.28942  0.029255762  0.030017295            1 
  412000    1.1807983   -7.2059379    144.39284  0.029205672  0.030011105            1 
  413000    1.1812598   -7.2103969      144.735  0.029203995  0.030004586            2 
  414000    1.1952406   -7.1571718    145.73095  0.029333928  0.029998168            3 
  415000    1.1791181    -7.207655    145.44776  0.029206378  0.029991476            3 
  416000     1.179524   -7.2235048    145.52698  0.029152039  0.029984229            3 
  417000    1.2247943   -7.2124456    146.43071  0.029262732  0.029977594            2 
  418000    1.1613505   -7.2321738    146.05806  0.029118433  0.029971167            2 
  419000    1.1852216   -7.2215639    146.52052  0.029140915  0.029964047            3 
  420000    1.2141367   -7.2185308    147.12194  0.029190861  0.029957068            1 
  421000    1.1943161   -7.2258612    147.22384  0.029141693  0.029950503            1 
  422000    1.1837962   -7.2480949    147.81643  0.029189658  0.029943821            5 
  423000    1.1764068   -7.1581138    148.34682  0.029225141  0.029938065            2 
  424000    1.1767069   -7.2186149    148.71943  0.029229447  0.029931777            1 
  425000    1.1823932   -7.2120705    148.37895  0.029093912  0.029925185            2 
  426000    1.1858997   -7.2065958    148.79297  0.029106606  0.029918122            2 
  427000    1.1751007   -7.2220266    149.13828  0.029105832  0.029911939            6 
  428000    1.2062667   -7.2307138    149.34662  0.029078391  0.029905755            4 
  429000    1.1831619   -7.2563875    149.77119  0.029093083  0.029898393            3 
  430000      1.19601   -7.2183561    150.65212  0.029196147  0.029891538            2 
  431000     1.163652   -7.1990755    150.92148  0.029180487  0.029885102            3 
  432000    1.1633656   -7.2377555    151.01678  0.029131324  0.029878745            4 
  433000    1.1882386   -7.2334313      151.499  0.029156852  0.029871818            2 
  434000    1.1942174   -7.2004988    151.51421  0.029092591  0.029865372            4 
  435000     1.185306   -7.2676883    151.87381  0.029094599  0.029858883            3 
  436000    1.1894447   -7.2467066    152.33318  0.029115668  0.029851854            1 
  437000    1.1598158   -7.2344333    151.90908   0.02896817  0.029844891            1 
  438000    1.1859777   -7.2121187    153.35196  0.029176552  0.029837754            2 
  439000    1.1714408   -7.2252055    153.42956  0.029124821   0.02983124            1 
  440000    1.1673392   -7.1878121     154.3832  0.029239242  0.029825655            3 
  441000    1.1900594   -7.2566423    153.80493  0.029063668  0.029819174            2 
  442000    1.1797376   -7.2544911    154.85921  0.029196683  0.029812714            2 
  443000    1.1988788   -7.1953114    155.64415  0.029278433  0.029806814            3 
  444000    1.1759959   -7.2639878    155.40454  0.029167518  0.029801512            4 
  445000    1.1614744    -7.223621    155.69916  0.029157146  0.029796988            2 
  446000    1.1871325   -7.2086201    156.13775  0.029173721  0.029791476            2 
  447000    1.1939305   -7.2358947    156.02662  0.029087738  0.029785483            1 
  448000    1.1679203    -7.257622    156.05958   0.02902894  0.029779481            2 
  449000     1.188614   -7.2786971    156.19232  0.028988923  0.029772601            2 
  450000    1.1798025   -7.2973537    156.41739  0.028966183  0.029765141            3 
  451000    1.1890624   -7.2598778    156.75316  0.028963999  0.029757741            1 
  452000    1.1930446   -7.2369923    157.59237   0.02905464  0.029751453            3 
  453000    1.1767679   -7.1979926    157.70916  0.029011986  0.029744225            2 
  454000    1.2022415   -7.2136391    157.86424  0.028976549  0.029737331            2 
  455000    1.1570189   -7.2507241    158.26647  0.028986533  0.029730678            2 
  456000     1.191654    -7.231413    158.57562  0.028979463  0.029724039            4 
  457000    1.1881424   -7.2273492    159.11628  0.029014639  0.029716972            6 
  458000    1.1806409   -7.3061285    158.88618  0.028909421  0.029709857            2 
  459000    1.1689205   -7.2469419     158.9439  0.028856917  0.029702286            1 
  460000    1.1887174   -7.2962523    159.35377  0.028868436   0.02969456            3 
  461000    1.1850167   -7.3084997    159.52488  0.028836747  0.029686385            4 
  462000    1.1851922   -7.1929641    160.51705  0.028953292  0.029678209            3 
  463000    1.2089837   -7.2315495    160.61679  0.028908709  0.029670721            4 
  464000     1.164307   -7.2387266    161.27974   0.02896547  0.029663179            2 
  465000    1.1713527    -7.259269    161.35338  0.028916376  0.029656148            1 
  466000    1.1991407   -7.2500081      161.791  0.028932583  0.029649134            1 
  467000    1.1568074    -7.281871    161.38547  0.028798263  0.029641551            1 
  468000    1.1684535   -7.2595683    161.92721  0.028833192  0.029633318            1 
  469000    1.1772161   -7.2240935    161.86117  0.028759981  0.029625127            1 
  470000    1.1719926   -7.2084007    162.57919  0.028826097  0.029616825            2 
  471000    1.1997546   -7.2431806    162.29868  0.028715265  0.029608799            3 
  472000    1.1808739   -7.2367775    163.31007  0.028832993  0.029600618            3 
  473000    1.1671476   -7.2602375    163.26426  0.028763965  0.029592597            2 
  474000    1.1607291   -7.2476419    163.88816  0.028812967  0.029584037            2 
  475000    1.1909785   -7.2357687    163.91426  0.028756887  0.029576436            4 
  476000    1.1758445   -7.2076624    165.02845  0.028891536  0.029568301            1 
  477000    1.1795528   -7.2357435    164.61502  0.028758739  0.029559997            2 
  478000    1.1748425   -7.2464052    165.09028  0.028781429   0.02955198            1 
  479000    1.1622316    -7.247848    165.19724  0.028739951  0.029543614            2 
  480000    1.1594515   -7.2606464    165.37657  0.028711209  0.029535239            1 
  481000    1.1918373   -7.2604487    165.50314  0.028673448  0.029527046            2 
  482000    1.1757229   -7.2409573    166.45596  0.028778693  0.029519011            2 
  483000    1.1746402   -7.2438171    167.37822  0.028878229  0.029512056            1 
  484000      1.19028   -7.2557373    167.03344  0.028759202  0.029504548            2 
  485000    1.1838799   -7.2422934    167.81024  0.028833374  0.029497378            2 
  486000    1.1904725   -7.2674265    167.72389  0.028759241   0.02948941            5 
  487000    1.1651775   -7.2648981    167.80346  0.028713803  0.029482144            5 
  488000    1.1677244   -7.2510722    168.57288  0.028786353  0.029474913            3 
  489000    1.1705685   -7.2257395    169.32371  0.028855437  0.029467642            1 
  490000    1.1579279   -7.2702943    169.58902   0.02884167  0.029460979            2 
  491000    1.1648124   -7.2651175    169.43753  0.028757219  0.029453718            3 
  492000    1.1572513   -7.2566808    169.01772  0.028627663  0.029446121            3 
  493000    1.1634918   -7.2755856     169.6677  0.028679463   0.02943872            3 
  494000    1.1842201   -7.2288412    170.08528  0.028691849  0.029430736            1 
  495000    1.1503128   -7.2575423    170.83796    0.0287606  0.029422731            3 
  496000    1.1645807   -7.2205197    170.80097  0.028696399  0.029415334            3 
  497000    1.1604353   -7.2338007    171.52742  0.028760467  0.029407748            5 
  498000    1.1471993   -7.2670925    171.01015  0.028616156  0.029399663            4 
  499000      1.16798   -7.2270652    171.85301  0.028699568   0.02939083            2 
  500000     1.166952   -7.2582877    170.99125  0.028498541  0.029382102            1 
  501000    1.1674846   -7.2551758    172.21169   0.02864466  0.029373337            6 
  502000     1.205733   -7.2728071    172.29236   0.02860099  0.029365161            4 
  503000    1.1868376   -7.3440083    171.66311  0.028439879  0.029355898            1 
  504000    1.1688345   -7.2605344    171.88362   0.02841991  0.029346456            3 
  505000     1.162784   -7.2388259    173.20557  0.028581777  0.029337553            3 
  506000    1.1803922    -7.235686    173.23394  0.028529964  0.029328923            3 
  507000    1.1529851   -7.2686699    173.75963  0.028560097  0.029319675            2 
  508000     1.152049   -7.2571109    174.38661  0.028606727  0.029310596            4 
  509000    1.1866273   -7.2778922    174.54398   0.02857629  0.029302199            3 
  510000    1.1815286    -7.231853     175.0758  0.028607156  0.029293886            3 
  511000    1.1491708   -7.2681968    174.81076  0.028507952  0.029285544            2 
  512000     1.174039   -7.2184213     175.8907  0.028628044  0.029277635            5 
  513000    1.1737551   -7.2670337     175.8514  0.028565855  0.029269755            1 
  514000    1.1763473    -7.246448    176.05376  0.028543087  0.029261912            1 
  515000    1.1704914   -7.1907143    177.09544  0.028656221  0.029254183            1 
  516000     1.161078   -7.3063507     176.0966  0.028439374  0.029245906            2 
  517000     1.176707   -7.2405324    176.79152  0.028496376  0.029237391            1 
  518000    1.1595665   -7.2517682    177.19917  0.028506945  0.029229062            1 
  519000    1.1684361   -7.2329776    177.48135  0.028497327   0.02922077            2 
  520000     1.161484   -7.2546286    178.21057  0.028559387   0.02921279            2 
  521000    1.1629157   -7.2802354    178.75544  0.028591721  0.029205198            4 
  522000    1.1529678   -7.2490871    179.82718  0.028708043  0.029197598            2 
  523000    1.2039822   -7.3108584    178.91376  0.028507609  0.029190418            4 
  524000    1.1796946   -7.2887984    179.36055   0.02852426  0.029183052            4 
  525000    1.1744361   -7.2242371    180.72037  0.028685773  0.029176294            3 
  526000    1.1827277   -7.2479985    180.61634  0.028614756  0.029169126            4 
  527000    1.1671028   -7.2385321     180.5698    0.0285531  0.029162111            2 
  528000    1.1627839   -7.3000008    180.16543  0.028435201  0.029155029            2 
  529000    1.1653392    -7.299953    181.30519  0.028560994  0.029147465            2 
  530000    1.1633525   -7.2562075    181.63034  0.028558229  0.029140948            2 
  531000    1.1734514   -7.2853801    181.64399   0.02850659  0.029134359            3 
  532000    1.1538038   -7.2939323    181.98233  0.028506004  0.029127225            2 
  533000    1.1571712   -7.2935639    182.83923  0.028586497  0.029119937            2 
  534000    1.1775794   -7.2606182    183.07941  0.028570445  0.029112905            5 
  535000    1.1648784   -7.2810053    183.44461  0.028573927  0.029105791            3 
  536000    1.1966603   -7.2587292      183.469   0.02852441  0.029098992            4 
  537000     1.169175   -7.2078406    183.53086   0.02848089  0.029091752            3 
  538000    1.1868945   -7.2387215    184.29647  0.028546541  0.029085107            3 
  539000    1.1524809     -7.29725    183.87884   0.02842901  0.029078062            3 
  540000    1.1512122   -7.2756835    184.35352  0.028449617   0.02907083            2 
  541000    1.2006661   -7.2965142    183.92745  0.028331401  0.029063526            2 
  542000    1.1584303   -7.3139667    184.12194  0.028309031  0.029055484            5 
  543000    1.1734552   -7.2733376    185.14171    0.0284134  0.029047711            1 
  544000    1.1587431   -7.2098437    185.80538  0.028462835  0.029040184            4 
  545000     1.145132   -7.2532456    185.64982  0.028386822  0.029032428            2 
  546000    1.1737334   -7.2432313    186.19311  0.028417752  0.029024436            2 
  547000    1.1487658   -7.3009393    185.29454  0.028228906  0.029015785            2 
  548000    1.1686542   -7.2115292    186.85223  0.028414269  0.029007054            2 
  549000    1.1674612   -7.2467199    186.59911   0.02832409  0.028998748            2 
  550000    1.1414784   -7.2722423     186.9657  0.028328137  0.028990119            3 
  551000    1.1425327   -7.2828221    186.83953  0.028257643  0.028981573            2 
  552000    1.1702592   -7.2980753    186.68317  0.028182845  0.028972913            2 
  553000    1.1500808   -7.2662356    187.88091  0.028312373  0.028964243            2 
  554000     1.159599   -7.2712939    188.18965  0.028307709  0.028956178            1 
  555000    1.1717278   -7.2743128     189.0673  0.028388483  0.028947769            3 
  556000    1.1504564   -7.2490714    188.65031  0.028274927  0.028940126            3 
  557000    1.1785097    -7.236019    189.06899  0.028286802  0.028931803            2 
  558000    1.1419661   -7.2875863    189.22248  0.028259032  0.028923585            3 
  559000    1.1653113   -7.3209839     189.8635   0.02830404  0.028915625            2 
  560000    1.1635638   -7.2651916    190.11889  0.028291502  0.028907621            4 
  561000    1.1749071   -7.2345295    190.93889  0.028362877  0.028899962            1 
  562000    1.1619356    -7.281274    190.13242  0.028192826  0.028892071            4 
  563000    1.1276893   -7.2815768    190.85923  0.028250331   0.02888372            3 
  564000    1.1682829    -7.240595    191.09486  0.028235056  0.028875286            1 
  565000    1.1393559   -7.3296752    190.69529  0.028126148  0.028866471            4 
  566000    1.1435412   -7.3218089    191.27028  0.028161114  0.028858049            2 
  567000    1.1615174   -7.2761334    192.05342  0.028226546  0.028849969            3 
  568000    1.1599308    -7.299772    191.94568  0.028161044  0.028841936            2 
  569000    1.1766821   -7.2933586    191.81221  0.028092005  0.028833466            4 
  570000    1.1783324   -7.2916094    193.14399  0.028237426  0.028825146            3 
  571000    1.1585512   -7.3381758    192.57076  0.028104314  0.028817319            2 
  572000    1.1577665   -7.2654681    193.56316  0.028199761  0.028809356            3 
  573000    1.1880501   -7.2520491    193.77695  0.028181639  0.028801777            3 
  574000    1.1335342   -7.2936009    193.28586  0.028061246   0.02879357            3 
  575000    1.1605303   -7.3086168    193.64135  0.028063964   0.02878487            4 
  576000     1.161682   -7.3221957    194.23359  0.028100925  0.028776201            1 
  577000    1.1530711   -7.2825262    194.12965   0.02803721   0.02876729            2 
  578000    1.1650528   -7.2608546    194.78739  0.028083534  0.028758697            2 
  579000    1.1672437   -7.2960125    194.94876  0.028058255  0.028750535            1 
  580000    1.1361941   -7.2745101    195.49604  0.028088512  0.028742426            2 
  581000    1.1339212   -7.2759544    196.18995  0.028139694   0.02873408            2 
  582000    1.1447168   -7.3084709    196.08296  0.028076025  0.028725581            3 
  583000    1.1643418   -7.2865009    195.50064  0.027944631  0.028716745            7 
  584000    1.1370857   -7.2988367    196.34197  0.028016834  0.028708088            3 
  585000    1.1493018   -7.3012914    196.84309  0.028040326  0.028699425            2 
  586000    1.1658126   -7.3140846    196.59836  0.027957673  0.028690711            3 
  587000    1.1457941   -7.3114117    197.36561  0.028018968  0.028681431            4 
  588000    1.1527192   -7.3189718    196.97493  0.027915949  0.028672365            2 
  589000     1.156016   -7.2810484    197.86192  0.027994046  0.028663593            2 
  590000     1.144117   -7.2885936    198.39327  0.028021648   0.02865456            1 
  591000    1.1584075   -7.2853087    198.31332  0.027962961  0.028645398            2 
  592000    1.1602464   -7.2944866    198.05711  0.027879661  0.028635979            3 
  593000    1.1761877   -7.3276604    198.27479  0.027863237  0.028626549            2 
  594000     1.163824   -7.2940445    198.62205  0.027865046   0.02861717            5 
  595000    1.1600401    -7.311872     198.1457  0.027751498  0.028607343            3 
  596000    1.1562292   -7.2848139    199.74586  0.027928671  0.028597533            3 
  597000    1.1463506   -7.2625681    200.09496   0.02793062  0.028587876            3 
  598000    1.1405152   -7.2820574    199.55272   0.02780835  0.028578103            3 
  599000    1.1562482    -7.257495     200.3462  0.027872315  0.028568349            3 
  600000    1.1435173    -7.362935    199.51961  0.027711057  0.028558728            3 
  601000     1.158136   -7.2872802    200.85307  0.027849843  0.028549058            2 
  602000    1.1400916    -7.257673    201.92756   0.02795232  0.028539836            4 
  603000    1.1598757    -7.306848    201.38852  0.027831471  0.028530526            1 
  604000    1.1517034   -7.3188572    201.60012  0.027814586  0.028521488            4 
  605000    1.1368369   -7.2797791     202.2487  0.027857948  0.028512483            1 
  606000    1.1596671    -7.299109    202.27417   0.02781548   0.02850363            3 
  607000    1.1546248    -7.315211    202.27525  0.027769804  0.028494093            3 
  608000    1.1523314   -7.3033453    202.71918  0.027784976  0.028485227            2 
  609000    1.1708113   -7.3320432    203.16932  0.027800947  0.028476157            1 
  610000    1.1688549   -7.3160133    202.73286  0.027695746   0.02846644            2 
  611000    1.1650807   -7.2818996    203.94457   0.02781568  0.028456944            5 
  612000    1.1751052   -7.3242319    204.14955  0.027798141  0.028447758            2 
  613000    1.1468783   -7.2883839    204.31505  0.027775292  0.028438837            2 
  614000    1.1370013   -7.3061788    204.59873  0.027768557  0.028429696            2 
  615000    1.1616108   -7.3246248    205.15731  0.027799094  0.028420417            2 
  616000    1.1550133   -7.3533793    204.42953   0.02765551    0.0284108            4 
  617000     1.170854   -7.3227615    204.84476  0.027666769  0.028401259            5 
  618000    1.1616273   -7.3008566    206.19077  0.027803501  0.028391801            3 
  619000     1.115988   -7.2632623    206.30409  0.027773841   0.02838297            1 
  620000    1.1640121   -7.2848493    206.66734  0.027777869  0.028374052            3 
  621000    1.1414899    -7.351308    206.33453  0.027688477  0.028365046            3 
  622000    1.1652286   -7.3592706    206.19388  0.027625119  0.028355871            4 
  623000    1.1566084   -7.2953721    207.33081  0.027732854  0.028346858            5 
  624000    1.1651769   -7.3222878    207.34967  0.027690927  0.028338336            3 
  625000    1.1547245   -7.3443648    207.80753   0.02770767  0.028329649            3 
  626000    1.1538561   -7.3024078    208.40383  0.027742789   0.02832099            4 
  627000    1.1726075   -7.3073527    208.37267  0.027694401  0.028312727            3 
  628000    1.1600301   -7.3596462    208.45743  0.027661548  0.028304145            1 
  629000    1.1419272   -7.3114228    208.48974  0.027621852  0.028295392            1 
  630000    1.1300261   -7.3276959     209.3008  0.027685291    0.0282865            5 
  631000    1.1325442   -7.3542689    209.44278  0.027660167   0.02827847            7 
  632000    1.1361492    -7.315294     209.8196  0.027666086  0.028269993            2 
  633000    1.1532923   -7.3443286    209.89328   0.02763208  0.028261482            2 
  634000    1.1496631   -7.3342989    210.26585  0.027637467  0.028252506            2 
  635000    1.1424914    -7.302322    211.15702  0.027710894  0.028243846            6 
  636000      1.14026   -7.3036956      211.624  0.027728511  0.028235452            3 
  637000    1.1321354   -7.3046256    211.27776  0.027639687   0.02822764            2 
  638000    1.1388127   -7.3386036    211.35494  0.027606445  0.028219024            3 
  639000    1.1226373   -7.3705448    211.35164  0.027562812  0.028210668            4 
  640000     1.157569   -7.3333313    211.64171  0.027557515   0.02820218            4 
  641000    1.1436502   -7.2950939     213.8808  0.027805616  0.028193908            5 
  642000    1.1472364    -7.327444    213.23876  0.027678967  0.028185912            3 
  643000    1.1223255    -7.314156    212.66526  0.027561594  0.028177298            2 
  644000    1.1433741   -7.3423584    212.77636  0.027533173  0.028168982            3 
  645000    1.1365673   -7.3187897    214.02709  0.027652078  0.028160342            3 
  646000    1.1519496    -7.338965     214.1991  0.027631463  0.028152177            3 
  647000    1.1631108   -7.2952224    214.16693  0.027584613  0.028143991            4 
  648000    1.1489991   -7.3475481    214.31376  0.027560926  0.028135649            8 
  649000    1.1395674   -7.3025795    215.15259  0.027626168  0.028127364            2 
  650000    1.1256442   -7.3180962    214.43276   0.02749138  0.028118912            2 
  651000    1.1178768   -7.3292472    215.61321  0.027600257  0.028110882            1 
  652000    1.1517378   -7.3673078    215.80958  0.027583024  0.028103052            4 
  653000    1.1356994   -7.3309654    215.54484  0.027506998  0.028095178            4 
  654000    1.1576574   -7.3622106    215.99236  0.027521963  0.028087237            3 
  655000    1.1298879   -7.3128232    216.91494   0.02759732  0.028079654            2 
  656000    1.1162199   -7.3160145    218.52664   0.02775999  0.028072582            3 
  657000    1.1393154   -7.3279228    218.19521  0.027675699  0.028065341            2 
  658000     1.156877    -7.389281    217.68213  0.027568658  0.028058533            4 
  659000    1.1746252   -7.3186806    218.99518  0.027692865  0.028051432            2 
  660000    1.1418789   -7.3679938    218.90807  0.027639907  0.028044313            3 
  661000    1.1277201   -7.2903413    219.84206  0.027715842  0.028037469            4 
  662000    1.1380752   -7.2997796    219.62269  0.027646361  0.028030747            4 
  663000    1.1109359   -7.3450372    219.46387  0.027584699   0.02802346            3 
  664000    1.1191773   -7.3396701    219.33451  0.027526922  0.028016256            6 
  665000    1.1412648   -7.3428104    219.49883  0.027506119  0.028008128            3 
  666000    1.1432605    -7.324024    220.03392  0.027531772  0.028000284            2 
  667000    1.1666515    -7.340676    219.47845  0.027421096  0.027992131            7 
  668000    1.1483277   -7.3585456    220.25813  0.027477312   0.02798433            2 
  669000    1.1496886   -7.3196895    220.94374  0.027521642  0.027976545            3 
  670000    1.1552314   -7.3350503    221.24302  0.027517789  0.027969136            5 
  671000    1.1176623   -7.3725183    220.92493  0.027437274  0.027961567            1 
  672000    1.1332193   -7.2938911    222.86247  0.027636715  0.027954174            1 
  673000    1.1445456    -7.328525    221.03312  0.027369133  0.027946342            5 
  674000    1.1277085   -7.2773012    221.87696  0.027432858   0.02793844            5 
  675000    1.1527558   -7.3707869    221.43021  0.027337063  0.027930487            4 
  676000     1.149325    -7.329023    222.70497  0.027453769  0.027922824            1 
  677000    1.1387451   -7.3749989    222.52338  0.027390865  0.027915098            2 
  678000     1.111522   -7.3651391    222.36365  0.027330832  0.027907142            2 
  679000    1.1312923   -7.2587667    223.95148  0.027485455  0.027899265            3 
  680000    1.1429994   -7.2935361    223.94916  0.027444749  0.027891605            1 
  681000    1.1367093   -7.3442357    224.15985  0.027430231   0.02788357            4 
  682000     1.153114   -7.3585058    223.77608  0.027343118  0.027875646            2 
  683000    1.1451438   -7.3615003    223.37351  0.027253966  0.027867199            3 
  684000    1.1113189   -7.3156033    224.45234  0.027345558  0.027858729            3 
  685000    1.1306801   -7.2699987    225.02629  0.027375461  0.027850197            2 
  686000     1.125868   -7.3185673    224.62578  0.027286902  0.027841762            2 
  687000    1.1531373   -7.3213209    225.57212  0.027361975  0.027833344            2 
  688000     1.143201   -7.3466677    225.06986  0.027261369  0.027824746            3 
  689000    1.1540755   -7.3263534    225.95664  0.027329057  0.027816128            5 
  690000    1.1383354   -7.3418464    226.06795  0.027302893   0.02780756            2 
  691000    1.1212037   -7.2782344    226.79848  0.027351481  0.027798992            3 
  692000     1.146918   -7.3731203     226.6714  0.027296652  0.027790556            4 
  693000    1.2007023   -7.3219497    226.86267  0.027280263  0.027782053            2 
  694000    1.1494399   -7.3604718    227.03402   0.02726153   0.02777414            3 
  695000    1.1123952   -7.3567956    227.82676  0.027317357  0.027766175            1 
  696000    1.1535119    -7.312589    228.34386  0.027340022  0.027758654            2 
  697000    1.1437765   -7.3562267    228.25776  0.027290502  0.027751204            6 
  698000    1.1454192   -7.3453034    228.25963  0.027251627  0.027743622            4 
  699000    1.1568416   -7.3467334    228.44242  0.027234432  0.027735786            1 
  700000    1.1574271    -7.355356      228.265  0.027174405  0.027727622            2 
  701000     1.142021   -7.3825765    228.62539  0.027178482  0.027719423            2 
  702000    1.1406595   -7.3540618    229.48196  0.027241449   0.02771127            3 
  703000     1.127158   -7.3584743    229.32449  0.027184032  0.027702973            3 
  704000    1.1382724   -7.3584696    229.53226  0.027170012  0.027694648            1 
  705000    1.1356482   -7.3098773    230.31589  0.027224101  0.027686259            3 
  706000    1.1486447   -7.3372201    229.99108    0.0271472  0.027678139            1 
  707000    1.1671978   -7.3001429    230.43245  0.027160826  0.027669722            3 
  708000    1.1423188   -7.3607455    230.03856  0.027076101  0.027661049            1 
  709000    1.1409332   -7.3219946    230.58952   0.02710267   0.02765232            8 
  710000    1.1664115    -7.304235    231.11234  0.027125861  0.027643725            3 
  711000    1.1277198   -7.3478919    230.81133  0.027052429  0.027635032            1 
  712000    1.1318945   -7.3705046     230.6286  0.026993047  0.027625916            1 
  713000     1.119757   -7.3367312    231.25924  0.027028897  0.027616802            3 
  714000    1.1431314   -7.3022781    231.81411  0.027055802  0.027607575            2 
  715000    1.1217008    -7.354972    231.88611  0.027026353  0.027598428            2 
  716000     1.126649   -7.3369817    231.84779  0.026984147  0.027589049            2 
  717000    1.1508955   -7.3119507    232.93952  0.027073399  0.027580255            3 
  718000    1.1397014   -7.3682233     232.7588  0.027014717  0.027571731            5 
  719000    1.1608648   -7.3787753    232.89165  0.026992541  0.027562836            1 
  720000    1.1280263    -7.395829    232.44333  0.026903163  0.027553837            2 
  721000    1.1165989   -7.3409801    233.43581  0.026980561   0.02754477            4 
  722000    1.1272349   -7.3498601    234.32552  0.027045882  0.027535746            2 
  723000    1.1261214   -7.3544949    233.24976  0.026884481  0.027526673            1 
  724000    1.1124858   -7.3578444    234.04981  0.026939435  0.027517644            2 
  725000    1.1377076   -7.3621334    234.58661  0.026963978  0.027508541            5 
  726000    1.1268383   -7.3839674    235.12989  0.026989197  0.027499815            3 
  727000    1.1374956   -7.3192944    235.43191  0.026986693  0.027490913            3 
  728000    1.1199137   -7.3755223    234.69146  0.026864865  0.027481987            5 
  729000     1.154943    -7.387133    234.62128  0.026819991  0.027473039            5 
  730000    1.1340141   -7.3782715    235.50462  0.026884089  0.027463973            2 
  731000    1.1277873   -7.3103074    236.54349  0.026965742  0.027455013            2 
  732000     1.134467   -7.3628214    236.35504   0.02690745   0.02744653            3 
  733000    1.1111271   -7.3645015    236.36713  0.026872116  0.027437737            2 
  734000    1.1349994   -7.3623402    236.87875  0.026893592  0.027428534            2 
  735000    1.1525597    -7.381026    236.54458  0.026819113  0.027419775            4 
  736000     1.130016   -7.3478869    237.89001   0.02693501  0.027411028            5 
  737000    1.1460109   -7.3470481    237.37365  0.026840079  0.027401994            3 
  738000    1.1741904   -7.3532605    238.30587  0.026908974   0.02739308            4 
  739000    1.1482859   -7.3697474    237.52712  0.026784745  0.027384235            4 
  740000    1.1313518   -7.3881772    237.94037  0.026795087   0.02737485            1 
  741000    1.1332084   -7.3101309    238.27673  0.026796754  0.027365558            3 
  742000    1.1331391   -7.3828925    238.25392  0.026758077  0.027356236            1 
  743000    1.1389111   -7.3788098     237.7886  0.026669875   0.02734678            4 
  744000    1.1416639   -7.3604957    238.89863  0.026758359  0.027337665            2 
  745000     1.153518   -7.3864928    238.95292  0.026728515  0.027328297            2 
  746000    1.1270149   -7.3563823    239.28257   0.02672951  0.027319171            1 
  747000    1.1568559   -7.3469647    239.91483   0.02676426  0.027310265            4 
  748000    1.1228617   -7.3646937    240.14327  0.026753929  0.027301153            2 
  749000    1.1407056   -7.3339663      240.551  0.026763574  0.027292425            3 
  750000    1.1036121   -7.3252884    240.95675  0.026772973   0.02728387            2 
  751000    1.1286973   -7.3920378    241.07559  0.026750509  0.027275182            3 
  752000    1.1458297   -7.3548781    242.13743  0.026832605  0.027266544            2 
  753000    1.1416782   -7.3772135    242.51476   0.02683873  0.027258201            4 
  754000    1.1298123   -7.3538054     242.2663  0.026775674   0.02724994            2 
  755000    1.1056103   -7.3270043    242.75159  0.026793774  0.027241808            3 
  756000    1.1335184   -7.3304888    244.00141  0.026896099  0.027234007            4 
  757000    1.1354231   -7.3220916    244.53558  0.026919373   0.02722672            2 
  758000    1.1200795   -7.4096918    243.22908  0.026740225  0.027219037            1 
  759000    1.1515394   -7.3945022    243.87496  0.026775907  0.027211076            2 
  760000    1.1195292   -7.3439398    244.73373  0.026834838  0.027203545            2 
  761000    1.1513327   -7.3886972    244.59645  0.026784544   0.02719584            3 
  762000    1.1395109   -7.3433478     245.3319  0.026829823  0.027187829            6 
  763000    1.1524898   -7.3894608    244.50224  0.026704046  0.027179998            3 
  764000    1.1372569   -7.3478955    246.15283  0.026849131  0.027171999            7 
  765000    1.1297401   -7.3447041     245.7644  0.026771721  0.027164224            2 
  766000    1.1112059   -7.3766007    245.01825  0.026655597  0.027156141            2 
  767000    1.1222271   -7.4154837    244.83255  0.026600668  0.027147785            4 
  768000    1.1203021   -7.3871537    246.00251   0.02669298  0.027139197            4 
  769000     1.134372   -7.3652432    245.40781  0.026593824  0.027130902            2 
  770000    1.1235565   -7.3840467     246.7629  0.026705942   0.02712262            4 
  771000    1.1152625   -7.3260872    247.20116  0.026718673  0.027114248            7 
  772000    1.1329872   -7.3984683    247.01939  0.026664442   0.02710587            5 
  773000    1.1514087   -7.4113391    246.81489  0.026607901  0.027097467            2 
  774000    1.1412653   -7.3646257    246.68771  0.026559831  0.027088944            3 
  775000    1.1126257   -7.3818113    246.84763  0.026542756  0.027080595            3 
  776000    1.0888233    -7.406799    247.72259  0.026602512  0.027072132            4 
  777000    1.1318831   -7.3212349    249.00771  0.026706104  0.027064224            4 
  778000    1.0982637   -7.4385003    248.35049   0.02660138  0.027056017            3 
  779000    1.1266142   -7.3598149    249.10351  0.026647787  0.027047893            2 
  780000    1.1265239   -7.3506257    250.40344  0.026752504  0.027039802            2 
  781000    1.1243846   -7.3941994    249.90705  0.026665285  0.027031773            5 
  782000    1.1290273   -7.3932372    250.44871  0.026688907   0.02702397            2 
  783000     1.138166   -7.3923089    250.00615  0.026607721  0.027016246            2 
  784000    1.1011036   -7.3655063    250.63754  0.026640895  0.027008602            3 
  785000    1.1318108   -7.4147432    250.97813  0.026643114  0.027000828            3 
  786000    1.1331878   -7.3877387    250.30191  0.026537522  0.026993126            5 
  787000    1.1332014   -7.3583312    251.60199  0.026641465  0.026985455            3 
  788000    1.1554657   -7.3612772     252.5649  0.026709486   0.02697819            2 
  789000    1.1322272   -7.3797184    252.41808  0.026660127  0.026970985            2 
  790000    1.0997588   -7.3556389    253.26067   0.02671526  0.026963788            3 
  791000    1.1547338   -7.4096112    253.21418  0.026676588  0.026956797            3 
  792000    1.1514461   -7.3607804    253.48082  0.026670962  0.026949956            4 
  793000    1.1149616   -7.3361555    255.15733  0.026813507   0.02694313            3 
  794000    1.1031008   -7.3551513    255.87784  0.026855357   0.02693662            3 
  795000    1.1141538   -7.3900017    254.76876  0.026705321  0.026930286            5 
  796000    1.1021784   -7.3710619    255.55952  0.026754556  0.026923937            1 
  797000    1.1442278   -7.3838041    255.94046  0.026760818  0.026917637            5 
  798000    1.1196321   -7.4229307    255.04103  0.026633358   0.02691136            9 
  799000    1.1274332    -7.349654     257.1137  0.026816197  0.026904956            2 
  800000    1.1166486   -7.3314292    256.30881  0.026698835   0.02689875            4 
  801000     1.122535   -7.4095016    256.64987  0.026700986  0.026892465            2 
  802000    1.1133384   -7.4007526    256.34273  0.026635779   0.02688588            2 
  803000    1.1322268   -7.3645717    257.68759  0.026742174  0.026879397            3 
  804000    1.1115675   -7.3496057    257.46047  0.026685372  0.026872773            3 
  805000    1.1234655   -7.3970016    256.52529  0.026555413  0.026866044            1 
  806000    1.1187858   -7.3852281     258.5613  0.026732971  0.026859723            2 
  807000    1.1288733   -7.3894521    258.54165  0.026697816  0.026853463            4 
  808000    1.1216651   -7.4197926    257.78267  0.026586496  0.026847016            8 
  809000     1.106008   -7.4118231    258.51628  0.026629201  0.026840557            2 
  810000     1.116222    -7.378883    258.98472  0.026644518  0.026834222            1 
  811000    1.1487161   -7.3723032    259.52974  0.026667667  0.026828181            3 
  812000    1.1006001   -7.3562988    260.53028  0.026737508  0.026822011            4 
  813000    1.1047134   -7.4001151    259.91123  0.026641168  0.026815811            4 
  814000    1.1234365    -7.396445    259.61867  0.026578488  0.026809297            2 
  815000    1.1291967   -7.4074882    260.39925   0.02662569  0.026802774            3 
  816000    1.1161376   -7.4283686    259.50002  0.026501228  0.026796312            1 
  817000    1.1145475   -7.4004186    260.91048  0.026612656   0.02678974            2 
  818000    1.1360977     -7.40532    260.80783  0.026569665  0.026783445            3 
  819000    1.1370664   -7.3413653    262.27263  0.026686267  0.026777551            2 
  820000    1.1378051   -7.4025806    261.83367  0.026609113  0.026771524            2 
  821000    1.1001418   -7.4126329    261.44383  0.026537132  0.026765531            3 
  822000     1.130113   -7.3757982    262.41678  0.026603486  0.026759399            2 
  823000    1.1170453   -7.3699871    262.20274  0.026549487  0.026753414            1 
  824000    1.1391475   -7.3936557    262.34064  0.026531213  0.026747101            3 
  825000    1.1131583   -7.3642995    264.10066  0.026676835  0.026740901            2 
  826000    1.0988421   -7.3840718    263.61172   0.02659521  0.026734805            3 
  827000     1.098615   -7.3754244     263.8207  0.026584109  0.026728671            2 
  828000    1.1593722   -7.3929284    263.64119  0.026533937  0.026722397            3 
  829000    1.1236044    -7.408805    264.19654  0.026557754  0.026716081            2 
  830000    1.1155385   -7.3836835    264.81422  0.026587773  0.026709723            4 
  831000    1.1082143   -7.4028297    263.63016   0.02643704   0.02670312            5 
  832000    1.1284384   -7.4025694    265.05234   0.02654771  0.026696343            2 
  833000    1.1006751   -7.4121705    264.27354  0.026437929  0.026689744            3 
  834000    1.1117299   -7.3880587    265.26631  0.026505427  0.026683147            2 
  835000    1.1137555   -7.4390376    264.81511  0.026428653  0.026676497            3 
  836000    1.1054571   -7.4077554    265.35687  0.026451044  0.026669768            3 
  837000     1.117854   -7.4054069    265.41767  0.026425495  0.026663199            2 
  838000    1.1246982   -7.3870635    265.94918  0.026446815  0.026656565            4 
  839000    1.1015683   -7.3984819    266.71756  0.026491613  0.026649978            3 
  840000    1.1101151   -7.4018224    266.19495  0.026408229  0.026642995            4 
  841000     1.118963   -7.3953834    266.32381  0.026389597  0.026636143            1 
  842000    1.1356393   -7.3918367    265.73471  0.026299952  0.026629272            3 
  843000    1.1278359   -7.4017463    267.33247  0.026426698   0.02662223            4 
  844000     1.121424    -7.414031    266.75073  0.026337947  0.026614991            4 
  845000    1.1183346   -7.3845338    267.64214  0.026394688  0.026607619            2 
  846000    1.1064127   -7.4218506    266.73463  0.026274097   0.02660043            3 
  847000    1.1070322   -7.3718054    267.61501  0.026329694  0.026593099            2 
  848000    1.1299941   -7.3687649     267.9492  0.026331486   0.02658581            3 
  849000     1.125215   -7.4047266    267.51126  0.026257485  0.026578633            3 
  850000     1.102723   -7.3963075    268.77046  0.026350045  0.026571526            2 
  851000    1.0985032   -7.4529926    267.84533  0.026228489  0.026564314            3 
  852000    1.1291561   -7.4139769     269.2101  0.026331191  0.026557123            3 
  853000    1.0853914   -7.4549841    269.06281  0.026285933  0.026550113            3 
  854000    1.1213885   -7.4271704    269.46433  0.026294333  0.026543284            1 
  855000    1.1276407   -7.4084755    270.15039  0.026330448  0.026536359            6 
  856000    1.1251608   -7.3746404    270.64958  0.026348284  0.026529865            3 
  857000    1.1127435   -7.3864614    271.00958  0.026352545  0.026523226            4 
  858000    1.1194161   -7.4048395    269.90063  0.026214125   0.02651665            5 
  859000    1.1274629    -7.403624    271.24775  0.026314295  0.026509662            3 
  860000    1.1268009   -7.4106606    270.92293  0.026252221  0.026502818            3 
  861000    1.0949268   -7.4002003    271.24477  0.026252881  0.026495978            3 
  862000    1.1272835   -7.4537064    270.27407  0.026128583  0.026489084            4 
  863000    1.1143687    -7.417639    271.33324  0.026200583  0.026482026            2 
  864000    1.1013364   -7.4183475    271.47578  0.026184006  0.026475065            3 
  865000    1.1254631   -7.4133804     272.0262  0.026206763   0.02646795            1 
  866000    1.1240972   -7.4406667    272.72215  0.026243471   0.02646105            3 
  867000    1.1324934   -7.4383714    273.32437  0.026271085  0.026454229            1 
  868000    1.1128224   -7.3614236    273.75212  0.026281886  0.026447256            3 
  869000    1.1131151   -7.3542491    274.16497  0.026291232  0.026440481            4 
  870000    1.1219779   -7.4645369    272.97206  0.026146749  0.026433846            2 
  871000    1.1174866   -7.4314165    273.44974  0.026162432  0.026426755            2 
  872000    1.1324475   -7.4183038    274.33988  0.026217496  0.026419652            3 
  873000     1.113686   -7.4053255    274.84131  0.026235329  0.026412804            3 
  874000    1.1196036   -7.4093601    274.62447  0.026184637  0.026406092            2 
  875000    1.0888338   -7.4304927    274.41797  0.026135045  0.026398987            2 
  876000    1.1079987   -7.4497145    274.36271  0.026099954  0.026391855            2 
  877000    1.1490771   -7.4302051    275.21364  0.026151049   0.02638464            3 
  878000    1.1000742   -7.4389637    274.53185  0.026056553   0.02637743            3 
  879000    1.1138756   -7.4650081    274.53308  0.026027027  0.026370147            2 
  880000    1.1032371   -7.4139265    274.78718  0.026021513   0.02636296            1 
  881000    1.1104129   -7.4292818    276.57814  0.026161383  0.026355949            2 
  882000    1.0838302   -7.4486717    276.22599   0.02609845  0.026349081            4 
  883000    1.1172622   -7.4392661    276.49638  0.026094411  0.026342059            3 
  884000    1.1163004   -7.4356144    276.61796  0.026076354   0.02633541            2 
  885000    1.1274601   -7.4273896    276.77283  0.026061471  0.026328509            3 
  886000    1.1050289   -7.4468946     276.3068  0.025988224  0.026321444            2 
  887000    1.1145912   -7.4317504    277.24566  0.026047131  0.026314453            3 
  888000    1.0973044   -7.4046467    278.78856   0.02616259  0.026307576            4 
  889000    1.1008274     -7.45109    277.99025  0.026058328  0.026300731            2 
  890000    1.1082639   -7.4046122    279.33251   0.02615473  0.026293937            2 
  891000    1.1095949   -7.4654341    277.78626  0.025980758   0.02628736            3 
  892000    1.1214077   -7.4322261    279.00739  0.026065713  0.026280556            3 
  893000    1.1029743   -7.4513037    278.76766  0.026014153  0.026273768            3 
  894000    1.1313554   -7.4483802    279.89352      0.02609  0.026266874            4 
  895000     1.110461   -7.4362455    280.21742  0.026091008  0.026260131            4 
  896000    1.0985352   -7.4205179    280.59149  0.026096679  0.026253408           14 
  897000    1.1176249   -7.4353183    280.71916  0.026079447  0.026246764            2 
  898000    1.0876943   -7.4067545    281.15253  0.026090621  0.026240512            2 
  899000    1.1330952    -7.400578    281.86283  0.026127441    0.0262341            4 
  900000    1.1000938   -7.4304827    282.09735  0.026120125  0.026227545            4 
  901000    1.1057806   -7.3505075    282.58218  0.026135976   0.02622104            1 
  902000    1.1142527   -7.4215925    282.08776  0.026061323   0.02621461            4 
  903000     1.138873   -7.4358352    281.76045  0.026002257  0.026207922            2 
  904000    1.0883067   -7.4267598    281.64224  0.025962596   0.02620099            4 
  905000    1.0981049   -7.4484385    281.87411  0.025955259  0.026193882            5 
  906000    1.1244534   -7.3872332    282.53889  0.025987756  0.026186943            8 
  907000    1.1020252   -7.4466078    283.29913  0.026028953  0.026180008            2 
  908000    1.0996251   -7.4543681     282.5103  0.025927891  0.026173144            3 
  909000    1.0955169   -7.4522259    283.43542  0.025984179  0.026166389            3 
  910000    1.0985367   -7.4359968    283.82553  0.025991349  0.026159537            3 
  911000     1.106458   -7.4205195    283.16537   0.02590243  0.026152885           10 
  912000    1.1170525   -7.4220083    284.00999  0.025951205  0.026145976            2 
  913000    1.1115806   -7.4560063    283.79035  0.025902734  0.026139139            2 
  914000    1.0972859   -7.4438351    284.33343  0.025923909  0.026132142            2 
  915000     1.113683   -7.4027812    285.28011  0.025981795  0.026125237            3 
  916000    1.1331228   -7.4087572    285.36934  0.025961548   0.02611822            2 
  917000     1.101165   -7.4118891    285.93156  0.025984329  0.026111454            3 
  918000    1.1269133   -7.4827984    284.97428  0.025869125  0.026104853            2 
  919000    1.0932457   -7.4022737    285.90877  0.025925714  0.026098146            1 
  920000    1.1141652     -7.37896    286.45597  0.025947099  0.026091494            1 
  921000    1.0949549   -7.3933677     287.1239  0.025979361  0.026085084            2 
  922000    1.0972147   -7.4354463    286.26331  0.025873401   0.02607859            2 
  923000    1.0849435   -7.4414556    286.67741  0.025882756  0.026072091            3 
  924000    1.1134786   -7.4889376    286.30889  0.025821509   0.02606525            3 
  925000    1.1047798   -7.4301733    287.47537  0.025898682  0.026058815            1 
  926000    1.1000548   -7.4256203    288.31043  0.025945863  0.026052697            2 
  927000    1.0859627   -7.4069739     288.1593  0.025904288  0.026046411            2 
  928000    1.1045423   -7.4111389    289.15778  0.025966037  0.026039957            1 
  929000    1.1068186   -7.4562542    288.39044  0.025869254  0.026033559            2 
  930000    1.0839136   -7.4421374    288.87102    0.0258845  0.026027307            5 
  931000    1.1023907   -7.3995871    290.47405  0.026000184  0.026021109            2 
  932000    1.1144705   -7.4513039    289.23289   0.02586131  0.026015006            5 
  933000    1.1001888   -7.3801082    290.25496   0.02592488  0.026008834            4 
  934000    1.0989429   -7.4234643    290.09446  0.025882803  0.026002653            2 
  935000    1.0987677   -7.4581243      290.046  0.025850802  0.025996388            2 
  936000    1.0931133   -7.4306617    290.38331  0.025853215  0.025990144            2 
  937000    1.1034755   -7.4363993    290.31719  0.025819743  0.025983675            2 
  938000    1.0849795   -7.4434452    290.72208  0.025828187  0.025977289            1 
  939000    1.0880034   -7.4173432    290.58873  0.025788847  0.025970879            2 
  940000    1.0822435    -7.460622    291.09615  0.025806396  0.025964442            3 
  941000    1.0975597   -7.4368914    292.15032  0.025872328  0.025957857            4 
  942000    1.0977577   -7.4196843    291.68354  0.025803568  0.025951291            1 
  943000    1.0935837    -7.429006    291.65639  0.025773806  0.025944865            2 
  944000    1.0957212     -7.44739    291.86309   0.02576475  0.025938246            3 
  945000    1.1187723   -7.4594262    292.25905  0.025772403  0.025931705            3 
  946000    1.0985625    -7.438142     293.6415   0.02586694  0.025925789            2 
  947000    1.0970219   -7.4387513    293.79729  0.025853335   0.02591977            3 
  948000    1.1027166   -7.4521971    293.50522  0.025800388  0.025913785            1 
  949000    1.1184987   -7.4782301     294.0665  0.025822489    0.0259077            2 
  950000    1.1007253   -7.4871713    293.41683  0.025738319  0.025901401            2 
  951000    1.0795913   -7.4366791    293.51052  0.025719463  0.025895088            3 
  952000    1.0958139   -7.4355845    294.50971  0.025779911   0.02588888            5 
  953000    1.0859802   -7.4413984    294.85439     0.025783  0.025882629            3 
  954000    1.1043736   -7.4779006    294.03154  0.025684097  0.025876398            2 
  955000    1.1085277   -7.4185901    295.89953  0.025820203  0.025870332            5 
  956000    1.0893937   -7.4407545    296.81639  0.025873116  0.025864338            3 
  957000    1.1158651   -7.4471464    296.50455  0.025818927  0.025858871            2 
  958000    1.0931812   -7.4870233    296.65663  0.025805204  0.025853213            6 
  959000     1.087787   -7.5134433    295.91743  0.025714063  0.025847419            2 
  960000    1.0935763   -7.4588553    297.20849  0.025799348  0.025841724            4 
  961000     1.103016    -7.438763    297.82634  0.025826079  0.025836215            2 
  962000    1.1091857   -7.4386901    298.15666  0.025827847  0.025830621            5 
  963000    1.1157811   -7.4587651    298.32163  0.025815302  0.025824963            2 
  964000    1.0913207   -7.4854427    297.83406  0.025746374  0.025819281            1 
  965000    1.0946538   -7.4757139    298.60533  0.025786298  0.025813659            4 
  966000    1.0874853   -7.4416214    299.24437  0.025814732  0.025807677            3 
  967000    1.1037947   -7.4871775    298.44851  0.025719451  0.025801795            3 
  968000    1.0800703   -7.4491482     298.9497  0.025736028   0.02579607            4 
  969000    1.0862351    -7.471715     298.9503   0.02570952  0.025790151            1 
  970000    1.0684461   -7.4692325    299.28544  0.025711808  0.025784192            1 
  971000    1.0795119   -7.4510741    300.01724  0.025748132    0.0257782            5 
  972000    1.1153279   -7.4669897    300.01018  0.025721037   0.02577223            4 
  973000    1.0852865   -7.4272457    299.52394  0.025652958  0.025766195            4 
  974000    1.0810052   -7.4888531    299.93517  0.025661805  0.025760316            6 
  975000    1.0988139   -7.4625544    300.63234  0.025695072  0.025754327            6 
  976000    1.0949023   -7.4704637    299.67026    0.0255866  0.025748316            1 
  977000    1.1004428    -7.459849    301.85063  0.025746386  0.025742244            2 
  978000    1.1047334   -7.4806783    299.95003  0.025558115  0.025735934            1 
  979000    1.0940436   -7.4796527    300.45897  0.025575329  0.025729497            4 
  980000    1.0610556   -7.4743142    300.12709  0.025521011  0.025723003            2 
  981000    1.0756203   -7.5185325       301.01  0.025569996  0.025716501            4 
  982000    1.1213527   -7.4944387    301.08529  0.025550347  0.025710088            2 
  983000    1.0831144   -7.4802006    301.42517  0.025553168    0.0257036            2 
  984000    1.1170958    -7.459311    302.23512  0.025595792  0.025697146            3 
  985000    1.0860956    -7.437383    302.16905  0.025564217  0.025690928            3 
  986000    1.0855199   -7.4322048    303.14675  0.025620922  0.025684751            3 
  987000    1.0498788   -7.4649145    302.73626  0.025560305  0.025678581            1 
  988000     1.105731   -7.4358076    302.59611  0.025522614  0.025672365            6 
  989000    1.1073589   -7.4321552    304.30915  0.025641148  0.025666059            3 
  990000     1.100826   -7.4614137    303.39695  0.025538464  0.025659756            3 
  991000    1.0719372   -7.4673081    304.31789  0.025590135   0.02565348            5 
  992000    1.0799946   -7.4698612    303.65512  0.025508662  0.025647309            3 
  993000    1.0779062   -7.4625258    304.11956   0.02552195  0.025641194            3 
  994000    1.0895513   -7.4400476    305.95324  0.025650003  0.025635332            3 
  995000    1.0736923   -7.4252896    305.99828  0.025627997  0.025629373            1 
  996000    1.0995218   -7.4887132    304.77724  0.025500103  0.025623261            4 
  997000    1.0905226   -7.4221124    306.17606  0.025591446  0.025616964            2 
  998000    1.1006115   -7.4658869    305.94207  0.025546265  0.025610909            2 
  999000    1.0696515   -7.4577233    306.36596  0.025556053  0.025604972            2 
 1000000    1.0851225   -7.4258681    306.76889  0.025564074  0.025598949            5 
 1001000    1.0742377   -7.4601946    306.85766  0.025545926  0.025592883            4 
 1002000    1.0833341   -7.4448653    307.17581   0.02554689  0.025586713            3 
 1003000    1.0936087   -7.4666945       306.28  0.025446992  0.025580632            3 
 1004000    1.1109434   -7.5049268    306.23154  0.025417625  0.025574265            5 
 1005000    1.0830503   -7.4714895    307.44277  0.025492767  0.025567963            3 
 1006000     1.090384   -7.4644215     307.1992   0.02544725  0.025561759            3 
 1007000    1.0876174   -7.5027236    307.60949  0.025455933  0.025555448           10 
 1008000    1.0873821   -7.4769248    307.54994  0.025425755  0.025549121            5 
 1009000    1.0935239   -7.5033031     307.6837  0.025411604  0.025542901            3 
 1010000     1.085392   -7.4548239    307.91288  0.025405353  0.025536527            3 
 1011000    1.0895759   -7.5006807    308.78843  0.025452393  0.025530122            3 
 1012000    1.1034931   -7.4984408    307.72572  0.025339734  0.025523805            7 
 1013000     1.084513   -7.4329773    309.43193  0.025455078  0.025517408            3 
 1014000    1.1115527   -7.4507963     309.0586  0.025399294  0.025511138            2 
 1015000    1.0961864   -7.4944367    309.23164  0.025388476  0.025504782            1 
 1016000    1.0756363   -7.5209843    308.70557  0.025320339  0.025498032            6 
 1017000    1.0701276   -7.5167624     308.8452  0.025306883  0.025491396            2 
 1018000    1.1052497   -7.4906954    309.77519  0.025358153  0.025484769            9 
 1019000    1.0892357   -7.4800827     309.1067  0.025278598  0.025478264            2 
 1020000    1.0685505   -7.4807171     309.5755  0.025292116  0.025471868            2 
 1021000    1.0721755   -7.4459238     309.9128  0.025294874  0.025465196            4 
 1022000    1.0742123   -7.4917239    309.90992  0.025269889  0.025458503            4 
 1023000    1.1094086   -7.4909988    309.84835  0.025240172   0.02545165            3 
 1024000    1.0830697   -7.5052663    309.72976  0.025205873  0.025444746            2 
 1025000    1.0989447   -7.4913106    310.33143  0.025230198  0.025437931            2 
 1026000    1.0729431   -7.5169406    311.14329  0.025271547  0.025431151            6 
 1027000    1.0744584   -7.4797249    311.16702  0.025248866  0.025424375            1 
 1028000    1.0785756   -7.4913563    311.00023  0.025210784  0.025417674            2 
 1029000    1.0861238   -7.5334007    311.04819  0.025190168  0.025410937            3 
 1030000    1.0871955   -7.4321966    311.66431  0.025215559  0.025404213            6 
 1031000    1.0807943   -7.4475823    311.40938  0.025170496   0.02539747            3 
 1032000    1.1245153   -7.4619865    312.53531  0.025237024  0.025390791            5 
 1033000    1.0752237   -7.5204801    311.63496  0.025139962  0.025384172            3 
 1034000    1.1092855   -7.4773358    312.92485  0.025219604  0.025377449            2 
 1035000    1.0700419   -7.4954544     312.1791  0.025135193  0.025370648            6 
 1036000    1.0815526   -7.4877401    312.76778  0.025158283  0.025363887            3 
 1037000    1.0794984   -7.4722202    313.34023  0.025180025  0.025357122            1 
 1038000    1.0899026   -7.5206599    313.12186  0.025138235  0.025350361            2 
 1039000    1.0847903   -7.5125018    314.01217  0.025185448  0.025343316            4 
 1040000    1.0771006   -7.4868145    314.85343   0.02522864  0.025336726            2 
 1041000    1.0772627   -7.4479193    314.96928  0.025213679  0.025330141            4 
 1042000    1.0842294   -7.5073905     314.2454   0.02513159  0.025323417            3 
 1043000    1.0907972   -7.4843038    314.95448  0.025164148  0.025316616            2 
 1044000    1.0703916   -7.4900554    314.73143  0.025122241  0.025309682            3 
 1045000    1.1154409   -7.4628375    314.93372  0.025114332  0.025302958            5 
 1046000    1.0893898   -7.4772365    315.16116  0.025108441  0.025296103            3 
 1047000    1.0993509   -7.5047628    313.46194  0.024949215  0.025289004            2 
 1048000    1.0841786   -7.4840053    315.51615  0.025088752  0.025282142            1 
 1049000    1.0618013   -7.4842845    316.11628   0.02511251   0.02527548            6 
 1050000     1.108175   -7.5055268    316.26381  0.025100303  0.025268772            1 
 1051000    1.0747748    -7.481149    316.56748  0.025100498  0.025262242            3 
 1052000    1.0828789   -7.4888379    316.26837  0.025052945  0.025255538            5 
 1053000    1.0993211   -7.5182578    316.69362  0.025062807  0.025248656            1 
 1054000    1.0809527    -7.514078    316.52251  0.025025499  0.025241717            3 
 1055000    1.0890648   -7.5008681    316.86791  0.025029061  0.025234794            1 
 1056000    1.0799189   -7.4599949    318.08747  0.025101599  0.025228039            3 
 1057000    1.0669846   -7.4433193    318.59535  0.025117892  0.025221328            1 
 1058000    1.0915158   -7.4918349    317.58504  0.025014575  0.025214587            4 
 1059000    1.0768501   -7.4409214    318.71902  0.025080188  0.025207768            5 
 1060000    1.0844147   -7.5175042    317.45987  0.024957537  0.025201058            4 
 1061000     1.067388   -7.4749371    319.17287  0.025068558  0.025194333            4 
 1062000     1.067738   -7.4880363    318.71273  0.025008845  0.025187565            3 
 1063000    1.0886688   -7.4650835    319.85099  0.025074553   0.02518093            3 
 1064000    1.0707174   -7.4860703    319.44238  0.025018983  0.025174293            5 
 1065000     1.076983   -7.5101164    319.92168  0.025032995  0.025167643            3 
 1066000    1.0755928   -7.4925056     319.5917  0.024983716  0.025160914            5 
 1067000    1.0502036   -7.4964913    320.36675  0.025020833  0.025154146            1 
 1068000    1.0992304   -7.4287074    321.67068  0.025099148  0.025147529            2 
 1069000    1.0683475    -7.477381    320.28888  0.024967952  0.025140991            2 
 1070000    1.0798576   -7.4998936     319.7433  0.024902126  0.025134327            4 
 1071000    1.0676077   -7.5535622    319.94487  0.024894559  0.025127616            2 
 1072000    1.0983211   -7.5157008    321.29902  0.024976603  0.025120843            2 
 1073000    1.0742073   -7.5209916    321.59156  0.024976045  0.025114304            1 
 1074000    1.0976053   -7.4962073    322.30148  0.025007874  0.025107776            2 
 1075000    1.0801133   -7.5686712    321.05118  0.024887688  0.025101345            3 
 1076000    1.0943739   -7.4832632    322.34943  0.024965105  0.025094763            3 
 1077000    1.0721631   -7.4827436    322.99818  0.024992122  0.025088156            3 
 1078000    1.0563642   -7.5471563    322.47437  0.024928445  0.025081608            6 
 1079000    1.0765611    -7.498009    322.97704  0.024944164  0.025075137            3 
 1080000    1.0683038   -7.4687417    323.84296  0.024987883  0.025068798            2 
 1081000    1.0940566   -7.4976821    323.14342   0.02491084  0.025062514            2 
 1082000    1.0834823   -7.4426118    324.61805   0.02500139  0.025056032            3 
 1083000    1.0643119   -7.4817988    323.67033  0.024905381  0.025049726            5 
 1084000    1.0872705   -7.5189088    324.10239   0.02491562  0.025043146            2 
 1085000    1.0726955   -7.4872322    324.44157  0.024918708  0.025036597            3 
 1086000    1.0830399   -7.5152498    324.46746  0.024897748  0.025029995            2 
 1087000    1.0797686   -7.5343429    324.50949  0.024878066  0.025023181            7 
 1088000    1.0686075   -7.5097171    324.79863  0.024877346  0.025016453            2 
 1089000    1.0987807   -7.4980634    324.75904  0.024851472  0.025009836            2 
 1090000    1.0814865   -7.5705988    323.74145  0.024750875  0.025002761            4 
 1091000    1.0446776   -7.4779966     325.5193  0.024863986  0.024995813            2 
 1092000    1.0750426   -7.4707245    324.93162  0.024796369  0.024988932            3 
 1093000    1.0657814   -7.5116449    324.64405  0.024751757  0.024982002            2 
 1094000    1.0765683   -7.4710222    324.97019  0.024753976  0.024974807            4 
 1095000    1.0704842   -7.5556628    323.63011  0.024629384  0.024967459            3 
 1096000     1.081563    -7.509533    325.95453  0.024783647  0.024960442            7 
 1097000    1.0801002   -7.4991982     325.2827   0.02471002  0.024953502            3 
 1098000    1.0903184    -7.515339    325.78258  0.024725454  0.024946388            4 
 1099000    1.0776577   -7.5188393     325.9796  0.024717895  0.024939281            4 
 1100000     1.092216    -7.568201    324.90564  0.024614064  0.024932114            3 
 1101000    1.0758519    -7.546898     325.9381  0.024669853  0.024924887            5 
 1102000    1.0861171   -7.4885512    325.47224  0.024612238  0.024917733            4 
 1103000    1.0496906   -7.5072505    325.58179  0.024598201  0.024910434            2 
 1104000    1.0824957   -7.5637313    325.56003  0.024574278   0.02490292            4 
 1105000    1.0779319      -7.5277    326.72215   0.02463968  0.024895406            1 
 1106000     1.056661   -7.4891505    327.06417  0.024643171  0.024888107            2 
 1107000    1.0930316   -7.5295008     326.7921  0.024600429  0.024880962            2 
 1108000    1.0750194   -7.5238708    327.13108  0.024603722  0.024873831            5 
 1109000    1.0595644   -7.5203653     327.4666  0.024606747  0.024866533            3 
 1110000    1.0954312   -7.5671955    327.60368  0.024594871  0.024859052            4 
 1111000    1.0501388   -7.5690708    327.54763  0.024568529  0.024851486            3 
 1112000    1.0504484   -7.5770051    327.33723  0.024530668  0.024844113            4 
 1113000    1.0771973   -7.5280044    327.64638  0.024531775  0.024836671            4 
 1114000    1.0523794   -7.5209786    327.19588  0.024476053  0.024829162            3 
 1115000    1.0647667   -7.4799511    329.05498  0.024593048  0.024821658            5 
 1116000    1.0757238   -7.5550963    327.89366  0.024484293  0.024814224            2 
 1117000    1.0837351   -7.5107389    329.25181  0.024563698  0.024806809            1 
 1118000     1.052065   -7.5265222    329.68199  0.024573792  0.024799548            3 
 1119000    1.0603364    -7.500925    329.87462  0.024566176  0.024792345            3 
 1120000    1.1036621   -7.5065535    329.78098  0.024537275  0.024785228            3 
 1121000    1.0982003   -7.5457415    329.96391  0.024528986  0.024777976            5 
 1122000    1.0882566   -7.5633037    329.74022   0.02449051  0.024770731            4 
 1123000    1.0885105   -7.5280317    330.13769  0.024498196  0.024763329            2 
 1124000     1.089239   -7.5299494    330.54402  0.024506526  0.024755916            2 
 1125000    1.0844838   -7.5735692     329.0638  0.024375096  0.024748533            1 
 1126000     1.082423   -7.5387694    330.22662  0.024439507  0.024741069            3 
 1127000    1.0769728   -7.4915752    330.94126  0.024470664  0.024733731            3 
 1128000    1.0820701   -7.4717685    331.10067  0.024460747  0.024726373            3 
 1129000    1.0645774   -7.5482257    331.11732   0.02444031  0.024718945            3 
 1130000    1.0680495   -7.5234123    331.92867  0.024478515  0.024711382            2 
 1131000    1.0498558   -7.5797332    329.81886  0.024301419  0.024703909            4 
 1132000    1.0609292   -7.5521355    331.33771  0.024391763  0.024696144            3 
 1133000    1.0608772   -7.5176343    331.64101  0.024392543  0.024688573            5 
 1134000    1.0613925   -7.5425174    331.57414  0.024366118  0.024681068            6 
 1135000    1.0716044   -7.5509832    331.22038  0.024318677  0.024673568           10 
 1136000     1.067282   -7.5014839    333.25878    0.0244468  0.024666091            3 
 1137000    1.0625038   -7.4938445    333.17403  0.024419087  0.024658677            4 
 1138000    1.0959672   -7.5161286    332.93216  0.024379918  0.024651321            2 
 1139000    1.0745228   -7.5390773    333.20263  0.024378302  0.024643846            5 
 1140000    1.0596756   -7.5684511    332.45502  0.024302267  0.024636267            3 
 1141000    1.0616895   -7.5190395    333.36772  0.024347628  0.024628691            2 
 1142000    1.0811678   -7.5281567    332.91511   0.02429328  0.024621224            3 
 1143000    1.0470109   -7.5291513    333.94096  0.024346818   0.02461387            2 
 1144000    1.0782784   -7.5243794    333.77275  0.024313283  0.024606575            4 
 1145000    1.0791847   -7.5490826    332.78094  0.024219865  0.024599277            1 
 1146000    1.0559865   -7.5635659    333.79668  0.024272591  0.024591856            2 
 1147000    1.0642237   -7.5308652    335.02579  0.024340729  0.024584539            1 
 1148000    1.0503992   -7.5416568    334.64184  0.024291655  0.024577198            3 
 1149000    1.0886446   -7.5338199     335.0056  0.024296896   0.02456982            3 
 1150000    1.0681252   -7.5345833    335.34942  0.024300683  0.024562653            3 
 1151000    1.0554052   -7.5464671    335.40681  0.024283725  0.024555262            2 
 1152000    1.0781838    -7.576608    334.84042  0.024221674   0.02454788            2 
 1153000    1.0529566   -7.5658859    335.87883  0.024275718  0.024540439            4 
 1154000    1.0714742   -7.5144695    337.11624  0.024344038  0.024533114            2 
 1155000    1.0708566   -7.5313422    336.94433  0.024310558  0.024526014            3 
 1156000    1.0791576   -7.5376056    336.92583  0.024288194  0.024518834            4 
 1157000    1.0332503    -7.542206    336.30033   0.02422215  0.024511659            4 
 1158000    1.0659085   -7.5129837    338.00753  0.024324088  0.024504356            2 
 1159000    1.0889238   -7.5180335    337.76429  0.024285612  0.024497079            2 
 1160000    1.0475416   -7.5612436    337.55377  0.024249552  0.024489836            2 
 1161000    1.0485193   -7.5741115    337.12122  0.024197618  0.024482436            3 
 1162000      1.06873   -7.5615748    336.91494  0.024162001  0.024475055            4 
 1163000    1.0649707   -7.4995963    338.80669  0.024276776  0.024467795            4 
 1164000    1.0675083    -7.537659    338.26548  0.024217173  0.024460518            6 
 1165000    1.0468645   -7.5368914     337.6279   0.02415078  0.024453162            3 
 1166000    1.0421478   -7.5139469    338.89492   0.02422062  0.024445854            3 
 1167000    1.0578126   -7.5660768    338.50064  0.024171711  0.024438518            2 
 1168000    1.0518202   -7.5398998    338.63719  0.024160758  0.024431136            1 
 1169000    1.0716164   -7.5386731    339.59152  0.024208121  0.024423884            5 
 1170000    1.0442715   -7.5361202    339.33866   0.02416942   0.02441672            1 
 1171000    1.0782109   -7.5476551    339.14759  0.024135183  0.024409289            2 
 1172000    1.0429124    -7.524223    338.62041  0.024077106  0.024401704            2 
 1173000    1.0546434   -7.5314348    339.65516  0.024130091  0.024394109            3 
 1174000    1.0666976   -7.5264932    340.04243  0.024137026  0.024386571            4 
 1175000     1.059474   -7.5262779    340.09883  0.024120484  0.024378835            2 
 1176000    1.0838222   -7.5340092    340.23645  0.024109726  0.024371308            3 
 1177000     1.065221   -7.5492301    338.93648  0.023997202  0.024363805            2 
 1178000    1.0782414   -7.5405042    339.38772  0.024008752  0.024356113            2 
 1179000    1.0675388   -7.5203246    340.95833  0.024099401   0.02434842            3 
 1180000     1.071534    -7.516851    340.48687  0.024045683  0.024340828            2 
 1181000    1.0726326   -7.5741628     339.1911  0.023933891  0.024333268            3 
 1182000    1.0612679   -7.5197912     341.2286   0.02405729  0.024325633            4 
 1183000    1.0653943   -7.5577194    339.99674  0.023950179  0.024317886            1 
 1184000    1.0547095   -7.5460456    341.13716  0.024010217  0.024310195            5 
 1185000    1.0728784   -7.5346126    341.17597  0.023992684  0.024302553            5 
 1186000    1.0872477   -7.5441109     339.8994  0.023882757   0.02429494            2 
 1187000    1.0663902   -7.5625279      342.073  0.024015234  0.024287211            2 
 1188000    1.0621147   -7.5817309    341.21469  0.023934813   0.02427967            6 
 1189000    1.0778872   -7.5222207    342.39137  0.023997152  0.024272145            3 
 1190000    1.0806102   -7.5063168    342.90473  0.024012937  0.024264811            3 
 1191000    1.0573941    -7.540691    341.98126   0.02392816  0.024257334           11 
 1192000    1.0663782   -7.5378915    343.57768  0.024019692  0.024250011            2 
 1193000    1.0743453   -7.5375187    342.71331  0.023939181  0.024242663            4 
 1194000     1.079894   -7.5634451    342.81511  0.023926236  0.024235253            2 
 1195000    1.0579845   -7.5539779    344.33969  0.024012531  0.024227649            5 
 1196000    1.0716875   -7.5869217    343.12212  0.023907617  0.024220265            5 
 1197000    1.0511146   -7.5745448    343.80007  0.023934842  0.024212754            3 
 1198000    1.0606768   -7.5329258    344.58922  0.023969757  0.024205341            4 
 1199000    1.0453987   -7.5225202    344.79008  0.023963725  0.024197909            3 
 1200000    1.0673294   -7.5545848    345.84989  0.024017353  0.024190741            3 
 1201000    1.0595593   -7.5639697    345.65906  0.023984115  0.024183419            3 
 1202000    1.0412047   -7.5902153     345.0046  0.023918788  0.024176101            2 
 1203000    1.0723983   -7.5932381    343.75476  0.023812328  0.024168576            4 
 1204000     1.056993   -7.5807208    345.07862  0.023884179  0.024160904            3 
 1205000    1.0645061   -7.5768456    345.13584  0.023868315  0.024153284            3 
 1206000    1.0384312   -7.5631527    345.60201  0.023880736  0.024145651            2 
 1207000    1.0593546   -7.5964483     345.7375  0.023870305  0.024138036           13 
 1208000    1.0396001   -7.5868608    344.93032  0.023794862  0.024130354            5 
 1209000    1.0671288   -7.5505028     346.3381  0.023872215  0.024122701            2 
 1210000    1.0651949   -7.5888068    345.37139  0.023785908  0.024115057            6 
 1211000    1.0513894    -7.591869     345.1542  0.023751321  0.024107371            2 
 1212000    1.0438645     -7.60091    345.64175  0.023765247  0.024099598            3 
 1213000    1.0591666   -7.5871214    345.44146  0.023731894   0.02409177            3 
 1214000    1.0736566   -7.5834581    345.59787  0.023723083  0.024084094            3 
 1215000    1.0325293   -7.5951613    346.77884  0.023784557   0.02407627            2 
 1216000    1.0656408   -7.5980984    345.87251  0.023702886  0.024068365            4 
 1217000    1.0666531   -7.5680476    345.95687  0.023689186  0.024060545            3 
 1218000    1.0407089   -7.5720383    346.87974  0.023732878  0.024052905            3 
 1219000     1.040011   -7.5297149    348.06305  0.023794302  0.024045201            2 
 1220000    1.0602488   -7.5201981    347.73128  0.023752137  0.024037717            3 
 1221000    1.0377447   -7.5568419    348.57148  0.023790027  0.024030299            2 
 1222000    1.0606202   -7.5604965     348.1356  0.023740835  0.024022659            4 
 1223000    1.0531723   -7.5690053    348.15198  0.023722539  0.024014889            4 
 1224000    1.0465965   -7.5493805    348.49664  0.023726623  0.024007062            4 
 1225000     1.053245   -7.5219705    348.76339  0.023725401  0.023999225            2 
 1226000    1.0848302   -7.5719625    348.89219  0.023714804  0.023991634            6 
 1227000    1.0538019   -7.5890775    348.96775  0.023700608  0.023983995            7 
 1228000    1.0418309    -7.542676    349.73379  0.023733292  0.023976308            3 
 1229000    1.0813128   -7.5944163    348.41454  0.023624528  0.023968647            8 
 1230000    1.0634157   -7.5867994    348.81147  0.023632213  0.023960956            5 
 1231000    1.0581118   -7.6398852    349.06825  0.023630399   0.02395322            2 
 1232000    1.0581797   -7.5730579    350.03641  0.023676705  0.023945504            2 
 1233000    1.0570693    -7.537449    349.75378  0.023638401  0.023937873            6 
 1234000    1.0531976    -7.579323     349.7953  0.023622049  0.023930175            5 
 1235000     1.066501   -7.5968668    348.83982   0.02353845  0.023922492            4 
 1236000    1.0671021   -7.5392736    350.96893  0.023662954  0.023914645            9 
 1237000     1.052488   -7.5510752    350.54113  0.023615005  0.023907044            8 
 1238000    1.0413015   -7.5897442    350.21179  0.023573761  0.023899274            2 
 1239000    1.0669442   -7.5892652    351.00405  0.023608021  0.023891552            5 
 1240000    1.0787824   -7.5861728    350.43319  0.023550617  0.023883698            3 
 1241000    1.0595453   -7.5806263    351.18251  0.023581957  0.023876055            2 
 1242000    1.0577966   -7.6049635    350.49198  0.023516639  0.023868353            2 
 1243000    1.0387636   -7.5871192    350.95134  0.023528515  0.023860639            3 
 1244000    1.0376366    -7.604768    351.58315  0.023551926  0.023852808            3 
 1245000    1.0635347   -7.5780624    351.62407  0.023535747  0.023845132            2 
 1246000    1.0347947   -7.6249834    350.59451  0.023448001  0.023837316            2 
 1247000    1.0694727    -7.587258    351.60959  0.023497032  0.023829587            2 
 1248000    1.0641659   -7.5821073    353.11418  0.023578671  0.023821839            4 
 1249000     1.044052   -7.5817413    352.74019  0.023534841  0.023814309            5 
 1250000    1.0643715   -7.5609768    354.19319  0.023612879  0.023806694            1 
 1251000    1.0509616   -7.6029435    352.98893  0.023513784  0.023799076            5 
 1252000    1.0421687   -7.6007389    352.77594  0.023480827  0.023791424            1 
 1253000    1.0825945   -7.5659932    353.35139  0.023500359  0.023783745            6 
 1254000    1.0497186   -7.5727146    353.44224  0.023487656  0.023776019            1 
 1255000    1.0497229   -7.5827069    352.87885   0.02343153  0.023768215            2 
 1256000    1.0609777   -7.6215238     353.0943   0.02342717  0.023760463            5 
 1257000    1.0540499   -7.5810646    353.41771  0.023429973  0.023752813            2 
 1258000    1.0505336   -7.5773201    354.36058  0.023473806  0.023745117            2 
 1259000     1.054766   -7.5671403    354.15813  0.023441762  0.023737332            3 
 1260000    1.0325307    -7.579342    354.17584  0.023424328  0.023729585            2 
 1261000    1.0340705    -7.582259    353.91916  0.023388789  0.023721699            3 
 1262000    1.0299602   -7.6302018    353.60567  0.023349555  0.023713725           11 
 1263000    1.0633316    -7.558788    354.34392  0.023379779  0.023705812            5 
 1264000    1.0338733   -7.5657368    354.93903  0.023400516  0.023698095            3 
 1265000    1.0428387   -7.5702158    355.03464  0.023388316  0.023690304            3 
 1266000    1.0623001   -7.5476041    356.07146   0.02343809  0.023682601            5 
 1267000    1.0273286   -7.5654108    354.56071  0.023320226   0.02367493            3 
 1268000    1.0553173   -7.5985055    355.89151  0.023389295  0.023667204            2 
 1269000    1.0419275   -7.5997975    355.90118  0.023371499  0.023659521            2 
 1270000    1.0287456   -7.5516606    355.91796  0.023354197  0.023652102            4 
 1271000    1.0502097   -7.6053992    355.66392  0.023319166  0.023644481            3 
 1272000    1.0569784   -7.6197978    355.94393  0.023319178  0.023636783            4 
 1273000    1.0525226   -7.6187821    357.44393  0.023399053  0.023629052            1 
 1274000    1.0412789   -7.6019415    356.85418   0.02334211  0.023621453            4 
 1275000    1.0598306   -7.5930438    356.80664  0.023320695  0.023613874            2 
 1276000     1.054864   -7.5746965    357.33302  0.023336796    0.0236064            2 
 1277000    1.0367066   -7.5859559    356.56684  0.023268523   0.02359884            1 
 1278000    1.0598766   -7.6204619    357.87956  0.023335913  0.023591204            5 
 1279000    1.0385833   -7.6402243     357.7746  0.023310829  0.023583638            2 
 1280000    1.0415093   -7.5618844    358.38179  0.023332148  0.023576161            7 
 1281000    1.0344424   -7.5779112     357.3516  0.023246917  0.023568638            5 
 1282000    1.0178524   -7.5802978    358.23733  0.023286358  0.023560986            3 
 1283000    1.0637396   -7.6088718    358.74009  0.023300863  0.023553299            3 
 1284000    1.0397308   -7.6107524    358.05418    0.0232382  0.023545501            1 
 1285000    1.0580615   -7.6241364    358.88044  0.023273699  0.023537808            2 
 1286000    1.0370476   -7.5747676    358.91016  0.023257527  0.023530135            2 
 1287000    1.0437955   -7.6187259     358.2513  0.023196795  0.023522463            3 
 1288000    1.0362494    -7.609937    359.13741  0.023236116  0.023514792            3 
 1289000    1.0295668   -7.5923278    360.14779   0.02328341  0.023507207            4 
 1290000    1.0270958   -7.6004571    360.08361  0.023261215  0.023499674            7 
 1291000    1.0583426   -7.6258776    360.69602  0.023282728  0.023492097            4 
 1292000    1.0401946   -7.6054243    359.56081  0.023191487  0.023484504            3 
 1293000    1.0270134   -7.5644229    361.26895   0.02328364  0.023476915            3 
 1294000    1.0545952   -7.5887222    359.65535   0.02316173  0.023469289            4 
 1295000    1.0505744   -7.5993308    361.24985  0.023246451   0.02346166            3 
 1296000    1.0227022    -7.581437    360.81076   0.02320028  0.023454056            3 
 1297000    1.0456558   -7.6409712    360.85699  0.023185363  0.023446462           11 
 1298000    1.0757191   -7.5987062    362.03613  0.023243203  0.023438858            2 
 1299000    1.0407156   -7.6067263    360.52818  0.023128572  0.023431268            3 
 1300000    1.0301806   -7.5937265    361.82586  0.023193965  0.023423478            3 
 1301000    1.0206386   -7.6021737    360.75913   0.02310781   0.02341591            5 
 1302000    1.0401456   -7.5783872    361.60144  0.023143973  0.023408259            4 
 1303000    1.0530888   -7.5649185    362.35334  0.023174299  0.023400621            1 
 1304000    1.0539466   -7.5796451    362.14654  0.023143312  0.023393082            4 
 1305000    1.0309042    -7.630138    361.40301  0.023078098  0.023385497            1 
 1306000    1.0512658   -7.5720657    361.73213  0.023081427  0.023377863            2 
 1307000    1.0592561   -7.5877597    362.30379  0.023100216  0.023370247            1 
 1308000    1.0618923   -7.6479363     362.4176  0.023089806  0.023362536            8 
 1309000    1.0337821   -7.6127517    361.67353  0.023024798  0.023354849            2 
 1310000     1.057742   -7.5942465     363.6154   0.02313075  0.023347351            5 
 1311000    1.0267334   -7.6011786    363.69248  0.023118007  0.023339906            3 
 1312000    1.0514278   -7.5754842    364.43466  0.023147527   0.02333239            4 
 1313000    1.0311271   -7.6413819    361.45303  0.022940659  0.023324831            2 
 1314000    1.0366902   -7.5806222    364.88858  0.023141082   0.02331728            6 
 1315000    1.0419204   -7.5607384    364.61957  0.023106437  0.023309883            4 
 1316000    1.0252494   -7.6164831    362.58661  0.022960145  0.023302357            2 
 1317000    1.0371025   -7.6416275    363.49733  0.023000338  0.023294678            3 
 1318000    1.0496332   -7.5546314    365.12093  0.023085542  0.023287109            4 
 1319000    1.0570512   -7.6182998    364.45369  0.023025884  0.023279555            3 
 1320000    1.0390499   -7.6064091    364.88294  0.023035539  0.023272049            4 
 1321000    1.0403342   -7.6423496    363.84239  0.022952459  0.023264456            4 
 1322000    1.0419013   -7.6603914    364.75495  0.022992622  0.023256743            3 
 1323000    1.0464497   -7.6225536    364.88194  0.022983241  0.023249048            5 
 1324000    1.0665139   -7.6157414     364.7967  0.022960517  0.023241487            3 
 1325000    1.0393092   -7.6943184     364.1246  0.022900918  0.023233885            3 
 1326000    1.0276821   -7.5848097    367.02612  0.023065996  0.023226267            6 
 1327000    1.0267628   -7.6298173    364.99017  0.022920759  0.023218669            3 
 1328000    1.0385359   -7.6366818    365.74361  0.022950779  0.023211116            4 
 1329000   0.99785404   -7.6266661    366.96935  0.023010368  0.023203616            3 
 1330000    1.0255889   -7.6261382    366.66008  0.022973689  0.023196168            5 
 1331000    1.0460358   -7.5885704    366.86963  0.022969548  0.023188789           12 
 1332000    1.0358328   -7.6306344    366.31113  0.022917363  0.023181265            3 
 1333000    1.0406101   -7.6736074    366.57924  0.022916932  0.023173655            3 
 1334000    1.0275449    -7.610575    367.35884  0.022948453  0.023166181            5 
 1335000    1.0611217   -7.6853657    366.15603  0.022856181  0.023158498           10 
 1336000    1.0590121    -7.639325    366.99489  0.022891398  0.023150813            2 
 1337000    1.0362901    -7.641927    366.63033  0.022851554  0.023143296            4 
 1338000    1.0320843   -7.5914049    368.87239  0.022974115  0.023135708            2 
 1339000    1.0363967   -7.5817582    369.40667  0.022990208  0.023128271            3 
 1340000    1.0605093   -7.6462404    366.99782  0.022823248  0.023120644            5 
 1341000     1.031155   -7.6516422    368.11228  0.022875483  0.023113036            4 
 1342000    1.0342153   -7.6106633    367.65328  0.022829935  0.023105526            2 
 1343000    1.0278007    -7.641906    367.19492  0.022784495  0.023097841            3 
 1344000    1.0357279   -7.5647404    370.06035   0.02294521  0.023090331            4 
 1345000    1.0381211   -7.6246457    368.94439  0.022859008  0.023082741            5 
 1346000    1.0341409   -7.6240396    369.37481  0.022868673  0.023075207            3 
 1347000    1.0494013    -7.612555     369.4249  0.022854795  0.023067731            3 
 1348000    1.0172918   -7.6631321    368.42431  0.022775984  0.023060246            2 
 1349000    1.0343629   -7.6554738    368.45954  0.022761276  0.023052619            3 
 1350000    1.0387072   -7.6184212    369.71823  0.022822113  0.023045021            2 
 1351000    1.0445142   -7.6184463    369.53699  0.022794041  0.023037494            6 
 1352000    1.0385771   -7.5886955    369.13451  0.022752374  0.023029898            2 
 1353000    1.0363644   -7.6300407    369.23556  0.022741781  0.023022224            5 
 1354000    1.0392118   -7.6372224    369.29909  0.022728895    0.0230146            4 
 1355000    1.0285286   -7.6688305    370.46646  0.022783915  0.023006993            2 
 1356000    1.0445625    -7.623434    370.66667  0.022779417  0.022999502            4 
 1357000    1.0470207   -7.6229186     371.1292  0.022791034  0.022991859            3 
 1358000    1.0238618   -7.6022427    370.88701  0.022759389  0.022984273            3 
 1359000    1.0239777   -7.6356703    369.40064  0.022651499  0.022976744            5 
 1360000    1.0445041   -7.6282236    370.24272  0.022686441  0.022969021            2 
 1361000    1.0496242   -7.6284837    371.39237  0.022740164  0.022961389            4 
 1362000    1.0218018   -7.5830314    371.67105  0.022740519   0.02295387            2 
 1363000    1.0207574   -7.5860742    372.09316  0.022749643  0.022946344            3 
 1364000    1.0335149   -7.5901123    372.23303   0.02274151  0.022938764            3 
 1365000    1.0308063   -7.5985597    372.55244  0.022744349  0.022931387            2 
 1366000     1.025593   -7.6538848     370.8609  0.022624506  0.022923783            3 
 1367000    1.0270636   -7.6385936    371.31625  0.022635714  0.022916138            5 
 1368000    1.0298676   -7.6100358    373.47224  0.022750502  0.022908704            7 
 1369000    1.0222692   -7.6344478    372.62412  0.022682257   0.02290121            3 
 1370000    1.0191671   -7.6289458    372.31359  0.022646812  0.022893727            4 
 1371000    1.0213429   -7.6189301    372.15536  0.022620676   0.02288616            2 
 1372000    1.0368877   -7.6291512    373.31509  0.022674629  0.022878675            7 
 1373000    1.0157113   -7.6614824    373.67016  0.022679665  0.022871054            5 
 1374000    1.0240228   -7.6026961    373.56449   0.02265675  0.022863565            2 
 1375000    1.0320274   -7.6062365    374.33692  0.022687086  0.022856125            2 
 1376000    1.0350362   -7.6707397    371.68503  0.022509995  0.022848533            4 
 1377000     1.041693   -7.6405252    372.51784  0.022544048  0.022840871            3 
 1378000    1.0336796   -7.6495015    373.09215  0.022562419   0.02283324            2 
 1379000    1.0229452   -7.6650955    372.25464  0.022495446  0.022825476            1 
 1380000     1.033974    -7.654826    373.50337  0.022554551  0.022817868            5 
 1381000    1.0321386     -7.64688    373.08219  0.022512804  0.022810272            5 
 1382000    1.0500967   -7.6429504    374.40722  0.022576412  0.022802685            3 
 1383000    1.0367761   -7.6463282    374.05159   0.02253866  0.022795163            5 
 1384000    1.0170017   -7.6625335    374.23043  0.022533142  0.022787494            3 
 1385000    1.0338247   -7.6497695    373.43969  0.022469295  0.022779787            5 
 1386000    1.0382752   -7.6412454    375.47402  0.022575398  0.022772144            4 
 1387000    1.0143885    -7.649915    375.06565  0.022534586  0.022764656            5 
 1388000    1.0394873   -7.6098812    375.82821  0.022564133  0.022757265            2 
 1389000    1.0171981     -7.64875    376.40605  0.022582556  0.022749869            2 
 1390000    1.0605094   -7.6679649    376.30984  0.022560542  0.022742441            4 
 1391000    1.0447581   -7.6383836    376.21409  0.022538587  0.022734919            5 
 1392000    1.0100951   -7.6354558    375.87164  0.022501894  0.022727468            5 
 1393000    1.0174144   -7.6320042    376.57552  0.022527849  0.022720073            2 
 1394000    1.0042581   -7.6717975    376.09419  0.022482915  0.022712634            1 
 1395000     1.025471   -7.6369241    376.69551  0.022502719  0.022705049            3 
 1396000      1.03588   -7.6670188    377.55856  0.022538118  0.022697658            3 
 1397000    1.0285858   -7.6146404    377.42957  0.022514291  0.022690168            3 
 1398000     1.037388   -7.6718798    377.24989  0.022487476  0.022682773            6 
 1399000     1.028258   -7.6845045    376.77446  0.022443082  0.022675377            2 
 1400000    1.0183661   -7.6759699    377.14493  0.022449103  0.022667937            5 
 1401000    1.0226083   -7.6615651    376.24744  0.022379696  0.022660415            4 
 1402000   0.99800697    -7.660309    377.90396  0.022462195  0.022652832            2 
 1403000    1.0199165   -7.6633659    376.92213  0.022387867  0.022645294            4 
 1404000    1.0519217   -7.6432691    377.54443  0.022408858  0.022637747            4 
 1405000    1.0299309   -7.6617045    377.98771    0.0224192  0.022630225            3 
 1406000    1.0227155   -7.6901606    377.88404   0.02239711  0.022622754            1 
 1407000    1.0426673    -7.703494    377.84075  0.022378627  0.022615191            5 
 1408000    1.0124446   -7.6845669    377.92514  0.022367729  0.022607678            7 
 1409000    1.0251317   -7.6376811    379.77887   0.02246149   0.02260022            5 
 1410000    1.0296579   -7.6443313    378.39242  0.022363618  0.022592801            2 
 1411000    1.0308355   -7.6694373     377.7875  0.022312042  0.022585284            4 
 1412000    1.0053158   -7.6658488    379.49226  0.022396852  0.022577746            2 
 1413000    1.0330351   -7.6339934    379.70644  0.022393633  0.022570175            2 
 1414000      1.00709      -7.6313    379.67064  0.022375686  0.022562671            3 
 1415000    1.0495307   -7.6429762    379.87062   0.02237165  0.022555197            2 
 1416000    1.0374036   -7.6391102    380.39917  0.022386957  0.022547588            3 
 1417000    1.0300375   -7.6434926    380.07034   0.02235182  0.022540102            1 
 1418000    1.0395762   -7.6445268    379.31441  0.022291632  0.022532607            6 
 1419000    1.0492602   -7.6242924    379.25386  0.022272367  0.022525053            4 
 1420000    1.0327703   -7.6516015    379.25713  0.022256874   0.02251747            5 
 1421000    1.0334481   -7.6692805    380.34001  0.022304716  0.022509913            6 
 1422000    1.0123799   -7.6316398    380.45175  0.022295578  0.022502344            4 
 1423000     1.042791   -7.6206024    380.54923  0.022285619  0.022494739            4 
 1424000    1.0262088   -7.6211062    379.82421  0.022227541  0.022487254            2 
 1425000    1.0188558   -7.6398801    379.92038  0.022217566  0.022479623            4 
 1426000    1.0217339   -7.6583726    380.84935  0.022256274  0.022471908            3 
 1427000    1.0173176   -7.6514861    380.28518  0.022207731  0.022464289            3 
 1428000    1.0258567   -7.6471474     381.8595  0.022284051  0.022456865            2 
 1429000    1.0352532   -7.6585456    381.40836  0.022242149  0.022449374            2 
 1430000   0.99468086   -7.6575666    379.72717  0.022128623  0.022441828            4 
 1431000    1.0310025   -7.6638803     381.0941  0.022192761  0.022434278            8 
 1432000    1.0329384   -7.6360042    381.86269  0.022221991  0.022426709            3 
 1433000     1.022265   -7.6525488    381.92786  0.022210273  0.022419212            3 
 1434000    1.0252317    -7.665026    381.90519  0.022193468  0.022411672            4 
 1435000    1.0234445   -7.6511799     382.2887  0.022200273  0.022404069            2 
 1436000    1.0164181   -7.6752529    381.91669  0.022163225  0.022396428            2 
 1437000    1.0202104   -7.6932066    380.82569  0.022084533  0.022388882            2 
 1438000    1.0245662   -7.6634917     383.2947  0.022212257  0.022381521            2 
 1439000    1.0064723   -7.7064307    381.43768  0.022089279  0.022374046            3 
 1440000      1.04469   -7.6657473    382.44245  0.022132086  0.022366388            3 
 1441000    1.0118514   -7.6559872    382.33144  0.022110307  0.022358915            2 
 1442000     1.021939   -7.6642953    382.98247  0.022132598  0.022351554            1 
 1443000    1.0223348   -7.6790994    383.06623  0.022122097  0.022344186            5 
 1444000    1.0258302   -7.6593072    383.72909  0.022145031  0.022336687            4 
 1445000     1.018699   -7.6418976     383.4041  0.022110963  0.022329169            2 
 1446000    1.0235921   -7.7053945    383.96196  0.022127822  0.022321698            4 
 1447000    1.0089513   -7.6669488    383.02274   0.02205844   0.02231417            3 
 1448000    1.0248472   -7.6865898     383.1275  0.022049235  0.022306629            4 
 1449000    1.0193372   -7.6465923    384.81134  0.022130857  0.022299072            3 
 1450000    1.0306999   -7.6671771    385.14292   0.02213465  0.022291626            4 
 1451000    1.0031298   -7.6977955    383.64831  0.022033558  0.022284168            5 
 1452000    1.0275625   -7.6665807    384.13057  0.022046061  0.022276678            7 
 1453000    1.0141654   -7.6782148    384.92106  0.022076225  0.022269223            6 
 1454000    1.0232516   -7.6714867    385.52521  0.022095668   0.02226176            3 
 1455000     1.039612   -7.6783307    384.40362  0.022016244  0.022254251            8 
 1456000   0.99173428   -7.7154302    384.90715  0.022029942  0.022246675           10 
 1457000    1.0245839   -7.7024822    385.12357    0.0220272  0.022239063            5 
 1458000     1.011973   -7.6857775    385.31202  0.022022864  0.022231458            2 
 1459000    1.0180822   -7.6976262     385.1631  0.021999263  0.022223843            2 
 1460000    1.0123587    -7.697414    385.16551  0.021984333  0.022216273            9 
 1461000    1.0245778   -7.6703934    386.16144  0.022026092   0.02220878            7 
 1462000    1.0117122     -7.68078    385.59666  0.021978834  0.022201263            2 
 1463000   0.99204632   -7.6763081     387.2897  0.022060247  0.022193794            4 
 1464000    1.0303219   -7.6864741    385.90326   0.02196626  0.022186347            6 
 1465000    1.0153342   -7.6895894    386.63266  0.021992757  0.022178927            4 
 1466000    1.0119045   -7.6710535    386.66302  0.021979481  0.022171536            2 
 1467000    1.0316757   -7.6248063    387.86872  0.022032988   0.02216413            2 
 1468000       1.0134   -7.6704613    388.00037  0.022025452  0.022156778            3 
 1469000    1.0040626   -7.7257513     385.6993  0.021879924  0.022149424            3 
 1470000    1.0143977   -7.6769114    387.15463  0.021947542  0.022142072            2 
 1471000    1.0049192   -7.6600601    388.49117  0.022008337  0.022134788            4 
 1472000     1.033545    -7.680327      388.471  0.021992244  0.022127501            4 
 1473000   0.99804019   -7.7093271    388.10995  0.021956888  0.022120101            3 
 1474000   0.99700758   -7.7177939    388.26273  0.021950629  0.022112655            4 
 1475000    1.0199992   -7.6505819    388.69037  0.021959908  0.022105288            2 
 1476000    1.0187933   -7.7013055    388.38546  0.021927815  0.022097941            3 
 1477000   0.99010493   -7.7043619    388.20992  0.021903065  0.022090672            3 
 1478000    1.0086455    -7.703553    389.94531  0.021986091  0.022083405            6 
 1479000    1.0387646   -7.6635392     388.6368  0.021897498  0.022076169            2 
 1480000    1.0087401    -7.677954    390.48698  0.021986879  0.022068902            6 
 1481000    1.0239818   -7.7175449    388.89963  0.021882716  0.022061504            9 
 1482000   0.99619623   -7.6912419     389.2265  0.021886331  0.022054099            5 
 1483000    1.0225186   -7.6471325    389.31306  0.021876436  0.022046691            2 
 1484000     1.020449   -7.6910821    389.81731  0.021890011  0.022039424            3 
 1485000    1.0202761    -7.660456    391.02058  0.021942794  0.022032136            2 
 1486000   0.99945242   -7.6893094    389.63436  0.021850289  0.022024838            3 
 1487000     1.030115   -7.6961245    391.05547  0.021915236  0.022017489            2 
 1488000    1.0252722   -7.6607483    391.01042  0.021897985  0.022010227            2 
 1489000    1.0258855   -7.6821366      389.836  0.021817551  0.022003065            5 
 1490000    1.0338704   -7.6591374    391.16602  0.021877294  0.021995858            2 
 1491000    1.0248283   -7.6818869    391.57107   0.02188526  0.021988669            2 
 1492000     1.005727   -7.7194804    390.04603  0.021785413  0.021981395            3 
 1493000    1.0214518   -7.7179724     389.6979   0.02175139  0.021974089            4 
 1494000    1.0330818   -7.7120378     391.2327   0.02182244  0.021966738            3 
 1495000    1.0258184   -7.6828648    391.53886  0.021824909  0.021959484            6 
 1496000   0.99655932   -7.6981369      391.009  0.021780804  0.021952244            4 
 1497000    1.0011919   -7.7236275    391.84565  0.021812828  0.021944897            5 
 1498000    1.0204465   -7.7089893    391.40696  0.021773863  0.021937615            6 
 1499000    1.0096425   -7.6801503    392.66068  0.021829035  0.021930361            3 
 1500000    1.0285458   -7.7045689    391.82316  0.021767954  0.021923187            9 
 1501000    1.0289447   -7.6774424    393.31962  0.021836532  0.021916076            3 
 1502000     1.006323    -7.699952    392.33205  0.021767202  0.021908929            6 
 1503000    1.0095107   -7.6965262    394.14395   0.02185318  0.021901766            2 
 1504000   0.99902714   -7.6902468    393.57738  0.021807257  0.021894709            1 
 1505000    1.0224143   -7.7033188    393.16105  0.021769715   0.02188766            3 
 1506000    1.0025825   -7.6486811    394.81733  0.021846908  0.021880682            2 
 1507000    1.0469874   -7.7094865    393.98244  0.021786244  0.021873675            3 
 1508000    1.0160462   -7.7295142    393.48542  0.021744331  0.021866585            3 
 1509000   0.99782123   -7.6881764     394.3795  0.021779297  0.021859566            3 
 1510000    1.0164239   -7.7169495    394.29124  0.021760002  0.021852574            3 
 1511000    1.0240528   -7.6726955    395.19034  0.021795187  0.021845604            3 
 1512000    0.9904819    -7.690633    395.28793  0.021786151  0.021838639            4 
 1513000    1.0201188   -7.6985414    394.72786  0.021740905  0.021831658            1 
 1514000   0.98778171   -7.6952381     394.7003  0.021725028  0.021824609            5 
 1515000    1.0209002   -7.7075584    394.85314  0.021719095  0.021817568            4 
 1516000     1.016999   -7.7173346    393.97386  0.021656435  0.021810548            2 
 1517000    1.0143329   -7.6905798    396.15392  0.021761916  0.021803412            3 
 1518000    1.0138857   -7.7039053    396.54999  0.021769323  0.021796396            3 
 1519000    1.0111939   -7.6857116    396.15064  0.021733083  0.021789361            7 
 1520000    1.0163732   -7.7125305    395.96922  0.021708839  0.021782386            4 
 1521000    1.0130024   -7.7238355    395.34904  0.021660587  0.021775254            5 
 1522000    1.0121685   -7.6992019    396.39718  0.021703744  0.021768198            2 
 1523000    1.0054682   -7.7213216    396.57577  0.021699265  0.021761132            2 
 1524000    0.9869086    -7.702369    396.70255  0.021691959  0.021754186            2 
 1525000    1.0203833   -7.6963381    397.70989  0.021732781  0.021747187            6 
 1526000    1.0147491   -7.7185183    396.42768  0.021648519  0.021740246            5 
 1527000    1.0083386   -7.7108839     396.8976  0.021659987  0.021733211            3 
 1528000   0.99714405   -7.7049479    397.16298  0.021660285  0.021726276            3 
 1529000    1.0081353   -7.7031468      396.598  0.021615326  0.021719349            3 
 1530000    1.0085016   -7.6986744    396.92625  0.021619077   0.02171228            5 
 1531000    1.0074079   -7.7234077    398.21106  0.021674889  0.021705273            3 
 1532000    1.0073023   -7.7111672    397.31091  0.021611777  0.021698271            2 
 1533000   0.99456517   -7.6999123    397.55002  0.021610677  0.021691333            2 
 1534000    1.0038847   -7.6947954    398.01378  0.021621783  0.021684342            8 
 1535000    1.0043028   -7.7273542    398.06661  0.021610565  0.021677401            3 
 1536000    1.0067087   -7.6845936    399.24036  0.021660176  0.021670488            4 
 1537000    1.0111763   -7.6878743    399.14106    0.0216407  0.021663608            9 
 1538000    1.0239303   -7.7502682    398.11857  0.021571227  0.021656714            3 
 1539000    1.0018058   -7.7192255    399.88159  0.021652674  0.021649769            2 
 1540000    1.0121003   -7.7139274    398.74775  0.021577259  0.021642804            4 
 1541000   0.99530972    -7.729028    398.57809  0.021554082  0.021635851           17 
 1542000   0.97543782   -7.6754014     399.1367  0.021570293  0.021628951            4 
 1543000    1.0184085   -7.6818839    400.34767  0.021621715  0.021622192            3 
 1544000   0.98728577   -7.7085151    399.70773  0.021573172  0.021615306            3 
 1545000    1.0166103   -7.7269259    398.82777  0.021511746  0.021608298            5 
 1546000    1.0068276   -7.7175153    399.86944   0.02155398  0.021601311            3 
 1547000    1.0338593   -7.7569433    398.88553  0.021487046  0.021594333            4 
 1548000   0.98687761   -7.7192225    399.26968  0.021493846  0.021587267            4 
 1549000    1.0221386   -7.6712614    400.25676  0.021533073  0.021580372            7 
 1550000    1.0135801   -7.7328699    399.83762  0.021496646  0.021573446            3 
 1551000     1.009977   -7.7206273    401.14002  0.021552763  0.021566534            1 
 1552000     1.007477   -7.7037276    401.27546  0.021546148  0.021559736            3 
 1553000    1.0306745   -7.7165504    400.84455  0.021509152  0.021552862            4 
 1554000    1.0133516   -7.7284439    401.09704   0.02150885     0.021546            2 
 1555000    1.0327278   -7.7078468    400.99797  0.021489709  0.021539194            3 
 1556000    1.0085883    -7.694705     401.9224  0.021525407  0.021532295            8 
 1557000     1.008153   -7.7400309    401.54307   0.02149128  0.021525364            4 
 1558000    1.0271796   -7.7102348    401.77623  0.021489957  0.021518508            3 
 1559000    0.9941335   -7.6918397    401.44666  0.021458556  0.021511565            5 
 1560000    1.0073523   -7.7625793    401.50291  0.021447805  0.021504625            4 
 1561000    0.9982659   -7.7536328    402.47295   0.02148585  0.021497673            4 
 1562000    1.0003486   -7.6883756    401.06411  0.021396933  0.021490747            4 
 1563000     1.015924   -7.7181686    401.76108  0.021420403  0.021483867            3 
 1564000   0.99972542   -7.6840349    403.22392  0.021484651   0.02147697            1 
 1565000   0.98931695   -7.6998985    404.12374  0.021518836  0.021470233            4 
 1566000   0.98717189   -7.7209749    403.12821  0.021452118  0.021463531            3 
 1567000   0.99800522   -7.7400159    402.62615  0.021411729  0.021456633            7 
 1568000    0.9903174   -7.7628297    401.97917  0.021363689   0.02144965           11 
 1569000   0.99337672   -7.7161952    403.66167  0.021439434  0.021442791            4 
 1570000    1.0018693   -7.6862145    404.10161   0.02144913  0.021436028            2 
 1571000   0.99980311   -7.7219527    403.58873  0.021408271  0.021429309            6 
 1572000    1.0180225    -7.728923    402.78446  0.021352018  0.021422461            3 
 1573000    1.0140803   -7.7538865    401.92469  0.021292895  0.021415591            7 
 1574000   0.97835352   -7.7340377    403.02149  0.021337436  0.021408641            3 
 1575000    1.0335181   -7.7597316    403.95028  0.021373031   0.02140171            3 
 1576000   0.98485401   -7.7315768    403.47328  0.021334247   0.02139483            5 
 1577000    1.0227535   -7.7488569    403.04469  0.021298071  0.021387881            2 
 1578000   0.98220259   -7.7287607    404.39446  0.021355854   0.02138089            5 
 1579000   0.96427051   -7.7245416    404.87388  0.021367632  0.021373906            3 
 1580000   0.99885525   -7.6977417    404.56844  0.021337998  0.021366995            5 
 1581000   0.98770827   -7.6871685    405.53038  0.021375205  0.021360206            7 
 1582000   0.99680462   -7.7515496    404.26138  0.021294847  0.021353315            2 
 1583000    1.0246146   -7.7567186    404.59184  0.021298791  0.021346441            5 
 1584000    1.0035967     -7.71798     405.8199  0.021349953  0.021339641            4 
 1585000   0.98988577   -7.7225342    405.86345  0.021338772  0.021332937            7 
 1586000    1.0128712   -7.7429686    405.94196  0.021329443  0.021326215            5 
 1587000   0.98518388    -7.779884    403.60499  0.021193289  0.021319352            5 
 1588000   0.99393847   -7.7500254    405.45775   0.02127717  0.021312388            3 
 1589000    0.9869384   -7.7227671    406.24363  0.021304994  0.021305431            2 
 1590000    1.0173742   -7.7210772    405.97011  0.021277259  0.021298603            3 
 1591000   0.98457497   -7.7387219    405.95371  0.021263027   0.02129183            6 
 1592000   0.99429387   -7.7382878    405.75835  0.021239445  0.021284906            6 
 1593000   0.97091559   -7.7428766    405.78421  0.021227464  0.021277982            7 
 1594000   0.98680306   -7.7987568    406.77041  0.021265705  0.021270992            3 
 1595000    1.0008711   -7.7224446    406.51211  0.021238877  0.021264137            3 
 1596000   0.99344146   -7.7495137    406.24762   0.02121176  0.021257305            4 
 1597000   0.99312975   -7.7012971    407.02493  0.021239038  0.021250462            8 
 1598000    1.0015889    -7.765816    406.42374  0.021194396  0.021243661            3 
 1599000   0.99994086   -7.7733278    406.06547   0.02116247  0.021236821            5 
 1600000   0.99782304   -7.7303793    408.32033  0.021266684  0.021229975            2 
 1601000   0.97829785   -7.7253265    408.10433  0.021242157  0.021223145           11 
 1602000   0.98106099   -7.7418317    406.90427  0.021166473  0.021216343           16 
 1603000    0.9983444   -7.7906459    406.89439  0.021152755  0.021209482            5 
 1604000    1.0073203   -7.7791241    406.92631  0.021141225  0.021202624            5 
 1605000   0.99742697   -7.7652102    407.76182  0.021171434  0.021195847            7 
 1606000   0.98873477   -7.7284552    409.21883  0.021233854  0.021189105            3 
 1607000   0.99933084   -7.7434135    407.62563  0.021138023  0.021182376            4 
 1608000     1.003193   -7.6778572    410.36492  0.021266839  0.021175729            2 
 1609000   0.98928543    -7.750651     408.5081  0.021157453  0.021168967            8 
 1610000   0.99534622   -7.7224773     409.2514  0.021182785  0.021162255            6 
 1611000   0.97857031   -7.7542914    408.96668  0.021154908  0.021155569            6 
 1612000   0.99370214   -7.7138125    407.67796  0.021075163  0.021148859            3 
 1613000    1.0032302    -7.777929    408.84741  0.021122515  0.021142119            6 
 1614000    1.0019097     -7.74507    408.90931  0.021112624  0.021135358            7 
 1615000   0.99897677   -7.7379844    410.55816  0.021184632  0.021128686            6 
 1616000   0.99453343   -7.7599796    409.34384  0.021108903  0.021121887            4 
 1617000   0.98895099    -7.767661    409.51212  0.021104521  0.021115176            5 
 1618000   0.98462134   -7.7596528    409.91551  0.021112253  0.021108424            4 
 1619000   0.97408011   -7.7543487    409.07248   0.02105582   0.02110169            4 
 1620000   0.99110095   -7.7412029    410.89978   0.02113682  0.021095044            3 
 1621000   0.99391087   -7.7464859    410.37685  0.021096898  0.021088287            7 
 1622000   0.97323589   -7.7390857    410.89672    0.0211106  0.021081548            2 
 1623000   0.98930554   -7.7839619    410.83288  0.021094315  0.021074824            3 
 1624000    0.9888923   -7.7519015    411.50104  0.021115612  0.021068134            3 
 1625000    1.0003551    -7.742507    411.07757  0.021080901  0.021061412            4 
 1626000    1.0088599   -7.7772286    410.18429  0.021022155  0.021054725            2 
 1627000   0.99957102   -7.7606637    410.77163  0.021039317  0.021047964            4 
 1628000    1.0061914   -7.7336794    412.42018  0.021110779  0.021041358            4 
 1629000    0.9885087   -7.7847681    410.97334  0.021023805  0.021034643            3 
 1630000    1.0062908    -7.755255    411.79533  0.021052931   0.02102801            9 
 1631000   0.97260301   -7.7709102     410.8307  0.020990737  0.021021296            6 
 1632000   0.97913273   -7.7572195    413.06797  0.021092115  0.021014573            7 
 1633000   0.99652131   -7.7359751    411.45089  0.020996677  0.021007926            7 
 1634000   0.99800111   -7.7343895    412.15113  0.021019539  0.021001264            3 
 1635000   0.96892684   -7.7237869    413.50733  0.021075807  0.020994688            4 
 1636000    1.0008879    -7.747541    413.28443   0.02105157  0.020988009            4 
 1637000   0.98973505   -7.7328235     412.1421  0.020980559  0.020981378            3 
 1638000   0.99572484   -7.7375374    414.15277  0.021070043  0.020974792            6 
 1639000   0.99965695   -7.7701158    413.24953  0.021011263  0.020968096            2 
 1640000   0.98220297   -7.7633346    412.84316  0.020977803  0.020961317           14 
 1641000   0.98230368    -7.820114    411.39019  0.020891234  0.020954494            9 
 1642000   0.99541205   -7.7747368    412.63705  0.020941791   0.02094767            6 
 1643000   0.99493628   -7.7903069    413.27984  0.020961647  0.020940851            3 
 1644000   0.98811945   -7.7647815    412.16056  0.020892161  0.020934059            3 
 1645000    0.9724194   -7.8230411    412.02959  0.020872826  0.020927218            4 
 1646000   0.99465835   -7.7810978    413.33666  0.020926319  0.020920382            5 
 1647000   0.98008661    -7.761207    414.00321  0.020947339  0.020913591            6 
 1648000    1.0006342   -7.7442059    414.20409  0.020944786  0.020906891            3 
 1649000   0.96462139   -7.7246061    416.04786  0.021025261  0.020900292            6 
 1650000    1.0090997   -7.7710712    414.89787  0.020954438  0.020893712            4 
 1651000   0.99114004   -7.7513675    414.48799  0.020921057  0.020887045            4 
 1652000   0.99931139   -7.7502373    413.45521  0.020856296  0.020880305            5 
 1653000    0.9746744   -7.7309797    414.89952  0.020916491  0.020873603            4 
 1654000   0.98496311   -7.7548064    415.06996  0.020912433  0.020866922            4 
 1655000    1.0016348   -7.8033471    413.24234  0.020807771  0.020860217            8 
 1656000   0.98242563   -7.7277464     414.2923  0.020848042   0.02085348            3 
 1657000    1.0055073   -7.7223119    416.61711  0.020952379  0.020846839            5 
 1658000   0.99824969   -7.7511007     416.1855  0.020918049  0.020840305            3 
 1659000   0.98785458   -7.7301961    416.34711  0.020913558  0.020833665            5 
 1660000   0.99580596   -7.7285052    415.06069   0.02083638  0.020827098            2 
 1661000   0.97752605   -7.7696269    415.23089  0.020832375   0.02082049            2 
 1662000   0.95749347   -7.8039997    414.26667  0.020771493   0.02081375            5 
 1663000   0.97515344   -7.7896642    414.86035  0.020788753   0.02080697            3 
 1664000   0.98855336   -7.7728732    416.10481  0.020838582  0.020800244            3 
 1665000    1.0014986   -7.8135453    414.09346  0.020725398  0.020793453            2 
 1666000   0.99392571   -7.7615194    415.05474  0.020761042  0.020786697           12 
 1667000    1.0042578    -7.791461    415.98081  0.020794881  0.020779925            3 
 1668000   0.97183196   -7.7740533    414.86988  0.020726912  0.020773187            4 
 1669000   0.96997909   -7.7733598    416.09892   0.02077586  0.020766563            6 
 1670000   0.97929672   -7.7829993    416.48943  0.020782906  0.020759874            3 
 1671000   0.99682421   -7.7439963    417.45779  0.020818761  0.020753231            4 
 1672000   0.99920992    -7.724012    418.84279  0.020875338  0.020746653            1 
 1673000    0.9737324   -7.7540629    416.88035   0.02076511  0.020740043            3 
 1674000   0.99604288   -7.7710788     416.6155  0.020739521  0.020733365            3 
 1675000   0.97674702    -7.790369     417.9643  0.020794244  0.020726672            8 
 1676000    1.0005248   -7.7756999    417.27533   0.02074758  0.020719999            4 
 1677000   0.97026061   -7.7857404    417.08492  0.020725746  0.020713329            5 
 1678000   0.99039653   -7.8313409    416.18872  0.020668888  0.020706604            4 
 1679000   0.99588429   -7.7451997    418.69245  0.020780844  0.020699996            2 
 1680000   0.99577117   -7.7799885    417.77371  0.020722902  0.020693433            5 
 1681000   0.98495008   -7.7843134    417.52279  0.020698136  0.020686862            4 
 1682000   0.97989372   -7.7375052    419.52566   0.02078506  0.020680303            4 
 1683000   0.97794323   -7.7825127    418.82218  0.020737878  0.020673679            6 
 1684000   0.98537105   -7.7659481    419.40822  0.020754564  0.020667098            4 
 1685000   0.99065536   -7.7698914    418.54356  0.020699484  0.020660468            3 
 1686000   0.95908548     -7.79696    418.39651  0.020679938  0.020653769            2 
 1687000   0.98235488   -7.7806841    417.77509  0.020636983   0.02064707            5 
 1688000   0.99158974   -7.7484482    418.62501  0.020666716  0.020640429            4 
 1689000   0.98254618   -7.7916331    419.43786  0.020694585  0.020633766            1 
 1690000   0.98161482   -7.7678749    418.93531  0.020657559  0.020627138            5 
 1691000   0.98710642   -7.8085252    418.68215  0.020632867  0.020620568            3 
 1692000   0.95177422   -7.7791976    418.45391  0.020609432  0.020613983            7 
 1693000   0.97707574   -7.7844951    421.18093  0.020731489  0.020607443            2 
 1694000   0.96166702   -7.7842499    418.47851   0.02058631  0.020600901            6 
 1695000   0.98473829   -7.7721667     419.6818  0.020633324  0.020594315            6 
 1696000   0.96383521   -7.7910411    420.01198  0.020637381  0.020587763            5 
 1697000   0.96649158   -7.7812898    420.50415  0.020649389   0.02058122            7 
 1698000   0.96923812   -7.7704053    421.18959  0.020670867  0.020574737            5 
 1699000   0.97613673   -7.8097137     420.4653  0.020623175  0.020568161            3 
 1700000   0.98809001   -7.7982516    421.09112  0.020641722  0.020561635            3 
 1701000   0.96333969   -7.7708588    420.65568  0.020608254  0.020555069            5 
 1702000    0.9896679   -7.7998832    419.55511   0.02054226  0.020548533            7 
 1703000   0.97133706   -7.7984565    421.21484  0.020611413  0.020541946            2 
 1704000   0.94062495   -7.7901643      421.701  0.020623093  0.020535444            4 
 1705000   0.95417913   -7.7834876    421.76358  0.020614056  0.020528927            3 
 1706000   0.96265404   -7.7884049    420.67896  0.020548992  0.020522491            5 
 1707000   0.99484817   -7.8131772    420.34175  0.020520491  0.020515951           12 
 1708000   0.98372923    -7.801602    420.83152  0.020532373  0.020509318            3 
 1709000   0.96703271    -7.771206    422.73979  0.020613409  0.020502824            3 
 1710000   0.99405973    -7.842137    422.18168  0.020574156  0.020496285            4 
 1711000    0.9696902   -7.7908947    422.91017  0.020597612    0.0204898            5 
 1712000   0.98721223   -7.7545139    424.08549   0.02064279  0.020483252           14 
 1713000   0.96887548   -7.7893811    422.49668  0.020553448  0.020476758            3 
 1714000    1.0024102   -7.7704093    423.11516  0.020571527  0.020470292            4 
 1715000   0.97151736   -7.7851104    422.01316  0.020505984  0.020463815            3 
 1716000   0.96662383    -7.788057    422.37164  0.020511443  0.020457272            2 
 1717000   0.95744064   -7.7817945    423.03858  0.020531867  0.020450739            5 
 1718000   0.98266642   -7.7720026    423.10724  0.020523246  0.020444228            2 
 1719000   0.96461487   -7.7884717    422.17153  0.020465946  0.020437718           16 
 1720000   0.96850024    -7.800694    422.46055   0.02046805  0.020431229            3 
 1721000    0.9907181   -7.7786705    424.06871  0.020534026  0.020424748            4 
 1722000   0.96998523   -7.7825933     423.3931  0.020489407  0.020418333            3 
 1723000   0.97484741    -7.753404    424.16648   0.02051492  0.020411942            2 
 1724000   0.97104541   -7.7959811    424.38907  0.020513779  0.020405563            4 
 1725000   0.98326744   -7.7860791    424.05438  0.020485719  0.020399193            3 
 1726000    1.0019682   -7.7504535    423.74939  0.020459124  0.020392756           11 
 1727000   0.96636718   -7.8244425    423.50044  0.020435266  0.020386343            2 
 1728000    1.0187246   -7.8459964    424.46495  0.020469953   0.02037983            4 
 1729000    0.9598539   -7.7671379    425.32313  0.020499476  0.020373467            2 
 1730000   0.98516998   -7.8168087    423.95296  0.020421626  0.020367058            3 
 1731000    0.9809634   -7.8533192     423.2314  0.020375092   0.02036056            4 
 1732000   0.98871093   -7.8369349    424.55218  0.020426875  0.020354096            2 
 1733000   0.97464173     -7.82131    424.73037  0.020423657  0.020347634            5 
 1734000   0.96199014   -7.8152829    424.20295  0.020386532  0.020341215            8 
 1735000   0.97804654   -7.7748868    425.20103   0.02042272  0.020334833            5 
 1736000   0.97408745   -7.7559046    426.34466  0.020465853  0.020328458            3 
 1737000   0.96572787   -7.7977096    425.58227  0.020417495  0.020321944            2 
 1738000   0.96296818    -7.781256    425.21091  0.020387942  0.020315515            3 
 1739000   0.96045338   -7.8209184    423.78902   0.02030808  0.020309011            3 
 1740000   0.97246412   -7.8318219        424.7  0.020340038  0.020302529            5 
 1741000   0.95541157   -7.8267052    425.05231  0.020345219  0.020296023            8 
 1742000   0.97516833    -7.796418    426.41897  0.020398918  0.020289509            3 
 1743000   0.97203148   -7.8015199    425.81781  0.020358472  0.020283029            6 
 1744000   0.97215078   -7.8013214    426.78319  0.020392928  0.020276523           14 
 1745000   0.96042378   -7.7769658    426.53102  0.020369198  0.020270045            5 
 1746000   0.97362583   -7.8025743    426.59935  0.020360794  0.020263586            5 
 1747000   0.96714675   -7.8381318    425.98971  0.020320059   0.02025703            3 
 1748000    0.9892712   -7.7976519    426.44201  0.020329997  0.020250482           10 
 1749000   0.96699077   -7.7773542    426.68376  0.020329891  0.020243915            8 
 1750000   0.96676095   -7.8388938    426.47511  0.020308339  0.020237365            3 
 1751000    0.9745067   -7.8133521    427.17626   0.02033011  0.020230824            4 
 1752000   0.98126815   -7.7985547    426.95297  0.020307885   0.02022425            7 
 1753000   0.97265451   -7.8632887    425.84782  0.020243764  0.020217606            6 
 1754000   0.97370801   -7.8226969     426.8785  0.020281191  0.020210983            2 
 1755000   0.98435351   -7.8336913    426.99771  0.020275295  0.020204383            3 
 1756000   0.96391428   -7.8354422    426.10657  0.020221458  0.020197848            6 
 1757000   0.97430649    -7.820188    427.15595  0.020259721  0.020191271            3 
 1758000   0.95707408   -7.8356827    428.10523  0.020293194  0.020184763            6 
 1759000   0.97750895   -7.8262459    427.03615  0.020231009  0.020178245            3 
 1760000   0.96706654   -7.8392586    427.64462  0.020248325    0.0201717            4 
 1761000   0.98075283   -7.7814402    428.76976   0.02029007  0.020165206            5 
 1762000   0.98499229   -7.8452543    428.81601  0.020280742  0.020158713            2 
 1763000    0.9816807   -7.8141273    427.11877  0.020189013  0.020152272            4 
 1764000   0.97571828   -7.8436778    426.92516  0.020168422  0.020145771            2 
 1765000   0.98257721   -7.8216961    428.42983  0.020228037  0.020139315            6 
 1766000   0.94721052   -7.8295951    427.40153   0.02016806  0.020132833            6 
 1767000   0.99487118   -7.8286956    427.09275  0.020142084  0.020126221            5 
 1768000   0.99716511   -7.8292707    427.49253  0.020149535  0.020119678            2 
 1769000   0.95019758    -7.840845    427.69033  0.020147462  0.020113062            3 
 1770000   0.97155601   -7.8128457    428.88455  0.020192304  0.020106502            5 
 1771000   0.98684043   -7.8196255    428.82086  0.020177906       0.0201            5 
 1772000   0.99650992   -7.7787062    429.42415   0.02019489  0.020093449            4 
 1773000   0.97360629   -7.8285445    428.57101  0.020143402  0.020086925            7 
 1774000   0.96151617    -7.806027    428.86669  0.020145936  0.020080398            4 
 1775000   0.97044044   -7.8164899    427.77412  0.020083292  0.020073815            3 
 1776000   0.97356593   -7.8142653    428.54788   0.02010829  0.020067244            4 
 1777000    0.9751575   -7.8166576    428.48324  0.020093943  0.020060648            1 
 1778000   0.97210308   -7.8469751     427.8576  0.020053319  0.020054005            3 
 1779000   0.95706283   -7.8325702    428.38162  0.020066592  0.020047448            5 
 1780000   0.96804532   -7.7980737    430.02131  0.020132084   0.02004087            6 
 1781000   0.96716156   -7.8471976     429.8658  0.020113503  0.020034387            4 
 1782000   0.98606096   -7.8442605    429.10997  0.020066871  0.020027775           10 
 1783000   0.98367173   -7.8632767    428.42042  0.020023388  0.020021139           11 
 1784000   0.95885161   -7.8168588    429.86221  0.020079513  0.020014471            7 
 1785000   0.97920235   -7.8148729     430.1478  0.020081596  0.020007929            5 
 1786000   0.97357059   -7.8280654    429.50871  0.020040533  0.020001339            4 
 1787000   0.93998585   -7.8211326    428.54689  0.019984466  0.019994692            4 
 1788000   0.94663452   -7.8185989    429.10627   0.01999936  0.019988067            3 
 1789000    0.9577393   -7.8337063    430.29625  0.020043611  0.019981433            5 
 1790000    0.9555991    -7.797566    430.27197  0.020031283  0.019974889            3 
 1791000   0.93756283   -7.8452575    430.46733  0.020029189  0.019968251            2 
 1792000   0.98429734   -7.7960134    429.19692  0.019958934  0.019961568            3 
 1793000   0.93549008   -7.8069638    430.69058  0.020017223  0.019954932            2 
 1794000   0.96797386   -7.8351725    429.72559  0.019961241  0.019948304            5 
 1795000   0.96550532   -7.7940678     431.0181  0.020010125  0.019941679            5 
 1796000    0.9582675   -7.8719695    429.06184  0.019908214  0.019934956            4 
 1797000   0.96120974   -7.8517709    430.91951  0.019983283  0.019928257            4 
 1798000   0.96062753   -7.8368119    429.58117  0.019910139  0.019921556            2 
 1799000   0.95428053   -7.8505946    430.06525  0.019921496   0.01991485            4 
 1800000   0.96992204   -7.8251252    430.39822  0.019925844  0.019908271           10 
 1801000   0.95934669   -7.8283846    430.61695    0.0199249  0.019901675            2 
 1802000   0.95742396   -7.8245903    431.15121   0.01993855  0.019895053            6 
 1803000   0.96582675   -7.8150228    431.91517  0.019962801  0.019888403            4 
 1804000    0.9740084   -7.8171768    430.55792  0.019889039  0.019881754            3 
 1805000   0.96331153   -7.8723774      430.475  0.019874192  0.019875059            9 
 1806000   0.97133915   -7.8126987    431.36772   0.01990438  0.019868446            6 
 1807000   0.97052561   -7.8389649    431.62231  0.019905106  0.019861845            8 
 1808000    0.9429901   -7.8040506    431.50935   0.01988889  0.019855245            3 
 1809000   0.96350822   -7.8485361    431.42963  0.019874223  0.019848643            5 
 1810000   0.96845106   -7.8215294    431.55572  0.019869048  0.019842021            5 
 1811000   0.97628186   -7.8179949    431.97986  0.019877594  0.019835391            5 
 1812000    0.9455713   -7.8266312    432.83609  0.019906001  0.019828785            2 
 1813000    0.9589255   -7.8360269    431.29754  0.019824303  0.019822224            7 
 1814000   0.95421162   -7.8069042    432.85389  0.019884872  0.019815588            4 
 1815000   0.95202245   -7.8351905     433.8675  0.019920455  0.019808982            6 
 1816000   0.97077829   -7.8453734    433.55925   0.01989534  0.019802478            5 
 1817000   0.96937704   -7.8320164    433.88962  0.019899542  0.019795924           10 
 1818000   0.95500197    -7.831074    432.33299  0.019817244  0.019789326            3 
 1819000   0.96458858   -7.8303271    433.91548  0.019878847  0.019782775            3 
 1820000   0.97745789    -7.850259    433.94365  0.019869215  0.019776184            4 
 1821000   0.94581627    -7.852074    432.41796  0.019788484  0.019769609            2 
 1822000   0.95834327   -7.8209533    433.21013  0.019813855  0.019763117            2 
 1823000   0.96462824   -7.8368235    434.74066   0.01987295  0.019756658            7 
 1824000   0.98117664   -7.8511745    433.50091  0.019805414   0.01975019            5 
 1825000   0.95751904   -7.8341918    434.22712  0.019827722  0.019743732            3 
 1826000   0.97571825   -7.8639058    434.75549  0.019840977  0.019737287            3 
 1827000   0.99034812   -7.8242584    435.43618  0.019861165  0.019730829           12 
 1828000    0.9623292   -7.8251996    435.24159  0.019841429  0.019724362           14 
 1829000   0.96430497   -7.8146143    434.86139  0.019813258  0.019717904            4 
 1830000   0.99735843   -7.8683331    434.38697  0.019780827  0.019711416            3 
 1831000   0.95935395   -7.8693765    434.99195  0.019797558  0.019704918            3 
 1832000   0.95568156   -7.8560318    435.14343  0.019793642  0.019698484            3 
 1833000    0.9665938   -7.8442643    435.29249  0.019789621  0.019692001            2 
 1834000   0.94218021   -7.8268122      435.196  0.019774446  0.019685551            5 
 1835000   0.97007484   -7.8523076    434.38662  0.019726913  0.019679035            3 
 1836000   0.95875115   -7.8693828    433.87724  0.019693048  0.019672487            3 
 1837000   0.95325749   -7.8440104    435.45367  0.019753841  0.019666015            3 
 1838000   0.96272252   -7.8395004    436.13098  0.019773802  0.019659527            7 
 1839000   0.98342789   -7.8471622    434.86804   0.01970582   0.01965296           15 
 1840000   0.94961298   -7.8618538    435.25434  0.019712606  0.019646392            4 
 1841000   0.95353124    -7.854218    435.04779  0.019692549  0.019639816           11 
 1842000   0.93710709   -7.8932363    434.28117  0.019647175  0.019633182           11 
 1843000   0.97155097   -7.8726142    433.77702   0.01961372   0.01962649           13 
 1844000   0.91409886   -7.8853287    434.62846  0.019641561  0.019619809            5 
 1845000   0.94309311   -7.9048753    434.70473   0.01963436  0.019613177            2 
 1846000   0.96576584   -7.8595233    435.10412  0.019641753  0.019606553            2 
 1847000   0.94754768   -7.8795479    435.60513  0.019653724  0.019599972            3 
 1848000   0.95348183     -7.83768    436.06649  0.019663893  0.019593392            5 
 1849000   0.95060476   -7.8627416    435.59845  0.019632164  0.019586799            3 
 1850000   0.96040768   -7.8327574    436.56827  0.019665237  0.019580244            3 
 1851000   0.93941903   -7.8597495    437.52586  0.019697725  0.019573715            2 
 1852000   0.95483222   -7.8752286    434.87871  0.019567976  0.019567115            8 
 1853000   0.94221499   -7.8820579     436.0142  0.019608482  0.019560519            4 
 1854000    0.9554586   -7.8774428    437.60654  0.019669478  0.019553958            5 
 1855000   0.93406776   -7.8652007    435.95516  0.019584688  0.019547471            6 
 1856000   0.95084079    -7.870736    435.20743  0.019540563  0.019540896            6 
 1857000   0.93879269     -7.86642    436.28984  0.019578614  0.019534368            8 
 1858000   0.94737007   -7.8113285    437.68434  0.019630622  0.019527907            3 
 1859000   0.94627063   -7.8493486    437.65975  0.019618959  0.019521411            3 
 1860000   0.96611719   -7.8596301    437.05936  0.019581513  0.019514889            2 
 1861000   0.94671689   -7.8567339    437.81217    0.0196047  0.019508294            4 
 1862000   0.95319211   -7.8361671    436.92845  0.019554621  0.019501723           13 
 1863000   0.95716985   -7.8006074    437.50041  0.019569709  0.019495204           14 
 1864000   0.96139796   -7.8723541     437.2488  0.019547962  0.019488712            9 
 1865000   0.97332918   -7.8286464    437.93689  0.019568226  0.019482211            3 
 1866000   0.95635561   -7.8778961    436.99345  0.019515606  0.019475726            5 
 1867000   0.94179488   -7.8219435    439.10949  0.019599602   0.01946924            8 
 1868000    0.9560159   -7.8560077     438.6398  0.019568157  0.019462796            4 
 1869000   0.95966547   -7.8782478    437.68569  0.019515146  0.019456319            6 
 1870000   0.95898949   -7.8908934     436.1954  0.019438298  0.019449745            3 
 1871000   0.93786015   -7.8705684     438.5673  0.019533552  0.019443149            4 
 1872000   0.96910343   -7.8995828    437.46044  0.019473844  0.019436614            4 
 1873000   0.94497762   -7.9033474    437.47073  0.019463905  0.019430049            5 
 1874000   0.95262267   -7.8699104    438.91467  0.019517728  0.019423507            3 
 1875000   0.95870314   -7.8904854    437.13886  0.019428394  0.019416898            3 
 1876000     0.972616   -7.8958774     437.6475  0.019440632   0.01941028            3 
 1877000   0.96601306   -7.9016697     437.1969  0.019410269  0.019403579           15 
 1878000   0.95778329   -7.9244238    437.46717  0.019411926  0.019396971           13 
 1879000   0.94614755    -7.873285    438.77991  0.019459815  0.019390379            6 
 1880000    0.9526907   -7.8849057    437.56894  0.019395786  0.019383843            7 
 1881000   0.92557498   -7.8415266    439.44042  0.019468386  0.019377368           10 
 1882000   0.96343219   -7.8626274    439.14429   0.01944493  0.019370882            3 
 1883000   0.94948503    -7.882783    440.04508  0.019474468  0.019364407            3 
 1884000   0.92575472   -7.8953072    439.43274  0.019437046  0.019357935            5 
 1885000   0.95311225   -7.8262792     440.6967  0.019482613  0.019351528            6 
 1886000   0.97673516   -7.8949415    438.99694  0.019397178  0.019345068            9 
 1887000   0.95996047    -7.873315    440.34706  0.019446523  0.019338595            7 
 1888000   0.92856741   -7.8928106    439.67607  0.019406606  0.019332104            5 
 1889000   0.96204922   -7.9138101    439.05961  0.019369138  0.019325593           10 
 1890000   0.92915943   -7.9113883    437.56059  0.019292795  0.019318975            5 
 1891000   0.93564994   -7.9023056    439.76109  0.019379565  0.019312393            2 
 1892000   0.94335488   -7.8515537    439.56374   0.01936063  0.019305848            5 
 1893000   0.92970743   -7.8685665    441.02974  0.019414939  0.019299363            4 
 1894000   0.96058863   -7.8885702    440.03463  0.019360904  0.019292834            5 
 1895000   0.94747732   -7.8927931    440.00874  0.019349549  0.019286298            7 
 1896000   0.95468764    -7.915921     439.7012  0.019325826  0.019279702            5 
 1897000   0.93731023   -7.9125332    440.13655  0.019334763   0.01927316            5 
 1898000   0.93763172   -7.9066444    440.96542  0.019360968  0.019266614            5 
 1899000   0.93965927   -7.8934268    440.24493  0.019319156  0.019260082            2 
 1900000   0.96640555   -7.8604629    441.39844  0.019359581  0.019253575            4 
 1901000   0.93773475   -7.8579055    441.60055  0.019358257  0.019247159            3 
 1902000   0.96358668   -7.8991081    440.76576  0.019311504  0.019240728            9 
 1903000   0.95349084   -7.8939494    440.59507  0.019293881  0.019234241            3 
 1904000   0.93813619   -7.9210582    440.22787  0.019267677  0.019227688            3 
 1905000   0.96103643   -7.8792248     441.3834   0.01930811    0.0192212            6 
 1906000   0.95840924   -7.9256687    441.28979  0.019293887  0.019214669            3 
 1907000   0.95476437   -7.8682686    441.74738  0.019303766   0.01920822            5 
 1908000   0.95469511   -7.8562962    442.05645  0.019307148  0.019201787           16 
 1909000   0.95140424   -7.8677218    441.56025  0.019275373  0.019195352            3 
 1910000   0.96088224   -7.8576854    443.46093  0.019348208  0.019188894            7 
 1911000    0.9359943   -7.8738412    442.17116   0.01928184  0.019182514            7 
 1912000   0.92871625   -7.8962909    442.11287  0.019269215  0.019176157            2 
 1913000   0.94356413   -7.8790113    442.87769  0.019292459  0.019169836            5 
 1914000    0.9632833   -7.8877605    442.42137  0.019262512  0.019163472            4 
 1915000   0.94081239   -7.8568629    443.23414  0.019287821  0.019157088            3 
 1916000   0.95329832   -7.8768143    443.97962  0.019310178  0.019150699            2 
 1917000   0.93123492   -7.9178752    442.27558  0.019226029  0.019144219            4 
 1918000   0.94466548   -7.9008899    443.06192   0.01925017  0.019137764            3 
 1919000   0.92832064   -7.9100354    442.49022  0.019215313  0.019131298            3 
 1920000   0.92208483   -7.8870837    443.21199  0.019236632  0.019124879            7 
 1921000   0.94962374   -7.8978195    443.32338   0.01923145  0.019118487            7 
 1922000     0.938186   -7.8557472     443.9885  0.019250282  0.019112104            6 
 1923000   0.93941211   -7.8913693    442.67519  0.019183359  0.019105718            4 
 1924000   0.94782302   -7.8568629    444.06805  0.019233717  0.019099332            3 
 1925000   0.93889208   -7.9142965    442.34589  0.019149173  0.019092924            4 
 1926000   0.95533754   -7.9096202    441.95519  0.019122326  0.019086422            6 
 1927000   0.93269206   -7.8690817    442.79213  0.019148596  0.019079982            3 
 1928000   0.93172037    -7.887018    443.20408   0.01915647  0.019073526            4 
 1929000   0.93844528   -7.8582278    444.73742   0.01921278  0.019067103            1 
 1930000   0.94620115    -7.872716    444.44022  0.019189992  0.019060732            3 
 1931000   0.93852851   -7.8721127    445.01343  0.019204791  0.019054411            5 
 1932000   0.93894507   -7.8817874    443.90748  0.019147148  0.019048067            3 
 1933000   0.95429573   -7.8434702    445.53661  0.019207476  0.019041702            7 
 1934000   0.96326422   -7.8673787    445.24213  0.019184855  0.019035321            2 
 1935000   0.93990866   -7.8753518    444.92907  0.019161459  0.019028925           11 
 1936000   0.93448616   -7.8922197    444.09455   0.01911564   0.01902259            6 
 1937000   0.97755939   -7.8995167    444.32493  0.019115683  0.019016209            4 
 1938000   0.93918903   -7.8778243    446.17825  0.019185511  0.019009814            5 
 1939000    0.9538038   -7.9326805    444.07476  0.019085214  0.019003452            7 
 1940000   0.92731822   -7.9208312    443.67601  0.019058248  0.018996992            7 
 1941000   0.93889945   -7.9050038    444.64619  0.019090082  0.018990523            3 
 1942000   0.93095231   -7.9138683    444.91649  0.019091851  0.018984068            3 
 1943000   0.93369519   -7.9168867     444.4311  0.019061207  0.018977633            4 
 1944000   0.93767532   -7.9201224    444.83365  0.019068658  0.018971171            2 
 1945000   0.93950813   -7.9075673    445.16103   0.01907288  0.018964665            2 
 1946000   0.95945729   -7.9135604    443.81624  0.019005492  0.018958147            4 
 1947000   0.95829447   -7.9105198    445.73639  0.019077914  0.018951715            3 
 1948000   0.94286282   -7.9009399    445.80639  0.019071115  0.018945341            3 
 1949000   0.93071729   -7.9052661    445.50347  0.019048378  0.018938987            3 
 1950000   0.93889463   -7.8775179    445.97945  0.019058951   0.01893268            9 
 1951000   0.91952377   -7.8927094    445.32241  0.019021118   0.01892635            4 
 1952000   0.92980357   -7.8900868    447.15538  0.019089625  0.018919982            4 
 1953000   0.91886058   -7.9104413    446.33735  0.019044946  0.018913613            6 
 1954000   0.94246095   -7.8823631    446.37676   0.01903688  0.018907235            4 
 1955000   0.96158298   -7.9185659     446.0558  0.019013461  0.018900828            4 
 1956000   0.94299515   -7.9189048    446.03392  0.019002808  0.018894443            5 
 1957000   0.94057653   -7.9181281    446.05202  0.018993869  0.018887999            4 
 1958000   0.94533679   -7.8733709    445.80242  0.018973545  0.018881584            4 
 1959000   0.93775929    -7.935238    446.41923  0.018990098  0.018875169            8 
 1960000   0.93858113   -7.9033814    445.18233   0.01892782  0.018868774            4 
 1961000   0.94668829   -7.9028784    445.70071  0.018940197  0.018862372            7 
 1962000   0.93395578   -7.8904103    445.43574  0.018919289  0.018855944            7 
 1963000   0.94653515   -7.9493598    445.54943  0.018914477  0.018849506            3 
 1964000    0.9466259   -7.8857428    446.72816  0.018954861  0.018843045            9 
 1965000   0.94191582   -7.9023245    445.97201  0.018913147  0.018836593            4 
 1966000   0.95180041   -7.8938432     446.3284  0.018918633  0.018830115            4 
 1967000   0.92977341   -7.9450768    445.12159  0.018857888  0.018823652            6 
 1968000   0.94213312    -7.927143    447.07495  0.018931019  0.018817126            9 
 1969000   0.93904285   -7.8890766    446.16221  0.018882775  0.018810551            7 
 1970000    0.9390889   -7.8995139    445.73679  0.018855194  0.018803999            5 
 1971000   0.93752373   -7.9110918      446.666  0.018884915  0.018797544            7 
 1972000   0.94793537   -7.9016829    447.38994  0.018905931  0.018791107           11 
 1973000    0.9458815   -7.8930755    445.90874  0.018833787  0.018784624            7 
 1974000     0.938602   -7.9318937    446.22374  0.018837544  0.018778141            5 
 1975000   0.93472922   -7.9232581    447.10365  0.018865133  0.018771672            3 
 1976000   0.93512681   -7.9029997    446.78744   0.01884225  0.018765199            4 
 1977000   0.94022879    -7.926261    445.96046  0.018797861  0.018758761            4 
 1978000   0.94067056   -7.9142642    446.96595  0.018830719  0.018752331            3 
 1979000   0.94311334   -7.9276922    446.91978   0.01881926  0.018745859            4 
 1980000   0.91765041   -7.9036028    447.39327  0.018829683  0.018739398            3 
 1981000   0.95737336   -7.9289171    446.73661  0.018792555  0.018732942            5 
 1982000    0.9340104   -7.9125144    447.64154  0.018821121  0.018726467            4 
 1983000   0.93794471   -7.9105631    447.65616  0.018812244  0.018719972            4 
 1984000    0.9156819   -7.9039386    447.06445  0.018777909  0.018713518            3 
 1985000   0.94567117    -7.905496    448.05804  0.018810161  0.018707058           12 
 1986000   0.93288118   -7.9078941     449.5682  0.018864057  0.018700633            9 
 1987000   0.90759425   -7.8919594    448.70483  0.018818354  0.018694231           12 
 1988000   0.90728132   -7.9137675    447.96291  0.018777788  0.018687783            5 
 1989000   0.95049745   -7.9211535    447.50421  0.018749129  0.018681277            2 
 1990000   0.93289628   -7.9092003    448.68064  0.018788972  0.018674755            3 
 1991000   0.94981092   -7.9581803    448.11358    0.0187558  0.018668265            5 
 1992000   0.93567441   -7.9369394    447.80684  0.018733552  0.018661798            4 
 1993000   0.92785287   -7.9088758    448.38764  0.018748438   0.01865533            6 
 1994000   0.92608019   -7.9189571    448.51091  0.018744187  0.018648888            3 
 1995000   0.93205643   -7.9260931    447.98089  0.018712652  0.018642428            4 
 1996000   0.94635811    -7.928316    448.14004  0.018709922  0.018635928            5 
 1997000   0.93448593   -7.9180922    448.45891  0.018713859  0.018629477            4 
 1998000   0.92411713   -7.9304999    448.04016  0.018687027  0.018623025            3 
 1999000   0.92233452   -7.9046411    448.27061  0.018687286   0.01861657            3 
 2000000   0.93093473   -7.9254461    448.37265  0.018682194  0.018610139            6 
 2001000   0.92042599   -7.8888586    449.68973  0.018727708  0.018603762            4 
 2002000   0.93008425    -7.906598     449.2895  0.018701694  0.018597427            4 
 2003000   0.92223215   -7.9437869    448.53728  0.018661062  0.018591001            3 
 2004000   0.94004154   -7.9233772    448.58415  0.018653699  0.018584619            7 
 2005000   0.94269686   -7.9332863    448.93743  0.018659079  0.018578247            7 
 2006000   0.94613464   -7.9229742    449.36289  0.018667451   0.01857185            6 
 2007000   0.94000585   -7.9610497    448.42933  0.018619388  0.018565446           12 
 2008000   0.91993492   -7.9268768    449.85429  0.018669252  0.018559027           12 
 2009000   0.93572882   -7.9547354    450.85462  0.018701453  0.018552632            6 
 2010000   0.91889628    -7.909092    449.61684  0.018640831  0.018546232            2 
 2011000   0.91552541   -7.9210941     450.4695  0.018666895  0.018539813            3 
 2012000   0.92819236   -7.9203578    450.11548  0.018642954  0.018533433            5 
 2013000    0.9357137   -7.9061224    450.28649  0.018640772  0.018527036            6 
 2014000   0.93770577   -7.9046894     451.3957  0.018677412  0.018520646            4 
 2015000   0.92890818   -7.9205381    450.73843  0.018640961  0.018514228            2 
 2016000   0.94783192   -7.9354952    449.31936  0.018573056  0.018507735            5 
 2017000   0.91883987   -7.9569619    449.70158  0.018579639  0.018501316            5 
 2018000   0.94590103   -7.9829606    449.35495  0.018556118  0.018494859            3 
 2019000   0.93548158    -7.948299    449.99227  0.018573232  0.018488377            6 
 2020000    0.9212751   -7.9590389     450.5334  0.018586361  0.018481964            3 
 2021000   0.92326462   -7.9611705    449.54731  0.018536505  0.018475501            3 
 2022000   0.92661193   -7.9128572    451.78924  0.018619734  0.018469152            9 
 2023000   0.92164548   -7.9653844    449.23011  0.018505112  0.018462791            9 
 2024000   0.91232387   -7.9186124    450.62988  0.018553602  0.018456446            3 
 2025000   0.94046394   -7.9417171    451.47978  0.018579415  0.018450135            6 
 2026000   0.93963414   -7.9579275     450.8601  0.018544756  0.018443797            3 
 2027000   0.92274726   -7.9222053    452.76999  0.018614125  0.018437486            3 
 2028000   0.93566628   -7.9202416      451.991  0.018572937  0.018431175            3 
 2029000   0.90440239   -7.9723656    451.69338   0.01855156  0.018424876            4 
 2030000   0.92692622   -7.9421153    452.07661  0.018558153  0.018418617            6 
 2031000   0.92015965    -7.959052    451.10092  0.018508982  0.018412281            9 
 2032000   0.91844173   -7.9719267    451.24821  0.018505914  0.018405899            8 
 2033000   0.93961484   -7.9905528    451.93338  0.018524897  0.018399627            3 
 2034000   0.91235991   -7.9394614    453.59606  0.018583909  0.018393371            6 
 2035000   0.93466373   -7.9585937    451.69063   0.01849675  0.018387109            4 
 2036000   0.90366068    -7.941183    452.99938  0.018541232  0.018380891            6 
 2037000   0.90982887    -7.931149    452.31456  0.018504114   0.01837466            4 
 2038000   0.92518409   -7.9446146     453.1291  0.018528341  0.018368437            4 
 2039000   0.92777772   -7.9567031    453.59223  0.018538182  0.018362195            6 
 2040000   0.90822475   -7.9681211    453.13196  0.018510293  0.018355998            8 
 2041000   0.92172304   -7.9393069    453.23516  0.018505437  0.018349794            8 
 2042000   0.92301942   -7.9475669    453.05285  0.018488935  0.018343581            4 
 2043000    0.9199069   -7.9431664    453.63028  0.018503438  0.018337383            9 
 2044000   0.92868368   -7.9468548    454.33989  0.018523316  0.018331276            5 
 2045000   0.92939893   -7.9425083    454.13819  0.018506039  0.018325064            5 
 2046000   0.90741443   -7.9528867    454.93028  0.018529255  0.018318894            3 
 2047000   0.93638693   -7.9623701    454.66889  0.018509562  0.018312734            6 
 2048000   0.93584686   -7.9335925     455.1239  0.018519039  0.018306582            6 
 2049000   0.93342988   -7.9498528    454.26258  0.018474971  0.018300392            6 
 2050000   0.93408393   -7.9404995     453.7178  0.018443813  0.018294165           26 
 2051000   0.91687737   -7.9190429    454.40152    0.0184626  0.018287928           21 
 2052000   0.92246801   -7.9282571    454.03891  0.018438877   0.01828171            9 
 2053000   0.91821768   -7.9653055    454.14206  0.018434083  0.018275473            9 
 2054000   0.91329005   -7.9800634    452.76404    0.0183692  0.018269218            8 
 2055000   0.92749333    -7.968005    454.00292    0.0184105   0.01826296           25 
 2056000   0.90235318   -7.9557454    453.35101  0.018375122  0.018256695           10 
 2057000   0.92210319   -7.9647852    454.28845  0.018404167  0.018250418           16 
 2058000   0.93014509   -7.8982974    456.40493  0.018480925  0.018244205            4 
 2059000     0.940681   -7.9742459    453.80375  0.018366673    0.0182379            4 
 2060000   0.92821493   -8.0002972    452.29113  0.018296567  0.018231539            9 
 2061000   0.90196015   -7.9923406    453.88384  0.018352088  0.018225177            3 
 2062000   0.91821675   -8.0000272    453.37159  0.018322486  0.018218814            5 
 2063000   0.92676675   -7.9413242    455.54309  0.018401321  0.018212508            4 
 2064000   0.92903612   -7.9550624    454.83902  0.018363979  0.018206229            6 
 2065000   0.90984941   -7.9513497    454.51974  0.018342201  0.018199965            7 
 2066000   0.91196083   -7.9782023    454.38614  0.018327934  0.018193681            6 
 2067000   0.93793176   -7.9705158    454.45435  0.018321817  0.018187301            6 
 2068000   0.90728036   -7.9594978    454.25019  0.018304731  0.018180962            4 
 2069000   0.93083772   -7.9410843     455.1607  0.018332556  0.018174715            4 
 2070000   0.93422718   -7.9178292    456.23812  0.018367074  0.018168465            4 
 2071000   0.93105536   -7.9266359     453.8346  0.018261492  0.018162245            5 
 2072000   0.92073411   -7.9633405    455.59412  0.018323444   0.01815603            5 
 2073000   0.91354078    -7.957271    454.47428  0.018269588  0.018149791            4 
 2074000   0.91143453   -7.9595794    454.95017  0.018279901  0.018143477            4 
 2075000   0.93160245   -7.9442207     454.8113  0.018265514  0.018137237            5 
 2076000   0.90486211   -7.9383137    456.62188  0.018329395  0.018130996            2 
 2077000   0.90683501   -7.9734258    454.82415  0.018248441  0.018124704            5 
 2078000   0.90470041   -7.9263898    455.75445  0.018276967  0.018118467            7 
 2079000   0.88668859   -7.9740026    454.76323  0.018228444  0.018112249           11 
 2080000   0.91779088   -7.9960011     455.4878   0.01824871  0.018106022            8 
 2081000   0.89441899   -7.9345664    457.02415  0.018301464  0.018099839            5 
 2082000   0.94468971     -7.93216    456.21628  0.018260338  0.018093691            3 
 2083000    0.9161086   -7.9749285    456.73147  0.018272182  0.018087537            6 
 2084000   0.91788866   -7.9341794    456.41942  0.018250936  0.018081335            3 
 2085000   0.92431785   -7.9306087    456.41471  0.018241995  0.018075187            6 
 2086000   0.91281129   -7.9581635    456.53737   0.01823815  0.018069043            7 
 2087000   0.93497673   -7.9314011    457.91675  0.018284489  0.018062873            3 
 2088000   0.94808849   -7.9317221    456.64285   0.01822489   0.01805669           18 
 2089000   0.92037693   -7.9798267    456.03847  0.018192056  0.018050486            7 
 2090000   0.88945625   -7.9590487    456.69627   0.01820958  0.018044297           10 
 2091000   0.90730534   -7.9714477    456.49357  0.018192793  0.018038038            6 
 2092000   0.91828917   -7.9847705    457.31989  0.018217013  0.018031764            7 
 2093000   0.90407554   -7.9495724    456.21322  0.018164247  0.018025525            3 
 2094000   0.92445609   -7.9740705    455.40384  0.018123362  0.018019307            7 
 2095000   0.92516302   -7.9461227    458.26375  0.018228471  0.018013145            3 
 2096000   0.92259973   -7.9618452      457.003  0.018169649  0.018006965            4 
 2097000   0.89717562   -7.9645911    456.56616  0.018143624  0.018000748            2 
 2098000   0.89301521   -7.9431244    457.57719  0.018175135  0.017994538            3 
 2099000   0.90220658   -7.9739091    458.09904  0.018187194  0.017988373            3 
 2100000   0.92157351   -7.9840406    457.92054   0.01817145   0.01798225            7 
 2101000   0.91574784   -7.9967071    457.58798  0.018149611  0.017976126            3 
 2102000   0.91994298    -7.991987    457.73138  0.018146661  0.017969945            3 
 2103000   0.91513222   -7.9898163    458.15137  0.018154675  0.017963813            4 
 2104000    0.9388111   -7.9698257    458.17619  0.018147029  0.017957635            8 
 2105000   0.90224159   -7.9799291    458.19397  0.018139112  0.017951485           16 
 2106000   0.91768835   -8.0276725    457.36326  0.018097628  0.017945301            3 
 2107000    0.9239321   -7.9956686     457.9074   0.01811056  0.017939145            8 
 2108000   0.91809239   -7.9958351    459.35715   0.01815928  0.017932989            5 
 2109000   0.90290976   -8.0092412    457.90409  0.018093255  0.017926779            7 
 2110000   0.91689351    -7.992985    458.01409  0.018089024  0.017920628            7 
 2111000   0.92447487   -7.9568153     458.4587  0.018098007  0.017914472            7 
 2112000   0.90573634   -7.9761491    458.41916  0.018087877  0.017908317            4 
 2113000   0.92463102   -7.9730331    458.64473  0.018088213  0.017902194            4 
 2114000   0.88911526   -7.9732431    459.28045  0.018104716   0.01789616            6 
 2115000   0.90792858    -7.925611    461.21369  0.018172328  0.017890114            6 
 2116000   0.91305593   -7.9439417    460.55332  0.018137733  0.017884084            7 
 2117000   0.92342398   -7.9594223    459.87559  0.018102487  0.017878078           10 
 2118000   0.91926773    -7.955212    460.90678  0.018134513  0.017872058            5 
 2119000   0.92850349   -7.9661707    459.42805  0.018067801  0.017866035            5 
 2120000   0.89939638   -7.9577836    461.06993  0.018123818   0.01786001            2 
 2121000   0.92100844   -7.9823162    460.71669  0.018101394  0.017853956            6 
 2122000   0.90466511   -7.9425018    461.29466  0.018115561  0.017847947            3 
 2123000   0.88959575   -7.9796684    459.97371  0.018055178  0.017841926            6 
 2124000   0.91120178   -7.9739512    459.18467   0.01801572  0.017835865           10 
 2125000    0.9214808   -7.9834952    460.19419  0.018046831  0.017829773           17 
 2126000   0.91993483   -7.9739685    459.85769  0.018025152  0.017823711            7 
 2127000   0.91349933   -8.0033886    459.33112  0.017996048  0.017817626            4 
 2128000   0.91763049   -8.0220316    458.64887  0.017960874  0.017811509            5 
 2129000    0.8981285    -8.014253    460.14157  0.018010865  0.017805375            7 
 2130000   0.90706858   -7.9611007    460.61995  0.018021125  0.017799241            7 
 2131000   0.91204178   -7.9702786    459.66981  0.017975513  0.017793081           12 
 2132000   0.90475248   -7.9843689     459.5022   0.01796053  0.017786973           10 
 2133000   0.91479844   -8.0188641    460.07865  0.017974631  0.017780861            8 
 2134000   0.89704224   -7.9964546     459.8702  0.017958068   0.01777475            7 
 2135000   0.89672233   -7.9980592    460.13299  0.017959914  0.017768641            4 
 2136000   0.90528634   -7.9947233    460.70049  0.017973646  0.017762576            1 
 2137000   0.90468625   -7.9948553    459.48374  0.017917788  0.017756473            6 
 2138000   0.88821158   -7.9803341    461.74519  0.017997552  0.017750355            3 
 2139000   0.87882812   -8.0190997    460.59587  0.017944361  0.017744255            6 
 2140000   0.90786469   -8.0198502    460.59519   0.01793595  0.017738147           13 
 2141000   0.92401997   -8.0298407    460.86273  0.017937986  0.017732007           10 
 2142000    0.9072688   -8.0309721     460.4582  0.017913873  0.017725844            6 
 2143000   0.91611012   -8.0059727    460.01324  0.017888211  0.017719738           10 
 2144000   0.92507538   -8.0234741    460.26985  0.017889842  0.017713574            5 
 2145000   0.91846086    -7.938502    462.29723  0.017960265  0.017707477            6 
 2146000   0.90972866   -7.9966127    462.41253  0.017956373  0.017701393           12 
 2147000   0.89713898   -7.9779848    461.93706  0.017929555  0.017695296            4 
 2148000   0.89809872   -7.9905473    461.15588  0.017890901  0.017689253            4 
 2149000   0.89987679   -8.0301785    460.85414  0.017870875  0.017683158           10 
 2150000   0.90182744   -8.0018193    462.00958  0.017907348   0.01767703            6 
 2151000   0.91444296   -7.9952475    462.92214  0.017934377  0.017670931            5 
 2152000   0.91536292    -8.007486    461.45744  0.017869325  0.017664816            9 
 2153000   0.90809925   -8.0201864      462.525  0.017902346  0.017658711            3 
 2154000    0.9026421   -8.0228936    461.57261  0.017857189  0.017652613            5 
 2155000   0.90990903    -7.990836    462.18235  0.017872481  0.017646518            4 
 2156000   0.88874293   -8.0130147    461.74062  0.017847118  0.017640476            7 
 2157000   0.89795365   -8.0151658    461.97318  0.017847828  0.017634445            2 
 2158000   0.92507871   -8.0020659    461.62376  0.017826064  0.017628429            9 
 2159000   0.89461548   -8.0348837    462.25473  0.017842162  0.017622421            4 
 2160000   0.90219876   -8.0440094    461.50571  0.017805004   0.01761635            5 
 2161000   0.90111099   -8.0176164    462.47225  0.017834037  0.017610351            7 
 2162000   0.89453734   -8.0074199    462.58377  0.017830087  0.017604322            5 
 2163000   0.92865074   -7.9788882    463.14272  0.017843378  0.017598317           18 
 2164000   0.92125476   -8.0147107    463.62378  0.017853657  0.017592358            8 
 2165000   0.91705401   -7.9809067    464.01675  0.017860537  0.017586379            6 
 2166000   0.91920685    -7.989087    463.97134  0.017850544  0.017580427           19 
 2167000   0.88752582   -8.0153889    463.16009   0.01781111  0.017574425           12 
 2168000   0.91030509    -7.984751    464.42654  0.017851574  0.017568471            3 
 2169000   0.90660961   -7.9931488    464.48277  0.017845504  0.017562511            3 
 2170000   0.88191188   -7.9899879    464.38327  0.017833459  0.017556587            3 
 2171000   0.89157995    -7.961955     465.0017  0.017848983  0.017550626           10 
 2172000   0.91739355   -7.9744004    464.39913  0.017817646  0.017544656            4 
 2173000   0.89999449   -7.9851407    463.64062  0.017780358  0.017538744            8 
 2174000    0.9110267   -7.9668121    464.12354  0.017790691  0.017532852            4 
 2175000   0.88690096   -8.0013224    463.78628  0.017769589  0.017526923            2 
 2176000   0.90350196   -8.0130862    463.59916  0.017754257  0.017520945            4 
 2177000   0.89031871   -8.0020602    463.99634  0.017761305  0.017514996            9 
 2178000   0.89405861   -8.0176565     464.7798  0.017783127  0.017509076           11 
 2179000   0.91231242   -8.0420856    463.19209  0.017714245    0.0175031            8 
 2180000    0.8884271   -7.9951079    463.80258  0.017729456  0.017497162            3 
 2181000   0.90073364   -8.0351026    463.98086  0.017728139   0.01749119            5 
 2182000    0.9040799   -7.9941746    466.14028  0.017802485   0.01748526            3 
 2183000   0.89542083   -7.9975458    464.29826  0.017724014  0.017479389            9 
 2184000   0.90134348   -8.0056001    464.39584  0.017719621  0.017473474           16 
 2185000   0.92140354    -8.001307    464.88921  0.017730328   0.01746752            3 
 2186000   0.90541464   -7.9793432    464.89898   0.01772259  0.017461613           12 
 2187000   0.89748132   -8.0051426    465.64583  0.017742944  0.017455697            3 
 2188000   0.89906693   -8.0720097    464.85713  0.017704796  0.017449735            6 
 2189000   0.91608556   -8.0241381    464.21375  0.017672215  0.017443713            4 
 2190000   0.91522518   -8.0179816    464.66257  0.017681224  0.017437725            6 
 2191000   0.90773771     -7.99402    465.15211  0.017691774   0.01743176            4 
 2192000    0.9148121   -8.0225052    465.27766  0.017688475  0.017425846            5 
 2193000   0.89554838   -8.0589475    464.93598  0.017667426  0.017419885            7 
 2194000   0.90119336   -8.0260819    466.02158  0.017700607  0.017413957            5 
 2195000   0.90168176   -7.9939128    466.34205   0.01770471  0.017408047            7 
 2196000   0.88837077   -8.0108242    465.01403  0.017646252    0.0174021            6 
 2197000   0.90281674   -8.0075126    465.91939  0.017672561  0.017396182            6 
 2198000   0.91379429   -8.0242571    464.80568  0.017622296  0.017390255            5 
 2199000   0.89134696   -8.0222429     465.1017    0.0176255  0.017384337           10 
 2200000   0.88993531   -8.0162426    466.12534  0.017656263  0.017378373           10 
 2201000   0.88738603   -8.0510161    465.74534  0.017633853  0.017372392            6 
 2202000   0.91307375   -8.0528058    466.19265  0.017642774  0.017366442            4 
 2203000   0.89045288   -8.0232721    465.34139  0.017602564  0.017360522            8 
 2204000   0.90886686   -7.9974956    466.29413  0.017630601  0.017354631            4 
 2205000     0.897351   -7.9831201    466.09745  0.017615172  0.017348773            2 
 2206000   0.88854202   -7.9873745    466.23152  0.017612251  0.017342923           11 
 2207000   0.91571143   -8.0329021    466.40688  0.017610893  0.017337064            4 
 2208000   0.88012009   -8.0153962    465.11241  0.017554062  0.017331206            4 
 2209000   0.92003885   -8.0062492    466.92608  0.017614534  0.017325334           11 
 2210000   0.90937826   -8.0481246    466.55214  0.017592464  0.017319417           21 
 2211000    0.9069771   -8.0194425    466.42237  0.017579616  0.017313488           11 
 2212000   0.89578545   -8.0339944    466.89417  0.017589443  0.017307637            6 
 2213000   0.90579605   -8.0772702    465.76279  0.017538891  0.017301757            7 
 2214000   0.93501642   -8.0566401    465.31392  0.017514074  0.017295823            2 
 2215000   0.88347508   -8.0371322    467.05745  0.017571762   0.01728991            3 
 2216000   0.91371014   -8.0139483    467.43618  0.017578075  0.017284012           13 
 2217000    0.9214591   -8.0273119    467.31972  0.017565769  0.017278138            7 
 2218000   0.91645768   -8.0237417    468.36574   0.01759715  0.017272329            5 
 2219000   0.89282363   -8.0520271    467.34045  0.017550716  0.017266414            3 
 2220000   0.91778677   -8.0373756     466.3066  0.017504001  0.017260524            6 
 2221000   0.90372215   -8.0406584    466.65713  0.017509272    0.0172546            8 
 2222000   0.90110342   -8.0517471    466.35068    0.0174899   0.01724864           13 
 2223000   0.89660609   -8.0435021    466.95724   0.01750477  0.017242715           12 
 2224000   0.90578098   -8.0358938    466.59388  0.017483284  0.017236808            9 
 2225000   0.87354918   -8.0575641    466.23135  0.017461848  0.017230867            9 
 2226000   0.92343159   -8.0249059    469.37329  0.017571627  0.017224962            5 
 2227000    0.9002875   -8.0534927    467.15794  0.017480839  0.017219102            6 
 2228000    0.9067906   -7.9978773    468.01084  0.017504894  0.017213221            5 
 2229000   0.90020531   -8.0287082    467.42966  0.017475312  0.017207293            6 
 2230000   0.88210737   -8.0335665    467.83638  0.017482675  0.017201334           13 
 2231000   0.90913922   -8.0458658    467.59085  0.017465668  0.017195366            5 
 2232000   0.90934476   -8.0824753    466.78861   0.01742789  0.017189432           12 
 2233000   0.90352745   -8.1046305    466.51085   0.01740972  0.017183491           11 
 2234000   0.88740298   -8.0773685    467.67942  0.017445517  0.017177539            4 
 2235000   0.91224143   -8.0583206    468.75681  0.017477883  0.017171621            9 
 2236000   0.88119879   -8.0642724    467.63015  0.017428076  0.017165712            6 
 2237000   0.89606697   -8.0863855     467.4906  0.017415087  0.017159792           13 
 2238000   0.89845659   -8.0533177     467.6006  0.017411402  0.017153873            9 
 2239000   0.89760502   -8.0609631     467.7645  0.017409725  0.017147955            6 
 2240000   0.89599088   -8.0417759    468.50032  0.017429327  0.017142079            5 
 2241000   0.88916139   -8.0465188    467.35888  0.017379105  0.017136238           12 
 2242000   0.89330133   -8.0207018    468.16814  0.017401433   0.01713036           13 
 2243000   0.90166173   -8.0473723    469.11113  0.017428709  0.017124475            9 
 2244000    0.9007927   -8.0907252     467.8129  0.017372731  0.017118558            6 
 2245000    0.8945886   -8.0179871    468.28401   0.01738248  0.017112632            5 
 2246000   0.91156435    -8.050499     467.4416  0.017343485  0.017106702            6 
 2247000   0.87919472   -8.0148565    469.11636  0.017397877   0.01710078           14 
 2248000   0.89908427    -8.050874     467.9164  0.017345655  0.017094884            7 
 2249000   0.88177007   -8.0314797    468.51116  0.017359981  0.017089021            3 
 2250000   0.90129055   -8.0438165    468.31604  0.017345039  0.017083181            5 
 2251000   0.89566586   -8.0232639    468.81348  0.017355748  0.017077267            2 
 2252000   0.90880168   -8.0089494    467.59346  0.017302896  0.017071367           25 
 2253000    0.8947642   -8.0426225     468.8746  0.017342602  0.017065484            7 
 2254000   0.89212314   -8.0614734    467.91651  0.017299486  0.017059567            7 
 2255000   0.89261675   -8.0591195     467.4897  0.017276042  0.017053633           19 
 2256000   0.89619837   -8.0614701    468.78557  0.017316252  0.017047728            8 
 2257000   0.89234823   -8.0441352    469.67967  0.017341592  0.017041835           10 
 2258000   0.89627712   -8.0600992    468.95103   0.01730702  0.017035913           13 
 2259000   0.90420306   -8.0444621     468.7812  0.017293094  0.017029982            8 
 2260000   0.88535134   -8.0904494    468.65475   0.01728078  0.017024048            3 
 2261000   0.88559331   -8.0313108    469.01158  0.017286288  0.017018116            5 
 2262000   0.89797506   -8.0358138    469.86549  0.017310105  0.017012182            3 
 2263000   0.88796243   -8.0522085    469.16314  0.017276592   0.01700624            3 
 2264000   0.87919884   -8.0781245    468.00338  0.017226273  0.017000288            4 
 2265000    0.8755071   -8.0477309    467.88238  0.017214215  0.016994323            9 
 2266000   0.89248387   -8.0555321    469.23159  0.017256237  0.016988426           10 
 2267000   0.89490836    -8.092317    469.52986  0.017259589  0.016982506            9 
 2268000   0.88399221   -8.0652179    468.13993  0.017200909  0.016976596           10 
 2269000   0.88240384   -8.0606574    468.69124  0.017213576  0.016970652            4 
 2270000   0.90843997   -8.0732682    468.24185  0.017189495   0.01696469            8 
 2271000   0.87541849    -8.065914    469.37216  0.017223402   0.01695871           11 
 2272000   0.88612533   -8.0377918    469.12303  0.017206684  0.016952787           10 
 2273000   0.85882953   -8.0565575    469.85684  0.017226017  0.016946909           10 
 2274000   0.88548837   -8.0447036    469.64496  0.017210677  0.016941035           14 
 2275000   0.88067237   -8.0271893    470.53532  0.017235726   0.01693519            3 
 2276000    0.9002696   -8.0883542    469.56752  0.017192718  0.016929275            6 
 2277000   0.88156409    -8.031813    469.55611   0.01718475  0.016923392            4 
 2278000    0.8942453   -8.0742537    469.51595  0.017175737  0.016917509            8 
 2279000   0.89439465   -8.1152293    469.74917  0.017176729  0.016911593            8 
 2280000   0.89514586   -8.0571687    469.40353  0.017156562  0.016905667            3 
 2281000   0.88312428   -8.0410085    470.23411  0.017179385  0.016899742            7 
 2282000   0.89346422   -8.0773424    469.45852  0.017143533  0.016893853            7 
 2283000   0.88222473   -8.0282064    470.82956  0.017186069  0.016887966            7 
 2284000   0.87105118    -8.073501     470.5147  0.017167057  0.016882113            8 
 2285000   0.88675859   -8.0570813     470.1309  0.017145547  0.016876243            6 
 2286000    0.8955002   -8.0589787    469.89731  0.017129531   0.01687039            3 
 2287000   0.88145096   -8.0454439    471.33093   0.01717428  0.016864507            9 
 2288000   0.87913216   -8.0567299    471.28297  0.017165027   0.01685865            7 
 2289000   0.89423739   -8.0633921     469.2717  0.017084305  0.016852758           10 
 2290000   0.87904069   -8.0405929    469.91816   0.01710037  0.016846924           11 
 2291000   0.88115204   -8.0056151    471.59456  0.017153883  0.016841112            5 
 2292000    0.8950505   -8.0286951    469.71894  0.017078204  0.016835316           17 
 2293000   0.88050865   -8.0207278    472.02715  0.017154643  0.016829471           12 
 2294000   0.88392584   -8.0563358    471.08985  0.017113116  0.016823627           18 
 2295000   0.88296284   -8.0423361    470.30117  0.017077021   0.01681776           13 
 2296000   0.89911095   -8.0721136    470.32691  0.017070518   0.01681188            7 
 2297000   0.87932288   -8.0823387     469.3478  0.017027565  0.016805981            4 
 2298000   0.87385973   -8.0210985    471.78006  0.017108357  0.016800071            4 
 2299000   0.88808247   -8.0547107    470.62376  0.017059002  0.016794194            8 
 2300000   0.90694617   -8.0548919     470.4226  0.017044297  0.016788312            4 
 2301000   0.88859066   -8.1031979    469.46633  0.017002257  0.016782388            4 
 2302000   0.86513022   -8.0794935    470.45364  0.017030612  0.016776492           18 
 2303000   0.86946505   -8.1021428    469.51783  0.016989356  0.016770562            4 
 2304000    0.9009171   -8.0874291     470.0221  0.017000221  0.016764641           10 
 2305000   0.87716056   -8.0747025    471.02047   0.01702894  0.016758737            8 
 2306000   0.88541467   -8.0490899    470.56057  0.017004935  0.016752844            4 
 2307000   0.88349436   -8.0776453     471.3464   0.01702595   0.01674698            3 
 2308000   0.88399959   -8.0822389    470.98862  0.017005655  0.016741109            4 
 2309000    0.8850527      -8.0535    472.24217  0.017043532  0.016735274            6 
 2310000   0.87496167   -8.0299803    471.68479  0.017016046  0.016729425            7 
 2311000   0.88768526   -8.0381127    471.40712   0.01699867  0.016723572            6 
 2312000   0.89207843    -8.069557    472.74011  0.017039364  0.016717697           16 
 2313000   0.86599701   -8.0549366    470.68737   0.01695804  0.016711816           17 
 2314000   0.87714358   -8.1130309    471.42051  0.016977114  0.016705903           13 
 2315000   0.87215684   -8.0803833    471.10782  0.016958525  0.016700024            9 
 2316000   0.88495653   -8.0805168    471.72149  0.016973283  0.016694125            9 
 2317000   0.89306305   -8.0594919     471.7274   0.01696617  0.016688225           13 
 2318000   0.88213674   -8.0619817    471.72148  0.016958638   0.01668235            8 
 2319000   0.88471633   -8.0703796    471.78863  0.016953738  0.016676483            8 
 2320000   0.88452294   -8.0766306    471.58727  0.016939198  0.016670583           13 
 2321000   0.87605339   -8.0441046    472.18645  0.016953413  0.016664673            3 
 2322000   0.87958711   -8.0399126    471.42002  0.016918605  0.016658787            4 
 2323000   0.87434754   -8.0865348    471.61898   0.01691846  0.016652876           14 
 2324000    0.9026256    -8.096818    471.41769  0.016903962  0.016646961            5 
 2325000   0.88350302   -8.0899037    470.65522  0.016869363  0.016640999           11 
 2326000   0.86184842   -8.0891657    470.91516  0.016871423  0.016635072            7 
 2327000    0.8618136   -8.0720802    473.05165  0.016940683  0.016629166            4 
 2328000   0.86395111   -8.0499537    471.11958  0.016864246  0.016623264           11 
 2329000   0.88190305   -8.0663501    472.23828  0.016897033   0.01661739           10 
 2330000   0.84901474   -8.0994257    472.09113  0.016884518  0.016611505           17 
 2331000   0.87056195   -8.0791999    471.04389  0.016839836  0.016605605            6 
 2332000   0.87562055   -8.0921831    471.88499  0.016862671  0.016599716           10 
 2333000   0.88000887   -8.1351406    471.75722  0.016850879  0.016593825           16 
 2334000   0.88571943   -8.1045518    471.60046  0.016838063  0.016587948           25 
 2335000   0.86400299   -8.0613051    472.53908   0.01686435  0.016582053            8 
 2336000   0.87400316   -8.0795857    471.36428  0.016815221  0.016576244            7 
 2337000   0.90109797   -8.1048173     472.8539  0.016861143  0.016570411            4 
 2338000   0.86961063    -8.095467    471.80523  0.016816554  0.016564563            7 
 2339000   0.86885973   -8.0434396    473.76791   0.01687929  0.016558725            4 
 2340000   0.88451744    -8.099888    471.54665  0.016792972  0.016552886            7 
 2341000      0.88769    -8.065971    472.49968  0.016819724  0.016547009            9 
 2342000   0.88628706   -8.0897101    472.61085  0.016816498  0.016541163            4 
 2343000   0.88626691   -8.1024553    473.27975  0.016833111  0.016535339            7 
 2344000   0.89695544   -8.0685431    472.90523  0.016812615  0.016529522            6 
 2345000   0.86594051   -8.0711982    473.19917  0.016815891  0.016523725           13 
 2346000   0.88623879   -8.0837477    473.35439  0.016814237  0.016517898           19 
 2347000   0.89584963   -8.0879992     471.8321  0.016753022  0.016512059           11 
 2348000   0.88030239   -8.1049623    472.75698  0.016778712  0.016506181           13 
 2349000    0.8787983   -8.0660748    473.81866  0.016809233  0.016500344            6 
 2350000   0.86950093   -8.1055741    472.88347  0.016768917  0.016494489            9 
 2351000   0.87846005   -8.0908204    472.80448  0.016758985  0.016488633            6 
 2352000   0.87251485   -8.0852311    473.48111  0.016775833  0.016482832            5 
 2353000   0.88131459    -8.113391    472.69232  0.016740768  0.016476999            5 
 2354000   0.87840233   -8.1051946     473.3583  0.016757232  0.016471167            6 
 2355000   0.87881309   -8.1209533    474.12912  0.016777393  0.016465338            8 
 2356000   0.86746736   -8.0741066    473.96737   0.01676455  0.016459512            5 
 2357000   0.88681371   -8.1204605    474.01639  0.016759171  0.016453665           13 
 2358000   0.87496704   -8.1032991    473.93106  0.016749048  0.016447821            9 
 2359000   0.88730924   -8.0918542     473.9931   0.01674414  0.016441988            7 
 2360000   0.89110504   -8.0702132    473.45453  0.016718027  0.016436129           15 
 2361000   0.86969963   -8.1087425    473.75033  0.016721387  0.016430293           11 
 2362000   0.88726859   -8.1175065    473.38616  0.016701459  0.016424435           12 
 2363000   0.87335359   -8.1035649    473.57177  0.016700937  0.016418564            5 
 2364000   0.88286438   -8.0659701    473.53882  0.016692711  0.016412763            2 
 2365000   0.88344336   -8.0968324    473.41104   0.01668115  0.016406935           12 
 2366000    0.8818239   -8.0852555    473.36543  0.016672493  0.016401094           18 
 2367000   0.88065286     -8.05234    474.76267  0.016714641  0.016395275            4 
 2368000   0.88691291   -8.0915104    473.55893  0.016665221  0.016389443           14 
 2369000   0.87345014   -8.0871865    473.35169  0.016650897  0.016383642           16 
 2370000   0.87872219   -8.1113323    472.71966  0.016621648  0.016377831           16 
 2371000   0.86749101    -8.091855    473.26819  0.016633916  0.016372018            9 
 2372000   0.87188546   -8.1026814    474.36081   0.01666529  0.016366188           25 
 2373000   0.86951197   -8.0785929    474.36909  0.016658558  0.016360355           25 
 2374000   0.86296432   -8.1473504    473.67117  0.016627042  0.016354525           14 
 2375000   0.86952917   -8.0996363    474.18503  0.016638071  0.016348707           20 
 2376000   0.87141653   -8.1096425     474.5285  0.016643115  0.016342921           12 
 2377000   0.86971221   -8.0824733    474.61293  0.016639074  0.016337145            7 
 2378000   0.85621619   -8.1130097    472.32878  0.016552032  0.016331358            5 
 2379000   0.85364224   -8.1094307    475.43608  0.016653919  0.016325532            7 
 2380000   0.87070094   -8.1095878    475.15665  0.016637138  0.016319701            7 
 2381000      0.87154   -8.0913795    475.18754  0.016631231  0.016313893            9 
 2382000   0.86320887    -8.138083    474.40556  0.016596892  0.016308123            6 
 2383000   0.88669161   -8.1461232    474.30855  0.016586535  0.016302301           13 
 2384000   0.85020997   -8.1385348    474.66584  0.016592066  0.016296497           25 
 2385000   0.85601244   -8.1631237     474.7536  0.016588176  0.016290665            4 
 2386000   0.89326842   -8.1039591    474.88419  0.016585785  0.016284864           10 
 2387000   0.88013522   -8.1150249    476.10406  0.016621424  0.016279089            6 
 2388000   0.87899842   -8.0965317    475.41358  0.016590368  0.016273319            6 
 2389000   0.86042179   -8.0845233    474.45885   0.01655012  0.016267562           10 
 2390000   0.85449911   -8.1157389     476.8628  0.016627015  0.016261775            6 
 2391000   0.87554341   -8.0734413    476.07818  0.016592715   0.01625601            9 
 2392000     0.884374   -8.1040747    475.12232  0.016552478  0.016250256           12 
 2393000   0.87106591   -8.1315545    475.24157  0.016549713  0.016244492            4 
 2394000   0.86951074   -8.1008337    476.25356  0.016578027  0.016238697            8 
 2395000   0.87131646   -8.1317729    475.08502  0.016530446  0.016232913            7 
 2396000   0.86323561   -8.1207665    475.38057  0.016533826  0.016227138            6 
 2397000   0.86340224   -8.1107962     475.0455  0.016515279  0.016221394           14 
 2398000   0.86650813   -8.1217425    474.95308  0.016505181  0.016215638            7 
 2399000      0.86317   -8.0933004    474.49386  0.016482349  0.016209832           15 
 2400000   0.86772519   -8.1482913     474.3665  0.016471059  0.016203979           18 
 2401000   0.85480706   -8.1897866    474.33103  0.016462968   0.01619814           20 
 2402000   0.87093743   -8.1300292    474.48345  0.016461402  0.016192262           10 
 2403000   0.85547975   -8.1480803    473.96336  0.016436516    0.0161864           17 
 2404000   0.85660503   -8.1673666    474.26187  0.016440026  0.016180532           23 
 2405000   0.86978282   -8.1741479    475.15042  0.016463978  0.016174666           20 
 2406000   0.86472704   -8.1652796    474.30095  0.016427714  0.016168818           19 
 2407000     0.857099     -8.14724    474.71748  0.016435309  0.016162979           12 
 2408000   0.88463619   -8.1684916    474.15974  0.016409183  0.016157142            6 
 2409000    0.8540503   -8.0921431    475.22578  0.016439248  0.016151309            9 
 2410000   0.88365448   -8.1389281     474.7114   0.01641464  0.016145511           24 
 2411000    0.8706303   -8.1309122    473.58186  0.016368791   0.01613969           21 
 2412000   0.84852407   -8.1202751    475.68126  0.016434538  0.016133872           22 
 2413000   0.86238784   -8.1442654    475.77652  0.016431017  0.016128057            9 
 2414000   0.84945242   -8.1275709    475.69988  0.016421564  0.016122282           10 
 2415000   0.87977593   -8.1171154     476.3353  0.016436691  0.016116527            5 
 2416000   0.85893276   -8.1507365    475.69673  0.016407862  0.016110745            4 
 2417000   0.86446208   -8.1156903    476.09788  0.016414904  0.016104974           17 
 2418000    0.8496578   -8.1123991    474.81085   0.01636376  0.016099205            7 
 2419000   0.86383822   -8.1185025    475.54426   0.01638226   0.01609342            9 
 2420000   0.86456297   -8.0869361    477.26647  0.016434796  0.016087633            7 
 2421000   0.84900283   -8.1023302    477.13308  0.016423416  0.016081926           15 
 2422000   0.84662535   -8.1229736    476.03413  0.016378824  0.016076171           19 
 2423000    0.8788456   -8.1289462    476.43247  0.016385764  0.016070397           14 
 2424000   0.87327443   -8.1450797    475.05659  0.016331704  0.016064664           10 
 2425000   0.85999333   -8.1717083    476.32944  0.016368709   0.01605894           32 
 2426000   0.87476933   -8.1258968    475.21261  0.016323599  0.016053178           17 
 2427000   0.84846046   -8.1447024     476.9143  0.016375302  0.016047438           15 
 2428000   0.86489922   -8.1152722    477.62118  0.016392819  0.016041718           11 
 2429000   0.86560249   -8.1234884     478.1435   0.01640399  0.016036019           13 
 2430000    0.8592034   -8.1565161    475.70004  0.016313444  0.016030311            6 
 2431000   0.84991215   -8.1650111    476.25364  0.016325711  0.016024613            6 
 2432000   0.86005819   -8.1078378    477.89744  0.016375324  0.016018923           11 
 2433000   0.85528355   -8.1132965    476.98469   0.01633733  0.016013229            7 
 2434000   0.86174503   -8.1212697    476.24759  0.016305382   0.01600751            8 
 2435000   0.86996847   -8.1020387    477.63477  0.016346159   0.01600179           11 
 2436000    0.8718791   -8.1007467    477.48695  0.016334392  0.015996081            4 
 2437000   0.84131107   -8.1501921    476.97784   0.01631028  0.015990377            6 
 2438000   0.85790528   -8.1447833    476.58636  0.016290209  0.015984588            4 
 2439000   0.86443042    -8.141713    476.90083  0.016294275  0.015978844            6 
 2440000   0.87031412   -8.1233785     476.9555  0.016289464  0.015973111            3 
 2441000    0.8604236   -8.1664342    475.31022  0.016226622  0.015967324            7 
 2442000   0.86459981   -8.1669112    475.99462  0.016243333  0.015961557            9 
 2443000   0.87076737   -8.1621754    476.78385  0.016263605  0.015955806           10 
 2444000   0.89552475   -8.1419167    475.87589  0.016225992  0.015950091            5 
 2445000   0.88055495   -8.1599071    476.09365  0.016226778  0.015944349           15 
 2446000   0.85053873   -8.1591374    476.33156  0.016228249  0.015938567            4 
 2447000   0.85652231   -8.1321355    477.09465  0.016247604  0.015932802            6 
 2448000   0.86402606   -8.1344783    477.60778  0.016258435   0.01592704            5 
 2449000   0.86334853   -8.1374967    476.92131  0.016228437  0.015921294            5 
 2450000   0.86128609   -8.1483959    476.57804  0.016210137  0.015915539            7 
 2451000   0.86233555   -8.1161941    478.58643  0.016271808  0.015909819           10 
 2452000   0.86263107   -8.1514956    477.31278  0.016221886  0.015904088            5 
 2453000   0.84059864   -8.1119151     477.4467  0.016219823  0.015898401            6 
 2454000   0.85162565   -8.1418605    477.81532  0.016225731  0.015892721            5 
 2455000   0.83826418   -8.1155399      478.933   0.01625706  0.015887037            5 
 2456000   0.86165417   -8.1297696    478.28086  0.016228314  0.015881363            5 
 2457000   0.84617151   -8.1044057    478.14514  0.016217106  0.015875678           16 
 2458000   0.85767092   -8.1237556    477.35506  0.016183722  0.015869987           15 
 2459000   0.85386384   -8.1353838    477.59945  0.016185423  0.015864277            7 
 2460000   0.83601474   -8.1630803    476.53238  0.016142696  0.015858575            9 
 2461000   0.86090306   -8.1686441    477.27498  0.016161282  0.015852899            9 
 2462000   0.84680099   -8.1105015    477.68217    0.0161685  0.015847252            2 
 2463000   0.87301446   -8.1449929     478.1305  0.016177105  0.015841591            9 
 2464000   0.83972539   -8.1326672    477.75734  0.016157919  0.015835938           22 
 2465000   0.84020582   -8.1501853    477.74356  0.016150898  0.015830258            8 
 2466000   0.85902943   -8.1087612    479.93871  0.016218529  0.015824587            8 
 2467000   0.84686483   -8.0846358    479.66892  0.016202841  0.015818966           10 
 2468000   0.85308209   -8.1141294    478.73661  0.016164797  0.015813326           12 
 2469000    0.8563435    -8.129935    478.34036  0.016144875   0.01580767           17 
 2470000   0.85480781   -8.1388338     478.5106  0.016144082  0.015802001            6 
 2471000    0.8512016   -8.1278517    477.95543  0.016118826  0.015796316            3 
 2472000   0.87097784   -8.1504112    477.22622  0.016087723  0.015790612            2 
 2473000   0.86281913   -8.1491724    478.93283  0.016138726   0.01578493            3 
 2474000   0.86886057   -8.1673244    477.09979  0.016070459   0.01577925            6 
 2475000   0.84836816   -8.1407634    478.82389  0.016122017  0.015773586            7 
 2476000   0.86013881    -8.155847    478.51277  0.016105034  0.015767915            9 
 2477000   0.84454069   -8.1417494    477.63663  0.016069056  0.015762228           12 
 2478000   0.84938723   -8.1453725    478.08076  0.016077508  0.015756548           12 
 2479000   0.85113901    -8.164849    478.56102  0.016087166  0.015750882            9 
 2480000   0.84778495   -8.1947297    476.87295  0.016023957  0.015745192            4 
 2481000   0.85348321   -8.1550406     478.4582  0.016070744  0.015739502            4 
 2482000   0.83782576   -8.1238299    478.95098  0.016080815  0.015733821           10 
 2483000   0.85766218   -8.1558306    476.87331  0.016004608  0.015728125            9 
 2484000   0.85121534   -8.1490655    478.34204  0.016047438  0.015722432           14 
 2485000   0.85688207   -8.1667107    477.39856  0.016009341  0.015716722            7 
 2486000   0.84614462   -8.2039288    477.28145  0.015998976  0.015710976           20 
 2487000   0.85330145   -8.1724621    478.67829  0.016039348  0.015705247            6 
 2488000   0.86192435   -8.2001134    477.76541  0.016002325  0.015699494            8 
 2489000   0.85610178   -8.1760518    477.65268  0.015992121   0.01569375            5 
 2490000   0.84334813   -8.1727255    477.17959  0.015969866  0.015688004            7 
 2491000   0.84474192   -8.1887643    478.41193  0.016004681    0.0156823            5 
 2492000   0.87541854   -8.1315936    477.79995  0.015977794  0.015676625            6 
 2493000   0.86077459   -8.1191283    479.11078  0.016015202  0.015670949            4 
 2494000   0.85707423   -8.1057901    478.15543  0.015976859  0.015665267            4 
 2495000   0.85999758   -8.1403381    478.41122  0.015978999  0.015659615            5 
 2496000   0.87103963   -8.1725911    478.16984  0.015964538  0.015653905            6 
 2497000   0.84703089   -8.1830738    477.70802  0.015942732  0.015648187            6 
 2498000   0.87108916   -8.1601443     477.4213  0.015926785  0.015642478            3 
 2499000   0.85634389   -8.1779405    476.50797  0.015889955  0.015636732            6 
 2500000   0.86468739    -8.154639    478.26157  0.015942052  0.015630997            5 
 2501000   0.85912391   -8.1491828    479.35082  0.015971972  0.015625269            8 
 2502000   0.84387407    -8.132489    477.58368  0.015906731  0.015619527            5 
 2503000   0.85571442   -8.1734891     477.8973  0.015910817  0.015613769           10 
 2504000   0.85605387   -8.1590971    478.94718  0.015939403  0.015608013           11 
 2505000   0.82363499   -8.1561428     478.6102   0.01592183  0.015602278           13 
 2506000   0.83388612   -8.1506871    478.57171  0.015914196  0.015596552            7 
 2507000   0.84682282   -8.2018925    479.27703  0.015931293  0.015590802            7 
 2508000   0.85102766   -8.1814456    478.52371  0.015899911  0.015585044           12 
 2509000   0.84183269   -8.1821803    476.83974  0.015837643  0.015579275           13 
 2510000   0.84290069   -8.1972261    477.69189  0.015859625  0.015573557           14 
 2511000   0.85274458   -8.2056065    477.08285  0.015833096  0.015567832            7 
 2512000   0.82953609   -8.1883621    478.29459  0.015866991   0.01556212            7 
 2513000    0.8673002    -8.150137    478.66005  0.015872796  0.015556429            9 
 2514000   0.83633266   -8.1840389    478.58297  0.015863928  0.015550722            6 
 2515000   0.83191043   -8.1529843     478.4048  0.015851716  0.015545038           11 
 2516000   0.84130731   -8.1607042    479.66595  0.015887187  0.015539335            9 
 2517000    0.8393895   -8.1513889    479.46057  0.015874075  0.015533666            8 
 2518000   0.85689159   -8.1798562    478.88642   0.01584877  0.015527981            7 
 2519000   0.82216226   -8.1731749    479.49907  0.015862745  0.015522284            9 
 2520000   0.85394053   -8.1573569    479.09298  0.015843022  0.015516608            8 
 2521000   0.83488309   -8.1683301    479.30316  0.015843685  0.015510922            3 
 2522000   0.85024755    -8.154502    479.87387  0.015856261  0.015505259            5 
 2523000   0.84978669   -8.1579499    479.44705  0.015835878  0.015499586            9 
 2524000   0.85559089   -8.2289734    479.34386  0.015826197  0.015493885           15 
 2525000   0.85700304    -8.187328    479.55835  0.015827008  0.015488184            9 
 2526000   0.84027305   -8.1974743    478.88232   0.01579844  0.015482492            7 
 2527000   0.84771227   -8.1836499    479.08977  0.015799029  0.015476847            4 
 2528000   0.86894613    -8.191581    478.62447  0.015777442  0.015471208            4 
 2529000   0.84774343     -8.18036    481.25053  0.015857734  0.015465534            8 
 2530000   0.85437629   -8.1815269    480.24133  0.015818226  0.015459892            9 
 2531000   0.84705885   -8.1766795    479.73675  0.015795363  0.015454236            9 
 2532000   0.83134195   -8.1717818    481.24381  0.015838725  0.015448618           25 
 2533000   0.85418775      -8.2051    479.87768  0.015787527   0.01544297            6 
 2534000   0.84777441   -8.2108877    479.97689   0.01578456  0.015437303            4 
 2535000   0.85125866   -8.2569106    478.14982  0.015718272  0.015431623           10 
 2536000   0.84764477   -8.2122501    479.09893  0.015743261  0.015425924           14 
 2537000   0.84655494   -8.1824845    479.12754  0.015737996  0.015420246           21 
 2538000   0.84250872   -8.2188481    479.35743  0.015739343  0.015414592            9 
 2539000   0.85062669   -8.2071293    479.47049  0.015736855   0.01540894           10 
 2540000    0.8400521   -8.2064408     478.2818   0.01569166  0.015403274           11 
 2541000   0.83619656   -8.1971679     478.7773  0.015701735  0.015397627           23 
 2542000   0.84976173   -8.2162357    480.26095  0.015744196  0.015391982           19 
 2543000   0.83838729   -8.1953844    480.05767  0.015731343  0.015386352           11 
 2544000   0.85164387    -8.170388    480.02299  0.015724024  0.015380708           14 
 2545000   0.84479547   -8.1969482    479.25777  0.015692789  0.015375045           17 
 2546000   0.85411704   -8.2162639    478.61645  0.015665634  0.015369347           31 
 2547000   0.85771306      -8.2262     479.5098  0.015688712  0.015363685           23 
 2548000   0.83785249   -8.2231939    479.27813  0.015674978  0.015358001           28 
 2549000   0.83930706   -8.2215558    479.88747   0.01568875  0.015352346           19 
 2550000    0.8539607   -8.2310783    480.42327  0.015700107  0.015346664           33 
 2551000   0.81834718   -8.2243955     478.6688  0.015636639  0.015340998           22 
 2552000   0.83998593   -8.2167585    479.06252  0.015643369  0.015335328           20 
 2553000   0.84312733   -8.2568637      480.192  0.015674109  0.015329651           16 
 2554000   0.83667959   -8.2230491    479.91343  0.015658883  0.015323987           16 
 2555000   0.84915174   -8.1795465    479.38083  0.015635383  0.015318311           11 
 2556000    0.8518129   -8.1957224    479.09582  0.015619973  0.015312692           21 
 2557000   0.84567286   -8.1984524    481.19077   0.01568214  0.015307049           13 
 2558000   0.84270831   -8.1912387    479.70584  0.015627634   0.01530139           16 
 2559000   0.85977325   -8.2098963    479.94619  0.015629354  0.015295725           21 
 2560000   0.85856715   -8.2070124    479.64501  0.015613444  0.015290079           16 
 2561000    0.8536887    -8.234709    478.91773  0.015583683  0.015284408           22 
 2562000   0.83620016   -8.2080831    479.80624    0.0156065   0.01527872            6 
 2563000   0.84808374   -8.1770915    480.95445  0.015637744  0.015273047            5 
 2564000   0.85478342   -8.2270947    480.30039  0.015610387  0.015267401            9 
 2565000   0.82900104   -8.2147837    480.75399  0.015619038  0.015261761            6 
 2566000   0.83574589   -8.2061384    479.77928  0.015581296  0.015256156            9 
 2567000   0.84719955   -8.1767839     481.0414  0.015616199  0.015250574            7 
 2568000   0.83478644   -8.1896328    481.19516  0.015615108   0.01524498           15 
 2569000   0.83820493   -8.1895265    481.10711  0.015606173  0.015239393           14 
 2570000   0.83200294   -8.1839447    481.76784  0.015621525  0.015233823           16 
 2571000   0.85314792   -8.1917847    482.27336  0.015631835   0.01522825           31 
 2572000   0.84677508   -8.1783787    481.54231  0.015602071  0.015222708            6 
 2573000   0.83208435    -8.182886    482.19036  0.015616996   0.01521711            6 
 2574000   0.84736726   -8.1814186    481.30416  0.015582238  0.015211505           20 
 2575000   0.84811826   -8.1957618    481.09335  0.015569364  0.015205913           33 
 2576000   0.84184104    -8.174805    481.85226  0.015587871  0.015200346           12 
 2577000   0.83419627   -8.1718389    480.17235  0.015527498  0.015194806           10 
 2578000   0.83914925   -8.2056941    480.71423  0.015538991  0.015189217            8 
 2579000   0.83311462   -8.1949544    480.85412  0.015537486  0.015183635            6 
 2580000   0.82914701   -8.2010708    481.52861   0.01555325  0.015178056            5 
 2581000   0.84669746   -8.1839234    482.34814  0.015573684  0.015172507            6 
 2582000   0.83541366   -8.1700622     482.5451  0.015574009  0.015166971            7 
 2583000   0.85305242    -8.177828     483.2964  0.015592218   0.01516146            5 
 2584000   0.83855787   -8.1895593    480.90779  0.015509152  0.015155898            9 
 2585000   0.83850295   -8.1924725    480.50596  0.015490198  0.015150341            5 
 2586000   0.84244961    -8.221131    480.57195  0.015486335  0.015144779           12 
 2587000   0.83639716   -8.1667489    482.25577  0.015534589  0.015139228            5 
 2588000   0.84071237   -8.1857979    482.46015  0.015535167  0.015133689            4 
 2589000    0.8160664   -8.1822385    481.76111  0.015506666  0.015128158            8 
 2590000   0.84278223   -8.2035758     481.5775  0.015494771  0.015122602            7 
 2591000   0.83605375   -8.1477107    483.06314  0.015536573  0.015117059            4 
 2592000   0.83830622   -8.2110239    482.14457  0.015501047  0.015111504            7 
 2593000    0.8279285   -8.1781695    482.26123  0.015498818  0.015105966            4 
 2594000   0.85365071   -8.2051917    482.20302  0.015490973  0.015100411            7 
 2595000   0.82781788    -8.159939    481.31989  0.015456644  0.015094849            7 
 2596000   0.84569446   -8.2391547    481.72119  0.015463572  0.015089282           17 
 2597000   0.82759533    -8.194343    481.34778  0.015445635  0.015083705            6 
 2598000   0.82708573   -8.2156211    481.77147   0.01545328  0.015078113            8 
 2599000   0.83368642   -8.2358171    479.58981  0.015377383  0.015072529            8 
 2600000    0.8349158   -8.2174108    481.22683  0.015423937  0.015066958            6 
 2601000   0.82950718   -8.2080081    482.00435  0.015442918  0.015061395           14 
 2602000   0.82394547    -8.188733    481.63479  0.015425147  0.015055855            4 
 2603000   0.82063308   -8.2266481    480.88498  0.015395216  0.015050314            6 
 2604000   0.83331374   -8.2081897    482.07203  0.015427292  0.015044749            6 
 2605000   0.83308966   -8.2459386    481.85396  0.015414394  0.015039193            3 
 2606000   0.84803552   -8.2240281    481.87492  0.015409149  0.015033624            8 
 2607000   0.84242443   -8.2244414     481.0846  0.015377976  0.015028044           14 
 2608000   0.85584791   -8.2398433    481.11187  0.015372951  0.015022476            8 
 2609000   0.81134143   -8.2371155    481.56658  0.015381582  0.015016893           13 
 2610000   0.83810548    -8.235893    481.86438  0.015385197  0.015011326            5 
 2611000   0.82806456   -8.2283985    481.01905  0.015352325  0.015005738            8 
 2612000   0.83538937   -8.2271997    481.79956  0.015371349  0.015000117           11 
 2613000   0.82664734   -8.2502011    479.99306  0.015307854  0.014994501            8 
 2614000   0.82427642   -8.2601093    481.38075  0.015346237  0.014988896           18 
 2615000   0.83390018    -8.218273    482.45252  0.015374523  0.014983321           32 
 2616000   0.84537481   -8.2156671    482.00781  0.015354479  0.014977761           10 
 2617000   0.85754002   -8.2439715    481.64393  0.015337025  0.014972207           19 
 2618000   0.83887154   -8.2335428    481.44613   0.01532487  0.014966613           12 
 2619000   0.82611481   -8.2370421    481.98624  0.015336205  0.014961047           11 
 2620000   0.82526284   -8.2261153    481.94896  0.015329165  0.014955458           11 
 2621000   0.82888359   -8.2551685    481.84639  0.015320056  0.014949878           16 
 2622000   0.83766593   -8.2217512    480.84914  0.015282518  0.014944289            9 
 2623000   0.81161063   -8.2609002    480.80882  0.015275411    0.0149387           20 
 2624000   0.82457103   -8.2486947    482.38807  0.015319743  0.014933119            7 
 2625000   0.83165417   -8.2446628    480.25264  0.015246116  0.014927557           18 
 2626000   0.83722624   -8.2171377    482.47982  0.015310987  0.014922014           13 
 2627000   0.81924849   -8.2272994    482.79745  0.015315235  0.014916502           28 
 2628000   0.81810463   -8.2597342    481.53013   0.01526922  0.014910963           12 
 2629000   0.83789289   -8.2307024    480.99585  0.015246477  0.014905423           20 
 2630000   0.85691178   -8.2291681    482.73599  0.015295817  0.014899889           18 
 2631000   0.82356457   -8.2112619    482.39621  0.015279242  0.014894373            4 
 2632000   0.82910194   -8.2354196     482.2833  0.015269861  0.014888822           20 
 2633000   0.84055734   -8.2246695    482.04195  0.015256423  0.014883287           18 
 2634000   0.82700358   -8.2220248    481.55018  0.015235073  0.014877746           22 
 2635000    0.8396685   -8.2304505    481.48864  0.015227345  0.014872204           13 
 2636000   0.82204489   -8.2439142    482.44872   0.01525192  0.014866675           13 
 2637000   0.83012095   -8.2552342    482.42293  0.015245321  0.014861126            9 
 2638000   0.82667421   -8.2746557     480.7476  0.015186619  0.014855536            4 
 2639000   0.84214817   -8.2224531    482.50561  0.015236378  0.014849979           10 
 2640000   0.83089501    -8.225615    483.13315  0.015250415  0.014844437           10 
 2641000   0.83995454   -8.2409808    482.46096   0.01522343  0.014838925           17 
 2642000   0.81880775   -8.2636613     482.5902  0.015221745  0.014833398            4 
 2643000   0.81140658   -8.2323306    482.50795  0.015213392  0.014827863           13 
 2644000   0.81235507   -8.2469663    482.07964  0.015194139  0.014822335           31 
 2645000   0.83942247   -8.2433782    483.00244  0.015217468  0.014816802           27 
 2646000   0.82235691   -8.2233505    482.75519   0.01520393  0.014811291            7 
 2647000   0.82872534   -8.2421181    481.91838  0.015171842  0.014805775            6 
 2648000   0.83140735   -8.2433305    482.73292  0.015191746  0.014800252           34 
 2649000   0.82632125   -8.2294513    484.02006  0.015226502  0.014794751           19 
 2650000   0.84194887   -8.2667442    482.67845  0.015178568  0.014789272           20 
 2651000   0.84151076   -8.2423384    482.29507  0.015160791  0.014783764           22 
 2652000   0.82932737   -8.2721983    481.54752  0.015131584  0.014778246           19 
 2653000   0.83531677   -8.2729998    481.56495  0.015126428   0.01477274           20 
 2654000   0.80752308   -8.2347635    483.34887  0.015176742  0.014767249           15 
 2655000   0.81278393   -8.2127063    483.33556  0.015170607  0.014761761           17 
 2656000   0.80389893   -8.2861797    482.85267  0.015149745  0.014756249           17 
 2657000   0.82062092    -8.255255    483.01908  0.015149262  0.014750732           25 
 2658000   0.82417496   -8.2434835     483.0742  0.015145291  0.014745197           18 
 2659000   0.81840475   -8.2554519    481.10329  0.015077826  0.014739644           21 
 2660000   0.82642522   -8.2403381     482.1647   0.01510541  0.014734121           11 
 2661000   0.83930553   -8.2332248    483.47743  0.015140844  0.014728609           11 
 2662000   0.81915173   -8.2398495    483.23514  0.015127571  0.014723099           11 
 2663000   0.82271246   -8.2329042    482.90947    0.0151117  0.014717604            6 
 2664000   0.83924517   -8.2448222    484.15982  0.015145139   0.01471211            8 
 2665000   0.82097775   -8.2366665    482.76003  0.015095686  0.014706637           17 
 2666000   0.83517718   -8.2394645    483.08615  0.015100217  0.014701154           13 
 2667000    0.8325114   -8.2243111    483.14536  0.015096405  0.014695693           20 
 2668000   0.83461031   -8.2249099    483.46959  0.015100874  0.014690239            7 
 2669000   0.82691585   -8.2478012    482.37409  0.015061012  0.014684749           17 
 2670000   0.82579021   -8.2395021    482.75404   0.01506723  0.014679255            9 
 2671000   0.80835831   -8.2407253    483.04846  0.015070774  0.014673763            6 
 2672000   0.82757654    -8.280759    482.42764  0.015045772  0.014668271           16 
 2673000   0.82325804   -8.2499689    483.85872  0.015084759  0.014662808            9 
 2674000   0.82867103   -8.2437596    483.35338  0.015063369  0.014657363           19 
 2675000   0.83483977   -8.2384221    484.34481  0.015088623  0.014651926            7 
 2676000    0.8082537   -8.2670241    484.02037  0.015072882  0.014646501            6 
 2677000   0.81802491   -8.2265207    484.34771  0.015077441   0.01464108            6 
 2678000    0.8201436   -8.2736992    483.12919  0.015033893   0.01463565            4 
 2679000   0.82643669   -8.2983281    482.12709   0.01499711  0.014630207            9 
 2680000   0.83705361   -8.2346217    484.13024  0.015053801  0.014624765           10 
 2681000   0.81821803   -8.2231826    485.02093  0.015075871  0.014619339           16 
 2682000    0.8131886   -8.2868006    483.04519  0.015008861  0.014613907           22 
 2683000   0.82645205   -8.2384337    483.17329  0.015007246  0.014608467           22 
 2684000     0.819318   -8.2535804    483.98497  0.015026856  0.014603039            5 
 2685000   0.82024676   -8.2550789    483.41696   0.01500363  0.014597624           13 
 2686000   0.82674666   -8.2784805    483.96022  0.015014899  0.014592191           21 
 2687000    0.8385315   -8.2681307    484.01448  0.015010994  0.014586753           12 
 2688000   0.81873845   -8.2580644    484.14702  0.015009518  0.014581309           12 
 2689000   0.82979388    -8.281641    483.66402  0.014988968  0.014575861           19 
 2690000   0.81578364    -8.238656    483.96034  0.014992576  0.014570406           21 
 2691000    0.8512232   -8.2504916    483.55787  0.014974541  0.014564975           23 
 2692000    0.8177427   -8.2671662    484.19054  0.014988563  0.014559541           21 
 2693000   0.82045002    -8.244236    483.57317  0.014963893   0.01455408           33 
 2694000   0.81383573    -8.248941    483.13731  0.014944856  0.014548622           20 
 2695000   0.79639713   -8.2547293    483.96296  0.014964841  0.014543149           25 
 2696000   0.81746272   -8.2980041    482.50626  0.014914264  0.014537689           27 
 2697000   0.80798923   -8.2345881    484.68749  0.014976131  0.014532246           22 
 2698000    0.8225366   -8.2263009    483.70419  0.014940208  0.014526826           28 
 2699000   0.80971093   -8.2525991    483.12562  0.014916809  0.014521381           24 
 2700000   0.83683056   -8.2819372    483.28217  0.014916116  0.014515953           19 
 2701000   0.82719794   -8.2781884    483.04318   0.01490322  0.014510502           39 
 2702000    0.8250933   -8.2927201    483.38117  0.014908129  0.014505071           17 
 2703000   0.81927033   -8.2767795    483.66712  0.014911429  0.014499635            6 
 2704000   0.80508612   -8.2521357    483.55352  0.014902414  0.014494201           21 
 2705000   0.80259368   -8.3238624    483.83271  0.014905505  0.014488755           27 
 2706000   0.81811618   -8.2963454    483.35687  0.014885343  0.014483325            8 
 2707000   0.83342319   -8.3160992    483.56572  0.014886274  0.014477873            7 
 2708000   0.81283383   -8.2951042    482.83355  0.014858246   0.01447241           16 
 2709000   0.79886157    -8.283013    483.92404  0.014886306  0.014466954           24 
 2710000    0.8075727   -8.2566499    483.02755  0.014853246  0.014461506           37 
 2711000   0.81791163   -8.3168291    483.73869  0.014869626  0.014456051           52 
 2712000   0.81512107   -8.3061525    483.16733  0.014846587  0.014450587           32 
 2713000   0.82458203   -8.3010883    483.39299  0.014848046  0.014445155           51 
 2714000   0.81100314   -8.3154847    482.63508  0.014819304  0.014439714           69 
 2715000    0.8146177   -8.3118021    483.41357   0.01483774  0.014434253           83 
 2716000      0.82847   -8.2520519     484.9851  0.014880495  0.014428797           42 
 2717000   0.81308108   -8.2825207     484.2226  0.014851632  0.014423382           49 
 2718000    0.8187034    -8.296404     485.0075  0.014870232  0.014417973           45 
 2719000    0.8337657    -8.305951    483.53677  0.014819688  0.014412564           48 
 2720000    0.8152339   -8.3020651    483.28666  0.014806577  0.014407116           39 
 2721000    0.8058141   -8.2784849    483.23238  0.014799473  0.014401666           38 
 2722000   0.82111766   -8.2714906    483.99274  0.014817314   0.01439622           41 
 2723000    0.7995804   -8.2896353    484.03119  0.014813049  0.014390775           32 
 2724000    0.8111909   -8.3291614    483.44191  0.014789584  0.014385314           63 
 2725000   0.81912505   -8.3127751    483.19876   0.01477672  0.014379872           72 
 2726000   0.82433872   -8.2741191    483.57858  0.014782911  0.014374457           44 
 2727000   0.81716442   -8.2791289    484.45697  0.014804332  0.014369046           51 
 2728000   0.83813967   -8.2794297    483.52403  0.014770407  0.014363618           86 
 2729000    0.8144831   -8.3037947    483.05396   0.01475064  0.014358178           70 
 2730000   0.81590764   -8.3067244    482.69791  0.014734368  0.014352756          101 
 2731000   0.82397985   -8.3115278    482.80407  0.014732213  0.014347337           69 
 2732000   0.83010328   -8.3216876      484.065  0.014765282  0.014341912           75 
 2733000   0.80430952   -8.2840262    484.09967  0.014760936  0.014336496           53 
 2734000   0.81844622   -8.2750635    484.38445  0.014764218    0.0143311           59 
 2735000   0.82154984   -8.2904937     483.2465  0.014724147   0.01432569           96 
 2736000   0.82534351   -8.2945963    484.37393  0.014753105  0.014320278          111 
 2737000   0.83563321   -8.3435197    483.42435  0.014718803  0.014314872          117 
 2738000   0.81350071   -8.2909261     483.0813  0.014702986  0.014309442          134 
 2739000   0.80360114   -8.3179534    482.60092  0.014683002  0.014304008          124 
 2740000    0.7912148   -8.3092066    484.44552  0.014733745  0.014298583          142 
 2741000   0.79622303   -8.3156945    484.04603  0.014716224  0.014293149          121 
 2742000   0.82140098   -8.3193285    484.22555  0.014716313  0.014287759          106 
 2743000   0.81376809   -8.3175293    483.87018  0.014700151  0.014282372          117 
 2744000   0.81272086   -8.3152203    484.69374  0.014719805  0.014276978          126 
 2745000   0.80851641   -8.3307604    485.17701  0.014729114  0.014271577           82 
 2746000   0.81723939   -8.3136965    484.14142  0.014692323  0.014266191          124 
 2747000   0.81872544   -8.3272777    484.52324  0.014698557  0.014260811           86 
 2748000   0.80559133   -8.3323948    483.28052  0.014655523  0.014255416          109 
 2749000   0.81353363   -8.3063378    484.20269  0.014678146  0.014250021          108 
 2750000   0.80766366   -8.3464512     484.0048  0.014666812  0.014244604          120 
 2751000   0.79817808   -8.3173007    483.92474  0.014659055  0.014239211          118 
 2752000   0.83610786   -8.3073081    484.15571  0.014660723  0.014233822          107 
 2753000   0.81256853   -8.3375198    483.57346  0.014637773  0.014228416          105 
 2754000    0.8064209   -8.3271494    483.32506  0.014624941   0.01422301          138 
 2755000    0.8239044   -8.3135782    484.18589  0.014645671  0.014217629          117 
 2756000   0.81493685   -8.3101115    484.38846  0.014646482  0.014212239          111 
 2757000    0.8313089   -8.3283723    483.97098  0.014628551  0.014206847          151 
 2758000   0.80518512    -8.321944    484.39645  0.014636103  0.014201461          149 
 2759000   0.81267424   -8.3043347    484.37506  0.014630152  0.014196086          162 
 2760000   0.81460508   -8.3118462    485.49274  0.014658597  0.014190717          159 
 2761000   0.83132287   -8.3572923    483.26681  0.014586104  0.014185364          144 
 2762000   0.81333378    -8.315565    483.64005  0.014592085  0.014179993          138 
 2763000   0.79164707    -8.316802    485.49284  0.014642684  0.014174615          204 
 2764000   0.80883854   -8.3279374    483.76368  0.014585253  0.014169254          196 
 2765000   0.79308086   -8.3644826    484.01921   0.01458768  0.014163835          162 
 2766000   0.80740606   -8.3553264    483.75545  0.014574459  0.014158405          181 
 2767000   0.81692461   -8.3669943    482.21739   0.01452287   0.01415298          178 
 2768000   0.80283112   -8.3867205    483.42041  0.014553842  0.014147563          184 
 2769000   0.80721207   -8.3720059    484.60742  0.014584309  0.014142158          169 
 2770000   0.82777708   -8.3534851    484.61441  0.014579254  0.014136773          171 
 2771000   0.82798069   -8.3222432     483.3935  0.014537276  0.014131388          182 
 2772000   0.79565289   -8.3741615    483.23695  0.014527325  0.014125987          202 
 2773000    0.8295881   -8.3569824    485.33116  0.014585021    0.0141206          222 
 2774000   0.78963997   -8.3582809    484.80791  0.014564045  0.014115212          207 
 2775000   0.82642908   -8.3398071    483.93551  0.014532598  0.014109822          215 
 2776000   0.82477861   -8.3478894    483.91983  0.014526892  0.014104449          221 
 2777000   0.81109881   -8.3186566    484.29898  0.014533039  0.014099089          209 
 2778000    0.8074487   -8.3517606    483.28541  0.014497403  0.014093714          261 
 2779000   0.80279045   -8.3597285    484.14832  0.014518062  0.014088324          268 
 2780000   0.81570497   -8.3192171    483.87409  0.014504619  0.014082925          278 
 2781000    0.7905639   -8.3300334    484.01861  0.014503734  0.014077522          319 
 2782000   0.80003089   -8.3791534    484.30167  0.014506999  0.014072135          354 
 2783000   0.81555773   -8.3473844    484.87726  0.014519022  0.014066746          350 
 2784000   0.80962665   -8.3801502    485.05685  0.014519182  0.014061367          370 
 2785000   0.79481261   -8.3773304    484.32952  0.014492206  0.014055992          324 
 2786000   0.80543879   -8.3353561    483.89013  0.014473861  0.014050626          276 
 2787000   0.80406371   -8.3668587    483.33228  0.014451988  0.014045269          354 
 2788000   0.83394588   -8.3943271    483.03184  0.014437824  0.014039884          353 
 2789000   0.81171293   -8.4124303    483.03008  0.014432595  0.014034466          360 
 2790000   0.81385657   -8.3752295    483.83184  0.014451369  0.014029072          375 
 2791000   0.81274475   -8.3911552    483.47149  0.014435432  0.014023654          422 
 2792000   0.79115794   -8.3664287    482.92524  0.014413958  0.014018252          421 
 2793000   0.82573159   -8.3514383    484.57388  0.014457987  0.014012859          449 
 2794000   0.80495761   -8.3758409    483.99216  0.014435462  0.014007462          418 
 2795000   0.80821882   -8.3990802    482.86217  0.014396606  0.014002062          397 
 2796000   0.78818008   -8.4154743    483.55657  0.014412153  0.013996677          401 
 2797000   0.80537937   -8.3859303      482.956  0.014389108  0.013991284          397 
 2798000   0.82451442   -8.3999852    484.38084  0.014426401   0.01398591          443 
 2799000    0.8052791   -8.3556911    484.39242  0.014421592  0.013980539          430 
 2800000   0.81038135   -8.4013022    483.02882  0.014375858  0.013975167          497 
 2801000   0.80510885   -8.3812735    483.57645  0.014387018  0.013969785          444 
 2802000   0.79355943   -8.3909415    483.71191  0.014385912  0.013964395          494 
 2803000    0.7990067   -8.4279004    483.17118  0.014364704     0.013959          566 
 2804000   0.79970731   -8.3877687    484.62841  0.014402889    0.0139536          563 
 2805000   0.80076953   -8.4136292    482.80173  0.014343486  0.013948203          603 
 2806000   0.81056943   -8.3896649     484.4259  0.014386609  0.013942816          588 
 2807000   0.79784192   -8.4071921    482.80607  0.014333395  0.013937429          603 
 2808000   0.80885084   -8.4191747     483.6515   0.01435338  0.013932035          623 
 2809000   0.80180824    -8.418327    484.64697  0.014377803  0.013926654          632 
 2810000   0.80338191   -8.4208981    484.03759  0.014354614  0.013921276          688 
 2811000   0.79058678   -8.4144341    483.19705  0.014324589  0.013915882          700 
 2812000    0.7954302   -8.4343815    483.18728  0.014319206   0.01391049          714 
 2813000    0.8103846   -8.4117273    484.08842  0.014340811  0.013905108          697 
 2814000   0.80783649    -8.426089    482.74077  0.014295806  0.013899732          729 
 2815000   0.78622995   -8.4365824    482.31565  0.014278142  0.013894331          766 
 2816000   0.79586644   -8.4334766    482.69472   0.01428429  0.013888893          852 
 2817000   0.80351157   -8.4547738    482.68008  0.014278786  0.013883474          908 
 2818000   0.79361798   -8.4521637    482.37576   0.01426472  0.013878038          900 
 2819000   0.78775678   -8.4457567    483.85425  0.014303365  0.013872616          907 
 2820000   0.80662541   -8.4806161    481.99457  0.014243338  0.013867179          932 
 2821000    0.7991823   -8.4748591    482.91225  0.014265398  0.013861735          938 
 2822000   0.81024635   -8.4884904    483.10755   0.01426611  0.013856276         1027 
 2823000   0.79535874   -8.4733713    482.13402  0.014232318  0.013850812          977 
 2824000   0.81370219   -8.4993818    481.49485  0.014208417  0.013845332         1101 
 2825000   0.80812214   -8.5163208    482.68712  0.014238558  0.013839835         1116 
 2826000   0.78563325   -8.5009926    481.47296  0.014197717  0.013834336         1101 
 2827000   0.81025369    -8.507927    481.11021  0.014182001  0.013828833         1122 
 2828000   0.79634692   -8.5272635    480.13096  0.014148131  0.013823311         1132 
 2829000   0.78756811   -8.5053915    480.52866  0.014154844  0.013817769         1195 
 2830000   0.79133545   -8.5313821    480.74291  0.014156152   0.01381224         1194 
 2831000   0.79108755   -8.5236694    480.48663  0.014143608  0.013806718         1274 
 2832000   0.79483979   -8.5492826    479.90469  0.014121489  0.013801183         1282 
 2833000   0.81432226   -8.5609075    480.51365  0.014134417  0.013795614         1395 
 2834000   0.79178491   -8.5648698    480.60612  0.014132149  0.013790034         1403 
 2835000   0.79353627    -8.572179    479.67582  0.014099818  0.013784467         1415 
 2836000   0.80915316   -8.6049823    479.99073    0.0141041  0.013778895         1476 
 2837000   0.82308276   -8.6039313    479.25254  0.014077445  0.013773298         1532 
 2838000   0.79828575    -8.587432    480.13984  0.014098539  0.013767718         1555 
 2839000   0.78280129   -8.6109515    480.65258  0.014108623  0.013762127         1593 
 2840000   0.81149378   -8.6256432    479.32788  0.014064785  0.013756539         1630 
 2841000    0.8189658   -8.6285369    479.13659  0.014054224  0.013750926         1665 
 2842000   0.79835872   -8.6388425    478.99141  0.014045021  0.013745315         1745 
 2843000   0.79537675    -8.613946    479.58104  0.014057364  0.013739685         1773 
 2844000    0.8000484   -8.6267326    479.72337  0.014056592  0.013734044         1813 
 2845000   0.81480492   -8.6450606    479.10247  0.014033464  0.013728395         1841 
 2846000   0.80626569   -8.6533743    478.25014  0.014003576  0.013722747         1826 
 2847000   0.79821214   -8.6802641    478.45595  0.014004682  0.013717088         1808 
 2848000   0.79256556   -8.6970861    478.14757  0.013990741  0.013711407         1940 
 2849000   0.79855034   -8.6892374    478.27934  0.013989685  0.013705724         1933 
 2850000   0.79797839   -8.7024286    477.98872  0.013976278  0.013700043         1965 
 2851000    0.7818481   -8.7090446    477.92546  0.013969527  0.013694353         2035 
 2852000   0.78445887   -8.7229016    477.86661  0.013962909  0.013688654         2100 
 2853000   0.80424525   -8.7342577    477.53277  0.013948264   0.01368294         2232 
 2854000    0.7905593   -8.7512433    476.62566   0.01391689  0.013677202         2307 
 2855000     0.791672   -8.7375109    476.90197  0.013920081   0.01367146         2327 
 2856000   0.81044807   -8.7777314    476.28589  0.013897231   0.01366571         2306 
 2857000   0.79308769   -8.7460046    476.60066  0.013901548  0.013659952         2400 
 2858000   0.80308941   -8.7885125    475.80729  0.013873551  0.013654166         2488 
 2859000   0.79379165   -8.8190473    475.96883  0.013873406  0.013648373         2413 
 2860000   0.79419389   -8.8050462    476.26084  0.013877064  0.013642559         2529 
 2861000    0.8010335   -8.8195021    475.15774  0.013840083  0.013636752         2460 
 2862000   0.77984031   -8.8469043     473.9744  0.013800792  0.013630929         2531 
 2863000   0.79304391   -8.8302148    475.09071  0.013828464  0.013625076         2663 
 2864000   0.79193431   -8.8670648    475.70148  0.013841407  0.013619234         2704 
 2865000   0.78323472   -8.8485699    476.04206  0.013846482  0.013613386         2671 
 2866000   0.78797409   -8.8555171    474.65475  0.013801313  0.013607527         2751 
 2867000   0.79569138   -8.8722287    474.62467  0.013795625  0.013601671         2750 
 2868000   0.79789782   -8.8567295    475.31968  0.013811009    0.0135958         2776 
 2869000   0.79423243   -8.8810836    474.55292  0.013783924   0.01358993         2773 
 2870000   0.79012671   -8.8888369    474.05683  0.013764716  0.013584052         2770 
 2871000   0.78951639   -8.8742189    473.38587  0.013740447  0.013578166         2863 
 2872000   0.78664598   -8.9055639    473.90271  0.013750659  0.013572259         2865 
 2873000   0.80875377   -8.9026782     474.3002  0.013757402  0.013566346         2823 
 2874000   0.78837187   -8.9205343    472.47712  0.013699754  0.013560423         2900 
 2875000   0.77854019   -8.9270083    473.77379  0.013732574  0.013554503         2905 
 2876000   0.80339219    -8.938199    473.66875  0.013724755  0.013548571         2971 
 2877000   0.81079973   -8.9276025    473.74701  0.013722251  0.013542642         2967 
 2878000   0.77671239   -8.9448145    473.05457  0.013697434  0.013536686         3004 
 2879000   0.77655724   -8.9583099     472.5912  0.013679264   0.01353073         3059 
 2880000   0.78697833   -8.9761414    472.08998  0.013660011  0.013524769         3094 
 2881000    0.8078139   -8.9558017    472.55164  0.013668623  0.013518795         3038 
 2882000   0.80892114   -8.9738169    472.46035  0.013661241   0.01351282         3085 
 2883000   0.79198077    -8.987098    471.92287  0.013640966   0.01350686         3153 
 2884000   0.78797305   -8.9846434    472.56318  0.013654738  0.013500883         3077 
 2885000   0.78444746   -9.0096921    471.93792  0.013631945  0.013494913         3170 
 2886000    0.7966177   -9.0142025    471.48005     0.013614  0.013488924         3262 
 2887000   0.78772552   -9.0132782    471.26706  0.013603136  0.013482921         3334 
 2888000   0.78340521   -9.0305444    470.83957  0.013586091  0.013476925         3262 
 2889000    0.7702194   -9.0056433    472.63872  0.013633285  0.013470926         3272 
 2890000   0.78960305   -9.0021467    471.69645  0.013601397  0.013464935         3241 
 2891000   0.79354797   -9.0093625    470.81197  0.013571197  0.013458937         3278 
 2892000    0.7847347   -9.0424517    470.50828  0.013557754  0.013452938         3271 
 2893000    0.7959568   -9.0242719    470.77547  0.013560764  0.013446929         3285 
 2894000    0.8047742   -9.0400768     470.1559  0.013538237  0.013440913         3334 
 2895000   0.80201549   -9.0229591    470.92842  0.013555798  0.013434891         3296 
 2896000   0.78168722   -9.0567446    469.40095  0.013507163  0.013428856         3334 
 2897000   0.79029255   -9.0673062    470.74327  0.013541113   0.01342282         3439 
 2898000   0.76670662   -9.0601926    470.01909  0.013515617  0.013416783         3409 
 2899000   0.79193727   -9.0583628    469.93744  0.013508608  0.013410752         3435 
 2900000   0.80140833   -9.0637763    469.83458  0.013500994  0.013404717         3429 
 2901000   0.79034591   -9.0919042    470.46817   0.01351454  0.013398673         3425 
 2902000   0.78786818   -9.0833894    469.68907  0.013487511  0.013392629         3479 
 2903000   0.78911161    -9.107478    469.55081  0.013478896  0.013386589         3507 
 2904000   0.76219917   -9.0644963    469.53847    0.0134739  0.013380539         3441 
 2905000   0.78865802   -9.0806118    468.66617  0.013444239  0.013374485         3463 
 2906000   0.80928598   -9.1426004    468.66508  0.013439581  0.013368427         3489 
 2907000   0.79790319   -9.1266739    469.81968  0.013468056  0.013362365         3497 
 2908000   0.78125851   -9.1428023    469.58477  0.013456693  0.013356298         3517 
 2909000   0.78487431   -9.1002073    470.04456  0.013465239  0.013350239         3528 
 2910000   0.79658968   -9.1286376    469.68129  0.013450209  0.013344179         3512 
 2911000    0.7926784    -9.118364     469.3888  0.013437215  0.013338123         3541 
 2912000   0.79003118   -9.1234591     468.3216  0.013402061  0.013332065         3505 
 2913000   0.79232392   -9.1199541    469.37992  0.013427735  0.013325998         3509 
 2914000   0.77861016   -9.1404566    467.39696   0.01336642  0.013319931         3582 
 2915000   0.77679009   -9.1324515     469.3622  0.013418016  0.013313858         3547 
 2916000    0.7990587   -9.1188649    469.12023    0.0134065  0.013307787         3573 
 2917000   0.80647082   -9.1202765    468.93935  0.013396736  0.013301714         3550 
 2918000   0.78937425    -9.159172    469.12287  0.013397386  0.013295633         3619 
 2919000   0.77457212   -9.1513205    467.36133  0.013342507  0.013289549         3605 
 2920000   0.79455222   -9.1639186    468.69426  0.013375978  0.013283458         3600 
 2921000   0.79106144   -9.1556079    467.95853  0.013350409  0.013277384         3610 
 2922000   0.79559577   -9.1711372    467.75799  0.013340121  0.013271297         3640 
 2923000   0.79769782   -9.1528892    468.88037  0.013367555  0.013265207         3654 
 2924000    0.7807555   -9.1825147    467.72354  0.013330014  0.013259114         3654 
 2925000   0.79955515   -9.1789361    468.83086  0.013357005  0.013253029         3705 
 2926000   0.79590961   -9.1600394    467.96322  0.013327729  0.013246941         3659 
 2927000    0.7429986   -9.1651297    468.04154  0.013325405  0.013240853         3703 
 2928000   0.79009987   -9.1840251    468.41777  0.013331562  0.013234761         3734 
 2929000    0.7627186   -9.1710083    467.40026  0.013298061  0.013228663         3696 
 2930000   0.78785541   -9.1800451    468.22348  0.013316936   0.01322257         3752 
 2931000   0.77276279   -9.1804883    468.11066  0.013309185  0.013216468         3771 
 2932000   0.78227331   -9.2231597    466.71748  0.013265049  0.013210372         3795 
 2933000   0.80554942   -9.2037207    467.78909  0.013290973  0.013204269         3757 
 2934000   0.77945335   -9.2047802    466.88022  0.013260629  0.013198165         3741 
 2935000   0.78385051    -9.210537    467.34243  0.013269234   0.01319205         3740 
 2936000   0.78103695   -9.2292341    467.30773   0.01326373  0.013185945         3754 
 2937000   0.78152729     -9.22705     466.7442  0.013243224  0.013179843         3788 
 2938000   0.78055447   -9.1892129     467.5349  0.013261144  0.013173748         3741 
 2939000   0.78109001   -9.2046342    467.09997    0.0132443  0.013167655         3767 
 2940000   0.78467034    -9.248707    466.99154  0.013236722  0.013161553         3755 
 2941000     0.763578   -9.1866544     467.1371  0.013236345  0.013155461         3775 
 2942000   0.78646525   -9.2146771    466.76483  0.013221302  0.013149354         3783 
 2943000   0.77814909   -9.2294072    467.01288  0.013223833  0.013143267         3790 
 2944000   0.78270966   -9.2367932    466.82332  0.013213975  0.013137183         3795 
 2945000   0.78375437   -9.2282158    467.73006  0.013235146  0.013131087         3788 
 2946000   0.78515602    -9.224709    467.03383  0.013210959     0.013125         3788 
 2947000   0.79645803   -9.2373992    466.14855  0.013181443  0.013118912         3836 
 2948000   0.79017347   -9.2450749    467.15945  0.013205547  0.013112827         3854 
 2949000   0.79619541   -9.2293103    466.92263  0.013194377  0.013106744         3832 
 2950000    0.7816229   -9.2437212    466.00419   0.01316396  0.013100665         3818 
 2951000   0.77759916   -9.2428968    467.10297  0.013190528  0.013094587         3798 
 2952000   0.77593833   -9.2348411     467.2655  0.013190648  0.013088507         3786 
 2953000    0.7854719   -9.2599504    466.78419  0.013172598  0.013082424         3831 
 2954000   0.76695279   -9.2426092    466.61824  0.013163458   0.01307635         3784 
 2955000   0.77874096   -9.2475787    467.14803  0.013173943  0.013070282         3802 
 2956000   0.76556475   -9.2411796    466.72669  0.013157609  0.013064213         3841 
 2957000   0.77140976   -9.2573409    465.81255  0.013127397  0.013058143         3820 
 2958000   0.77133906   -9.2651055    466.42363  0.013140175  0.013052072         3853 
 2959000   0.78606788    -9.247394    467.03728  0.013153016  0.013045998         3816 
 2960000    0.7675132   -9.2583862    466.21332  0.013125375   0.01303992         3837 
 2961000   0.78084658   -9.2809289    465.87155  0.013111323   0.01303385         3844 
 2962000    0.7784776   -9.2436774    466.65036  0.013128808  0.013027774         3850 
 2963000   0.76353529   -9.2682268    466.31286  0.013114885  0.013021702         3837 
 2964000   0.76393552   -9.2851611    465.83419  0.013097003  0.013015637         3856 
 2965000   0.77394574   -9.2848286    466.49958  0.013111287  0.013009563         3858 
 2966000   0.78246381   -9.2741643    465.90406  0.013090134  0.013003481         3835 
 2967000   0.77751904    -9.275095    466.05747  0.013090031  0.012997413         3858 
 2968000   0.78085372    -9.269979    466.43567  0.013096239  0.012991347         3836 
 2969000   0.79066303   -9.2643187    465.63514   0.01306936  0.012985282         3862 
 2970000   0.80123598   -9.2617102    465.16156  0.013051671  0.012979221         3860 
 2971000   0.78665071    -9.275542    466.39503  0.013081876  0.012973159         3843 
 2972000   0.78327156   -9.2857737    465.83186  0.013061683  0.012967097         3818 
 2973000   0.77366898   -9.2958682    466.33443  0.013071377  0.012961032         3843 
 2974000   0.78536907    -9.273828    466.40465  0.013068949  0.012954978         3844 
 2975000   0.78872358   -9.2948749    466.29306   0.01306143  0.012948929         3849 
 2976000   0.78146518   -9.3225687     464.8908  0.013017776  0.012942875         3858 
 2977000   0.76853367   -9.2795266    465.82131   0.01303945   0.01293683         3850 
 2978000   0.77433578   -9.2729549    465.67938    0.0130311  0.012930797         3881 
 2979000   0.78403145   -9.2855403    466.11971  0.013039043  0.012924759         3835 
 2980000   0.78213823   -9.2868492    466.60557  0.013048254  0.012918719         3846 
 2981000    0.7913455   -9.3129622    465.51694  0.013013445  0.012912684         3863 
 2982000   0.78924028   -9.2623315    465.78325  0.013016523  0.012906659         3866 
 2983000    0.7739345    -9.290678    466.34289  0.013027793   0.01290063         3854 
 2984000   0.77597407   -9.2998902    465.51486  0.013000303  0.012894604         3863 
 2985000   0.76316627   -9.2863227    466.08148  0.013011767  0.012888577         3866 
 2986000   0.77399663   -9.2933853    464.96535   0.01297626  0.012882548         3872 
 2987000   0.77304447   -9.2786817    466.07567  0.013002892  0.012876522         3842 
 2988000   0.77556752   -9.2868838    465.72792  0.012988842  0.012870512         3836 
 2989000   0.76724608   -9.3025895     465.7799  0.012985946  0.012864499         3848 
 2990000   0.77837483   -9.2767663    466.23468  0.012994278  0.012858486         3841 
 2991000   0.77939741   -9.2895164    465.40236  0.012966744  0.012852476         3852 
 2992000   0.76494133   -9.2983718    465.19585  0.012956658  0.012846475         3874 
 2993000   0.79222582   -9.2795596    466.42009  0.012986415  0.012840486         3847 
 2994000   0.76286215   -9.3150247     465.7488  0.012963393  0.012834497         3868 
 2995000   0.78127853   -9.2829605    465.31877    0.0129471    0.0128285         3859 
 2996000   0.77169751   -9.3043186    465.40265  0.012945112    0.0128225         3876 
 2997000    0.7659107   -9.3030153    465.57916    0.0129457   0.01281651         3870 
 2998000   0.78260997   -9.3198168    465.29304  0.012933429   0.01281052         3875 
 2999000   0.77358265   -9.2915992    465.85964   0.01294486  0.012804534         3884 
 3000000   0.78727723   -9.3101333    465.17261  0.012921461  0.012798539         3873 
 3001000   0.75901822    -9.317251    465.60717  0.012929223  0.012792555         3852 
 3002000   0.77130811   -9.2901477    466.14061  0.012939724  0.012786573         3870 
 3003000   0.76833757   -9.2959338    465.88543  0.012928334  0.012780589         3864 
 3004000   0.75643701    -9.321916    465.58664  0.012915741  0.012774617         3867 
 3005000     0.755326   -9.3187854    464.54615  0.012882589  0.012768641         3887 
 3006000   0.78599461   -9.3384114    465.40703  0.012902169  0.012762669         3874 
 3007000   0.76726508   -9.3143327     466.2011  0.012919884  0.012756707         3869 
 3008000   0.77423047   -9.3080814    466.88806   0.01293462  0.012750741         3864 
 3009000    0.7720723   -9.3289525    466.07957  0.012907931  0.012744776         3866 
 3010000   0.77528084   -9.3257439     465.0259  0.012874471  0.012738814         3880 
 3011000   0.76216381   -9.3101989     465.8825  0.012893903  0.012732858         3864 
 3012000   0.76416123    -9.303687    466.19518  0.012898273  0.012726908         3860 
 3013000   0.77033337   -9.3178169    465.71676   0.01288076  0.012720962         3846 
 3014000   0.75809402   -9.3316628    465.53892  0.012871569  0.012715018         3877 
 3015000   0.76785284   -9.3181219    466.16621  0.012884638  0.012709081         3880 
 3016000   0.75617653   -9.3118484    465.78365  0.012869796  0.012703144         3874 
 3017000   0.74102185   -9.3237935    465.70271  0.012863295  0.012697211         3893 
 3018000   0.76874229    -9.337425    465.93186   0.01286536   0.01269128         3853 
 3019000    0.7618742   -9.3231839    465.24333  0.012842093  0.012685348         3852 
 3020000   0.78656007   -9.3078133    465.60789    0.0128479  0.012679418         3884 
 3021000   0.77516149   -9.2950137    465.56851  0.012842561  0.012673494         3890 
 3022000   0.77939447   -9.3285079    465.36143  0.012832601  0.012667566         3894 
 3023000   0.76506105   -9.3195256    465.48779  0.012831839  0.012661643         3900 
 3024000    0.7677854   -9.3202643    465.27877  0.012821836  0.012655728         3904 
 3025000   0.76894106   -9.3151587    465.39818  0.012820886  0.012649807         3877 
 3026000   0.75530983   -9.3364367    464.88487  0.012802514  0.012643878         3880 
 3027000   0.77028961   -9.3353444    464.42321  0.012785575  0.012637964         3892 
 3028000   0.75241507   -9.3113842    464.60517   0.01278636  0.012632046         3901 
 3029000   0.77041544   -9.3537635    465.17374  0.012797781  0.012626135         3922 
 3030000   0.76775879   -9.3169942    465.04477   0.01279001  0.012620227         3871 
 3031000   0.78152406   -9.3484849    464.40156  0.012768106  0.012614319         3914 
 3032000   0.76574057   -9.3296631    464.55996  0.012768249  0.012608411         3904 
 3033000   0.75528127   -9.3392578    464.43832  0.012760697    0.0126025         3893 
 3034000   0.77168407   -9.3508336     464.3153  0.012753112  0.012596594         3913 
 3035000   0.76267177   -9.3297413    465.48186  0.012780941  0.012590693         3867 
 3036000   0.77038231   -9.3163499    465.40178  0.012774533  0.012584793         3872 
 3037000   0.78013688   -9.3358333     465.5588  0.012774635  0.012578899         3903 
 3038000   0.77719171   -9.3184812    464.69839  0.012746829  0.012572998         3917 
 3039000   0.76125944    -9.355941    465.12219  0.012754256  0.012567102         3907 
 3040000   0.75001044   -9.3386334    465.32039  0.012755493  0.012561212         3882 
 3041000    0.7730268    -9.352126    465.13766  0.012746291  0.012555325         3898 
 3042000     0.769898   -9.3132943     464.4731  0.012723896  0.012549448         3883 
 3043000   0.75568923   -9.3331102    464.41726  0.012718185  0.012543578         3901 
 3044000   0.77150531    -9.330799    464.74575     0.012723  0.012537709         3883 
 3045000   0.76793053   -9.3620621    463.85731  0.012694508  0.012531842         3894 
 3046000   0.78515695   -9.3440066    463.74469  0.012687259  0.012525979         3882 
 3047000   0.78129886   -9.3297987    465.15567  0.012721685  0.012520121         3877 
 3048000    0.7694111   -9.3271011    465.75775  0.012733972  0.012514261         3893 
 3049000   0.76906629    -9.321744    464.96821  0.012708216  0.012508407         3900 
 3050000    0.7511584   -9.3657937    464.33841  0.012686842  0.012502547         3889 
 3051000   0.76332024   -9.3346396    464.64097  0.012690948  0.012496692         3908 
 3052000   0.76324435   -9.3408655    464.94535    0.0126951  0.012490844         3903 
 3053000   0.76923612   -9.3408182    464.17755  0.012669984  0.012484996         3892 
 3054000   0.74857834   -9.3463058     464.4497  0.012673262  0.012479153         3887 
 3055000   0.76465671   -9.3333185    465.70883   0.01270346  0.012473313         3879 
 3056000    0.7712474   -9.3406122    464.93939  0.012678321  0.012467476         3917 
 3057000   0.75580365   -9.3430437    464.75423  0.012669126  0.012461641         3901 
 3058000   0.75635673   -9.3544489    464.08495  0.012646745  0.012455805         3904 
 3059000   0.77073736   -9.3391754    464.97348  0.012666816  0.012449975         3888 
 3060000    0.7712398   -9.3446261    464.84178   0.01265909  0.012444146         3902 
 3061000   0.76721829   -9.3457475     464.8451  0.012655045  0.012438318         3886 
 3062000   0.74722576   -9.3611193    463.74119  0.012620869  0.012432501         3877 
 3063000    0.7568326   -9.3274015    465.06301   0.01265271  0.012426683         3864 
 3064000    0.7734097   -9.3400755    465.58378  0.012662744   0.01242087         3854 
 3065000    0.7549039   -9.3331997    464.52963  0.012629952  0.012415056         3854 
 3066000   0.75822481   -9.3425236    464.28569  0.012619202  0.012409245         3866 
 3067000   0.76835368   -9.3636713    463.81121  0.012602196  0.012403434         3878 
 3068000   0.75854717   -9.3432225    464.90247  0.012627729  0.012397635         3913 
 3069000   0.76162975   -9.3490291    464.97369  0.012625548  0.012391835         3868 
 3070000   0.77363267   -9.3514161     464.5717  0.012610524  0.012386023         3882 
 3071000   0.74884222   -9.3435347    464.30356  0.012599141  0.012380228         3860 
 3072000   0.75411027   -9.3314451     464.5313  0.012601218  0.012374438         3858 
 3073000   0.75816846   -9.3613375    463.99935  0.012582692  0.012368647         3893 
 3074000   0.76439816   -9.3543599    463.62093   0.01256834  0.012362852         3897 
 3075000   0.76888736   -9.3509641    464.27426  0.012581958  0.012357056         3867 
 3076000   0.76294275   -9.3571058    464.65708  0.012588239  0.012351268         3874 
 3077000   0.76115055   -9.3720123    464.23166  0.012572626  0.012345481         3903 
 3078000   0.76543924   -9.3583636    464.41768  0.012573578  0.012339705         3899 
 3079000   0.76407704    -9.366201    463.71019  0.012550346  0.012333923         3906 
 3080000   0.75518192   -9.3797731    464.46283  0.012566635  0.012328147         3898 
 3081000   0.76518608     -9.36296    463.85458  0.012546105  0.012322374         3889 
 3082000   0.76905019   -9.3405934    464.67718  0.012564276  0.012316607         3892 
 3083000   0.76780275   -9.3726046     464.4956  0.012555293  0.012310846         3883 
 3084000   0.75568972   -9.3721388    463.87054  0.012534331  0.012305087         3906 
 3085000   0.73533316   -9.3953594    463.99535   0.01253364  0.012299329         3906 
 3086000   0.74904462   -9.3600027      464.543  0.012544367  0.012293566         3885 
 3087000    0.7572323   -9.3708135    464.52872  0.012539918  0.012287809         3908 
 3088000   0.73793979   -9.3605595    464.05905  0.012523183  0.012282062         3898 
 3089000   0.76248183   -9.3216632    464.67243  0.012535676  0.012276313         3882 
 3090000   0.75101298   -9.3824364    464.50383  0.012527072   0.01227057         3903 
 3091000   0.74168869   -9.3512064    465.11375  0.012539463   0.01226483         3902 
 3092000   0.74953536   -9.3886468    464.85632  0.012528469   0.01225909         3898 
 3093000   0.74846197   -9.3257331     465.0105  0.012528573  0.012253351         3905 
 3094000   0.75658477   -9.3777985    463.82404  0.012492567  0.012247613         3900 
 3095000    0.7498917   -9.3552526    464.16395  0.012497683  0.012241879         3885 
 3096000   0.75905073   -9.3828261    465.17953  0.012520982   0.01223615         3890 
 3097000   0.75881044   -9.3349671    464.95183  0.012510812  0.012230428         3886 
 3098000    0.7398311   -9.3443833     464.5169  0.012495075   0.01222471         3906 
 3099000   0.75703143   -9.3638331     464.1556  0.012481327  0.012218994         3865 
 3100000   0.74413235   -9.3458648    464.00741  0.012473317  0.012213281         3879 
 3101000   0.76372901   -9.3654466    464.04547  0.012470318  0.012207574         3878 
 3102000   0.77146573   -9.3564797    464.47021  0.012477708  0.012201867         3876 
 3103000     0.765238   -9.3685892    464.10483  0.012463874  0.012196161         3884 
 3104000   0.75209272   -9.3824442    462.96706  0.012429313   0.01219046         3895 
 3105000   0.75494371   -9.3668119    463.99649  0.012452938  0.012184762         3888 
 3106000   0.76537592   -9.3652459    462.51682   0.01240923  0.012179061         3871 
 3107000   0.75503448   -9.3758744    464.34077  0.012454157  0.012173361         3890 
 3108000    0.7552975   -9.3920172    464.20281   0.01244645  0.012167666         3913 
 3109000   0.75205211   -9.3737499    463.56581  0.012425373  0.012161976         3891 
 3110000   0.76243644   -9.3310054    465.08866  0.012462183  0.012156288         3869 
 3111000   0.76044912   -9.3659731    464.03758  0.012430022  0.012150606         3905 
 3112000    0.7665585   -9.3894841    464.37749   0.01243513  0.012144922         3898 
 3113000   0.76349656   -9.3663177    463.90233  0.012418416  0.012139239         3891 
 3114000   0.74443314   -9.3508809    464.65968  0.012434695  0.012133561         3896 
 3115000   0.74694059   -9.3817416    463.88681  0.012410027  0.012127886         3893 
 3116000   0.75104042   -9.3608001    463.88948  0.012406116  0.012122219         3909 
 3117000   0.74687479     -9.36719    463.54737  0.012392989  0.012116544         3909 
 3118000   0.76801138   -9.3824163    464.33138  0.012409968  0.012110879         3896 
 3119000    0.7528469   -9.3668079    464.43494  0.012408757  0.012105223         3905 
 3120000   0.74955191   -9.3541271    464.46554  0.012405597  0.012099568         3897 
 3121000   0.75611351    -9.392824    463.97207  0.012388446  0.012093923         3902 
 3122000   0.75200954   -9.3588794    463.46315  0.012370893  0.012088269         3922 
 3123000   0.76507872   -9.3544309    464.90367  0.012405371  0.012082628         3918 
 3124000   0.75289939   -9.3920284    464.29246  0.012385096  0.012076984         3899 
 3125000    0.7516976   -9.3886328    464.35556  0.012382815  0.012071339         3912 
 3126000   0.75278595   -9.3941229    464.25591  0.012376197  0.012065699         3923 
 3127000   0.74546064   -9.3932399    463.49785  0.012352037  0.012060058         3926 
 3128000   0.75660123   -9.3654884    463.91669  0.012359247  0.012054428         3906 
 3129000   0.74001267   -9.3763173    464.93365  0.012382381  0.012048797         3908 
 3130000   0.77163022   -9.3789428    465.49646   0.01239341  0.012043166         3909 
 3131000   0.74512326      -9.3718    464.41546   0.01236068  0.012037537         3905 
 3132000   0.75343618   -9.3973147    464.13717  0.012349329  0.012031912         3919 
 3133000   0.75678858     -9.39849    463.63464  0.012332021  0.012026291         3911 
 3134000   0.75040388   -9.3768997    463.95051  0.012336485  0.012020666         3907 
 3135000   0.77174432   -9.3994744    463.04011   0.01230835  0.012015044         3909 
 3136000   0.74170057   -9.3655337     464.1025  0.012332656  0.012009419         3923 
 3137000   0.72841586   -9.4071345     463.4848  0.012312315  0.012003802         3909 
 3138000   0.73317304   -9.3970384    463.30702  0.012303671  0.011998185         3904 
 3139000   0.75667813   -9.3999598    463.17746  0.012296312  0.011992579         3923 
 3140000   0.75504615   -9.3790453    464.74543  0.012334008  0.011986977         3913 
 3141000   0.75337407   -9.4048751    463.64563  0.012300903  0.011981385         3923 
 3142000   0.75818262    -9.390345    463.39785  0.012290416  0.011975787         3911 
 3143000   0.74095074   -9.3749107    463.63998  0.012292926  0.011970193         3914 
 3144000   0.77227262   -9.3523957    464.02413  0.012299198  0.011964604         3910 
 3145000   0.74691886    -9.357823    464.59505  0.012310415  0.011959028         3911 
 3146000   0.74675308   -9.3946546    462.33014  0.012246507  0.011953448         3929 
 3147000   0.74503934   -9.3937496    463.82622  0.012282232   0.01194788         3904 
 3148000   0.74335179   -9.3904018    464.65089  0.012300161  0.011942304         3920 
 3149000   0.75504786   -9.3721762    464.54341  0.012293411  0.011936733         3920 
 3150000   0.74623693   -9.3969488    463.84498  0.012271031  0.011931162         3916 
 3151000   0.74620035   -9.3794188     464.3675  0.012280956  0.011925598         3916 
 3152000   0.74156065   -9.3831191    463.88768  0.012264374  0.011920036         3916 
 3153000   0.75394977   -9.3568878    464.82768  0.012285328  0.011914484         3913 
 3154000    0.7525659   -9.3702241    464.11851  0.012262696  0.011908934         3881 
 3155000   0.75623963   -9.4154369    462.49617  0.012215958  0.011903388         3917 
 3156000   0.73497284   -9.3510524    464.24823   0.01225835  0.011897845         3902 
 3157000   0.74793505   -9.3712608    463.57415  0.012236674    0.0118923         3922 
 3158000   0.72427985   -9.3977806    464.35465  0.012253395  0.011886755         3916 
 3159000   0.74582274   -9.3983891    463.77166  0.012234137  0.011881215         3897 
 3160000   0.73499726   -9.3838393    463.82416   0.01223165  0.011875677         3890 
 3161000   0.76007419   -9.3826399    464.07315  0.012234344  0.011870143         3911 
 3162000   0.76041954   -9.4119081    464.10701  0.012231368  0.011864614         3899 
 3163000    0.7581459   -9.3626285    463.94584  0.012223254  0.011859092         3922 
 3164000      0.75197   -9.3804786    463.96024   0.01221977  0.011853562         3913 
 3165000   0.74473479   -9.4115487     463.1957  0.012195779  0.011848037         3916 
 3166000   0.74567478   -9.3923395    464.81423  0.012234529  0.011842517         3925 
 3167000   0.75421162   -9.4252387    464.01641  0.012209673  0.011836996         3906 
 3168000    0.7575074    -9.407312    463.95532  0.012204212  0.011831485         3917 
 3169000   0.75490648   -9.3946822    464.30676  0.012209603  0.011825966         3913 
 3170000   0.75481943   -9.3927446    464.76109  0.012217694  0.011820466         3911 
 3171000    0.7457919   -9.3775161    463.52361   0.01218132  0.011814962         3923 
 3172000    0.7458678   -9.3620883    464.08257  0.012192165  0.011809462         3915 
 3173000    0.7443438   -9.3911853    462.92897  0.012158025  0.011803968         3923 
 3174000   0.73835078    -9.403224    463.86245  0.012178703  0.011798468         3911 
 3175000   0.74378016   -9.4041194    463.82689  0.012173934   0.01179298         3924 
 3176000   0.75881734   -9.4168101    464.12275  0.012177864  0.011787489         3899 
 3177000   0.75031603   -9.3971959    463.84809  0.012166826  0.011781999         3901 
 3178000   0.74119181   -9.4007801    463.41472  0.012151634  0.011776516         3922 
 3179000   0.75639484   -9.3991183    463.79414  0.012157758  0.011771033         3927 
 3180000   0.74237181   -9.3680114    463.83915  0.012155114  0.011765555         3897 
 3181000   0.75314768   -9.3791301    463.81879   0.01215076  0.011760082         3907 
 3182000   0.73947815   -9.4294223    463.03469  0.012126406   0.01175461         3899 
 3183000   0.74517511   -9.3804779    463.81859   0.01214312  0.011749147         3887 
 3184000   0.74957992   -9.3962344    462.95432  0.012116685  0.011743692         3918 
 3185000   0.74314428   -9.3835423    464.34173  0.012149182  0.011738237         3922 
 3186000   0.74401905   -9.3861778    463.62384  0.012126591  0.011732781         3927 
 3187000   0.74249353    -9.389172    463.99059  0.012132376  0.011727325         3939 
 3188000   0.73834843   -9.3808014    463.78026  0.012123072  0.011721881         3918 
 3189000    0.7249877   -9.4071057    463.58574  0.012114188  0.011716435         3935 
 3190000    0.7318175   -9.4027897    462.98793  0.012094774  0.011710986         3938 
 3191000   0.74153717   -9.4136109      463.942  0.012115899  0.011705537         3936 
 3192000   0.74191882   -9.4026562    463.70552  0.012105929  0.011700096         3920 
 3193000   0.76025192   -9.3851941    463.66795  0.012101158  0.011694658         3910 
 3194000   0.73497156    -9.413914    463.05365  0.012081341  0.011689225         3922 
 3195000   0.73113958   -9.3996048    463.77865   0.01209647  0.011683792         3906 
 3196000   0.74847147   -9.3966494    462.13843  0.012049917  0.011678363         3932 
 3197000   0.74229823   -9.4049975    463.98289  0.012094226  0.011672935         3924 
 3198000   0.75746214   -9.4135636    463.55897  0.012079398  0.011667517         3926 
 3199000   0.75202116   -9.3792112    462.83058  0.012056647  0.011662097         3915 
 3200000   0.72765375   -9.3942259    463.37983  0.012067183  0.011656679         3915 
 3201000   0.74513803   -9.4129802    463.53346  0.012067413  0.011651258         3906 
 3202000   0.74138945   -9.3479872    463.05907  0.012051298  0.011645852         3923 
 3203000   0.74900134   -9.3944958    463.40415  0.012056513  0.011640451         3933 
 3204000   0.73308296   -9.4057197    463.63441  0.012058739  0.011635048         3923 
 3205000   0.72276848   -9.4087847     464.3572   0.01207377  0.011629649         3925 
 3206000   0.75710062   -9.3836012    464.76913  0.012080711  0.011624255         3927 
 3207000   0.74392728   -9.3884797    463.79926  0.012051742  0.011618869         3919 
 3208000   0.72275873   -9.4054837    463.95295  0.012051978   0.01161348         3920 
 3209000   0.72997267   -9.4003663    463.33491  0.012032173  0.011608101         3928 
 3210000    0.7223766   -9.3856182    463.50185  0.012032758  0.011602711         3904 
 3211000   0.73787966   -9.4158493    463.59683  0.012031476  0.011597336         3911 
 3212000   0.76202104   -9.4166829    464.02878  0.012038937   0.01159196         3917 
 3213000   0.74109302   -9.4020409    463.39813  0.012018833  0.011586583         3914 
 3214000   0.73940674   -9.4049302    463.50346  0.012017825  0.011581206         3901 
 3215000   0.72757267   -9.3697062    463.90138  0.012024401  0.011575836         3907 
 3216000   0.74439119   -9.4160436    463.41479  0.012008053  0.011570468         3905 
 3217000   0.73225755   -9.4160618    463.37097  0.012003185  0.011565105         3909 
 3218000   0.72299956   -9.4005322    463.85806  0.012012069  0.011559748         3927 
 3219000   0.74133697   -9.4085874    463.68587   0.01200388  0.011554393         3890 
 3220000   0.72660511   -9.3903756     463.7952  0.012002981   0.01154904         3923 
 3221000    0.7373664    -9.412922    464.22501  0.012010375  0.011543693         3927 
 3222000   0.72901898   -9.4274917    463.18183  0.011979667  0.011538345         3923 
 3223000   0.74340538   -9.4160509    462.93421  0.011969547  0.011533001         3945 
 3224000   0.73764649    -9.396412    463.32831  0.011976021  0.011527659         3922 
 3225000   0.72692181   -9.3976861    463.51772  0.011977202  0.011522317         3911 
 3226000   0.72789377   -9.4285024    463.79402  0.011980627  0.011516985         3916 
 3227000   0.73575472   -9.3997028    463.23511  0.011962481  0.011511655         3928 
 3228000   0.74821333   -9.4047729    463.80444  0.011973473  0.011506325         3909 
 3229000    0.7442924    -9.420117    463.89019  0.011971978  0.011501002         3923 
 3230000   0.73535676   -9.4085188     463.5223   0.01195878  0.011495686         3914 
 3231000   0.74597099   -9.3917562     464.1098  0.011970231  0.011490365         3914 
 3232000   0.72627068    -9.438313    463.40316  0.011948308  0.011485053         3903 
 3233000   0.73335724   -9.4158226     463.3742  0.011943865  0.011479741         3926 
 3234000    0.7440661   -9.4314758    462.57483  0.011919574  0.011474428         3874 
 3235000   0.72822208   -9.4109039    463.21448  0.011932367  0.011469121         3920 
 3236000   0.72761838   -9.4003674    463.35303  0.011932247  0.011463818         3924 
 3237000   0.73693779   -9.4381753    463.58385  0.011934503  0.011458518         3910 
 3238000   0.74025094    -9.430806    462.72756   0.01190878  0.011453221         3920 
 3239000   0.72254875   -9.3929407     463.1719  0.011916535  0.011447927         3895 
 3240000   0.74351063   -9.3965786    464.11443    0.0119371  0.011442633         3916 
 3241000   0.71994133   -9.3904201    463.36139  0.011914054  0.011437345         3903 
 3242000   0.72171765   -9.3981625    464.23349  0.011932796  0.011432063         3907 
 3243000   0.71823318   -9.4214999    462.85702  0.011893746  0.011426774         3900 
 3244000   0.74194744   -9.4354891    463.50362   0.01190669  0.011421495         3894 
 3245000   0.73231197   -9.4268658    461.86856  0.011861031  0.011416209         3907 
 3246000   0.72458158   -9.4281402    463.03894  0.011887424  0.011410934         3911 
 3247000   0.73783369   -9.4177908    462.63805  0.011873474   0.01140566         3925 
 3248000   0.73691235   -9.4058387    463.48882  0.011891647  0.011400392         3908 
 3249000   0.72944319   -9.4248277    464.09919  0.011903642   0.01139513         3926 
 3250000   0.74495186   -9.4247428    462.99884  0.011871765  0.011389872         3920 
 3251000   0.73220783   -9.4036495    463.60802  0.011883729  0.011384614         3915 
 3252000   0.73084874   -9.4516708    462.56688  0.011853395  0.011379352         3929 
 3253000   0.72891152    -9.414579    462.87391  0.011857616  0.011374098         3928 
 3254000   0.73828966   -9.4358069    463.04223  0.011858283  0.011368845         3943 
 3255000   0.74227456   -9.4391444    462.79153  0.011848222  0.011363595         3921 
 3256000   0.72217756   -9.4252772    463.59863  0.011865239  0.011358351         3940 
 3257000   0.71124126   -9.4168807    464.77668  0.011891738  0.011353112         3923 
 3258000    0.7357913   -9.3935528    463.77717  0.011862522  0.011347871         3917 
 3259000    0.7298311   -9.3884018    462.81586  0.011834301  0.011342637         3899 
 3260000   0.72187557   -9.4325964    464.13067  0.011864281  0.011337406         3923 
 3261000    0.7286317   -9.4128091    463.04728  0.011832957  0.011332178         3922 
 3262000   0.74417439   -9.4226423    463.52905  0.011841637  0.011326948         3934 
 3263000   0.73801776    -9.447248    462.56515  0.011813391   0.01132172         3925 
 3264000   0.71798671   -9.4178095    463.21438  0.011826348  0.011316498         3917 
 3265000   0.73567464    -9.414843    463.49677  0.011829933   0.01131128         3893 
 3266000   0.71819605    -9.430636    463.40402  0.011823944  0.011306065         3891 
 3267000    0.7303629    -9.417487    463.83521  0.011831324  0.011300856         3926 
 3268000   0.73921682   -9.4176375    462.86291   0.01180291  0.011295646         3917 
 3269000   0.72739352   -9.4441169    463.13317  0.011806189  0.011290438         3916 
 3270000   0.73909599   -9.4152069    463.06404  0.011800816  0.011285229         3922 
 3271000   0.73185865   -9.4262112    463.12079  0.011798655  0.011280031         3905 
 3272000   0.72822039   -9.4071376      462.263  0.011773202  0.011274835         3912 
 3273000   0.72722181   -9.4279945    462.52661  0.011776317  0.011269641         3934 
 3274000   0.71954436   -9.4208638    463.41547  0.011795344  0.011264452         3915 
 3275000    0.7352607   -9.4143672    464.13923  0.011810159  0.011259266         3887 
 3276000   0.72110844   -9.4211867    463.32632  0.011785875  0.011254086         3911 
 3277000   0.72244911   -9.4228002    463.22216   0.01177963   0.01124891         3891 
 3278000   0.70956523   -9.4333197    462.27164  0.011751872  0.011243732         3913 
 3279000    0.7186658   -9.4054126    464.73327  0.011810849  0.011238557         3900 
 3280000   0.70116284   -9.4217095    463.24205  0.011769361  0.011233381         3927 
 3281000   0.72245787   -9.4296616    462.54033  0.011747951  0.011228205         3898 
 3282000   0.72079234   -9.4208514    463.11536  0.011758972  0.011223044         3919 
 3283000   0.73660326   -9.4098474    463.78251  0.011772325  0.011217882         3902 
 3284000     0.723409   -9.4268306     463.2642  0.011755588  0.011212721         3903 
 3285000   0.72781287    -9.442947    462.80893   0.01174046  0.011207562         3922 
 3286000   0.71476602   -9.4301875    462.85239  0.011737989  0.011202407         3930 
 3287000   0.73337395   -9.4478707    463.21093  0.011743508  0.011197258         3920 
 3288000   0.73220425   -9.4278558    462.65967  0.011725965  0.011192109         3923 
 3289000   0.72265784   -9.4198157    462.92451   0.01172911  0.011186963         3922 
 3290000   0.71861816   -9.4390737    463.20998  0.011732775  0.011181811         3908 
 3291000   0.71536188   -9.4385102    462.98961   0.01172363  0.011176672         3941 
 3292000    0.7340377   -9.4369461    462.43939  0.011706141  0.011171522         3915 
 3293000   0.72146756   -9.4257525    462.49388  0.011703965  0.011166382         3914 
 3294000   0.72718538   -9.4540253    463.02517  0.011713853  0.011161242         3917 
 3295000   0.74902922    -9.418415     462.6933  0.011701904  0.011156118         3918 
 3296000   0.71133703   -9.4248155    462.98204  0.011705654  0.011150989         3914 
 3297000   0.71895683   -9.4380903     463.2663  0.011709289  0.011145854         3921 
 3298000   0.71796479   -9.4189932    463.47385  0.011710983  0.011140729         3921 
 3299000   0.70678531   -9.4467863    463.47448  0.011707449  0.011135606         3920 
 3300000   0.72573212   -9.4488863    464.07363  0.011719031  0.011130493         3918 
 3301000   0.72374669   -9.4403129    462.60052  0.011678292  0.011125383         3914 
 3302000   0.72609915   -9.4312103    462.25968  0.011666154  0.011120271         3912 
 3303000   0.71291947   -9.4439349    463.17523  0.011685721  0.011115163         3924 
 3304000   0.73219206   -9.4325934    462.41037  0.011662893  0.011110062         3931 
 3305000   0.72394026   -9.4292818    463.18261  0.011678835  0.011104961         3914 
 3306000   0.73000582   -9.4280921    463.22312  0.011676324  0.011099857         3915 
 3307000   0.71629412   -9.4400094    463.51183  0.011680068   0.01109476         3925 
 3308000   0.74133659   -9.4389658    462.21486  0.011643865   0.01108966         3915 
 3309000   0.71456444   -9.4245119    462.54116  0.011648564  0.011084569         3919 
 3310000   0.72633952   -9.4473339    463.54732  0.011670376   0.01107948         3903 
 3311000   0.72718137   -9.4353656    463.46548  0.011664791  0.011074391         3912 
 3312000   0.70771007   -9.4319967    463.07249  0.011651381  0.011069307         3908 
 3313000   0.72767063   -9.4603479    462.86268  0.011642587  0.011064223         3912 
 3314000   0.72579219   -9.4466426    462.01834  0.011617842  0.011059148         3919 
 3315000   0.72615831   -9.4191751    463.50836  0.011651794  0.011054077         3899 
 3316000   0.70897012   -9.4569429    462.69393  0.011627813  0.011049007         3937 
 3317000   0.71245308   -9.4268754    462.14888  0.011610614  0.011043938         3922 
 3318000   0.73237932    -9.442859    462.85635  0.011624883  0.011038874         3909 
 3319000   0.74383988   -9.4228584    463.23955  0.011631002  0.011033818         3927 
 3320000   0.73132483   -9.4482538    462.47596  0.011608332  0.011028759         3933 
 3321000   0.70793785   -9.4124721     462.2621  0.011599471    0.0110237         3916 
 3322000   0.74644429   -9.4366276    462.15225  0.011593223   0.01101865         3918 
 3323000   0.71567234   -9.4284316    462.84281  0.011607052  0.011013599         3919 
 3324000   0.72850895   -9.4469809    462.85243  0.011603801  0.011008553         3920 
 3325000   0.72210157   -9.4392304    463.00305  0.011604086  0.011003511         3931 
 3326000   0.72074883    -9.453122    462.43553  0.011586378  0.010998474         3907 
 3327000   0.73218402   -9.4374021    463.08361  0.011599129  0.010993439         3926 
 3328000   0.71344834    -9.436042    461.70953  0.011561236  0.010988401         3908 
 3329000   0.73052352   -9.4721271    463.58263  0.011604652  0.010983371         3908 
 3330000   0.72481076   -9.4586013    464.39319  0.011621451  0.010978342         3951 
 3331000   0.71208207   -9.4763635    462.25094  0.011564369  0.010973312         3921 
 3332000   0.72104252   -9.4489096    462.59074  0.011569396  0.010968286         3924 
 3333000    0.7242496   -9.4480375    463.25765  0.011582599  0.010963274         3937 
 3334000   0.71267209   -9.4646724    462.67911  0.011564665  0.010958253         3939 
 3335000   0.71739141   -9.4509606    463.10155  0.011571753  0.010953241         3932 
 3336000   0.70817539   -9.4538963    462.66245  0.011557315  0.010948228         3918 
 3337000   0.71677677    -9.442376    462.51009  0.011550047  0.010943219         3914 
 3338000   0.71016297   -9.4362532    463.17155    0.0115631  0.010938212         3920 
 3339000   0.71655858   -9.4610919    461.73228  0.011523717  0.010933204         3942 
 3340000   0.71701744   -9.4165236    463.21901  0.011557361  0.010928203         3925 
 3341000   0.71449212   -9.4337451    463.22312  0.011554004  0.010923209         3922 
 3342000   0.71127066   -9.4496504    463.15435  0.011548832  0.010918211         3911 
 3343000   0.72003196   -9.4541256    463.83243   0.01156228  0.010913218         3931 
 3344000   0.71630349   -9.4498526    463.35803     0.011547  0.010908231         3940 
 3345000   0.73466792   -9.4735227    462.66471  0.011526276  0.010903254         3926 
 3346000   0.72347007   -9.4621416     462.3344  0.011514604  0.010898266         3908 
 3347000   0.72555775   -9.4421475    463.23039  0.011533472  0.010893279         3915 
 3348000   0.72891137    -9.445074    462.98392  0.011523893  0.010888303         3909 
 3349000    0.7284452   -9.4510547    461.98492  0.011495594   0.01088333         3909 
 3350000   0.72500546   -9.4419416    462.99466   0.01151728  0.010878358         3908 
 3351000   0.70500476   -9.4694643    461.71814  0.011482098  0.010873388         3917 
 3352000   0.71971402   -9.4192446    462.95307  0.011509374  0.010868426         3922 
 3353000   0.70258318   -9.4452868     462.1048  0.011484859  0.010863467         3908 
 3354000   0.71279706   -9.4325038    462.98334  0.011503263   0.01085851         3909 
 3355000   0.72341384   -9.4331664     463.1403  0.011503733  0.010853549         3918 
 3356000   0.70448254   -9.4471261    462.72511  0.011489996  0.010848596         3919 
 3357000   0.71423738   -9.4414974    462.60846  0.011483677  0.010843644         3901 
 3358000   0.71886995   -9.4355011    462.55965  0.011479046  0.010838698         3914 
 3359000   0.70637644   -9.4679242    461.88612  0.011458919  0.010833747         3926 
 3360000   0.70789925   -9.4516617    463.63484   0.01149888  0.010828802         3912 
 3361000   0.72775155   -9.4416961    463.21111  0.011484953  0.010823865         3906 
 3362000   0.72241061   -9.4534779     462.8009  0.011471369  0.010818922         3912 
 3363000   0.71141335   -9.4531374    462.68232  0.011465019  0.010813982         3929 
 3364000   0.72624334   -9.4591762     462.9242  0.011467603   0.01080904         3910 
 3365000   0.70545238   -9.4658893    462.01208  0.011441607  0.010804099         3921 
 3366000   0.70599963   -9.4436456    463.05901  0.011464127  0.010799168         3918 
 3367000    0.6978645   -9.4341531    463.25446  0.011465559  0.010794245         3893 
 3368000   0.70449483   -9.4444017    462.39299   0.01144084  0.010789321         3942 
 3369000   0.71505209   -9.4556907    463.12235  0.011455485  0.010784401         3931 
 3370000   0.69955975    -9.454439    462.75165  0.011442919  0.010779481         3927 
 3371000   0.70508633   -9.4465239    461.83214  0.011416794   0.01077456         3920 
 3372000   0.71148471   -9.4405966    461.69903  0.011410118  0.010769648         3914 
 3373000   0.71445426   -9.4317618    462.52103  0.011427044  0.010764739         3924 
 3374000     0.737399     -9.43072    463.16306  0.011439514  0.010759834         3910 
 3375000    0.6978776   -9.4581918     461.9757  0.011406807  0.010754929         3940 
 3376000   0.72269215   -9.4569633    462.49979  0.011416365  0.010750026         3920 
 3377000   0.71406141   -9.4677855    463.29747  0.011432669  0.010745121         3919 
 3378000   0.71653758   -9.4473994    463.29912  0.011429325  0.010740223         3918 
 3379000   0.70061633   -9.4608758    462.18349  0.011398429  0.010735325         3914 
 3380000   0.71237166   -9.4631889    462.78541  0.011409897  0.010730427         3926 
 3381000    0.7038192   -9.4379142    461.70394  0.011379866  0.010725534         3939 
 3382000     0.694875   -9.4751598    462.60862  0.011398793  0.010720648         3908 
 3383000   0.72372613   -9.4730913     461.8349  0.011376365  0.010715761         3934 
 3384000   0.71477151   -9.4471253    462.55678   0.01139078  0.010710875         3921 
 3385000    0.6970462   -9.4567462      463.137  0.011401699  0.010705994         3916 
 3386000   0.70969163   -9.4431414    462.94389  0.011393579  0.010701118         3918 
 3387000   0.71868613   -9.4659738    462.15053  0.011370695  0.010696244         3913 
 3388000   0.69456286   -9.4573691    461.94339  0.011362244  0.010691367         3930 
 3389000   0.72077635   -9.4448809    462.45078  0.011371368  0.010686501         3910 
 3390000   0.71295773    -9.438562    463.18771  0.011386129  0.010681633         3929 
 3391000    0.7139646   -9.4754396    461.77304  0.011348006  0.010676769         3931 
 3392000   0.69611533   -9.4835897    462.18947  0.011354891  0.010671906         3930 
 3393000   0.71614881     -9.45689    462.48506  0.011358804  0.010667045         3925 
 3394000   0.69906754   -9.4606369    461.55643  0.011332656  0.010662186         3936 
 3395000   0.72913978   -9.4809857    461.67796  0.011332301  0.010657335         3937 
 3396000   0.70694405   -9.4630521    461.85926  0.011333413  0.010652489         3938 
 3397000    0.7118387   -9.4727665    462.22218   0.01133898  0.010647645         3911 
 3398000   0.70129244   -9.4648004    462.08202  0.011332206  0.010642801         3942 
 3399000   0.71535968   -9.4488586    462.47144  0.011338419   0.01063796         3938 
 3400000   0.72410421   -9.4517889    462.35508  0.011332232  0.010633122         3933 
 3401000   0.69814185   -9.4815352    462.13741  0.011323567  0.010628283         3937 
 3402000   0.72333401   -9.4679381    462.88877  0.011338643  0.010623448         3933 
 3403000   0.70383968   -9.4807951     462.4777  0.011325245  0.010618616         3930 
 3404000   0.70541849   -9.4642251    461.37677  0.011294966  0.010613784         3932 
 3405000   0.69888979   -9.4586289    461.88604  0.011304113  0.010608956         3915 
 3406000   0.70505754   -9.4661473    462.66675  0.011319895  0.010604136         3911 
 3407000   0.70529777   -9.4773477    462.02804   0.01130095  0.010599314         3929 
 3408000   0.70120369   -9.4657756     461.9857  0.011296599  0.010594494         3895 
 3409000   0.71522824   -9.4706438    461.75136  0.011287556   0.01058968         3935 
 3410000   0.70338307    -9.463069     462.1842  0.011294824  0.010584865         3928 
 3411000   0.70179857   -9.4659478    462.14824  0.011290634  0.010580054         3918 
 3412000    0.6938743   -9.4425108    461.56431  0.011273063  0.010575244         3926 
 3413000   0.69944623   -9.4728039    461.99843   0.01128036  0.010570437         3925 
 3414000   0.69312261   -9.4563065    462.74104  0.011295183  0.010565633         3927 
 3415000   0.69227865   -9.4567498    462.70618  0.011291024  0.010560831         3911 
 3416000   0.71450913   -9.4943221    461.68702  0.011262857  0.010556034         3919 
 3417000   0.71136135   -9.4599086    461.50004     0.011255   0.01055124         3937 
 3418000   0.70845997   -9.4875099    461.42189  0.011249802  0.010546452         3936 
 3419000   0.70531328   -9.4846332    461.68423  0.011252906  0.010541659         3926 
 3420000   0.70112523   -9.4528685    461.37091  0.011241981  0.010536873         3923 
 3421000   0.70172261   -9.4633836    462.44848  0.011264944  0.010532087         3899 
 3422000   0.69409361   -9.4623935    461.92197   0.01124883  0.010527304         3932 
 3423000   0.71821925   -9.4561606     462.1179  0.011250314  0.010522525         3936 
 3424000   0.69368874   -9.4796263    461.98363   0.01124376  0.010517747         3923 
 3425000   0.67410671   -9.4573492    462.36157  0.011249673  0.010512971         3924 
 3426000   0.69372283   -9.4589769    461.94158  0.011236174  0.010508201         3932 
 3427000   0.70840658   -9.4614746    462.07333  0.011236099  0.010503434         3936 
 3428000   0.70373071   -9.4845009    461.39571  0.011216348  0.010498668         3919 
 3429000   0.70519014   -9.4704805    460.96155  0.011202526  0.010493906         3928 
 3430000   0.69448247    -9.470467    461.49658  0.011212259  0.010489147         3929 
 3431000   0.68621756   -9.4646988     462.3658  0.011230103   0.01048439         3933 
 3432000   0.69646301   -9.4690028    462.44155   0.01122867  0.010479633         3918 
 3433000   0.71040523   -9.4697697    462.91755  0.011236954  0.010474877         3917 
 3434000   0.70331852   -9.4841252    462.40374  0.011221213   0.01047013         3927 
 3435000   0.70764546   -9.4725544    461.42318  0.011194158  0.010465388         3939 
 3436000   0.69769296   -9.4788575    462.82141  0.011224811  0.010460641         3943 
 3437000   0.71485071   -9.4659482    461.70315  0.011194432  0.010455898         3939 
 3438000   0.69444084   -9.4684088    462.54114  0.011211488  0.010451157         3929 
 3439000   0.69874502   -9.4737056    462.02685  0.011195766   0.01044642         3910 
 3440000   0.71452001   -9.4635024    462.40712  0.011201723  0.010441684         3917 
 3441000   0.69536714   -9.4589965     462.1056  0.011191165  0.010436959         3922 
 3442000   0.70343627   -9.4863067    461.11023  0.011163815  0.010432226         3929 
 3443000   0.68284351     -9.47024     461.4049  0.011167705  0.010427503         3955 
 3444000   0.70421314   -9.4626558    461.81017  0.011174268  0.010422778         3954 
 3445000   0.70007063    -9.470947    461.84975  0.011171982  0.010418061         3944 
 3446000   0.70467561    -9.486471    461.33292  0.011156242  0.010413342         3939 
 3447000   0.70421943   -9.4629428    462.36532  0.011177964  0.010408627         3939 
 3448000   0.68822214   -9.4788865    462.52699   0.01117863  0.010403913         3940 
 3449000   0.69458677   -9.4842899    462.86383  0.011183527  0.010399208         3917 
 3450000    0.7054062   -9.4939423    462.23307   0.01116505  0.010394505         3950 
 3451000   0.69691955   -9.4660397     462.3938  0.011165696  0.010389799         3932 
 3452000   0.69611157   -9.4860422    462.42618  0.011163243    0.0103851         3940 
 3453000   0.69046119   -9.4714222    462.29645  0.011156879  0.010380403         3937 
 3454000   0.70735575   -9.4693107    461.96944   0.01114576  0.010375711         3963 
 3455000   0.69441034   -9.4914286    461.57097  0.011132923  0.010371024         3955 
 3456000   0.69286662   -9.4621448    461.81874  0.011135676  0.010366333         3922 
 3457000   0.71215912    -9.483344    462.22823  0.011142325  0.010361648         3921 
 3458000   0.70988197   -9.4723229    463.48346  0.011169353  0.010356972         3933 
 3459000   0.71115787   -9.4581266    461.77312  0.011124919  0.010352296         3925 
 3460000   0.70270751   -9.4805296    462.28771  0.011134097   0.01034762         3912 
 3461000   0.68653001   -9.4758279    461.61324   0.01111464  0.010342946         3934 
 3462000   0.68464103   -9.4781909    461.56261  0.011110211  0.010338277         3920 
 3463000   0.70211353   -9.4619243     462.5161  0.011129948  0.010333608         3950 
 3464000   0.68696504   -9.4849732    461.91591  0.011112296  0.010328939         3918 
 3465000   0.69839647   -9.4699238    461.36093  0.011095742  0.010324273         3930 
 3466000   0.69599684   -9.4679042    463.32049  0.011139654  0.010319609         3936 
 3467000   0.69387788   -9.4685976    462.33329  0.011112713  0.010314946         3920 
 3468000   0.69921163   -9.4919238    462.06238  0.011102998  0.010310288         3921 
 3469000    0.6859622   -9.4906322     462.0689  0.011099954  0.010305629         3947 
 3470000   0.69704594   -9.4766656    461.99346  0.011094944  0.010300975         3926 
 3471000   0.68634952   -9.4588919    462.19013  0.011096469  0.010296322         3919 
 3472000   0.70486207   -9.4634414    462.07991  0.011090628  0.010291673         3935 
 3473000   0.67708995   -9.4607574    462.43478  0.011095949  0.010287027         3926 
 3474000   0.69416739   -9.4786106    461.57554  0.011072144  0.010282383         3921 
 3475000    0.6966184   -9.4858863    461.08894  0.011057289  0.010277741         3923 
 3476000   0.69641911   -9.4845847    461.73889   0.01106969  0.010273105         3918 
 3477000   0.70261187   -9.4794474     461.6409  0.011064157  0.010268466         3931 
 3478000   0.69153353   -9.4720875    462.64792  0.011085105  0.010263835         3937 
 3479000   0.70237781   -9.4851672    461.26694  0.011048839  0.010259197         3920 
 3480000   0.69004219   -9.4974235     461.3213  0.011046966  0.010254568         3907 
 3481000   0.68635539   -9.4779328    461.81883  0.011055703  0.010249941         3927 
 3482000   0.70223095   -9.4928523    462.04755  0.011058002  0.010245322         3940 
 3483000   0.70537936   -9.4886412    461.27814  0.011036418  0.010240699         3945 
 3484000   0.69241427   -9.4979482     461.4117  0.011036445  0.010236082         3943 
 3485000   0.69822873   -9.5049831    462.30182  0.011054563  0.010231463         3919 
 3486000   0.68973193   -9.4757454    461.45497  0.011031148   0.01022685         3945 
 3487000   0.69299116   -9.4868854    461.71249  0.011034138  0.010222237         3936 
 3488000   0.70122639   -9.4715392    461.59132   0.01102808  0.010217621         3924 
 3489000   0.70747345    -9.487384    461.66586    0.0110267  0.010213013         3949 
 3490000   0.69887384   -9.4920617    461.30171  0.011014845  0.010208406         3940 
 3491000   0.68682317   -9.4653744    461.74925  0.011022373  0.010203802         3919 
 3492000   0.68557434   -9.4824346    461.59496  0.011015535  0.010199205         3925 
 3493000   0.68462685   -9.5024489    461.93303  0.011020446  0.010194603         3932 
 3494000   0.68375681    -9.500772    461.43138  0.011005328  0.010190009         3953 
 3495000   0.70470031   -9.4912425     462.0594  0.011017153  0.010185417         3938 
 3496000   0.69682618   -9.4963215    461.88877  0.011009935  0.010180828         3946 
 3497000    0.6871472   -9.4870171    462.33644  0.011017454  0.010176239         3939 
 3498000   0.70135802   -9.4831508    461.23416  0.010988045  0.010171654         3920 
 3499000   0.68841347   -9.4839266    461.22172  0.010984608  0.010167069         3948 
 3500000    0.6922722   -9.4905977    462.47643  0.011011344  0.010162494         3932 
 3501000   0.68760443   -9.4945997    461.34566  0.010981283  0.010157915         3946 
 3502000   0.69519423   -9.4902887    461.50267  0.010981883  0.010153345         3952 
 3503000   0.68882192   -9.4854799    461.82327  0.010986375  0.010148773         3943 
 3504000   0.68547274   -9.4910031    462.15036  0.010991019  0.010144205         3933 
 3505000   0.69769631   -9.4815882     460.8807  0.010957696  0.010139643         3941 
 3506000   0.68346708   -9.4917938    461.11132  0.010960052   0.01013508         3930 
 3507000     0.699094    -9.491098      461.699  0.010970892  0.010130518         3924 
 3508000   0.68796252   -9.4982553    461.10452  0.010953642  0.010125961         3929 
 3509000   0.70137071   -9.4758408    461.83703  0.010967917  0.010121404         3937 
 3510000   0.69265993   -9.4913567    462.28748  0.010975486  0.010116854         3946 
 3511000   0.68403971   -9.4941115    461.39065  0.010951074  0.010112301         3929 
 3512000   0.68929215   -9.4857333    461.40806  0.010948369  0.010107754         3938 
 3513000    0.6843235   -9.5063072    460.38183  0.010920909  0.010103205         3939 
 3514000   0.68852743   -9.4840276    461.28178  0.010939143  0.010098666         3931 
 3515000    0.6804655   -9.4965047    461.68848  0.010945673  0.010094126         3929 
 3516000   0.68589398   -9.4704494     461.7148  0.010943183   0.01008959         3923 
 3517000    0.6983163   -9.4969754    461.33753  0.010931133  0.010085054         3924 
 3518000   0.68768492   -9.4751523    461.86914  0.010940618  0.010080522         3920 
 3519000   0.70494244   -9.4812316    462.18432  0.010944973  0.010075999         3936 
 3520000   0.68820152    -9.488096    461.68561  0.010930057  0.010071475         3936 
 3521000   0.66681151   -9.4901463    461.17551   0.01091488  0.010066951         3931 
 3522000    0.6919406   -9.5106403    462.35587  0.010939709  0.010062428         3928 
 3523000   0.68685529    -9.492323    461.78742  0.010923158  0.010057908         3939 
 3524000   0.68447908   -9.4737133    461.52224  0.010913787  0.010053395         3947 
 3525000    0.6820912   -9.5062197    460.98737  0.010898047  0.010048885         3943 
 3526000   0.68287728    -9.491431    461.35142   0.01090356  0.010044376         3944 
 3527000   0.66935955   -9.4869936    461.91214  0.010913717  0.010039871         3924 
 3528000   0.67620895   -9.4847148    461.54273  0.010901897  0.010035367         3942 
 3529000   0.67253175   -9.4796191    461.25366  0.010891982  0.010030863         3928 
 3530000   0.68544031   -9.4976202    461.34175  0.010890976  0.010026359         3925 
 3531000   0.69276108   -9.4872947    461.97629  0.010902867  0.010021865         3945 
 3532000   0.68535903     -9.48192     461.4027  0.010886247  0.010017375         3935 
 3533000   0.68020505   -9.5015122    462.09444  0.010899482  0.010012879         3942 
 3534000   0.69156219   -9.4933864    461.35282   0.01087891  0.010008385         3940 
 3535000   0.68206539   -9.5040697    461.28117  0.010874144    0.0100039         3933 
 3536000   0.68684196   -9.5062641    460.79301  0.010859564 0.0099994137         3933 
 3537000   0.69208277   -9.5163445     461.4351  0.010871622 0.0099949328         3955 
 3538000   0.69156968   -9.5076901     461.8133  0.010877457 0.0099904512         3940 
 3539000    0.6773939   -9.4748213    462.18908  0.010883232 0.0099859709         3934 
 3540000   0.67999411   -9.5006902    461.90318  0.010873427 0.0099814985         3941 
 3541000   0.67223373   -9.5065747    461.92955  0.010870977 0.0099770258         3923 
 3542000   0.68283166   -9.5101525    461.46074  0.010856878  0.009972561         3924 
 3543000   0.68907626   -9.4938989    461.72258  0.010859972 0.0099681011         3942 
 3544000   0.69050616   -9.5018737    461.59815  0.010853982 0.0099636336         3933 
 3545000   0.66964824   -9.5026912    462.04642  0.010861458 0.0099591708         3940 
 3546000   0.69364158   -9.4941132    461.21087  0.010838759 0.0099547047         3950 
 3547000    0.6983594   -9.5093996    460.94494  0.010829455 0.0099502449         3950 
 3548000   0.68247292   -9.5028666    461.94013  0.010849777 0.0099457906         3922 
 3549000   0.67915051   -9.5139682    461.43461   0.01083485 0.0099413378         3949 
 3550000   0.67781234   -9.4949011    461.16317  0.010825427 0.0099368887         3942 
 3551000   0.68620647   -9.4979285    461.43455  0.010828747 0.0099324445         3930 
 3552000   0.67431034     -9.52039    460.38679  0.010801117 0.0099280019         3935 
 3553000   0.68279198   -9.5127433    460.36877  0.010797654 0.0099235557         3920 
 3554000   0.67453321   -9.5109642    461.03029  0.010810127 0.0099191167         3948 
 3555000    0.6679676   -9.4818015    461.61082  0.010820694 0.0099146785         3943 
 3556000   0.68108461   -9.4915301    461.70288  0.010819809 0.0099102458         3916 
 3557000   0.67745034   -9.5056592    460.89468  0.010797832 0.0099058147         3938 
 3558000   0.66789032    -9.513793    460.97221  0.010796614 0.0099013834         3933 
 3559000   0.68180996   -9.5005107     461.6214  0.010808781  0.009896958         3934 
 3560000   0.68851372    -9.502657     460.5226  0.010780023 0.0098925334         3955 
 3561000   0.68611325   -9.5061768    460.96006  0.010787233 0.0098881068         3935 
 3562000    0.6848595   -9.4890118    460.15566  0.010765386 0.0098836911         3928 
 3563000   0.67623762   -9.5115173    460.54404  0.010771448 0.0098792751         3935 
 3564000   0.68587989    -9.493229    461.16128  0.010782858 0.0098748629         3916 
 3565000    0.6867298   -9.4853923    461.70626  0.010792573  0.009870454         3941 
 3566000     0.668422   -9.4914279    461.63076  0.010787782 0.0098660473         3920 
 3567000   0.67289144   -9.4942134    461.38223  0.010778951 0.0098616387         3926 
 3568000   0.68964186   -9.5077761    460.03982  0.010744577 0.0098572312         3926 
 3569000   0.70597516   -9.4917602    461.89017  0.010784771 0.0098528292         3934 
 3570000   0.67857581    -9.486241    461.06434  0.010762473 0.0098484347         3936 
 3571000   0.67744805   -9.4891741    460.67733  0.010750428 0.0098440426         3930 
 3572000   0.68046068   -9.5239481    460.24111  0.010737241 0.0098396478         3925 
 3573000   0.69172452   -9.5097457    461.25899  0.010757976 0.0098352598         3937 
 3574000   0.68697755   -9.5047528    460.87608  0.010746038 0.0098308716         3924 
 3575000   0.68105504   -9.4914632    461.21142  0.010750849 0.0098264878         3915 
 3576000   0.66736467   -9.5165026    461.73959  0.010760151 0.0098221071         3928 
 3577000   0.66444676   -9.5143038    461.64457  0.010754929 0.0098177273         3935 
 3578000   0.66892554   -9.5073295    460.49069  0.010725049 0.0098133532         3928 
 3579000   0.69113099   -9.4872701    461.12801  0.010736891 0.0098089776         3937 
 3580000   0.69193147   -9.5216213    461.26719  0.010737132 0.0098046027         3947 
 3581000   0.68482841   -9.5145927    461.01829  0.010728342 0.0098002322         3933 
 3582000   0.66973525   -9.5132713    461.80268  0.010743595 0.0097958671         3941 
 3583000   0.68658939   -9.5184955      460.428  0.010708624 0.0097915039         3958 
 3584000   0.68122004   -9.5059561    461.23541   0.01072441 0.0097871353         3948 
 3585000   0.67337835   -9.5197613    460.98641   0.01071563  0.009782776         3946 
 3586000   0.67118525   -9.5184748     460.8798  0.010710165 0.0097784126         3944 
 3587000   0.68450027   -9.5169916    460.56194  0.010699794 0.0097740544         3953 
 3588000   0.69237072    -9.488282    460.64749  0.010698799 0.0097697033         3930 
 3589000   0.67329666   -9.5139921    461.21164  0.010708917 0.0097653554         3942 
 3590000   0.66733597   -9.5066405    460.56015  0.010690811 0.0097610068         3937 
 3591000   0.68159758   -9.5106443    461.95638  0.010720235 0.0097566603         3931 
 3592000   0.67638901   -9.5025782    460.60825  0.010685975 0.0097523154         3934 
 3593000   0.69017547   -9.5198731    461.53971  0.010704604 0.0097479713         3926 
 3594000   0.66446061   -9.5146205     460.7048  0.010682267 0.0097436329         3937 
 3595000   0.67930856   -9.5234471     461.3964  0.010695327 0.0097392926         3919 
 3596000   0.68100075   -9.5042606    461.17533   0.01068723 0.0097349616         3920 
 3597000   0.68947812   -9.5010815    460.31481  0.010664322 0.0097306286         3943 
 3598000   0.68150253   -9.5279339    461.09965  0.010679536 0.0097263047         3914 
 3599000   0.69492703   -9.5328111    461.83049  0.010693491 0.0097219823         3930 
 3600000   0.66843255   -9.5183759    461.20085  0.010675946 0.0097176619         3938 
 3601000   0.69075442   -9.5178745    460.97841  0.010667833 0.0097133434         3940 
 3602000   0.67903023    -9.497747    461.37065  0.010673946 0.0097090236         3946 
 3603000   0.68337031   -9.5090233    461.10429  0.010664823 0.0097047086         3934 
 3604000   0.66462138   -9.5213051    461.04349  0.010660458 0.0097003942         3943 
 3605000   0.68182683   -9.5349459    460.96523  0.010655692 0.0096960875         3942 
 3606000   0.68912084   -9.5320477    461.21508  0.010658511 0.0096917788         3937 
 3607000   0.68911422   -9.5221288    461.79723  0.010669005 0.0096874717         3938 
 3608000   0.67237018   -9.5140536    460.26717  0.010630709 0.0096831704         3947 
 3609000   0.69729339   -9.4917711    460.40355  0.010630912 0.0096788744         3958 
 3610000   0.68018832    -9.521868    460.86045  0.010638514 0.0096745775         3939 
 3611000   0.67803393   -9.4942439    460.85244  0.010635384 0.0096702784         3948 
 3612000   0.67841946   -9.5100871     461.1928  0.010640292 0.0096659836         3939 
 3613000   0.68556537   -9.5279163    461.54619  0.010645497 0.0096616858         3952 
 3614000   0.67410574   -9.5298801    460.82873  0.010626008 0.0096573964         3931 
 3615000   0.67572655   -9.4980397    461.29107  0.010633727 0.0096531119         3950 
 3616000   0.66879737    -9.524733    461.11457  0.010626719 0.0096488305         3950 
 3617000   0.66482591   -9.5289612     460.8866  0.010618528 0.0096445519         3953 
 3618000   0.67351481   -9.5136979    461.14319  0.010621503 0.0096402738         3950 
 3619000   0.66358466   -9.5110631    461.78123   0.01063326 0.0096359984         3931 
 3620000   0.66341405   -9.5479065    461.13444  0.010615434 0.0096317187         3958 
 3621000   0.66352844   -9.5206181    461.23867  0.010614901 0.0096274434         3932 
 3622000   0.67995312   -9.5200173    460.66908  0.010598865 0.0096231707         3920 
 3623000   0.68408432   -9.5101938    460.12487  0.010583422  0.009618909         3940 
 3624000   0.68186094   -9.5113383    460.62419  0.010591984 0.0096146452         3925 
 3625000    0.6708409   -9.5202576     460.4756  0.010585646 0.0096103878         3925 
 3626000   0.67484622   -9.5255314    460.40982  0.010581215 0.0096061263         3947 
 3627000   0.67188147    -9.506246     460.3764   0.01057753 0.0096018675         3931 
 3628000   0.67017464   -9.5172206    460.47173  0.010576804 0.0095976118         3946 
 3629000   0.67776198   -9.5202281    460.51287  0.010574834 0.0095933586         3944 
 3630000   0.68833839   -9.5224427     460.6141  0.010574245 0.0095891076         3956 
 3631000    0.6782446   -9.5292064    460.50239  0.010568769 0.0095848591         3957 
 3632000   0.66178562   -9.5295282    460.72014  0.010570855 0.0095806172         3951 
 3633000   0.66364865   -9.5156979    460.66952  0.010566784 0.0095763757         3943 
 3634000   0.67889912   -9.5369592    461.14827  0.010574855 0.0095721367         3946 
 3635000   0.66350906   -9.5234981    460.42689  0.010555408 0.0095679014         3946 
 3636000    0.6796151    -9.501897    461.60242  0.010579447 0.0095636681         3935 
 3637000   0.66851956   -9.5387301    460.48879  0.010551022  0.009559436         3942 
 3638000   0.67109162   -9.5147655    461.53193  0.010572016 0.0095552063         3952 
 3639000     0.663271   -9.5325602    459.94721  0.010532821 0.0095509826         3921 
 3640000   0.66431558    -9.525373    460.87099  0.010551076   0.00954676         3938 
 3641000   0.67614007   -9.5364124    460.24682  0.010533892 0.0095425386         3944 
 3642000   0.67157413   -9.5183196    460.39849   0.01053447 0.0095383191         3946 
 3643000   0.67058654   -9.5138948    460.80753  0.010540935 0.0095341018         3930 
 3644000   0.66690256   -9.5164423    460.70814   0.01053577 0.0095298874         3931 
 3645000   0.66246402   -9.5251317    461.10153  0.010541873 0.0095256749         3914 
 3646000   0.67416536   -9.5527173    460.47777  0.010524725 0.0095214669         3938 
 3647000   0.68003229    -9.515725    460.46196  0.010521478  0.009517259         3949 
 3648000   0.66422776   -9.5385929    459.88608  0.010505439 0.0095130549         3943 
 3649000   0.67193261   -9.5081426    460.60781  0.010519042 0.0095088507         3931 
 3650000     0.657903   -9.5270235    461.50507  0.010536645 0.0095046472         3918 
 3651000   0.66988382    -9.538339     461.5452  0.010534676 0.0095004481         3937 
 3652000   0.66456687   -9.5158698    461.01507  0.010519694 0.0094962476         3925 
 3653000   0.65865859   -9.5218566    461.16536  0.010520243  0.009492054         3924 
 3654000   0.66678705   -9.5533903    460.71654  0.010507128 0.0094878594         3938 
 3655000   0.65938352   -9.5483336    460.90133  0.010508466 0.0094836684         3937 
 3656000   0.66276441   -9.5382017    460.66524  0.010500211 0.0094794831         3935 
 3657000   0.66729579   -9.4896196    460.86925  0.010501988 0.0094752963         3911 
 3658000   0.66486653   -9.5311159     460.6141  0.010493305 0.0094711158         3929 
 3659000   0.66406213   -9.5182288    460.61822  0.010490531  0.009466936         3934 
 3660000   0.65316576   -9.5396428    460.39154  0.010482503 0.0094627609         3928 
 3661000   0.66471877   -9.5298965     460.5454  0.010483142 0.0094585875         3931 
 3662000   0.65722512   -9.5305581    460.26958  0.010474003 0.0094544183         3925 
 3663000   0.67568713   -9.5400784    461.10945  0.010490251 0.0094502525         3933 
 3664000   0.67127579   -9.5230202    460.94987  0.010483758 0.0094460837         3922 
 3665000   0.66258991   -9.5126934    460.67447  0.010474635 0.0094419206         3939 
 3666000   0.67450451   -9.5364924    460.97148   0.01047853 0.0094377603         3950 
 3667000    0.6732614   -9.5534481    460.86954  0.010473355  0.009433599         3946 
 3668000   0.66899707   -9.5449852      460.521  0.010462582 0.0094294433         3939 
 3669000   0.65299094   -9.5252887     460.6919  0.010463612 0.0094252876         3935 
 3670000   0.66025369   -9.5364206    460.70433  0.010461043  0.009421135         3944 
 3671000   0.65866686   -9.5240145    461.37946  0.010473519 0.0094169893         3928 
 3672000   0.66997605    -9.524653     461.0523  0.010463242 0.0094128433         3933 
 3673000   0.66068071   -9.5288872    460.52821  0.010448503 0.0094086969         3945 
 3674000   0.64523743   -9.5106551    460.71795  0.010449963  0.009404556         3923 
 3675000   0.67152618   -9.5120775     460.8673  0.010450506 0.0094004198         3936 
 3676000   0.66552458    -9.541437    461.21182  0.010455473 0.0093962834         3944 
 3677000   0.66997746   -9.5236111    459.65103  0.010417257 0.0093921502         3946 
 3678000   0.67054626   -9.5181332    461.06483  0.010446457 0.0093880167         3928 
 3679000   0.66261939   -9.5541063     460.7736  0.010437021 0.0093838885         3929 
 3680000   0.66831766    -9.526709    459.53677  0.010406177 0.0093797584         3928 
 3681000   0.65902424   -9.5329513    460.03366  0.010414599 0.0093756376         3926 
 3682000   0.64620353   -9.5399291    460.91064  0.010431619 0.0093715162         3944 
 3683000   0.67319409   -9.5421032    459.66936    0.0104007 0.0093673975         3946 
 3684000   0.67737715   -9.5342821    460.63508  0.010419722 0.0093632779         3933 
 3685000   0.65494655   -9.5547989    460.21517  0.010407399 0.0093591616         3927 
 3686000   0.66347791   -9.5552251    460.85633  0.010419071 0.0093550466         3946 
 3687000    0.6610193   -9.5216262    460.11469  0.010399482 0.0093509328         3946 
 3688000   0.66742773   -9.5243982    460.63279  0.010408369 0.0093468263         3929 
 3689000   0.66475089   -9.5654991    460.58453  0.010404458  0.009342721         3943 
 3690000   0.65674022   -9.5249337    460.54897  0.010400835 0.0093386147         3939 
 3691000   0.65486835   -9.5452555    460.63998  0.010400072 0.0093345151         3942 
 3692000   0.65595698   -9.5502186    460.28078  0.010389147  0.009330417         3925 
 3693000   0.66436996   -9.5308342     460.2673   0.01038603 0.0093263187         3943 
 3694000    0.6505979   -9.5466148    460.50044  0.010388478 0.0093222283         3940 
 3695000   0.65757588   -9.5559463    460.09962  0.010376626 0.0093181387         3926 
 3696000   0.64832623   -9.5426522    460.58484  0.010384759 0.0093140464         3922 
 3697000    0.6530945    -9.558853    460.69306   0.01038439 0.0093099587         3928 
 3698000   0.67705153   -9.5413803    460.08875  0.010367963 0.0093058735         3930 
 3699000   0.67031207    -9.530446    460.28428  0.010369566 0.0093017962         3938 
 3700000   0.66216169   -9.5240581    460.04389  0.010361349 0.0092977199         3944 
 3701000   0.66883277   -9.5349932    460.51956   0.01036926 0.0092936447         3939 
 3702000   0.68047935   -9.5295181    460.34618  0.010362556 0.0092895678         3929 
 3703000   0.65507871   -9.5295566    460.87562  0.010371672 0.0092854932         3947 
 3704000   0.65580194   -9.5519791    460.89179  0.010369236 0.0092814237         3937 
 3705000    0.6640736   -9.5303139    460.16952  0.010350192 0.0092773538         3946 
 3706000   0.65557444   -9.5320632    460.50205  0.010354876 0.0092732876         3916 
 3707000   0.67567045   -9.5373724    459.36768  0.010326582 0.0092692228         3929 
 3708000   0.66216329   -9.5526728    461.00728  0.010360645 0.0092651669         3938 
 3709000   0.64344044   -9.5352469    460.70062  0.010350962 0.0092611086         3946 
 3710000      0.65037   -9.5505455    459.73687  0.010326524 0.0092570495         3925 
 3711000   0.66118001   -9.5627551    459.92356  0.010327934 0.0092529953         3934 
 3712000   0.66151514   -9.5412295    461.24054  0.010354718  0.009248942         3928 
 3713000   0.64946816   -9.5290501     460.2137  0.010328883 0.0092448899         3942 
 3714000   0.66437496    -9.548709    460.12104  0.010324023 0.0092408409         3938 
 3715000   0.64974564   -9.5667353    459.57128  0.010308912  0.009236794         3954 
 3716000   0.66105417   -9.5720264    459.59569  0.010306685 0.0092327515         3942 
 3717000   0.66519843   -9.5611423    460.99347  0.010335249 0.0092287123         3939 
 3718000   0.64495384   -9.5309307    460.65386  0.010324858 0.0092246726         3931 
 3719000   0.66384263   -9.5299655    460.64224  0.010321821 0.0092206376         3922 
 3720000   0.67053134   -9.5487794    459.40881  0.010291416 0.0092166063         3939 
 3721000   0.65958985   -9.5500414    460.40115  0.010310874 0.0092125761         3944 
 3722000   0.66463818   -9.5555051    460.06309  0.010300535 0.0092085486         3940 
 3723000   0.67088337   -9.5629482    460.41139  0.010305564 0.0092045233         3932 
 3724000    0.6538046   -9.5411654     460.4347  0.010303319 0.0092005027         3930 
 3725000   0.64995293   -9.5283407    460.10832  0.010293251 0.0091964862         3939 
 3726000   0.65940313   -9.5461011    460.64023  0.010302385 0.0091924667         3928 
 3727000   0.65831956   -9.5418241    460.64376  0.010299699 0.0091884528         3932 
 3728000   0.65923914   -9.5613758    460.55086   0.01029486 0.0091844339         3917 
 3729000   0.65457896   -9.5264978    460.86629  0.010299148 0.0091804228         3928 
 3730000   0.66655319   -9.5344678    460.72348  0.010293197 0.0091764143         3932 
 3731000   0.66955007   -9.5271151    460.29445  0.010280855 0.0091724131         3931 
 3732000   0.66016286   -9.5591672    460.00282  0.010271588 0.0091684092         3946 
 3733000   0.64397463   -9.5675347     459.5027  0.010257672 0.0091644055         3950 
 3734000   0.63487277   -9.5511798      460.527  0.010277785 0.0091604062         3942 
 3735000    0.6554656    -9.547018    460.03491  0.010264054 0.0091564087         3946 
 3736000   0.66161158   -9.5495646    459.98249  0.010260138 0.0091524135         3933 
 3737000    0.6615537    -9.533439    460.96396  0.010279278 0.0091484218         3936 
 3738000   0.64216611   -9.5278884    460.61929  0.010268845 0.0091444325         3944 
 3739000   0.65490943   -9.5501979    460.86487  0.010271571 0.0091404423         3940 
 3740000   0.64433123    -9.544492    459.56971  0.010239967 0.0091364548         3947 
 3741000   0.66060923   -9.5603588    460.50677  0.010258103 0.0091324719         3930 
 3742000   0.65324651   -9.5548212    460.68287  0.010259284 0.0091284952         3930 
 3743000   0.65426751   -9.5614027    460.26923  0.010247334 0.0091245194         3930 
 3744000   0.63985602   -9.5441692    459.68419  0.010231575 0.0091205458         3943 
 3745000    0.6502405     -9.56144     459.2458  0.010219088 0.0091165697         3945 
 3746000   0.64237366   -9.5647912    460.07379  0.010234779 0.0091125954         3917 
 3747000   0.64713324   -9.5584237    461.18671  0.010256799 0.0091086257         3933 
 3748000   0.64926845   -9.5505083    460.25416  0.010233328 0.0091046525         3950 
 3749000   0.64838933   -9.5340634    460.01564  0.010225297 0.0091006877         3944 
 3750000   0.64904401   -9.5491678    459.80141  0.010217809 0.0090967278         3938 
 3751000   0.64941984   -9.5587216    461.30004  0.010248379 0.0090927637         3935 
 3752000    0.6580207    -9.535987     459.9849  0.010216438  0.009088804         3927 
 3753000   0.66300437   -9.5542048    460.39061  0.010222724 0.0090848515         3926 
 3754000    0.6367889   -9.5651737    460.07503  0.010212996 0.0090808949         3939 
 3755000   0.65476931   -9.5656399    459.42927  0.010195945 0.0090769398         3937 
 3756000   0.65403723   -9.5461251    461.08719  0.010230014 0.0090729904         3930 
 3757000   0.63638395   -9.5523201    460.10819  0.010205576 0.0090690397         3927 
 3758000   0.64003439   -9.5606007    460.66206  0.010215142 0.0090650927         3944 
 3759000   0.64916422   -9.5664245    459.33299  0.010182961  0.009061148         3944 
 3760000   0.65514571   -9.5678836    459.42631  0.010182321 0.0090572056         3938 
 3761000     0.651401   -9.5638433    460.18999  0.010196534 0.0090532644         3927 
 3762000    0.6680691   -9.5511111    459.63757  0.010181587 0.0090493265         3937 
 3763000   0.67032067   -9.5486925    459.73769  0.010181099 0.0090453916         3919 
 3764000   0.64404587   -9.5505815    460.45709  0.010194321 0.0090414598         3923 
 3765000   0.64306895   -9.5532337    460.15421   0.01018491 0.0090375271         3955 
 3766000   0.65295153   -9.5752977    459.47448  0.010167164 0.0090336009         3950 
 3767000   0.65472829   -9.5631049    460.01313  0.010176381 0.0090296754         3939 
 3768000   0.63416019   -9.5703997    460.19603  0.010177725 0.0090257516         3952 
 3769000   0.64538558   -9.5703189     460.7063  0.010186307 0.0090218281         3958 
 3770000   0.64127264   -9.5578943    459.49833  0.010156904 0.0090179096         3933 
 3771000   0.64927231   -9.5391347    460.33387  0.010172675 0.0090139933         3937 
 3772000   0.66194135   -9.5518622     459.3568  0.010148392 0.0090100751         3955 
 3773000   0.63929775   -9.5533501    460.12518  0.010162673 0.0090061583         3939 
 3774000   0.65310276   -9.5589361    459.63939  0.010149254 0.0090022419         3962 
 3775000   0.64116114   -9.5707024     460.1449  0.010157724 0.0089983287         3942 
 3776000   0.65270552   -9.5569077    459.26385   0.01013559  0.008994421         3925 
 3777000   0.64855104   -9.5641402    459.59767  0.010140272 0.0089905126         3940 
 3778000   0.64291701    -9.544787    459.71811  0.010140244 0.0089866112         3939 
 3779000   0.64454737   -9.5784265    459.94401  0.010142542 0.0089827136         3953 
 3780000   0.65672225   -9.5633162    460.20613  0.010145638 0.0089788117         3947 
 3781000   0.63404275   -9.5593286    460.28561  0.010144706  0.008974911         3949 
 3782000   0.66045178   -9.5568759    460.95968  0.010156877 0.0089710165         3930 
 3783000   0.64917751   -9.5603987    460.10869  0.010135446 0.0089671223         3948 
 3784000   0.64290162   -9.5553471    459.97121   0.01012974 0.0089632321         3931 
 3785000   0.63491399   -9.5701949    459.99006  0.010127478 0.0089593464         3944 
 3786000   0.64964463   -9.5514969    460.20065  0.010129439  0.008955457         3938 
 3787000   0.63759897   -9.5533264    460.45731  0.010132412 0.0089515732         3941 
 3788000   0.64717235   -9.5550897    460.50494  0.010130785 0.0089476928         3942 
 3789000   0.65705503   -9.5696445    460.18232  0.010121015 0.0089438145         3940 
 3790000   0.65191269   -9.5724406    459.66725   0.01010702 0.0089399362         3949 
 3791000   0.65305458   -9.5551757    459.95344  0.010110645 0.0089360657         3949 
 3792000   0.65806903   -9.5543801    460.16244  0.010112571 0.0089321893         3929 
 3793000   0.65530561   -9.5636754     459.7036  0.010099824 0.0089283197         3940 
 3794000   0.66920273   -9.5628582     460.2664  0.010109524  0.008924453         3944 
 3795000    0.6354721   -9.5857091    460.04724  0.010102047  0.008920586         3938 
 3796000   0.64295797   -9.5571433    460.71047  0.010113946 0.0089167204         3948 
 3797000   0.65510742   -9.5650116    459.53577  0.010085501 0.0089128562         3937 
 3798000   0.63119665   -9.5682002    459.73618  0.010087243 0.0089089934         3937 
 3799000   0.64897754   -9.5818135    460.39055  0.010098942 0.0089051342         3928 
 3800000   0.65241387   -9.5728136    459.47026  0.010076102 0.0089012779         3952 
 3801000   0.65692879   -9.5573412    459.54984  0.010075196 0.0088974261         3936 
 3802000   0.64147348    -9.598386    459.33374  0.010067809 0.0088935751         3945 
 3803000    0.6553719   -9.5617504    460.21596  0.010084494 0.0088897274         3943 
 3804000   0.63815552   -9.5714807    459.40429  0.010064062 0.0088858814         3943 
 3805000   0.63782065   -9.5654346    458.92853  0.010050997 0.0088820364         3953 
 3806000   0.63961695   -9.5705283    459.87183   0.01006901  0.008878196         3939 
 3807000   0.63676375   -9.5743537    459.66581  0.010061855  0.008874355         3952 
 3808000   0.63781204    -9.586236     459.6261  0.010058344 0.0088705141         3945 
 3809000   0.65501201   -9.5732362    460.16458  0.010067485 0.0088666783         3937 
 3810000   0.64149184   -9.5938475    459.28577  0.010045621 0.0088628413         3944 
 3811000   0.64337558   -9.5899693    459.85502  0.010055432 0.0088590075         3945 
 3812000   0.64280316   -9.5804842    459.09801  0.010036246 0.0088551762         3954 
 3813000   0.62812622   -9.5704915    460.17806  0.010057218  0.008851351         3943 
 3814000   0.63702287   -9.5618535     460.6739  0.010065415 0.0088475262         3930 
 3815000   0.63919712   -9.5619755     460.0165  0.010048416 0.0088437045         3941 
 3816000    0.6384173    -9.580779    459.36374  0.010031528 0.0088398824         3929 
 3817000   0.64018874   -9.5937837    459.98166  0.010042391 0.0088360662         3935 
 3818000   0.62737976   -9.5670521    459.12408  0.010021042 0.0088322506         3939 
 3819000   0.63498734   -9.5662799    460.05681  0.010038771 0.0088284342         3935 
 3820000   0.64015732   -9.5792053    459.68384  0.010028007  0.008824621         3930 
 3821000   0.63854149   -9.5721941    459.06559  0.010011899 0.0088208135         3925 
 3822000   0.63976388   -9.5857177    459.65253  0.010022077 0.0088170035         3931 
 3823000   0.63561553   -9.5628849    460.50807  0.010038104 0.0088131972         3940 
 3824000   0.63381077    -9.562935    460.13917   0.01002744  0.008809395         3935 
 3825000   0.64745089   -9.5618786    459.01986  0.010000433 0.0088055956         3947 
 3826000   0.65473679   -9.5766289    459.01949 0.0099978108 0.0088017937         3940 
 3827000    0.6352584   -9.5721388    460.31941  0.010023504 0.0087979998         3940 
 3828000   0.64799247   -9.5767374    458.92684 0.0099905704 0.0087942064         3941 
 3829000   0.64251281   -9.5563007    460.05198  0.010012448 0.0087904164         3937 
 3830000   0.63586887   -9.5694307    459.83789  0.010005176 0.0087866292         3946 
 3831000   0.63527153   -9.5834615    460.72736  0.010021912 0.0087828394         3943 
 3832000   0.63715824   -9.5649145    460.21221  0.010008094 0.0087790547         3946 
 3833000   0.63901967    -9.578732    459.79156 0.0099963379 0.0087752716         3928 
 3834000   0.62610264   -9.5899432     459.4681    0.0099867 0.0087714898         3928 
 3835000   0.65782392    -9.585621    458.98822 0.0099736683 0.0087677094         3929 
 3836000   0.62976463   -9.5738377    458.98002 0.0099708902 0.0087639332         3922 
 3837000   0.63693349   -9.5847636     459.2265 0.0099736447 0.0087601606         3933 
 3838000   0.64475159   -9.5771631    460.19115 0.0099919913 0.0087563873         3931 
 3839000   0.62161626   -9.5954146    459.78135  0.009980493  0.008752615         3938 
 3840000   0.62912559   -9.5834371    459.19832 0.0099652413 0.0087488432         3935 
 3841000   0.63821853   -9.5791182    459.28927 0.0099646202 0.0087450753         3934 
 3842000   0.63163897   -9.5681426    459.48988 0.0099663777 0.0087413126         3939 
 3843000   0.63840649   -9.5756324     459.5597 0.0099652984   0.00873755         3944 
 3844000   0.63945016   -9.5726359    459.58221 0.0099631939 0.0087337909         3945 
 3845000   0.65847817   -9.5862634    459.80217   0.00996537  0.008730035         3927 
 3846000   0.63723424   -9.5739729    459.57011 0.0099577506 0.0087262824         3941 
 3847000   0.63512125   -9.5835302    459.55824  0.009954905 0.0087225317         3939 
 3848000   0.62070438   -9.5749557    459.83842 0.0099583857 0.0087187806         3943 
 3849000   0.63205497   -9.5682986    459.63874 0.0099514753 0.0087150325         3934 
 3850000   0.63054245    -9.578344    459.78417 0.0099520383 0.0087112876         3941 
 3851000   0.63957891   -9.5736581    459.18377 0.0099364617 0.0087075451         3946 
 3852000   0.64677928   -9.5893117    459.60076 0.0099429032 0.0087038043         3930 
 3853000     0.635582   -9.5929917    459.47309 0.0099375614 0.0087000648         3943 
 3854000   0.64177633   -9.5759273    459.48989 0.0099353462 0.0086963308         3949 
 3855000   0.64363576   -9.5895183    457.90222 0.0098984484 0.0086925929         3932 
 3856000    0.6369467   -9.5505979     460.0487 0.0099422696 0.0086888613         3937 
 3857000   0.63573649    -9.592824      458.762 0.0099118919 0.0086851324         3939 
 3858000   0.62829616   -9.5776696     459.3671 0.0099223928  0.008681401         3953 
 3859000   0.62475673   -9.5869326    459.67306 0.0099264286 0.0086776755         3949 
 3860000   0.63958075   -9.5736899    460.30974 0.0099376023 0.0086739512         3942 
 3861000    0.6420734   -9.5885032    459.26699 0.0099125225 0.0086702279         3931 
 3862000   0.62290568   -9.5794284     458.4727 0.0098928168 0.0086665084         3938 
 3863000   0.63926127   -9.5746927    459.89766 0.0099209953 0.0086627889         3955 
 3864000   0.62909776    -9.571822    459.89247 0.0099183159  0.008659072         3943 
 3865000   0.63545915   -9.5757155    459.65511 0.0099106319 0.0086553585         3941 
 3866000    0.6333726   -9.5841824    459.20873 0.0098984464 0.0086516433         3927 
 3867000   0.63232516   -9.5844347    459.58726 0.0099040441 0.0086479332         3931 
 3868000   0.62560503   -9.5779321    459.99048 0.0099101706 0.0086442254         3952 
 3869000   0.63402866   -9.5922808    459.70653 0.0099014933 0.0086405196         3943 
 3870000   0.63074226    -9.585113    459.40416 0.0098924237  0.008636818         3929 
 3871000   0.63540081   -9.5943134    459.47795 0.0098914567 0.0086331144         3944 
 3872000   0.62593603   -9.5719632    460.09987 0.0099022871 0.0086294162         3938 
 3873000   0.63716236   -9.5918055      459.523 0.0098873183 0.0086257166         3948 
 3874000    0.6284427   -9.5886371    459.26153 0.0098791414 0.0086220233         3936 
 3875000   0.63697011   -9.5723071    459.28223 0.0098770371 0.0086183291         3937 
 3876000   0.63376615   -9.5693023    459.76232 0.0098848107 0.0086146395         3946 
 3877000   0.64520612   -9.5877229     459.5808 0.0098783595 0.0086109503         3932 
 3878000   0.62733253   -9.5917017    459.53479 0.0098748236 0.0086072655         3926 
 3879000   0.64415267   -9.6035197    459.26843 0.0098665556 0.0086035825         3932 
 3880000    0.6222172   -9.5849276    459.34646 0.0098656887 0.0085999029         3947 
 3881000   0.63826333   -9.5894694    459.56672 0.0098678759   0.00859622         3941 
 3882000   0.63308158   -9.5825792    460.39732 0.0098831641 0.0085925405         3948 
 3883000   0.63256072   -9.5746568    458.91522 0.0098488116 0.0085888649         3947 
 3884000   0.63295145   -9.5622652    459.72965 0.0098637497 0.0085851906         3934 
 3885000   0.63040791   -9.6044516    458.54551 0.0098358111 0.0085815171         3923 
 3886000   0.63699498   -9.5992804    459.80074 0.0098601977 0.0085778476         3933 
 3887000   0.61858795   -9.6124053    458.92062 0.0098387921 0.0085741803         3938 
 3888000    0.6357138   -9.5729489    459.61339 0.0098511101  0.008570515         3934 
 3889000   0.62217547   -9.5819407    459.94504 0.0098556836 0.0085668527         3931 
 3890000   0.62463425   -9.5980045    459.69639 0.0098478232 0.0085631942         3930 
 3891000   0.61799603   -9.5979716    459.67223  0.009844775 0.0085595343         3932 
 3892000   0.63614964   -9.5843267    459.44377 0.0098373538 0.0085558769         3930 
 3893000    0.6183502   -9.5886719    459.52922  0.009836656 0.0085522191         3919 
 3894000   0.61392212    -9.594199     459.3966 0.0098312916 0.0085485618         3934 
 3895000   0.62833904   -9.5779683    459.87732 0.0098390527 0.0085449079         3931 
 3896000   0.64720038   -9.5934687    459.26314 0.0098233902 0.0085412552         3955 
 3897000    0.6176231   -9.6012445    459.31334 0.0098219429 0.0085376052         3949 
 3898000   0.63561815   -9.5700015    458.85367 0.0098095961 0.0085339607         3924 
 3899000   0.62265373   -9.5936807    460.25487 0.0098370281 0.0085303144         3923 
 3900000   0.61891792   -9.6073125    459.83024 0.0098254325 0.0085266711         3944 
 3901000   0.62295467   -9.5750114    458.93737 0.0098038402 0.0085230298         3936 
 3902000   0.62969064   -9.5899022      459.514 0.0098136426 0.0085193897         3938 
 3903000   0.64290203    -9.606398    458.42975 0.0097879782 0.0085157511         3940 
 3904000   0.62079805   -9.5963487    459.13275 0.0098004771 0.0085121186         3945 
 3905000   0.61975313    -9.591852    459.66712 0.0098093708  0.008508487         3955 
 3906000    0.6237063   -9.5988042     459.4495 0.0098022168 0.0085048539         3933 
 3907000   0.63256931   -9.5937855    459.11753 0.0097926271 0.0085012262         3941 
 3908000   0.63708931   -9.5968858    458.60695 0.0097792338 0.0084975984         3943 
 3909000   0.62941225   -9.6058623    458.52974 0.0097750861 0.0084939724         3949 
 3910000   0.62475025   -9.6068022    458.46866 0.0097712844 0.0084903523         3944 
 3911000   0.62028809    -9.594013    459.35745 0.0097877237 0.0084867315         3943 
 3912000   0.61739111   -9.5968604    459.31318 0.0097842787 0.0084831138         3943 
 3913000   0.62469804   -9.6056239    459.54713 0.0097867606 0.0084794964         3943 
 3914000   0.63503628   -9.5961695    458.87247 0.0097698958 0.0084758854         3951 
 3915000   0.63094958   -9.5922135    458.46147 0.0097586519 0.0084722736         3937 
 3916000   0.62213719   -9.5978395     458.7945  0.009763247 0.0084686641         3944 
 3917000   0.63388219   -9.5820904    458.68312 0.0097583848 0.0084650539         3943 
 3918000   0.61779537   -9.6078033    458.98451 0.0097623044 0.0084614485         3940 
 3919000   0.62966395   -9.6057556    460.07962 0.0097830999 0.0084578429         3955 
 3920000   0.62256383    -9.620176    460.06328 0.0097802569  0.008454239         3937 
 3921000   0.62638354   -9.6126277    458.76679  0.009750208 0.0084506377         3952 
 3922000   0.61919901   -9.6145816    459.60623 0.0097655581 0.0084470409         3936 
 3923000   0.62985473   -9.6004247    458.66613 0.0097430989 0.0084434457         3933 
 3924000   0.62727004   -9.6044448    459.17353 0.0097513916 0.0084398516         3943 
 3925000   0.61948453   -9.6079335    459.26543 0.0097508583 0.0084362594         3954 
 3926000   0.59961054   -9.5988608    459.29822 0.0097490707 0.0084326697         3935 
 3927000   0.61423999   -9.5930019    459.86776  0.009758674 0.0084290795         3943 
 3928000   0.63011376   -9.5964852    458.09267 0.0097185308 0.0084254952         3937 
 3929000   0.60583045   -9.5972134    459.40444 0.0097438797  0.008421913         3950 
 3930000   0.62098596   -9.5996594    458.73019 0.0097271033 0.0084183293         3941 
 3931000   0.62269635   -9.6209951    459.26045 0.0097358699 0.0084147501         3922 
 3932000   0.61992614   -9.5804895     459.3405 0.0097350903 0.0084111715         3947 
 3933000   0.61427016    -9.588011     458.8785  0.009722826 0.0084075959         3947 
 3934000   0.63490491   -9.6134735    459.31279 0.0097295542 0.0084040205         3938 
 3935000    0.6271351    -9.593793    459.05996 0.0097217272 0.0084004468         3941 
 3936000   0.60862004   -9.6043913    459.20933 0.0097224198 0.0083968766         3938 
 3937000   0.61125748   -9.5977305    458.84486 0.0097122356  0.008393305         3951 
 3938000   0.61277554   -9.5964123    458.31649 0.0096985883 0.0083897381         3951 
 3939000   0.63044098   -9.5973536     459.4175  0.009719419 0.0083861745         3928 
 3940000   0.61985439   -9.5886943    459.69787 0.0097228823 0.0083826145         3932 
 3941000   0.61865955   -9.6032183    459.02774 0.0097062451 0.0083790567         3942 
 3942000   0.62605574   -9.6042423    459.50729 0.0097139205 0.0083755022         3940 
 3943000   0.62216186   -9.6037323    459.06901  0.009702194  0.008371945         3943 
 3944000   0.61136691   -9.5917643    457.76773 0.0096722391 0.0083683911         3940 
 3945000   0.62207296   -9.6078816    459.05187 0.0096969133 0.0083648396         3947 
 3946000   0.61973046   -9.5845561    459.15267 0.0096965845 0.0083612896         3927 
 3947000   0.62965963   -9.6163413    459.58107 0.0097031728 0.0083577398         3922 
 3948000   0.62523091   -9.6012411    458.40788 0.0096759515 0.0083541922         3946 
 3949000   0.62268052   -9.6095117    459.07276  0.009687532 0.0083506482         3963 
 3950000   0.61677241   -9.5889571     458.9948 0.0096834347   0.00834711         3937 
 3951000   0.62064168   -9.6101729    459.38219 0.0096891544 0.0083435692         3948 
 3952000   0.63320867   -9.5892724    459.51213 0.0096894428 0.0083400311         3928 
 3953000   0.61671403   -9.6055107    458.26542 0.0096607095 0.0083364972         3936 
 3954000    0.6166552   -9.6312251     458.6083 0.0096654928 0.0083329652         3951 
 3955000   0.61078223    -9.617944    458.69056 0.0096647821 0.0083294328         3931 
 3956000   0.61599211   -9.6152592     458.8846 0.0096664265 0.0083259025         3942 
 3957000   0.61554046   -9.6200545    458.38976 0.0096535624 0.0083223753         3929 
 3958000   0.62256305   -9.6297593    458.86383 0.0096611046 0.0083188479         3942 
 3959000   0.61761588   -9.6158082    458.46696 0.0096503107 0.0083153228         3950 
 3960000   0.60572741   -9.6133661    459.49835  0.009669578 0.0083118028         3946 
 3961000   0.61204929    -9.614335     458.6981 0.0096503009 0.0083082837         3946 
 3962000   0.61244242   -9.6016512    458.45537 0.0096427597 0.0083047633         3936 
 3963000   0.60948126   -9.6108752    458.84244 0.0096484657 0.0083012483         3940 
 3964000    0.6221086   -9.6153497    458.79489 0.0096450322 0.0082977379         3945 
 3965000   0.61900067   -9.6005767    459.20265 0.0096511697 0.0082942217         3933 
 3966000   0.60812519   -9.6121928    459.26904 0.0096501311 0.0082907096         3954 
 3967000    0.6092464   -9.6231681    459.30942 0.0096485468 0.0082872037         3948 
 3968000    0.6368526   -9.5948612    459.04368 0.0096405342 0.0082836952         3923 
 3969000   0.61928421    -9.624153    458.61391 0.0096290818 0.0082801919         3933 
 3970000   0.62467855   -9.6312304    458.88381 0.0096323219 0.0082766908         3942 
 3971000   0.61458079   -9.6137123    458.76543 0.0096274118 0.0082731904         3945 
 3972000   0.60496398   -9.6211465    458.78508 0.0096254004 0.0082696935         3943 
 3973000   0.62170535   -9.6359772    459.03069 0.0096281293  0.008266195         3938 
 3974000   0.62260403   -9.6210798    459.15104 0.0096282301 0.0082626992         3931 
 3975000   0.62638049   -9.6055355    459.43392 0.0096317384 0.0082592056         3943 
 3976000   0.62231644   -9.6099623    458.65456 0.0096129812 0.0082557138         3935 
 3977000   0.60581019   -9.6200162    459.41338 0.0096264642  0.008252225         3945 
 3978000   0.61783216   -9.5985533    458.68549  0.009608796 0.0082487355         3954 
 3979000    0.6272972   -9.6133207    458.79822 0.0096087421 0.0082452488         3946 
 3980000   0.61265202   -9.6102275    459.14742 0.0096136395 0.0082417656         3953 
 3981000   0.60767794   -9.6214937    458.74434 0.0096027869 0.0082382812         3938 
 3982000    0.6062936   -9.6124148    458.54196 0.0095961401 0.0082348022         3953 
 3983000   0.60209326   -9.6134289    459.32506 0.0096101151 0.0082313239         3925 
 3984000   0.61921392   -9.6171768    458.74209 0.0095955089 0.0082278482         3949 
 3985000   0.61958296   -9.6167239    459.43984 0.0096076922 0.0082243711         3928 
 3986000   0.60825561   -9.6249555    458.50873 0.0095858156 0.0082208962         3934 
 3987000   0.62561097   -9.6307468    458.19837 0.0095769243 0.0082174253         3948 
 3988000   0.60686083   -9.6147385    457.91543 0.0095686105 0.0082139534         3949 
 3989000   0.60217569   -9.6268178    458.12415 0.0095705721 0.0082104839         3953 
 3990000   0.61585318   -9.6058525    458.53327 0.0095767183  0.008207018         3944 
 3991000   0.60869683   -9.6078061    459.18913 0.0095880132 0.0082035575         3926 
 3992000   0.62966842   -9.6167722    458.94051 0.0095804214 0.0082000953         3946 
 3993000    0.6227343   -9.6093017    459.71138   0.00959411 0.0081966373         3941 
 3994000   0.61090562   -9.6102384      459.237 0.0095818102 0.0081931835         3947 
 3995000    0.6000668   -9.6133686    459.36548 0.0095820918 0.0081897294         3951 
 3996000   0.61665318   -9.6192054     458.5824 0.0095633633  0.008186275         3919 
 3997000   0.61143198   -9.6270119    458.24331 0.0095539011 0.0081828233         3940 
 3998000   0.61263692   -9.5998042      458.816 0.0095634485 0.0081793747         3936 
 3999000   0.62135148   -9.6118241    458.29516 0.0095502033 0.0081759266         3946 
 4000000   0.60462055   -9.6020796    459.23233 0.0095673403 0.0081724791         3933 
 4001000   0.61964142    -9.624432    457.95784 0.0095384037 0.0081690332         3935 
 4002000   0.61457071   -9.6062302     458.1422 0.0095398593 0.0081655947         3952 
 4003000    0.6081911   -9.6089749    458.98952 0.0095551153 0.0081621531         3943 
 4004000   0.60801523   -9.6093044    458.87992 0.0095504479 0.0081587169         3937 
 4005000   0.60753437   -9.6034435    459.16581 0.0095540119 0.0081552834         3956 
 4006000   0.60100443   -9.6212644    459.19448 0.0095522233 0.0081518496         3947 
 4007000   0.61095212    -9.613775    459.29698 0.0095519711 0.0081484167         3944 
 4008000   0.61966496   -9.5941006    459.04733 0.0095443973  0.008144989         3953 
 4009000   0.60712682   -9.6157302    459.12929 0.0095437201 0.0081415599         3929 
 4010000   0.60707838   -9.6214167    457.81191 0.0095139633 0.0081381352         3934 
 4011000    0.6078682    -9.620789    459.49845  0.009546631 0.0081347077         3948 
 4012000    0.6085927   -9.6380498    459.21338 0.0095383304  0.008131288         3943 
 4013000   0.60521561   -9.6152004      458.607 0.0095233615 0.0081278672         3940 
 4014000   0.60264426   -9.6128837    458.26331 0.0095138539 0.0081244508         3945 
 4015000   0.62584768   -9.6197189    458.36253 0.0095135437  0.008121034         3944 
 4016000   0.61492749   -9.6046718    459.13329 0.0095271683   0.00811762         3953 
 4017000   0.61047752   -9.6252561    457.94954 0.0095002394 0.0081142105         3944 
 4018000   0.59398586   -9.6196701    458.90329 0.0095176557 0.0081107999         3947 
 4019000   0.60645057   -9.6206309     458.6183 0.0095093784 0.0081073902         3945 
 4020000   0.61071801   -9.6112131    459.06571 0.0095162875 0.0081039824         3933 
 4021000   0.60354876   -9.6200841    458.33247 0.0094987249 0.0081005748         3960 
 4022000   0.60662942   -9.6300543    457.95895  0.009488624  0.008097171         3950 
 4023000    0.5997799   -9.6208431    458.76167 0.0095028931 0.0080937697         3945 
 4024000   0.60691421   -9.6178064    459.67335 0.0095194117 0.0080903662         3942 
 4025000   0.61957608     -9.61623    458.68493 0.0094965825  0.008086968         3951 
 4026000   0.61067721   -9.6204741     458.9476 0.0094996606 0.0080835684         3930 
 4027000   0.60188672   -9.6344792     459.1226 0.0095009229 0.0080801734         3951 
 4028000   0.59998774   -9.6404765      457.931 0.0094739118 0.0080767797         3948 
 4029000   0.59547085   -9.6402822    458.77789 0.0094890769 0.0080733876         3951 
 4030000   0.60609465   -9.6272964    458.09098 0.0094725182 0.0080699959         3952 
 4031000   0.59862933   -9.6271506    459.08541 0.0094907261 0.0080666079         3953 
 4032000   0.61219868   -9.6269606    458.76897 0.0094818321  0.008063222         3958 
 4033000   0.60399223   -9.6256876    458.01231 0.0094638463 0.0080598397         3946 
 4034000   0.59887398   -9.6520095    458.76701 0.0094770907 0.0080564564         3947 
 4035000   0.60637265   -9.6349696    458.06254 0.0094601929 0.0080530774         3951 
 4036000   0.58831003   -9.6127578    458.92634 0.0094756842 0.0080497009         3937 
 4037000   0.60789139   -9.6446574    457.73192 0.0094486814 0.0080463235         3948 
 4038000   0.59881485   -9.6289277    458.25225 0.0094570796 0.0080429492         3941 
 4039000   0.61423913   -9.6279623    457.70926 0.0094435351 0.0080395797         3956 
 4040000     0.616684   -9.6272421    458.49531 0.0094574114 0.0080362108         3931 
 4041000   0.61378024   -9.6065634    458.76432 0.0094606186 0.0080328447         3955 
 4042000   0.60828007   -9.6429972    457.84182 0.0094392589 0.0080294778         3939 
 4043000   0.60880352   -9.6396705    458.52832 0.0094510743 0.0080261133         3957 
 4044000   0.60597134   -9.6365676    459.18023  0.009462171 0.0080227497         3935 
 4045000   0.60300218   -9.6310264    458.38932 0.0094435377 0.0080193903         3937 
 4046000   0.61209491    -9.629257     458.5198  0.009443891 0.0080160351         3943 
 4047000   0.60101404   -9.5897916    458.94396 0.0094502915 0.0080126821         3939 
 4048000    0.6142302   -9.6456223    458.42558 0.0094372856 0.0080093277         3958 
 4049000   0.59667699   -9.6423666    458.10061 0.0094282665 0.0080059743         3930 
 4050000   0.59697469   -9.6114572    458.72362 0.0094387576 0.0080026241         3942 
 4051000   0.61063614    -9.643887    458.56599  0.009433185 0.0079992756         3948 
 4052000    0.5881208   -9.6349762    458.24209 0.0094241956 0.0079959303         3946 
 4053000   0.60583184   -9.6244468    458.13452 0.0094196588 0.0079925864         3947 
 4054000   0.60694603   -9.6347317    457.72575 0.0094089326 0.0079892422         3945 
 4055000   0.59852894   -9.6330456    458.18197 0.0094159879 0.0079859007         3945 
 4056000   0.60358529   -9.6247401    458.39301 0.0094180022 0.0079825599         3957 
 4057000    0.6118701   -9.6352967    458.67028 0.0094213762 0.0079792253         3940 
 4058000   0.59434136   -9.6272125    458.70276 0.0094197215 0.0079758905         3950 
 4059000   0.59204606   -9.6393803    458.62257 0.0094157545 0.0079725589         3940 
 4060000   0.59263617    -9.630151    458.74238 0.0094158945 0.0079692255         3955 
 4061000    0.5945407   -9.6336485     458.4554 0.0094076869 0.0079658968         3940 
 4062000   0.59409478   -9.6311892    457.84124 0.0093927712 0.0079625687         3950 
 4063000   0.59909173   -9.6169967     458.9908 0.0094140372 0.0079592413         3947 
 4064000   0.59376327   -9.6256419    458.47294 0.0094011019 0.0079559189         3935 
 4065000   0.60577261     -9.63553    458.00054 0.0093891049 0.0079525944         3938 
 4066000   0.60480748   -9.6290503    458.61079  0.009399303  0.007949277         3953 
 4067000   0.60877174   -9.6441059    458.36423 0.0093919398 0.0079459606         3959 
 4068000   0.61635554   -9.6289972    457.99041 0.0093819733 0.0079426469         3948 
 4069000   0.60147125   -9.6465877    457.99477 0.0093797568 0.0079393358         3942 
 4070000   0.59556858   -9.6411332     458.9517 0.0093970455 0.0079360241         3947 
 4071000   0.59647192   -9.6409381    458.86248 0.0093929108 0.0079327171         3944 
 4072000   0.61024466   -9.6245977     458.5586 0.0093843853 0.0079294119         3938 
 4073000   0.61169828   -9.6161313    458.46193 0.0093801033 0.0079261083         3949 
 4074000    0.5978059   -9.6044626    457.95374 0.0093674058 0.0079228041         3930 
 4075000   0.60457772   -9.6371785    458.50448 0.0093763696 0.0079195016         3945 
 4076000   0.60117915   -9.6350992    459.05089 0.0093852407 0.0079162061         3951 
 4077000   0.59511163   -9.6365405    457.71985 0.0093557324 0.0079129063         3936 
 4078000   0.59945361   -9.6352005    458.23956 0.0093640584 0.0079096098         3950 
 4079000   0.59757403   -9.6272958    457.83686 0.0093535356 0.0079063141         3936 
 4080000   0.60786355   -9.6095777    458.62182 0.0093672758 0.0079030198         3948 
 4081000    0.5954416   -9.6244014    458.56112 0.0093637409 0.0078997273         3941 
 4082000   0.59295543   -9.6343234    458.89542 0.0093682717  0.007896436         3953 
 4083000   0.58526178   -9.6254039    458.20546 0.0093518954 0.0078931493         3940 
 4084000   0.60055419   -9.6227705    458.58766 0.0093574042 0.0078898633         3939 
 4085000   0.58373398   -9.6537582    457.96652 0.0093424423 0.0078865781         3953 
 4086000   0.58876866   -9.6424062    458.64875 0.0093540697  0.007883296         3955 
 4087000    0.5972412   -9.6292322    458.63435 0.0093514875 0.0078800143         3954 
 4088000   0.60562312   -9.6353521     458.6317 0.0093491459 0.0078767331         3945 
 4089000    0.5890814     -9.63345    457.72575 0.0093283962 0.0078734585         3945 
 4090000   0.59749311    -9.613647    458.27095  0.009337224 0.0078701845         3936 
 4091000    0.5966907   -9.6389432    458.33773 0.0093363019 0.0078669133         3966 
 4092000   0.59250592   -9.6426581    459.01602 0.0093478336 0.0078636431         3940 
 4093000    0.6026611   -9.6247281    457.85193  0.009321849  0.007860371         3948 
 4094000   0.59097834   -9.6268423    458.75744 0.0093380035 0.0078571017         3945 
 4095000   0.57829701   -9.6302962    458.45113 0.0093294899 0.0078538325         3945 
 4096000   0.58697576   -9.6313083    457.99488 0.0093179296 0.0078505681         3934 
 4097000    0.5924535   -9.6240239    458.35016 0.0093228817 0.0078473042         3964 
 4098000   0.59326779   -9.6532272    458.70529 0.0093278283 0.0078440431         3948 
 4099000   0.60123321   -9.6545479    457.25097 0.0092959862 0.0078407832         3952 
 4100000   0.58902143   -9.6402873    458.64165 0.0093219848 0.0078375244         3936 
 4101000   0.60873134   -9.6470668    458.40478 0.0093148984 0.0078342667         3947 
 4102000   0.58941385     -9.64235    458.78184 0.0093202877 0.0078310105         3947 
 4103000   0.59073747   -9.6629967    458.74364 0.0093172401 0.0078277575         3933 
 4104000   0.59047691   -9.6477787    458.44688 0.0093089442 0.0078245052         3950 
 4105000   0.61128727   -9.6464957    458.00685 0.0092977436 0.0078212518         3950 
 4106000   0.60280668   -9.6490231    458.40793 0.0093036194 0.0078180021         3948 
 4107000   0.58647375   -9.6609597    457.71405 0.0092872748 0.0078147589         3951 
 4108000   0.58905149   -9.6690127    458.31541 0.0092972131 0.0078115113         3952 
 4109000   0.60013919   -9.6538248    458.30528 0.0092947448 0.0078082651         3942 
 4110000   0.58966803   -9.6636194    458.10028 0.0092883269   0.00780502         3948 
 4111000   0.59862957   -9.6315999     457.4201 0.0092722797 0.0078017801         3937 
 4112000    0.5974794   -9.6467171    458.15275 0.0092848726 0.0077985437         3954 
 4113000   0.60066865   -9.6401808    457.77091 0.0092748786 0.0077953042         3935 
 4114000   0.59539101   -9.6334872    457.89811 0.0092752007 0.0077920703         3942 
 4115000   0.59777664   -9.6558442    458.33784 0.0092818518 0.0077888388         3951 
 4116000   0.58599132    -9.660829    458.52067 0.0092832984 0.0077856061         3950 
 4117000    0.5846216   -9.6414728    458.02583 0.0092710272 0.0077823762         3934 
 4118000    0.5972113   -9.6416867    457.77365 0.0092636727 0.0077791509         3944 
 4119000   0.59945394   -9.6567959    457.16744 0.0092491591 0.0077759228         3953 
 4120000    0.5937647   -9.6590482    457.82985 0.0092603126 0.0077726994         3955 
 4121000   0.59360739   -9.6525779    457.17476 0.0092448184 0.0077694791         3954 
 4122000   0.59462183   -9.6573909    458.40272  0.009267401 0.0077662576         3956 
 4123000   0.58208445    -9.646451     458.2368 0.0092617996 0.0077630416         3956 
 4124000   0.59166883    -9.646105    457.57755 0.0092462324  0.007759828         3947 
 4125000   0.59269164   -9.6658198    457.93495 0.0092512111 0.0077566121         3951 
 4126000   0.59039025   -9.6585752    458.69344 0.0092642882 0.0077534029         3961 
 4127000   0.59391779   -9.6446577    457.57139 0.0092393868 0.0077501945         3956 
 4128000   0.59972024   -9.6573393    458.33256 0.0092525146  0.007746987         3951 
 4129000   0.59422929    -9.658246    457.68834 0.0092372717 0.0077437784         3937 
 4130000   0.59591192   -9.6424954    458.58441 0.0092531156 0.0077405745         3950 
 4131000   0.59018445   -9.6346932    458.38266 0.0092468058  0.007737374         3954 
 4132000    0.5909738    -9.642203    457.96003 0.0092360444 0.0077341722         3948 
 4133000   0.58326279   -9.6472698    457.65069 0.0092275725 0.0077309731         3948 
 4134000   0.58715808   -9.6509904    457.14894 0.0092152262 0.0077277725         3946 
 4135000   0.60897011   -9.6403711     458.1805 0.0092337867  0.007724578         3945 
 4136000   0.58659829   -9.6533752    458.48568 0.0092377031  0.007721387         3946 
 4137000   0.59819666   -9.6599368    458.18832 0.0092294804 0.0077181948         3941 
 4138000   0.59165018   -9.6596393    458.46068 0.0092327349 0.0077150036         3952 
 4139000   0.59744052     -9.66046     457.9546 0.0092203149 0.0077118147         3944 
 4140000   0.59796499   -9.6672875    458.14274 0.0092218747 0.0077086236         3944 
 4141000   0.59144019   -9.6545516    458.02599 0.0092172983  0.007705436         3943 
 4142000   0.58403318   -9.6555072    458.15182 0.0092176047 0.0077022511         3955 
 4143000   0.58795455   -9.6385631    458.02171 0.0092127627 0.0076990727         3950 
 4144000   0.57956138   -9.6518713    457.19974 0.0091940103 0.0076958932         3948 
 4145000    0.6014475   -9.6588359    457.44525  0.009196728  0.007692714         3965 
 4146000   0.58793022   -9.6518731    457.79694 0.0092015786 0.0076895381         3950 
 4147000   0.57745817   -9.6560499    457.73293 0.0091980735  0.007686361         3946 
 4148000   0.58321031    -9.628317    457.85276 0.0091982634 0.0076831865         3951 
 4149000   0.59498353   -9.6514565    457.88864  0.009196767 0.0076800139         3948 
 4150000   0.59755569   -9.6514685     458.0584 0.0091979599 0.0076768439         3958 
 4151000   0.60310659   -9.6549937    457.94651 0.0091934978 0.0076736726         3950 
 4152000   0.58406135   -9.6671479    458.28289  0.009198035 0.0076705046         3959 
 4153000   0.60377395   -9.6446824    458.03727 0.0091908914 0.0076673376         3948 
 4154000   0.59162816   -9.6522653     458.7936 0.0092038517 0.0076641738         3948 
 4155000   0.59829469   -9.6629669    457.88737 0.0091834611 0.0076610099         3953 
 4156000   0.57836591   -9.6722678     457.8694 0.0091808911  0.007657846         3962 
 4157000   0.58160909    -9.664935    456.87295 0.0091587073 0.0076546876         3951 
 4158000   0.57094912     -9.65546     457.9789 0.0091786696 0.0076515308         3948 
 4159000   0.57489769   -9.6601188     458.0559 0.0091780055 0.0076483757         3940 
 4160000   0.57905305   -9.6487503    457.95979 0.0091738741 0.0076452217         3946 
 4161000   0.58015583   -9.6674443    458.05794  0.009173635 0.0076420697         3961 
 4162000   0.57996965   -9.6642097    457.78497 0.0091659652 0.0076389208         3948 
 4163000   0.57217468   -9.6622148    458.39487 0.0091759723 0.0076357753         3943 
 4164000     0.579617   -9.6515678    457.95483 0.0091649622 0.0076326301         3937 
 4165000   0.57560855   -9.6715134    458.39953 0.0091716594 0.0076294821         3962 
 4166000   0.58798816   -9.6625261    457.61056 0.0091536758 0.0076263397         3952 
 4167000   0.57936384   -9.6449539    458.22256  0.009163718 0.0076231979         3942 
 4168000   0.58280369   -9.6626623    457.39889 0.0091450513 0.0076200595         3955 
 4169000   0.58593705   -9.6643365    457.20248 0.0091389317 0.0076169211         3950 
 4170000   0.59144828   -9.6587767    457.76685 0.0091480186 0.0076137863         3951 
 4171000   0.58269186   -9.6618799    458.01767 0.0091508366 0.0076106516         3951 
 4172000   0.58821321   -9.6567021    457.98352  0.009147961 0.0076075194         3951 
 4173000   0.59153782      -9.6711    457.46834 0.0091354808 0.0076043854         3953 
 4174000   0.57748953   -9.6414417    457.56368 0.0091351956 0.0076012555         3950 
 4175000   0.58408578    -9.680143    457.50342 0.0091318049 0.0075981276         3957 
 4176000   0.57976015   -9.6573911    458.32129  0.009145939 0.0075950014         3942 
 4177000   0.58871297   -9.6640705     458.2884 0.0091430932 0.0075918797         3940 
 4178000   0.57756041    -9.664791    457.50006 0.0091251807 0.0075887572         3946 
 4179000   0.58678059   -9.6704893     457.1577 0.0091161702 0.0075856376         3937 
 4180000   0.58062555    -9.656612    457.87327 0.0091282549 0.0075825182         3960 
 4181000   0.57680294   -9.6366867    457.31379 0.0091149206 0.0075794012         3945 
 4182000   0.57394533   -9.6586864    458.17594 0.0091299207 0.0075762884         3947 
 4183000   0.58309744   -9.6625069    458.01903 0.0091246121  0.007573176         3962 
 4184000   0.57957112   -9.6542337    456.50454 0.0090922671 0.0075700667         3949 
 4185000   0.59137069   -9.6721091    457.34879 0.0091069055 0.0075669584         3947 
 4186000   0.58433613   -9.6570499    457.49479 0.0091076363 0.0075638492         3949 
 4187000    0.5726884   -9.6582174    458.24631 0.0091204186 0.0075607432         3961 
 4188000   0.58631913   -9.6526085    458.50231 0.0091233348 0.0075576403         3948 
 4189000   0.58648445   -9.6563902    457.83317 0.0091078453 0.0075545371         3952 
 4190000   0.57609866   -9.6589014    457.66797 0.0091023861 0.0075514358         3956 
 4191000   0.56951451   -9.6688191    456.79735 0.0090829028 0.0075483367         3933 
 4192000   0.57129704   -9.6492983    457.91309  0.009102916  0.007545236         3957 
 4193000   0.57686799   -9.6724776     457.4307 0.0090911579 0.0075421393         3959 
 4194000   0.58964785   -9.6653265    457.37007 0.0090877856 0.0075390434         3944 
 4195000   0.58700164   -9.6629569    457.30033 0.0090842339 0.0075359475         3944 
 4196000   0.58433873   -9.6546011    457.76999 0.0090913964 0.0075328575         3944 
 4197000   0.57806083   -9.6649298    458.07042 0.0090951954 0.0075297667         3937 
 4198000   0.57453311    -9.687731      457.833 0.0090883159 0.0075266779         3941 
 4199000   0.58459556   -9.6689204    457.18556 0.0090733024 0.0075235917         3953 
 4200000   0.59037903   -9.6724733    457.81788 0.0090836881 0.0075205048         3954 
 4201000   0.57846804   -9.6528325    458.03073 0.0090857481 0.0075174194         3952 
 4202000   0.58295297   -9.6569165    457.51477 0.0090733533 0.0075143404         3952 
 4203000   0.59085144   -9.6687924    457.61192 0.0090731207 0.0075112591         3948 
 4204000   0.58566308   -9.6678596      457.289 0.0090645616 0.0075081816         3954 
 4205000   0.57541654   -9.6637947    457.43702 0.0090653392 0.0075051029         3946 
 4206000   0.57352846   -9.6708075     457.9426 0.0090732009 0.0075020265         3944 
 4207000    0.5921007   -9.6529566    457.52301 0.0090627329 0.0074989533         3946 
 4208000   0.57611174   -9.6621587    457.67916 0.0090636716 0.0074958849         3948 
 4209000   0.57724763   -9.6838398    457.75055 0.0090629316 0.0074928158         3942 
 4210000   0.56467316   -9.6664623    458.36344 0.0090729106 0.0074897495         3955 
 4211000   0.57631688   -9.6610245    457.29584 0.0090496288 0.0074866836         3950 
 4212000   0.56252993   -9.6783053     457.5373 0.0090522575 0.0074836189         3942 
 4213000   0.59421142   -9.6765119    457.63469 0.0090520351 0.0074805556         3954 
 4214000   0.57810085   -9.6836948    457.52676 0.0090477528 0.0074774951         3949 
 4215000   0.57989416   -9.6742481    457.28794 0.0090408846  0.007474436         3946 
 4216000   0.58589428   -9.6681807    456.96574 0.0090323715 0.0074713755         3952 
 4217000   0.59000586   -9.6669775    457.10111 0.0090329046 0.0074683224         3948 
 4218000   0.57871504   -9.6724017    457.89228 0.0090463941 0.0074652647         3956 
 4219000   0.56102695   -9.6608339    457.83717 0.0090431613 0.0074622125         3939 
 4220000    0.5831711   -9.6640876    457.93354 0.0090429214 0.0074591633         3962 
 4221000   0.56689775   -9.6592351    456.95079  0.009021377 0.0074561136         3948 
 4222000   0.58466721   -9.6658886    457.48607 0.0090298056 0.0074530653         3933 
 4223000   0.57678631   -9.6558476     456.6945 0.0090120471 0.0074500217         3952 
 4224000   0.57709681   -9.6528413    457.88648 0.0090334295 0.0074469754         3954 
 4225000   0.59140975   -9.6688249    457.74959 0.0090285915 0.0074439346         3945 
 4226000   0.57268103    -9.685797     457.6476 0.0090244439 0.0074408934         3950 
 4227000   0.58693982   -9.6618164    456.95218  0.009008599 0.0074378559         3941 
 4228000   0.57501623   -9.6769218    457.85728 0.0090243077 0.0074348207         3957 
 4229000   0.58987743   -9.6678102    457.49133 0.0090149628 0.0074317841         3949 
 4230000    0.5696017   -9.6634309    458.27725 0.0090283145 0.0074287517         3951 
 4231000   0.57153583   -9.6759951    456.98524 0.0090007335   0.00742572         3950 
 4232000   0.56755777   -9.6835849    457.50621 0.0090088652 0.0074226905         3937 
 4233000    0.5848374    -9.679886    457.05686 0.0089978907 0.0074196618         3944 
 4234000   0.57168647   -9.6607802    457.31726 0.0090008908 0.0074166334         3950 
 4235000   0.57576456   -9.6743886     457.5572 0.0090034868 0.0074136068         3959 
 4236000   0.58296567    -9.672906    457.92089  0.009008516  0.007410584         3946 
 4237000    0.5672543   -9.6711465    457.74652 0.0090029605 0.0074075599         3952 
 4238000   0.56751151   -9.6808218    458.11546 0.0090080907 0.0074045412         3945 
 4239000   0.58432956   -9.6739296    457.76366 0.0089990497 0.0074015226         3950 
 4240000   0.56792747   -9.6683036    457.15238 0.0089849131 0.0073985046         3940 
 4241000   0.57884322   -9.6753855    457.16469 0.0089830364 0.0073954876         3952 
 4242000   0.58581138   -9.6661474    457.82535 0.0089938973 0.0073924756         3941 
 4243000   0.57454067   -9.6700965    457.19634 0.0089794238 0.0073894659         3950 
 4244000   0.57090785   -9.6852686    456.94684 0.0089724089 0.0073864558         3952 
 4245000   0.56370412   -9.6715372    457.56563 0.0089824426 0.0073834463         3949 
 4246000   0.57599324       -9.704     457.0756 0.0089707098 0.0073804379         3949 
 4247000   0.56718155   -9.6871909    457.37106 0.0089743949 0.0073774322         3958 
 4248000   0.58887329   -9.6851778    457.03684 0.0089657258 0.0073744259         3938 
 4249000   0.56496954   -9.6792478    456.91556 0.0089612372  0.007371422         3943 
 4250000    0.5642447   -9.6683338    457.15094 0.0089637439 0.0073684219         3949 
 4251000   0.57196157   -9.6742231    457.69429 0.0089722867 0.0073654222         3946 
 4252000   0.57209381   -9.6645658    457.05872 0.0089577203 0.0073624227         3950 
 4253000   0.57917613   -9.6672745    457.15202 0.0089574421 0.0073594271         3952 
 4254000   0.57390888   -9.6778601     456.1295 0.0089353061 0.0073564335         3943 
 4255000   0.56981935   -9.6662905    458.29416 0.0089756004  0.007353443         3945 
 4256000   0.55608048   -9.6724613    456.86398 0.0089454883 0.0073504512         3946 
 4257000   0.57791798   -9.6880024    457.96789 0.0089649967 0.0073474599         3952 
 4258000    0.5707765    -9.672397    457.79121 0.0089594334 0.0073444717         3928 
 4259000   0.55861768   -9.6888904    457.27244 0.0089471793 0.0073414859         3940 
 4260000   0.56861024   -9.6659922    457.23061 0.0089442608  0.007338501         3941 
 4261000   0.58116083   -9.6974485    456.09834 0.0089200177 0.0073355159         3952 
 4262000   0.56392328   -9.6926363    457.25518 0.0089405439 0.0073325335         3930 
 4263000   0.57641886   -9.6796024    456.74513 0.0089284763  0.007329556         3953 
 4264000   0.56941853   -9.6838201    456.93273 0.0089300487 0.0073265778         3956 
 4265000   0.55663718   -9.6767564    457.16112 0.0089324174 0.0073236014         3958 
 4266000   0.55911108   -9.6763549    457.71222 0.0089410888 0.0073206253         3948 
 4267000   0.56771356   -9.6759697    457.54042 0.0089356383 0.0073176501         3950 
 4268000   0.57173097   -9.6848218    457.44044 0.0089315925 0.0073146782         3949 
 4269000   0.57488892   -9.6944378    457.47135 0.0089301037 0.0073117085         3946 
 4270000   0.57690317   -9.6696192    457.01659 0.0089191372 0.0073087394         3945 
 4271000   0.56809782   -9.7073521    456.63788 0.0089096596 0.0073057703         3943 
 4272000   0.58000206    -9.684008    457.74971 0.0089292625 0.0073028053         3942 
 4273000   0.56363372   -9.6869916    457.31883 0.0089187696 0.0072998405         3941 
 4274000   0.55864648   -9.7032253    457.30245 0.0089163634 0.0072968786         3956 
 4275000   0.57786037   -9.6925775    457.82838 0.0089245299 0.0072939155         3937 
 4276000   0.56604817   -9.6913902    457.55377 0.0089170909 0.0072909576         3950 
 4277000   0.57416677   -9.6925435     457.2871 0.0089098103 0.0072879975         3949 
 4278000   0.56688571   -9.6788527    457.90739 0.0089198104 0.0072850389         3961 
 4279000   0.56543849   -9.6782242    457.14573 0.0089028926 0.0072820861         3952 
 4280000    0.5708331   -9.6739507    457.56898 0.0089090533 0.0072791354         3924 
 4281000   0.55998684   -9.6846415    457.27871 0.0089013219 0.0072761846         3946 
 4282000   0.56623118   -9.6939208    457.06091 0.0088950044 0.0072732336         3961 
 4283000   0.55936855   -9.6869732    456.99225 0.0088915917 0.0072702883         3953 
 4284000    0.5543692   -9.7100412    457.18987 0.0088933604 0.0072673425         3971 
 4285000   0.56948145   -9.7072601    456.76806 0.0088830817 0.0072643964         3962 
 4286000   0.54976195   -9.6485365    457.39436 0.0088931863 0.0072614547         3949 
 4287000   0.55333228   -9.7158068    457.30577 0.0088893899 0.0072585131         3953 
 4288000   0.56735594   -9.6910076      457.436 0.0088898476 0.0072555728         3946 
 4289000    0.5658585   -9.6952788    456.76206 0.0088746805 0.0072526314         3953 
 4290000   0.56075496    -9.689053    456.99616 0.0088771593 0.0072496947         3944 
 4291000   0.56724338   -9.6899119    457.30865 0.0088811592 0.0072467598         3962 
 4292000   0.55375212   -9.6940347    456.92175 0.0088715778 0.0072438264         3961 
 4293000   0.55759421   -9.6938057    457.84075 0.0088873506 0.0072408924         3958 
 4294000   0.57324337   -9.6970022    457.39758 0.0088766803 0.0072379637         3973 
 4295000   0.56116126   -9.6884979    457.20551 0.0088708868 0.0072350357         3942 
 4296000    0.5722614   -9.6764749    457.61543 0.0088767736   0.00723211         3953 
 4297000   0.56824844   -9.6954174    457.25872   0.00886779 0.0072291867         3953 
 4298000   0.56877912   -9.6838643    456.96854 0.0088601003 0.0072262645         3964 
 4299000   0.57049097   -9.6932998    456.66167  0.008852091 0.0072233419         3942 
 4300000    0.5694954   -9.7018398    457.17118 0.0088599067 0.0072204245         3957 
 4301000   0.55669697   -9.6697542     457.6393 0.0088669166 0.0072175088         3946 
 4302000   0.56057249   -9.6898589    457.71833 0.0088663863 0.0072145926         3950 
 4303000   0.57394864   -9.6777742     457.1624 0.0088535595 0.0072116787         3940 
 4304000   0.56073465   -9.6952464    457.53658 0.0088587473 0.0072087675         3947 
 4305000   0.55636444   -9.7018771    456.64542  0.008839439 0.0072058572         3952 
 4306000    0.5551836   -9.6887343    457.03716 0.0088449675 0.0072029471         3957 
 4307000    0.5671899   -9.7121802     456.5179  0.008832867 0.0072000396         3959 
 4308000   0.56797962   -9.6796394    457.52587 0.0088503146 0.0071971331         3945 
 4309000   0.54642048   -9.7070665    457.01754   0.00883843 0.0071942284         3964 
 4310000   0.56440134   -9.6983045    457.12009 0.0088383622 0.0071913237         3955 
 4311000   0.56387198   -9.6733389    457.44883 0.0088426666 0.0071884212         3964 
 4312000   0.56287732   -9.6786996    457.78974 0.0088472043  0.007185521         3953 
 4313000   0.56691714   -9.6843308    457.07692 0.0088313804 0.0071826222         3945 
 4314000   0.56378205   -9.7136358    457.27036 0.0088330698 0.0071797259         3950 
 4315000   0.56774294   -9.6982832    456.47895 0.0088157387 0.0071768295         3958 
 4316000   0.56362544   -9.6795172    457.12515  0.008826173 0.0071739343         3947 
 4317000   0.55444915   -9.6932399    456.70646 0.0088160463 0.0071710408         3956 
 4318000   0.55574786   -9.6895698    456.94334  0.008818576 0.0071681494         3944 
 4319000    0.5709554   -9.6784726    456.99857    0.0088176 0.0071652601         3941 
 4320000   0.56692569   -9.6873074    456.96133 0.0088148404 0.0071623726         3954 
 4321000     0.565457   -9.7068207    456.97015 0.0088129706 0.0071594871         3948 
 4322000   0.56057436   -9.7134065    457.30674 0.0088174213 0.0071566027         3942 
 4323000   0.56509232   -9.6827149    457.08467 0.0088111009 0.0071537189         3967 
 4324000   0.56427959   -9.6902207     457.2811 0.0088128488 0.0071508368         3957 
 4325000   0.56627794   -9.7115003    456.73809 0.0088003485 0.0071479568         3947 
 4326000   0.58538044   -9.7100357    456.45949 0.0087929475 0.0071450787         3943 
 4327000   0.56600724   -9.6971994    456.74476 0.0087964093 0.0071422018         3946 
 4328000   0.56249526   -9.7035223    456.55347 0.0087906937 0.0071393273         3948 
 4329000   0.55844033   -9.7181024    456.43242 0.0087863329 0.0071364535         3950 
 4330000   0.54295183   -9.6929352    457.84715 0.0088115309 0.0071335821         3954 
 4331000   0.56242965   -9.6895454    456.94976 0.0087922296 0.0071307113         3937 
 4332000   0.56697545   -9.7068918    456.57948 0.0087830772 0.0071278453         3934 
 4333000   0.55452755   -9.6818288    457.31084 0.0087951158 0.0071249782         3946 
 4334000   0.55970011    -9.680873     456.8952 0.0087850946 0.0071221106         3950 
 4335000   0.56681464   -9.7018789    456.16594 0.0087690491 0.0071192447         3936 
 4336000   0.55766371   -9.7057198    457.05658 0.0087841439 0.0071163815         3946 
 4337000   0.56505493    -9.690548    456.84936 0.0087781369 0.0071135203         3927 
 4338000   0.55923078     -9.71082    456.63658  0.008772026 0.0071106592         3951 
 4339000   0.56252009   -9.7026071     456.9302 0.0087756434 0.0071078009         3939 
 4340000   0.55516899   -9.6877054     457.3473 0.0087816301 0.0071049423         3946 
 4341000   0.56602993   -9.6904126    456.39523 0.0087613305  0.007102086         3937 
 4342000   0.54663254    -9.714752    456.97202 0.0087703828 0.0070992317         3946 
 4343000   0.55193906   -9.7108706    456.97891 0.0087684955 0.0070963771         3932 
 4344000   0.54678458    -9.704795      456.935 0.0087656345 0.0070935262         3946 
 4345000   0.55704271   -9.7130412    457.80885  0.008780377 0.0070906773         3957 
 4346000   0.55560069   -9.6892759    456.46014 0.0087524954 0.0070878278         3957 
 4347000   0.54934514   -9.7026907    456.68883 0.0087548659 0.0070849793         3957 
 4348000   0.56367545   -9.6879798    457.24162 0.0087634473 0.0070821331         3934 
 4349000    0.5465851    -9.692203    457.95887 0.0087751756 0.0070792901         3955 
 4350000   0.54522832   -9.6883777    456.91268 0.0087531164 0.0070764465         3935 
 4351000   0.54575488   -9.7069663    456.42321 0.0087417301 0.0070736039         3942 
 4352000   0.55502807   -9.6974649    456.89616 0.0087487775  0.007070765         3930 
 4353000   0.56289435   -9.7004874    456.56865 0.0087404979 0.0070679275         3946 
 4354000   0.55918538   -9.6961137    457.34202 0.0087532923  0.007065092         3939 
 4355000   0.54469172   -9.7003106    456.49291 0.0087350347 0.0070622576         3948 
 4356000   0.54094175   -9.7164007    456.05654 0.0087246813 0.0070594224         3949 
 4357000   0.55253335   -9.7066788    456.91749 0.0087391456 0.0070565891         3939 
 4358000   0.54576679   -9.6994761    457.53584 0.0087489643 0.0070537573         3940 
 4359000   0.56601542   -9.7029215    456.50684 0.0087272854 0.0070509294         3935 
 4360000   0.56446827   -9.6992854     456.9861 0.0087344437 0.0070481035         3941 
 4361000   0.55649901   -9.7079657    456.48336 0.0087228342 0.0070452805         3932 
 4362000   0.56025941   -9.7043004     457.0372 0.0087314153  0.007042456         3944 
 4363000   0.55846097   -9.7084292     456.6167 0.0087213824 0.0070396352         3942 
 4364000   0.54211228   -9.7045566    456.98327 0.0087263838 0.0070368132         3950 
 4365000   0.54621271   -9.7079508    457.20947 0.0087287032 0.0070339934         3941 
 4366000   0.54489177   -9.7252932    456.73894  0.008717723 0.0070311739         3962 
 4367000   0.55166406   -9.6963752    457.34456 0.0087272834 0.0070283596         3937 
 4368000   0.54816376   -9.7151146    456.55903 0.0087102989 0.0070255476         3953 
 4369000   0.56467956   -9.7084617     456.5137 0.0087074407 0.0070227343         3939 
 4370000   0.55883658   -9.7003782    456.66238 0.0087082834 0.0070199227         3940 
 4371000   0.55497218    -9.704739    456.97144 0.0087121833 0.0070171119         3950 
 4372000   0.54559465   -9.7267162    457.23033 0.0087151253 0.0070143033         3937 
 4373000   0.54671258   -9.6939481    456.74406 0.0087038657 0.0070114935         3928 
 4374000   0.52919516   -9.7274191    456.46562  0.008696571 0.0070086881         3944 
 4375000   0.55920066   -9.6957051    456.41608 0.0086936397 0.0070058836         3946 
 4376000   0.56032106   -9.7057856    456.93732  0.008701579  0.007003081         3943 
 4377000   0.55079018   -9.7071759    456.61754 0.0086935028 0.0070002812         3938 
 4378000   0.55698705   -9.6984985    456.66891 0.0086924949 0.0069974824         3947 
 4379000   0.55749558   -9.7134764    457.08777 0.0086984808 0.0069946838         3939 
 4380000   0.54754173   -9.7062437    456.66746  0.008688498 0.0069918872         3926 
 4381000   0.55301758   -9.7137709    457.21759 0.0086969791 0.0069890928         3947 
 4382000   0.55954159   -9.6976405    456.09171 0.0086735833 0.0069862993         3964 
 4383000   0.54966745   -9.7167926    456.31928 0.0086759312 0.0069835069         3944 
 4384000   0.54531566   -9.7119706    456.27018 0.0086730189 0.0069807137         3944 
 4385000   0.53570084   -9.6956432     456.2252 0.0086701863 0.0069779272         3935 
 4386000    0.5523405   -9.7121946    457.19222 0.0086865826 0.0069751387         3958 
 4387000   0.54814746   -9.6917239    456.19073 0.0086655788 0.0069723538         3948 
 4388000   0.54985772   -9.7217521    457.25261 0.0086837703 0.0069695693         3949 
 4389000   0.55808928   -9.7135845     457.1743  0.008680305 0.0069667879         3957 
 4390000     0.541672   -9.7074394     457.1405 0.0086776861 0.0069640074         3948 
 4391000   0.55173772   -9.7178381    456.31148 0.0086599765 0.0069612258         3947 
 4392000   0.54439466     -9.71198    457.12699 0.0086734781 0.0069584476         3946 
 4393000   0.54900451   -9.7228405    456.12845 0.0086525618 0.0069556708         3939 
 4394000   0.54505676   -9.7118824    457.97258  0.008685567 0.0069528964         3950 
 4395000   0.55355752   -9.7062254     456.9843  0.008664852 0.0069501222         3939 
 4396000   0.54264667   -9.7174876    456.26837 0.0086493094 0.0069473504         3942 
 4397000   0.55499536   -9.7314729    456.35821  0.008649045 0.0069445784         3960 
 4398000   0.54615701   -9.7350248    456.41919 0.0086482339 0.0069418076         3942 
 4399000   0.55225016   -9.7143253    457.10668 0.0086592916 0.0069390364         3953 
 4400000   0.56002186   -9.7148759    456.26927 0.0086414635 0.0069362681         3962 
 4401000   0.54973152   -9.7223016    457.23175 0.0086577245 0.0069335015         3960 
 4402000   0.55688581   -9.7072144    456.65766 0.0086448898 0.0069307383         3963 
 4403000   0.53405145   -9.7219371    455.74593 0.0086256707 0.0069279764         3945 
 4404000   0.54621477    -9.715119     456.6854 0.0086414888 0.0069252161         3938 
 4405000   0.55520249   -9.7243539    456.24311 0.0086311598 0.0069224599         3919 
 4406000     0.548113   -9.7044605    457.03459 0.0086441706 0.0069197028         3950 
 4407000   0.54228875   -9.7363459    457.11963 0.0086438172 0.0069169483         3951 
 4408000   0.54697778    -9.721419     456.4097 0.0086284351 0.0069141944         3959 
 4409000   0.54240185   -9.7226746    457.03049 0.0086382114 0.0069114431         3939 
 4410000   0.53791061   -9.7278141    456.49567 0.0086261464 0.0069086917         3949 
 4411000   0.55487054   -9.7197586     456.4482  0.008623294 0.0069059431         3945 
 4412000   0.54745337   -9.7174297    456.41345 0.0086206831  0.006903193         3963 
 4413000   0.53745074   -9.7320504    456.34925 0.0086175175 0.0069004472         3952 
 4414000   0.52922573   -9.7065478    456.94745 0.0086268587 0.0068977012         3954 
 4415000    0.5480929   -9.6998033    456.36011 0.0086138186 0.0068949564         3953 
 4416000   0.54656923   -9.7283837    456.44396 0.0086134503 0.0068922112         3953 
 4417000    0.5428876   -9.7120085    457.22168 0.0086261732 0.0068894693         3949 
 4418000   0.54107456   -9.7254506    457.21821 0.0086241551 0.0068867297         3953 
 4419000   0.53652619   -9.7340512    456.99332 0.0086179625 0.0068839924         3945 
 4420000   0.53908058    -9.715996    457.39377 0.0086235628 0.0068812558         3954 
 4421000   0.54041421   -9.7141107    456.08356 0.0085969155  0.006878522         3948 
 4422000   0.53069435   -9.7185496    456.51527  0.008603107 0.0068757909         3947 
 4423000   0.53929922   -9.7299282    456.24194 0.0085960122 0.0068730606         3946 
 4424000   0.54051965   -9.7230091    456.51563 0.0085992244  0.006870331         3948 
 4425000   0.54979187   -9.7075397    456.77366 0.0086021404  0.006867602         3937 
 4426000   0.55441859    -9.711459    456.19215 0.0085892482  0.006864876         3943 
 4427000   0.54382126   -9.7046201    457.17924 0.0086058888 0.0068621529         3949 
 4428000   0.54867799   -9.7232488    457.20804 0.0086044873 0.0068594298         3938 
 4429000   0.54440655   -9.7291179    456.65833 0.0085922016 0.0068567081         3941 
 4430000   0.55214782   -9.7193878    457.17303 0.0085999442 0.0068539881         3937 
 4431000   0.54408865   -9.7120852    456.77057 0.0085904343 0.0068512691         3952 
 4432000   0.54921893   -9.7182878    456.62359 0.0085857323 0.0068485513         3947 
 4433000   0.53361292   -9.7296855    456.45452 0.0085806173  0.006845836         3951 
 4434000   0.55204212   -9.7222203    457.10806 0.0085909649 0.0068431194         3962 
 4435000   0.54627565    -9.697476     456.5274 0.0085781173 0.0068404076         3955 
 4436000   0.54097314   -9.7253998    456.73553 0.0085800933 0.0068376943         3954 
 4437000   0.54289278   -9.7230417    456.20109  0.008568122 0.0068349839         3948 
 4438000   0.53585971   -9.7316458     456.2001 0.0085661728 0.0068322743         3951 
 4439000   0.53605072   -9.7422102     455.9393  0.008559347 0.0068295632         3945 
 4440000   0.54270248   -9.7248597    456.24561 0.0085631683 0.0068268575         3940 
 4441000   0.52881125   -9.7353632    455.89145 0.0085545945 0.0068241501         3939 
 4442000   0.54925058    -9.722065    455.84365 0.0085517718 0.0068214467         3941 
 4443000   0.55291195   -9.7201358    456.56377 0.0085633539 0.0068187448         3959 
 4444000   0.53365292   -9.7306205    456.45537 0.0085593941 0.0068160451         3946 
 4445000   0.53199327   -9.7355744    456.71804 0.0085623929  0.006813347         3940 
 4446000   0.54116173   -9.7346954    455.93678 0.0085458236 0.0068106469         3952 
 4447000    0.5301375   -9.7463128    456.18302 0.0085485163 0.0068079491         3946 
 4448000   0.54336956    -9.713497    456.15958 0.0085461552 0.0068052524         3962 
 4449000   0.53534279   -9.7102802    455.58456 0.0085334637 0.0068025559         3945 
 4450000   0.54283747   -9.7481196    455.83732 0.0085362794 0.0067998632         3956 
 4451000   0.54399526   -9.7295993    456.57705  0.008548211 0.0067971708         3946 
 4452000   0.53946779   -9.7193694    456.19613 0.0085391609 0.0067944808         3946 
 4453000   0.53884946   -9.7182138    456.68047 0.0085463072 0.0067917937         3938 
 4454000   0.54146215   -9.7408502     456.9401  0.008549246 0.0067891088         3957 
 4455000   0.53545219   -9.7175533    456.31273 0.0085355916 0.0067864249         3939 
 4456000   0.53750183   -9.7357005    455.90324  0.008526018 0.0067837417         3961 
 4457000   0.53705207   -9.7413198    456.92668 0.0085432405 0.0067810609         3944 
 4458000   0.53441853   -9.7262767    455.74729  0.008519278 0.0067783799         3939 
 4459000    0.5407881    -9.715787    456.24063 0.0085265873 0.0067756994         3961 
 4460000   0.52786028    -9.705532    456.22127 0.0085243137 0.0067730233         3944 
 4461000   0.54278834   -9.7375574    457.04951 0.0085378747 0.0067703463         3944 
 4462000   0.53690716   -9.7193313    456.16224 0.0085193903 0.0067676719         3947 
 4463000   0.52508492   -9.7205007    456.74231 0.0085283126 0.0067649971         3944 
 4464000   0.53909033   -9.7236499     456.5993 0.0085237325 0.0067623236         3937 
 4465000   0.55137192   -9.7331122    455.95467 0.0085097924 0.0067596533         3963 
 4466000   0.52482861   -9.7209771    456.16115 0.0085117397 0.0067569827         3958 
 4467000   0.53528802   -9.7288041    456.05684 0.0085078882 0.0067543143         3946 
 4468000   0.53193757   -9.7374358    455.86584 0.0085024217 0.0067516458         3959 
 4469000   0.54180703   -9.7197701    455.71258 0.0084976613 0.0067489807         3956 
 4470000    0.5523182   -9.7343791     455.8943  0.008499148 0.0067463159         3941 
 4471000   0.54201324   -9.7460878    456.01121 0.0084994261 0.0067436536         3945 
 4472000   0.53027464   -9.7292813    456.48731 0.0085063974 0.0067409953         3929 
 4473000   0.54378825   -9.7380477    455.86922 0.0084929804 0.0067383334         3943 
 4474000   0.52616632   -9.7429424    456.04064 0.0084942751 0.0067356737         3952 
 4475000   0.53617734   -9.7329765    455.44559 0.0084812958 0.0067330177         3954 
 4476000   0.53404899   -9.7338697    456.38862 0.0084969583 0.0067303613         3960 
 4477000    0.5355932   -9.7348293    455.89609 0.0084858925 0.0067277049         3944 
 4478000   0.52360904   -9.7422782    456.65104 0.0084980467  0.006725051         3948 
 4479000   0.53532737     -9.75269    456.09986 0.0084858946 0.0067224006         3954 
 4480000   0.53892319   -9.7415102    456.19264 0.0084857262 0.0067197489         3946 
 4481000   0.54526041   -9.7424961    455.81417 0.0084767941 0.0067170988         3941 
 4482000   0.54092234   -9.7235036    456.15817 0.0084812986 0.0067144532         3947 
 4483000   0.53565936   -9.7319898    455.65289 0.0084700143 0.0067118072         3957 
 4484000   0.52780238   -9.7336982    457.12254 0.0084954382 0.0067091648         3943 
 4485000   0.52261483   -9.6996372    456.65408 0.0084848398 0.0067065222         3955 
 4486000   0.52762909   -9.7532733    456.69106 0.0084836354 0.0067038812         3952 
 4487000   0.53281387   -9.7463129    455.80873 0.0084653579  0.006701241         3942 
 4488000   0.54635995   -9.7344459    456.54494 0.0084771417 0.0066986031         3954 
 4489000   0.51947089    -9.747099    456.10719 0.0084671269 0.0066959667         3937 
 4490000   0.54258345   -9.7562339    455.78218  0.008459209 0.0066933301         3936 
 4491000   0.54414696    -9.719214    456.29093 0.0084667655 0.0066906957         3941 
 4492000   0.53112713    -9.729671    456.84504 0.0084751602 0.0066880629         3939 
 4493000   0.53187046   -9.7307487    456.40807 0.0084651693 0.0066854343         3930 
 4494000   0.53142256   -9.7463648     457.1398 0.0084768542  0.006682802         3953 
 4495000   0.53955581   -9.7285538    456.25714 0.0084586048 0.0066801751         3947 
 4496000   0.51429025   -9.7266826     456.6981 0.0084648965 0.0066775483         3939 
 4497000   0.53584999   -9.7443771    456.27232 0.0084551242 0.0066749214         3934 
 4498000   0.53465962   -9.7383168    456.17826 0.0084515018 0.0066722969         3941 
 4499000   0.52133022   -9.7314145    455.54042 0.0084378088 0.0066696745         3941 
 4500000   0.53110869   -9.7481136    455.99019 0.0084442628 0.0066670528         3946 
 4501000   0.53652258   -9.7415846    455.50324  0.008433371 0.0066644325         3942 
 4502000   0.52362227   -9.7522092    456.00818 0.0084408444 0.0066618131         3950 
 4503000   0.52982139    -9.746763    455.86165 0.0084362583 0.0066591969         3949 
 4504000   0.52777217   -9.7442892    455.76403  0.008432579 0.0066565796         3942 
 4505000   0.53387373   -9.7306208    455.85476 0.0084323855 0.0066539646         3941 
 4506000    0.5206762    -9.739686    455.61459 0.0084260725 0.0066513509         3942 
 4507000   0.53309949   -9.7335771    455.95188 0.0084304393 0.0066487382         3942 
 4508000   0.52359911   -9.7422779    457.11324 0.0084500377  0.006646128         3948 
 4509000   0.53083074   -9.7323008    455.82214 0.0084243021   0.00664352         3924 
 4510000   0.53968824   -9.7370085    455.88862 0.0084236626 0.0066409113         3935 
 4511000    0.5297182   -9.7534962    456.45017 0.0084321689 0.0066383052         3946 
 4512000   0.52958417   -9.7452864    456.48282 0.0084309031 0.0066357005         3942 
 4513000   0.52865849   -9.7373927     456.4305  0.008428069 0.0066330967         3945 
 4514000   0.52974581   -9.7132047     455.9871 0.0084180162 0.0066304945         3954 
 4515000   0.52864139    -9.745664    456.69195 0.0084291611 0.0066278941         3945 
 4516000   0.52568898    -9.741695    456.26796 0.0084194708  0.006625296         3943 
 4517000    0.5421737   -9.7507786    455.89833 0.0084107876 0.0066226991         3948 
 4518000   0.52325092   -9.7480434    456.40534 0.0084182776 0.0066201014         3944 
 4519000   0.52646703   -9.7437672    455.90351 0.0084071608 0.0066175069         3942 
 4520000   0.51620953   -9.7393343    456.25965 0.0084118667 0.0066149142         3940 
 4521000   0.52240102   -9.7407386    455.96292 0.0084045367 0.0066123205         3939 
 4522000   0.53580164   -9.7445283    456.99758 0.0084217452 0.0066097313         3931 
 4523000   0.52409667   -9.7262925    455.27573 0.0083881592 0.0066071427         3943 
 4524000    0.5189007   -9.7435007    456.06658 0.0084008727 0.0066045551         3956 
 4525000   0.52671965   -9.7633151    455.35873 0.0083859802 0.0066019684         3955 
 4526000   0.52457795   -9.7550268    455.79817 0.0083922185 0.0065993832         3938 
 4527000   0.53605182   -9.7353628    456.08305 0.0083956088  0.006596801         3942 
 4528000   0.52946411    -9.732179    456.37118 0.0083990573 0.0065942194         3935 
 4529000    0.5164779   -9.7394352    456.15928 0.0083933039 0.0065916396         3955 
 4530000   0.53207874   -9.7579735    455.97959 0.0083881455 0.0065890587         3951 
 4531000    0.5230421   -9.7253147    456.17214 0.0083898355 0.0065864797         3938 
 4532000   0.52909613   -9.7336427    456.10841 0.0083868124 0.0065839021         3936 
 4533000   0.52153011   -9.7446371    456.28726 0.0083882503 0.0065813264         3948 
 4534000   0.52160618   -9.7501764    456.63316 0.0083927577  0.006578752         3958 
 4535000   0.52563417   -9.7532819    455.95716 0.0083784852  0.006576179         3949 
 4536000   0.52937425   -9.7325179     456.3208 0.0083833186 0.0065736059         3949 
 4537000   0.53121782   -9.7444368    455.37172 0.0083640386 0.0065710339         3949 
 4538000   0.51165052   -9.7529441    455.91844 0.0083722352 0.0065684638         3943 
 4539000   0.53285897   -9.7484431    456.04363 0.0083726892 0.0065658958         3936 
 4540000   0.53490535   -9.7483079    455.51439 0.0083611304 0.0065633277         3953 
 4541000   0.51812306   -9.7530764    456.03069 0.0083687641 0.0065607606         3942 
 4542000   0.52994605   -9.7433686    456.47608 0.0083750932  0.006558194         3944 
 4543000   0.51863037   -9.7639512    456.15828 0.0083674203 0.0065556329         3958 
 4544000   0.51894078   -9.7508346    456.04421 0.0083634867 0.0065530723         3930 
 4545000   0.52086994   -9.7439694     455.4084 0.0083499891  0.006550511         3951 
 4546000   0.52744509   -9.7485612     456.1616 0.0083619592 0.0065479522         3950 
 4547000   0.53115337   -9.7536489    455.52651 0.0083484808 0.0065453947         3943 
 4548000   0.51328995   -9.7591593    455.63879 0.0083487025 0.0065428378         3945 
 4549000    0.5215601   -9.7511101    455.83409 0.0083504449 0.0065402829         3949 
 4550000   0.51787587   -9.7542119    456.37444 0.0083585063 0.0065377313         3945 
 4551000   0.51204388   -9.7493703    456.14553 0.0083524781 0.0065351793         3955 
 4552000    0.5313889   -9.7425971    456.40696 0.0083554291 0.0065326281         3944 
 4553000   0.52676218   -9.7626789    455.87529 0.0083438628 0.0065300806         3940 
 4554000   0.53413938   -9.7480584    455.39066 0.0083331623 0.0065275327         3933 
 4555000    0.5273428   -9.7475695     455.9634 0.0083418112  0.006524987         3953 
 4556000   0.51242415   -9.7395713    455.99689 0.0083405927 0.0065224403         3936 
 4557000   0.52349302   -9.7576949    455.87905 0.0083366075 0.0065198965         3937 
 4558000   0.52953735   -9.7547456    456.32519 0.0083429354 0.0065173546         3943 
 4559000   0.52011892   -9.7438955    455.66025 0.0083289509 0.0065148131         3945 
 4560000   0.53060504   -9.7588147    455.15347 0.0083178631 0.0065122721         3950 
 4561000   0.52751847    -9.754877     455.5239 0.0083228075 0.0065097337         3951 
 4562000    0.5107665   -9.7376767    455.75994 0.0083252948 0.0065071953         3945 
 4563000   0.51710171   -9.7544893    456.01151 0.0083280647 0.0065046595         3952 
 4564000   0.52308472   -9.7535037    455.70744 0.0083206881 0.0065021238         3939 
 4565000   0.52881561   -9.7552223    456.27389 0.0083292057 0.0064995904         3954 
 4566000   0.51923619    -9.749236     456.4265 0.0083301668 0.0064970605         3948 
 4567000   0.52157175   -9.7652683     455.5921 0.0083131177 0.0064945293         3951 
 4568000   0.52659409   -9.7691332    456.18633 0.0083221382 0.0064919996         3943 
 4569000   0.52276277   -9.7562473    455.05508 0.0082996841 0.0064894695         3954 
 4570000   0.51389019   -9.7407668    455.49456 0.0083058818 0.0064869426         3951 
 4571000   0.51245279   -9.7518001      455.846 0.0083104719 0.0064844171         3938 
 4572000   0.52720626   -9.7584446    456.12895 0.0083138115 0.0064818917         3951 
 4573000   0.51600062   -9.7513174    455.74248 0.0083049508 0.0064793682         3936 
 4574000   0.52003931   -9.7556966    455.78593 0.0083039267 0.0064768471         3944 
 4575000   0.51564174   -9.7590498    456.54654 0.0083159661 0.0064743276         3955 
 4576000    0.5222416   -9.7807018    455.49139 0.0082949336 0.0064718071         3935 
 4577000   0.51121794   -9.7911318    455.70025 0.0082969239 0.0064692876         3948 
 4578000    0.5232892   -9.7453016    455.60462 0.0082933709 0.0064667695         3943 
 4579000   0.52827512   -9.7616747    455.75642 0.0082943224 0.0064642541         3950 
 4580000    0.5185315   -9.7389485    455.55447 0.0082888368   0.00646174         3940 
 4581000   0.52752974   -9.7562588    455.95327  0.008294282 0.0064592278         3956 
 4582000   0.51709601   -9.7657755    456.23345 0.0082975674 0.0064567177         3945 
 4583000   0.51200767   -9.7611801    455.72873 0.0082865796 0.0064542066         3941 
 4584000   0.52209349   -9.7738912    455.96234 0.0082890188 0.0064516985         3952 
 4585000   0.51735208   -9.7588744     455.8625 0.0082853963 0.0064491924         3948 
 4586000   0.52739746   -9.7529266    455.96176 0.0082853933 0.0064466869         3952 
 4587000   0.51973303   -9.7558867    455.95757 0.0082835108 0.0064441833         3949 
 4588000   0.50690869   -9.7667664    455.99567 0.0082823974 0.0064416815         3956 
 4589000   0.51306872   -9.7578208    456.69436 0.0082932802 0.0064391814         3943 
 4590000   0.51899193    -9.762396    455.50064 0.0082698011 0.0064366796         3958 
 4591000   0.52496887   -9.7541226    456.16656 0.0082800871 0.0064341815         3946 
 4592000   0.50953947   -9.7342536    456.09256  0.008276941 0.0064316845         3947 
 4593000   0.51300033   -9.7695354    455.49694 0.0082643324 0.0064291878         3937 
 4594000   0.52089625   -9.7629054    455.30895 0.0082591233 0.0064266916         3937 
 4595000   0.51871824   -9.7477039    456.37089 0.0082765848 0.0064241977         3949 
 4596000   0.52089288   -9.7539497    455.76972 0.0082638839 0.0064217058         3951 
 4597000   0.50719021   -9.7568528    455.26028 0.0082528512 0.0064192151         3962 
 4598000   0.51267433    -9.759256    455.38817 0.0082533742 0.0064167249         3953 
 4599000   0.51349792   -9.7805388    456.25748 0.0082673314  0.006414237         3944 
 4600000   0.52102782   -9.7423079    455.89274 0.0082589265 0.0064117497         3938 
 4601000   0.51378173   -9.7516378    455.73507 0.0082542758 0.0064092634         3941 
 4602000   0.51655034   -9.7685906    455.27755 0.0082441972 0.0064067779         3950 
 4603000   0.51203737   -9.7734644    455.25535 0.0082420042 0.0064042934         3945 
 4604000   0.51180345   -9.7708531     454.4479 0.0082255991   0.00640181         3950 
 4605000   0.52610814   -9.7872365    455.65816 0.0082457141 0.0063993279         3947 
 4606000   0.50434095   -9.7676071    455.51764 0.0082413815 0.0063968487         3951 
 4607000   0.52010079   -9.7643066    455.57927 0.0082407074 0.0063943707         3947 
 4608000   0.50632076   -9.7525649    455.49792 0.0082374479 0.0063918927         3947 
 4609000   0.51242507   -9.7666395    454.96333  0.008225995  0.006389417         3956 
 4610000   0.51484164   -9.7610217    455.41081 0.0082322995 0.0063869443         3942 
 4611000   0.51011738   -9.7729013    455.25673 0.0082277296 0.0063844718         3955 
 4612000   0.49994302   -9.7469931    455.04918 0.0082221954  0.006382001         3938 
 4613000   0.51208664   -9.7521899    455.70953 0.0082323422 0.0063795311         3941 
 4614000   0.51233563   -9.7656259    454.98863 0.0082175378 0.0063770624         3932 
 4615000   0.51237306   -9.7681824    455.63435 0.0082274169 0.0063745965         3963 
 4616000   0.50662438   -9.7475136     455.6486 0.0082258919  0.006372129         3949 
 4617000   0.50777497   -9.7715884    455.54273 0.0082221993 0.0063696652         3943 
 4618000   0.50884593   -9.7443815    455.41989 0.0082182022 0.0063672003         3948 
 4619000   0.53173943   -9.7539666    455.51777 0.0082181888 0.0063647379         3949 
 4620000   0.51815963   -9.7842737    455.59936 0.0082178817 0.0063622767         3956 
 4621000   0.50529657   -9.7636682    454.71276 0.0082001147 0.0063598163         3950 
 4622000   0.51342604   -9.7734987       455.65 0.0082152387 0.0063573586         3947 
 4623000   0.50361176   -9.7812447    455.76798 0.0082155884 0.0063549001         3949 
 4624000   0.50814363   -9.7780062    455.78354 0.0082140921 0.0063524434         3961 
 4625000   0.51971683   -9.7791953    455.58283 0.0082086997 0.0063499892         3958 
 4626000   0.50834932   -9.7509433    455.01651 0.0081967235 0.0063475345         3965 
 4627000   0.51397868   -9.7681289    455.73336 0.0082078626  0.006345083         3955 
 4628000   0.52074526   -9.7633612    456.17082  0.008213966 0.0063426344         3948 
 4629000   0.51856296   -9.7661126    455.60207 0.0082019527 0.0063401838         3958 
 4630000   0.51385625   -9.7497352    455.90757 0.0082056798 0.0063377365         3962 
 4631000   0.51354144   -9.7626216     455.6789 0.0081997931 0.0063352908         3940 
 4632000   0.50614458   -9.7584313    455.38514 0.0081927379  0.006332844         3946 
 4633000   0.50689327   -9.7732737    455.79381 0.0081983202 0.0063304012         3939 
 4634000   0.50247578   -9.7677074      455.488 0.0081910517 0.0063279597         3956 
 4635000    0.5181965   -9.7745766    455.41928 0.0081880489  0.006325519         3945 
 4636000   0.49975988   -9.7763999    455.43299 0.0081865292 0.0063230775         3943 
 4637000     0.517125   -9.7501884    455.31749 0.0081826879 0.0063206389         3949 
 4638000   0.50311431   -9.7815045    455.58378 0.0081857082 0.0063182019         3949 
 4639000   0.49457686   -9.7650003    455.39524 0.0081805568 0.0063157657         3955 
 4640000     0.498733   -9.7744565    454.89965 0.0081698931 0.0063133283         3954 
 4641000   0.50004275   -9.7694524    455.44349 0.0081778979 0.0063108929         3963 
 4642000   0.51155316   -9.7657554    455.83236 0.0081831173 0.0063084605         3950 
 4643000   0.50426581   -9.7717371    455.57274  0.008176695  0.006306029         3955 
 4644000   0.51145106    -9.764081    455.41534 0.0081721098 0.0063035991         3960 
 4645000   0.51056354   -9.7889392    456.00744 0.0081809731 0.0063011697         3950 
 4646000   0.51481342   -9.7838178     456.0568 0.0081800975 0.0062987414         3955 
 4647000   0.50357608   -9.7569393    455.10999 0.0081613584 0.0062963145         3956 
 4648000   0.51250893   -9.7667887    455.57229  0.008167891 0.0062938885         3954 
 4649000   0.51427233   -9.7914865    456.32343 0.0081795984 0.0062914664         3937 
 4650000   0.50395883   -9.7603228    455.61634 0.0081651674 0.0062890448         3947 
 4651000   0.51276933   -9.7697235    454.87059 0.0081500499 0.0062866235         3948 
 4652000   0.50493479   -9.7695099    455.59115 0.0081612058 0.0062842024         3962 
 4653000   0.50744008   -9.7607443    455.63611 0.0081602571 0.0062817836         3957 
 4654000    0.5113424   -9.7842343    454.72541 0.0081421968 0.0062793658         3939 
 4655000   0.50313933   -9.7623626    454.87585  0.008143141 0.0062769491         3942 
 4656000   0.50237857   -9.7628862    455.15621 0.0081464097 0.0062745347         3943 
 4657000   0.51525543   -9.7599426    455.50033 0.0081508183 0.0062721226         3952 
 4658000   0.50647422   -9.7731395     454.9244 0.0081387648 0.0062697086         3956 
 4659000   0.50988162   -9.7926153    455.48794 0.0081470978 0.0062672963         3956 
 4660000   0.51531226   -9.7731859    454.97743 0.0081362202 0.0062648866         3953 
 4661000   0.50566304   -9.7803482    455.43841 0.0081427164 0.0062624768         3958 
 4662000    0.5145279   -9.7819384    454.87448 0.0081308895 0.0062600686         3957 
 4663000   0.51420345   -9.7773002    455.23941 0.0081356675  0.006257662         3964 
 4664000   0.50238225    -9.776725    455.37295 0.0081363092 0.0062552566         3948 
 4665000   0.51186805   -9.7849087    455.27912 0.0081328889 0.0062528534         3954 
 4666000   0.50686025   -9.7803929    454.53527  0.008117861 0.0062504518         3956 
 4667000   0.49933678    -9.773072    454.99892 0.0081244004 0.0062480504         3948 
 4668000   0.50998971   -9.7821975    455.09378 0.0081243535 0.0062456507         3957 
 4669000   0.50700629   -9.7900381    455.16612 0.0081239044 0.0062432532         3955 
 4670000    0.4874052   -9.7702817    454.95664 0.0081184269 0.0062408542         3948 
 4671000   0.49629708   -9.7622192     454.6483 0.0081111879 0.0062384582         3952 
 4672000   0.49253687   -9.7960908    455.51098 0.0081248392  0.006236062         3968 
 4673000   0.51203551   -9.7791038    454.99035 0.0081138161 0.0062336677         3950 
 4674000   0.50860075   -9.7876267    455.71035 0.0081249171 0.0062312767         3946 
 4675000   0.51669277   -9.7796641    455.37926 0.0081172774 0.0062288856         3961 
 4676000    0.4994964   -9.7886054    454.44981 0.0080989773 0.0062264947         3962 
 4677000   0.49884528   -9.7805322    455.76052 0.0081205994 0.0062241063         3963 
 4678000   0.50921061    -9.782767     455.0038 0.0081053833 0.0062217177         3963 
 4679000   0.48994947   -9.7747409    455.34292 0.0081096908  0.006219332         3962 
 4680000   0.50613766   -9.7991696    454.94549 0.0081008813 0.0062169456         3965 
 4681000    0.5016453   -9.7654716    455.91277 0.0081163707 0.0062145616         3952 
 4682000   0.49536861   -9.7627824    455.15064 0.0081010722 0.0062121785         3940 
 4683000    0.5067072   -9.7750039    455.50329 0.0081056177 0.0062097982         3936 
 4684000   0.50403599   -9.7689394    455.19289 0.0080983648 0.0062074176         3939 
 4685000   0.51022399   -9.7729083    455.02531 0.0080936555 0.0062050386         3937 
 4686000   0.51225539   -9.7863883     455.2455 0.0080958439 0.0062026599         3951 
 4687000   0.50868706   -9.7800629    454.79734 0.0080861485 0.0062002828         3934 
 4688000   0.49234053   -9.7627852    454.96607  0.008087423 0.0061979071         3960 
 4689000   0.50825038   -9.7812191    455.25667 0.0080908629 0.0061955329         3949 
 4690000   0.50504285    -9.776186    455.10228 0.0080863945 0.0061931607         3951 
 4691000   0.49494993   -9.7713858    454.77425 0.0080788434 0.0061907887         3954 
 4692000   0.50300973   -9.7820539    455.06454 0.0080822773 0.0061884171         3940 
 4693000   0.50505305   -9.7851785    454.28747 0.0080667566 0.0061860471         3949 
 4694000   0.49835058   -9.7757475     455.4391 0.0080854832 0.0061836778         3942 
 4695000   0.50582253   -9.7729013    455.45466 0.0080840372 0.0061813102         3949 
 4696000   0.50137793   -9.7936929    454.59562 0.0080670716 0.0061789446         3935 
 4697000   0.49614972   -9.7893099    455.40481 0.0080797106 0.0061765802         3951 
 4698000   0.49512791   -9.7937822    454.43488 0.0080607862 0.0061742172         3949 
 4699000   0.50221463   -9.7917031    455.44558 0.0080769948 0.0061718551         3958 
 4700000   0.49199983   -9.7770269    454.43391 0.0080573389 0.0061694924         3942 
 4701000   0.50557156   -9.7873064    455.13986  0.008068139 0.0061671327         3953 
 4702000   0.49985565   -9.7959751    455.41568 0.0080713115 0.0061647747         3962 
 4703000   0.50136541   -9.7703593    455.26291 0.0080668884 0.0061624177         3963 
 4704000   0.49233273   -9.7656808    454.52513 0.0080521034 0.0061600604         3938 
 4705000   0.50212158     -9.79209    455.16663 0.0080617539 0.0061577058         3950 
 4706000   0.50332535   -9.7830254    454.81431 0.0080538021 0.0061553542         3953 
 4707000   0.49586208   -9.7793201    455.75819 0.0080688015 0.0061530017         3950 
 4708000   0.49590061   -9.7851095    455.19284 0.0080570808 0.0061506517         3961 
 4709000   0.49525899   -9.7839316    454.94794  0.008051036 0.0061483018         3951 
 4710000   0.49949614   -9.7916437    455.18297  0.008053485 0.0061459537         3956 
 4711000   0.49616921   -9.7822745    455.11485 0.0080505705 0.0061436062         3947 
 4712000   0.50141102   -9.7751178    454.97335 0.0080463594 0.0061412609         3947 
 4713000   0.51133318   -9.7943574    455.87242 0.0080605493 0.0061389165         3956 
 4714000   0.50562059   -9.7710325    455.11173 0.0080453919 0.0061365735         3943 
 4715000   0.49254985   -9.7818943    455.38971 0.0080485986 0.0061342313         3961 
 4716000   0.49360018   -9.7906051     455.2705 0.0080447855 0.0061318905         3955 
 4717000   0.50396458   -9.7952269    454.85956   0.00803582  0.006129549         3964 
 4718000   0.49548542   -9.7833698    454.90001 0.0080348313 0.0061272098         3959 
 4719000   0.48862619   -9.7913341    455.50348 0.0080437855  0.006124873         3966 
 4720000   0.48863446   -9.7845103    454.93236 0.0080319978 0.0061225383         3948 
 4721000   0.49590346   -9.7843649    454.56351 0.0080237857 0.0061202029         3964 
 4722000   0.50566733   -9.7849103    455.70389 0.0080422118  0.006117869         3964 
 4723000   0.49751609   -9.7915183    454.85513 0.0080255334 0.0061155363         3957 
 4724000    0.4908224   -9.7956632    454.94987 0.0080255058 0.0061132023         3942 
 4725000   0.49956905    -9.778575    455.16537  0.008027608 0.0061108718         3960 
 4726000     0.494288   -9.7944615      454.476 0.0080137538 0.0061085417         3953 
 4727000   0.49667403   -9.7879262    454.59234 0.0080141094 0.0061062136         3949 
 4728000   0.49537508   -9.8137072    455.37236 0.0080261626 0.0061038866         3958 
 4729000   0.50508277   -9.7633939    455.12413 0.0080200912 0.0061015607         3948 
 4730000   0.50222671    -9.784517     454.7238 0.0080113426 0.0060992382         3955 
 4731000   0.49107288   -9.7846422    454.32625 0.0080026465 0.0060969148         3948 
 4732000   0.48991301   -9.7928457    454.80673 0.0080094168 0.0060945927         3949 
 4733000   0.49912904   -9.7746792    455.02578 0.0080115814 0.0060922718         3946 
 4734000   0.49295603   -9.7791286     454.8549 0.0080068811 0.0060899513         3962 
 4735000   0.49219604    -9.801006    454.53825 0.0079996172  0.006087633         3947 
 4736000   0.49436899    -9.802456     455.0947 0.0080077192 0.0060853159         3956 
 4737000    0.4858731   -9.7860544     455.1562 0.0080071108  0.006082999         3952 
 4738000   0.48824361   -9.8042449    455.41982 0.0080100573 0.0060806831         3962 
 4739000   0.49612725   -9.7958709    455.38718 0.0080077931 0.0060783676         3952 
 4740000   0.49869976   -9.7785004    455.09805 0.0080010205 0.0060760544         3946 
 4741000   0.49599684   -9.7855239    454.99087 0.0079974491 0.0060737425         3938 
 4742000   0.50158568    -9.793813    455.24911 0.0080003007 0.0060714316         3950 
 4743000   0.48368373   -9.7909135    454.87211 0.0079919901 0.0060691231         3943 
 4744000   0.49618008    -9.799482    455.66018 0.0080041487 0.0060668158         3937 
 4745000   0.50465974   -9.7938041    455.73542 0.0080037833 0.0060645095         3944 
 4746000   0.48742657   -9.7924056     454.5193 0.0079807434 0.0060622038         3937 
 4747000   0.49347644   -9.8067129    454.73112 0.0079827807 0.0060599014         3962 
 4748000   0.48785511   -9.7909307    455.11983 0.0079879218 0.0060575979         3961 
 4749000   0.49966054   -9.7937194    454.83646 0.0079812673 0.0060552956         3950 
 4750000    0.4962193   -9.7974988    455.78339 0.0079961998 0.0060529935         3939 
 4751000     0.486179   -9.7948549    454.04302 0.0079639904 0.0060506942         3935 
 4752000   0.49086612   -9.7995658    455.00785 0.0079792342 0.0060483956         3946 
 4753000   0.49544092   -9.7675056    454.66179  0.007971488 0.0060460991         3957 
 4754000   0.48930371   -9.7867207    455.10437 0.0079775692 0.0060438032         3959 
 4755000   0.50524629   -9.7811121    454.67433 0.0079683548 0.0060415079         3951 
 4756000   0.49403316   -9.7955853    454.69855 0.0079671039 0.0060392136         3964 
 4757000   0.49977628   -9.8061703    454.52854 0.0079624508 0.0060369231         3951 
 4758000   0.49007674   -9.7936345    454.90718  0.007967409 0.0060346313         3932 
 4759000   0.48546836   -9.7994602    454.59821 0.0079603245 0.0060323419         3940 
 4760000   0.49650998   -9.7963977    454.49076  0.007956771 0.0060300528         3962 
 4761000   0.48838427   -9.8062583    454.78066  0.007960174 0.0060277644         3958 
 4762000   0.48327736   -9.7921758    454.59883 0.0079553203 0.0060254784         3939 
 4763000   0.49212145   -9.7863187    454.88849  0.007958718 0.0060231927         3945 
 4764000   0.49384184   -9.7947532    454.82842 0.0079559967  0.006020909         3940 
 4765000    0.4939314   -9.8110319    454.98581 0.0079570796 0.0060186252         3946 
 4766000   0.49968536   -9.7892203    455.12003 0.0079577568 0.0060163455         3955 
 4767000   0.48466728   -9.7984253    454.87153 0.0079517433 0.0060140647         3949 
 4768000   0.48187444   -9.7827773    454.60595  0.007945434 0.0060117847         3961 
 4769000   0.49508307   -9.8028174    454.81633  0.007947444 0.0060095066         3935 
 4770000   0.48198182   -9.8084735    454.41574 0.0079387795 0.0060072301         3951 
 4771000   0.49337918   -9.7944603     453.8943 0.0079280078 0.0060049521         3952 
 4772000   0.46558467   -9.7945816    454.42404 0.0079355973 0.0060026783         3959 
 4773000   0.48198317   -9.8018009    454.82487 0.0079409329 0.0060004032         3947 
 4774000   0.50272193    -9.800907    454.45344 0.0079327859 0.0059981307         3945 
 4775000    0.4941179    -9.792304    454.54755  0.007932767 0.0059958604         3961 
 4776000   0.48802988   -9.8066364    454.36944 0.0079279984 0.0059935908         3965 
 4777000   0.48225059   -9.7894785    454.59634 0.0079302969 0.0059913219         3966 
 4778000   0.50224365   -9.7994476    454.88356 0.0079336465  0.005989054         3944 
 4779000   0.48299938   -9.7945384    454.67515 0.0079283523 0.0059867874         3947 
 4780000   0.48524988   -9.7943101    454.97339 0.0079318932 0.0059845215         3954 
 4781000   0.48380369   -9.7824326    454.43687 0.0079208826 0.0059822576         3945 
 4782000   0.49427877   -9.8000888    454.37021 0.0079180645 0.0059799928         3957 
 4783000   0.48419988    -9.802834    454.85415 0.0079248406 0.0059777293         3962 
 4784000   0.49184918   -9.8004861    454.40408 0.0079153442 0.0059754686         3958 
 4785000    0.4889884   -9.7967577    454.69386 0.0079187367 0.0059732067         3963 
 4786000   0.48967038    -9.792102    454.18973 0.0079083043 0.0059709468         3967 
 4787000   0.47867661   -9.7942517    454.60915 0.0079139535 0.0059686903         3957 
 4788000   0.47437038   -9.7970928    454.04225 0.0079024341 0.0059664334         3944 
 4789000   0.48323431     -9.81238    453.94591 0.0078991075 0.0059641787         3949 
 4790000   0.49171278   -9.7986018    454.10685 0.0079002583 0.0059619247         3957 
 4791000   0.49378384   -9.8024285    454.87646 0.0079119957 0.0059596718         3950 
 4792000   0.48550902    -9.798158    454.49085 0.0079036389 0.0059574203         3953 
 4793000   0.47606389   -9.8044422    454.37672 0.0079000056 0.0059551702         3941 
 4794000   0.47724634   -9.8129393    453.99034 0.0078916412 0.0059529195         3957 
 4795000   0.48243982   -9.8041646     454.5585 0.0078998696 0.0059506708         3946 
 4796000    0.4811636    -9.820085    453.82583 0.0078854919 0.0059484244         3962 
 4797000   0.48396012   -9.8280924    454.53049 0.0078960893 0.0059461781         3960 
 4798000   0.48689085   -9.8066413    455.41201 0.0079097542 0.0059439323         3949 
 4799000   0.48599069    -9.810482    454.54332 0.0078930215 0.0059416888         3950 
 4800000   0.47965724   -9.8233714    454.58003 0.0078920143 0.0059394469         3961 
 4801000   0.48627287   -9.8168215    454.66117 0.0078917789 0.0059372062         3954 
 4802000   0.47912483   -9.8242536    455.00303 0.0078960681  0.005934966         3965 
 4803000    0.4846131   -9.7987677    454.68247 0.0078888623 0.0059327276         3956 
 4804000   0.47981351   -9.8131212    455.44112 0.0079003803 0.0059304903         3959 
 4805000   0.47669168   -9.8115735    454.00589 0.0078738448 0.0059282535         3951 
 4806000    0.4850182   -9.8056667    454.72266 0.0078846347 0.0059260169         3954 
 4807000   0.48532028   -9.8136284    454.87814   0.00788569 0.0059237836         3961 
 4808000   0.48621914   -9.8245085    454.46883 0.0078769557 0.0059215503         3956 
 4809000   0.47656584   -9.8125784    454.88485 0.0078825267 0.0059193184         3958 
 4810000   0.48790306   -9.8046685     454.3316 0.0078713028 0.0059170879         3955 
 4811000   0.48914111   -9.8128883    455.25301 0.0078856269 0.0059148591         3947 
 4812000    0.4837981   -9.8136694    454.44929 0.0078700694 0.0059126299         3951 
 4813000   0.47651318    -9.812454    454.56563 0.0078704487 0.0059104016         3950 
 4814000   0.47160623   -9.8211725    454.47814 0.0078672992 0.0059081741         3958 
 4815000   0.48802942   -9.8093755    454.35181 0.0078634789 0.0059059491         3954 
 4816000   0.47904455   -9.8013024    454.20054 0.0078592285 0.0059037258         3958 
 4817000   0.47264059   -9.8223607    454.37827 0.0078606718 0.0059015024         3953 
 4818000   0.47639744   -9.8128108    454.77995 0.0078659877 0.0058992793         3940 
 4819000   0.48188968   -9.8107118    454.17483 0.0078538913 0.0058970594         3960 
 4820000   0.47849222   -9.8063721     454.4078 0.0078562897 0.0058948398         3949 
 4821000   0.47076611   -9.8067119    454.15743 0.0078503324 0.0058926213         3959 
 4822000   0.48463614   -9.7959376    454.72943 0.0078585897 0.0058904046         3949 
 4823000   0.47966497    -9.803901    454.66408 0.0078558311 0.0058881886         3942 
 4824000   0.46870122   -9.8084041    454.27024 0.0078473991 0.0058859729         3958 
 4825000   0.47905162    -9.800425    454.42321 0.0078484148 0.0058837589         3943 
 4826000   0.48293807   -9.7906345    455.44674 0.0078644624 0.0058815466         3948 
 4827000    0.4820744   -9.8231332     454.5802  0.007847873 0.0058793359         3954 
 4828000   0.47976571   -9.7998584    454.64999 0.0078474522 0.0058771253         3951 
 4829000   0.48804083   -9.8004991     454.1781 0.0078376837  0.005874916         3949 
 4830000   0.47223286   -9.8093259     454.6292  0.007843844 0.0058727077         3967 
 4831000   0.48259269   -9.8142802    454.20352 0.0078348776 0.0058705002         3943 
 4832000   0.47387882     -9.81839    454.38745 0.0078364281 0.0058682945         3954 
 4833000   0.48002439   -9.8208941    454.59927  0.007838459 0.0058660902         3944 
 4834000   0.47261447   -9.8147329    454.49252 0.0078349972 0.0058638885         3935 
 4835000   0.46876807   -9.8146401    454.47584 0.0078330893 0.0058616864         3948 
 4836000   0.47394266   -9.8354234    454.20368 0.0078267797  0.005859484         3949 
 4837000   0.47121316   -9.8116611    454.45543 0.0078294988 0.0058572841         3945 
 4838000    0.4746103   -9.8240745    454.15684 0.0078227374  0.005855085         3966 
 4839000   0.46789365   -9.8099544    454.68615 0.0078302361 0.0058528857         3954 
 4840000   0.47400409   -9.8113287    454.59223 0.0078270012  0.005850687         3943 
 4841000   0.47406955   -9.8181162    455.20796 0.0078359836 0.0058484935         3948 
 4842000   0.49001724   -9.8271625    454.22312 0.0078174157 0.0058462981         3956 
 4843000   0.47597864   -9.8359965    454.58096 0.0078219588 0.0058441047         3955 
 4844000   0.47942203    -9.820609    454.66109 0.0078217226 0.0058419119         3951 
 4845000   0.48905522   -9.8169243    454.50897 0.0078174918 0.0058397198         3954 
 4846000   0.47645248   -9.8046807    453.99903 0.0078071094 0.0058375293         3952 
 4847000   0.47286563   -9.8161389    454.32097 0.0078110338   0.00583534         3956 
 4848000   0.47716581   -9.8207086    454.75042 0.0078168045 0.0058331535         3966 
 4849000   0.47172359   -9.8136345    453.70629 0.0077972484 0.0058309669         3963 
 4850000    0.4785112   -9.8185716     454.0974 0.0078023609 0.0058287819         3961 
 4851000   0.45762885   -9.8172618    454.88642 0.0078143066 0.0058265966         3946 
 4852000   0.47378333   -9.8139989    454.90434 0.0078130038  0.005824411         3951 
 4853000   0.46096784   -9.8231154      454.542  0.007805172 0.0058222276         3945 
 4854000   0.47682311   -9.8042018    454.37745 0.0078007391 0.0058200457         3950 
 4855000   0.47765501   -9.8175742    454.78937 0.0078062026  0.005817866         3936 
 4856000   0.47756154    -9.825347    454.25318 0.0077953937 0.0058156876         3950 
 4857000   0.47183801   -9.8297943    454.23232 0.0077934308 0.0058135107         3945 
 4858000    0.4774504   -9.8174263    454.10003 0.0077895573 0.0058113323         3948 
 4859000    0.4751246   -9.8145824    454.28774 0.0077911734 0.0058091561         3946 
 4860000   0.47154994   -9.8318379    454.19768  0.007788026 0.0058069809         3945 
 4861000   0.45727899    -9.819255     454.4464 0.0077906878 0.0058048075         3959 
 4862000   0.46854157   -9.8217268    454.04101 0.0077821372 0.0058026338         3943 
 4863000    0.4818011   -9.8101136    454.46217 0.0077877539  0.005800463         3948 
 4864000    0.4740713   -9.8118733    454.60387 0.0077885806 0.0057982932         3948 
 4865000   0.47870093   -9.8264624    454.17174 0.0077795775 0.0057961239         3953 
 4866000   0.46704833   -9.8305297    454.14178 0.0077774658  0.005793955         3953 
 4867000   0.47837595   -9.8311326    455.03986 0.0077912448 0.0057917865         3947 
 4868000   0.47518839   -9.8293309    454.31038 0.0077771566 0.0057896207         3955 
 4869000   0.46894463    -9.820732     454.1713 0.0077731789 0.0057874567         3958 
 4870000   0.48211187   -9.8161179    454.11321 0.0077705888 0.0057852931         3962 
 4871000   0.46953215   -9.8241365    454.44153 0.0077746105 0.0057831297         3950 
 4872000   0.47718138    -9.833102    453.97297 0.0077650002 0.0057809691         3948 
 4873000   0.46296802   -9.8317861     453.9897 0.0077636929 0.0057788081         3957 
 4874000   0.47022535   -9.8249947    454.52016 0.0077711695 0.0057766488         3954 
 4875000   0.47829228   -9.8330815    454.62841 0.0077714258 0.0057744907         3946 
 4876000   0.46719397   -9.8252716    454.11126 0.0077609936 0.0057723329         3956 
 4877000      0.46991   -9.8238264    454.55938 0.0077670594 0.0057701772         3957 
 4878000   0.48340839   -9.8373835      453.834  0.007753075 0.0057680231         3959 
 4879000   0.47034209   -9.8255687    454.15793 0.0077570187 0.0057658693         3952 
 4880000   0.46801654   -9.8329882    454.16736 0.0077555901 0.0057637176         3950 
 4881000   0.45982584   -9.8192011    453.92815 0.0077499173 0.0057615654         3953 
 4882000   0.47497632   -9.8054329    453.57893 0.0077423687 0.0057594146         3949 
 4883000   0.47439481   -9.8260767      454.487 0.0077562803 0.0057572644         3951 
 4884000   0.47155519   -9.8103406     454.1948 0.0077497065  0.005755116         3949 
 4885000    0.4720432   -9.8231831    454.40424 0.0077516929 0.0057529683         3953 
 4886000    0.4734585   -9.8226831    453.80897 0.0077399539 0.0057508215         3959 
 4887000   0.46454759   -9.8235752    454.21244 0.0077452499 0.0057486757         3955 
 4888000   0.47136605    -9.822651    454.04424 0.0077407979 0.0057465327         3945 
 4889000   0.46311871   -9.8228663    453.85623 0.0077360099 0.0057443906         3946 
 4890000   0.47855651   -9.8373971    454.39604 0.0077436272 0.0057422474         3940 
 4891000   0.46974048   -9.8327261    454.07117 0.0077365087 0.0057401065         3952 
 4892000   0.47293639   -9.8166086     453.8798 0.0077316674 0.0057379659         3945 
 4893000   0.47568138   -9.8366411    454.24431 0.0077362953 0.0057358282         3957 
 4894000   0.46309586   -9.8326726    453.84511  0.007727917 0.0057336895         3959 
 4895000   0.47786546   -9.8299746    453.69822 0.0077238376 0.0057315543         3949 
 4896000   0.47153388   -9.8285115    454.12716 0.0077295609 0.0057294192         3968 
 4897000   0.47088555   -9.8186884      454.175 0.0077287965 0.0057272841         3954 
 4898000   0.47059144    -9.831558    454.25888 0.0077286456 0.0057251499         3941 
 4899000   0.47190999   -9.8193055    453.85854 0.0077202582  0.005723016         3954 
 4900000    0.4660109   -9.8226951    455.30923 0.0077433542 0.0057208853         3954 
 4901000   0.47177753   -9.8226747    454.12175 0.0077215832 0.0057187552         3959 
 4902000   0.46425919   -9.8358048    454.75617  0.007730793 0.0057166257         3946 
 4903000   0.45874772   -9.8275885    454.07033 0.0077175595 0.0057144969         3951 
 4904000   0.46256186   -9.8200065    453.60097   0.00770801 0.0057123695         3957 
 4905000   0.46105355   -9.8201358    454.02939  0.007713717 0.0057102437         3962 
 4906000   0.46325624   -9.8354231    454.03798 0.0077122907 0.0057081186         3953 
 4907000   0.46424914    -9.827009    453.00568 0.0076931879 0.0057059953         3950 
 4908000   0.46669915   -9.8240714    454.21856 0.0077122141 0.0057038729         3952 
 4909000   0.46530765   -9.8388487    454.56317  0.007716493  0.005701752         3954 
 4910000   0.47662078   -9.8166262    453.79802 0.0077019352 0.0056996326         3961 
 4911000   0.46813586   -9.8298375    454.40605 0.0077106844  0.005697514         3950 
 4912000   0.45590862   -9.8390322    453.87982  0.007700187  0.005695395         3958 
 4913000   0.46258247   -9.8357692    454.10039 0.0077023609 0.0056932775         3963 
 4914000   0.46751636   -9.8435358    453.76929 0.0076951785 0.0056911612         3959 
 4915000   0.47180017   -9.8422002    453.49711 0.0076889982 0.0056890456         3942 
 4916000   0.46049134    -9.821369    454.05264  0.007696851 0.0056869319         3955 
 4917000   0.46057096   -9.8171616    454.45593 0.0077021208 0.0056848188         3959 
 4918000   0.45525206   -9.8265111     454.4827 0.0077010082 0.0056827077         3949 
 4919000   0.46782386   -9.8352743    454.39677 0.0076979869 0.0056805948         3961 
 4920000   0.47077197   -9.8492677    454.17945 0.0076927413 0.0056784849         3952 
 4921000   0.46572967   -9.8350419    453.94486 0.0076872055 0.0056763759         3966 
 4922000     0.468642   -9.8347826    454.57251 0.0076962703 0.0056742674         3952 
 4923000   0.46161744   -9.8227031    453.77495 0.0076812063 0.0056721594         3945 
 4924000   0.46465443   -9.8394412    454.63422 0.0076941886 0.0056700556         3959 
 4925000     0.461439   -9.8342261    453.76626 0.0076779401 0.0056679523         3949 
 4926000    0.4518423   -9.8328011    453.67407 0.0076748219 0.0056658503         3953 
 4927000   0.46868322   -9.8416119    454.37005 0.0076850357 0.0056637486         3946 
 4928000    0.4681213   -9.8514283    453.79786 0.0076738005 0.0056616475         3958 
 4929000   0.46276524   -9.8344252    453.61955  0.007669229 0.0056595483         3955 
 4930000   0.45639348   -9.8342599    453.99373 0.0076739981 0.0056574506         3957 
 4931000   0.46243412   -9.8334013    453.34727 0.0076615168 0.0056553529         3964 
 4932000   0.45343482   -9.8397291    453.86272 0.0076686727 0.0056532565         3957 
 4933000   0.46181737   -9.8524104    453.91143 0.0076679409   0.00565116         3955 
 4934000   0.45909957   -9.8354583    454.29796 0.0076729152 0.0056490642         3950 
 4935000   0.46501555   -9.8233653    454.16092 0.0076690463 0.0056469709         3959 
 4936000   0.45756211   -9.8485573    453.46661 0.0076557707 0.0056448769         3963 
 4937000   0.46602069   -9.8425193    454.12841 0.0076653908 0.0056427846         3958 
 4938000   0.46310021   -9.8353557    453.72307  0.007656998 0.0056406939         3970 
 4939000   0.45797158   -9.8301079    453.95875 0.0076594242 0.0056386049         3957 
 4940000    0.4500306   -9.8321476    453.51643 0.0076504122 0.0056365162         3955 
 4941000   0.46965527   -9.8303152    453.53838  0.007649234 0.0056344291         3958 
 4942000    0.4615028   -9.8328113    454.34825 0.0076613423  0.005632342         3946 
 4943000   0.45594335   -9.8419255    453.59015 0.0076470118 0.0056302567         3966 
 4944000   0.45396818   -9.8343235    453.82544 0.0076494309 0.0056281725         3956 
 4945000   0.46592941   -9.8433097    452.93985 0.0076329601   0.00562609         3961 
 4946000    0.4645427   -9.8572323    454.28745  0.007654122 0.0056240085         3956 
 4947000   0.46232505   -9.8376513    453.67229 0.0076422123 0.0056219274         3959 
 4948000    0.4626389   -9.8329653    454.19421 0.0076494579 0.0056198468         3946 
 4949000   0.45200381   -9.8329361    454.26716 0.0076491406 0.0056177675         3953 
 4950000   0.46016021   -9.8537789    453.67981 0.0076377073 0.0056156881         3950 
 4951000    0.4593468   -9.8514956    453.67483 0.0076360807 0.0056136103         3947 
 4952000   0.46003215   -9.8429926    453.48487 0.0076313421 0.0056115336         3953 
 4953000   0.45116807   -9.8317801    453.82225 0.0076354776 0.0056094572         3958 
 4954000   0.45736127   -9.8332328    454.32162 0.0076423364  0.005607383         3957 
 4955000   0.45547583   -9.8307703    454.05755 0.0076363529 0.0056053106         3951 
 4956000   0.45926662   -9.8365017    454.10727 0.0076356482 0.0056032389         3959 
 4957000   0.45830673   -9.8334023    453.62014 0.0076259185 0.0056011673         3951 
 4958000   0.45769275   -9.8479203    453.71695 0.0076260077 0.0055990966         3949 
 4959000   0.45215498   -9.8446054    453.78901 0.0076256808 0.0055970281         3962 
 4960000   0.46601121   -9.8404284    453.83886 0.0076249809 0.0055949605         3936 
 4961000   0.45816393    -9.838874    453.75337 0.0076220077 0.0055928936         3947 
 4962000   0.45372834   -9.8403227    453.91612  0.007623205 0.0055908262         3951 
 4963000   0.46058145   -9.8321865    453.97334 0.0076226298 0.0055887615         3956 
 4964000    0.4658326   -9.8367554     453.4037 0.0076115314 0.0055866991         3956 
 4965000   0.44881579   -9.8404045    454.35853 0.0076260243 0.0055846372         3952 
 4966000   0.45693515   -9.8498751    453.70561 0.0076135322 0.0055825744         3952 
 4967000   0.46379139   -9.8457478    453.48632 0.0076083202 0.0055805131         3943 
 4968000   0.48300962   -9.8395283    453.61968 0.0076090258 0.0055784543         3962 
 4969000   0.45272046   -9.8489074     453.5035 0.0076055461 0.0055763968         3956 
 4970000   0.45175673   -9.8445283    454.05431 0.0076132513 0.0055743392         3953 
 4971000   0.45675128   -9.8600488    453.90164 0.0076091604 0.0055722823         3972 
 4972000   0.45779423   -9.8457561    453.65612 0.0076035151 0.0055702265         3964 
 4973000   0.46041611   -9.8572907    453.51094 0.0075995532 0.0055681728         3959 
 4974000   0.45070093   -9.8517554    453.46124 0.0075971928 0.0055661185         3951 
 4975000   0.45105955   -9.8530569    453.67097 0.0075991788 0.0055640663         3956 
 4976000   0.45042362   -9.8434612    454.17055  0.007606018 0.0055620149         3959 
 4977000    0.4452496   -9.8324316    454.14742 0.0076041026 0.0055599642         3952 
 4978000   0.45297584   -9.8481582    453.69255 0.0075949603 0.0055579145         3956 
 4979000   0.45012866   -9.8353442    454.24335 0.0076026536 0.0055558672         3961 
 4980000    0.4519909   -9.8512847    454.13923 0.0075993847 0.0055538185         3963 
 4981000   0.46087346    -9.853765    453.59761 0.0075887975 0.0055517715         3953 
 4982000   0.45329822   -9.8399701    453.74597 0.0075897559 0.0055497249         3950 
 4983000   0.44968162   -9.8461788    453.93047 0.0075913183 0.0055476811         3952 
 4984000   0.45757358   -9.8474053    453.50972 0.0075827602 0.0055456379         3952 
 4985000   0.46141324    -9.857496    453.91583 0.0075880279 0.0055435959         3946 
 4986000   0.46463039   -9.8418807     453.3111  0.007576399 0.0055415553         3930 
 4987000   0.45115569   -9.8604179    453.00994 0.0075698473 0.0055395156         3964 
 4988000   0.45032982   -9.8345493    453.55527 0.0075774403 0.0055374762         3949 
 4989000   0.44827537   -9.8555394    453.67933 0.0075779938 0.0055354387         3954 
 4990000   0.45438203   -9.8495788    453.66549  0.007576244 0.0055334014         3953 
 4991000   0.45169792   -9.8493612    453.88812 0.0075784431 0.0055313646         3959 
 4992000   0.45052137   -9.8453224    453.53181 0.0075709771 0.0055293297         3957 
 4993000   0.45481477   -9.8535346     453.4275 0.0075677198  0.005527295         3951 
 4994000   0.44777793   -9.8468032    453.65512 0.0075700027 0.0055252619         3972 
 4995000   0.46140034   -9.8421169    453.58271 0.0075672791 0.0055232297         3961 
 4996000   0.45975467   -9.8467305    453.63178 0.0075665829 0.0055211991         3962 
 4997000   0.45020518   -9.8538458    453.54246 0.0075635791 0.0055191692         3967 
 4998000   0.45247142   -9.8504724    453.79056 0.0075662024 0.0055171393         3966 
 4999000   0.45901189   -9.8546611    453.08827 0.0075529818 0.0055151109         3958 
 5000000   0.44845458   -9.8475909    453.67368 0.0075612281 0.0055130834         3969 
 5001000   0.45025469   -9.8301889    453.94591 0.0075642523 0.0055110579         3950 
 5002000   0.45835381    -9.857632    454.30952 0.0075687978 0.0055090329         3959 
 5003000   0.45215419   -9.8467399    453.96368 0.0075615244 0.0055070092         3946 
 5004000   0.45423627   -9.8560188    453.55878 0.0075532704 0.0055049847         3945 
 5005000    0.4509801   -9.8600459    453.75817 0.0075550811 0.0055029629         3956 
 5006000   0.45483433   -9.8544579    453.77484 0.0075538493 0.0055009406         3963 
 5007000   0.44761735   -9.8513617      453.345 0.0075451867 0.0054989211         3956 
 5008000   0.44151647   -9.8574102    454.01458 0.0075548219 0.0054969029         3960 
 5009000   0.45347709   -9.8495983    453.65154 0.0075472739  0.005494885         3960 
 5010000   0.46154768    -9.853029    453.86983 0.0075493983 0.0054928691         3960 
 5011000   0.45130892   -9.8387621    453.93405 0.0075489597 0.0054908548         3962 
 5012000    0.4628236   -9.8578701    453.76593 0.0075446583 0.0054888404         3957 
Loop time of 13161.7 on 48 procs for 5000000 steps with 4000 atoms

Performance: 65645.026 tau/day, 379.890 timesteps/s
99.4% CPU use with 48 MPI tasks x no OpenMP threads

MPI task timing breakdown:
Section |  min time  |  avg time  |  max time  |%varavg| %total
---------------------------------------------------------------
Pair    | 962.26     | 1075.3     | 1168.1     | 165.9 |  8.17
Neigh   | 91.289     | 95.488     | 98.963     |  17.8 |  0.73
Comm    | 832.45     | 941.4      | 1084.4     | 192.7 |  7.15
Output  | 18.469     | 18.474     | 18.575     |   0.3 |  0.14
Modify  | 10833      | 10906      | 10964      |  28.7 | 82.86
Other   |            | 124.9      |            |       |  0.95

Nlocal:        83.3333 ave          89 max          78 min
Histogram: 4 2 7 5 7 6 7 5 1 4
Nghost:        2423.50 ave        2442 max        2401 min
Histogram: 3 0 2 8 4 12 6 6 4 3
Neighs:        16766.4 ave       18704 max       14056 min
Histogram: 2 3 2 8 5 3 6 6 6 7
FullNghs:      33532.1 ave       35920 max       29979 min
Histogram: 2 1 3 4 5 6 10 7 5 5

Total # of neighbors = 1609539
Ave neighs/atom = 402.38475
Neighbor list builds = 265941
Dangerous builds = 0

#clear
#
#next RN
#
#jump SELF
Total wall time: 3:39:25
