
units lj                  # Use reduced LJ style units
atom_style atomic         # Uncharged point particles
atom_modify map hash      # Needed for indexing of clusters etc
                          # Used to be able to find where atoms are in relation to each other.

lattice fcc 1.0 spacing 1 1 1
Lattice spacing in x,y,z = 1.5874011 1.5874011 1.5874011
region box block 0 10 0 10 0 10 units lattice
create_box 2 box
Created orthogonal box = (0.0000000 0.0000000 0.0000000) to (15.874011 15.874011 15.874011)
  3 by 4 by 4 MPI processor grid
create_atoms 1 box
Created 4000 atoms
  using lattice units in orthogonal box = (0.0000000 0.0000000 0.0000000) to (15.874011 15.874011 15.874011)
  create_atoms CPU = 0.002 seconds
set type 1 type/fraction 2 0.43 78393
Setting atom values ...
  1722 settings made for type/fraction
mass 1 1.0
mass 2 1.0
pair_style lj/cut  3.5
pair_modify tail  yes
pair_coeff 1  1  1.0  1.0   # Intearaction between 1 and 1 set with epsilon = 1 and sigma = 1
pair_coeff 1  2  1.5  0.8
pair_coeff 2  2  0.5  0.88

write_data data.0
System init for write_data ...
Neighbor list info ...
  update every 1 steps, delay 10 steps, check yes
  max neighbors/atom: 2000, page size: 100000
  master list distance cutoff = 3.8
  ghost atom cutoff = 3.8
  binsize = 1.9, bins = 9 9 9
  1 neighbor lists, perpetual/occasional/extra = 1 0 0
  (1) pair lj/cut, perpetual
      attributes: half, newton on
      pair build: half/bin/atomonly/newton
      stencil: half/bin/3d
      bin: standard
WARNING: Not all mixed pair coeffs generated from mixing. Use write_data with 'pair ij' option to store all pair coeffs. (../write_data.cpp:312)


#############################
#   M E L T   S Y S T E M   #
#############################

velocity all create 2.4 9580093 mom yes dist gaussian # Assign velocities
                                                    # Temperature 2.4, random number seed, zero linear momentum
                                                                                # Gaussian distribution

timestep 0.002   # simulation timestep
thermo 1000       # output thermodynamic data every 1000 steps bf 100

# Define a fix  in this case with index 1 applied to all
# particles in the simulation. This fix is for simulations
# in the anisotropic NPT ensemble. Note that we use the MTK
# correction.
fix 1 all npt temp 2.4 2.4 0.1 iso 5.68 5.68 0.5 mtk yes tchain 5 pchain 5 # Use NPT ensemble
                                                                         # Set temperature and pressure and damping
                                                                         # Numbers of thermostats in chain and in barostat
run 10000          # run for 10000 steps
Per MPI rank memory allocation (min/avg/max) = 3.642 | 3.644 | 3.648 Mbytes
Step Temp E_pair E_mol TotEng Press Volume 
       0          2.4   -5.6998203            0   -2.1007203   -4.1891945         4000 
    1000    2.4313988   -4.9988997            0   -1.3527132    5.5666371    3848.8453 
    2000    2.4094224   -5.0391984            0   -1.4259682    5.5343611    3832.6531 
    3000     2.398026    -5.066802            0   -1.4706623    5.7291638    3795.2227 
    4000    2.3820748   -5.0750191            0   -1.5028001    5.7145356    3790.0711 
    5000    2.3933034   -5.0022572            0   -1.4131996    5.6138199    3837.3229 
    6000    2.4145473   -5.0063256            0   -1.3854101    5.7209277    3821.4008 
    7000    2.4125561   -5.0584048            0   -1.4404754    5.7617577    3805.4613 
    8000    2.3941276   -5.0796754            0   -1.4893819    5.6506906    3798.1251 
    9000    2.3679739   -5.0251814            0   -1.4741086    5.8742506    3803.4863 
   10000    2.3635362   -5.0740511            0   -1.5296331    5.8409492     3787.918 
Loop time of 2.55507 on 48 procs for 10000 steps with 4000 atoms

Performance: 676301.596 tau/day, 3913.782 timesteps/s
99.7% CPU use with 48 MPI tasks x no OpenMP threads

MPI task timing breakdown:
Section |  min time  |  avg time  |  max time  |%varavg| %total
---------------------------------------------------------------
Pair    | 1.1149     | 1.2014     | 1.2797     |   2.8 | 47.02
Neigh   | 0.21041    | 0.21875    | 0.23185    |   1.1 |  8.56
Comm    | 0.78976    | 0.87002    | 0.96633    |   4.4 | 34.05
Output  | 0.00023978 | 0.00024604 | 0.00031543 |   0.0 |  0.01
Modify  | 0.21093    | 0.24917    | 0.27638    |   3.6 |  9.75
Other   |            | 0.01544    |            |       |  0.60

Nlocal:        83.3333 ave          95 max          73 min
Histogram: 1 4 4 6 9 14 5 4 0 1
Nghost:        1702.25 ave        1732 max        1674 min
Histogram: 1 7 5 3 8 7 7 6 1 3
Neighs:        10061.1 ave       11916 max        8529 min
Histogram: 1 4 7 3 13 12 3 3 1 1

Total # of neighbors = 482932
Ave neighs/atom = 120.73300
Neighbor list builds = 904
Dangerous builds = 193

# Equilibrate just above the melting temperature to avoid step fn in T

fix 1 all npt temp 1.25 1.25 0.1 iso 5.68 5.68 0.5 mtk yes tchain 5 pchain 5
run 2000
Per MPI rank memory allocation (min/avg/max) = 3.643 | 3.645 | 3.649 Mbytes
Step Temp E_pair E_mol TotEng Press Volume 
   10000    2.3635362   -5.0740511            0   -1.5296331    5.8409492     3787.918 
   11000    1.2355373   -7.0489873            0   -5.1961447    5.8231704    3019.3312 
   12000    1.2521663   -7.1283009            0   -5.2505211    5.6162327     3002.339 
Loop time of 0.614009 on 48 procs for 2000 steps with 4000 atoms

Performance: 562858.375 tau/day, 3257.282 timesteps/s
99.7% CPU use with 48 MPI tasks x no OpenMP threads

MPI task timing breakdown:
Section |  min time  |  avg time  |  max time  |%varavg| %total
---------------------------------------------------------------
Pair    | 0.27233    | 0.30087    | 0.32225    |   1.9 | 49.00
Neigh   | 0.038982   | 0.04151    | 0.044508   |   0.6 |  6.76
Comm    | 0.20136    | 0.22145    | 0.25023    |   2.3 | 36.07
Output  | 5.0877e-05 | 5.2408e-05 | 6.8182e-05 |   0.0 |  0.01
Modify  | 0.039662   | 0.045041   | 0.050635   |   1.6 |  7.34
Other   |            | 0.005083   |            |       |  0.83

Nlocal:        83.3333 ave          91 max          76 min
Histogram: 2 3 9 7 5 2 6 3 9 2
Nghost:        1990.85 ave        2017 max        1974 min
Histogram: 4 4 10 8 6 8 5 2 0 1
Neighs:        12726.6 ave       14320 max       11554 min
Histogram: 6 4 7 4 9 8 4 2 1 3

Total # of neighbors = 610879
Ave neighs/atom = 152.71975
Neighbor list builds = 141
Dangerous builds = 7

#############################
# L I N E A R  Q U E N C H  #
#############################

# Define solid atoms. This closely follows ten Wolde  Ruiz-Montero and Frenkel  Faraday Discuss  1996  104  93-110
# Compute components of the per-atom q6 vector
compute q6 all orientorder/atom degrees 1 6 components 6 nnn NULL cutoff 1.3 # compute the Q6 parameter.
                                                                             # Use all neighbours within 1.3 unit cell.

# get number of connections
compute coord_number all coord/atom orientorder q6 0.5

# An atom is solid if it has 8 or more connections (of a possible 14)
variable is_solid atom c_coord_number>=8
group solid dynamic all var is_solid    # Must be dynamic to update
dynamic group solid defined

# do clustering
compute cluster solid cluster/atom 1.3 # Create a cluster where all atoms within are solid and max 1.3 units from another member

# define chunks one chunk per cluster
compute clus_chunks solid chunk/atom c_cluster nchunk every compress yes  # Says which atoms are in which chunk

# count the size of each chunk
compute size_chunks solid property/chunk clus_chunks count


# Find the maximum entry in the vector of chunk sizes
variable max_n equal max(c_size_chunks)


# Thermo style which includes this variable
# thermo_style custom step temp pe vol v_max_n

thermo ${N}  # Print the thermo information every 100 steps
thermo 1000  

# Reset the npt fix at a lower temperature (below freezing)
fix 1  all npt temp  ${temp} ${temp}  0.1  iso  5.68  5.68  0.5  mtk yes tchain  5  pchain  5
fix 1  all npt temp  0.45 ${temp}  0.1  iso  5.68  5.68  0.5  mtk yes tchain  5  pchain  5
fix 1  all npt temp  0.45 0.45  0.1  iso  5.68  5.68  0.5  mtk yes tchain  5  pchain  5

dump dmp2 all dcd ${N} traj.dcd
dump dmp2 all dcd 1000 traj.dcd


compute msd all msd com yes
variable twopoint equal c_msd[4]/6/(step*dt+1.0e-6)
fix 9 all vector 10 c_msd[4]
variable fit equal slope(f_9)/6/(10*dt)
thermo_style custom step temp pe c_msd[4] v_twopoint v_fit v_max_n

fix 1 all npt temp 1.25 ${temp} 0.1 iso 5.68 5.68 0.5 mtk yes tchain 5 pchain 5
fix 1 all npt temp 1.25 0.45 0.1 iso 5.68 5.68 0.5 mtk yes tchain 5 pchain 5
run 500000 # 5000000  # Run for this many steps
Neighbor list info ...
  update every 1 steps, delay 10 steps, check yes
  max neighbors/atom: 2000, page size: 100000
  master list distance cutoff = 3.8
  ghost atom cutoff = 3.8
  binsize = 1.9, bins = 8 8 8
  4 neighbor lists, perpetual/occasional/extra = 1 3 0
  (1) pair lj/cut, perpetual
      attributes: half, newton on
      pair build: half/bin/atomonly/newton
      stencil: half/bin/3d
      bin: standard
  (2) compute orientorder/atom, occasional
      attributes: full, newton on
      pair build: full/bin/atomonly
      stencil: full/bin/3d
      bin: standard
  (3) compute coord/atom, occasional
      attributes: full, newton on
      pair build: full/bin/atomonly
      stencil: full/bin/3d
      bin: standard
  (4) compute cluster/atom, occasional
      attributes: full, newton on
      pair build: full/bin/atomonly
      stencil: full/bin/3d
      bin: standard
Per MPI rank memory allocation (min/avg/max) = 9.826 | 9.835 | 9.842 Mbytes
Step Temp PotEng c_msd[4] v_twopoint v_fit v_max_n 
   12000    1.2521663   -7.1283009 2.6075797e-30 1.8108192e-32 8.3333333e+20            5 
   13000    1.2529852   -7.1364721   0.45574276 0.0029214278  0.036692297            1 
   14000    1.2436528   -7.1195713   0.84789117 0.0050469711  0.034398048            2 
   15000    1.2397862   -7.1303626    1.2573246 0.0069851366   0.03421922            1 
   16000    1.2219693   -7.1112194    1.7123916 0.0089187062  0.034373742            1 
   17000    1.2204363   -7.1477992    2.1738489  0.010656122  0.035272614            1 
   18000    1.2312896   -7.1647712    2.6380149  0.012213032  0.035891799            1 
   19000    1.2350844   -7.1760654    3.0274743  0.013278396  0.036155299            3 
   20000    1.2329626   -7.1479258    3.3842284  0.014100951  0.035772733            2 
   21000       1.2275   -7.1830396    3.8208395  0.015162061  0.035476261            2 
   22000    1.2437511   -7.1406306    4.2679142  0.016166341   0.03539502            3 
   23000    1.2716132   -7.1299798    4.6707379  0.016922963  0.035306554            1 
   24000    1.2427375   -7.2150805    5.1222331  0.017785531  0.035285671            3 
   25000     1.226385   -7.1515266    5.5464379  0.018488126  0.035320883            7 
   26000    1.2510381   -7.1818319    5.9801915   0.01916728  0.035304767            1 
   27000    1.2396679   -7.1888634    6.3800936  0.019691646  0.035337243            1 
   28000    1.2253254    -7.173116    6.7363616  0.020048695  0.035338647            2 
   29000    1.2126535   -7.2144511    7.0294654  0.020199613   0.03516581            2 
   30000    1.2237555   -7.1636566    7.4420864  0.020672462  0.034883741            2 
   31000    1.2462815   -7.1982769    7.8296952  0.021047568  0.034695242            1 
   32000    1.2253079   -7.1806837    8.2170378  0.021398535  0.034522811            1 
   33000    1.2042172   -7.1817104    8.6273901  0.021786338  0.034361258            1 
   34000    1.2095407   -7.1556831    9.0521003   0.02218652  0.034230689            1 
   35000    1.1972871   -7.1698575    9.5451521  0.022726552  0.034171926            1 
   36000    1.2190384   -7.2450413     9.839451  0.022776507  0.034156345            1 
   37000    1.2388307   -7.2792506    10.089805  0.022724785  0.034005352            3 
   38000    1.1922921   -7.2023388    10.478461  0.022979081  0.033812545            1 
   39000     1.194582   -7.2567903    10.766972   0.02300635  0.033631138            2 
   40000    1.2297211   -7.2026835    11.187877  0.023308077  0.033467483            1 
   41000    1.2186954   -7.2337394    11.531094  0.023437183  0.033333821            2 
   42000    1.1838207   -7.2660585    11.869128  0.023549857  0.033192208            1 
   43000     1.225693   -7.2120309    12.230094  0.023701733  0.033044702            2 
   44000    1.1668419   -7.2229014    12.513341   0.02369951  0.032897145            3 
   45000    1.1979761   -7.2140432    12.811429  0.023724869  0.032708372            3 
   46000     1.152625   -7.2666762    13.146433  0.023816001  0.032519125            4 
   47000    1.1959431   -7.3204723    13.458695  0.023862934  0.032345227            2 
   48000    1.1908158     -7.30336    13.939421  0.024200384  0.032206349            1 
   49000    1.1903033    -7.308206    14.271023  0.024270447   0.03209082            2 
   50000    1.1805416   -7.2683925    14.624621  0.024374368  0.031985564            2 
   51000    1.1968364   -7.3064036    15.024057  0.024549113  0.031873644            7 
   52000      1.19095    -7.239854    15.382601  0.024651604  0.031769198            2 
   53000     1.182401   -7.2613474    15.785247  0.024819571  0.031685185            5 
   54000    1.1628887   -7.3041616    16.114032  0.024867334  0.031606012            3 
   55000    1.1703285    -7.294084    16.400183  0.024848761  0.031529293            3 
   56000    1.1756011   -7.2863827    16.811314  0.025016837  0.031443864            2 
   57000    1.1744994   -7.2900648    17.094254  0.024991599  0.031364727            1 
   58000    1.1796089   -7.3617823    17.374658  0.024963589  0.031280843            1 
   59000    1.1564229   -7.3287895    17.631523   0.02490328  0.031183845            2 
   60000     1.163361   -7.3368588    17.962652  0.024948127  0.031070298            4 
   61000    1.1789579   -7.3645434    18.199895  0.024863245  0.030964308            1 
   62000      1.16183   -7.3213509    18.587034  0.024982572  0.030859491            1 
   63000    1.1509617   -7.3222191    19.055073  0.025205123  0.030772962            1 
   64000    1.1593186   -7.3462992    19.396482  0.025255836  0.030698224            2 
   65000    1.1809786   -7.3368755    19.744878  0.025313946  0.030630497            2 
   66000     1.175931   -7.3657192    20.159086  0.025453392  0.030572815            2 
   67000    1.1776681   -7.3626953    20.467501   0.02545709   0.03051354            1 
   68000     1.198334   -7.3256909    20.983535  0.025715117  0.030477719            3 
   69000    1.1428956   -7.3424601     21.17617  0.025575084  0.030439132            1 
   70000    1.1621403   -7.3789288     21.43065  0.025512679  0.030387923            2 
   71000    1.1373096    -7.351491     21.73875  0.025514964  0.030327852            2 
   72000    1.1618815   -7.3365661    21.997165  0.025459681   0.03025803            2 
   73000    1.1533006   -7.3356507     22.47321  0.025654349  0.030194008            2 
   74000    1.1885497   -7.3597561    22.743502  0.025612051  0.030147458            1 
   75000    1.1520073   -7.4106989    23.002474  0.025558304  0.030090207            2 
   76000    1.1697408   -7.3904428     23.18961  0.025427204  0.030017289            2 
   77000    1.1260991   -7.3756277    23.555565  0.025493035  0.029950008            2 
   78000    1.1342689   -7.3969884    23.906994   0.02554166  0.029882961            1 
   79000    1.1524482   -7.3771669    24.165657  0.025491199  0.029820886            4 
   80000    1.1420145   -7.3616346    24.496401  0.025517084  0.029752834            1 
   81000    1.1446316   -7.4008573    24.787695  0.025501744  0.029687229            2 
   82000    1.1024859   -7.4239282    25.024822   0.02543173  0.029617333            3 
   83000    1.1317929   -7.3944735    25.231591  0.025332923  0.029532473            3 
   84000    1.1284257   -7.4298431    25.480595  0.025278368  0.029454566            2 
   85000    1.1228658      -7.4087    25.793112  0.025287365  0.029369353            1 
   86000     1.124011    -7.413356    26.122449  0.025312451  0.029287547            1 
   87000    1.1214612   -7.3864091    26.477949   0.02536202   0.02921729            2 
   88000    1.1417829   -7.4097175    26.680627  0.025265745  0.029137459            1 
   89000    1.1056273   -7.4605266    26.924195  0.025209921  0.029056677            2 
   90000     1.131333   -7.3972164    27.247305  0.025228986  0.028975997            2 
   91000    1.1158231   -7.4369697    27.571901  0.025248993  0.028893647            1 
   92000    1.1213659   -7.4356984    27.709086   0.02509881  0.028813101            3 
   93000    1.1172061   -7.4525366    27.853527  0.024958357  0.028720297            1 
   94000    1.1400836   -7.4274831    28.132223  0.024939914  0.028630717            1 
   95000    1.1112491   -7.4492184    28.223959  0.024757858  0.028533596            3 
   96000    1.1041023   -7.4184302     28.57234  0.024802378  0.028434684            2 
   97000    1.1234168   -7.4659947    28.927224  0.024851567  0.028343518            1 
   98000    1.1213493   -7.4297144    29.056765  0.024708134  0.028252363            2 
   99000    1.0989885   -7.4241638    29.425822   0.02476921  0.028162204            1 
  100000    1.0934372   -7.4518116    29.730279  0.024775233  0.028075702            2 
  101000    1.1112233   -7.4363906    29.887751  0.024659861  0.027988782            3 
  102000    1.1278014    -7.502653    30.292894  0.024749096  0.027906364            1 
  103000    1.0919404   -7.4527916    30.581787  0.024742546  0.027825003            3 
  104000    1.0872749   -7.4909482    30.748482  0.024638207  0.027745411            2 
  105000    1.1050189   -7.4716024    30.896093  0.024520709  0.027663318            1 
  106000    1.0904874    -7.496047    30.975448  0.024351768  0.027573115            3 
  107000    1.0828416   -7.4971347     31.33711  0.024405849  0.027480469            2 
  108000    1.0991544   -7.5157693    31.589785  0.024374834  0.027391993            3 
  109000    1.1081356   -7.4958353    31.671844  0.024213948  0.027301586            3 
  110000     1.091743   -7.5083944    31.992876  0.024237027  0.027209648            2 
  111000    1.0799437   -7.5050123    32.162398  0.024145945  0.027120269            2 
  112000    1.1010091   -7.5121029    32.466506  0.024156627  0.027032327            2 
  113000    1.0889015   -7.5080638    32.843134  0.024220601  0.026947681            3 
  114000    1.0963237   -7.5370902    32.912677  0.024058974  0.026861275            1 
  115000     1.105595   -7.5714577    33.103923   0.02398835  0.026777198            1 
  116000    1.0846813   -7.5381503    33.319568  0.023936471  0.026693354            1 
  117000    1.0667293   -7.5336083    33.496762  0.023858092  0.026609519            1 
  118000    1.0942937   -7.5258446    33.869166  0.023918902  0.026524471            2 
  119000    1.0608933   -7.5867867     33.92396  0.023756274  0.026439463            4 
  120000    1.0879687   -7.5317258    34.281777   0.02380679  0.026354339            3 
  121000    1.0627877   -7.5578723    34.418459  0.023704173  0.026269963            3 
  122000    1.0933211   -7.5815945     34.59294  0.023629057  0.026184436            2 
  123000    1.0851149   -7.5453627    34.904889  0.023648299  0.026100075            5 
  124000    1.0786569   -7.5617729    35.073121  0.023570645  0.026017433            1 
  125000    1.0649149   -7.5728714    35.452482  0.023634988   0.02593688            3 
  126000    1.0852024   -7.5627949    35.762565   0.02365249  0.025860396            3 
  127000    1.0822538   -7.5964949    35.812879  0.023499265  0.025784012            2 
  128000     1.051145    -7.589382    36.149769  0.023535006  0.025708846            2 
  129000    1.0534333   -7.5126191    36.297832  0.023448211  0.025632639            1 
  130000    1.0831261   -7.5768647    36.564563  0.023438823  0.025556268            3 
  131000     1.046149   -7.6139969     36.60681  0.023286774  0.025480187            3 
  132000    1.0634825   -7.6228274    36.986776  0.023350238  0.025404458            4 
  133000    1.0586222   -7.5895937    37.030612  0.023202138  0.025331711            2 
  134000     1.045118   -7.5967933    37.187544  0.023126582  0.025255439            2 
  135000    1.0829897   -7.6070116    37.334957   0.02304627  0.025175882            2 
  136000    1.0428846   -7.6547399    37.438828  0.022940458  0.025097442            3 
  137000    1.0639578   -7.6347215    37.733973  0.022952538  0.025018147            2 
  138000    1.0370731   -7.6144684    37.992989  0.022942626  0.024941167            4 
  139000    1.0251888    -7.664064    38.120812  0.022854204  0.024862433            1 
  140000    1.0422728   -7.6446513    38.386282  0.022848978  0.024786252            3 
  141000    1.0321188   -7.6270421    38.469966  0.022736387  0.024709737            6 
  142000    1.0255675   -7.6166493    38.936715  0.022850185  0.024635013            2 
  143000    1.0456731   -7.6872647    38.818478   0.02262149   0.02456029            2 
  144000    1.0523516   -7.6440698    39.130292  0.022644845  0.024486331            3 
  145000    1.0192189   -7.6655064     39.30316  0.022588023   0.02441359            5 
  146000    1.0217738   -7.6659285    39.503702  0.022547775  0.024339532            3 
  147000    1.0502346   -7.6498975    39.711055  0.022511936  0.024268332            3 
  148000     1.039164   -7.6581824    40.079605  0.022567345  0.024199165            4 
  149000    1.0342566   -7.6493101    40.095674  0.022424873  0.024128149            3 
  150000    1.0213185   -7.7011138    40.201961  0.022334423  0.024054561            1 
  151000    1.0447437   -7.6921406     40.37015  0.022279332  0.023982861            2 
  152000    1.0196706   -7.6754556    40.706837  0.022317345  0.023910888            3 
  153000    1.0417094   -7.7109821    40.720822  0.022179097  0.023839918            2 
  154000    1.0417893   -7.7440682    40.956179  0.022162435  0.023766614            1 
  155000    1.0213351   -7.6916703    41.159593  0.022128813   0.02369425            1 
  156000    1.0152835   -7.7151143    41.403227  0.022117109   0.02362594            1 
  157000    1.0417432   -7.7404511    41.517991   0.02203715  0.023559069            1 
  158000     1.040386   -7.6916442    41.615826  0.021949276  0.023491093            4 
  159000    1.0229474   -7.7183662    41.859201  0.021938785  0.023422273            6 
  160000    1.0216312   -7.7220893    42.005753  0.021877996  0.023352817            1 
  161000    1.0066619   -7.6912232    42.151569  0.021817582  0.023282804            3 
  162000    1.0079811   -7.6775716    42.311007  0.021764921  0.023212424            2 
  163000    1.0141051   -7.7164367    42.318862   0.02163541   0.02314076            3 
  164000    1.0018967   -7.7252436    42.557457  0.021624724  0.023070946            6 
  165000    1.0254459   -7.7533539    42.721266  0.021576397   0.02300021            2 
  166000   0.99782203   -7.7049036    43.045601  0.021609237  0.022931796            2 
  167000   0.98764612   -7.6928552    43.120675  0.021517303   0.02286366            2 
  168000    1.0082171   -7.7326257    43.200117  0.021428629  0.022795683            2 
  169000    0.9794451   -7.7374159    43.250507   0.02132668  0.022726278            6 
  170000    1.0087388   -7.7658299    43.502566  0.021324787  0.022656133            2 
  171000   0.99959633   -7.7572183    43.443786  0.021171436  0.022586426            1 
  172000    1.0002791   -7.7730411     43.82093  0.021231071  0.022517213            2 
  173000   0.99148848   -7.7884017    43.963516  0.021177031  0.022448834            3 
  174000    1.0069942   -7.7749818    44.152603  0.021145883  0.022380864            3 
  175000   0.97973857   -7.7278021    44.314263   0.02110203  0.022313464            2 
  176000     1.011751    -7.791081    44.571332   0.02110385  0.022248136            2 
  177000   0.99945788   -7.7694845    44.813307  0.021098544  0.022183036            1 
  178000   0.99559118   -7.8353722    44.600427   0.02088035  0.022116543            2 
  179000   0.99691504   -7.8078876    44.846709  0.020878356  0.022047079            2 
  180000   0.96406095   -7.8097716    45.063979  0.020862953  0.021979437            2 
  181000     0.971088   -7.7754269    45.176973  0.020799711   0.02191395            2 
  182000   0.97441329   -7.7878109    45.289783   0.02073708  0.021846865            3 
  183000   0.96817997    -7.764746    45.491971  0.020715834  0.021781126            2 
  184000   0.95958545   -7.7609285    45.676128  0.020686652  0.021716547            6 
  185000   0.97985323   -7.8158956    45.662938  0.020568891   0.02165123            2 
  186000   0.95870475   -7.8306303    45.592658  0.020426818  0.021585749            1 
  187000    0.9820518   -7.8310324    45.834634  0.020425416  0.021518684            2 
  188000   0.94496934   -7.8152127    46.126487  0.020446138  0.021452129            3 
  189000   0.96860444   -7.8048525     46.37035  0.020445481   0.02138839            3 
  190000   0.98187145   -7.8069373    46.502491  0.020395829  0.021325831            2 
  191000   0.95828724   -7.8217051    46.559409  0.020313878  0.021264108            3 
  192000   0.95226284   -7.8457285    46.732408  0.020283163  0.021202013            3 
  193000   0.97306918   -7.8387096    46.791361  0.020203524  0.021140458            2 
  194000   0.93852824   -7.8344942    47.039932  0.020206156  0.021076964            3 
  195000   0.93923922   -7.9051744    47.048885  0.020106361  0.021013658            2 
  196000   0.96095012   -7.8781148    47.224855  0.020078595  0.020950176            2 
  197000   0.94212465   -7.9044026    47.227812  0.019977924  0.020887232            2 
  198000   0.94523065   -7.9116947     47.35666  0.019931254  0.020824647            1 
  199000   0.96521838   -7.9111624    47.563517  0.019917721  0.020762219            1 
  200000     0.956976   -7.9070558    47.806277  0.019919282  0.020701842            1 
  201000   0.95560091   -7.9071735    47.755267  0.019799033   0.02064144            1 
  202000   0.96013623   -7.8826443    48.009084  0.019805728  0.020580969            2 
  203000   0.93078783    -7.916377    47.959305  0.019687728  0.020520059            9 
  204000   0.92988414   -7.8932299    48.187591  0.019684473  0.020459158            2 
  205000   0.94856637   -7.9105972    48.263745  0.019619408   0.02039876            4 
  206000   0.94425093    -7.918578    48.311318  0.019543414  0.020337659            3 
  207000   0.94172996   -7.9540428    48.443946  0.019502394  0.020276731            3 
  208000   0.94247389   -7.9435269     48.42356  0.019400465  0.020215242            3 
  209000   0.89989959    -7.923019     48.66727  0.019404813  0.020154522            1 
  210000   0.93575932   -7.9427766    48.791265  0.019361613  0.020093136            1 
  211000   0.89601596    -7.922258    48.824141  0.019282836  0.020031153            4 
  212000   0.92247287   -7.9333713     48.85835  0.019205326  0.019969201            2 
  213000    0.9382273   -7.9371884    49.019922  0.019178373  0.019907649            1 
  214000   0.91862457   -7.9392042    49.231635  0.019171197  0.019846402            2 
  215000    0.9227564   -7.9772016    49.210824  0.019073963  0.019785772            1 
  216000   0.93694215   -7.9511495    49.306856  0.019022707  0.019724575            2 
  217000   0.91099844   -7.9505487    49.436557  0.018984853  0.019663429            2 
  218000   0.90226912   -7.9745262    49.336942  0.018859687   0.01960208            2 
  219000   0.92045907   -7.9887656    49.525198  0.018845205  0.019540614            2 
  220000   0.94023813   -7.9558581    49.821321  0.018871712  0.019480192           10 
  221000   0.92638272   -7.9950075    49.636821   0.01871675   0.01941967            2 
  222000   0.92447363   -7.9794502    49.915372  0.018737001  0.019358805            4 
  223000   0.91084254   -7.9686516    49.985698  0.018679259  0.019298948            3 
  224000   0.89871679   -7.9759674    50.084653  0.018632683  0.019238954            2 
  225000    0.9194509   -7.9846062    50.105523  0.018557601  0.019178641            3 
  226000   0.89717916   -7.9975022    50.188248  0.018505991  0.019117674            3 
  227000   0.90975452   -8.0115653    50.417547  0.018508644  0.019057265            4 
  228000   0.92246352   -8.0189556    50.341781  0.018399774  0.018997498            2 
  229000   0.90705522   -8.0126802    50.524975   0.01838609  0.018938422            1 
  230000   0.91548749   -8.0228113     50.51484  0.018302478  0.018879353            3 
  231000   0.91257497   -8.0292729    50.734181  0.018302374  0.018820065            3 
  232000    0.8920248   -8.0364056    50.937872  0.018296649  0.018761985            2 
  233000   0.90185205   -8.0218894     50.90632  0.018206838  0.018704023            3 
  234000   0.89296797   -8.0202759    51.024311  0.018171051  0.018645542            2 
  235000   0.88627516   -8.0485466    50.774968  0.018005308  0.018586764            9 
  236000   0.88434194   -8.0577835    51.039687  0.018022488  0.018527196            8 
  237000   0.88294858   -8.0480362    51.154137  0.017986687   0.01846786            6 
  238000     0.882023    -8.074186    51.135484  0.017904581  0.018408607            5 
  239000   0.85295634   -8.0257983     51.29198  0.017884233  0.018349736            8 
  240000   0.87123391   -8.0699142    51.426892   0.01785656  0.018291432            3 
  241000   0.87050388   -8.0987481    51.393847   0.01777104  0.018233754            2 
  242000   0.89366603   -8.0954857    51.626228  0.017777627   0.01817623            7 
  243000   0.88677282   -8.0657443     51.63658  0.017708018  0.018119283            6 
  244000    0.8836104   -8.0898639    51.707691   0.01765973  0.018062004            1 
  245000   0.89465853   -8.0927486    51.873519  0.017644054  0.018004874            4 
  246000   0.88122748   -8.0611336    51.827599  0.017556775  0.017947971            3 
  247000   0.86294309   -8.0866396    51.874903  0.017501654  0.017890652            2 
  248000   0.86240799   -8.0814056    51.962763  0.017460606  0.017833522            2 
  249000   0.89253521   -8.1021788    52.011601  0.017406828  0.017776544            6 
  250000   0.85729451   -8.0979565    52.110979  0.017370326  0.017719899            2 
  251000    0.8806912   -8.0935034    52.279333  0.017357016  0.017664262            3 
  252000   0.87405764   -8.0883295    52.382801  0.017322355  0.017609051            2 
  253000   0.84055384    -8.125184    52.410748  0.017263092   0.01755381            2 
  254000   0.87794957   -8.0926108    52.550716  0.017241049  0.017498385            2 
  255000   0.86031018   -8.0906503    52.537048   0.01716897  0.017443325            2 
  256000   0.84654886   -8.1135508    52.623273  0.017129972   0.01738866            4 
  257000   0.84763124   -8.1553698    52.669775  0.017078397  0.017334086            6 
  258000   0.85076689   -8.1298627    52.619187  0.016995861  0.017279763            5 
  259000   0.86499818   -8.1479338    52.705134  0.016957894  0.017225306            2 
  260000   0.84870403   -8.1238189    52.776351  0.016915497  0.017170481            6 
  261000   0.86207034   -8.1516803    52.854454  0.016875624  0.017115797            1 
  262000   0.83954495   -8.1346241     52.89581  0.016824367  0.017060793            5 
  263000   0.83756257   -8.1831082    52.749847  0.016714147  0.017005491            5 
  264000   0.85351654   -8.1212128    52.954425  0.016715412  0.016950552            3 
  265000   0.84567583    -8.179642    52.960231  0.016654161  0.016896062            2 
  266000   0.84760343   -8.1742319    53.056565  0.016621731   0.01684146            4 
  267000   0.84796399   -8.1862515    52.978267   0.01653504  0.016787032            2 
  268000    0.8471575   -8.1934395    53.009757  0.016483133  0.016731965            3 
  269000   0.83467589   -8.1718042    53.029041  0.016427832  0.016677218            1 
  270000   0.84046587   -8.1942543    53.006852  0.016360139  0.016621892            5 
  271000   0.85145439   -8.1967066    53.195128  0.016357665  0.016566516            3 
  272000   0.82114281   -8.1772507    53.207531  0.016301327   0.01651169            4 
  273000    0.8463612   -8.2282716     53.18192  0.016233797  0.016456324            2 
  274000    0.8141146   -8.2102657    53.286839   0.01620646  0.016401114            6 
  275000   0.83577373   -8.2511773    53.195113  0.016119731  0.016346219            5 
  276000   0.83307428   -8.2387977    53.318672  0.016098633  0.016291582            3 
  277000   0.83342697   -8.2349279    53.397941  0.016064363  0.016236721            3 
  278000   0.82757009   -8.2055514    53.456264   0.01602406  0.016181932           12 
  279000   0.81899633   -8.2223869    53.500738   0.01597991  0.016127426            3 
  280000    0.7998943   -8.2214093    53.488943  0.015919328  0.016072652            4 
  281000   0.81639435   -8.2306543    53.606209  0.015897452  0.016018593            9 
  282000   0.82323555   -8.2089782    53.703907  0.015869949   0.01596489            2 
  283000   0.82342733   -8.2107618    53.669448  0.015803724  0.015911277            6 
  284000   0.81470826   -8.2107988    53.678599  0.015750763  0.015857997            5 
  285000   0.80184539   -8.2613157    53.759548  0.015719166   0.01580492            2 
  286000   0.82970494   -8.2465436    53.627311  0.015625673  0.015751959            2 
  287000   0.79125481   -8.2457673    53.744737  0.015605324  0.015698549            1 
  288000   0.81476616   -8.2420792    53.788272  0.015563736  0.015645353            1 
  289000   0.81250006   -8.2862838    53.889751  0.015539144  0.015592579            3 
  290000   0.81737986   -8.2915209    53.787594  0.015456205  0.015539906            3 
  291000    0.8067981   -8.2874682    53.817521  0.015411661  0.015487119            5 
  292000   0.79732946   -8.2846333    53.728697  0.015333532   0.01543428            5 
  293000   0.81177167   -8.2914336    53.791394  0.015299031  0.015381695            3 
  294000   0.80178458    -8.314389    53.814775  0.015253621   0.01532888            2 
  295000   0.77968224    -8.298901    53.858662  0.015214311   0.01527575            3 
  296000   0.79079669   -8.3259049    53.733002  0.015127534  0.015222995            4 
  297000   0.78504864   -8.3261347    53.882119   0.01511844  0.015170079            3 
  298000    0.7904192   -8.3309504     53.86841  0.015063873  0.015117389            8 
  299000   0.78647755   -8.3111814    53.952212  0.015036848  0.015064972            5 
  300000   0.80913066   -8.3345051    53.851146  0.014958652  0.015012407            6 
  301000   0.77280821   -8.3254883    54.061707   0.01496725  0.014960151            1 
  302000   0.79005462   -8.3513474    53.994128  0.014899042  0.014907957            4 
  303000    0.7927176   -8.3431843    53.951616  0.014838178   0.01485584            4 
  304000   0.78533596    -8.371066    53.880694  0.014769927  0.014803572            3 
  305000   0.77378756   -8.3543199     54.08671   0.01477779  0.014751788            3 
  306000   0.78332314   -8.3243639    53.967287  0.014696974  0.014700419            4 
  307000   0.76421341   -8.3727502    54.139771   0.01469592  0.014649076            5 
  308000   0.78237296   -8.3952505    54.155425  0.014652442  0.014597849            3 
  309000   0.76936021   -8.3712428    54.119978  0.014595463  0.014546589            3 
  310000   0.77212489   -8.3568044    54.313784   0.01460048  0.014495916            4 
  311000   0.77015505    -8.354133    54.239593  0.014533653  0.014445499            3 
  312000   0.78404966   -8.3529613     54.27684  0.014497019  0.014395427            9 
  313000   0.76296791   -8.3583905    54.154098  0.014418024  0.014345533            2 
  314000   0.76554114   -8.3807257    54.354297  0.014425238  0.014295658            5 
  315000   0.75449122   -8.3608918    54.349947  0.014378293   0.01424608            2 
  316000   0.75173454   -8.3671686    54.419539  0.014351144  0.014196657            3 
  317000   0.77313646   -8.3791931     54.35865  0.014289866  0.014147343            4 
  318000   0.74255156   -8.3878255    54.359443  0.014245137  0.014098079            6 
  319000   0.76618881   -8.4093749    54.353496  0.014198928  0.014049179            3 
  320000   0.77252353   -8.4160461    54.463993  0.014183332  0.014000491            3 
  321000   0.76099889   -8.4248192    54.454119  0.014136583   0.01395207           12 
  322000   0.75440873    -8.382156    54.573425  0.014123557  0.013903975           10 
  323000   0.77274549   -8.4056595    54.494812  0.014059549   0.01385592            5 
  324000   0.74934298   -8.4476944    54.459928  0.014007183  0.013807959            5 
  325000   0.73803434   -8.4193166    54.502451  0.013974987  0.013760084            3 
  326000   0.75541489    -8.453971     54.54132  0.013942055  0.013712292            4 
  327000   0.74172279   -8.4402123    54.555401  0.013903007  0.013664555            4 
  328000   0.74837127   -8.4476569    54.478043  0.013840966  0.013616843            2 
  329000   0.76193394   -8.4661327    54.431691  0.013787156  0.013569097            2 
  330000   0.74535808   -8.4766717    54.354133  0.013725791  0.013521259            2 
  331000   0.73538711   -8.4477106    54.603176  0.013747023  0.013473519            4 
  332000   0.74587285   -8.4822975     54.59852  0.013704448  0.013426203            3 
  333000   0.73498025   -8.4878903    54.486134  0.013635169  0.013379296            3 
  334000   0.73812079   -8.5195325     54.49365   0.01359622  0.013332255            2 
  335000   0.73827658   -8.4830476    54.495967  0.013556211  0.013285279           11 
  336000   0.72117045   -8.4783949    54.546552  0.013528411  0.013238752            2 
  337000   0.73146813   -8.5139674    54.473887  0.013470298  0.013192156            6 
  338000   0.72314008   -8.5269757    54.592445  0.013459676  0.013145467            5 
  339000   0.71383645    -8.548949    54.564037  0.013412988  0.013098751            3 
  340000   0.72647569   -8.4968306    54.540085  0.013367668  0.013052347            4 
  341000   0.73643812   -8.5502585    54.588758  0.013340361  0.013006367            4 
  342000   0.73852477   -8.5471893    54.409081  0.013257573  0.012960265            9 
  343000   0.73002401    -8.538314    54.551702  0.013253572  0.012914342            7 
  344000   0.71748092    -8.524503    54.545769  0.013213607  0.012868531            8 
  345000   0.72262057   -8.5146685    54.601519  0.013188773  0.012822819            4 
  346000   0.71857643   -8.5530115    54.559458  0.013140525  0.012777263            2 
  347000   0.72003632    -8.547486    54.535926  0.013097004  0.012731899            3 
  348000   0.72704064   -8.5473153    54.642645  0.013084925  0.012686738            2 
  349000   0.71971281   -8.5452598    54.553288  0.013026096  0.012641543            2 
  350000   0.72472075   -8.5701835    54.433698  0.012960404  0.012596427            2 
  351000   0.70073822   -8.5535863    54.531592  0.012946722  0.012551398            1 
  352000   0.70691224   -8.5727151    54.480393   0.01289782  0.012506377            3 
  353000   0.69860103   -8.5711316    54.618457  0.012893876  0.012461429            6 
  354000   0.70693378   -8.5895777     54.52925  0.012836452  0.012416717            3 
  355000   0.70087259   -8.5676328    54.488325  0.012790687    0.0123722            4 
  356000    0.7018459   -8.5775149    54.507102  0.012759153  0.012327823            5 
  357000   0.70503976   -8.5860658    54.413111  0.012701473  0.012283625            2 
  358000   0.69749041   -8.6102956    54.482345   0.01268211  0.012239526            4 
  359000   0.69091532   -8.5932815    54.535272   0.01265907  0.012195525            3 
  360000   0.70283594   -8.5890507    54.611065   0.01264145  0.012151727            4 
  361000   0.69919337   -8.6117665    54.476679  0.012575411  0.012108033            2 
  362000   0.68570187   -8.6121248    54.481789  0.012541848  0.012064582            2 
  363000   0.68138215   -8.6330977    54.605231  0.012535636  0.012021319            3 
  364000   0.69353879   -8.6053443    54.565773  0.012492164  0.011978244            2 
  365000   0.69072528    -8.605455    54.548193  0.012453925  0.011935235            2 
  366000   0.67835077   -8.6085544    54.607039  0.012433297  0.011892556            5 
  367000   0.67818466   -8.6136251    54.657522  0.012410881  0.011850161            4 
  368000   0.68294969   -8.6265752    54.659658   0.01237764  0.011807898            4 
  369000    0.6681385   -8.6207476    54.575668  0.012325128  0.011765777            3 
  370000   0.68257127   -8.6278891    54.514294  0.012277994   0.01172364            4 
  371000    0.6633008    -8.654073    54.598958  0.012263917  0.011681776            2 
  372000   0.66455661   -8.6361523    54.616437  0.012234865   0.01163999            3 
  373000   0.68499687   -8.6413306    54.593616  0.012196965  0.011598282            4 
  374000   0.65786005   -8.6489333    54.532114  0.012150649  0.011556822            7 
  375000   0.66732408   -8.6655069    54.519072  0.012115349  0.011515352            4 
  376000   0.67065837   -8.6759433    54.397107  0.012056096  0.011473856            4 
  377000   0.65488758   -8.6621903    54.472647  0.012040815  0.011432713            3 
  378000   0.67095913   -8.6648708    54.400336  0.011993019  0.011391634            2 
  379000   0.65219635   -8.6803374    54.421723  0.011966078  0.011350723            3 
  380000   0.66051821   -8.6716892       54.425  0.011935307   0.01130997            7 
  381000    0.6668828   -8.6517405    54.484931  0.011917089   0.01126944            3 
  382000   0.66904072   -8.6891514    54.496833  0.011888489  0.011229029            5 
  383000   0.66020953   -8.6850046    54.437544  0.011844548  0.011188717            5 
  384000   0.65363965   -8.7038242    54.493148   0.01182577  0.011148489            4 
  385000   0.64812793    -8.679012    54.419816  0.011779181  0.011108517            6 
  386000   0.65734335   -8.6992448    54.510227  0.011768184  0.011068563            2 
  387000   0.66252782   -8.7033588    54.447062  0.011724173  0.011028739            3 
  388000   0.64090251   -8.7170493    54.406746  0.011685298  0.010989135            2 
  389000   0.65131837   -8.6940682    54.451238   0.01166479  0.010949684            5 
  390000    0.6419155   -8.7036294    54.417964   0.01162777  0.010910492            4 
  391000   0.64858182   -8.7070387    54.397155  0.011593597  0.010871336            3 
  392000   0.65130565   -8.7349499    54.449421  0.011575132   0.01083232            2 
  393000   0.63314669   -8.6975906     54.48577  0.011553386  0.010793651            3 
  394000   0.64784924   -8.7069195    54.517602  0.011530796  0.010755039            2 
  395000   0.63304171   -8.7172596    54.392772  0.011475268  0.010716595            4 
  396000   0.62703726   -8.7273342    54.392125  0.011446154  0.010678261            4 
  397000   0.62116198   -8.7239285      54.4103  0.011421138  0.010640013            4 
  398000   0.62441535   -8.7263999    54.457067  0.011402233   0.01060194            2 
  399000   0.62498316   -8.7227048    54.416738  0.011365234  0.010564014            3 
  400000   0.62670487    -8.718282    54.412228  0.011335881  0.010526242            3 
  401000   0.63153718   -8.7330265     54.33633  0.011291839  0.010488702            2 
  402000   0.63403481   -8.7226509    54.372567  0.011271262  0.010451194            2 
  403000   0.63811149   -8.7533706    54.347752  0.011238162  0.010413931            3 
  404000   0.61173605   -8.7474753     54.39176  0.011219422  0.010376839            3 
  405000   0.61936987   -8.7367569    54.397269  0.011192854  0.010340001            3 
  406000   0.62534536   -8.7510086    54.438437  0.011173735  0.010303222            3 
  407000   0.61272105   -8.7297873    54.307009  0.011119371  0.010266585            3 
  408000   0.60340735   -8.7444076    54.418408  0.011114871  0.010230049            5 
  409000   0.62058616   -8.7556722    54.288808  0.011061289  0.010193719            5 
  410000   0.62666722    -8.757932    54.358478  0.011048471  0.010157428            6 
  411000   0.60033607   -8.7565681    54.306493  0.011011049  0.010121238            3 
  412000   0.61423666   -8.7644581    54.432316  0.011009773  0.010085259            5 
  413000   0.59944317   -8.7834656    54.349546  0.010966414  0.010049413            4 
  414000   0.61612788   -8.7641239    54.317489  0.010933472  0.010013567            3 
  415000   0.62262517   -8.7750494    54.304563  0.010904531 0.0099778465            6 
  416000   0.59678632   -8.7894645    54.192229  0.010855815 0.0099422296            6 
  417000   0.60642741   -8.8068231    54.269728  0.010845269 0.0099067627            6 
  418000   0.59996773   -8.7783196    54.284054   0.01082218 0.0098714888            3 
  419000   0.61271044   -8.7959807    54.260775  0.010791721 0.0098363871            5 
  420000     0.592672   -8.8061203    54.258284  0.010765532 0.0098014789            2 
  421000   0.60704422   -8.8060956    54.302093  0.010748633 0.0097666132            3 
  422000   0.59923775   -8.7978963    54.154636  0.010694043 0.0097319312            5 
  423000   0.57917372   -8.8134554    54.272209  0.010691924 0.0096973558            4 
  424000   0.60600346   -8.8124158    54.209753  0.010654433 0.0096630542            2 
  425000   0.59449004   -8.7912178    54.295029  0.010646084 0.0096288416            4 
  426000    0.5893901   -8.8114803    54.163139  0.010595293 0.0095946846            2 
  427000   0.57644807   -8.8317635    54.100299  0.010558216 0.0095606573            7 
  428000   0.58453256   -8.8104041    54.217683  0.010556402  0.009526763            4 
  429000   0.59779845   -8.8234525    54.240773  0.010536281  0.009493062            4 
  430000   0.57953396    -8.833496    54.236011  0.010510855  0.009459465            5 
  431000   0.57599907   -8.8460882    54.171509  0.010473996 0.0094260363            6 
  432000   0.57443852   -8.8269492    54.187951  0.010452923 0.0093926881            3 
  433000   0.56374473   -8.8348315    54.226424  0.010436186 0.0093594878            4 
  434000   0.56663039   -8.8344434    54.168126  0.010400946 0.0093264211            7 
  435000   0.56455147   -8.8354449    54.204634  0.010384029 0.0092935041            3 
  436000   0.57639018   -8.8420317    54.221843  0.010363502 0.0092607262            4 
  437000   0.56721743   -8.8656219    54.196648  0.010334982 0.0092280607            3 
  438000   0.57937559   -8.8570185    54.101966  0.010293372 0.0091955032            7 
  439000   0.56489602   -8.8465264    54.220476  0.010292421 0.0091631035            3 
  440000   0.56687716   -8.8572757    54.158685  0.010257327   0.00913089            4 
  441000   0.55758751   -8.8519462     54.07137  0.010217568  0.009098787            4 
  442000   0.56016018   -8.8723205     54.14149  0.010207671 0.0090668311            6 
  443000   0.56035206   -8.8595408    54.118595  0.010180323 0.0090349374            7 
  444000    0.5573542   -8.8853337    54.065929  0.010147509 0.0090032155            5 
  445000   0.54962652   -8.8616405    54.052898  0.010122265 0.0089716433            6 
  446000    0.5596333    -8.873377     54.09765  0.010107932 0.0089402006            5 
  447000   0.54860187   -8.8673167     54.17679  0.010100073 0.0089089082            4 
  448000   0.55350066   -8.8829482    54.095652  0.010062435 0.0088777415            4 
  449000   0.54917553   -8.8999943    54.041832  0.010030036  0.008846681            8 
  450000   0.55487216   -8.8985388    54.082248  0.010015231 0.0088157765            5 
  451000    0.5464108   -8.9017663    54.021623 0.0099818224 0.0087849813            5 
  452000   0.53757751   -8.8981582    54.031762  0.009961608  0.008754311            5 
  453000   0.53944836   -8.9080665    54.058717 0.0099445763  0.008723794            3 
  454000    0.5480881   -8.9154836    54.050633 0.0099211881 0.0086934011            5 
  455000   0.54016595   -8.8940893    54.069277  0.009902798  0.008663155            7 
  456000   0.54545717   -8.9066608    53.966955  0.009862382 0.0086330286            6 
  457000   0.54520981   -8.8993918    54.044271 0.0098548999 0.0086030693            5 
  458000   0.53667029   -8.9165771    54.062932 0.0098367781 0.0085732039            5 
  459000   0.52550027    -8.912727    54.048937 0.0098128063 0.0085434695            3 
  460000   0.53039864   -8.9162249    53.961045 0.0097755515 0.0085138642            5 
  461000    0.5258135   -8.9174505    53.977247 0.0097572754 0.0084843729            1 
  462000   0.52323599   -8.9095812    53.980461 0.0097367353  0.008454996            7 
  463000   0.52569585   -8.9275885    54.069392 0.0097317121 0.0084256659            3 
  464000   0.52651832   -8.9252241    53.951692 0.0096895998 0.0083965368            4 
  465000   0.52178209   -8.9170146    54.026459 0.0096821611 0.0083675246            3 
  466000   0.52812183   -8.9438897    53.923936   0.00964305 0.0083386383            3 
  467000   0.53008735    -8.924111    53.893247 0.0096169249 0.0083099004            4 
  468000   0.52566841   -8.9283754    53.954812 0.0096073383 0.0082812633            4 
  469000   0.52660882    -8.928017    53.927788 0.0095820519  0.008252703            5 
  470000   0.50679126   -8.9355998    53.891607 0.0095552495 0.0082242398            6 
  471000   0.50421755   -8.9456091    53.924853 0.0095408444 0.0081959245            6 
  472000   0.50775554   -8.9469301    53.911543 0.0095182808 0.0081677249            6 
  473000   0.50487296   -8.9537016    53.913623 0.0094985242 0.0081396459            5 
  474000   0.50828911   -8.9672855    53.786375 0.0094561137 0.0081116955            5 
  475000   0.51658733   -8.9593351    53.917047  0.009459131  0.008083887            6 
  476000   0.51516013   -8.9506065    53.765912 0.0094127997  0.008056172            5 
  477000   0.50804637   -8.9594357    53.921063 0.0094201718 0.0080285317            5 
  478000   0.50501333   -8.9664927     53.81196 0.0093814434 0.0080010495            7 
  479000   0.50693944   -8.9375967    53.858417 0.0093699403 0.0079736729            6 
  480000   0.49291738   -8.9688959    53.843487 0.0093478276 0.0079463983            3 
  481000   0.50094473   -8.9801769     53.88938 0.0093363443 0.0079192716            7 
  482000   0.50133714   -8.9839881    53.887252 0.0093166064 0.0078922667            8 
  483000   0.49334583   -8.9718735     53.83039 0.0092875069 0.0078653294            3 
  484000   0.49934682   -8.9998738    53.858435 0.0092731466 0.0078385042            3 
  485000   0.49442215   -8.9778616    53.801187 0.0092441902 0.0078117876            7 
  486000   0.48857075   -8.9804261    53.880293 0.0092387333 0.0077851884           10 
  487000   0.48823477   -8.9961727    53.755666  0.009198437 0.0077587418            3 
  488000   0.48187197   -8.9976713    53.864446 0.0091981635 0.0077323761            5 
  489000   0.48487418   -8.9786047    53.770476 0.0091633395 0.0077061204            4 
  490000   0.48548843   -8.9896761      53.6887 0.0091307314 0.0076799628           10 
  491000   0.49340435   -9.0120107    53.817026 0.0091339148  0.007653942            5 
  492000   0.49037851    -8.995807    53.691205 0.0090940388 0.0076280271            2 
  493000   0.47450348   -8.9869977    53.788398 0.0090920213 0.0076022387            2 
  494000   0.47124278   -8.9970033    53.790249 0.0090739286 0.0075765501            4 
  495000   0.48029107   -8.9996644    53.722726 0.0090442299  0.007551005            4 
  496000   0.48446626   -9.0040664    53.685767 0.0090197861 0.0075255217            4 
  497000   0.47606406   -9.0046744    53.764405 0.0090148232 0.0075001491            6 
  498000   0.46194535    -9.010412    53.769155 0.0089975159 0.0074748835            6 
  499000   0.46678598   -9.0034217    53.680889 0.0089647443 0.0074497652            4 
  500000   0.46090637   -9.0076146    53.716004 0.0089526674 0.0074247743            4 
  501000   0.47730662   -9.0051821    53.717347 0.0089350212 0.0073998499            7 
  502000   0.46982089   -9.0270483    53.724097 0.0089183429 0.0073750427            5 
  503000   0.45930505    -9.025017     53.67258 0.0088920775 0.0073503697            5 
  504000   0.46881118   -9.0309176    53.715494   0.00888153  0.007325789            5 
  505000   0.45254253   -9.0200706    53.605764 0.0088458356 0.0073012999            5 
  506000   0.45216422   -9.0369044    53.672248  0.008839303 0.0072769171            6 
  507000   0.46186057    -9.024215    53.672276 0.0088218731  0.007252667            6 
  508000   0.45509323   -9.0234592     53.69811 0.0088087451 0.0072285086            5 
  509000    0.4479802   -9.0311582     53.63599 0.0087812688 0.0072044455            9 
  510000    0.4473892   -9.0394667    53.636647 0.0087641581 0.0071804608            6 
  511000   0.44845634   -9.0309626    53.696811 0.0087568185 0.0071566232            6 
  512000   0.45421045   -9.0349766    53.650179 0.0087321254 0.0071328623            7 
Loop time of 1244.34 on 48 procs for 500000 steps with 4000 atoms

Performance: 69434.338 tau/day, 401.819 timesteps/s
99.4% CPU use with 48 MPI tasks x no OpenMP threads

MPI task timing breakdown:
Section |  min time  |  avg time  |  max time  |%varavg| %total
---------------------------------------------------------------
Pair    | 84.002     | 88.831     | 92.927     |  25.7 |  7.14
Neigh   | 8.31       | 8.647      | 9.1302     |   6.1 |  0.69
Comm    | 77.961     | 83.252     | 88.688     |  32.1 |  6.69
Output  | 0.97465    | 0.97536    | 0.99672    |   0.3 |  0.08
Modify  | 1048       | 1051.7     | 1056.4     |   5.1 | 84.52
Other   |            | 10.93      |            |       |  0.88

Nlocal:        83.3333 ave          90 max          76 min
Histogram: 1 3 3 6 8 11 4 8 2 2
Nghost:        2233.46 ave        2255 max        2204 min
Histogram: 1 0 2 8 7 9 9 3 4 5
Neighs:        14905.4 ave       16656 max       13609 min
Histogram: 3 6 7 9 4 9 5 1 2 2
FullNghs:      29811.7 ave       32088 max       27140 min
Histogram: 1 3 1 8 9 7 7 5 4 3

Total # of neighbors = 1430962
Ave neighs/atom = 357.74050
Neighbor list builds = 26683
Dangerous builds = 0

#clear
#
#next RN
#
#jump SELF
Total wall time: 0:20:47
