
units lj                  # Use reduced LJ style units
atom_style atomic         # Uncharged point particles
atom_modify map hash      # Needed for indexing of clusters etc
                          # Used to be able to find where atoms are in relation to each other.

lattice fcc 1.0 spacing 1 1 1
Lattice spacing in x,y,z = 1.5874011 1.5874011 1.5874011
region box block 0 10 0 10 0 10 units lattice
create_box 2 box
Created orthogonal box = (0.0000000 0.0000000 0.0000000) to (15.874011 15.874011 15.874011)
  3 by 4 by 4 MPI processor grid
create_atoms 1 box
Created 4000 atoms
  using lattice units in orthogonal box = (0.0000000 0.0000000 0.0000000) to (15.874011 15.874011 15.874011)
  create_atoms CPU = 0.002 seconds
set type 1 type/fraction 2 0.67 78393
Setting atom values ...
  2693 settings made for type/fraction
mass 1 1.0
mass 2 1.0
pair_style lj/cut  3.5
pair_modify tail  yes
pair_coeff 1  1  1.0  1.0   # Intearaction between 1 and 1 set with epsilon = 1 and sigma = 1
pair_coeff 1  2  1.5  0.8
pair_coeff 2  2  0.5  0.88

write_data data.0
System init for write_data ...
Neighbor list info ...
  update every 1 steps, delay 10 steps, check yes
  max neighbors/atom: 2000, page size: 100000
  master list distance cutoff = 3.8
  ghost atom cutoff = 3.8
  binsize = 1.9, bins = 9 9 9
  1 neighbor lists, perpetual/occasional/extra = 1 0 0
  (1) pair lj/cut, perpetual
      attributes: half, newton on
      pair build: half/bin/atomonly/newton
      stencil: half/bin/3d
      bin: standard
WARNING: Not all mixed pair coeffs generated from mixing. Use write_data with 'pair ij' option to store all pair coeffs. (../write_data.cpp:312)


#############################
#   M E L T   S Y S T E M   #
#############################

velocity all create 2.4 6229865 mom yes dist gaussian # Assign velocities
                                                    # Temperature 2.4, random number seed, zero linear momentum
                                                                                # Gaussian distribution

timestep 0.002   # simulation timestep
thermo 1000       # output thermodynamic data every 1000 steps bf 100

# Define a fix  in this case with index 1 applied to all
# particles in the simulation. This fix is for simulations
# in the anisotropic NPT ensemble. Note that we use the MTK
# correction.
fix 1 all npt temp 2.4 2.4 0.1 iso 5.68 5.68 0.5 mtk yes tchain 5 pchain 5 # Use NPT ensemble
                                                                         # Set temperature and pressure and damping
                                                                         # Numbers of thermostats in chain and in barostat
run 10000          # run for 10000 steps
Per MPI rank memory allocation (min/avg/max) = 3.642 | 3.644 | 3.648 Mbytes
Step Temp E_pair E_mol TotEng Press Volume 
       0          2.4   -4.3445498            0  -0.74544977   -3.8717164         4000 
    1000    2.4366784   -4.1205173            0  -0.46641345    5.4063264    3600.8637 
    2000    2.3770764    -3.972827            0  -0.40810389    5.4729125    3665.7669 
    3000    2.3880016   -4.0127981            0   -0.4316912    5.6873962    3636.2514 
    4000    2.4372912     -3.98124            0  -0.32621728    6.3106055    3595.1594 
    5000    2.3654642   -4.0126917            0  -0.46538245    5.3713156    3659.2213 
    6000    2.3933793   -4.0755961            0  -0.48642459    5.8151792    3594.6096 
    7000    2.4255372    -3.976564            0  -0.33916775    5.9055209    3633.9963 
    8000     2.354699   -4.0495433            0  -0.51837777    5.3109346    3643.0752 
    9000     2.375104   -4.0440619            0  -0.48229659    5.4519119    3636.3205 
   10000    2.4166331   -4.0273807            0  -0.40333726    5.9563679    3606.5731 
Loop time of 2.71603 on 48 procs for 10000 steps with 4000 atoms

Performance: 636222.420 tau/day, 3681.843 timesteps/s
99.6% CPU use with 48 MPI tasks x no OpenMP threads

MPI task timing breakdown:
Section |  min time  |  avg time  |  max time  |%varavg| %total
---------------------------------------------------------------
Pair    | 1.1727     | 1.2718     | 1.4712     |   4.1 | 46.83
Neigh   | 0.21884    | 0.22669    | 0.26237    |   1.5 |  8.35
Comm    | 0.74929    | 0.92632    | 1.0886     |   6.7 | 34.11
Output  | 0.00025084 | 0.00025747 | 0.00032264 |   0.0 |  0.01
Modify  | 0.21193    | 0.2755     | 0.35446    |   8.2 | 10.14
Other   |            | 0.01544    |            |       |  0.57

Nlocal:        83.3333 ave          93 max          71 min
Histogram: 2 1 0 6 8 15 6 1 5 4
Nghost:        1756.85 ave        1801 max        1720 min
Histogram: 4 4 7 5 10 5 3 5 2 3
Neighs:        10600.1 ave       12161 max        8639 min
Histogram: 2 1 3 5 5 9 13 4 3 3

Total # of neighbors = 508807
Ave neighs/atom = 127.20175
Neighbor list builds = 910
Dangerous builds = 228

# Equilibrate just above the melting temperature to avoid step fn in T

fix 1 all npt temp 1.25 1.25 0.1 iso 5.68 5.68 0.5 mtk yes tchain 5 pchain 5
run 2000
Per MPI rank memory allocation (min/avg/max) = 3.644 | 3.646 | 3.649 Mbytes
Step Temp E_pair E_mol TotEng Press Volume 
   10000    2.4166331   -4.0273807            0  -0.40333726    5.9563679    3606.5731 
   11000    1.2622062   -5.9285487            0   -4.0357127    5.5354965    2779.2845 
   12000    1.2699056   -5.9468261            0   -4.0424439    5.2909881    2779.9959 
Loop time of 0.66079 on 48 procs for 2000 steps with 4000 atoms

Performance: 523010.002 tau/day, 3026.678 timesteps/s
99.7% CPU use with 48 MPI tasks x no OpenMP threads

MPI task timing breakdown:
Section |  min time  |  avg time  |  max time  |%varavg| %total
---------------------------------------------------------------
Pair    | 0.30275    | 0.3246     | 0.36736    |   2.1 | 49.12
Neigh   | 0.042013   | 0.043998   | 0.050462   |   0.6 |  6.66
Comm    | 0.19683    | 0.24214    | 0.2639     |   2.7 | 36.64
Output  | 5.3515e-05 | 5.472e-05  | 7.1795e-05 |   0.0 |  0.01
Modify  | 0.040561   | 0.045091   | 0.049175   |   1.1 |  6.82
Other   |            | 0.004909   |            |       |  0.74

Nlocal:        83.3333 ave          91 max          76 min
Histogram: 1 2 9 2 11 6 9 3 2 3
Nghost:        2101.38 ave        2118 max        2085 min
Histogram: 1 2 5 9 8 9 7 3 2 2
Neighs:        13745.3 ave       15359 max       12581 min
Histogram: 6 8 4 7 4 3 6 5 4 1

Total # of neighbors = 659774
Ave neighs/atom = 164.94350
Neighbor list builds = 143
Dangerous builds = 10

#############################
# L I N E A R  Q U E N C H  #
#############################

# Define solid atoms. This closely follows ten Wolde  Ruiz-Montero and Frenkel  Faraday Discuss  1996  104  93-110
# Compute components of the per-atom q6 vector
compute q6 all orientorder/atom degrees 1 6 components 6 nnn NULL cutoff 1.3 # compute the Q6 parameter.
                                                                             # Use all neighbours within 1.3 unit cell.

# get number of connections
compute coord_number all coord/atom orientorder q6 0.5

# An atom is solid if it has 8 or more connections (of a possible 14)
variable is_solid atom c_coord_number>=8
group solid dynamic all var is_solid    # Must be dynamic to update
dynamic group solid defined

# do clustering
compute cluster solid cluster/atom 1.3 # Create a cluster where all atoms within are solid and max 1.3 units from another member

# define chunks one chunk per cluster
compute clus_chunks solid chunk/atom c_cluster nchunk every compress yes  # Says which atoms are in which chunk

# count the size of each chunk
compute size_chunks solid property/chunk clus_chunks count


# Find the maximum entry in the vector of chunk sizes
variable max_n equal max(c_size_chunks)


# Thermo style which includes this variable
# thermo_style custom step temp pe vol v_max_n

thermo ${N}  # Print the thermo information every 100 steps
thermo 1000  

# Reset the npt fix at a lower temperature (below freezing)
fix 1  all npt temp  ${temp} ${temp}  0.1  iso  5.68  5.68  0.5  mtk yes tchain  5  pchain  5
fix 1  all npt temp  0.45 ${temp}  0.1  iso  5.68  5.68  0.5  mtk yes tchain  5  pchain  5
fix 1  all npt temp  0.45 0.45  0.1  iso  5.68  5.68  0.5  mtk yes tchain  5  pchain  5

dump dmp2 all dcd ${N} traj.dcd
dump dmp2 all dcd 1000 traj.dcd


compute msd all msd com yes
variable twopoint equal c_msd[4]/6/(step*dt+1.0e-6)
fix 9 all vector 10 c_msd[4]
variable fit equal slope(f_9)/6/(10*dt)
thermo_style custom step temp pe c_msd[4] v_twopoint v_fit v_max_n

fix 1 all npt temp 1.25 ${temp} 0.1 iso 5.68 5.68 0.5 mtk yes tchain 5 pchain 5
fix 1 all npt temp 1.25 0.45 0.1 iso 5.68 5.68 0.5 mtk yes tchain 5 pchain 5
run 2000000 # 5000000  # Run for this many steps
Neighbor list info ...
  update every 1 steps, delay 10 steps, check yes
  max neighbors/atom: 2000, page size: 100000
  master list distance cutoff = 3.8
  ghost atom cutoff = 3.8
  binsize = 1.9, bins = 8 8 8
  4 neighbor lists, perpetual/occasional/extra = 1 3 0
  (1) pair lj/cut, perpetual
      attributes: half, newton on
      pair build: half/bin/atomonly/newton
      stencil: half/bin/3d
      bin: standard
  (2) compute orientorder/atom, occasional
      attributes: full, newton on
      pair build: full/bin/atomonly
      stencil: full/bin/3d
      bin: standard
  (3) compute coord/atom, occasional
      attributes: full, newton on
      pair build: full/bin/atomonly
      stencil: full/bin/3d
      bin: standard
  (4) compute cluster/atom, occasional
      attributes: full, newton on
      pair build: full/bin/atomonly
      stencil: full/bin/3d
      bin: standard
Per MPI rank memory allocation (min/avg/max) = 9.845 | 9.849 | 9.853 Mbytes
Step Temp PotEng c_msd[4] v_twopoint v_fit v_max_n 
   12000    1.2699056   -5.9468261 2.1251913e-30 1.4758272e-32 8.3333333e+20            2 
   13000    1.2477328   -5.9685386   0.57168912 0.0036646737  0.047186896            3 
   14000    1.2515596   -5.9693541    1.1199452   0.00666634  0.046057518            2 
   15000    1.2609556   -5.9654634    1.6582006 0.0092122251  0.046100643            4 
   16000    1.2657338   -5.9456743    2.1586236  0.011242831  0.044774158            2 
   17000    1.2533789   -5.9851718    2.7023377  0.013246753  0.044510617            1 
   18000    1.2102478    -6.027847    3.2320508  0.014963198  0.044297148            4 
   19000    1.2371749   -6.0207059    3.7290153   0.01635533  0.044070646            3 
   20000    1.2354891    -5.994221    4.3767033  0.018236263  0.044438615            3 
   21000    1.2475485   -5.9863951    4.8973474  0.019433918  0.044788684            1 
   22000    1.2693685   -5.9629949    5.4082022  0.020485614  0.044829047            3 
   23000    1.2534151   -6.0078583    5.8781251  0.021297554  0.044646138            1 
   24000    1.2525134   -6.0195866     6.461281  0.022435003  0.044512219            2 
   25000    1.2430444   -6.0053232    6.9543193  0.023181064  0.044533028            5 
   26000    1.2671079   -5.9897809     7.440189  0.023846759  0.044385513            4 
   27000    1.2443669   -5.9740222    7.9774559  0.024621777  0.044269645            2 
   28000    1.2239762   -6.0246765    8.4587022  0.025174708  0.044079265            2 
   29000    1.2476019   -6.0120293    8.8433352  0.025411882  0.043858563            3 
   30000    1.2330951   -6.0098029    9.3289151  0.025913653  0.043577336            2 
   31000    1.2391125   -5.9789517    9.8643562  0.026517086   0.04333979            5 
   32000    1.2521315   -6.0158135    10.419449  0.027133983  0.043186397            2 
   33000    1.2197824   -6.0045314    10.926139  0.027591259  0.043060743            2 
   34000    1.2145705   -5.9611121    11.425233  0.028003021  0.042975468            1 
   35000    1.2259595    -6.035672    12.016685  0.028611155   0.04293113            1 
   36000    1.2291096   -6.0389467     12.61003  0.029189884  0.042949216            4 
   37000    1.2402243   -6.0482729    13.096909  0.029497542  0.043026364            1 
   38000    1.2413602   -6.0325606    13.644172  0.029921428  0.043085598            5 
   39000    1.2729877   -5.9688905    14.051303   0.03002415   0.04310507            2 
   40000    1.2156973   -5.9882877    14.580151  0.030375315  0.043107143            2 
   41000    1.2590456   -6.0443642    15.090411  0.030671567  0.043091149            3 
   42000    1.2182396   -6.0228943    15.607487  0.030967236  0.043096919            5 
   43000    1.2115926   -6.0191591    16.226735   0.03144716  0.043111897            3 
   44000    1.2263672   -6.0250581    16.767684  0.031756976  0.043137751            2 
   45000    1.2383509   -6.0305512    17.246919  0.031938739  0.043166555            2 
   46000    1.2280861   -6.0330793    17.734946  0.032128525  0.043193263            2 
   47000    1.2260377   -5.9993223    18.419128  0.032658028  0.043214875            3 
   48000    1.2368106   -6.0205042    18.992541   0.03297316  0.043269465            3 
   49000    1.2526664     -5.97028    19.612067  0.033353855  0.043357181            4 
   50000    1.2384154   -6.0192841    20.188096  0.033646827  0.043433858            3 
   51000    1.2006314    -6.021332     20.69001  0.033807206   0.04351096            3 
   52000    1.2145656   -6.0578056    21.164735  0.033917844  0.043606284            2 
   53000    1.2254374   -6.0413484    21.662386  0.034060356  0.043659427            2 
   54000    1.2270878   -6.0228162    22.233815  0.034311443  0.043699322            4 
   55000    1.2321641   -6.0024696    22.928216  0.034739721   0.04376325            2 
   56000    1.2345915     -6.04361    23.408301  0.034833781  0.043834144            2 
   57000    1.2531215   -6.0284853    23.869775  0.034897332  0.043898105            2 
   58000    1.2614548   -6.0546893    24.229757  0.034812869  0.043901318            4 
   59000    1.2455822   -6.0546803    24.724393  0.034921459  0.043897215            1 
   60000    1.2611212   -6.0697721    25.190283  0.034986505  0.043894206            3 
   61000    1.2386501   -6.0276154    25.883376  0.035359803  0.043897335            2 
   62000    1.1898669   -6.0531494    26.405964  0.035491887  0.043901311            2 
   63000     1.234654   -6.0036536    26.912974  0.035599172  0.043902995            2 
   64000    1.2207832   -6.0757148    27.391024  0.035665395  0.043914227            2 
   65000    1.2282196   -6.0282363    28.054479   0.03596728  0.043926402            3 
   66000    1.2520302   -6.0587692    28.287836  0.035716964  0.043923451            2 
   67000    1.2278845    -6.062483    28.803682  0.035825474  0.043901211            1 
   68000    1.2521345   -6.0355564    29.344947  0.035961944  0.043881498            2 
   69000    1.2085474    -6.047056     29.80048  0.035990918  0.043858806            7 
   70000    1.2162239   -6.0343592    30.218527  0.035974436  0.043814648            2 
   71000    1.2312695    -6.022364    30.826045  0.036180803  0.043770648            2 
   72000    1.2429785   -6.0833249    30.971846  0.035847044  0.043717657            4 
   73000    1.2111166   -6.0382397    31.874873  0.036386841  0.043664727            2 
   74000    1.2382153   -6.0574388    32.192769  0.036253118   0.04363723            3 
   75000    1.2216686   -6.0741885    32.592031  0.036213368  0.043588008            6 
   76000    1.2370036   -6.0382845    33.324005  0.036539479  0.043555057            2 
   77000    1.2558186   -6.0810235    33.660062  0.036428638  0.043528021            2 
   78000    1.1990749   -6.0673483    34.339212  0.036687192  0.043496239            6 
   79000    1.2120177   -6.0589902    35.004115  0.036924172  0.043470273            1 
   80000    1.2163614   -6.0831392    35.213046  0.036680256  0.043449722            2 
   81000    1.2211061   -6.0383258    35.804949  0.036836367  0.043416955            4 
   82000    1.2178149   -6.0844498    36.137602  0.036725205  0.043379117            3 
   83000    1.2124576    -6.093787    36.804961  0.036952772  0.043344166            2 
   84000    1.2447304   -6.0890084    37.561236  0.037263131  0.043330619            3 
   85000    1.2094102   -6.0400685    37.991801  0.037246863   0.04332379            1 
   86000    1.2154542   -6.0856927    38.387661  0.037197346  0.043308757            3 
   87000    1.1999923    -6.012852    39.133533  0.037484227  0.043289339            3 
   88000    1.2291931   -6.0517939    39.337425  0.037251349   0.04327072            2 
   89000    1.2416558     -6.06297     39.63716  0.037113446  0.043232826            7 
   90000    1.2134946   -6.1198682    40.133903  0.037161021  0.043206425            1 
   91000    1.2275154   -6.0411181     40.82812  0.037388388   0.04317013            1 
   92000    1.2317521   -6.0527654    41.136271  0.037261115  0.043137208            1 
   93000    1.2206086   -6.0228072    41.629427  0.037302354  0.043097447            1 
   94000    1.2230912   -6.0913887    42.092369  0.037315929  0.043056755            2 
   95000     1.215511   -6.0645687    42.588325   0.03735818  0.043008242            2 
   96000     1.232022   -6.0496542    43.090749  0.037405164  0.042968354            7 
   97000    1.2264902   -6.1039098     43.45907   0.03733597  0.042934792            2 
   98000    1.2128096   -6.0607896    44.104356  0.037503704  0.042902131            5 
   99000     1.198664   -6.0824882    44.292077  0.037282893  0.042862805            1 
  100000    1.2229393   -6.0533837    44.639842  0.037199868  0.042818295            1 
  101000    1.1969042   -6.0682605     45.26607  0.037348242   0.04276786            3 
  102000    1.2302142   -6.0429327    45.938852  0.037531742  0.042727503            2 
  103000    1.2208084   -6.0670508    46.258791  0.037426206  0.042684175            3 
  104000    1.2416315   -6.0512214    46.808623   0.03750691  0.042633996            3 
  105000    1.2050759   -6.1275404    46.733138  0.037089792  0.042581687            3 
  106000    1.1965029   -6.0975021    47.476746  0.037324486  0.042527252            2 
  107000    1.2293337   -6.1034477    48.082555  0.037447473  0.042484299            3 
  108000    1.2026436   -6.1326228    48.511728  0.037431889  0.042447615            3 
  109000    1.1878406   -6.0902205    49.207133  0.037620132  0.042404973            1 
  110000    1.2164576   -6.1007687     49.56384  0.037548363  0.042368097            2 
  111000    1.2070158   -6.0714042    49.994648  0.037533519  0.042323413            3 
  112000    1.2287501   -6.0760154     50.56527  0.037622968  0.042288746            2 
  113000    1.2098495   -6.0515052    51.103327  0.037686819  0.042253019            2 
  114000    1.2202382   -6.0836377    51.546735  0.037680361  0.042217545            2 
  115000    1.2250713   -6.0949517     51.94363  0.037640312  0.042186479            4 
  116000    1.2308646   -6.0821753    52.567785  0.037764213  0.042148144            3 
  117000    1.2060082   -6.0885459    53.005496  0.037753202  0.042118184            1 
  118000    1.2055405   -6.0826639    53.620689  0.037867718  0.042093125            2 
  119000    1.2129509    -6.118326    53.861649  0.037718242  0.042071762            2 
  120000    1.1837572   -6.0799127    54.450109  0.037812576   0.04204336            3 
  121000    1.2232048   -6.0286132    55.309912  0.038092226  0.042024137            3 
  122000    1.2278061   -6.0995039    55.441955  0.037870188  0.042006519            2 
  123000    1.1798818   -6.0882477    56.387994  0.038203248  0.041989157            2 
  124000     1.205991   -6.0721807    56.777138  0.038156678  0.041975111            3 
  125000    1.2202533   -6.0983722    56.951607  0.037967738  0.041959186            4 
  126000    1.2010081   -6.1214686    57.310435  0.037903727  0.041933509            1 
  127000    1.1870068   -6.0837051    57.870804  0.037972968  0.041913123            3 
  128000    1.1974625   -6.0945775    58.169318  0.037870649  0.041887632            1 
  129000    1.1990864   -6.1324782    58.633347  0.037876839  0.041857306            1 
  130000    1.1664676   -6.0771203    59.361229   0.03805207  0.041832265            2 
  131000      1.19299   -6.0929448      59.7391  0.038001972  0.041804684            3 
  132000    1.2183513     -6.09999     60.37308  0.038114318  0.041780714            5 
  133000    1.2282162   -6.0749211    60.946638  0.038187116  0.041766776            2 
  134000    1.2218641   -6.0774585    61.466495  0.038225432  0.041753708            3 
  135000    1.1989482   -6.0863064    61.797452  0.038146575  0.041737804            2 
  136000    1.2284922   -6.1401841    61.981578  0.037978908  0.041716878            4 
  137000     1.205714   -6.1510756    62.464515  0.037995447  0.041693319            4 
  138000    1.1763704    -6.095674    62.923465  0.037997261  0.041669491            2 
  139000    1.1726537   -6.0707953    63.474655   0.03805435  0.041646552            3 
  140000    1.1708285   -6.1352301    63.696572  0.037914626  0.041618207            2 
  141000     1.218335   -6.1197518    64.366381  0.038041596  0.041588845            2 
  142000    1.1850836   -6.1407008    64.537731  0.037874255  0.041560235            6 
  143000    1.1927096   -6.0923512    64.995999  0.037876456  0.041528117            3 
  144000    1.1931514   -6.1238083    65.650106  0.037991959  0.041494106            2 
  145000    1.1918547   -6.0857035    66.038345  0.037953072  0.041460446            2 
  146000    1.1716962   -6.1221192    65.915027  0.037622732  0.041427402            4 
  147000    1.2104396   -6.0846804     66.54228  0.037722381  0.041387752            1 
  148000    1.2158043   -6.0863405    67.182042  0.037827726   0.04135124            3 
  149000    1.1927664   -6.1462895     67.26685  0.037621281  0.041308244            2 
  150000    1.2073583   -6.1286012    67.836508  0.037686949  0.041269155            3 
  151000    1.2157632   -6.1374198    68.299091  0.037692655  0.041232187            4 
  152000    1.1999113   -6.1065803    69.030059  0.037845427   0.04119972            2 
  153000    1.2135852   -6.1027042    69.420327  0.037810636  0.041167536            2 
  154000    1.2319909   -6.1213346     70.07327  0.037918436  0.041134844            2 
  155000     1.205416   -6.1027442    70.428741  0.037864914   0.04110245            2 
  156000    1.1795508    -6.113356    70.997015  0.037925756  0.041072501            4 
  157000    1.1983768   -6.1138609    71.513278  0.037958216   0.04104883            3 
  158000    1.1735188   -6.1129721    72.009455   0.03797967  0.041021356            2 
  159000    1.1876391   -6.0766082    72.424357  0.037958258  0.040995783            3 
  160000     1.222058   -6.1103725     73.08314  0.038064135  0.040971379            2 
  161000    1.2054621   -6.1172821    73.349711  0.037965689  0.040949789            3 
  162000     1.152199   -6.1250124     73.97338   0.03805215  0.040929316            2 
  163000    1.1837086   -6.1234175    74.710806  0.038195709  0.040909579            4 
  164000     1.174337   -6.0803008    75.203755   0.03821329   0.04089168            3 
  165000    1.2001578   -6.1301673    75.257806  0.038008993  0.040873826            5 
  166000    1.2308344   -6.1337413    76.062898  0.038184186  0.040854899            1 
  167000    1.1781933   -6.1092366    76.689087  0.038268007  0.040845514            4 
  168000     1.188707   -6.1416427    77.120906  0.038254418  0.040831787            1 
  169000    1.2137433   -6.1680211    77.417226  0.038174175  0.040819283            4 
  170000    1.1826836   -6.0977758     77.95508  0.038213275  0.040804809            3 
  171000    1.1887464   -6.1684946    78.559198  0.038284209  0.040789746            4 
  172000     1.164096   -6.1390594    78.872586  0.038213462  0.040775566            3 
  173000    1.1713973   -6.1123715    79.359066  0.038226911   0.04076269            2 
  174000    1.1786217   -6.1693848    80.026005  0.038326631  0.040753907            3 
  175000    1.1922322   -6.1423505    80.602736  0.038382255  0.040744536            2 
  176000    1.1870469   -6.0810359     81.41547  0.038548991  0.040736981            2 
  177000    1.2015994   -6.1279735    81.447733   0.03834639  0.040726966            7 
  178000    1.1517247   -6.1652665    81.841144  0.038315142  0.040719814            2 
  179000    1.2212412   -6.1758966    81.971207  0.038161642  0.040708264            3 
  180000    1.1681082    -6.089452    82.716942   0.03829488  0.040690587            3 
  181000    1.1901522    -6.173646    82.942362  0.038187091   0.04067292            3 
  182000    1.1571126   -6.2049226    83.078222  0.038039479  0.040656185            5 
  183000    1.1693493   -6.1704891     83.87023  0.038192272  0.040636051            3 
  184000    1.1779709   -6.1339936    84.392194  0.038221102  0.040620782            5 
  185000    1.1765964   -6.1458577    84.776191  0.038187473  0.040605576            1 
  186000    1.1691455   -6.1649724     84.53295  0.037873186  0.040585721            4 
  187000    1.1872186   -6.1395306    85.345991  0.038032973  0.040563902            3 
  188000    1.1723834   -6.1469741    85.757794  0.038013206  0.040544282            2 
  189000    1.1860626   -6.1299429    86.088543  0.037957911  0.040522438            5 
  190000    1.1900172   -6.1518185    86.897883  0.038113106  0.040501533            4 
  191000    1.1753734   -6.1649421    86.978373  0.037948679  0.040479755            2 
  192000    1.1877366   -6.1324098    87.662586  0.038047997  0.040460216            3 
  193000    1.1790678   -6.1710733    87.711683  0.037872056  0.040441415            6 
  194000    1.1748926   -6.1709822    88.429797  0.037985308  0.040419192            2 
  195000    1.1831852    -6.152805    89.267253  0.038148399  0.040399962            1 
  196000     1.176381   -6.1441452    89.748376  0.038158323  0.040382276            2 
  197000    1.1677089   -6.2005227    89.738041  0.037960254    0.0403665            4 
  198000    1.1784245   -6.1544705    90.235942   0.03797809  0.040348293            1 
  199000    1.1816406    -6.155186    90.864954  0.038050651  0.040328229            2 
  200000    1.2004702   -6.1689725    91.575585  0.038156494  0.040312391            5 
  201000     1.178581   -6.1129146    92.040343  0.038159346   0.04029722            1 
  202000    1.1785592   -6.1512372    92.522951  0.038169534  0.040283084            2 
  203000    1.1656339   -6.1566528    92.595086  0.038011119  0.040268244            3 
  204000    1.1709994   -6.1786361    93.010584  0.037994519  0.040249944            4 
  205000    1.1548067   -6.1471164    93.667609  0.038076264  0.040232359            2 
  206000    1.1909218    -6.178238    94.048235  0.038045402  0.040215044            4 
  207000    1.1692215   -6.1563435    94.362762  0.037988229  0.040196537            3 
  208000    1.1433253   -6.1975675    94.986816  0.038055615   0.04017857            3 
  209000    1.1620868   -6.2250799    95.043848  0.037896271  0.040160962            2 
  210000    1.1822981    -6.234625    95.636937  0.037951165  0.040141743            3 
  211000    1.1669896   -6.1793762    96.787227  0.038225603  0.040125176            3 
  212000    1.1709469   -6.1551331    97.231084  0.038219766  0.040112484            3 
  213000    1.1695211   -6.1560636    97.625776  0.038194748  0.040101646            1 
  214000    1.1865688   -6.1553934    98.084849  0.038195034  0.040088857            4 
  215000    1.1790249   -6.2012292      98.4574  0.038161783  0.040073607            4 
  216000    1.1568495   -6.1393187    98.755961  0.038100294  0.040058624            4 
  217000    1.1516586   -6.1950129    99.043811  0.038035258  0.040044871            6 
  218000    1.1750077     -6.17438       99.169  0.037908639   0.04003063            9 
  219000    1.1723778   -6.1628462    99.933022  0.038026264  0.040016202            6 
  220000    1.1440262   -6.1849915    99.889807  0.037837048  0.039999828            3 
  221000    1.1542747   -6.2246202    100.46855  0.037884069  0.039982762            1 
  222000    1.1865038   -6.2133936    101.31664  0.038031771  0.039967087            2 
  223000    1.1752959   -6.1466625    101.72023  0.038012042  0.039951425            3 
  224000    1.1846433   -6.1599026    101.83078  0.037883474  0.039933481            3 
  225000    1.1561751   -6.1636023    102.25924  0.037873793  0.039916351            6 
  226000    1.1726916   -6.1566896    102.75598  0.037889375  0.039896321            2 
  227000    1.1647284   -6.1808745    102.67133  0.037691383  0.039872839            5 
  228000    1.1604747   -6.1965194     102.9137  0.037614657  0.039846999            1 
  229000    1.1839298   -6.2135396    103.67336   0.03772684  0.039820689            4 
  230000    1.1628115   -6.1236922    104.27414  0.037780486  0.039795529            3 
  231000    1.1579236   -6.2232177    104.16248  0.037576652   0.03976919            3 
  232000    1.1756148   -6.2113737    104.75698  0.037628227  0.039743967            3 
  233000    1.1711212   -6.1468853    105.01754   0.03755992  0.039720858            4 
  234000    1.1517574   -6.1600202    106.08333  0.037778965  0.039698848            6 
  235000    1.1746785   -6.1808156    106.16656  0.037647717  0.039677212            3 
  236000    1.1604864   -6.1739294    106.74315  0.037691791  0.039657177            3 
  237000    1.1699075   -6.1709666    106.87792   0.03758014  0.039635667            2 
  238000    1.1719217   -6.1833867    107.51131  0.037644016  0.039613693            5 
  239000    1.1648401   -6.1736831    108.13701  0.037704675  0.039591106            2 
  240000    1.1321189   -6.1899372    108.25018  0.037586869  0.039569507            3 
  241000    1.1558536   -6.2014613    108.48147   0.03751088  0.039546928            1 
  242000    1.1411665   -6.2202663    109.12855  0.037578701  0.039525856            4 
  243000    1.1503522    -6.197341    109.77623   0.03764617  0.039507697            6 
  244000     1.151815   -6.2053514    110.27487  0.037662182  0.039489459            2 
  245000    1.1679508   -6.2179325    110.46118   0.03757183  0.039471014            3 
  246000    1.1624114   -6.1977828    110.74247  0.037514385  0.039450315            2 
  247000    1.1691496   -6.1966697    111.38276  0.037578529  0.039429692            4 
  248000    1.1601584     -6.18832    111.75969  0.037553659  0.039409479            4 
  249000    1.1490225   -6.2145168    112.40361  0.037618345  0.039389908            3 
  250000    1.1727744   -6.2637315    112.46701  0.037489005  0.039368982            4 
  251000    1.1962316   -6.2166173    112.71387  0.037421604  0.039347879            2 
  252000    1.1353559   -6.1679011    113.38914  0.037496409  0.039326662            3 
  253000    1.1611706   -6.2283587    113.76304  0.037471356  0.039304073            4 
  254000    1.1541135   -6.2017648    114.06514  0.037422947  0.039282147           10 
  255000    1.1474287   -6.2392877    114.35906  0.037372243  0.039259803            2 
  256000      1.15551   -6.1954198    114.68385  0.037331981  0.039238119            6 
  257000    1.1438219   -6.2583165     115.1886   0.03735039  0.039215258            3 
  258000    1.1270899   -6.1747141    115.84141  0.037416475  0.039194249            5 
  259000    1.1828032   -6.2084067    115.70339  0.037227604  0.039172178            2 
  260000    1.1409877   -6.2095667    116.18697  0.037239413  0.039148723            3 
  261000    1.1421517   -6.2199067    116.50272  0.037197546  0.039125288            2 
  262000    1.1661157   -6.2648217    116.63121  0.037096442  0.039100567            2 
  263000    1.1303904   -6.2409107    117.72772  0.037302827  0.039077953            2 
  264000    1.1443006   -6.2328526    117.79301  0.037182137  0.039053537            3 
  265000    1.1502554   -6.2295442    118.35353   0.03721809  0.039031141            8 
  266000    1.1303286   -6.2694828    118.74257  0.037200052  0.039008653            6 
  267000    1.1410574   -6.2522024    119.07458   0.03716435  0.038986267            3 
  268000    1.1370325   -6.2072217    119.71021  0.037223323   0.03896359            2 
  269000    1.1271708   -6.2917326    119.81288  0.037116752  0.038939048            2 
  270000    1.1314439   -6.1986951    120.50596  0.037193197  0.038915371            2 
  271000    1.1604587   -6.2305581    120.92903  0.037186049  0.038892205            2 
  272000    1.1226994   -6.2033348    121.05856  0.037089021   0.03887005            7 
  273000    1.1204966   -6.2314892    121.34629  0.037040991  0.038848559            3 
  274000    1.1406633   -6.1901248    121.68888      0.03701   0.03882543            5 
  275000    1.1440091   -6.2413588    121.86838  0.036929811  0.038799961            3 
  276000    1.1125888   -6.2421444    122.63058  0.037026141  0.038776011            3 
  277000    1.1419929   -6.2567545    122.64717  0.036897463  0.038751132            3 
  278000    1.1639825   -6.2141102    123.30551  0.036962083  0.038725633            3 
  279000    1.1318563   -6.2155724     123.3911  0.036855168   0.03870024            4 
  280000    1.1532817   -6.2843104    123.92537   0.03688255  0.038673456            5 
  281000    1.1556365   -6.2523795    124.53862  0.036933161  0.038648627            3 
  282000    1.1321775   -6.2616231    125.22971  0.037006415  0.038625742            1 
  283000    1.1418243   -6.2558737    125.81667  0.037048488  0.038603394            3 
  284000    1.1713742   -6.2229066    126.14874  0.037015475  0.038580534            4 
  285000    1.1415863    -6.253924    126.46577  0.036978296  0.038560417            3 
  286000    1.1595147    -6.261102     126.9238  0.036982458  0.038539246            3 
  287000    1.1547144    -6.234456    127.28356  0.036958059  0.038517719            3 
  288000    1.1557259    -6.263891    127.68243  0.036945146  0.038497059            2 
  289000    1.1338926   -6.2239366    128.16431  0.036956261  0.038477225            1 
  290000    1.1340018   -6.2266718    128.58023  0.036948341   0.03845758            1 
  291000    1.1167443   -6.1935391     129.5357  0.037094987  0.038436796            4 
  292000    1.1469579   -6.2379384    129.32966  0.036909149  0.038415893            2 
  293000     1.139394   -6.2744902    129.41823   0.03680837  0.038396082            4 
  294000    1.1394572   -6.2128683    131.08875  0.037156676  0.038376343            6 
  295000    1.1190408   -6.2054542    130.73658  0.036931237  0.038357306            4 
  296000    1.1420055   -6.2655601    130.49365  0.036738076  0.038336903            4 
  297000    1.1398848   -6.2077086    131.20367    0.0368136  0.038315012            3 
  298000    1.1283778   -6.2542251    131.42571  0.036752156  0.038292609            5 
  299000    1.1331979   -6.2938691    131.85681  0.036749389  0.038268762            5 
  300000    1.1297775   -6.2674346    132.23479  0.036731885  0.038245732            5 
  301000    1.1491811   -6.2774776    132.35809  0.036643989  0.038222857            4 
  302000    1.1448619   -6.2658656    132.80332  0.036645509  0.038200841            4 
  303000     1.147655   -6.2934144    133.01106  0.036581699  0.038178305            9 
  304000     1.144402   -6.2669975    133.58962  0.036619962  0.038155659            5 
  305000    1.1305448   -6.2621332    133.68032  0.036524679  0.038132464            2 
  306000    1.1403212   -6.3224899    133.84473  0.036450089  0.038109316            4 
  307000    1.1047564   -6.2207931    134.91979  0.036623178   0.03808587            4 
  308000    1.1279673   -6.2676293    135.08386  0.036548663  0.038063764            3 
  309000    1.1298741   -6.2799244    135.41075  0.036518542   0.03804095            2 
  310000    1.1494182   -6.2737469    135.90069  0.036532443  0.038018387            4 
  311000     1.103481   -6.2549595    136.52104    0.0365812   0.03799666            2 
  312000    1.1297119   -6.2281979    136.94145  0.036576242   0.03797546            3 
  313000    1.1284503    -6.298298    136.64769  0.036381175  0.037955031            3 
  314000    1.1200599   -6.2415394    137.34501  0.036450375  0.037932743            2 
  315000    1.1298196   -6.2775784    137.62084  0.036407631  0.037909913            3 
  316000     1.122392   -6.2921272    137.84349  0.036351132  0.037887112            2 
  317000    1.1271844   -6.2786995    138.44918  0.036395683  0.037863638            3 
  318000    1.1596293   -6.2798204    138.57534  0.036314292      0.03784            4 
  319000    1.1160013   -6.2650504    138.76281  0.036249428  0.037816389            3 
  320000    1.1198516   -6.3077507    138.81927  0.036150851  0.037791277            4 
  321000    1.1374055   -6.3106244    139.09917  0.036110894  0.037766448            3 
  322000    1.1273165   -6.2722644    139.27439  0.036044096  0.037739299            2 
  323000    1.1179962   -6.3022417    139.82335  0.036074135  0.037715053            3 
  324000    1.1275087   -6.2993993    140.85185  0.036227328  0.037689997            2 
  325000    1.1421385   -6.3086933    140.50408  0.036026687  0.037664011            4 
  326000    1.1205406   -6.2825471    141.43022  0.036152919   0.03763921            4 
  327000    1.1243805   -6.3066821    141.68439  0.036107132  0.037614351            2 
  328000    1.1091592   -6.2760503    142.59474  0.036228339   0.03759007            6 
  329000    1.1233467   -6.2662767    142.41928   0.03607378    0.0375662            2 
  330000    1.1438843   -6.3057224    141.94617  0.035844993  0.037539904            3 
  331000    1.0990711    -6.261739    142.48871  0.035873291   0.03751368            4 
  332000    1.1301541    -6.326701    142.41764    0.0357474  0.037486322            5 
  333000    1.1308053   -6.2547419    143.73239  0.035969066  0.037459288            3 
  334000    1.0997527   -6.2897084    144.13065  0.035960741  0.037433018            2 
  335000    1.1262103    -6.282813    144.48908  0.035942557  0.037406998            2 
  336000    1.1024593   -6.3186651    144.34951   0.03580097  0.037380736            6 
  337000    1.1404593   -6.2758593    145.16991  0.035897604  0.037354332            4 
  338000    1.1384961   -6.2953222    146.05734  0.036010193   0.03732854            5 
  339000    1.1137587   -6.2707879    145.63775  0.035800824  0.037302124            2 
  340000    1.1281909    -6.317931    146.20554  0.035834692  0.037275504            3 
  341000    1.1189905   -6.2982013    146.12439  0.035709774  0.037249309            3 
  342000    1.1330159   -6.2973093    146.49626   0.03569597  0.037221217            2 
  343000     1.107748   -6.3048504    146.51322  0.035596019   0.03719329            3 
  344000    1.1066637   -6.3104669    146.81528  0.035565717  0.037165668            3 
  345000    1.1229461   -6.3131348    146.94724  0.035494502  0.037136586            4 
  346000    1.1200811   -6.3256603    147.15937  0.035443008  0.037108093            3 
  347000    1.1079188   -6.3105889    147.94936  0.035530585  0.037080188            6 
  348000    1.1499543   -6.2807312    148.55243  0.035572901  0.037053683            3 
  349000    1.1407091   -6.2801617    149.25439  0.035638583  0.037028594            3 
  350000    1.1432573   -6.2932757    149.37341  0.035565097  0.037002234            6 
  351000    1.1079902    -6.306359    149.44212  0.035480086  0.036974666            3 
  352000     1.138432   -6.3477834    149.33141  0.035353079  0.036947074            2 
  353000    1.1187649   -6.2931114    149.77205  0.035356953  0.036919817            4 
  354000    1.0963313   -6.3661146    149.74731  0.035251251  0.036892848            3 
  355000     1.132494   -6.3102376    151.28165  0.035512124  0.036866307            4 
  356000    1.1012827   -6.3059347     151.4379  0.035448947  0.036840915            4 
  357000    1.1175718   -6.3031211    152.14043  0.035513639  0.036815257            2 
  358000    1.1259628    -6.302944    152.44291  0.035484848   0.03678984            2 
  359000    1.1066316   -6.2774174    152.98564  0.035511987  0.036763931            2 
  360000     1.105021   -6.3216006    152.99563  0.035415656  0.036738364            2 
  361000    1.1155514    -6.329324    153.02107  0.035323424  0.036712832            4 
  362000    1.1426445   -6.3160172     153.4739  0.035330088  0.036687752            3 
  363000    1.0881436   -6.3078119    154.12164  0.035381459  0.036663876            2 
  364000    1.1419613   -6.3223023    154.86868  0.035455284  0.036640599            3 
  365000    1.1202666   -6.3304978    155.05633  0.035400988   0.03661802            3 
  366000     1.127801   -6.2985611    155.24743  0.035347776  0.036594867            2 
  367000    1.0965364   -6.3416741     155.7455  0.035364554  0.036572297            5 
  368000    1.1372256   -6.3158383    156.33249   0.03540138  0.036549577            2 
  369000    1.1092308    -6.294526    156.78945  0.035408639  0.036526267            3 
  370000    1.1144903   -6.3200893    156.80537  0.035316525  0.036503104            5 
  371000    1.1107424   -6.3216003    156.99391  0.035263681  0.036479645            4 
  372000    1.0973448   -6.3044629    157.24801  0.035225809  0.036455821            2 
  373000    1.0689996   -6.3461423    157.62286  0.035215115  0.036431919            7 
  374000    1.1138047   -6.3227382      158.274  0.035266044   0.03640821            4 
  375000    1.1075826   -6.3538069    158.20273  0.035156162  0.036384701            2 
  376000    1.1176345   -6.3238731    158.90714   0.03521878   0.03636093            3 
  377000    1.1177942   -6.3157874    159.71612  0.035304183  0.036338061            4 
  378000    1.1137612    -6.338914    160.28345  0.035335857  0.036317039            2 
  379000     1.097196   -6.3133773    160.59747  0.035311668  0.036296348            4 
  380000    1.1099954   -6.3584389    160.64841  0.035229915  0.036275311            3 
  381000    1.1146231   -6.3023322    160.90089  0.035192671  0.036253643            6 
  382000    1.1041009   -6.3230989    161.10417   0.03514489  0.036232598           11 
  383000    1.1054382   -6.3797187    161.16064  0.035065414  0.036210352            3 
  384000    1.1242844   -6.3666791    161.74316  0.035100512  0.036188595            8 
  385000    1.0825337   -6.3683955    162.13934  0.035095095  0.036167212            2 
  386000     1.104293   -6.3456416    162.51854  0.035086042  0.036145792            3 
  387000    1.0792175   -6.3139021    163.14704  0.035130715  0.036123963            4 
  388000    1.0961144   -6.3629158    163.23025  0.035058042  0.036100541            3 
  389000    1.1113054   -6.3827748    162.67094  0.034848103  0.036077558            3 
  390000    1.0933746   -6.3438331    163.69926  0.034978475  0.036054073            5 
  391000    1.1023913    -6.359468    163.80508  0.034911568  0.036031216            4 
  392000    1.1041801   -6.3506909    164.37686  0.034944061  0.036008583            3 
  393000    1.1169706   -6.3292825    165.03689  0.034995101  0.035986216            4 
  394000    1.0955363   -6.3535681    164.82385   0.03486122  0.035963834            6 
  395000    1.0850973   -6.3538697    164.53852  0.034712767  0.035940351            2 
  396000     1.107931   -6.3029412    165.59675    0.0348478   0.03591562            3 
  397000    1.0933452   -6.3537605    165.39636  0.034717959  0.035890578            2 
  398000    1.0994881   -6.3622677    165.51782  0.034656161  0.035865906            5 
  399000    1.0952749   -6.3445963    166.21856  0.034715655  0.035841842            2 
  400000    1.0788553   -6.3351456    166.80422   0.03475088  0.035818647            5 
  401000     1.097107   -6.3744123    167.27848  0.034762775  0.035795413            3 
  402000    1.0907227   -6.3577818    167.63762   0.03475075  0.035773015            2 
  403000    1.0789752   -6.3739529    167.62566  0.034662048  0.035751043            3 
  404000    1.1051159   -6.3441483    168.45738  0.034747809   0.03572831            2 
  405000    1.0758567   -6.3581277    168.41609  0.034653516  0.035705898            4 
  406000    1.0878998   -6.3628195    169.01931  0.034691976  0.035683436            6 
  407000    1.0865358   -6.4105541    168.64058  0.034529193   0.03566015            2 
  408000    1.1009092   -6.3469369    169.37737  0.034595052  0.035637197            3 
  409000    1.0885086   -6.3479757    169.83312  0.034603326  0.035615107            3 
  410000    1.0761876   -6.3656089    170.42007  0.034638226  0.035593279            7 
  411000    1.0816175   -6.3649202    170.78188  0.034627308  0.035570458            3 
  412000    1.0980913   -6.3613156    170.95407  0.034578089   0.03554799            4 
  413000    1.0976846   -6.3801503    170.95084  0.034493713  0.035525354            4 
  414000    1.0851707   -6.3802576    171.25578  0.034471776  0.035502186           11 
  415000    1.0734184   -6.3552457    171.97909  0.034533955  0.035479237            2 
  416000    1.1011951   -6.3752484    172.45008  0.034545288   0.03545697            2 
  417000    1.0795121   -6.3882978    171.78213  0.034328963  0.035434659            3 
  418000    1.0745592    -6.331109    173.10381  0.034510329  0.035412177            7 
  419000     1.086923   -6.3750466    172.60044  0.034327853  0.035388712            6 
  420000    1.0817531   -6.3980345    173.24548  0.034374103  0.035365051            7 
  421000    1.0901305   -6.3534329    173.57128  0.034356943  0.035342586            3 
  422000    1.0988515   -6.4026588    173.64296  0.034289685  0.035320095            5 
  423000     1.101327   -6.3764244    174.03757  0.034286362   0.03529728            5 
  424000    1.0852108    -6.385961    174.65326  0.034326505  0.035274267            1 
  425000    1.0801681   -6.4123625    174.48672  0.034213083   0.03525135            3 
  426000    1.0761965   -6.4066484    175.38218  0.034307938  0.035228747            7 
  427000    1.0978754    -6.388682    175.51181   0.03425289   0.03520615            2 
  428000    1.0792635   -6.3176526    176.78273  0.034420314  0.035183526            2 
  429000    1.0936569     -6.40052    176.61605  0.034307703  0.035161707            3 
  430000    1.0849643   -6.4442908    176.44187  0.034194161  0.035140345            4 
  431000    1.0879845    -6.376977    176.82359  0.034188629  0.035118058            1 
  432000    1.0668271   -6.3784786    176.80857  0.034106591  0.035095891            4 
  433000     1.088947   -6.3881753    177.36669  0.034135238  0.035073888            3 
  434000      1.09419   -6.3519103    178.50714  0.034275564  0.035052808            2 
  435000     1.105406   -6.4024349    177.70902  0.034043873  0.035032054            6 
  436000    1.0688793   -6.3853877    178.93712   0.03420052  0.035011644            3 
  437000     1.077163   -6.3805194    179.20949  0.034174196    0.0349908            3 
  438000    1.0443002   -6.3648065    179.32123  0.034117433  0.034969653            2 
  439000    1.0868998   -6.4284258    179.54148  0.034081527  0.034947597            4 
  440000    1.0725239   -6.4213974    179.80308  0.034053613  0.034926031            2 
  441000    1.1062752    -6.433596    180.45277  0.034099162  0.034905015            5 
  442000    1.0658155   -6.4105354    180.08708  0.033953069  0.034882889            5 
  443000    1.0721417   -6.3380059    181.48109  0.034138654  0.034861485            4 
  444000    1.0612267   -6.3624743    181.60776   0.03408554  0.034840738            3 
  445000    1.0819571   -6.3496789    182.05925  0.034093493  0.034819985            9 
  446000    1.0759487   -6.3984105    181.96421  0.033999291  0.034800133            5 
  447000    1.0712102   -6.3723625    182.45139  0.034014055  0.034779851            8 
  448000    1.0757274   -6.3680743    183.59202  0.034150301  0.034759611            3 
  449000     1.058909   -6.4229777    182.99043   0.03396259  0.034738946            5 
  450000    1.1098648   -6.3865819    184.24614  0.034119656  0.034719081            3 
  451000     1.076651    -6.382431    184.20213  0.034035869  0.034699722            3 
  452000    1.0631772    -6.396175    183.88184   0.03390152  0.034679917            2 
  453000    1.0636556   -6.3792348     184.2111  0.033887252  0.034659449            2 
  454000    1.0840121   -6.4257219    184.51557  0.033868497  0.034639366            2 
  455000    1.0828534   -6.3939467     184.4006  0.033773003  0.034618372            7 
  456000    1.0710052   -6.4235722    184.97647  0.033804179  0.034597161            6 
  457000    1.0929718   -6.3741481    185.34881  0.033798106  0.034576652            2 
  458000    1.0832892   -6.3919752    184.88655  0.033640202  0.034555583            3 
  459000      1.07438   -6.4518388    185.07051   0.03360031  0.034533774            6 
  460000    1.1012866   -6.4391894    185.25927  0.033561463   0.03451082            6 
  461000    1.0749766   -6.4037751    185.37271  0.033509167  0.034487649            3 
  462000    1.0868798   -6.4317014    186.03647  0.033556362  0.034464345            7 
  463000    1.0760236   -6.4089323    186.29947  0.033531222  0.034441372            5 
  464000    1.0677197   -6.4447119    186.73423  0.033537039  0.034418257            4 
  465000     1.070564   -6.4083369    186.85905  0.033487284  0.034395589            8 
  466000    1.0805873   -6.4391629    186.89926  0.033422614  0.034372458            5 
  467000    1.0436715   -6.4529275    186.90774  0.033352558  0.034349273            3 
  468000    1.0693275   -6.4478441    187.38869  0.033366932   0.03432653            4 
  469000    1.0820104    -6.442176    188.04457  0.033412325  0.034304448            2 
  470000    1.0922358   -6.4099709    188.67342  0.033452735  0.034283079            2 
  471000    1.0461437   -6.4218129    188.56575  0.033362659  0.034260994            5 
  472000    1.0870096   -6.4058422    189.80397  0.033510587  0.034239387            2 
  473000     1.062889   -6.4325782    189.72924  0.033426575  0.034217776            4 
  474000    1.0607623   -6.4606858    189.16345  0.033256584  0.034195323            2 
  475000    1.0553327   -6.4558756     189.5486   0.03325414  0.034172826            5 
  476000    1.0655329   -6.4513121    189.31633  0.033143615  0.034149206            6 
  477000    1.0956015   -6.4091339    190.43532  0.033269623  0.034126236            4 
  478000    1.0902616   -6.4037315    190.46731  0.033205598  0.034103128            2 
  479000    1.0492535   -6.4223553    191.25555  0.033273409  0.034080084            3 
  480000    1.0796534   -6.4208402    191.12465  0.033181363  0.034056206            4 
  481000    1.0756818   -6.4306733    191.04423  0.033098446  0.034032662            3 
  482000    1.0667491   -6.4176649    192.10376   0.03321296  0.034009353            2 
  483000    1.0651479    -6.475433    190.49284   0.03286626  0.033985714            3 
  484000    1.0671255   -6.4344975    192.34413  0.033117103  0.033961369            8 
  485000    1.0666853   -6.4455274    191.75569  0.032947713  0.033937964            4 
  486000    1.0663163   -6.4620792    191.54814  0.032844331  0.033913947            4 
  487000    1.0785572   -6.4767938    192.49649  0.032939166  0.033890318            4 
  488000    1.0572202   -6.4716576    193.31333  0.033011156  0.033866925            4 
  489000    1.0459526    -6.430834    193.48089  0.032972204  0.033843417            2 
  490000     1.048022   -6.4583419    193.19608  0.032856477  0.033819222            7 
  491000    1.0533901   -6.4322143    193.66551  0.032869231  0.033795723            3 
  492000    1.0746503    -6.459916    194.09405  0.032875009  0.033772537            4 
  493000     1.053091   -6.4734528    194.54194  0.032884032  0.033749132            6 
  494000    1.0581446   -6.4779018    195.35722  0.032954997  0.033725907            5 
  495000     1.054507    -6.488364    195.42351  0.032899581   0.03370344            4 
  496000    1.0400902   -6.4434163    195.52543  0.032850374  0.033681003            4 
  497000    1.0730408   -6.4515473    196.11805  0.032883643  0.033658933            4 
  498000    1.0884771   -6.4630065    196.40771  0.032866082  0.033636977            3 
  499000     1.074178   -6.4461417    197.17237  0.032927917  0.033615187            6 
  500000    1.0536089   -6.4643561    197.03617  0.032839362  0.033593134            1 
  501000    1.0493554   -6.4028433    197.87314  0.032913031  0.033571468            2 
  502000    1.0409356   -6.4643551    198.49329  0.032950413  0.033550394            3 
  503000    1.0550987   -6.4565834    198.46022  0.032879426  0.033529498            5 
  504000    1.0691844   -6.4679229     199.2496  0.032944708  0.033508579            6 
  505000    1.0560297   -6.4512335    199.82101  0.032973763  0.033487637            2 
  506000    1.0618355   -6.4274449    199.78078  0.032901973   0.03346712            3 
  507000     1.045206   -6.4591797     199.7544  0.032832742  0.033446714            6 
  508000    1.0693867    -6.443266    200.01958  0.032811612  0.033426186            6 
  509000     1.084225   -6.4859475    199.83597  0.032717088   0.03340549            4 
  510000    1.0460572   -6.4793964    199.98331  0.032677011  0.033384784            4 
  511000    1.0419976   -6.4624654    200.55606  0.032706468  0.033363814            3 
  512000    1.0464155    -6.463632    201.00286   0.03271531    0.0333425            4 
  513000    1.0403406   -6.4669087     200.3973  0.032553167  0.033321148            6 
  514000    1.0312065   -6.4500784    201.32542  0.032640308  0.033299234            4 
  515000    1.0442888   -6.4668243     200.6835  0.032473058  0.033277388            5 
  516000     1.044095   -6.4404963     201.8078    0.0325917  0.033256193            3 
  517000    1.0177386   -6.5123399    201.75439   0.03252005  0.033234529            3 
  518000    1.0619058   -6.4524165    202.16418  0.032523195  0.033212701            3 
  519000    1.0574266   -6.4728185     202.9609  0.032588456  0.033191366            4 
  520000    1.0256477   -6.4729916    203.17072  0.032559411  0.033170256            4 
  521000    1.0807776   -6.4814113    202.71956  0.032424753  0.033148773            4 
  522000    1.0623555   -6.5095434    202.64357  0.032350507  0.033127144            5 
  523000    1.0331417   -6.4680482    204.45039  0.032576544  0.033105841            4 
  524000    1.0480621   -6.5155651    203.95008  0.032434809  0.033083937            4 
  525000    1.0176023   -6.4956494    204.13498  0.032402377  0.033062826            6 
  526000    1.0816023   -6.5073216    204.43637  0.032388525  0.033042114            5 
  527000    1.0631019   -6.4718807    204.60153  0.032353183   0.03302141            2 
  528000     1.041935   -6.4998709     205.2053  0.032387201  0.033000802            3 
  529000    1.0577055    -6.476227    205.69982  0.032403878  0.032980175            2 
  530000    1.0569016   -6.4740126    205.53455  0.032316753  0.032959496            2 
  531000    1.0444914   -6.5093612     205.7464   0.03228914  0.032938024            2 
  532000      1.03381   -6.4885395    206.77755  0.032389967   0.03291748            7 
  533000    1.0295297   -6.5055941     206.7663  0.032327439  0.032896684            5 
  534000    1.0398566   -6.5037699    207.18958  0.032332956  0.032876257            3 
  535000    1.0347959   -6.5108385    207.15188  0.032266647  0.032855838            4 
  536000    1.0573054   -6.5010243    207.22211  0.032217368   0.03283559            3 
  537000    1.0485689   -6.4662657    208.36761  0.032335135  0.032815177            4 
  538000     1.029629   -6.5072534    208.26568  0.032259245  0.032795393            3 
  539000    1.0432005   -6.4942191    208.06464  0.032168312  0.032774985            5 
  540000    1.0267862   -6.4976589    208.58544  0.032189111  0.032755034            4 
  541000    1.0428618   -6.4913298    209.19494  0.032223496  0.032735381            6 
  542000    1.0519314   -6.5401169    209.69324  0.032240658   0.03271571            4 
  543000    1.0091977   -6.4768023    210.03888  0.032234327  0.032696472            6 
  544000    1.0284761   -6.4578988    210.79627  0.032291095  0.032677523            5 
  545000    1.0345682   -6.5016395    210.52163  0.032189852  0.032658566            1 
  546000    1.0516507   -6.4855134    210.69161  0.032156839  0.032638879            4 
  547000    1.0347655   -6.5586506    210.65901  0.032093085  0.032619303            5 
  548000    1.0294577    -6.522764    211.12433  0.032105282   0.03259966            6 
  549000    1.0411742   -6.5135221    212.11673   0.03219744  0.032579369            4 
  550000     1.028245   -6.5158883    211.61899  0.032063484  0.032559229            1 
  551000    1.0178419    -6.507892    212.59402  0.032152755  0.032539746            2 
  552000    1.0256335   -6.5259439    212.53271  0.032085252  0.032520026            3 
  553000    1.0446558    -6.497352     212.8735  0.032078586  0.032500414            2 
  554000     1.025981   -6.4623088    212.42016  0.031952491  0.032480947            7 
  555000    1.0389198   -6.5054312    212.24021  0.031867899  0.032461284            3 
  556000    1.0476869   -6.5158064    213.14983  0.031946917  0.032441747            6 
  557000    1.0171251   -6.5359939    213.22901  0.031901407  0.032421991            3 
  558000    1.0497667    -6.505668    213.93003  0.031948928  0.032402536            6 
  559000    1.0272165   -6.4998544    214.70639  0.032007512  0.032383611            3 
  560000    1.0255113   -6.5334991    214.53564  0.031924947   0.03236452            3 
  561000    1.0626718   -6.5249169    214.14423  0.031809897  0.032345014            4 
  562000    1.0291579   -6.5217704    214.92846  0.031869582    0.0323252            4 
  563000    1.0166403   -6.5689922     214.3369  0.031725414  0.032305461            3 
  564000    1.0447845   -6.5182519    215.76498  0.031880168  0.032285085            7 
  565000    1.0409218   -6.5662465     215.5391  0.031790427  0.032264618            5 
  566000    1.0325546   -6.5123297    215.20795  0.031685505  0.032244325            3 
  567000    1.0298033   -6.5398343    215.41222  0.031659645  0.032224475            4 
  568000    1.0147044   -6.5630967    216.28864  0.031732488    0.0322044            3 
  569000    1.0335232    -6.517129    216.66944   0.03173249  0.032184578            2 
  570000    1.0222308   -6.5458275    216.00589  0.031579809  0.032163961            4 
  571000    1.0304767   -6.5241747     215.9825  0.031521089  0.032143515            4 
  572000    1.0290705   -6.5293506    217.13055  0.031633239  0.032122585            4 
  573000    1.0366838   -6.5489604    216.36373  0.031466512  0.032101514            7 
  574000    1.0182452    -6.561578    217.29135  0.031546363  0.032081142            7 
  575000    1.0177028    -6.533774    217.40362  0.031507771   0.03206066            4 
  576000    1.0236147   -6.5512808    218.30141  0.031582959  0.032040063            4 
  577000    1.0154017   -6.5113371     218.1777  0.031510356  0.032019507            2 
  578000    1.0150975   -6.5683103    217.63014  0.031376895  0.031998883           11 
  579000    1.0055104    -6.534621    218.33757  0.031424521  0.031978274            4 
  580000    1.0138834    -6.553058    218.74497  0.031428875  0.031957264            3 
  581000    1.0228169   -6.5138143    218.75105  0.031375653  0.031936673            4 
  582000    1.0095411    -6.550235    219.62293  0.031446582  0.031916049            4 
  583000    1.0433615   -6.5457524     219.4242  0.031364237  0.031895544            5 
  584000    1.0193776    -6.523678    219.03402  0.031254854  0.031874859            5 
  585000    1.0279562   -6.5172699    220.12359  0.031356636  0.031854046            3 
  586000    1.0173891   -6.5722081    219.89157  0.031270132  0.031832975            2 
  587000    1.0114053   -6.5536481    219.59996  0.031175462  0.031811973            7 
  588000    1.0547466   -6.5178259    220.78139   0.03128988  0.031790762            7 
  589000    1.0261008   -6.5629123     220.1588   0.03114867  0.031769684            2 
  590000     1.011989    -6.528816    220.68946  0.031170828  0.031748012            3 
  591000   0.99981331   -6.5739747    220.46936   0.03108705  0.031725987            6 
  592000    1.0166125   -6.5498165    220.60668  0.031053869  0.031704349            5 
  593000    1.0262855   -6.5151515    220.72745  0.031018473   0.03168217            4 
  594000    1.0220576   -6.5522685    220.57781  0.030945259  0.031660031            2 
  595000    1.0243696   -6.5508075    221.21596  0.030982628  0.031637753            2 
  596000    1.0092753   -6.5596211    221.02046  0.030903309  0.031615812            1 
  597000    1.0230795   -6.5573874    221.36139  0.030899133  0.031593721            1 
  598000    1.0239284   -6.5232704     222.4878  0.031004432  0.031571292            7 
  599000    1.0107696   -6.5689293    221.76947  0.030852737  0.031548376            2 
  600000    1.0099876   -6.5992424    221.46892  0.030759572  0.031525301            2 
  601000   0.98630247   -6.5372372    223.03677  0.030925786  0.031502766            6 
  602000     1.026683   -6.5218982    222.87624  0.030852193  0.031480704            3 
  603000    1.0134711     -6.55049    222.74217    0.0307825  0.031458082            6 
  604000    1.0162737   -6.5623305     222.9197  0.030756029  0.031435374            3 
  605000    1.0181747    -6.546045    223.19974  0.030743765  0.031412482            4 
  606000    1.0167077    -6.560658    223.26897  0.030702553   0.03138982            4 
  607000   0.99769378   -6.5900517    222.95813  0.030609298  0.031367114            3 
  608000    0.9989935   -6.5981909    222.85499  0.030544817  0.031343627            5 
  609000    1.0261153   -6.5822712    223.15019  0.030535057  0.031320353            4 
  610000    1.0338837   -6.5817437    223.96893  0.030596848  0.031297585            4 
  611000   0.99360061   -6.5614826    224.39059  0.030604281  0.031274743            4 
  612000   0.97947673   -6.6094837    224.20285   0.03052871  0.031251904            7 
  613000    1.0061862    -6.585036     224.6696   0.03054236  0.031228716            7 
  614000    1.0074389   -6.5582878    225.40253  0.030592091  0.031206435            5 
  615000   0.99330477   -6.5734176    225.00638   0.03048867  0.031184083            7 
  616000    1.0090842   -6.5363998    225.53843  0.030511151  0.031161626            7 
  617000   0.98193799   -6.5950435    225.63672  0.030474976  0.031138941            3 
  618000    1.0258562   -6.5779103    225.58374   0.03041852  0.031116201            7 
  619000    1.0098771   -6.5766458    225.38795  0.030343019  0.031093764            5 
  620000    1.0021382   -6.6130444    226.07665  0.030386647  0.031070827            6 
  621000   0.98745421   -6.5620834    227.11351  0.030476853  0.031048501            4 
  622000   0.99482302   -6.5591414    227.31104  0.030454319  0.031026564            3 
  623000   0.98924512   -6.5791265    227.47737  0.030427684   0.03100454            3 
  624000   0.99795034   -6.5950931    226.80968  0.030289754  0.030982432            5 
  625000   0.99223575   -6.6183951    227.45802  0.030327736  0.030960056           12 
  626000    1.0141682   -6.5934464    227.82173  0.030327707  0.030937882           10 
  627000    1.0115882   -6.6222231     227.9786  0.030300187  0.030915782           10 
  628000    1.0182092   -6.6120136    227.59309  0.030200782  0.030893102            4 
  629000     1.004622   -6.5990631    228.14897  0.030226414  0.030870103            6 
  630000    1.0185102   -6.6275468    228.52388  0.030228027  0.030847478            1 
  631000    1.0243128   -6.5675039    228.53426  0.030181492  0.030825329            3 
  632000   0.98195803   -6.6112544    228.13196  0.030080691  0.030802503            4 
  633000    1.0232423   -6.5744817     229.2059  0.030174553  0.030779597            2 
  634000    1.0134436   -6.5982977     228.7841  0.030071516  0.030756573            4 
  635000    1.0115174   -6.5880012    229.05072   0.03005915  0.030733291            5 
  636000   0.99255292   -6.6009934     228.8457  0.029985024  0.030710167            3 
  637000    1.0000616   -6.5940039    229.63129  0.030040724  0.030687021            6 
  638000    0.9703146   -6.6458288    229.85623  0.030023019  0.030664243            4 
  639000    1.0077113   -6.5937031    231.00073   0.03012529   0.03064173            4 
  640000   0.99481264    -6.579289    230.91782  0.030067424  0.030619157           12 
  641000    1.0291074   -6.5901077    231.23653  0.030061952  0.030596649            7 
  642000     1.012301   -6.6175575    231.32544  0.030026667    0.0305745            4 
  643000   0.98979073   -6.6290198    231.19489   0.02996305  0.030552217            9 
  644000    1.0148618   -6.6201697    230.82425  0.029868562  0.030529611            5 
  645000    1.0121774   -6.6018294    231.97052  0.029970351  0.030507103            3 
  646000   0.98783046   -6.5740088    232.70046  0.030018119  0.030485024            7 
  647000   0.99912739   -6.6090635    231.62079  0.029832662  0.030462447            5 
  648000    1.0177118   -6.6135764     231.6799  0.029794225  0.030439693            4 
  649000   0.99145824   -6.6380701    230.65744  0.029617032   0.03041676           10 
  650000   0.98399557   -6.6184557    232.57143   0.02981685   0.03039346            7 
  651000   0.99344238   -6.6470781    232.29405  0.029735541  0.030370324            3 
  652000   0.97962652   -6.5950278    232.19019   0.02967666  0.030347171            4 
  653000     0.973831   -6.6259123    232.11217  0.029621257  0.030324449            3 
  654000   0.99798998   -6.6623255    232.36387  0.029608036  0.030301448            7 
  655000    1.0052295   -6.6090335    232.81581  0.029620332   0.03027855            4 
  656000   0.98325694   -6.6203806    232.75158   0.02956702   0.03025579            6 
  657000   0.99506928   -6.6095015     233.9364  0.029672298  0.030233476            2 
  658000    1.0031243   -6.5815242    233.93349  0.029626836  0.030210734            4 
  659000   0.98888982   -6.6075446    233.94485  0.029583314  0.030188092            6 
  660000    1.0097102   -6.6484956    233.99541  0.029544875  0.030164858           11 
  661000    1.0152773   -6.6265699    234.27785  0.029535786  0.030142086            5 
  662000   0.98399956   -6.6057132    234.79373   0.02955611  0.030119216            4 
  663000    1.0053554   -6.6726213    234.48399  0.029472598   0.03009627            8 
  664000   0.97708687   -6.5884876    234.10548  0.029380707  0.030073314            6 
  665000   0.99612276   -6.5950764    234.67319  0.029407667  0.030050634            5 
  666000   0.98380599   -6.6317548     234.9634  0.029399825  0.030027862            8 
  667000   0.99876052   -6.6163455    235.70311  0.029448164  0.030004743            3 
  668000    1.0150156   -6.6606184    234.35057  0.029235351  0.029981651            9 
  669000   0.98946968    -6.641913    236.16881  0.029418138  0.029958155            3 
  670000    1.0083111    -6.677713    236.33781   0.02939525  0.029935374            7 
  671000   0.97781773   -6.6639609    236.28518  0.029344906  0.029912707            4 
  672000   0.96389869   -6.6770855     235.6969  0.029228286  0.029889633            2 
  673000   0.97069084   -6.6523451    236.13936  0.029239643  0.029866737            5 
  674000   0.98881193   -6.6396212    236.67282  0.029262218  0.029843679            6 
  675000    0.9953203   -6.6694068    236.76423  0.029230152  0.029820614            4 
  676000    0.9902407   -6.6307057    236.86515  0.029199352  0.029797781            5 
  677000    0.9996496   -6.6324353    236.89952  0.029160453   0.02977458            8 
  678000   0.98758915   -6.6414249    236.93084  0.029121293   0.02975161            3 
  679000   0.97873168    -6.665394    237.27327  0.029120431  0.029728449            3 
  680000   0.97255562    -6.657894    237.45503  0.029099881  0.029705513            5 
  681000    0.9823128   -6.6567657    237.61854  0.029077159  0.029682184            5 
  682000   0.97802766   -6.6424501    237.23921  0.028988173  0.029658986            4 
  683000   0.96712086   -6.6783457    237.63912  0.028994524  0.029635666            5 
  684000   0.98032731   -6.6776154    237.70909  0.028960659  0.029612471           13 
  685000   0.98001823   -6.6463435    238.64337   0.02903204  0.029589402            6 
  686000   0.99027625   -6.6378119    238.03253  0.028915516  0.029566322            4 
  687000   0.99015651   -6.6266199     239.1397  0.029007727  0.029543487            4 
  688000   0.98669371   -6.6572324    239.40397  0.028997573  0.029520788            6 
  689000    0.9742517   -6.6635439    239.08608   0.02891704  0.029498027            4 
  690000   0.97715337   -6.6591594    239.57163  0.028933771  0.029475117            3 
  691000   0.97999417   -6.6692372    239.75556  0.028914081  0.029452344            6 
  692000    0.9704384   -6.6724053    239.91831  0.028891897  0.029429857            2 
  693000   0.98910672   -6.6884212    239.40459  0.028788431  0.029406948            4 
  694000   0.98205604    -6.678311     239.5916  0.028769404  0.029383592            6 
  695000   0.96666664   -6.6810763    239.76736  0.028749084  0.029360338            7 
  696000   0.97222511   -6.6729751    240.35337  0.028777942  0.029337246            4 
  697000   0.97544977   -6.6478677    240.92914  0.028805492  0.029314565            3 
  698000   0.95011835   -6.6502265     239.7793  0.028626946  0.029291651            2 
  699000   0.96112858   -6.6707792    241.00369  0.028731961  0.029268792           11 
  700000   0.97563065   -6.6928916    241.72081  0.028776287   0.02924645            4 
  701000   0.95532311   -6.6757747    241.76641  0.028740657  0.029223712            8 
  702000   0.98723987   -6.6410472    241.71515  0.028693632  0.029201441            2 
  703000    0.9661329   -6.7038902    241.43005   0.02861902  0.029178786           11 
  704000   0.95479002   -6.6800373    241.44677  0.028580347  0.029155837            5 
  705000   0.98745064   -6.6578325    241.93078  0.028597019  0.029133155            5 
  706000   0.96720518   -6.7318174    241.56842  0.028513742  0.029110542            7 
  707000   0.95459551   -6.6821884    242.34036  0.028564399  0.029087949            5 
  708000   0.96693632   -6.6631877    242.52585  0.028545886  0.029065666            5 
  709000   0.97693028   -6.6929244    243.44039  0.028613116  0.029043039            8 
  710000   0.95619345   -6.6822613    242.99965  0.028521085  0.029020518            6 
  711000   0.94103391   -6.7003746    242.57832  0.028431589  0.028997871            3 
  712000   0.98411834   -6.6472491     243.6118  0.028512617  0.028975591            6 
  713000   0.96677937    -6.639262    243.74995  0.028488774  0.028953518            8 
  714000   0.96350338   -6.6797773      243.223  0.028387371  0.028931057            5 
  715000   0.97323542   -6.6867854    243.78926  0.028413666  0.028908614            3 
  716000    1.0034171   -6.6689434    244.09311  0.028409346  0.028886149            6 
  717000   0.95480139   -6.7280567    243.82141  0.028338147  0.028863747            2 
  718000   0.95439173   -6.6934898    244.17063   0.02833921  0.028841489            7 
  719000   0.97318237   -6.6693267    244.55181  0.028343974  0.028819131            5 
  720000   0.96831089   -6.6928553    245.01812  0.028358578   0.02879684           11 
  721000   0.96465057   -6.6841523    245.25853  0.028347033  0.028775066            3 
  722000   0.96709379   -6.7248461    244.49606  0.028219766   0.02875301            3 
  723000   0.95627406   -6.6979955    244.88174  0.028225189  0.028730765            8 
  724000   0.95551169   -6.6579012    246.47986  0.028370149  0.028708712            2 
  725000   0.97175484   -6.6971318    245.24886  0.028189524  0.028686444            6 
  726000   0.97557815   -6.6739073    245.62553  0.028193932  0.028664284            9 
  727000   0.97644572   -6.6771269    246.37824   0.02824143  0.028642005            3 
  728000   0.96577429   -6.6995782    245.09472  0.028055714  0.028619653            3 
  729000   0.97731062   -6.7208942    245.64279   0.02807988  0.028597171            4 
  730000   0.98469199   -6.6738899    246.46475  0.028135246  0.028575203            2 
  731000   0.96093014   -6.7158625    246.03757  0.028048059  0.028553304            6 
  732000   0.97170936   -6.7100802    245.79069  0.027981636  0.028530859            7 
  733000   0.95625479   -6.7057018    246.60897  0.028036491  0.028508452            5 
  734000   0.97240057   -6.6896403    246.46205  0.027981614  0.028485817            4 
  735000   0.97504404   -6.6823259     247.0939  0.028015181  0.028463403            4 
  736000   0.98375589   -6.7127597    247.05417  0.027972618  0.028441499            6 
  737000   0.95956321   -6.6651406    247.38354  0.027971906  0.028419264            3 
  738000   0.97286557   -6.7076808    247.58257  0.027956478  0.028397051            3 
  739000   0.94488544   -6.7115213    247.29869  0.027886636  0.028374783            5 
  740000   0.99451984   -6.7223605    247.65257  0.027888803  0.028352369            5 
  741000   0.97139998   -6.7399664    247.97679  0.027887628  0.028330139            6 
  742000   0.97509088   -6.6572333     248.2294  0.027878414   0.02830792            4 
  743000   0.96956666   -6.7134181    248.27497  0.027846003   0.02828593            3 
  744000   0.94851505   -6.6886032    248.58741  0.027843572  0.028263702            3 
  745000   0.96910748   -6.6972503    248.50636  0.027797132  0.028241323            5 
  746000   0.96141342   -6.7700837    248.51133  0.027760426  0.028219183            6 
  747000   0.94057565   -6.7297063    248.90123   0.02776676   0.02819715            5 
  748000   0.95999806   -6.7068274    248.73571  0.027711197  0.028175089            6 
  749000   0.95165943   -6.7151126    249.20892  0.027726849  0.028153007            5 
  750000   0.94949785   -6.6849538    249.95763   0.02777307  0.028131333            5 
  751000   0.94255313   -6.7075326    250.45145  0.027790884  0.028109528            6 
  752000   0.97037154   -6.7411579    249.85647  0.027687995  0.028087943            7 
  753000   0.93602848   -6.7223357      250.151   0.02768382  0.028066242           10 
  754000     0.953483   -6.7192193    250.41201  0.027675952  0.028044718            9 
  755000   0.94381264   -6.7367396    250.66988  0.027667757  0.028023179            5 
  756000   0.95554138   -6.7120633    251.05246  0.027673331  0.028001667            5 
  757000   0.94940095   -6.7261462    251.52129  0.027688385  0.027980442            4 
  758000   0.94349287   -6.7282099    251.06171  0.027601331  0.027958959           10 
  759000   0.93370151   -6.7057059    251.18986  0.027579036  0.027937661            5 
  760000    0.9348278   -6.7548542    252.02334  0.027634138  0.027916373            7 
  761000   0.94934677   -6.7261881    252.00577  0.027595901  0.027895185            5 
  762000   0.94303955   -6.7117344    252.46427  0.027609828  0.027874193            3 
  763000   0.94545588   -6.7338931    251.85924  0.027507562  0.027853049            4 
  764000    0.9663659   -6.7570551    251.70226  0.027454435   0.02783183            5 
  765000   0.95683992   -6.7512313    252.41779  0.027496491  0.027810304            2 
  766000   0.94207957   -6.7348559    252.73022  0.027494585   0.02778915            2 
  767000   0.96230053   -6.7932387    251.46941  0.027321753  0.027767664            2 
  768000   0.94414452   -6.7372702    252.96361  0.027448308  0.027746186            5 
  769000   0.93382986   -6.7557797    252.39652  0.027351161  0.027724993            6 
  770000   0.95078284   -6.7702328    252.86809  0.027366676  0.027703707            5 
  771000   0.95395061   -6.7567868    253.05822  0.027351731  0.027682469            6 
  772000    0.9379314   -6.7665143    253.34255  0.027346994  0.027661303            2 
  773000   0.94536808   -6.7486795    253.60969  0.027340415  0.027640316            5 
  774000    0.9404154   -6.7672597    254.54614  0.027405915  0.027619224            4 
  775000   0.93156832   -6.7296924    254.27062  0.027340927  0.027598251            4 
  776000   0.96530363    -6.743933    254.12339  0.027289883  0.027577635            4 
  777000   0.94506991   -6.7169478    255.51485  0.027403995  0.027556954            4 
  778000    0.9388322   -6.7311249    255.33444  0.027349447  0.027536222            5 
  779000   0.92497306   -6.7508997    255.53365  0.027335649  0.027515763            2 
  780000   0.96129993   -6.7642136    255.41082  0.027287481  0.027495802            4 
  781000    0.9319646   -6.7650737    255.38212  0.027249479  0.027475677            5 
  782000   0.96397638    -6.784798    256.02201  0.027282823  0.027455559            8 
  783000   0.94164004   -6.7605357    255.66225   0.02720969  0.027435176            5 
  784000   0.94545703   -6.7490815    256.16325  0.027228236  0.027415065            5 
  785000   0.94903657   -6.7495293    255.96115  0.027172097  0.027394633            9 
  786000   0.93786736   -6.7583568    255.81066  0.027121571  0.027374284            5 
  787000   0.94416878   -6.7388504    257.51716  0.027267806  0.027354153            3 
  788000   0.94386643   -6.7426335    257.30944  0.027211235  0.027334389           12 
  789000   0.92398441   -6.7481475    257.33628  0.027179582  0.027314681            4 
  790000   0.93909569   -6.7884838    257.02671  0.027112522  0.027294858            7 
  791000   0.93675698   -6.7649026    257.97706  0.027178367  0.027275198            6 
  792000   0.95463915   -6.7714615    257.97823  0.027144174  0.027255353           12 
  793000   0.91991994   -6.7903851    256.74243  0.026980079  0.027235258            8 
  794000   0.95987965   -6.7823468    257.88482  0.027065997  0.027214947            7 
  795000   0.96473254   -6.7899297    257.92079  0.027035722  0.027194808            4 
  796000   0.91802655   -6.8059394    257.32705  0.026939599  0.027175072           11 
  797000   0.93403478   -6.7616136    259.13442  0.027094774  0.027155387            9 
  798000   0.93799956   -6.7878861    258.45152  0.026989507  0.027135802            5 
  799000   0.92307028   -6.7922889    259.13103  0.027026599  0.027116092            4 
  800000    0.9455112   -6.7648724    259.55743  0.027037232  0.027096475            4 
  801000   0.93189294   -6.7664629    259.49234  0.026996707  0.027076753            3 
  802000   0.95435138   -6.7670128    259.58859  0.026973046  0.027057001           10 
  803000   0.92125433   -6.7590036    259.80554   0.02696197  0.027037288            4 
  804000   0.94332207   -6.8146146    258.58269  0.026801688  0.027017451            3 
  805000   0.93971416     -6.76572     259.5612  0.026869689  0.026997445            5 
  806000   0.92649023   -6.7918496    260.09387  0.026891426  0.026977514            5 
  807000   0.93212158   -6.8037301    259.64735  0.026811994  0.026957511            5 
  808000   0.92773878   -6.7722352    260.42776  0.026859299  0.026937789            9 
  809000    0.9141475   -6.7729608     259.7672  0.026758055  0.026917939            4 
  810000   0.89974502   -6.7818837    259.58939  0.026706727  0.026897938            6 
  811000   0.90996353    -6.777854    259.50734  0.026665366  0.026878092            5 
  812000   0.93653904   -6.7939193    260.25908  0.026709675    0.0268582            2 
  813000   0.92798423   -6.7902006    260.71022  0.026723065  0.026838563           11 
  814000   0.93080566   -6.7682289    261.01867  0.026721813  0.026818814            9 
  815000   0.94374551   -6.7696715    262.01931   0.02679134  0.026798937            7 
  816000     0.940779   -6.8009758    261.45319  0.026700693  0.026779216            7 
  817000   0.92977085   -6.7952741    260.61288  0.026582301    0.0267596            5 
  818000   0.93100131    -6.766498    261.89922   0.02668085   0.02674009            3 
  819000   0.93591341   -6.8119571    261.91861  0.026650245  0.026720309            4 
  820000    0.9149018   -6.7885736    262.25354  0.026651782  0.026700771            5 
  821000   0.92532114   -6.7587766    262.15583  0.026609402  0.026681119            4 
  822000   0.90795676   -6.7822267    261.58252  0.026518909  0.026661604            6 
  823000   0.92289987   -6.8161036    262.62941   0.02659269  0.026641978            6 
  824000   0.92743314   -6.7852561    262.25295  0.026522345  0.026622022            4 
  825000   0.92142529   -6.8404828    261.87442  0.026451961  0.026602036            4 
  826000   0.91476219   -6.8257931    262.33647  0.026466553  0.026582225            4 
  827000   0.91973231   -6.8423595    262.11852  0.026412587  0.026562149            8 
  828000    0.9160075   -6.8219715     262.5803  0.026427164  0.026542188            5 
  829000   0.89415278   -6.8571337    262.02788  0.026339754  0.026522211            8 
  830000   0.92290194   -6.8303285     263.1099  0.026416657  0.026502335            5 
  831000   0.94260779   -6.8086002    263.39944  0.026413903  0.026482283           13 
  832000   0.92933801   -6.8272413    262.62996  0.026305084  0.026462304           16 
  833000   0.90793259   -6.8426065    264.04704  0.026415271  0.026442332            5 
  834000   0.92079154   -6.8469125    263.04035  0.026283009  0.026422551            7 
  835000   0.92054352   -6.8173099    263.18101   0.02626557  0.026402663            6 
  836000   0.91556253   -6.8201073    264.14147  0.026329892  0.026382946            5 
  837000   0.91644753   -6.7820558    264.58116   0.02634221  0.026363554            5 
  838000   0.89842815   -6.7739019    265.12894  0.026365249  0.026344268            7 
  839000   0.92566655   -6.8147974    264.28269   0.02624977  0.026324819            6 
  840000   0.91811109   -6.8426057    264.05685  0.026196116  0.026305453            6 
  841000   0.93429609   -6.8298774    264.93965  0.026252442  0.026286161            9 
  842000    0.9158223   -6.8031129    264.41615  0.026169453  0.026266537            6 
  843000   0.93304862   -6.8527408    264.23836  0.026120834  0.026246914            6 
  844000    0.9219895   -6.8165285    264.76522  0.026141906   0.02622721            6 
  845000   0.89991104   -6.8321301    264.52407  0.026087187  0.026207439            5 
  846000    0.9130584   -6.8674711    264.95381  0.026098681   0.02618751            5 
  847000   0.90233017   -6.7905998    266.20436  0.026190905  0.026168053            6 
  848000   0.91654175   -6.8157381     265.7571  0.026116067  0.026148555            5 
  849000   0.88777137   -6.8181068    265.27434  0.026037921  0.026128867            4 
  850000   0.92787065   -6.7984738    265.86463  0.026065159  0.026109286            2 
  851000   0.90180985   -6.8493846    264.78054  0.025928372  0.026089479            7 
  852000   0.90265303   -6.8268937    266.26027  0.026042671  0.026069584            5 
  853000   0.91762522    -6.843628    265.35387  0.025923591  0.026049897            7 
  854000   0.89537569   -6.8502785    265.95383  0.025951779  0.026030071            9 
  855000   0.90021913   -6.8463492    266.34266  0.025959323  0.026010312           10 
  856000   0.91124901   -6.8327034    266.39829  0.025934413  0.025990697            3 
  857000   0.91221827   -6.8437915    266.92388  0.025955258  0.025971152            8 
  858000   0.90520327   -6.8420991     267.0181  0.025934159  0.025951633            6 
  859000   0.92117231   -6.8425779    266.95797  0.025898134  0.025932221            5 
  860000   0.89909365   -6.8437834    266.86085  0.025858609  0.025912854            8 
  861000    0.9168819   -6.8285258    266.19041  0.025763686  0.025893314            5 
  862000   0.92070942   -6.8045578    267.80104  0.025889505  0.025873758            6 
  863000   0.89078053   -6.8216777    267.64044  0.025843997  0.025854533            8 
  864000    0.9055787   -6.8409745    267.87314   0.02583653  0.025835272           18 
  865000   0.91058399   -6.8163313    267.40795  0.025761845  0.025816024            9 
  866000   0.90043368   -6.8541859     267.3846   0.02572985  0.025796679            7 
  867000   0.90935187   -6.8561246    267.44891  0.025706354  0.025777213            5 
  868000    0.9118697   -6.8311904    268.24428  0.025753099  0.025758088            5 
  869000   0.91981238   -6.8407274    268.36207  0.025734759  0.025738809            5 
  870000   0.90805068   -6.8431995    268.70023   0.02573757  0.025719646            9 
  871000   0.89071643   -6.8594164     268.0622  0.025646976  0.025700356           13 
  872000   0.88206266   -6.8351455    268.60975  0.025669892  0.025681033            6 
  873000    0.9013213   -6.8158517    269.47132   0.02572273  0.025661759            3 
  874000    0.9295641   -6.8755695    268.69611  0.025619385  0.025642573            4 
  875000   0.89688514   -6.8705154    269.29742  0.025647374  0.025623325            7 
  876000   0.90005866   -6.8964829    268.41311  0.025533972  0.025603943            4 
  877000   0.90885897   -6.8577171    269.78424  0.025635143  0.025584698            6 
  878000   0.89300593   -6.8357443    269.42711  0.025572049  0.025565335            6 
  879000   0.90389154   -6.8816279    268.85887  0.025489085   0.02554582            5 
  880000   0.87124815   -6.8713453    268.75258  0.025450055  0.025526258            4 
  881000   0.90468686   -6.8323284    270.26257  0.025563997  0.025506812            4 
  882000   0.89546674   -6.8721697    268.88864    0.0254052  0.025487109            8 
  883000   0.89279698   -6.8673693     269.9377  0.025475434  0.025467423           23 
  884000   0.90564057   -6.8587715    269.49986  0.025405341  0.025448033            7 
  885000   0.89347801   -6.8900478    270.12027  0.025435054  0.025428542            4 
  886000   0.90098849   -6.8658712    269.34727  0.025333641  0.025408868            5 
  887000   0.88880272   -6.8792413    269.50284  0.025319696  0.025389115            4 
  888000   0.87246748   -6.8644256    270.32492  0.025368329  0.025369611            4 
  889000   0.90317673   -6.8646011    270.86881  0.025390777  0.025350307            4 
  890000    0.8946824   -6.8587177    270.49804  0.025327532  0.025331071            4 
  891000   0.89797017   -6.8621418    270.54945  0.025303914  0.025311638            7 
  892000   0.91377455   -6.8767273    270.61869  0.025282015  0.025292344           10 
  893000   0.87653345   -6.8707246    270.87102  0.025277251  0.025273074            5 
  894000   0.89975462   -6.8717385    270.51173  0.025215485  0.025253745            5 
  895000   0.90631019   -6.8486382    271.37104  0.025267322  0.025234474            4 
  896000    0.8977154   -6.9093152     270.1048  0.025121354  0.025215101            3 
  897000   0.93259208   -6.9077621    270.62449  0.025141629  0.025195456            5 
  898000   0.90082378   -6.8925583    270.71889  0.025122391  0.025175988            8 
  899000   0.87605588   -6.9137116     270.4146  0.025066241  0.025156514           13 
  900000   0.90009062   -6.8955974    270.85581  0.025079241  0.025136878            4 
  901000    0.8918656   -6.9013422    270.53763  0.025021978  0.025117253            7 
  902000   0.90870651   -6.8780697    271.04328  0.025040954  0.025097684            5 
  903000   0.89603593   -6.8747462    271.18469  0.025026272  0.025078319            5 
  904000   0.88589603   -6.8790152    271.96999   0.02507098  0.025059049           15 
  905000   0.89864631   -6.9177177    271.74743  0.025022783  0.025039701           10 
  906000   0.88315928   -6.9064489    271.72732  0.024993315  0.025020353            5 
  907000    0.9020234   -6.9065985    272.63938  0.025049557  0.025001137            3 
  908000   0.90361351   -6.9115796    272.46516   0.02500598  0.024982079           12 
  909000   0.88828097   -6.9012904    272.55554  0.024986756   0.02496306            8 
  910000   0.89068162   -6.8896214    272.94538  0.024994998  0.024944009            6 
  911000   0.88115221   -6.8691107    273.81381     0.025047   0.02492502            5 
  912000   0.87578963   -6.8942874    273.23562  0.024966705  0.024906021            7 
  913000   0.89943523   -6.9103062    272.74665  0.024894729  0.024886936            6 
  914000   0.88366556   -6.9096112    273.05664  0.024895755  0.024867797            6 
  915000   0.90252746     -6.91106    272.98509   0.02486203  0.024848376            8 
  916000   0.87492818   -6.8935575    272.62953  0.024802541  0.024829134            7 
  917000    0.8992135   -6.9059724    274.12378  0.024911285  0.024809985            5 
  918000   0.87822937   -6.9299103    272.86033  0.024769456  0.024790943           14 
  919000   0.89266321   -6.9437921    273.06805  0.024761339  0.024771816            5 
  920000   0.88967801   -6.9570281    273.50585   0.02477408   0.02475263            7 
  921000    0.8877727   -6.9054964    273.82503  0.024776061  0.024733406            9 
  922000   0.88240425    -6.942042    273.49787  0.024719619  0.024714192            9 
  923000   0.89781724   -6.8876749    273.85456  0.024725042  0.024694971           11 
  924000   0.89836517   -6.8926076    274.21368  0.024730671  0.024675833            7 
  925000   0.88388275   -6.9526186    273.36999  0.024627927  0.024656743            8 
  926000   0.90357979   -6.9631907    273.71881  0.024632722  0.024637381            9 
  927000   0.89586874   -6.8976409    273.90114  0.024622541   0.02461842            8 
  928000   0.88231714   -6.9113589     274.2127  0.024623985  0.024599303            6 
  929000   0.88040741   -6.8932306    275.24873  0.024690414  0.024580287            9 
  930000   0.89285605   -6.9140015    274.30036  0.024578886  0.024561159            9 
  931000    0.8774722    -6.872564    274.93386  0.024609189  0.024541986            5 
  932000   0.86376411   -6.9083111    274.39053  0.024534203  0.024522803            7 
  933000   0.89763161   -6.8925832    275.14065  0.024574906  0.024503739            6 
  934000   0.88441937    -6.919368    275.26549  0.024559733   0.02448474            4 
  935000   0.86726483   -6.9447225    274.51376  0.024466467  0.024465579            6 
  936000   0.89768286   -6.9269929    274.81732  0.024467354  0.024446403            5 
  937000   0.87944255   -6.9236107    274.20213  0.024386529   0.02442722            9 
  938000   0.89252601   -6.9556834    274.96982  0.024428733  0.024408178            7 
  939000   0.86979294   -6.9163747    275.15671  0.024419304  0.024389273           14 
  940000   0.89814637    -6.941372    275.48085  0.024422061  0.024370449            6 
  941000   0.86108478   -6.9345218    275.72445  0.024417681  0.024351566            7 
  942000   0.88173169   -6.9411876    274.71205  0.024302199  0.024332502            5 
  943000   0.87356345   -6.9582074    275.53033  0.024348739  0.024313422            7 
  944000   0.87518778   -6.9557753    275.80391  0.024347096   0.02429448            6 
  945000   0.86643843   -6.9431584    275.99608  0.024338279  0.024275602            4 
  946000   0.87484641   -6.9348023    276.15344  0.024326413  0.024256781           18 
  947000   0.87193486   -6.9413483    276.07145  0.024293511  0.024237765           11 
  948000   0.90042637   -6.9150664    276.36165  0.024293394  0.024218762           17 
  949000    0.8774494   -6.8913051    276.84139  0.024309922  0.024199889           10 
  950000   0.87411351   -6.9402023    276.08619  0.024218087  0.024180988            6 
  951000   0.85125375   -6.9198661    276.37168  0.024217637  0.024162082            5 
  952000    0.8602321   -6.9309586    276.31762  0.024187467  0.024143202            6 
  953000   0.87362915    -6.969503    276.02758  0.024136724  0.024124156            7 
  954000   0.87507931   -6.9491539    276.48216  0.024151132   0.02410534            6 
  955000    0.8696484   -6.9428596     277.4921   0.02421397  0.024086418           12 
  956000   0.87572003   -6.9481424    276.88684  0.024135882   0.02406772            4 
  957000    0.8708391   -6.9600193    277.73925  0.024184888   0.02404888            9 
  958000   0.88500566   -6.9473011    276.45821  0.024048209  0.024029865            6 
  959000   0.85632361   -6.9607206     277.1234  0.024080935  0.024010905            7 
  960000   0.88542566   -6.9418748    277.35716  0.024076143  0.023992192            7 
  961000   0.85428012   -6.9471021      277.905  0.024098595  0.023973416            6 
  962000   0.87941643    -6.938909    277.43688  0.024032994  0.023954603            6 
  963000   0.87583348   -6.9345564    277.41977  0.024006557  0.023935925            5 
  964000   0.87683481   -6.9602998    277.91351  0.024024336  0.023917061            5 
  965000   0.87981377   -6.9384984    277.45111  0.023959509  0.023898087            8 
  966000   0.87527872   -6.9693179    277.12192  0.023906307  0.023879184           10 
  967000   0.89384376   -6.9553366    277.50285  0.023914413  0.023860266           19 
  968000   0.88128874   -6.9546319    277.36156  0.023877545  0.023841274           11 
  969000   0.85302765    -6.967059    277.37317  0.023853902  0.023822293            9 
  970000     0.868032   -6.9871194    277.10339  0.023806133   0.02380317            8 
  971000   0.86901533   -6.9816517    277.37126  0.023804605  0.023784223            6 
  972000   0.85285343   -6.9672724    278.20378   0.02385149  0.023765289            6 
  973000   0.85243354   -6.9590089    278.49543  0.023851955  0.023746418            8 
  974000   0.87163733   -6.9914561    277.43359  0.023736618  0.023727591            7 
  975000   0.85878092   -6.9706435    278.96144  0.023842858  0.023708668            8 
  976000   0.86668748   -6.9483004    278.73215  0.023798851   0.02368989           18 
  977000   0.86457454   -6.9655095    278.11665  0.023721993  0.023671188            4 
  978000   0.88491028   -6.9728139    279.44757  0.023811143   0.02365241            4 
  979000   0.87564617   -6.9750083    278.60976  0.023715506  0.023633639            7 
  980000   0.87820846   -6.9728946    279.07082  0.023730512  0.023614948           11 
  981000   0.87254885   -6.9679443    278.79433  0.023682835  0.023596339            6 
  982000   0.85080642   -6.9833958     279.1364  0.023687746  0.023577477           10 
  983000   0.85239366   -6.9801365    279.04347  0.023655771  0.023558569            8 
  984000   0.88002765   -6.9954346    278.52874  0.023588139   0.02353975            6 
  985000    0.8827556   -6.9921106     278.5771  0.023568282   0.02352093           12 
  986000   0.85451541   -6.9798252    278.95648  0.023576443  0.023502123            7 
  987000   0.86658269   -6.9806121     278.6502  0.023526697  0.023483481            7 
  988000   0.85411229   -6.9648385    279.59234   0.02358235  0.023464624            5 
  989000   0.88514937   -6.9648167    279.09292  0.023516424  0.023445876           12 
  990000   0.86141572   -6.9837004    278.55819  0.023447659  0.023427016            8 
  991000   0.84605927   -6.9736856    279.89623  0.023536515  0.023408132            3 
  992000   0.86873731   -6.9742359    279.58705  0.023486816  0.023389456           12 
  993000   0.84992658   -6.9942118    279.13039  0.023424839  0.023370621            5 
  994000    0.8563353   -7.0186092    279.60027  0.023440666  0.023351637            8 
  995000   0.84478468   -7.0166859    279.89996  0.023442208  0.023332732            8 
  996000   0.85366979   -6.9704208    279.80979  0.023411127  0.023313877            7 
  997000   0.85179728   -6.9735509    280.78248  0.023468947  0.023295205            7 
  998000   0.84465877   -6.9817673    279.85509  0.023367993  0.023276482            4 
  999000   0.85549564   -6.9869979    280.07257  0.023362744  0.023257845            6 
 1000000   0.83251823   -7.0013972    279.85476   0.02332123  0.023239171           13 
 1001000   0.87089397   -6.9739585     280.0452  0.023313786  0.023220491            5 
 1002000   0.84668303   -7.0028861    279.21375   0.02322137  0.023201831            6 
 1003000   0.83908042   -6.9768139    280.76167  0.023326826  0.023183417            6 
 1004000   0.86103248   -6.9980644    280.97029  0.023320907  0.023164862            6 
 1005000   0.84822579   -6.9940708    280.92969  0.023294336  0.023146358            5 
 1006000   0.85799225   -6.9742348    280.48146  0.023234051  0.023127818            6 
 1007000   0.85879061   -7.0049159    280.49568  0.023212155  0.023109251           14 
 1008000   0.86683413     -7.03109    280.13772  0.023159534  0.023090571            9 
 1009000   0.85911553   -7.0293968    280.84755  0.023195206  0.023071831           10 
 1010000   0.84299492   -7.0097646     280.2148  0.023120033  0.023053014            6 
 1011000    0.8504335   -7.0225784    280.28624  0.023103053  0.023034321           15 
 1012000   0.82237584   -7.0245214    280.51946  0.023099429   0.02301552            7 
 1013000   0.84346952   -6.9669869    281.80222   0.02318215  0.022996772            7 
 1014000   0.86260602   -6.9954334    281.54165  0.023137874  0.022978239            7 
 1015000   0.83044654    -7.004668    281.53586  0.023114602  0.022959735            7 
 1016000   0.84032989   -7.0295137    281.60268  0.023097333  0.022941274            6 
 1017000   0.83493698   -7.0059043     281.2495  0.023045682  0.022922821            6 
 1018000   0.84811773   -6.9915619    281.75519  0.023064439  0.022904545            6 
 1019000   0.83744701   -6.9902306    282.36201   0.02309143  0.022886148            7 
 1020000   0.84908046   -6.9626284    282.66314  0.023093394  0.022868066            8 
 1021000   0.85096742   -6.9891274    281.38425  0.022966393  0.022849847           10 
 1022000   0.82627315   -7.0040928    282.77612  0.023057413  0.022831399           11 
 1023000   0.81591441   -7.0397097     281.7301  0.022949666  0.022813127            5 
 1024000   0.83362197   -7.0116018     281.9223  0.022942896  0.022794589           12 
 1025000   0.82857653   -6.9912701    282.66415  0.022980825  0.022776251            5 
 1026000   0.84080957   -6.9995196    282.23994  0.022923972  0.022758003            9 
 1027000   0.83441914   -6.9937252     282.6301  0.022933309  0.022739577            8 
 1028000   0.84314514   -7.0516889    282.68011  0.022915055  0.022721298           13 
 1029000   0.86674532   -7.0203429    282.24943  0.022857907  0.022702764            5 
 1030000   0.85101842   -7.0200141    282.03771  0.022818585  0.022684271            5 
 1031000   0.83252917   -7.0399636    282.15644  0.022806049    0.0226657           16 
 1032000   0.85367911   -7.0485939    281.76361  0.022752229  0.022647245            7 
 1033000   0.83582758    -7.043735    282.99115  0.022829231  0.022628821           12 
 1034000   0.82851855   -7.0076211    283.26883  0.022829531  0.022610387           14 
 1035000   0.84724747   -7.0411681    281.60336  0.022673378  0.022591959            5 
 1036000   0.82409102      -7.0277    282.04415  0.022686949   0.02257343            6 
 1037000    0.8177264    -7.015782    281.78945  0.022644604  0.022554812            5 
 1038000   0.83763609   -7.0368664    282.02121  0.022641394  0.022536217            9 
 1039000   0.81831521   -7.0649103    282.02312  0.022619756  0.022517717            8 
 1040000   0.82523523   -7.0427921    282.41896  0.022629725  0.022499094           10 
 1041000    0.8221265   -7.0611273    281.47804  0.022532664  0.022480477           10 
 1042000   0.83959516   -7.0292124    282.71029  0.022609588  0.022461837            3 
 1043000   0.84836904   -7.0506158     282.8073  0.022595661  0.022443141            6 
 1044000   0.83860063   -7.0347621    283.10725  0.022597961  0.022424617           13 
 1045000   0.86790313   -7.0087467    284.12427  0.022657438  0.022406306           13 
 1046000   0.82809394   -7.0203983    284.34565  0.022653414  0.022388106            5 
 1047000   0.85300427   -7.0405234    283.03733  0.022527645  0.022369824            6 
 1048000   0.85517638   -7.0250419    283.74762  0.022562629  0.022351655            6 
 1049000   0.83958532   -7.0391615    283.15213  0.022493814  0.022333457           10 
 1050000   0.82507682   -7.0346084    283.61116  0.022508822  0.022315045            8 
 1051000   0.84378146   -7.0962192    283.06487  0.022444091  0.022296633           17 
 1052000   0.83280017   -7.0500144    283.55541  0.022461614  0.022278207           10 
 1053000   0.82508999   -7.0899049    282.66193  0.022369573  0.022259804           12 
 1054000   0.83448249   -7.0649407    283.51992  0.022416186  0.022241502            8 
 1055000   0.83140567   -7.0552535    283.71472  0.022410325  0.022223166           11 
 1056000   0.83866317   -7.0960608    283.58335  0.022378737  0.022204897            9 
 1057000   0.83260231   -7.0728493    283.51678  0.022352316  0.022186613           16 
 1058000   0.81809771   -7.0458207    285.33447   0.02247436  0.022168458           17 
 1059000   0.83310044   -7.0553116     285.0509  0.022430823  0.022150362            4 
 1060000   0.84348296   -7.0433398    284.58943  0.022373383   0.02213231            5 
 1061000   0.84514999   -7.0717624    283.31484  0.022252186  0.022114252            7 
 1062000   0.82356625   -7.0653915    284.28535  0.022307388  0.022096078            7 
 1063000   0.84020425   -7.1050685    284.02921  0.022266323  0.022077795            7 
 1064000   0.84087348   -7.1198989    283.65372  0.022215987  0.022059436            9 
 1065000   0.83225719    -7.091469    283.48142  0.022181645  0.022041135            4 
 1066000   0.80349415   -7.0755601     283.4964  0.022162008  0.022022806            8 
 1067000   0.82699744   -7.1057025     283.3182   0.02212732  0.022004465            7 
 1068000   0.83536067    -7.070018    284.28148  0.022181763  0.021986131           14 
 1069000   0.84365936   -7.0747229    284.15406  0.022151081  0.021968022           11 
 1070000   0.83122002   -7.0769848    284.24441  0.022137415  0.021949919            8 
 1071000   0.82756132   -7.0969576    284.26292  0.022118186    0.0219317            7 
 1072000    0.8300936    -7.077457    284.46227  0.022113049  0.021913477            7 
 1073000   0.85081289   -7.0771984    285.04464   0.02213767  0.021895322            7 
 1074000    0.8346567   -7.0975459    283.54204  0.022000469  0.021877191            8 
 1075000   0.82178794   -7.0953774    284.48365  0.022052996  0.021859101            7 
 1076000   0.82680285   -7.0794664    284.42851   0.02202823  0.021840936           11 
 1077000   0.83173167   -7.0817773    284.44507  0.022009058  0.021822848            5 
 1078000   0.82870112   -7.0918625    284.15748   0.02196641  0.021804715            5 
 1079000   0.80446101   -7.0758433    283.89707   0.02192594  0.021786479            6 
 1080000   0.82967326   -7.1029671    284.44218  0.021947699  0.021768334           13 
 1081000   0.78918509   -7.0921879    284.37536  0.021922245  0.021750095            6 
 1082000   0.81301821   -7.1006508    285.43006  0.021983215  0.021731978            5 
 1083000   0.82133891   -7.1279543    284.54187  0.021894573  0.021713772            9 
 1084000   0.82262392   -7.1021353    285.38491  0.021939184  0.021695542            9 
 1085000   0.80642642   -7.0962586    284.74702   0.02186997  0.021677477            9 
 1086000   0.83555954   -7.1226647    284.08539  0.021799063  0.021659385            7 
 1087000   0.83669961   -7.1419629     284.7266  0.021828167  0.021641216           20 
 1088000   0.82853002   -7.0778252    285.22848  0.021846544  0.021623182            9 
 1089000   0.83305297   -7.1248325    285.18046  0.021822808  0.021605083           12 
 1090000   0.82634823   -7.1503955    284.99834  0.021788864  0.021586883           14 
 1091000   0.81631485   -7.1032542    285.18812  0.021783389  0.021568932            9 
 1092000    0.8189952   -7.1207118    285.00564  0.021749515  0.021550834           14 
 1093000    0.8230495   -7.1134227    285.40702  0.021760218  0.021532869            6 
 1094000   0.82366605   -7.0941057    285.14442  0.021720324  0.021514967            6 
 1095000   0.80538007   -7.1219224    285.18184  0.021703336  0.021497016            5 
 1096000   0.81193739   -7.1292532    285.08192  0.021675937  0.021478999            7 
 1097000   0.81974742   -7.1430442    284.88409  0.021641149  0.021460977           15 
 1098000   0.80564004   -7.1266274    285.14412  0.021641175  0.021442928            5 
 1099000    0.8174188   -7.1322004    285.88246  0.021677469  0.021424859            4 
 1100000    0.7818005   -7.1006465    286.33694  0.021692192  0.021406971           13 
 1101000   0.81413128   -7.1179189    285.89745  0.021639226  0.021389143           10 
 1102000   0.82753926   -7.1305091    285.48502  0.021588401  0.021371256            9 
 1103000   0.84320899   -7.1009312    285.14145  0.021542872  0.021353282            7 
 1104000   0.80253752   -7.1545257    285.38208  0.021541522  0.021335337            9 
 1105000   0.81605535   -7.1692119    285.64637  0.021541958  0.021317288           14 
 1106000   0.81675616   -7.1288223     285.7125  0.021527463  0.021299198            8 
 1107000   0.81151243   -7.1410999    285.36991  0.021482228  0.021281113           15 
 1108000   0.82167411   -7.1415421    285.26638  0.021455052  0.021263079           16 
 1109000    0.8135448   -7.1269868    285.30226  0.021438403  0.021245024           13 
 1110000   0.83293434   -7.1428684    285.90433  0.021464289  0.021227174            9 
 1111000    0.8210075   -7.1714549    285.31231  0.021400563   0.02120922            8 
 1112000   0.82250519   -7.1232904    285.80974  0.021418596  0.021191358           14 
 1113000   0.81535107   -7.1143655     286.2778  0.021434396  0.021173589           10 
 1114000   0.81278821   -7.1294496    285.79431  0.021378988   0.02115572           14 
 1115000   0.79945399   -7.1616042    285.75047  0.021356537  0.021137746           21 
 1116000   0.81947779   -7.1301935    286.05087  0.021359832  0.021119802            7 
 1117000    0.8058315   -7.1733616    285.94307  0.021332667  0.021101958            8 
 1118000   0.82303827   -7.1252101    286.46543  0.021352522  0.021083948            7 
 1119000     0.805956   -7.1693556    285.18701  0.021238234  0.021065925           11 
 1120000   0.80469729   -7.1993955    285.65124  0.021253813    0.0210479           10 
 1121000   0.80904569    -7.145591    285.42304  0.021217889  0.021029819           11 
 1122000   0.80216027   -7.1373811    286.29797  0.021263961  0.021011833           13 
 1123000   0.78552573    -7.146756    286.37652  0.021250855  0.020993972           14 
 1124000   0.81166457   -7.1382817    286.79763  0.021263169   0.02097614            6 
 1125000   0.80622816   -7.1682833    286.49791  0.021222068   0.02095827            7 
 1126000   0.81166679   -7.1884629    287.06854  0.021245451  0.020940506            6 
 1127000   0.81402525   -7.1552843    286.78355  0.021205527  0.020922722           13 
 1128000   0.80036151   -7.1714574    286.38016  0.021156926  0.020905069           17 
 1129000   0.80186382   -7.2094848     285.7611  0.021092494  0.020887153           12 
 1130000   0.80151203   -7.1727742    286.19394  0.021105748  0.020869373           10 
 1131000   0.78154854   -7.1627027    286.56973  0.021114775  0.020851617           23 
 1132000   0.81727271   -7.1450397    287.00849  0.021128423  0.020833919           11 
 1133000   0.80480739   -7.1363438     288.0558  0.021186805  0.020816287            6 
 1134000   0.80575972   -7.1627375    287.35645  0.021116729  0.020798861           13 
 1135000   0.79147065   -7.1718294    286.95219  0.021068442  0.020781327           13 
 1136000   0.80514974   -7.1620337    286.88403  0.021044897  0.020763714           10 
 1137000   0.80762804   -7.1871341    286.58467  0.021004447   0.02074614            7 
 1138000   0.79106819   -7.1631235    286.92381  0.021010823  0.020728537           10 
 1139000   0.78324938   -7.1505698    287.53497  0.021037092  0.020711099            6 
 1140000   0.82689321   -7.1734263    287.42503  0.021010601  0.020693554           13 
 1141000   0.80359931   -7.1835905    287.61572  0.021006115   0.02067607           16 
 1142000   0.80015901   -7.1606169    287.29691  0.020964456  0.020658586           15 
 1143000   0.79796198   -7.1534302    288.18177  0.021010628  0.020641203            6 
 1144000   0.79900911   -7.1459403    288.15956  0.020990644  0.020623946           13 
 1145000   0.79202884   -7.1605788    287.74047   0.02094181   0.02060665           18 
 1146000   0.79367809   -7.1408595    287.93465  0.020937656  0.020589323            9 
 1147000    0.7931026   -7.1422387    287.77208  0.020907591  0.020572069            9 
 1148000   0.78932966   -7.1694929    287.38316  0.020861147  0.020554687           11 
 1149000   0.78699049   -7.1441844    287.88041  0.020879055  0.020537366            4 
 1150000   0.80806669   -7.1608128    287.67088  0.020845716   0.02051997           15 
 1151000   0.78688319   -7.1850285    288.17652  0.020864214  0.020502617           17 
 1152000   0.78686092    -7.165043    287.84756  0.020822306  0.020485182           13 
 1153000   0.80183402   -7.1751284    288.45441  0.020848107  0.020467792            8 
 1154000    0.8053659   -7.1995114    288.28517   0.02081782  0.020450429            8 
 1155000     0.787315   -7.2201774    287.72169  0.020759141  0.020433025           14 
 1156000   0.79088106    -7.214401    287.86223  0.020751314  0.020415662            7 
 1157000   0.78605836   -7.2159769    288.14357  0.020753642  0.020398268            8 
 1158000   0.79274491   -7.1951089    288.28976  0.020746241  0.020380995            9 
 1159000   0.79022137   -7.1802476    287.68292  0.020684708   0.02036374           14 
 1160000   0.79303889   -7.2206601    288.51308  0.020726515  0.020346393           14 
 1161000    0.7992421   -7.2154974    287.60612  0.020643563  0.020328994           21 
 1162000   0.79156147   -7.1923831    287.75339  0.020636359  0.020311542            6 
 1163000   0.79433142   -7.2089919    288.44547  0.020668205  0.020294205            7 
 1164000   0.78909001    -7.245945    287.79778  0.020604079  0.020276783           21 
 1165000   0.80449024   -7.2225113    287.80568  0.020586959  0.020259489           23 
 1166000   0.79400186   -7.1928925    288.59754  0.020625896  0.020242241           10 
 1167000   0.78160557   -7.1920078    288.57306  0.020606474  0.020225012           20 
 1168000   0.79807585   -7.1845627    288.27074  0.020567261  0.020207884           11 
 1169000   0.78296906   -7.2227045    288.35137  0.020555415  0.020190731           17 
 1170000   0.79122183   -7.2360502    288.28058  0.020532805  0.020173495            7 
 1171000   0.79253931   -7.1892663    288.00061  0.020495347   0.02015627            8 
 1172000   0.78072345   -7.1769193    289.40939  0.020578028  0.020139189           16 
 1173000   0.78306059   -7.2071327    288.86136  0.020521551  0.020122088           10 
 1174000   0.78219448   -7.2041457    288.58166  0.020484218  0.020104939            7 
 1175000   0.78720661   -7.2105302      288.219  0.020441064  0.020087771           10 
 1176000   0.78485656   -7.1964655    289.20641  0.020493651  0.020070616           16 
 1177000   0.77940647   -7.2554911    287.77731  0.020375057  0.020053385            9 
 1178000   0.79076813   -7.2354466    288.14773  0.020383965    0.0200361            9 
 1179000   0.79794374   -7.2245137    288.58799  0.020397794  0.020018889           10 
 1180000   0.78926428   -7.1915274    288.53457  0.020376735  0.020001614            9 
 1181000   0.79362593   -7.2329755    288.14285  0.020331841  0.019984346            8 
 1182000   0.76602873   -7.2264342    288.42172  0.020334301  0.019967152           22 
 1183000   0.80433909   -7.2018989    289.23865  0.020374659  0.019950005            7 
 1184000   0.77532343   -7.2380678    288.30055  0.020291424  0.019932861           16 
 1185000   0.79854843   -7.2214571    288.76536  0.020306987  0.019915683           16 
 1186000   0.78057319   -7.2165913    288.73292  0.020287586  0.019898576            9 
 1187000   0.77613098   -7.2467762    288.44829  0.020250512  0.019881395           12 
 1188000   0.77507281   -7.2176572    288.10162  0.020209148  0.019864212           17 
 1189000   0.77480546   -7.2484625    287.75124  0.020167594  0.019847071           12 
 1190000   0.77685768   -7.2019655    288.35574  0.020192979  0.019830038            7 
 1191000   0.76370415   -7.2136516    288.32695   0.02017401  0.019812916           12 
 1192000   0.77459597   -7.1809253    289.25819  0.020222189   0.01979585           14 
 1193000   0.77902355   -7.2243738    288.21056  0.020132059  0.019778756           16 
 1194000   0.80076927   -7.2160432    288.01696  0.020101686  0.019761571           14 
 1195000   0.78105075   -7.2137717    288.05466  0.020087494  0.019744471           14 
 1196000   0.75617667   -7.2208981    288.88683  0.020128681  0.019727294           33 
 1197000   0.78795832   -7.2706011    287.55874  0.020019406  0.019710146           17 
 1198000   0.78281795   -7.2590774    288.17457  0.020045532  0.019692887            8 
 1199000    0.7793847    -7.261686    287.64462  0.019991981  0.019675588           24 
 1200000   0.76319911   -7.2495655    288.70697  0.020049095  0.019658402           15 
 1201000   0.76010632   -7.2415457    288.33671  0.020006711  0.019641193           32 
 1202000   0.75887318   -7.2427897     288.3338  0.019989864  0.019623973           17 
 1203000   0.78354438   -7.2665873    288.60109  0.019991763  0.019606783           28 
 1204000   0.76723284   -7.2695498    288.52504  0.019969894  0.019589586           16 
 1205000   0.78387393   -7.2606515    289.16387  0.019997502  0.019572424           16 
 1206000   0.76503038   -7.2711417    287.89613   0.01989332  0.019555282           23 
 1207000   0.77831854   -7.2551024    288.78186  0.019937991  0.019538243           30 
 1208000   0.76854906   -7.2467647     289.3796  0.019962721  0.019521242           14 
 1209000   0.76884952   -7.2402107     288.6698  0.019897284  0.019504331           31 
 1210000   0.78185925    -7.245158     289.3987   0.01993104  0.019487357           11 
 1211000   0.77924022      -7.2432    289.13108  0.019896166  0.019470428           18 
 1212000   0.77355027   -7.2581852    289.49382   0.01990469  0.019453464            8 
 1213000   0.77415901    -7.276752    288.99865  0.019854263  0.019436483           10 
 1214000   0.77973057   -7.2588741    289.51551  0.019873387  0.019419557            6 
 1215000   0.77524522   -7.2416168    289.51062  0.019856695  0.019402641           11 
 1216000    0.7504385   -7.2950941    288.75676  0.019788703  0.019385729           12 
 1217000   0.76497115   -7.2832877    288.72846  0.019770506  0.019368835           11 
 1218000   0.75608764   -7.2670789    289.30342  0.019793611   0.01935195           12 
 1219000   0.77814666   -7.2727778     288.5371  0.019724986  0.019335088           38 
 1220000    0.7385847   -7.2595628    289.16006   0.01975137  0.019318206            8 
 1221000    0.7600654   -7.2935225    288.15804  0.019666806  0.019301213           11 
 1222000    0.7726322   -7.2968681    288.74677   0.01969086   0.01928424           28 
 1223000   0.75811848   -7.2780937    288.85989  0.019682467  0.019267378           35 
 1224000   0.76065527   -7.2921764    289.25694  0.019693419  0.019250479           14 
 1225000   0.76300562   -7.2766393    289.22385  0.019675092   0.01923364           14 
 1226000   0.76364568   -7.2548909    289.52257  0.019679348  0.019216818           16 
 1227000   0.74561954   -7.2702322    288.93591  0.019623466  0.019199987           12 
 1228000   0.76737246   -7.2719001    288.47288  0.019576064  0.019183179           16 
 1229000   0.74196395   -7.2664939    289.19425  0.019609049  0.019166353           13 
 1230000   0.75853516   -7.2928069    289.47698  0.019612261  0.019149579           12 
 1231000   0.76169536    -7.309187     289.2235   0.01957917  0.019132806           31 
 1232000   0.76686581   -7.2712986    289.68738  0.019594655  0.019116113           10 
 1233000    0.7565972   -7.2702863    289.91167  0.019593922  0.019099463           22 
 1234000   0.76471997   -7.2818366    289.74251   0.01956662  0.019082887           16 
 1235000   0.75868339   -7.2731779    289.45906  0.019531651  0.019066271           48 
 1236000   0.76002072   -7.2714023    289.78651  0.019537925  0.019049645           36 
 1237000   0.75031119   -7.2713418    289.65701  0.019513407  0.019033031           25 
 1238000   0.76144971   -7.2893684    290.33832  0.019543505  0.019016437           29 
 1239000   0.76127061    -7.324799    289.96902  0.019502893  0.018999842           28 
 1240000   0.76887094   -7.3195012    289.68804  0.019468282  0.018983308           28 
 1241000    0.7471476   -7.2926851    290.21348  0.019487878  0.018966753           27 
 1242000   0.75674417   -7.2776965    289.70518  0.019438082  0.018950182           16 
 1243000   0.76185241   -7.2928501    289.59298  0.019414922   0.01893365           37 
 1244000   0.77171775   -7.3100419    290.32106  0.019448088  0.018917129           19 
 1245000   0.77514589   -7.3009486    289.68057  0.019389596  0.018900708           41 
 1246000   0.76088495   -7.2741333    290.56097  0.019432917  0.018884315           17 
 1247000   0.76386948   -7.3311343    290.66972  0.019424601    0.0188679           21 
 1248000   0.76451337   -7.3091671      289.885  0.019356637  0.018851476           11 
 1249000   0.76407129   -7.2938036    290.46655  0.019379941  0.018835045           24 
 1250000   0.75500124   -7.3292204     289.9086   0.01932724  0.018818607           17 
 1251000    0.7264361   -7.3008996    290.25967  0.019335177  0.018802221           18 
 1252000   0.75606491   -7.3120584    290.31899  0.019323681  0.018785939           10 
 1253000   0.74466939   -7.3291755    289.18584  0.019232897    0.0187696           11 
 1254000   0.73418745   -7.3100022     290.1224  0.019279798  0.018753265           12 
 1255000   0.74520125   -7.3010969    290.24152  0.019272345  0.018736974           27 
 1256000    0.7364893   -7.3154725    289.54961  0.019211094  0.018720643           15 
 1257000     0.758357   -7.3015863    290.58047  0.019264152  0.018704361           43 
 1258000   0.73851174   -7.2944969    290.89064  0.019269386  0.018688135           22 
 1259000   0.73615721   -7.3406189    290.11708  0.019202878  0.018671882           13 
 1260000   0.75295307   -7.3057863    290.37495  0.019204692  0.018655602           18 
 1261000   0.75936311   -7.3157234    290.11547  0.019172315  0.018639363           18 
 1262000   0.76011929   -7.3446342    289.85801  0.019140122  0.018623206           24 
 1263000   0.76596514    -7.304531    290.58731  0.019173087  0.018607114           21 
 1264000   0.74747924   -7.2938036     290.6716  0.019163475  0.018591032            5 
 1265000   0.74907515   -7.2752178    290.97724  0.019168461  0.018574956           13 
 1266000   0.73624551   -7.3419961    290.65029  0.019131799   0.01855885           24 
 1267000   0.74889888   -7.3252866    290.39198  0.019099709  0.018542803           24 
 1268000   0.73985961   -7.3307935    290.84651  0.019114518  0.018526791           17 
 1269000   0.74891048   -7.3163192    291.06401  0.019113738  0.018510814           27 
 1270000   0.74693969   -7.2917784    291.15226  0.019104479  0.018494918           19 
 1271000   0.75159399   -7.3370225    290.60256  0.019053407  0.018479005           28 
 1272000   0.75218251   -7.3512459    290.96949  0.019062466  0.018463065           15 
 1273000    0.7488314    -7.312059    292.06674  0.019119321  0.018447127           30 
 1274000   0.74167803   -7.3087056    291.15713  0.019044815  0.018431215           22 
 1275000   0.74030118    -7.328578    290.63216  0.018995566  0.018415338           34 
 1276000    0.7357359    -7.351367    291.14637  0.019014261  0.018399425           11 
 1277000   0.74883577   -7.3475151    290.87404    0.0189816  0.018383446           11 
 1278000   0.74928415   -7.3285666    290.62192  0.018950308  0.018367517           15 
 1279000   0.74487434   -7.3427213    291.54009  0.018995314  0.018351598           18 
 1280000   0.75897604   -7.3049237    291.44778  0.018974465    0.0183357           15 
 1281000   0.74246452   -7.3314307    290.76405  0.018915174  0.018319829           12 
 1282000   0.74916454   -7.3343149    290.73242  0.018898363  0.018303958           16 
 1283000   0.74128838   -7.3577309    291.02539  0.018902662  0.018288111           24 
 1284000   0.73164749   -7.3526881    290.59406  0.018859947   0.01827222           14 
 1285000   0.76053831   -7.3396213    291.03749  0.018874027  0.018256336           18 
 1286000   0.75562682   -7.3415782    291.04698  0.018859965  0.018240456           13 
 1287000   0.72285624   -7.3535332    290.35672  0.018800616  0.018224627           22 
 1288000   0.71762517   -7.3212127    290.98345  0.018826569  0.018208766           16 
 1289000   0.72921045   -7.3362855    291.12205  0.018820924   0.01819291           41 
 1290000   0.73767053   -7.3512985    291.49823  0.018830635  0.018177096           47 
 1291000   0.73447037   -7.3819394    291.03537  0.018786171   0.01816114           26 
 1292000   0.73222221   -7.3700956    290.20848  0.018718297  0.018145194           24 
 1293000   0.74368689   -7.3691984    290.83112  0.018743949  0.018129247           28 
 1294000   0.74295048   -7.3406142    290.95551  0.018737475  0.018113411           20 
 1295000   0.73145538   -7.3904048    290.90318  0.018719639  0.018097521           25 
 1296000   0.74304249   -7.3691653    290.40749  0.018673321  0.018081554           15 
 1297000   0.73997878    -7.364794     291.0943  0.018703052   0.01806569           17 
 1298000   0.74551298   -7.3583607    291.17041  0.018693529  0.018049855           36 
 1299000   0.73248792   -7.3588781    290.35425   0.01862678   0.01803401           47 
 1300000   0.75468775   -7.3736006    290.51092  0.018622495  0.018018207           23 
 1301000   0.73601611   -7.3832666    290.74978  0.018623481  0.018002406           25 
 1302000   0.72140002   -7.3703241     290.5578  0.018596889  0.017986603           28 
 1303000   0.72442228   -7.3753544    291.09102  0.018616719  0.017970738           21 
 1304000   0.74579571   -7.3685051    290.84354  0.018586627  0.017954876           13 
 1305000   0.75458226   -7.4010111    290.90217  0.018576128  0.017939016           16 
 1306000   0.72748996   -7.4127335     289.9552   0.01850148  0.017923146           14 
 1307000   0.72512357   -7.3794727     290.5055  0.018522411  0.017907266           18 
 1308000    0.7283916   -7.3981498    290.64118  0.018516895  0.017891407           18 
 1309000   0.73053385    -7.379924    290.13246  0.018470363  0.017875545           23 
 1310000   0.72564031   -7.3938654    290.40005  0.018473285  0.017859694           18 
 1311000   0.73253444    -7.390477    290.04757   0.01843679  0.017843848           37 
 1312000   0.73169471   -7.3982624    290.25234  0.018435743  0.017827992           20 
 1313000   0.74120079   -7.3818197    290.13542  0.018414282   0.01781214           34 
 1314000   0.72231681   -7.4024928    290.13005  0.018399927  0.017796286           27 
 1315000   0.73957227   -7.3840674    290.53481  0.018411585  0.017780486           22 
 1316000   0.72633953   -7.4209184    290.09454  0.018369715  0.017764662           35 
 1317000   0.72416784   -7.3866198    290.70639  0.018394482  0.017748823           15 
 1318000   0.74442627   -7.4196994    290.36032  0.018358644  0.017732994           66 
 1319000   0.72685756    -7.404954    290.11846  0.018329445  0.017717213           25 
 1320000   0.72163699   -7.4231557    290.00386  0.018308325  0.017701467           25 
 1321000   0.70816695   -7.4034458    290.49995   0.01832576  0.017685772           50 
 1322000   0.73384757   -7.3795902    290.94881  0.018340192  0.017670106           25 
 1323000   0.71668498   -7.4045463    290.28005  0.018284206  0.017654453           40 
 1324000   0.72907421   -7.4220985    290.27234   0.01826991  0.017638785           21 
 1325000   0.70670622     -7.45568    290.04658  0.018241923  0.017623044           19 
 1326000   0.72816338    -7.437132    290.07901  0.018230204  0.017607345           37 
 1327000   0.72850821   -7.4252371    289.56671  0.018184295  0.017591624           24 
 1328000   0.72178327   -7.4427761    290.20945  0.018210934   0.01757597           37 
 1329000   0.70931812   -7.4243139    290.66589  0.018225852   0.01756027           30 
 1330000    0.7191199   -7.4483811    290.23159  0.018184937  0.017544614           26 
 1331000   0.72802172    -7.421443    289.96711  0.018154715   0.01752899           39 
 1332000   0.71228729    -7.422803     290.5109  0.018175106  0.017513344           37 
 1333000   0.70968689   -7.4416931    290.37703  0.018153103  0.017497746           22 
 1334000   0.72172444   -7.4332876    290.42798  0.018142678  0.017482144           41 
 1335000   0.70618225   -7.4172651    290.70119  0.018146142   0.01746659           22 
 1336000   0.71108905   -7.4288904    290.30717  0.018107982  0.017451064           53 
 1337000   0.73613659   -7.4656515    290.04902  0.018078348   0.01743545           47 
 1338000   0.72157002   -7.4624832    289.78768   0.01804856  0.017419864           79 
 1339000   0.71874402   -7.4573319    290.54615  0.018082285  0.017404283           63 
 1340000   0.72441848   -7.4399424    290.37231   0.01805798  0.017388752           39 
 1341000   0.72133053   -7.4377455    290.53761  0.018054786  0.017373239           61 
 1342000   0.72040735   -7.4431409    290.61928  0.018046404  0.017357744           23 
 1343000     0.725734   -7.4538172    290.22103  0.018008254   0.01734228           71 
 1344000   0.72270067   -7.4427543    290.23986  0.017996023   0.01732678           59 
 1345000   0.72284444   -7.4518053    290.53461  0.018000905  0.017311307          109 
 1346000   0.70495095   -7.4428201    290.52782  0.017987111  0.017295808           57 
 1347000   0.71226173   -7.4596619    290.31093  0.017960339  0.017280315           46 
 1348000   0.69135052   -7.4775082    290.23147  0.017942104  0.017264796           64 
 1349000   0.71025155   -7.4357185    290.52494  0.017946932  0.017249301           59 
 1350000   0.72145981   -7.4584924    290.68766  0.017943683  0.017233877           61 
 1351000   0.71172316   -7.4312996    290.56358  0.017922747  0.017218401           55 
 1352000   0.72209056   -7.4279198    290.55521  0.017908975  0.017202968           45 
 1353000   0.71038603   -7.4279921     290.7376  0.017906972  0.017187557          122 
 1354000   0.70508437   -7.4731122    289.35189  0.017808462  0.017172151           52 
 1355000   0.71319683   -7.4404121    290.04382  0.017837874  0.017156722           34 
 1356000   0.70468877   -7.4443064    290.64958  0.017861946  0.017141355           43 
 1357000   0.70392418   -7.4624415    290.34731   0.01783022  0.017125977           49 
 1358000   0.72809747   -7.4351132    290.09202  0.017801425  0.017110653           79 
 1359000   0.70420163   -7.4423773    290.58035   0.01781827  0.017095305           31 
 1360000   0.70840144   -7.4537938    290.45784  0.017797662  0.017079948           98 
 1361000   0.70762984   -7.4427905     290.3504  0.017778006   0.01706466           47 
 1362000   0.70300382   -7.4453163    290.82319  0.017793881   0.01704937           80 
 1363000   0.70047489   -7.4440713    290.44151   0.01775749  0.017034112           99 
 1364000   0.71636531    -7.427471    291.65718  0.017818743  0.017018934          111 
 1365000    0.7059094   -7.4693734    290.59121  0.017740611  0.017003828          149 
 1366000   0.71461569    -7.431926    291.04845  0.017755518  0.016988676          120 
 1367000   0.70462518   -7.4561838     291.0176  0.017740648  0.016973575           52 
 1368000   0.71289348   -7.4402487    290.50336  0.017696355  0.016958463           73 
 1369000   0.71538069   -7.4435217    291.22685  0.017727468  0.016943389           63 
 1370000   0.71476801    -7.460615     290.5772  0.017675012  0.016928305          118 
 1371000   0.70842268   -7.4702944    289.85625  0.017618299  0.016913178           74 
 1372000   0.69204924   -7.4565493    290.49606  0.017644319  0.016898104          104 
 1373000   0.71094905   -7.4613267    291.18249   0.01767313  0.016883069          110 
 1374000    0.6958721   -7.4707229     290.7602  0.017634655   0.01686804          100 
 1375000   0.71637343   -7.4442161    290.77014  0.017622433  0.016853013           84 
 1376000   0.71294639   -7.4756523    289.91441  0.017557801  0.016837969           54 
 1377000    0.6954706   -7.4819875    290.91884  0.017605836  0.016822936          122 
 1378000   0.71075134    -7.483544    290.34899  0.017558599  0.016807856           65 
 1379000   0.71989307   -7.4872853    291.18891  0.017596623  0.016792825           55 
 1380000   0.70693752   -7.4901904    290.39255  0.017535782  0.016777765           85 
 1381000   0.71254846   -7.4889145    290.30979   0.01751809  0.016762774           56 
 1382000   0.68931208   -7.5177702    290.43551  0.017512995   0.01674779           82 
 1383000   0.68315381   -7.4996493    290.33917  0.017494527  0.016732745           44 
 1384000   0.70282274   -7.5038043    289.60392  0.017437616  0.016717693           58 
 1385000   0.69974731   -7.4860935    290.15184  0.017457993  0.016702672           46 
 1386000   0.69650941   -7.4780796    290.61368  0.017473165  0.016687672           59 
 1387000   0.68967839   -7.5140347    290.35014  0.017444733  0.016672672           80 
 1388000   0.70249725   -7.5254733     290.3036   0.01742937  0.016657701           92 
 1389000   0.71094265   -7.4930135    290.12817  0.017406298  0.016642716           60 
 1390000   0.69763053   -7.4860174    290.65325  0.017425255  0.016627744           46 
 1391000    0.7021482   -7.4795852    290.90963  0.017428087  0.016612801           36 
 1392000   0.68999409   -7.4920349     290.3339    0.0173811  0.016597882          104 
 1393000   0.70583246   -7.4980839    290.26412  0.017364448   0.01658297           52 
 1394000   0.70369536    -7.486807    290.36937  0.017358284  0.016568085           58 
 1395000   0.69198581   -7.5064318    290.31134  0.017342374  0.016553143           62 
 1396000   0.70161641   -7.5340596    289.73047  0.017295276  0.016538242           31 
 1397000   0.70271698   -7.5088079    290.50507  0.017329102  0.016523292           64 
 1398000   0.68530176   -7.4917186    290.40448  0.017310711    0.0165084          144 
 1399000   0.69882643    -7.506151    289.75789  0.017259822  0.016493471           94 
 1400000   0.69221584   -7.4991031    290.24685  0.017276598  0.016478605           45 
 1401000   0.70964113   -7.4942107    290.46079  0.017276992  0.016463748           37 
 1402000    0.6829978   -7.5104129    290.27257  0.017253482  0.016448967           42 
 1403000   0.69166874   -7.4637578     290.4317  0.017250636  0.016434165           26 
 1404000   0.68379739    -7.497075    290.59058  0.017247779  0.016419377           34 
 1405000   0.68493098      -7.4821    290.92791  0.017255511  0.016404642           49 
 1406000   0.70086615   -7.4707299    290.94109  0.017244019  0.016389916           58 
 1407000   0.69251444   -7.4895114    291.12581  0.017242704  0.016375263           48 
 1408000    0.7007787    -7.500301    290.75078  0.017208261  0.016360583          103 
 1409000   0.68189247   -7.5149818    290.28067  0.017168244  0.016345909           69 
 1410000   0.68266683   -7.5041715    291.24037  0.017212788  0.016331294           42 
 1411000   0.69332939   -7.4990781    290.89285  0.017180064  0.016316693           44 
 1412000   0.68140832   -7.5085342    290.45117   0.01714183  0.016302093           38 
 1413000   0.67913185   -7.5114159    290.94612  0.017158889  0.016287503           49 
 1414000   0.70096627   -7.5109037    290.65859  0.017129808  0.016272952           41 
 1415000    0.6931578   -7.5135137    290.25039  0.017093662  0.016258405           63 
 1416000   0.68928727   -7.4960504    290.51823  0.017097353  0.016243867           59 
 1417000   0.68284625   -7.4910441    291.67585  0.017153367  0.016229355           59 
 1418000   0.69137639   -7.4995406    290.52766  0.017073793  0.016214805           53 
 1419000   0.69579823   -7.5127647    290.81014   0.01707835  0.016200283           50 
 1420000    0.6860564   -7.5463166     289.6373  0.016997494  0.016185715           66 
 1421000   0.70311822   -7.5320384    290.22521   0.01702001  0.016171154           62 
 1422000   0.68045067    -7.539819    290.55565  0.017027405  0.016156623          100 
 1423000   0.68775946    -7.508048    289.82718  0.016972779  0.016142104           56 
 1424000   0.68787969    -7.545205    290.48435  0.016999318  0.016127587          108 
 1425000   0.67106061   -7.5097536    290.50373  0.016988522  0.016113109           79 
 1426000   0.67174381   -7.5285568     290.8943  0.016999433  0.016098659           55 
 1427000   0.68914873   -7.5228615     291.2045  0.017005635  0.016084223           53 
 1428000    0.6625707   -7.5406809    290.61329  0.016959225  0.016069754           51 
 1429000   0.68248106   -7.5448772    290.31994  0.016930251  0.016055316           74 
 1430000   0.68989514   -7.5400418    290.59192  0.016934261  0.016040903           52 
 1431000   0.66750402   -7.5160429    290.78871  0.016933887  0.016026493           62 
 1432000   0.68579878   -7.5444481    290.67278  0.016915315  0.016012133           53 
 1433000   0.68045291   -7.5464534    290.03443  0.016866389  0.015997775           64 
 1434000   0.68588733   -7.5156305    290.36831   0.01687403  0.015983417           70 
 1435000   0.67192636   -7.5301399    290.89877  0.016893076  0.015969048           66 
 1436000   0.68067931   -7.5693938    289.88716  0.016822607  0.015954693          107 
 1437000   0.67868052   -7.5414931    290.12106  0.016824464  0.015940383           83 
 1438000   0.67384328   -7.5406787    290.24268  0.016819812  0.015926044          102 
 1439000   0.67436393   -7.5434991    290.42877    0.0168189  0.015911742          100 
 1440000   0.67883722   -7.5615634    290.44793  0.016808329  0.015897425           91 
 1441000   0.69264805   -7.5488956     290.1673  0.016780436  0.015883142          104 
 1442000   0.67558115   -7.5359957    290.39681  0.016782062  0.015868904           93 
 1443000   0.67604949   -7.5161494    290.12987  0.016755017  0.015854655           93 
 1444000   0.67158639   -7.5641643    290.53609  0.016766856  0.015840435           86 
 1445000   0.68589859   -7.5664474    290.32233  0.016742925  0.015826201          109 
 1446000   0.67420896   -7.5517132    290.74828  0.016755895  0.015812004          129 
 1447000   0.67679842   -7.5276588    290.51339  0.016730787  0.015797764           87 
 1448000   0.66292237   -7.5425687     290.7843  0.016734824  0.015783603           84 
 1449000   0.68344268    -7.550112    290.29158  0.016694938  0.015769423           79 
 1450000   0.68292857   -7.5398441    289.98955  0.016666066  0.015755236           75 
 1451000   0.68358718    -7.551454    290.76723  0.016699244  0.015741051          105 
 1452000   0.66927839   -7.5666037    290.56102  0.016675908  0.015726884           67 
 1453000   0.67148389    -7.582819    290.14628  0.016640645  0.015712714           64 
 1454000   0.68009199   -7.5513654    290.71756  0.016661942  0.015698569          109 
 1455000   0.67355159   -7.5810905    289.85267  0.016600955  0.015684456           43 
 1456000    0.6805538   -7.5418289    290.79018  0.016643211   0.01567035          105 
 1457000   0.67822675   -7.5655563    290.00253  0.016586738  0.015656268           57 
 1458000   0.68095021   -7.5818387    290.17276  0.016585091  0.015642201          121 
 1459000   0.66866588    -7.565865     290.7993   0.01660951  0.015628148          108 
 1460000   0.67679185   -7.5669615     290.0778  0.016556952  0.015614092           99 
 1461000   0.67214372   -7.5764515    290.71611  0.016582028  0.015600015           97 
 1462000   0.67473831   -7.5438306    291.17099  0.016596613  0.015586028           85 
 1463000   0.68166777   -7.5812148    290.58521  0.016551903  0.015572051           51 
 1464000   0.67702911   -7.5729667    290.62331  0.016542766  0.015558078           85 
 1465000   0.67831529   -7.5616775     290.2455  0.016509983  0.015544133           99 
 1466000   0.67327917   -7.5532644    290.56544  0.016516908  0.015530182          155 
 1467000   0.65009017   -7.5731832     290.5063  0.016502289  0.015516242           62 
 1468000   0.67243783   -7.5803008    290.31382  0.016480121    0.0155023           77 
 1469000   0.67201376     -7.58525    290.62846  0.016486752   0.01548837          109 
 1470000   0.67052095   -7.5539305    290.76828  0.016483463  0.015474454           57 
 1471000    0.6753505   -7.6009793    290.22387  0.016441416  0.015460568           39 
 1472000   0.66636197   -7.5632801    290.29626  0.016434344  0.015446665           63 
 1473000    0.6474545   -7.5955176    289.49107  0.016377635  0.015432768          101 
 1474000   0.65221309   -7.5844833    290.75019  0.016437708  0.015418876           99 
 1475000   0.66569688   -7.5908189    290.31506  0.016401981  0.015405015          215 
 1476000   0.67421793   -7.5963829    289.84119  0.016364114  0.015391135           86 
 1477000    0.6547174   -7.5688013      289.782  0.016349695  0.015377288           77 
 1478000   0.65268119   -7.6246303    290.05599  0.016354082  0.015363405           96 
 1479000   0.66731434   -7.5990271    290.09073  0.016344981   0.01534956          103 
 1480000   0.67418127   -7.6040007    289.95351  0.016326211   0.01533571           61 
 1481000   0.67642891    -7.603811    289.87742  0.016310906  0.015321907           91 
 1482000   0.66241711   -7.5937109    290.09095  0.016311907  0.015308061           80 
 1483000   0.66672535   -7.6102621    290.15694  0.016304616  0.015294238          130 
 1484000   0.66463977   -7.5719778    290.67482   0.01632271  0.015280478          181 
 1485000   0.64746622    -7.561702    290.97864  0.016328768   0.01526676          126 
 1486000   0.67069867   -7.5905914    290.54076  0.016293223  0.015253059          139 
 1487000   0.66465706   -7.5905962    289.93266  0.016248187  0.015239335          155 
 1488000   0.65391245   -7.5999867    289.68562  0.016223433  0.015225579          161 
 1489000   0.65936051   -7.5927016     290.2151   0.01624217  0.015211854          214 
 1490000   0.65413613   -7.6188466    289.31785  0.016181088  0.015198155           78 
 1491000   0.66274167   -7.6215489    289.74823   0.01619429  0.015184444          129 
 1492000   0.64950609   -7.6000906    289.93982  0.016194137  0.015170742          143 
 1493000   0.65611959   -7.5875127     290.2574  0.016201016  0.015157033           66 
 1494000   0.66320721   -7.5900996    289.94554  0.016172777   0.01514338          151 
 1495000   0.66195743    -7.591875    289.72305  0.016149557  0.015129753           73 
 1496000   0.66786949   -7.6088463    290.15895  0.016163043  0.015116079           65 
 1497000   0.66283192   -7.6325579    289.38044  0.016108909  0.015102455          100 
 1498000   0.64865941   -7.6182711    289.57141  0.016108779   0.01508879          122 
 1499000   0.64710621   -7.6025995     289.4779  0.016092834   0.01507511           74 
 1500000   0.65439941   -7.6270516    289.50183  0.016083435   0.01506148          116 
 1501000   0.66240067   -7.6142994    289.52639  0.016074083  0.015047832           64 
 1502000   0.64861907   -7.5957737    289.29361  0.016050466  0.015034208           42 
 1503000   0.64838426   -7.6384167    289.62947  0.016058409  0.015020578           73 
 1504000    0.6659525   -7.6376144    289.54825  0.016043232  0.015006947          147 
 1505000   0.65053631   -7.6135974    289.29178  0.016018371  0.014993309          187 
 1506000   0.64347772   -7.6334026    289.50226  0.016019381  0.014979692          113 
 1507000   0.64577142   -7.6213428    289.51499  0.016009455  0.014966072          177 
 1508000    0.6629214   -7.6303203    289.33122  0.015988684  0.014952487          122 
 1509000   0.64801555   -7.6456265    289.15429  0.015968317  0.014938905           96 
 1510000   0.65810152   -7.6447609    289.64336  0.015984733  0.014925351           96 
 1511000    0.6454041   -7.6156319     289.2674  0.015953419  0.014911848           91 
 1512000   0.65320717   -7.6481985    289.22825   0.01594071  0.014898343           99 
 1513000   0.65435431   -7.6120084    289.69063  0.015955642   0.01488485          100 
 1514000    0.6385169   -7.6317972    289.30572  0.015923917  0.014871332          160 
 1515000   0.63110048   -7.6272326    289.31664  0.015914007  0.014857847          212 
 1516000    0.6577545   -7.6377221    289.29472  0.015902304  0.014844365          145 
 1517000   0.65871478   -7.6188393    289.74953  0.015916806  0.014830916          170 
 1518000    0.6578675   -7.6405753    289.61578  0.015898978  0.014817476          136 
 1519000   0.64620039    -7.607783    289.81874  0.015899646   0.01480405          136 
 1520000   0.63132098   -7.6474512    289.41658  0.015867137  0.014790628          155 
 1521000   0.65781666   -7.6218447    289.29305  0.015849937  0.014777229          115 
 1522000   0.64627635   -7.6380368    288.84853  0.015815184   0.01476385          147 
 1523000   0.64170757   -7.6123661      289.928  0.015863865  0.014750488          125 
 1524000   0.64390084   -7.6470821    289.10655  0.015808538  0.014737124          127 
 1525000   0.64283471   -7.6367849    289.52713  0.015821155  0.014723744          136 
 1526000    0.6467924   -7.6705077    289.14891  0.015790133   0.01471037          115 
 1527000   0.65013981   -7.6486427    289.35153   0.01579085  0.014696987          156 
 1528000   0.64773065   -7.6693795    288.35199  0.015726003  0.014683605          191 
 1529000   0.64011444   -7.6295239    289.22485   0.01576329  0.014670244           67 
 1530000   0.63924796   -7.6422485    289.35506  0.015760079  0.014656925          130 
 1531000     0.630338   -7.6440715    289.82454   0.01577534  0.014643587          140 
 1532000   0.64580217   -7.6351057    289.75194  0.015761093  0.014630274          125 
 1533000   0.63748879   -7.6684642    289.10499  0.015715644  0.014616989          132 
 1534000   0.63652966   -7.6592422    289.02783  0.015701208  0.014603697          172 
 1535000   0.63572494   -7.6335182      289.368  0.015709446  0.014590424          179 
 1536000    0.6342113   -7.6472944    288.97911   0.01567812  0.014577158          183 
 1537000   0.62994996   -7.6589432    289.00944  0.015669564  0.014563929          210 
 1538000   0.64022567    -7.647189     289.3478  0.015677709  0.014550731          101 
 1539000   0.63351246   -7.6481809    289.35016   0.01566765  0.014537524          158 
 1540000   0.63668011   -7.6390073    289.71744  0.015677351  0.014524357           59 
 1541000   0.65199256   -7.6525442    288.97304  0.015626922  0.014511228          102 
 1542000   0.64909435   -7.6776123      289.468  0.015643536  0.014498053          133 
 1543000   0.64341804   -7.6456898    288.97777  0.015606922  0.014484917           97 
 1544000   0.63770371   -7.6760508    289.21989  0.015609882  0.014471776          171 
 1545000   0.63996602   -7.6535038    289.72247  0.015626886  0.014458645          123 
 1546000   0.63752461   -7.6553443    289.24912  0.015591264  0.014445554           76 
 1547000   0.63715469   -7.6784031    289.56462  0.015598181   0.01443246          215 
 1548000   0.63777726   -7.6791516    288.92022  0.015553414  0.014419397          117 
 1549000   0.63740851   -7.6602584    288.88781   0.01554163  0.014406326          210 
 1550000   0.63089671   -7.6695458    289.00459  0.015537881  0.014393233          194 
 1551000   0.62489861   -7.6595369    288.64614  0.015508604  0.014380182          350 
 1552000   0.61968388   -7.6750254    288.99725  0.015517464  0.014367126          193 
 1553000    0.6369697   -7.6675272    288.91269  0.015502935  0.014354088          133 
 1554000   0.62925275   -7.6721983    288.10916  0.015449869  0.014341082          125 
 1555000   0.63045346   -7.6558012    288.60312  0.015466405  0.014328089          156 
 1556000   0.62668016    -7.672381    289.30043  0.015493811  0.014315103          184 
 1557000   0.61866075     -7.64939    289.32633  0.015485246  0.014302169          102 
 1558000   0.63314397   -7.6879093    288.95574  0.015455485  0.014289239           92 
 1559000   0.63386316   -7.6816901    289.17092  0.015457073  0.014276321          112 
 1560000   0.62891239   -7.6608472    288.80158  0.015427435  0.014263408           72 
 1561000   0.62953725   -7.6556468    289.27884   0.01544303  0.014250504          180 
 1562000   0.62218041   -7.6451285    289.25701  0.015431979  0.014237598           99 
 1563000   0.63811609   -7.6849384    288.87983  0.015401995  0.014224689          148 
 1564000   0.63744851   -7.7019993    288.32687  0.015362685  0.014211796          135 
 1565000   0.63647506   -7.6737715     288.7448  0.015375122  0.014198924           98 
 1566000   0.63589525   -7.6737353     289.1622  0.015387516  0.014186101          107 
 1567000   0.62320987   -7.6763718    288.64483  0.015350182  0.014173271           73 
 1568000    0.6112265   -7.6703846    288.82091  0.015349751  0.014160435          102 
 1569000   0.61755293   -7.6793484    289.00002  0.015349481  0.014147632          102 
 1570000   0.62670693   -7.6862458    288.76698  0.015327334  0.014134815           54 
 1571000    0.6256704   -7.6785709    288.84518  0.015321726  0.014122033           64 
 1572000    0.6207402   -7.6952822    289.19263  0.015330398  0.014109274           85 
 1573000   0.61254993   -7.6887719    289.10644  0.015316086  0.014096484           90 
 1574000   0.63892752    -7.681967    289.00584  0.015301029  0.014083733           93 
 1575000   0.61212677   -7.6993015     288.9305  0.015287328  0.014070977           98 
 1576000   0.60842533   -7.7203781    288.53269  0.015256593  0.014058227          232 
 1577000   0.61792059   -7.6910607    288.46656  0.015243424  0.014045497          205 
 1578000   0.62067191   -7.6732514    289.12904   0.01526875  0.014032802           98 
 1579000    0.6087716   -7.6878944    288.55337  0.015228698  0.014020087          229 
 1580000   0.63298185   -7.6934585    288.54178  0.015218448  0.014007403          150 
 1581000   0.63335848   -7.7151423    288.52771  0.015208081  0.013994727           95 
 1582000    0.6277149   -7.6929442    288.77028  0.015211245  0.013982057          118 
 1583000   0.63378141   -7.6797403    289.57424  0.015243959  0.013969425          345 
 1584000   0.60963967   -7.7208914    288.52324  0.015179043  0.013956797          176 
 1585000   0.62186195     -7.72634    288.47764  0.015167069  0.013944162          364 
 1586000   0.62680516   -7.6980798    288.53835  0.015160695  0.013931559          156 
 1587000   0.64510106   -7.7066592    288.86069  0.015168068  0.013918959          240 
 1588000   0.62509523    -7.724758    288.24552  0.015126234  0.013906343          199 
 1589000   0.63485019   -7.6966621    288.60705  0.015135675  0.013893752          151 
 1590000   0.62012236   -7.6729528    288.96319  0.015144821  0.013881164          342 
 1591000   0.63267707   -7.6902629    289.16806  0.015146033  0.013868582          168 
 1592000   0.61487691   -7.7129742    288.93138   0.01512413  0.013856034          345 
 1593000    0.6095153   -7.7198379    288.47626  0.015090828  0.013843501          203 
 1594000   0.61304586   -7.7241271    288.25695  0.015069895  0.013830951          318 
 1595000    0.6229232   -7.7115605    288.28686  0.015062009  0.013818426          204 
 1596000   0.61506582   -7.7243974    288.39924   0.01505844  0.013805915          361 
 1597000   0.61443678   -7.7079777    288.45909  0.015052134  0.013793429          326 
 1598000   0.61828644   -7.7170991    288.70425  0.015055499  0.013780935          256 
 1599000   0.61552678   -7.7294362    288.34269   0.01502724  0.013768469          472 
 1600000   0.61401272   -7.7296742    288.37631    0.0150196  0.013756014          359 
 1601000   0.62634041   -7.7075556    288.19723  0.015000897  0.013743547          481 
 1602000   0.61562287   -7.7014649    287.88558  0.014975321  0.013731123          352 
 1603000   0.62867736   -7.7338585     288.4947  0.014997645  0.013718706          416 
 1604000   0.61947174   -7.7114815    288.25623  0.014975906  0.013706291          347 
 1605000   0.61787171   -7.7250989    288.43193  0.014975697  0.013693873          401 
 1606000   0.60452822   -7.7136528     288.7082  0.014980708  0.013681474          273 
 1607000    0.6238334   -7.7328986     287.7533  0.014921868  0.013669088          350 
 1608000   0.60684486    -7.737972    288.28053  0.014939911  0.013656711          290 
 1609000   0.61775039    -7.724679    288.27538  0.014930359  0.013644338          231 
 1610000    0.6123555   -7.7233549    288.77515  0.014946954  0.013631989          243 
 1611000   0.61167287    -7.736465    287.86986  0.014890847  0.013619639          286 
 1612000   0.60605834   -7.7324857      288.173  0.014897281  0.013607301          226 
 1613000   0.60690056   -7.7210816     288.2481  0.014891925  0.013594969          306 
 1614000   0.61538459   -7.7273939    288.47108  0.014894211  0.013582646          355 
 1615000   0.60548986   -7.7292936    287.85936  0.014853424  0.013570332          317 
 1616000   0.61024053   -7.7411597    288.22056  0.014862859  0.013558029          479 
 1617000   0.60395361   -7.7334954    288.23226   0.01485427  0.013545731          481 
 1618000   0.60671962    -7.717754    287.89929   0.01482794  0.013533441          455 
 1619000   0.61877423   -7.7207104    288.02932  0.014825475  0.013521178          271 
 1620000   0.60366049   -7.7291903    288.36099  0.014833384  0.013508919          370 
 1621000   0.61808784   -7.7144205     287.6401  0.014787174  0.013496661          412 
 1622000   0.61028188   -7.7267113    288.19307  0.014806467  0.013484412          330 
 1623000   0.59289323   -7.7255366    287.99501  0.014787174  0.013472195          406 
 1624000   0.61746831   -7.7202657    288.08926  0.014782905  0.013459958          333 
 1625000   0.60405175   -7.7134066    287.97354  0.014767874  0.013447761          413 
 1626000   0.59020955   -7.7521373    288.15052  0.014767862  0.013435568          496 
 1627000   0.60587224   -7.7487131    288.02073  0.014752138  0.013423384          317 
 1628000   0.60642825   -7.7306458    287.67075  0.014725161    0.0134112          405 
 1629000   0.60304433   -7.7312258    288.00213  0.014733074  0.013399026          322 
 1630000   0.60424896   -7.7437167    287.77208  0.014712274  0.013386862          332 
 1631000   0.58693853   -7.7628846    287.16416  0.014672193  0.013374704          434 
 1632000   0.59513325   -7.7326475    287.66589  0.014688822  0.013362557          441 
 1633000   0.59752415   -7.7570022    287.86651  0.014690065  0.013350445          361 
 1634000   0.59042155   -7.7523965    287.51952  0.014663378  0.013338319          401 
 1635000   0.59438304   -7.7509482    288.17395  0.014687765  0.013326208          467 
 1636000   0.58736637   -7.7520635    287.56331  0.014647683  0.013314122          490 
 1637000   0.59002423   -7.7415612    287.58271  0.014639723  0.013302053          424 
 1638000   0.59952878   -7.7625331    287.48701  0.014625916  0.013290009          457 
 1639000   0.60403606   -7.7689571    287.52494  0.014618921   0.01327795          399 
 1640000    0.6046741   -7.7574363    287.22525  0.014594779  0.013265917          511 
 1641000   0.59338808   -7.7623253    286.98679  0.014573776  0.013253881          493 
 1642000   0.60658532   -7.7420066    288.33997  0.014633575  0.013241902          435 
 1643000   0.58873214   -7.7704242    287.48586  0.014581348  0.013229899          445 
 1644000   0.60812743   -7.7613023    287.26036  0.014561048  0.013217918          427 
 1645000   0.60586725   -7.7706652    287.98473  0.014588892  0.013205945          506 
 1646000   0.59076354   -7.7614093    287.53247  0.014557132  0.013193989          453 
 1647000   0.60465646   -7.7714483    287.71807  0.014557684  0.013182031          645 
 1648000   0.59261764   -7.7679446    287.30399  0.014527912  0.013170093          466 
 1649000   0.58400766   -7.7617476    288.23619  0.014566211  0.013158158          375 
 1650000   0.60212346   -7.7461803    287.78464  0.014534578  0.013146235          476 
 1651000   0.60189606   -7.7687257    288.29504  0.014551536  0.013134328          479 
 1652000   0.59531357   -7.7895412     287.3863  0.014496888  0.013122441          366 
 1653000   0.58797802   -7.7920555    287.39894  0.014488755  0.013110567          489 
 1654000   0.57002369   -7.7681285    287.62972  0.014491622  0.013098701          415 
 1655000   0.58776303   -7.7563482    287.78343  0.014490606  0.013086856          434 
 1656000   0.58412421   -7.7420727    287.37105  0.014461104  0.013075016          363 
 1657000   0.59418993   -7.7619779    287.56822  0.014462293  0.013063176          604 
 1658000   0.58742608   -7.7614859     287.3267   0.01444143  0.013051383          362 
 1659000   0.60656878   -7.7866512    287.59073  0.014445988  0.013039579          437 
 1660000   0.58972804   -7.7623734    287.58001  0.014436747   0.01302778          500 
 1661000    0.5988032   -7.7797269    287.05702  0.014401817   0.01301598          391 
 1662000   0.59314506   -7.7786034    287.73069   0.01442693  0.013004207          502 
 1663000   0.59519414   -7.7674909    287.59906  0.014411659  0.012992439          593 
 1664000   0.59282708   -7.7708333    287.36547    0.0143913  0.012980695          540 
 1665000   0.59846745   -7.7812966    287.86062  0.014407438  0.012968956          504 
 1666000   0.58005973   -7.7743999    287.03427  0.014357457   0.01295724          417 
 1667000   0.58647377   -7.7624264    287.62702  0.014378475  0.012945521          536 
 1668000   0.58426388   -7.7423892    287.48762  0.014362891   0.01293381          506 
 1669000   0.57898273    -7.780375    286.98923    0.0143294  0.012922124          419 
 1670000   0.59654976   -7.7715233    287.68333  0.014355455   0.01291045          512 
 1671000   0.59033553   -7.7762569    287.46371  0.014335912  0.012898776          452 
 1672000   0.57804604   -7.7785281    286.83075  0.014295791  0.012887117          504 
 1673000   0.59065872   -7.7808496    287.33741  0.014312483   0.01287549          374 
 1674000    0.5874461    -7.771801     287.1483  0.014294519  0.012863868          489 
 1675000   0.56852566   -7.7840126    287.35892  0.014296464  0.012852265          467 
 1676000   0.58899644   -7.7946992    287.21017  0.014280538  0.012840661          388 
 1677000   0.58160421   -7.7794274    286.78973  0.014251129   0.01282907          482 
 1678000   0.57275909   -7.7970505    287.15658  0.014260855  0.012817474          437 
 1679000   0.57184834   -7.7960525    287.15101  0.014252085   0.01280587          510 
 1680000   0.58350121    -7.802623    286.74465  0.014223445  0.012794317          445 
 1681000   0.58180262   -7.7806618    287.62267  0.014258511  0.012782766          520 
 1682000   0.56893083   -7.7893762    287.58653  0.014248243  0.012771235          504 
 1683000   0.58394978   -7.7929523    287.09719  0.014215547  0.012759718          522 
 1684000   0.58246217   -7.7874434    287.62669  0.014233308  0.012748229          422 
 1685000   0.57938196   -7.7644083    287.22781  0.014205134  0.012736739          471 
 1686000    0.5790837   -7.7735873    287.36853  0.014203664  0.012725265          565 
 1687000   0.55554069   -7.8014858    286.68018  0.014161242  0.012713796          631 
 1688000   0.57869968   -7.7961116    286.48203   0.01414307  0.012702337          447 
 1689000   0.57393322   -7.7939192    286.86765  0.014153722  0.012690889          585 
 1690000   0.58138143   -7.7815442    287.34282  0.014168778  0.012679467          489 
 1691000   0.57958412   -7.7901108    287.21246  0.014153975  0.012668049          618 
 1692000   0.57142561   -7.7853431    287.24206  0.014147068  0.012656643          620 
 1693000   0.57363464   -7.7979987    287.03769  0.014128652  0.012645259          580 
 1694000   0.58389174   -7.7788688    287.47695   0.01414192  0.012633906          510 
 1695000   0.59206258   -7.8102524    287.15362  0.014117681  0.012622543          451 
 1696000   0.57688742   -7.8224979    287.33956  0.014118492  0.012611195          505 
 1697000   0.57800311   -7.8021254    287.51724  0.014118898  0.012599858          465 
 1698000   0.57843922   -7.7930203    287.19528  0.014094782  0.012588521          511 
 1699000   0.56613562   -7.7862501    287.23226    0.0140883  0.012577196          470 
 1700000   0.56198519   -7.8050399    287.01263  0.014069247  0.012565877          532 
 1701000   0.56459628   -7.7972248    287.39641  0.014079777  0.012554589          548 
 1702000   0.56728334   -7.7990159    286.64932  0.014034926  0.012543294          569 
 1703000   0.57815925   -7.7982672    286.79896  0.014034007   0.01253201          609 
 1704000   0.57757719   -7.8240833    287.32581  0.014051536  0.012520755          559 
 1705000    0.5721781   -7.8149313     287.5405  0.014053788  0.012509514          540 
 1706000   0.56797709   -7.7876487    287.17387  0.014027641   0.01249827          574 
 1707000   0.56484541   -7.8125292     287.1459  0.014018058  0.012487037          511 
 1708000   0.57033526   -7.8041584    287.02837  0.014004116  0.012475818          629 
 1709000   0.56257601   -7.8271962    287.06339  0.013997629   0.01246461          561 
 1710000   0.56942671   -7.8051144    287.47585  0.014009544  0.012453394          560 
 1711000   0.57686362   -7.7966589    286.91063  0.013973828  0.012442229          598 
 1712000   0.56986817    -7.807617     287.5417  0.013996383  0.012431074          568 
 1713000   0.57758297   -7.8182095    286.64507  0.013944594  0.012419907          474 
 1714000    0.5699316   -7.8113203     287.0002  0.013953724  0.012408772          416 
 1715000   0.56768451   -7.8212873    287.32742  0.013961488  0.012397641          530 
 1716000   0.56491372   -7.8222592    286.51193   0.01391375  0.012386527          542 
 1717000   0.56212631   -7.8366922     286.8819  0.013923602  0.012375418          556 
 1718000   0.56186997    -7.817799    286.80625  0.013911828  0.012364307          589 
 1719000   0.57770541   -7.8128278    286.69136  0.013898165  0.012353217          587 
 1720000   0.56487305   -7.8201036    287.08054  0.013908941   0.01234214          483 
 1721000   0.56397923   -7.8379657    286.73224  0.013883994  0.012331085          391 
 1722000   0.56707615   -7.8162567    286.72066  0.013875371  0.012320048          502 
 1723000   0.56217496   -7.8316463    286.48707   0.01385602  0.012309009          523 
 1724000   0.55594948   -7.8409186    286.40098  0.013843822  0.012297961          555 
 1725000    0.5639801   -7.8225545    286.79181  0.013854677  0.012286926          624 
 1726000   0.56054474   -7.8263723    286.58791  0.013836805  0.012275909          395 
 1727000   0.55720193   -7.8340427    286.37476  0.013818508  0.012264911          449 
 1728000   0.55250898   -7.8419565    286.70024  0.013826208  0.012253918          583 
 1729000   0.55993791   -7.8451709    286.69038  0.013817736  0.012242943          613 
 1730000   0.56016451   -7.8185682    286.67609   0.01380906  0.012231983          435 
 1731000   0.57875878   -7.8150787    286.76873  0.013805543  0.012221022          486 
 1732000   0.55074668   -7.8320336    286.72548  0.013795491  0.012210077          289 
 1733000   0.56578943   -7.8386138    286.18341  0.013761464  0.012199149          589 
 1734000   0.55959979   -7.8234502     286.3155  0.013759876  0.012188222          519 
 1735000   0.56519471   -7.8490625    287.11976  0.013790575  0.012177308          599 
 1736000   0.56453585   -7.8594464    286.25484  0.013741112  0.012166408          580 
 1737000   0.56362929   -7.8411184    287.26223  0.013781531  0.012155512          566 
 1738000   0.56301345    -7.852167    286.71418  0.013747323  0.012144638          599 
 1739000   0.57454535   -7.8442154     286.1143  0.013710672   0.01213378          339 
 1740000   0.55529998   -7.8450436    286.00749  0.013697677  0.012122921          623 
 1741000   0.56523127   -7.8433517    287.24278  0.013748936   0.01211209          635 
 1742000     0.559892   -7.8299063    286.33966  0.013697841  0.012101265          352 
 1743000   0.57222437   -7.8352566    286.42966  0.013694285  0.012090455          681 
 1744000   0.56002718   -7.8454805    287.19335  0.013722924  0.012079659          314 
 1745000   0.55028279    -7.856723    286.51658   0.01368274  0.012068853          605 
 1746000   0.54855341   -7.8246232    286.77071  0.013687033  0.012058065          618 
 1747000   0.56220125   -7.8463223    286.03579  0.013644142  0.012047297          441 
 1748000   0.54578182   -7.8361769    287.25534  0.013694477  0.012036529          547 
 1749000   0.57408622   -7.8438879    286.58428  0.013654673  0.012025786          321 
 1750000   0.54979945   -7.8521416    286.47411  0.013641624  0.012015027          486 
 1751000   0.55957885   -7.8397457    286.37809  0.013629264  0.012004287          350 
 1752000   0.56214123   -7.8666271       286.54  0.013629186  0.011993566          708 
 1753000   0.54870528   -7.8412198    286.79229  0.013633404  0.011982859          540 
 1754000   0.55286307   -7.8340381    286.62488  0.013617678  0.011972179          610 
 1755000    0.5650767   -7.8630651    286.50096  0.013604034  0.011961508          623 
 1756000   0.54359037     -7.84844    286.02546  0.013573722  0.011950839          694 
 1757000   0.54572237   -7.8667349    286.35436  0.013581596  0.011940186          602 
 1758000   0.55044479   -7.8611858    286.25341  0.013569084  0.011929546          600 
 1759000   0.55538271   -7.8594294    286.45614  0.013570975  0.011918917          640 
 1760000   0.55103593   -7.8445802    286.71477   0.01357551  0.011908301          542 
 1761000    0.5556087   -7.8508745    286.46247  0.013555862  0.011897695          547 
 1762000   0.54952804   -7.8440339    286.33281  0.013542036  0.011887105          589 
 1763000   0.54736962   -7.8653325    286.56436    0.0135453  0.011876511          441 
 1764000   0.54799812   -7.8493553    286.70739  0.013544378  0.011865937          454 
 1765000   0.54765644   -7.8586432    286.42186  0.013523223  0.011855368          523 
 1766000   0.55194736   -7.8622098    286.04741  0.013497896  0.011844802          424 
 1767000   0.54704527   -7.8720255    286.58212  0.013515474  0.011834239          648 
 1768000   0.54476611   -7.8462824    286.24269  0.013491831  0.011823694          605 
 1769000   0.54305856   -7.8679076    286.43343   0.01349319  0.011813163          419 
 1770000   0.54089504   -7.8582388    286.58523  0.013492713  0.011802656          576 
 1771000   0.54597039   -7.8483404     286.3678  0.013474864  0.011792161          771 
 1772000   0.54950045   -7.8699497    285.85769   0.01344327   0.01178167          649 
 1773000   0.54521144   -7.8776133    285.82314  0.013434064  0.011771182          467 
 1774000   0.54254451   -7.8735129    286.16415   0.01344251  0.011760703          685 
 1775000   0.54709075    -7.864566    285.31235  0.013394946   0.01175024          350 
 1776000    0.5476622   -7.8809089    286.37225  0.013437136  0.011739791          692 
 1777000   0.54245366   -7.8484709    286.34354  0.013428228  0.011729371          615 
 1778000   0.55466919   -7.8791051    285.94511  0.013402002  0.011718959          663 
 1779000   0.53531554    -7.883371    286.50137  0.013420525  0.011708528          363 
 1780000   0.53766922   -7.8732775    286.08672  0.013393573   0.01169811          608 
 1781000   0.53670628   -7.8905806    285.92501  0.013378486  0.011687695          651 
 1782000   0.55583456   -7.8999086    285.52286  0.013352173  0.011677299          737 
 1783000    0.5474509   -7.8797147    285.63535  0.013349942  0.011666915          707 
 1784000   0.54428899   -7.8933582    286.44423  0.013380242  0.011656547          679 
 1785000   0.54942889   -7.8781912     285.6457  0.013335467  0.011646172          778 
 1786000   0.53253821   -7.8530744    286.03723  0.013346269   0.01163581          665 
 1787000   0.54128618   -7.8891315    286.48787  0.013359815  0.011625468          706 
 1788000   0.53642927    -7.886322    285.66983  0.013314217   0.01161513          725 
 1789000   0.54045365   -7.8723309    286.59112  0.013349689  0.011604819          685 
 1790000   0.54157776   -7.9023434    285.75522  0.013303316  0.011594512          649 
 1791000   0.54068056   -7.8775733    285.59862  0.013288602  0.011584216          672 
 1792000   0.53218766   -7.8682405    286.30668  0.013314113  0.011573924          748 
 1793000    0.5362639   -7.8730202    285.97326  0.013291191  0.011563656          715 
 1794000   0.53935845   -7.8834471    286.02243  0.013286066  0.011553391          670 
 1795000   0.53505498   -7.8946805    286.22493  0.013288066  0.011543149          621 
 1796000   0.54368313    -7.881194    285.41579  0.013243123  0.011532909          588 
 1797000   0.54236178   -7.8830288     285.9843  0.013262117  0.011522684          629 
 1798000   0.52535613   -7.8905575      286.033  0.013256998  0.011512457          606 
 1799000   0.53320683   -7.9119006    285.62373  0.013230671  0.011502242          564 
 1800000   0.53440275   -7.8844859    286.22412  0.013251117  0.011492043          661 
 1801000   0.53711088   -7.8918184     286.3181  0.013248107   0.01148185          552 
 1802000    0.5359468   -7.8673096    285.53051  0.013204334  0.011471686          603 
 1803000   0.52248759   -7.8798916    285.77887  0.013208489  0.011461529          670 
 1804000   0.52792167   -7.8589908    286.42901  0.013231199   0.01145139          641 
 1805000   0.54141302   -7.8870991    286.07336   0.01320745   0.01144125          678 
 1806000   0.52698256   -7.8780032    285.98479   0.01319605   0.01143113          617 
 1807000    0.5262426   -7.9052797    285.88111  0.013183966   0.01142101          687 
 1808000   0.52889375   -7.8846029    285.77993   0.01317201  0.011410911          653 
 1809000    0.5382128   -7.9010227    285.86353   0.01316858  0.011400819          722 
 1810000   0.53409438   -7.8931657    286.41287  0.013186596  0.011390744          684 
 1811000   0.51964859    -7.882965    285.55908  0.013140028  0.011380658          667 
 1812000   0.53357286   -7.8693958    286.15585  0.013160221    0.0113706          651 
 1813000   0.52298473   -7.9047943    285.12493  0.013105577  0.011360545          665 
 1814000   0.52085334   -7.8828479    285.49256  0.013115241  0.011350503          774 
 1815000   0.54489261   -7.9133902    285.57086   0.01311161  0.011340462          665 
 1816000   0.52433409   -7.8893813    285.89925  0.013119459  0.011330445          654 
 1817000   0.52497537   -7.8945631    285.27272  0.013083504  0.011320428          797 
 1818000   0.51910162   -7.8897056    285.46336  0.013085046  0.011310415          682 
 1819000   0.52799625   -7.8915896     285.5148  0.013080209  0.011300434          797 
 1820000   0.51954446   -7.8972479     285.5111  0.013072853  0.011290463          731 
 1821000   0.53823702   -7.9199229    285.35967  0.013058744  0.011280507          772 
 1822000   0.52236086    -7.896167    285.87566  0.013075177  0.011270548          757 
 1823000   0.53440194   -7.8883372    285.23457  0.013038699  0.011260602          613 
 1824000   0.52128134   -7.8998532    285.54792  0.013045866  0.011250673          599 
 1825000   0.53674994   -7.9113709    285.48065  0.013035646  0.011240749          597 
 1826000    0.5261455   -7.8958833    285.57084  0.013032623  0.011230837          731 
 1827000   0.52473275   -7.9005986    285.76471  0.013034332  0.011220926          663 
 1828000   0.52307447   -7.8924547    285.83971  0.013030621   0.01121104          489 
 1829000   0.52290428   -7.8955388    285.59826  0.013012496  0.011201171          511 
 1830000   0.51312861   -7.8895598    286.10719   0.01302856  0.011191315          692 
 1831000   0.52666173   -7.9094651    285.55781  0.012996441  0.011181459          670 
 1832000   0.53230764   -7.9189849    285.23975  0.012974879  0.011171623          638 
 1833000   0.50557499   -7.8920749    285.49358  0.012979341  0.011161789          712 
 1834000   0.52426463   -7.9095261    285.66484  0.012980046  0.011151964          555 
 1835000   0.53174259   -7.8910674    286.05313  0.012990605   0.01114215          602 
 1836000   0.52329932   -7.9015536     285.8363  0.012973688  0.011132343          795 
 1837000   0.50919484   -7.9087138    285.51765  0.012952171   0.01112255          434 
 1838000   0.51821942    -7.909938    285.53774  0.012946035  0.011112765          532 
 1839000   0.52101686   -7.8903592     285.4742  0.012936115  0.011102996          687 
 1840000    0.5222557   -7.8983787    285.11118  0.012912644  0.011093242          694 
 1841000   0.53305451   -7.9086779    285.63356  0.012929276  0.011083503          645 
 1842000   0.51096482    -7.903845    285.31649  0.012907912  0.011073779          455 
 1843000   0.51678539   -7.9104447    285.50834  0.012909583  0.011064059          727 
 1844000   0.51724944   -7.9006042    285.60336  0.012906876  0.011054355          606 
 1845000    0.5220714   -7.9053149     284.7262  0.012860262  0.011044662          705 
 1846000   0.53052797   -7.9254353    285.48017  0.012887332  0.011034981          717 
 1847000   0.52339131   -7.9132195    285.27045  0.012870892  0.011025301          658 
 1848000   0.51428461   -7.9045075     285.4449  0.012871794  0.011015645          657 
 1849000   0.53586791   -7.9049557     285.6199  0.012872719   0.01100599          654 
 1850000   0.52724625   -7.9103737    284.89099  0.012832927  0.010996345          687 
 1851000   0.50649093   -7.9236008    285.12388  0.012836479  0.010986713          632 
 1852000   0.52067792   -7.9002177    285.46346  0.012844828  0.010977086          646 
 1853000   0.50521427    -7.919896    285.03314  0.012818544   0.01096748          680 
 1854000   0.50681189   -7.9162027    285.44953  0.012830345  0.010957884          689 
 1855000   0.49969373   -7.9003054    285.12479   0.01280884  0.010948289          647 
 1856000   0.51243687   -7.9075075     285.2972   0.01280968  0.010938709          643 
 1857000    0.5200939    -7.919595    285.70005   0.01282086  0.010929139          644 
 1858000   0.52657166   -7.9157428    285.18263  0.012790753  0.010919575          400 
 1859000   0.52837808   -7.9061939    285.31587  0.012789845  0.010910028          628 
 1860000   0.50073219   -7.9135484    285.64629  0.012797773  0.010900492          763 
 1861000   0.50719533   -7.9270444    285.31169  0.012775913  0.010890969          724 
 1862000   0.50702924   -7.9148136    285.21326  0.012764647  0.010881436          678 
 1863000   0.51015748   -7.9056235    285.21924  0.012758062  0.010871922          609 
 1864000   0.50612484   -7.9311883    285.07984  0.012744986  0.010862417          744 
 1865000   0.49740918   -7.9287365    285.20346  0.012743676  0.010852918          667 
 1866000   0.50667484   -7.9220081    284.96207  0.012726066  0.010843417          623 
 1867000   0.52298973   -7.9230546    285.14278  0.012727316  0.010833951          622 
 1868000   0.50412878   -7.9195491    285.91056  0.012754754  0.010824494          564 
 1869000   0.50922579   -7.9265266    284.90984   0.01270331  0.010815045          690 
 1870000   0.51837112   -7.9145303    285.08351  0.012704256  0.010805608          738 
 1871000   0.51677669   -7.9262588    285.21974  0.012703534  0.010796176          609 
 1872000   0.50533599    -7.927228    285.07388  0.012690255  0.010786751          536 
 1873000    0.4996527   -7.9398658    284.85698  0.012673829  0.010777346          660 
 1874000    0.5055137   -7.9362245    285.52576  0.012696806  0.010767936          661 
 1875000   0.50425252    -7.933996    285.16897  0.012674176  0.010758548          617 
 1876000   0.51501645   -7.9202888    285.16497  0.012667243  0.010749173          723 
 1877000   0.50199603   -7.9015983    284.80521  0.012644522  0.010739822          713 
 1878000   0.49789965   -7.9262297    285.16723  0.012653853  0.010730456          697 
 1879000   0.50703484   -7.9168275    284.91975  0.012636143  0.010721102          754 
 1880000   0.50597862   -7.9256112    285.27317  0.012645087  0.010711767          656 
 1881000   0.50844913   -7.9307202    284.96175  0.012624568  0.010702444          683 
 1882000   0.49888455   -7.9296004    284.56611  0.012600342  0.010693127          733 
 1883000   0.50509214   -7.9534187    285.10756  0.012617612  0.010683817          678 
 1884000    0.5020363   -7.9437476    285.30221  0.012619524  0.010674528          775 
 1885000   0.50227499   -7.9164228    285.45427  0.012619552  0.010665247          758 
 1886000   0.50302004   -7.9536372    285.24382  0.012603562  0.010655974          664 
 1887000   0.49949729   -7.9291355    285.72251  0.012618023  0.010646712          671 
 1888000    0.4985679   -7.9284151    285.00238  0.012579554  0.010637465          708 
 1889000   0.49482779   -7.9264909    284.85625  0.012566448  0.010628225          653 
 1890000   0.49405304   -7.9376549    284.79328  0.012557023  0.010618984          647 
 1891000   0.50647336   -7.9331701    284.66895  0.012544903  0.010609759          627 
 1892000   0.50123781   -7.9319216    285.18253  0.012560894   0.01060055          485 
 1893000   0.49458504   -7.9499058    284.89281  0.012541504  0.010591358          704 
 1894000   0.49800156   -7.9304495    285.06002   0.01254224  0.010582167          698 
 1895000   0.50156024   -7.9325818    284.86606  0.012527092  0.010572993          672 
 1896000   0.49982306   -7.9413681    285.18319  0.012534423  0.010563825          728 
 1897000    0.4840497   -7.9525167    284.75999  0.012509225  0.010554664          670 
 1898000   0.49260376   -7.9283211    285.27732  0.012525348  0.010545515          572 
 1899000    0.4949217   -7.9257299    285.36436  0.012522572  0.010536369          666 
 1900000   0.50140167   -7.9569405    284.67206  0.012485617   0.01052723          621 
 1901000    0.4928053   -7.9502906    285.23329  0.012503651    0.0105181          605 
 1902000   0.49507887   -7.9527393    284.86801  0.012481073  0.010508988          714 
 1903000   0.49284362    -7.944259    284.91819  0.012476712  0.010499885          713 
 1904000   0.48470846   -7.9477168    284.48311  0.012451117  0.010490781          709 
 1905000   0.49796211   -7.9393836     285.0224  0.012468172  0.010481686          499 
 1906000   0.50094021   -7.9396829    285.15936  0.012467618  0.010472605          325 
 1907000   0.49068989   -7.9592191    284.73246  0.012442425  0.010463524          678 
 1908000   0.49223124    -7.956033    285.09733   0.01245184   0.01045446          670 
 1909000   0.49353088   -7.9362468    284.92325  0.012437718  0.010445411          670 
 1910000   0.49279594   -7.9531423    285.08284  0.012438169  0.010436381          651 
 1911000   0.48937304   -7.9394343    284.71546   0.01241564  0.010427356          721 
 1912000   0.48414826    -7.947216     284.8876  0.012416649  0.010418344          607 
 1913000   0.49556654   -7.9680764    285.18256  0.012423007  0.010409328          799 
 1914000   0.49242527   -7.9556167    284.79488  0.012399638  0.010400326          657 
 1915000    0.4872157   -7.9570541    284.96948   0.01240076   0.01039133          674 
 1916000   0.49253398   -7.9572121    284.58156  0.012377416  0.010382357          691 
 1917000   0.50191525   -7.9514786    284.77877  0.012379533  0.010373383          749 
 1918000   0.48573548   -7.9392835    284.97639  0.012381665  0.010364428          688 
 1919000   0.47538389   -7.9443758    285.33479  0.012390776  0.010355485          765 
 1920000   0.48572604    -7.969837    284.87992   0.01236458  0.010346544          758 
 1921000   0.48337841    -7.956651    284.77595  0.012353633  0.010337615          715 
 1922000   0.48822245   -7.9683518    284.81768  0.012349015  0.010328695          716 
 1923000   0.49048877   -7.9551911    284.47537  0.012327759  0.010319784          744 
 1924000   0.47588824   -7.9614992    284.72149  0.012332012  0.010310875          697 
 1925000   0.47665483   -7.9556004    284.58304  0.012319612  0.010301981          703 
 1926000   0.48680257   -7.9731282    284.70437  0.012318465  0.010293098          689 
 1927000   0.47496287   -7.9616505     284.0463  0.012283615  0.010284219          719 
 1928000   0.47287183    -7.944014    284.40099  0.012292574   0.01027536          739 
 1929000   0.48042545   -7.9451095    284.36996  0.012284861   0.01026651          486 
 1930000   0.47823308   -7.9619197    284.98023  0.012304846  0.010257668          679 
 1931000   0.48401484   -7.9627348    284.50327   0.01227789  0.010248832          692 
 1932000   0.47964701   -7.9636668    284.67716  0.012279036  0.010240012          684 
 1933000   0.48087729   -7.9655716     285.0022  0.012286696  0.010231199          713 
 1934000   0.48762401   -7.9721721    284.58179  0.012262228  0.010222398          676 
 1935000   0.48538665   -7.9727791    284.56679  0.012255245  0.010213598          635 
 1936000    0.4797939   -7.9619609    284.66188  0.012253008  0.010204814          747 
 1937000   0.48242105   -7.9781131    284.42949  0.012236684  0.010196041          719 
 1938000   0.48475924   -7.9671095    284.75538  0.012244383  0.010187269          462 
 1939000   0.48842933   -7.9650429    284.75898  0.012238223  0.010178511          704 
 1940000   0.48426337   -7.9676261    284.47479  0.012219707  0.010169763          781 
 1941000   0.47729083   -7.9751551    284.57908  0.012217889  0.010161008          808 
 1942000   0.48481879   -7.9531523    284.69162  0.012216427  0.010152288          763 
 1943000   0.44966674   -7.9699813    284.71624  0.012211196  0.010143572          513 
 1944000   0.48122495   -7.9718022    284.39516  0.012191151  0.010134857          754 
 1945000   0.47960087    -7.969812    284.42988   0.01218637  0.010126144          749 
 1946000   0.47548539   -7.9663614    284.04448  0.012163604   0.01011743          742 
 1947000   0.46973612   -7.9730376    284.17932  0.012163128  0.010108739          659 
 1948000   0.48561603   -7.9881055    283.67196  0.012135179  0.010100054          768 
 1949000   0.48343119   -7.9711817     285.0371  0.012187323  0.010091381          782 
 1950000   0.47940829   -7.9977151    284.13515  0.012142528  0.010082733          797 
 1951000   0.47496754   -7.9912408    284.20125  0.012139128   0.01007408          719 
 1952000   0.47133121   -7.9812964    283.96471   0.01212281  0.010065431          759 
 1953000   0.46918706    -7.991034    283.93789  0.012115459  0.010056794          829 
 1954000   0.47400546   -7.9710003    284.74574  0.012143711  0.010048164          641 
 1955000   0.47967674   -7.9719226     284.2093  0.012114634  0.010039549          715 
 1956000   0.47335249   -7.9762247    284.08543  0.012103162  0.010030936          776 
 1957000   0.48071689   -7.9873508    284.17902  0.012100963  0.010022345          793 
 1958000   0.48012418   -7.9796844    284.18117  0.012094874   0.01001376          817 
 1959000    0.4723998   -7.9768904    284.21425  0.012090107  0.010005186          810 
 1960000   0.47747728   -7.9831626    284.46591  0.012094639 0.0099966301          744 
 1961000   0.47347679   -7.9888006    284.46492  0.012088429  0.009988072          743 
 1962000   0.47376361   -7.9740759    284.71979  0.012093093 0.0099795252          809 
 1963000   0.48034308   -7.9721111    284.47704  0.012076628 0.0099709878          537 
 1964000   0.47934691   -7.9900348     284.0791  0.012053594 0.0099624604          813 
 1965000   0.46944614   -7.9901861    284.10116  0.012048395 0.0099539463          803 
 1966000    0.4564789   -7.9888745    284.70961  0.012068057 0.0099454322          750 
 1967000   0.46450482   -7.9950359     284.0046  0.012032054 0.0099369291          824 
 1968000   0.46883845   -7.9920076    284.21381  0.012034799 0.0099284363          780 
 1969000   0.46678245    -7.975078    284.31259  0.012032867  0.009919945          829 
 1970000   0.46992849   -7.9954196     283.6299  0.011997881 0.0099114607          781 
 1971000   0.45771582   -7.9846498    284.34734  0.012022127 0.0099029911          713 
 1972000   0.46687425   -8.0005993    284.01901  0.012002155 0.0098945295          831 
 1973000   0.46912473   -7.9917511    283.68158   0.01198182  0.009886075          751 
 1974000   0.46577151   -7.9811401    284.69982  0.012018736  0.009877637          534 
 1975000   0.46328451   -7.9930366    284.49191  0.012003878 0.0098692136          730 
 1976000   0.45769951   -7.9865706    284.14946  0.011983361 0.0098607948          737 
 1977000   0.46524943   -7.9874738    283.98609  0.011970413  0.009852391          770 
 1978000   0.47510852   -8.0018808    283.93537  0.011962225 0.0098439924          804 
 1979000   0.45527656   -8.0001981    284.33103  0.011972841 0.0098355999          739 
 1980000   0.47140692   -7.9865965    284.01684  0.011953571   0.00982722          770 
 1981000   0.45289604   -7.9865548     284.0098  0.011947241 0.0098188548          714 
 1982000   0.46006826   -7.9985697     283.9599  0.011939115 0.0098104942          741 
 1983000   0.46290163    -7.988983    284.34684  0.011949354 0.0098021426          673 
 1984000   0.46190637   -7.9932447    284.17813  0.011936245 0.0097938053          807 
 1985000   0.46126687   -7.9846442    283.83178  0.011915692 0.0097854758          777 
 1986000   0.46480013   -8.0028023    284.42508  0.011934587 0.0097771571          743 
 1987000   0.45932196   -8.0006471    284.32268  0.011924286 0.0097688418          795 
 1988000   0.45735519   -7.9922422    284.26383  0.011915821 0.0097605454          570 
 1989000   0.45648952    -8.011201    283.89125   0.01189422 0.0097522434          796 
 1990000   0.44777317   -7.9855862    284.15795  0.011899411 0.0097439488          710 
 1991000   0.46255397   -8.0100479    283.75956  0.011876761 0.0097356662          778 
 1992000   0.44966496     -8.00561    284.00258  0.011880965 0.0097273856          743 
 1993000   0.45523704   -8.0072789    284.44593  0.011893541 0.0097191173          752 
 1994000   0.46151272    -8.009844    284.16432  0.011875807 0.0097108532          803 
 1995000     0.455005   -8.0061791    283.72261  0.011851404 0.0097026036          782 
 1996000   0.47044874   -7.9998006    283.94885  0.011854912 0.0096943601          778 
 1997000   0.45618582   -8.0195461    283.81696  0.011843472 0.0096861254          450 
 1998000   0.45354456   -8.0190935    284.22256  0.011854461 0.0096779034          764 
 1999000   0.45604688   -8.0157248    283.81294  0.011831455 0.0096696849          760 
 2000000   0.44289597   -8.0158813    283.44145   0.01181006 0.0096614789          746 
 2001000   0.45669266    -8.014236    283.77726  0.011818144 0.0096532812          706 
 2002000   0.46176972   -8.0167392    283.61608  0.011805531 0.0096450912          802 
 2003000   0.46302015   -7.9959775    283.64874  0.011800996 0.0096369109          763 
 2004000   0.46557195   -8.0087035    284.04267  0.011811488 0.0096287463          740 
 2005000   0.45040418   -8.0243355    283.87131  0.011798475 0.0096205891          836 
 2006000   0.44812615   -8.0239331    283.76723   0.01178827 0.0096124404          727 
 2007000   0.44483534   -8.0138816    283.86446  0.011786433 0.0096043015          780 
 2008000   0.45306763   -8.0363747    283.81068  0.011778332 0.0095961756          800 
 2009000   0.46741775   -8.0211865    283.97818  0.011779417 0.0095880483          737 
 2010000   0.45175798   -8.0206297    284.07683  0.011777646 0.0095799321          789 
 2011000    0.4463357   -8.0216174    283.90293  0.011764584  0.009571825          763 
 2012000   0.43895385     -8.02043    283.72561  0.011751392  0.009563731          699 
Loop time of 5292.26 on 48 procs for 2000000 steps with 4000 atoms

Performance: 65302.877 tau/day, 377.910 timesteps/s
99.4% CPU use with 48 MPI tasks x no OpenMP threads

MPI task timing breakdown:
Section |  min time  |  avg time  |  max time  |%varavg| %total
---------------------------------------------------------------
Pair    | 380.68     | 426.74     | 457.61     |  87.3 |  8.06
Neigh   | 36.481     | 38.123     | 39.448     |  12.3 |  0.72
Comm    | 334.58     | 370.16     | 418.1      |  95.0 |  6.99
Output  | 5.1908     | 5.1928     | 5.2431     |   0.3 |  0.10
Modify  | 4380.3     | 4401.7     | 4418.8     |  14.2 | 83.17
Other   |            | 50.37      |            |       |  0.95

Nlocal:        83.3333 ave          89 max          78 min
Histogram: 3 2 6 7 6 11 5 2 3 3
Nghost:        2426.33 ave        2439 max        2411 min
Histogram: 3 3 2 5 6 4 8 9 5 3
Neighs:        16817.9 ave       19519 max       14317 min
Histogram: 3 5 6 5 7 5 6 6 3 2
FullNghs:      33635.4 ave       36013 max       31254 min
Histogram: 2 1 5 10 5 11 6 4 1 3

Total # of neighbors = 1614498
Ave neighs/atom = 403.62450
Neighbor list builds = 106684
Dangerous builds = 0

#clear
#
#next RN
#
#jump SELF
Total wall time: 1:28:15
