
units lj                  # Use reduced LJ style units
atom_style atomic         # Uncharged point particles
atom_modify map hash      # Needed for indexing of clusters etc
                          # Used to be able to find where atoms are in relation to each other.

lattice fcc 1.0 spacing 1 1 1
Lattice spacing in x,y,z = 1.5874011 1.5874011 1.5874011
region box block 0 10 0 10 0 10 units lattice
create_box 2 box
Created orthogonal box = (0.0000000 0.0000000 0.0000000) to (15.874011 15.874011 15.874011)
  3 by 4 by 4 MPI processor grid
create_atoms 1 box
Created 4000 atoms
  using lattice units in orthogonal box = (0.0000000 0.0000000 0.0000000) to (15.874011 15.874011 15.874011)
  create_atoms CPU = 0.006 seconds
set type 1 type/fraction 2 0.48 78393
Setting atom values ...
  1918 settings made for type/fraction
mass 1 1.0
mass 2 1.0
pair_style lj/cut  3.5
pair_modify tail  yes
pair_coeff 1  1  1.0  1.0   # Intearaction between 1 and 1 set with epsilon = 1 and sigma = 1
pair_coeff 1  2  1.5  0.8
pair_coeff 2  2  0.5  0.88

write_data data.0
System init for write_data ...
Neighbor list info ...
  update every 1 steps, delay 10 steps, check yes
  max neighbors/atom: 2000, page size: 100000
  master list distance cutoff = 3.8
  ghost atom cutoff = 3.8
  binsize = 1.9, bins = 9 9 9
  1 neighbor lists, perpetual/occasional/extra = 1 0 0
  (1) pair lj/cut, perpetual
      attributes: half, newton on
      pair build: half/bin/atomonly/newton
      stencil: half/bin/3d
      bin: standard
WARNING: Not all mixed pair coeffs generated from mixing. Use write_data with 'pair ij' option to store all pair coeffs. (../write_data.cpp:312)


#############################
#   M E L T   S Y S T E M   #
#############################

velocity all create 2.4 6583654 mom yes dist gaussian # Assign velocities
                                                    # Temperature 2.4, random number seed, zero linear momentum
                                                                                # Gaussian distribution

timestep 0.002   # simulation timestep
thermo 1000       # output thermodynamic data every 1000 steps bf 100

# Define a fix  in this case with index 1 applied to all
# particles in the simulation. This fix is for simulations
# in the anisotropic NPT ensemble. Note that we use the MTK
# correction.
fix 1 all npt temp 2.4 2.4 0.1 iso 5.68 5.68 0.5 mtk yes tchain 5 pchain 5 # Use NPT ensemble
                                                                         # Set temperature and pressure and damping
                                                                         # Numbers of thermostats in chain and in barostat
run 10000          # run for 10000 steps
Per MPI rank memory allocation (min/avg/max) = 3.642 | 3.644 | 3.648 Mbytes
Step Temp E_pair E_mol TotEng Press Volume 
       0          2.4   -5.4168687            0   -1.8177687   -4.2006027         4000 
    1000    2.4282817     -4.88522            0    -1.243708    5.8234193    3745.1102 
    2000     2.439596   -4.9425032            0    -1.284024    5.8783068    3720.9228 
    3000    2.3404869   -4.9265304            0   -1.4166776    5.3829979    3757.3482 
    4000    2.4359389   -4.9560603            0   -1.3030654    5.8534543    3717.6377 
    5000    2.4099679   -4.9540223            0   -1.3399741    5.5546092    3737.7883 
    6000    2.4167343   -4.9538499            0   -1.3296548    5.6434894    3730.9849 
    7000    2.4300079   -4.8887831            0   -1.2446825    5.8840471    3746.7717 
    8000    2.4003871   -4.9060698            0   -1.3063893    5.6865439    3734.6746 
    9000    2.4234947   -4.9450883            0    -1.310755    5.6135553    3736.7763 
   10000    2.4120927   -4.9258122            0   -1.3085777    5.2963719    3765.0132 
Loop time of 2.59452 on 48 procs for 10000 steps with 4000 atoms

Performance: 666019.405 tau/day, 3854.279 timesteps/s
99.6% CPU use with 48 MPI tasks x no OpenMP threads

MPI task timing breakdown:
Section |  min time  |  avg time  |  max time  |%varavg| %total
---------------------------------------------------------------
Pair    | 1.1431     | 1.2282     | 1.305      |   3.1 | 47.34
Neigh   | 0.21035    | 0.21838    | 0.23016    |   0.8 |  8.42
Comm    | 0.77703    | 0.87016    | 0.95349    |   4.1 | 33.54
Output  | 0.00023826 | 0.00024329 | 0.00030434 |   0.0 |  0.01
Modify  | 0.23673    | 0.26222    | 0.28412    |   2.4 | 10.11
Other   |            | 0.01535    |            |       |  0.59

Nlocal:        83.3333 ave          92 max          74 min
Histogram: 1 4 5 8 4 9 4 5 5 3
Nghost:        1708.21 ave        1732 max        1688 min
Histogram: 2 4 4 10 10 9 2 0 5 2
Neighs:        10133.1 ave       11411 max        8844 min
Histogram: 2 5 6 6 6 5 6 4 3 5

Total # of neighbors = 486389
Ave neighs/atom = 121.59725
Neighbor list builds = 901
Dangerous builds = 202

# Equilibrate just above the melting temperature to avoid step fn in T

fix 1 all npt temp 1.25 1.25 0.1 iso 5.68 5.68 0.5 mtk yes tchain 5 pchain 5
run 2000
Per MPI rank memory allocation (min/avg/max) = 3.644 | 3.646 | 3.649 Mbytes
Step Temp E_pair E_mol TotEng Press Volume 
   10000    2.4120927   -4.9258122            0   -1.3085777    5.2963719    3765.0132 
   11000    1.2681376   -7.0478831            0   -5.1461522     5.434443     2925.205 
   12000    1.2580236   -7.1407629            0   -5.2541992    5.7548928     2890.189 
Loop time of 0.619224 on 48 procs for 2000 steps with 4000 atoms

Performance: 558117.860 tau/day, 3229.849 timesteps/s
99.7% CPU use with 48 MPI tasks x no OpenMP threads

MPI task timing breakdown:
Section |  min time  |  avg time  |  max time  |%varavg| %total
---------------------------------------------------------------
Pair    | 0.28445    | 0.30585    | 0.34085    |   2.1 | 49.39
Neigh   | 0.039408   | 0.041626   | 0.044339   |   0.6 |  6.72
Comm    | 0.18773    | 0.22476    | 0.25204    |   2.8 | 36.30
Output  | 5.1367e-05 | 5.3079e-05 | 6.5375e-05 |   0.0 |  0.01
Modify  | 0.036816   | 0.042204   | 0.046058   |   1.3 |  6.82
Other   |            | 0.004729   |            |       |  0.76

Nlocal:        83.3333 ave          93 max          74 min
Histogram: 1 0 3 13 12 5 10 2 1 1
Nghost:        2042.10 ave        2064 max        2018 min
Histogram: 3 2 4 4 9 9 6 3 3 5
Neighs:        13202.2 ave       14437 max       11890 min
Histogram: 2 4 6 3 9 4 6 8 3 3

Total # of neighbors = 633707
Ave neighs/atom = 158.42675
Neighbor list builds = 141
Dangerous builds = 8

#############################
# L I N E A R  Q U E N C H  #
#############################

# Define solid atoms. This closely follows ten Wolde  Ruiz-Montero and Frenkel  Faraday Discuss  1996  104  93-110
# Compute components of the per-atom q6 vector
compute q6 all orientorder/atom degrees 1 6 components 6 nnn NULL cutoff 1.3 # compute the Q6 parameter.
                                                                             # Use all neighbours within 1.3 unit cell.

# get number of connections
compute coord_number all coord/atom orientorder q6 0.5

# An atom is solid if it has 8 or more connections (of a possible 14)
variable is_solid atom c_coord_number>=8
group solid dynamic all var is_solid    # Must be dynamic to update
dynamic group solid defined

# do clustering
compute cluster solid cluster/atom 1.3 # Create a cluster where all atoms within are solid and max 1.3 units from another member

# define chunks one chunk per cluster
compute clus_chunks solid chunk/atom c_cluster nchunk every compress yes  # Says which atoms are in which chunk

# count the size of each chunk
compute size_chunks solid property/chunk clus_chunks count


# Find the maximum entry in the vector of chunk sizes
variable max_n equal max(c_size_chunks)


# Thermo style which includes this variable
# thermo_style custom step temp pe vol v_max_n

thermo ${N}  # Print the thermo information every 100 steps
thermo 1000  

# Reset the npt fix at a lower temperature (below freezing)
fix 1  all npt temp  ${temp} ${temp}  0.1  iso  5.68  5.68  0.5  mtk yes tchain  5  pchain  5
fix 1  all npt temp  0.45 ${temp}  0.1  iso  5.68  5.68  0.5  mtk yes tchain  5  pchain  5
fix 1  all npt temp  0.45 0.45  0.1  iso  5.68  5.68  0.5  mtk yes tchain  5  pchain  5

dump dmp2 all dcd ${N} traj.dcd
dump dmp2 all dcd 1000 traj.dcd


compute msd all msd com yes
variable twopoint equal c_msd[4]/6/(step*dt+1.0e-6)
fix 9 all vector 10 c_msd[4]
variable fit equal slope(f_9)/6/(10*dt)
thermo_style custom step temp pe c_msd[4] v_twopoint v_fit v_max_n

fix 1 all npt temp 1.25 ${temp} 0.1 iso 5.68 5.68 0.5 mtk yes tchain 5 pchain 5
fix 1 all npt temp 1.25 0.45 0.1 iso 5.68 5.68 0.5 mtk yes tchain 5 pchain 5
run 500000 # 5000000  # Run for this many steps
Neighbor list info ...
  update every 1 steps, delay 10 steps, check yes
  max neighbors/atom: 2000, page size: 100000
  master list distance cutoff = 3.8
  ghost atom cutoff = 3.8
  binsize = 1.9, bins = 8 8 8
  4 neighbor lists, perpetual/occasional/extra = 1 3 0
  (1) pair lj/cut, perpetual
      attributes: half, newton on
      pair build: half/bin/atomonly/newton
      stencil: half/bin/3d
      bin: standard
  (2) compute orientorder/atom, occasional
      attributes: full, newton on
      pair build: full/bin/atomonly
      stencil: full/bin/3d
      bin: standard
  (3) compute coord/atom, occasional
      attributes: full, newton on
      pair build: full/bin/atomonly
      stencil: full/bin/3d
      bin: standard
  (4) compute cluster/atom, occasional
      attributes: full, newton on
      pair build: full/bin/atomonly
      stencil: full/bin/3d
      bin: standard
Per MPI rank memory allocation (min/avg/max) = 9.836 | 9.842 | 9.847 Mbytes
Step Temp PotEng c_msd[4] v_twopoint v_fit v_max_n 
   12000    1.2580236   -7.1407629 9.8607613e-34 6.8477506e-36 8.3333333e+20            2 
   13000    1.2359434   -7.1545968   0.44631267 0.0028609786  0.036222308            2 
   14000    1.2523917   -7.1652333   0.87293833 0.0051960613  0.035605171            1 
   15000    1.2542415   -7.1914554     1.273075 0.0070726387  0.034923819            1 
   16000    1.2366816   -7.1525297    1.6925927 0.0088155866  0.034696442            2 
   17000    1.2452987   -7.1694433    2.1139785  0.010362639  0.034796125            2 
   18000    1.2803703   -7.1703616    2.4742511  0.011454866  0.034467064            3 
   19000    1.2567953    -7.208106    2.9352446   0.01287388  0.034262258            1 
   20000    1.2542949   -7.2127704    3.3512799  0.013963666  0.034121983            2 
   21000    1.2285224   -7.1381541    3.7757323  0.014983064  0.034490682            2 
   22000    1.2249339   -7.1595082    4.1147154  0.015586043  0.034372459            2 
   23000    1.2577944   -7.1978549    4.4774308  0.016222575  0.034079401            3 
   24000    1.2220241   -7.1716108    4.8348223  0.016787577  0.033731095            4 
   25000    1.2270564    -7.129414     5.278919  0.017596396   0.03344627            1 
   26000    1.2402642   -7.2172589     5.580553  0.017886387  0.033170727            1 
   27000    1.2305138    -7.181718     5.914478  0.018254562  0.032940772            2 
   28000    1.2164763   -7.1665169    6.2989283   0.01874681  0.032678794            2 
   29000    1.2266464   -7.1905804    6.6719218  0.019172189  0.032496893            2 
   30000    1.2215761    -7.193505    7.0575655  0.019604348  0.032379636            3 
   31000    1.2677198   -7.1839721    7.4447239  0.020012698  0.032295582            2 
   32000    1.2067614    -7.201191    7.7647098  0.020220598   0.03217455            3 
   33000     1.222318    -7.252295    8.0575182  0.020347268  0.031990713            1 
   34000    1.1966803   -7.1832295     8.430669  0.020663404  0.031823112            2 
   35000    1.2145492   -7.2251502    8.7707087  0.020882639  0.031657475            4 
   36000    1.1952754   -7.2348736    9.2000209  0.021296344  0.031527107            2 
   37000     1.218997   -7.2320351    9.7265875  0.021906728  0.031525362            4 
   38000    1.2048402   -7.2607815    10.057638  0.022056224  0.031540197            5 
   39000    1.2131175   -7.2446766    10.263941  0.021931497  0.031503752            1 
   40000    1.2079529   -7.2468706    10.610585  0.022105386  0.031405412            3 
   41000    1.1908832   -7.2357204    10.950289  0.022256685  0.031304545            1 
   42000    1.2081516   -7.2176583    11.421593  0.022661892  0.031230947            2 
   43000    1.2021068    -7.195923    11.884961   0.02303287  0.031199285            2 
   44000    1.2123505   -7.2510905    12.097251   0.02291146  0.031163063            2 
   45000    1.1744239   -7.2061988      12.5218  0.023188518  0.031123394            4 
   46000    1.1973909   -7.2243675    12.907003  0.023382251  0.031093588            4 
   47000    1.1836457   -7.2518576    13.423381  0.023800321  0.031098806            2 
   48000     1.192187   -7.3036812    13.708056  0.023798709  0.031119406            3 
   49000    1.1985673   -7.2445949    14.071647  0.023931373  0.031124713            6 
   50000    1.1922548   -7.2784938    14.274237  0.023790396  0.031073377            3 
   51000    1.1640092   -7.2259397    14.584668  0.023831156  0.030995398            2 
   52000    1.2036919   -7.3007456    14.846445   0.02379238     0.030915            2 
   53000    1.2071779   -7.3193453    15.217183  0.023926388  0.030829049            1 
   54000    1.1717185   -7.3118961     15.46063  0.023858997  0.030739934            1 
   55000    1.1705057   -7.2952365     15.82348  0.023974969  0.030641899            2 
   56000    1.1563608   -7.2805153    16.173515   0.02406773  0.030555731            1 
   57000    1.1749437   -7.3036884    16.548794  0.024194143  0.030476543            2 
   58000     1.163666   -7.3227759    16.745058  0.024058991  0.030386832            2 
   59000     1.174377     -7.30498    17.141368  0.024210971  0.030303189       -1e+20 
   60000    1.1754257   -7.3069766    17.515216  0.024326689  0.030225469            1 
   61000    1.1656342   -7.3462877    17.878572  0.024424278  0.030161301            2 
   62000    1.1547302   -7.3460931     18.28768  0.024580216  0.030110298            2 
   63000    1.1847806    -7.326057    18.538568  0.024521915   0.03006053            2 
   64000     1.178621   -7.2854712    18.818793  0.024503636  0.029986873            4 
   65000    1.1745803    -7.345616    19.017365  0.024381237  0.029915157            2 
   66000    1.1770052   -7.3211685    19.403073   0.02449883  0.029831091            3 
   67000    1.1799392   -7.3564133    19.608198  0.024388305  0.029751352            3 
   68000    1.1528516   -7.3564544    19.948979  0.024447279  0.029666103            2 
   69000    1.1590473   -7.3739477    20.188434  0.024382166   0.02958593            1 
   70000    1.1601417    -7.400457     20.56679  0.024484274  0.029501735            1 
   71000    1.1416819   -7.3238825    20.835203  0.024454464  0.029414112            2 
   72000     1.149341   -7.3425368    21.122112  0.024446889  0.029332875            1 
   73000    1.1429021   -7.3434526    21.491229  0.024533366  0.029253383            3 
   74000    1.1472359   -7.3615388    21.828441  0.024581577  0.029187934            5 
   75000    1.1704487     -7.36545    22.131577  0.024590641  0.029121214            1 
   76000    1.1442415   -7.3514975     22.40711  0.024569199  0.029051233            2 
   77000    1.1312028   -7.4264988    22.650598  0.024513634  0.028978576            3 
   78000    1.1356984   -7.3695102     23.05867  0.024635331  0.028907475            6 
   79000    1.1350508   -7.4472469    23.354303  0.024635341  0.028835743            3 
   80000    1.1467268   -7.4299304    23.568443  0.024550462  0.028759041            1 
   81000    1.1311524   -7.4250467    23.821551  0.024507768  0.028684144            2 
   82000    1.1550577   -7.3898131    24.197444  0.024590898  0.028614237            1 
   83000     1.131651   -7.4242003    24.426013  0.024524109  0.028546608            2 
   84000    1.1054981   -7.4298413    24.890286  0.024692744  0.028487541            1 
   85000    1.1290013   -7.3711615     25.29561  0.024799617  0.028436483            1 
   86000    1.1739154   -7.4371061    25.418264    0.0246301   0.02838703            2 
   87000    1.1424261   -7.4394051    25.623507  0.024543589  0.028322009            3 
   88000    1.1503737   -7.3875563    26.025999  0.024645832  0.028258791            1 
   89000    1.1068654   -7.4394448    26.483368  0.024797161  0.028212929            2 
   90000    1.1491759   -7.4762872    26.726304  0.024746578  0.028170573            1 
   91000    1.1144702   -7.4487894    27.131865   0.02484603  0.028129604            5 
   92000    1.1135803    -7.459628    27.343075  0.024767278  0.028086555            1 
   93000    1.1289598     -7.49358    27.502517  0.024643832  0.028040469            3 
   94000    1.1105259   -7.4562487    27.869224  0.024706759  0.027991164            3 
   95000    1.1345625   -7.4470453    28.271673  0.024799713  0.027945773            6 
   96000    1.1445263    -7.448778    28.475124   0.02471799  0.027900658            4 
   97000    1.1059644   -7.4242852    28.820617  0.024759981  0.027852581            2 
   98000    1.1202185   -7.4882351    29.089457  0.024735932   0.02780815            2 
   99000    1.1120614   -7.4646053    29.330542  0.024689008  0.027765148            3 
  100000    1.1102484   -7.5023014     29.37551  0.024479591  0.027709454            3 
  101000    1.1166903   -7.4839324    29.689025  0.024495895  0.027644162            3 
  102000    1.1273099   -7.5249114    29.956491  0.024474257  0.027585102            3 
  103000    1.1050258   -7.5252983     30.18844  0.024424304  0.027525892            3 
  104000    1.0945072   -7.5167793    30.537297  0.024468988  0.027465454            2 
  105000    1.1020965   -7.5086175    30.808252  0.024450994  0.027406681            2 
  106000    1.0866227   -7.5288516    30.860629  0.024261501   0.02734431            5 
  107000    1.0995307   -7.5088371    31.016319  0.024156011  0.027274266            2 
  108000    1.0931398   -7.4948985    31.455673  0.024271353  0.027207501            5 
  109000    1.0969827   -7.5439732    31.754937  0.024277475  0.027143649            3 
  110000    1.1086935   -7.5382536    31.853242  0.024131244  0.027079274            1 
  111000    1.1019795   -7.4998795    32.260368  0.024219495  0.027015409            4 
  112000    1.1063334   -7.5698406    32.469392  0.024158774  0.026958238            4 
  113000    1.1005472   -7.5266947    32.835165  0.024214723  0.026899223            7 
  114000    1.0682878   -7.5364253    32.922316  0.024066021  0.026836339            2 
  115000    1.0747377    -7.538891    33.021787  0.023928831  0.026766068            3 
  116000    1.0725041   -7.5465085    33.240168  0.023879431  0.026694478            3 
  117000    1.0978452   -7.5711467    33.454334  0.023827873  0.026619533            5 
  118000    1.0646332   -7.5439941    33.669813  0.023778116  0.026545814            1 
  119000    1.0631481   -7.5700394    33.757343  0.023639596  0.026468727            1 
  120000    1.0908434   -7.5509612    34.063671  0.023655327   0.02639107            1 
  121000    1.0731657   -7.5995493      34.0234  0.023432094  0.026310428            5 
  122000     1.086732   -7.6142009    34.262661  0.023403457   0.02622486            2 
  123000    1.0609478   -7.6538638    34.532554  0.023396039  0.026142406            4 
  124000    1.0779538   -7.5893968    34.805947  0.023391094  0.026063047            2 
  125000    1.0712325   -7.5414985    35.009618  0.023339745  0.025984608            2 
  126000    1.0581285   -7.5856996     35.27034  0.023326944  0.025906423            1 
  127000    1.0892629   -7.5955738    35.534574   0.02331665   0.02583109            3 
  128000    1.0736845   -7.6404857    35.589597   0.02317031  0.025751738            3 
  129000    1.0679242   -7.6349479    35.658912  0.023035473  0.025672083            2 
  130000    1.0653477   -7.6042185    36.044618  0.023105524  0.025590488            3 
  131000    1.0579087   -7.6172971    36.176088  0.023012779  0.025511752            2 
  132000    1.0599703   -7.6414952    36.399807  0.022979676  0.025432705            4 
  133000    1.0454455   -7.6230582    36.748097  0.023025124  0.025354569            5 
  134000    1.0534785   -7.6299512    36.886661  0.022939466  0.025282017            3 
  135000    1.0465493   -7.6270891    37.223874    0.0229777  0.025206963            3 
  136000    1.0448439   -7.6125759     37.40567  0.022920141  0.025135138            4 
  137000    1.0610893    -7.637514    37.508759  0.022815547  0.025062921            4 
  138000     1.040007   -7.6816664    37.766041   0.02280558  0.024990188            5 
  139000    1.0260339   -7.6396877    38.092269  0.022837091  0.024919335            1 
  140000    1.0294508   -7.6437352    38.351322  0.022828168  0.024851084            5 
  141000    1.0075546   -7.6842493    38.518178  0.022764881  0.024783935            3 
  142000    1.0643707   -7.6972594    38.595137  0.022649728  0.024717224            2 
  143000    1.0376679   -7.6389268    38.835812  0.022631592  0.024646857            3 
  144000    1.0501739   -7.6634588    39.183243  0.022675488  0.024577809            1 
  145000    1.0489098   -7.7007749    39.200963  0.022529289  0.024510872            3 
  146000    1.0383945   -7.7069128    39.343975  0.022456607  0.024443273            3 
  147000   0.99827747     -7.67973    39.515085  0.022400842  0.024373624            1 
  148000    1.0370698   -7.6810025    39.538837  0.022262858  0.024300856            4 
  149000    1.0473575    -7.696152    39.600203  0.022147765  0.024224096           12 
  150000    1.0038813   -7.7057948    39.790959  0.022106088  0.024146581            2 
  151000    1.0277094   -7.6448471    40.020919    0.0220866  0.024071168            1 
  152000    1.0290881   -7.7447997    40.156887  0.022015837  0.023996249            2 
  153000    1.0353321   -7.7195667    40.490147  0.022053457  0.023921188            3 
  154000    1.0222928   -7.7327271    40.822898  0.022090313  0.023850951           13 
  155000    1.0164333   -7.7123087    41.026812  0.022057426  0.023783203            3 
  156000    1.0078397   -7.7094109    41.129588  0.021970934  0.023717574            2 
  157000    1.0316574   -7.7381173    41.187997  0.021861994  0.023648743            3 
  158000    1.0272202   -7.7365158    41.393075  0.021831791   0.02357765            6 
  159000    1.0171223   -7.7331122    41.570937  0.021787703  0.023506738            2 
  160000    1.0198228   -7.7266598    41.602917  0.021668186  0.023436724            1 
  161000     1.013194   -7.7393358    41.720643  0.021594535  0.023364206            3 
  162000     1.003789   -7.7661162    41.716216  0.021458959  0.023291127            3 
  163000   0.99614725   -7.7188702    41.918223  0.021430584  0.023215783            2 
  164000     1.031548   -7.7186641    42.089759  0.021387073  0.023141193            2 
  165000   0.97894769   -7.7881458     42.08576  0.021255434  0.023066904            2 
  166000   0.99318326   -7.7689474    42.325028  0.021247504  0.022992165            2 
  167000   0.97721471   -7.7114073    42.565359  0.021240199  0.022918373            3 
  168000    1.0047484   -7.7819653    42.562188  0.021112196  0.022843949            5 
  169000     0.971244   -7.7793282    42.820675  0.021114731  0.022769105            2 
  170000   0.98640652   -7.7595924    42.905251  0.021031986  0.022693625            6 
  171000    1.0014707   -7.7947908    42.919442  0.020915908  0.022619773            2 
  172000      0.99039   -7.8080157    43.034316  0.020849959  0.022544079            2 
  173000    1.0030549   -7.7873554    43.083095  0.020752936  0.022469039            2 
  174000   0.99964708   -7.8028038    43.287494  0.020731559  0.022390763            3 
  175000   0.98975811   -7.7955557    43.394488  0.020664042  0.022314608            5 
  176000   0.96985043   -7.8103686    43.552906  0.020621641  0.022239617            3 
  177000   0.98004959      -7.8239    43.752971  0.020599327  0.022163673            2 
  178000    1.0103014   -7.7937337    44.000592  0.020599528  0.022089346           11 
  179000    1.0001958   -7.8148659    44.035156  0.020500538  0.022016047            8 
  180000   0.98050358   -7.8534704    43.882708  0.020316068  0.021942048            2 
  181000   0.97751026   -7.8333335    44.162826  0.020332793  0.021866466            5 
  182000   0.98434339   -7.8480276    44.199674  0.020237946  0.021790843            4 
  183000   0.96229655   -7.8657187    44.283682  0.020165611  0.021714541           13 
  184000   0.96426698   -7.8811383    44.570606  0.020185963  0.021639287            4 
  185000   0.94705201   -7.8822093    44.666632  0.020120105  0.021565093            5 
  186000    1.0004714   -7.8420714     44.91018  0.020121048  0.021493279            1 
  187000   0.96406427   -7.8389082    45.015867  0.020060547  0.021422084            9 
  188000   0.96932047   -7.8700979    45.263148  0.020063452  0.021351291            3 
  189000   0.96457216     -7.87942    45.311855  0.019978772  0.021280723            3 
  190000   0.96867621   -7.8405092    45.327645  0.019880546   0.02120981            2 
  191000   0.94857185   -7.8631853    45.679259  0.019929869  0.021140405            2 
  192000   0.94602148   -7.8585505    45.830761  0.019891823  0.021071224            2 
  193000   0.94113674   -7.8751302    45.855377  0.019799386  0.021003106            4 
  194000   0.94662529   -7.8850334    45.963191  0.019743639  0.020933778            4 
  195000   0.96607705    -7.884473    46.050865  0.019679857  0.020865005            2 
  196000   0.95011589   -7.9218877    45.874405  0.019504424  0.020795572           14 
  197000   0.93933554   -7.9157282    46.121419  0.019509907  0.020726072            3 
  198000   0.94191709   -7.9133608    46.412691  0.019533961  0.020657521            4 
  199000   0.93963915   -7.9489577    46.404062  0.019432187  0.020589992            2 
  200000   0.95365421   -7.9164391     46.64623  0.019435929  0.020522851            7 
  201000   0.94864008   -7.9222506    46.674907  0.019351122  0.020454813            8 
  202000   0.96007705   -7.9111524    46.676686  0.019256059  0.020386353            4 
  203000   0.96060892   -7.9644441    46.699503  0.019170568  0.020318144            4 
  204000    0.9398684   -7.8989549    46.998795  0.019198854  0.020249951            3 
  205000   0.94385969   -7.9024664    47.122193  0.019155363  0.020182599            4 
  206000   0.93519651   -7.9188607    47.299944  0.019134282  0.020115515            2 
  207000   0.94013318   -7.9200862    47.184048  0.018995188  0.020048226            5 
  208000   0.95497818   -7.9330536    47.475528  0.019020644     0.019982            8 
  209000   0.93876845   -7.9756434    47.448062  0.018918685  0.019915575            3 
  210000   0.94739873   -7.9761135    47.540622  0.018865326  0.019849593            2 
  211000   0.94337437   -7.9498271    47.681078  0.018831389  0.019783998            4 
  212000   0.92447784   -7.9835354    47.661222  0.018734757  0.019717707            2 
  213000   0.93703525   -7.9875952    47.655177  0.018644436  0.019650168            4 
  214000    0.9095136   -7.9534482    47.773167  0.018603258  0.019583091            4 
  215000   0.91910811   -8.0044704    47.991047  0.018601181  0.019517753            6 
  216000   0.93736751    -7.964431    47.997173  0.018517428  0.019452034            8 
  217000   0.93011424   -7.9866622    48.029248  0.018444412  0.019386067            5 
  218000   0.90640043   -7.9484854    48.322574  0.018471932  0.019320582            4 
  219000   0.92306395    -7.978727     48.41144    0.0184214  0.019255834            2 
  220000   0.90538066   -8.0064458    48.341556  0.018311196  0.019191146            6 
  221000   0.91922749   -8.0331064    48.388762  0.018246139  0.019125936            1 
  222000   0.90293758   -7.9549873    48.508596  0.018208932  0.019061232            5 
  223000   0.90434379   -8.0410126    48.543953  0.018140491  0.018995852            4 
  224000   0.92510379   -8.0178378    48.807541  0.018157567   0.01893098            6 
  225000   0.90398423   -7.9906461    48.899538   0.01811094  0.018867385            3 
  226000    0.9211773   -8.0028311    48.954611   0.01805111  0.018803715            3 
  227000   0.91047032   -7.9948167    49.031559  0.017999838  0.018740345            2 
  228000    0.9030053   -8.0168505    49.087892  0.017941481  0.018677419            2 
  229000   0.88960159   -8.0774271    49.073774  0.017857996  0.018613423            4 
  230000   0.90327357   -8.0500694    49.183276  0.017820027   0.01855038            2 
  231000   0.89508084   -8.0242982    49.382641  0.017814806  0.018487027            6 
  232000   0.89228854   -8.0594877     49.35377  0.017727647  0.018424127            4 
  233000   0.91931027   -8.0820352     49.19611  0.017595175  0.018361575            8 
  234000   0.89039919   -8.0684624    49.313882  0.017561924  0.018298174            2 
  235000    0.9257413   -8.0915839    49.327133  0.017491891  0.018234553           15 
  236000   0.89975124   -8.0865566    49.549837  0.017496411  0.018171353            4 
  237000   0.89827405   -8.0985244    49.416721  0.017375781  0.018106856            3 
  238000   0.88617109   -8.0915486    49.494633  0.017330054   0.01804276            4 
  239000   0.87726319   -8.0573122    49.558368  0.017279766  0.017979039            6 
  240000   0.88363311   -8.0661189    49.754498  0.017275867  0.017915386           10 
  241000   0.87048269   -8.0520156    49.782843  0.017213984  0.017852331            4 
  242000   0.88387966    -8.113064    49.842685  0.017163459  0.017788979            5 
  243000   0.89379875   -8.0947269    49.867916   0.01710148  0.017726393            5 
  244000   0.85801551   -8.1155596    49.888567  0.017038445  0.017664181            4 
  245000   0.85782608   -8.1213287    49.926727   0.01698188  0.017601135            8 
  246000   0.88261256   -8.1039648    49.991008  0.016934623  0.017538325            6 
  247000   0.87974204   -8.1415033    50.002029   0.01686978  0.017475529            6 
  248000   0.85745844   -8.1728713    50.068987  0.016824256  0.017413244            6 
  249000   0.86834088   -8.1696125    50.146976   0.01678279  0.017350982           10 
  250000   0.86779736   -8.1380654    50.233841  0.016744614  0.017289736            9 
  251000   0.87987349   -8.1608816    50.164496  0.016654879  0.017228432           10 
  252000   0.85467215   -8.2000078    50.194401  0.016598678  0.017166013           14 
  253000   0.85368066   -8.2117874    50.271448  0.016558448  0.017103747            9 
  254000   0.84378817   -8.1853134    50.302591  0.016503475  0.017041958           14 
  255000   0.85945425   -8.1883685    50.193967  0.016403257  0.016979922            7 
  256000   0.86248494   -8.1628178     50.49769   0.01643805  0.016917988            7 
  257000   0.87551929   -8.1370127    50.442572  0.016356217  0.016857127           10 
  258000   0.84222073   -8.1485201    50.644297  0.016357977   0.01679665            7 
  259000    0.8497664   -8.1751428    50.554012   0.01626577  0.016736486            5 
  260000   0.85686339   -8.2120443    50.920109  0.016320548  0.016676938            4 
  261000   0.84245413   -8.1807136    50.796006  0.016218393  0.016617858            8 
  262000   0.85077877   -8.2063935    50.630263  0.016103773  0.016558277            6 
  263000   0.86108308   -8.1873698    50.871337  0.016118928  0.016499035           22 
  264000   0.84939588   -8.2668306    50.696025  0.016002533  0.016439788            4 
  265000   0.82607085   -8.1846875    50.893774  0.016004331  0.016379913            4 
  266000   0.82944291   -8.2038239    50.785704  0.015910308  0.016320432            7 
  267000   0.84995528   -8.2568371    50.815293  0.015859954  0.016260713            6 
  268000   0.84494773   -8.2383973    50.971856  0.015849458  0.016201442            4 
  269000   0.83824509   -8.2416194    50.879949  0.015762066   0.01614268            6 
  270000   0.83663704    -8.229955    51.085179  0.015767031  0.016084212            8 
  271000   0.83702071   -8.2229213    50.947962  0.015666655  0.016026274            7 
  272000   0.84518106    -8.259205    50.862945   0.01558301  0.015967657            8 
  273000   0.84808064   -8.2652317    51.048987  0.015582719  0.015909121            5 
  274000    0.8198421   -8.2119529    51.138971  0.015553215  0.015851027            3 
  275000   0.81619502   -8.2738299    50.960895  0.015442696  0.015792843            3 
  276000   0.80927992   -8.2564907    51.251943   0.01547462  0.015734525            3 
  277000   0.82531638   -8.2558249    51.285332    0.0154288  0.015677443            6 
  278000   0.82266938    -8.256915    51.240159   0.01535976  0.015620246            4 
  279000   0.83611689   -8.2862127    51.291155  0.015319939  0.015563078            6 
  280000   0.81355519   -8.2957186    51.239617  0.015249886  0.015506076            6 
  281000   0.81876353   -8.3182754    51.232212   0.01519342  0.015448965            8 
  282000   0.81727265   -8.2812513    51.266698  0.015149734  0.015392329           26 
  283000    0.8291074    -8.347441      51.4769  0.015158098  0.015335784           21 
  284000   0.81270659    -8.315913    51.496257  0.015110404  0.015280293           15 
  285000   0.80532193    -8.313057    51.591156  0.015085133   0.01522505           16 
  286000   0.82739236   -8.3316419    51.478984  0.014999704  0.015169886           15 
  287000   0.81699248   -8.3436169    51.526892  0.014961351  0.015114145           12 
  288000    0.8279843   -8.3210618    51.418754  0.014878112  0.015058506           22 
  289000   0.80414662   -8.3280877    51.609755  0.014881705  0.015002722           25 
  290000   0.79067583   -8.3531441    51.609972  0.014830452    0.0149475            6 
  291000   0.79946428   -8.3553747     51.57967  0.014770811  0.014892507           11 
  292000   0.79273258   -8.3424832    51.605292  0.014727538  0.014837548           19 
  293000   0.79631435   -8.3546909    51.548023  0.014660985  0.014782869            5 
  294000     0.793337   -8.3417304    51.629834  0.014634307  0.014728078            7 
  295000    0.7843671   -8.3579179    51.580185  0.014570674  0.014673026            9 
  296000   0.81206512   -8.3529389    51.532654  0.014508067  0.014618485           11 
  297000   0.80697606   -8.3685365    51.617774  0.014483101  0.014564042            8 
  298000   0.80310445   -8.3894934    51.578212  0.014423437  0.014509524            7 
  299000   0.79744054   -8.3711798    51.724588  0.014415994  0.014455445           10 
  300000   0.76840296   -8.3687094    51.606488  0.014335136  0.014401265           11 
  301000   0.78666812   -8.3576035    51.671374  0.014305474  0.014347373            8 
  302000   0.78619755   -8.4001777    51.494733  0.014209363   0.01429337            7 
  303000   0.79557974    -8.386741      51.7456  0.014231463  0.014239805           10 
  304000   0.78499897   -8.4005564    51.550383  0.014131136  0.014186378            5 
  305000   0.77401208   -8.3967676    51.700223  0.014125744  0.014133034            4 
  306000   0.77382985    -8.412074    51.872281  0.014126438  0.014080296            7 
  307000   0.76415238   -8.4106792    51.820023  0.014066239  0.014027802            8 
  308000     0.773207   -8.4156475    51.862309   0.01403201  0.013975205           14 
  309000   0.77300565    -8.432287    51.740888  0.013953853  0.013922658           12 
  310000   0.76885939   -8.4352088    51.727326  0.013905195  0.013870143           17 
  311000   0.79031051   -8.4154733    51.884756  0.013902668  0.013818223            9 
  312000   0.78661709   -8.4495112    51.781727   0.01383059  0.013766454            7 
  313000   0.79407153   -8.4394478    51.874707  0.013811157  0.013714745           14 
  314000   0.75827512   -8.4477411    51.800835  0.013747568  0.013663006           14 
  315000   0.75300302   -8.4286133    51.914317  0.013733946  0.013611814            8 
  316000   0.74988312   -8.4400288    51.878057  0.013680922  0.013560736           13 
  317000   0.74157422   -8.4496125    51.912656   0.01364686  0.013509828           13 
  318000   0.74359808   -8.4763131    51.896754  0.013599778  0.013458914           15 
  319000   0.75265933   -8.4845256    51.837454  0.013541655  0.013408091            9 
  320000   0.77537438   -8.4602526    51.908913  0.013517946  0.013357406            5 
  321000   0.75789841   -8.4641489    51.882035  0.013468856  0.013307122           12 
  322000   0.75934817   -8.4626766    51.849533  0.013418616   0.01325687           11 
  323000   0.74132702   -8.5019179    51.846868  0.013376385  0.013206797           13 
  324000   0.74673511   -8.4939102    51.832825  0.013331488  0.013156729           15 
  325000   0.74210636   -8.4506227    51.938317  0.013317517  0.013106885           18 
  326000   0.75060252   -8.5169385    51.922973  0.013272744    0.0130576            7 
  327000   0.75726322   -8.5048803    51.983325  0.013247534  0.013008762           15 
  328000   0.75615786   -8.4921968    52.121772   0.01324232  0.012960132           25 
  329000   0.75967466   -8.4766082    52.110295  0.013199163  0.012911695           15 
  330000   0.74909653   -8.4793464    52.104989  0.013157825  0.012863453            9 
  331000   0.72346355   -8.5080275    52.097937  0.013116298  0.012815347           10 
  332000   0.72833514   -8.4892229    52.011572  0.013055113  0.012767102           12 
  333000   0.73723283   -8.5046373     51.96265  0.013003666  0.012719128           11 
  334000   0.75480122   -8.5109235    52.065371  0.012990362  0.012671283           14 
  335000   0.72567028   -8.4947747    52.118248  0.012964738  0.012623632            7 
  336000   0.73621243   -8.5493304    51.978552  0.012891506  0.012576176           10 
  337000   0.71766744   -8.5507384    51.898258  0.012833397  0.012528681            8 
  338000   0.74134354   -8.5406406    52.020969  0.012825683  0.012481378           20 
  339000   0.73600131   -8.5387904    52.021152  0.012787894   0.01243428           13 
  340000   0.70229641   -8.5234872    52.136541  0.012778564  0.012387606            8 
  341000   0.72813751   -8.5505878    52.171159   0.01274955  0.012341152            8 
  342000   0.71747422   -8.5618916    52.037012  0.012679584  0.012294861           18 
  343000   0.72987443   -8.5745346    52.113164  0.012661119  0.012248693           15 
  344000   0.71972105   -8.5842623    52.041305  0.012606905  0.012202509           10 
  345000   0.71883931   -8.5681851    51.988395  0.012557583  0.012156346           25 
  346000   0.71973237   -8.5807072    52.016417  0.012528039  0.012110431            8 
  347000    0.7074305   -8.5885713     51.87867  0.012458855  0.012064349           11 
  348000   0.71507989   -8.5628529    52.032453  0.012459879  0.012018706           22 
  349000   0.70725473   -8.5790548    51.957023  0.012406166  0.011973263           21 
  350000   0.72746641   -8.6084172    51.914902  0.012360691  0.011927658           12 
  351000   0.70013127   -8.6166195    51.951088  0.012334066  0.011882399            8 
  352000   0.69429705   -8.6177525    51.899898  0.012286908  0.011837435            9 
  353000   0.68488213   -8.6397329    51.915082  0.012255685  0.011792681            5 
  354000   0.70889409   -8.5860068    52.059827  0.012255138  0.011748012            8 
  355000   0.69129523   -8.5960623    52.020544  0.012211395  0.011703553           17 
  356000   0.68469939   -8.6347215    51.960392  0.012163013  0.011659195           19 
  357000   0.70926243   -8.6484143    51.851928  0.012103625  0.011614917           17 
  358000   0.69052145   -8.6288799    51.986058  0.012101038  0.011570859           15 
  359000   0.68233005   -8.6344358    52.042011  0.012080318  0.011526903           24 
  360000   0.68776967   -8.6482974    51.955631  0.012026767    0.0114831           21 
  361000    0.7000132   -8.6345598    51.965844  0.011995809  0.011439657           11 
  362000   0.68139936    -8.666662    51.882574  0.011943502  0.011396304            7 
  363000   0.66735179   -8.6501575    51.969473  0.011930549  0.011353128           13 
  364000   0.68904402   -8.6570995    51.937576  0.011890471  0.011310165           10 
  365000   0.68966658   -8.6978517    51.871714  0.011842857  0.011267163           16 
  366000   0.70687267   -8.6602041    51.916052  0.011820595  0.011224477            7 
  367000   0.68487638   -8.6433719    51.861147  0.011775919   0.01118177            7 
  368000   0.67478586   -8.6552318    51.800907  0.011730278  0.011139206           16 
  369000   0.67930332   -8.6621991    51.796141  0.011697412  0.011096867           19 
  370000    0.6814375   -8.6717872    51.750997   0.01165563  0.011054535           11 
  371000   0.67166438   -8.6675878    51.833949  0.011642846  0.011012443           15 
  372000   0.66680911   -8.6901891    51.765368  0.011596185  0.010970549           12 
  373000   0.67232028   -8.6907942    51.877247  0.011590091  0.010928784           10 
  374000   0.66878314   -8.6741655    51.822856  0.011546982  0.010887234           13 
  375000   0.66652666   -8.7110508    51.862125  0.011524917  0.010845736           10 
  376000   0.66141433   -8.6810911     51.80198  0.011480935  0.010804383            9 
  377000   0.66997608   -8.7072769     51.70336  0.011428683  0.010763042           14 
  378000   0.65695263   -8.7131497    51.650567  0.011386809  0.010721827           13 
  379000   0.66555706   -8.7070853    51.689095  0.011365236  0.010680656           16 
  380000   0.65991999   -8.7032695    51.662059  0.011329399  0.010639698           21 
  381000   0.66349212   -8.7267248    51.597177  0.011285472  0.010598878           13 
  382000   0.66690464    -8.735538    51.712448  0.011281075  0.010558361           10 
  383000   0.65182106   -8.7361781    51.613722   0.01123014  0.010517935           20 
  384000   0.64654774   -8.7493492    51.635684  0.011205661   0.01047766           13 
  385000   0.66006137   -8.7337537     51.67541  0.011185154   0.01043753           26 
  386000   0.64648874   -8.7507332    51.536174  0.011126117  0.010397681           17 
  387000   0.64490647    -8.738955    51.608519  0.011112945  0.010357853           23 
  388000   0.64334162   -8.7493296     51.65264   0.01109378  0.010318354           13 
  389000    0.6472448   -8.7554109    51.638695  0.011062274  0.010278907           27 
  390000   0.64494935     -8.73758    51.568584  0.011018928  0.010239447            8 
  391000   0.63970215    -8.757375    51.600303  0.010997507  0.010200355           17 
  392000   0.63546066   -8.7506266    51.526157   0.01095369    0.0101615           29 
  393000   0.63770384    -8.734591    51.606607  0.010942877  0.010122852           23 
  394000   0.63709479   -8.7646263    51.673213  0.010929191  0.010084548           30 
  395000   0.65399055   -8.7817675    51.609669  0.010888116  0.010046251           34 
  396000    0.6293693   -8.7556917    51.635699  0.010866098  0.010008099           14 
  397000   0.64405652   -8.7715673    51.555551  0.010821904 0.0099701859           13 
  398000    0.6417922   -8.7797093    51.590379  0.010802006 0.0099323937           32 
  399000   0.63410992   -8.7634474    51.590417  0.010774941 0.0098948029           24 
  400000    0.6307592   -8.7607114    51.608709  0.010751814 0.0098574673           26 
  401000   0.63191917    -8.789052    51.580162  0.010719069 0.0098201729           37 
  402000    0.6289001    -8.808761     51.47514  0.010670634 0.0097831789           24 
  403000   0.62622769   -8.7826048    51.459426  0.010640907 0.0097462649            7 
  404000    0.6111808   -8.7952791    51.439025   0.01061036 0.0097094815           26 
  405000   0.61113509   -8.8078632    51.580514  0.010613274 0.0096728101           13 
  406000   0.60377489   -8.8016741    51.595381  0.010590185 0.0096364016           21 
  407000    0.6380593   -8.8201236    51.500036  0.010544643 0.0096001672           14 
  408000   0.63869073   -8.7994455    51.527667  0.010524442 0.0095640347           17 
  409000   0.62211601    -8.823384    51.528072  0.010498792 0.0095281394           16 
  410000   0.61898974   -8.8137038    51.505222  0.010468541 0.0094923654           28 
  411000   0.63037015   -8.8424323    51.520539  0.010446176 0.0094567757           25 
  412000   0.61771515   -8.8191371    51.545382  0.010425846 0.0094213134           18 
  413000   0.60911186   -8.8490573    51.515203  0.010394512 0.0093860319           11 
  414000   0.60555718    -8.850967     51.46081  0.010358456 0.0093508283           12 
  415000      0.60805   -8.8406297    51.583757  0.010358184 0.0093159253           18 
  416000   0.60394583   -8.8414429    51.364471  0.010289357 0.0092809962           16 
  417000   0.59429884   -8.8587075    51.451972  0.010282169  0.009246256           17 
  418000   0.61496419   -8.8210567    51.455967  0.010258367 0.0092117526           15 
  419000   0.59711412   -8.8514025    51.475084  0.010237686 0.0091774111           19 
  420000   0.60968687   -8.8357468    51.489052  0.010216082 0.0091432489           23 
  421000   0.59559508   -8.8560585     51.56072  0.010206001 0.0091092324           38 
  422000   0.59222406   -8.8470422    51.526026  0.010174966 0.0090753363           12 
  423000   0.58861404   -8.8463201    51.446971  0.010135337 0.0090415697           11 
  424000   0.58870012   -8.8807461    51.534823    0.0101287 0.0090080289           17 
  425000   0.59406712   -8.8465012    51.426916  0.010083709 0.0089746097           21 
  426000   0.59672459   -8.8624597    51.380393  0.010050937 0.0089412894           15 
  427000   0.58628554   -8.9021073    51.429854  0.010037052 0.0089081098           16 
  428000   0.59522914   -8.8870315    51.386241  0.010005109 0.0088751203           31 
  429000   0.58444836   -8.8772185    51.424706 0.0099892591 0.0088422229           21 
  430000   0.59646485    -8.895591     51.33682 0.0099489962 0.0088095297           21 
  431000   0.56461686   -8.8954093    51.399465 0.0099380249 0.0087769016           17 
  432000   0.58138836   -8.8847091     51.38421 0.0099120776 0.0087444497           30 
  433000    0.5747132   -8.8878354    51.405543 0.0098932915 0.0087121269           20 
  434000   0.56391283   -8.9154015    51.358685 0.0098614987 0.0086800005           18 
  435000   0.56924912    -8.890785    51.287415 0.0098251752 0.0086479501           21 
  436000    0.5649095   -8.9205671    51.336522 0.0098120264 0.0086160697           14 
  437000   0.57142314    -8.880759    51.460595 0.0098132333 0.0085843487           16 
  438000   0.55933553   -8.8989974    51.363504 0.0097723561 0.0085528285           18 
  439000   0.55980208   -8.9011427    51.411271  0.009759163 0.0085214611           19 
  440000   0.56431872   -8.9291829     51.45139 0.0097445815 0.0084901687           12 
  441000   0.56653326   -8.9273574    51.284718 0.0096909898 0.0084590288           33 
  442000   0.56288332      -8.9216    51.399686 0.0096907403  0.008427963           13 
  443000   0.56312479   -8.9254965    51.359056  0.009661222 0.0083971283           16 
  444000   0.56417747   -8.9304514    51.345114 0.0096368457 0.0083663798           30 
  445000   0.54445064   -8.9352902    51.238481 0.0095952212 0.0083358026           18 
  446000   0.55119561   -8.9290385    51.378176 0.0095998087 0.0083053852           20 
  447000   0.55110719   -8.9437751    51.335384  0.009570355 0.0082750818           20 
  448000   0.54716871   -8.9217506    51.321492 0.0095464085 0.0082449794           22 
  449000   0.54670831   -8.9273406    51.358505 0.0095320165 0.0082149575           16 
  450000   0.54448693    -8.933987    51.326702 0.0095049448 0.0081851322           29 
  451000   0.55239189   -8.9422063    51.336515 0.0094856827 0.0081554278           23 
  452000    0.5467611   -8.9464992    51.311311   0.00946005 0.0081258694           31 
  453000   0.54035181   -8.9220691    51.323522 0.0094414131 0.0080964315           31 
  454000   0.55536052   -8.9569738     51.20838 0.0093994823 0.0080670479           22 
  455000   0.54920727   -8.9564009    51.265471 0.0093892804 0.0080378522           21 
  456000   0.55201589   -8.9572085    51.243944 0.0093647559 0.0080087391           31 
  457000   0.53227267   -8.9781049    51.186231 0.0093337402 0.0079797934           33 
  458000   0.52473327   -8.9691485    51.167528 0.0093099578 0.0079509351           35 
  459000   0.54059632   -8.9602782    51.123779 0.0092817319 0.0079221998           31 
  460000    0.5297037   -8.9644314    51.169869 0.0092699039  0.007893648           32 
  461000   0.53931809   -8.9858646    51.209972 0.0092570448 0.0078652295           18 
  462000    0.5331739   -8.9807113    51.279876 0.0092496168 0.0078369835           33 
  463000   0.52771546   -8.9683562    51.180877 0.0092118209 0.0078088415           26 
  464000   0.51725484   -8.9832458     51.11283 0.0091797467 0.0077808124           19 
  465000   0.53164705   -8.9875044    51.214555 0.0091782356 0.0077529263           34 
  466000   0.52976668   -8.9943143    51.195254 0.0091550882 0.0077251667           16 
  467000   0.53031742    -8.982993    51.181784 0.0091330807  0.007697539           33 
  468000   0.52309417   -9.0049378      51.1415 0.0091063924 0.0076700116           32 
  469000    0.5112853   -8.9981139    51.138896 0.0090865131   0.00764263           41 
  470000   0.52537941    -8.998631    51.259788 0.0090886148 0.0076153882           18 
  471000   0.51729389   -9.0054082    51.071628 0.0090360276 0.0075882243           31 
  472000   0.52194531   -9.0030635     51.13577  0.009028208 0.0075611674           37 
  473000   0.51587939   -9.0143122    51.077279 0.0089988159 0.0075342157           37 
  474000   0.51512249   -9.0049872     51.13456 0.0089899016  0.007507368           33 
  475000   0.51135759   -8.9987431    51.045369 0.0089553279 0.0074806669           27 
  476000   0.49886878   -9.0225466     51.12975 0.0089512867 0.0074541015           23 
  477000   0.50292511    -9.011964    51.068769 0.0089218674 0.0074276532           24 
  478000   0.50518295   -9.0156015    51.060355 0.0089017355 0.0074013249           19 
  479000   0.50737787    -9.032864    51.080895 0.0088867249 0.0073751368           21 
  480000   0.50662489   -9.0159993    51.069072 0.0088661583 0.0073490379           27 
  481000   0.51180486   -9.0291388    51.092459 0.0088517774 0.0073230852           21 
  482000   0.49322551   -9.0286001    51.090081 0.0088330016 0.0072972323           36 
  483000   0.49048302   -9.0388114    51.035709 0.0088053328 0.0072714765           42 
  484000   0.49512724   -9.0386089     51.05932 0.0087912052 0.0072458379           21 
  485000   0.49768381   -9.0322755    51.050909 0.0087716338 0.0072203537           32 
  486000   0.48267623   -9.0350565    51.078094 0.0087582466 0.0071950039           21 
  487000   0.48621492   -9.0390464    51.091082 0.0087424849 0.0071697466           28 
  488000   0.50130585   -9.0458351    50.985026 0.0087064594 0.0071446219           15 
  489000   0.48891501   -9.0545253    50.991645 0.0086897828 0.0071196191           21 
  490000   0.48859037   -9.0519675    51.070275 0.0086854208 0.0070946959           24 
  491000   0.48215768   -9.0568241    50.992792 0.0086545812 0.0070699178           30 
  492000   0.48532503   -9.0417003    51.044331   0.00864572 0.0070452465           25 
  493000   0.49002523   -9.0552775    51.022423 0.0086244799 0.0070206941           14 
  494000   0.48265961   -9.0586018    50.995774 0.0086025259 0.0069962437           26 
  495000   0.47387956   -9.0789961    51.049175 0.0085941371 0.0069718813           24 
  496000   0.47542807    -9.059674    50.977932 0.0085648408 0.0069476536           34 
  497000   0.46452291   -9.0725572    50.983223 0.0085484948 0.0069235107           26 
  498000   0.46231028    -9.058771    50.917642 0.0085203552 0.0068994911           20 
  499000   0.47045537   -9.0718369    50.965277 0.0085112352  0.006875566           35 
  500000   0.47433737   -9.0703871    50.882634  0.008480439  0.006851751           35 
  501000   0.47728668   -9.0502927    50.990842 0.0084815106 0.0068280207           35 
  502000   0.45776481    -9.094407    51.003581 0.0084667299 0.0068044016           19 
  503000   0.46317305   -9.0865187    50.875571 0.0084286897 0.0067808471           38 
  504000   0.46572048   -9.0906947    50.924643 0.0084200798 0.0067574418           34 
  505000   0.46658831   -9.0776518    50.915397 0.0084018807  0.006734141           27 
  506000   0.46400471   -9.0834186    50.974038 0.0083949337 0.0067109181           28 
  507000   0.44827042   -9.0978777    50.863602 0.0083602239 0.0066878246           28 
  508000   0.44723247    -9.089189    50.969693 0.0083611701 0.0066648392           27 
  509000   0.45589543   -9.0937783     50.86368 0.0083273871 0.0066419479           21 
  510000   0.45339923   -9.1023364    50.975804 0.0083293798 0.0066192245           26 
  511000    0.4403773   -9.1188004    50.852144 0.0082929133 0.0065965692           28 
  512000   0.43351573    -9.116836    50.859425 0.0082779012 0.0065739522           35 
Loop time of 1268.65 on 48 procs for 500000 steps with 4000 atoms

Performance: 68103.728 tau/day, 394.119 timesteps/s
99.4% CPU use with 48 MPI tasks x no OpenMP threads

MPI task timing breakdown:
Section |  min time  |  avg time  |  max time  |%varavg| %total
---------------------------------------------------------------
Pair    | 89.142     | 93.866     | 99.271     |  25.4 |  7.40
Neigh   | 8.5064     | 8.8497     | 9.4443     |   7.0 |  0.70
Comm    | 80.638     | 86.838     | 92.097     |  32.2 |  6.84
Output  | 0.88456    | 0.88546    | 0.90748    |   0.3 |  0.07
Modify  | 1061.3     | 1066.2     | 1070.8     |   5.9 | 84.04
Other   |            | 11.98      |            |       |  0.94

Nlocal:        83.3333 ave          90 max          73 min
Histogram: 1 0 4 3 4 11 6 12 4 3
Nghost:        2287.50 ave        2306 max        2266 min
Histogram: 2 2 4 4 4 9 13 5 3 2
Neighs:        15530.9 ave       17107 max       12933 min
Histogram: 1 0 1 6 5 6 11 9 5 4
FullNghs:      31061.7 ave       33493 max       27198 min
Histogram: 1 0 3 4 5 9 10 8 4 4

Total # of neighbors = 1490962
Ave neighs/atom = 372.74050
Neighbor list builds = 26647
Dangerous builds = 0

#clear
#
#next RN
#
#jump SELF
Total wall time: 0:21:12
