
units lj                  # Use reduced LJ style units
atom_style atomic         # Uncharged point particles
atom_modify map hash      # Needed for indexing of clusters etc
                          # Used to be able to find where atoms are in relation to each other.

lattice fcc 1.0 spacing 1 1 1
Lattice spacing in x,y,z = 1.5874011 1.5874011 1.5874011
region box block 0 10 0 10 0 10 units lattice
create_box 2 box
Created orthogonal box = (0.0000000 0.0000000 0.0000000) to (15.874011 15.874011 15.874011)
  3 by 4 by 4 MPI processor grid
create_atoms 1 box
Created 4000 atoms
  using lattice units in orthogonal box = (0.0000000 0.0000000 0.0000000) to (15.874011 15.874011 15.874011)
  create_atoms CPU = 0.002 seconds
set type 1 type/fraction 2 0.36 78393
Setting atom values ...
  1453 settings made for type/fraction
mass 1 1.0
mass 2 1.0
pair_style lj/cut  3.5
pair_modify tail  yes
pair_coeff 1  1  1.0  1.0   # Intearaction between 1 and 1 set with epsilon = 1 and sigma = 1
pair_coeff 1  2  1.5  0.8
pair_coeff 2  2  0.5  0.88

write_data data.0
System init for write_data ...
Neighbor list info ...
  update every 1 steps, delay 10 steps, check yes
  max neighbors/atom: 2000, page size: 100000
  master list distance cutoff = 3.8
  ghost atom cutoff = 3.8
  binsize = 1.9, bins = 9 9 9
  1 neighbor lists, perpetual/occasional/extra = 1 0 0
  (1) pair lj/cut, perpetual
      attributes: half, newton on
      pair build: half/bin/atomonly/newton
      stencil: half/bin/3d
      bin: standard
WARNING: Not all mixed pair coeffs generated from mixing. Use write_data with 'pair ij' option to store all pair coeffs. (../write_data.cpp:312)


#############################
#   M E L T   S Y S T E M   #
#############################

velocity all create 2.4 5833274 mom yes dist gaussian # Assign velocities
                                                    # Temperature 2.4, random number seed, zero linear momentum
                                                                                # Gaussian distribution

timestep 0.002   # simulation timestep
thermo 1000       # output thermodynamic data every 1000 steps bf 100

# Define a fix  in this case with index 1 applied to all
# particles in the simulation. This fix is for simulations
# in the anisotropic NPT ensemble. Note that we use the MTK
# correction.
fix 1 all npt temp 2.4 2.4 0.1 iso 5.68 5.68 0.5 mtk yes tchain 5 pchain 5 # Use NPT ensemble
                                                                         # Set temperature and pressure and damping
                                                                         # Numbers of thermostats in chain and in barostat
run 10000          # run for 10000 steps
Per MPI rank memory allocation (min/avg/max) = 3.642 | 3.644 | 3.648 Mbytes
Step Temp E_pair E_mol TotEng Press Volume 
       0          2.4   -6.0964775            0   -2.4973775   -4.1129651         4000 
    1000    2.3765266    -4.977488            0   -1.4135893    5.7703716    4001.4611 
    2000    2.4153654   -5.0686864            0    -1.446544    5.2350741    4009.4602 
    3000    2.4353322   -5.0156595            0   -1.3635745    5.9231949     3984.891 
    4000    2.3903485   -5.0384793            0   -1.4538529    6.0465611     3952.154 
    5000    2.3711004   -5.0268764            0    -1.471115    5.5580405      4001.64 
    6000    2.3997822   -4.9718326            0   -1.3730592    5.8182218    4010.7746 
    7000     2.399742   -5.0164601            0   -1.4177469    5.6473963    3999.8597 
    8000     2.390896   -4.9681362            0   -1.3826888    5.7418625    4018.9384 
    9000    2.3843247   -5.0248655            0   -1.4492726    5.7530555    3990.7834 
   10000    2.3416102   -4.9604952            0    -1.448958    5.7667953    4011.3882 
Loop time of 2.47984 on 48 procs for 10000 steps with 4000 atoms

Performance: 696819.366 tau/day, 4032.519 timesteps/s
99.7% CPU use with 48 MPI tasks x no OpenMP threads

MPI task timing breakdown:
Section |  min time  |  avg time  |  max time  |%varavg| %total
---------------------------------------------------------------
Pair    | 1.0853     | 1.1484     | 1.3118     |   3.8 | 46.31
Neigh   | 0.20443    | 0.21422    | 0.23676    |   1.2 |  8.64
Comm    | 0.70859    | 0.85281    | 0.95392    |   5.4 | 34.39
Output  | 0.00024234 | 0.00024733 | 0.00031716 |   0.0 |  0.01
Modify  | 0.20617    | 0.24909    | 0.3135     |   7.6 | 10.04
Other   |            | 0.01512    |            |       |  0.61

Nlocal:        83.3333 ave          91 max          74 min
Histogram: 3 2 3 4 8 7 3 11 6 1
Nghost:        1644.83 ave        1666 max        1623 min
Histogram: 2 4 4 9 5 6 6 6 2 4
Neighs:        9504.96 ave       10539 max        7970 min
Histogram: 1 1 3 5 5 5 9 9 7 3

Total # of neighbors = 456238
Ave neighs/atom = 114.05950
Neighbor list builds = 906
Dangerous builds = 194

# Equilibrate just above the melting temperature to avoid step fn in T

fix 1 all npt temp 1.25 1.25 0.1 iso 5.68 5.68 0.5 mtk yes tchain 5 pchain 5
run 2000
Per MPI rank memory allocation (min/avg/max) = 3.643 | 3.645 | 3.649 Mbytes
Step Temp E_pair E_mol TotEng Press Volume 
   10000    2.3416102   -4.9604952            0    -1.448958    5.7667953    4011.3882 
   11000    1.2510678   -6.9933582            0   -5.1172256    5.4282725    3195.0205 
   12000     1.237761   -7.0649464            0   -5.2087691    5.4747948    3169.3933 
Loop time of 0.586185 on 48 procs for 2000 steps with 4000 atoms

Performance: 589575.135 tau/day, 3411.893 timesteps/s
99.6% CPU use with 48 MPI tasks x no OpenMP threads

MPI task timing breakdown:
Section |  min time  |  avg time  |  max time  |%varavg| %total
---------------------------------------------------------------
Pair    | 0.26268    | 0.28269    | 0.30561    |   2.0 | 48.23
Neigh   | 0.037657   | 0.040312   | 0.042903   |   0.6 |  6.88
Comm    | 0.1894     | 0.21417    | 0.23657    |   2.7 | 36.54
Output  | 5.1986e-05 | 5.3532e-05 | 6.8807e-05 |   0.0 |  0.01
Modify  | 0.040021   | 0.044156   | 0.04795    |   1.0 |  7.53
Other   |            | 0.004804   |            |       |  0.82

Nlocal:        83.3333 ave          92 max          77 min
Histogram: 5 3 10 1 12 3 6 4 2 2
Nghost:        1918.83 ave        1944 max        1895 min
Histogram: 3 7 3 4 8 7 3 7 4 2
Neighs:        12061.4 ave       14113 max       10645 min
Histogram: 5 3 7 8 7 10 5 1 1 1

Total # of neighbors = 578945
Ave neighs/atom = 144.73625
Neighbor list builds = 142
Dangerous builds = 9

#############################
# L I N E A R  Q U E N C H  #
#############################

# Define solid atoms. This closely follows ten Wolde  Ruiz-Montero and Frenkel  Faraday Discuss  1996  104  93-110
# Compute components of the per-atom q6 vector
compute q6 all orientorder/atom degrees 1 6 components 6 nnn NULL cutoff 1.3 # compute the Q6 parameter.
                                                                             # Use all neighbours within 1.3 unit cell.

# get number of connections
compute coord_number all coord/atom orientorder q6 0.5

# An atom is solid if it has 8 or more connections (of a possible 14)
variable is_solid atom c_coord_number>=8
group solid dynamic all var is_solid    # Must be dynamic to update
dynamic group solid defined

# do clustering
compute cluster solid cluster/atom 1.3 # Create a cluster where all atoms within are solid and max 1.3 units from another member

# define chunks one chunk per cluster
compute clus_chunks solid chunk/atom c_cluster nchunk every compress yes  # Says which atoms are in which chunk

# count the size of each chunk
compute size_chunks solid property/chunk clus_chunks count


# Find the maximum entry in the vector of chunk sizes
variable max_n equal max(c_size_chunks)


# Thermo style which includes this variable
# thermo_style custom step temp pe vol v_max_n

thermo ${N}  # Print the thermo information every 100 steps
thermo 1000  

# Reset the npt fix at a lower temperature (below freezing)
fix 1  all npt temp  ${temp} ${temp}  0.1  iso  5.68  5.68  0.5  mtk yes tchain  5  pchain  5
fix 1  all npt temp  0.45 ${temp}  0.1  iso  5.68  5.68  0.5  mtk yes tchain  5  pchain  5
fix 1  all npt temp  0.45 0.45  0.1  iso  5.68  5.68  0.5  mtk yes tchain  5  pchain  5

dump dmp2 all dcd ${N} traj.dcd
dump dmp2 all dcd 1000 traj.dcd


compute msd all msd com yes
variable twopoint equal c_msd[4]/6/(step*dt+1.0e-6)
fix 9 all vector 10 c_msd[4]
variable fit equal slope(f_9)/6/(10*dt)
thermo_style custom step temp pe c_msd[4] v_twopoint v_fit v_max_n

fix 1 all npt temp 1.25 ${temp} 0.1 iso 5.68 5.68 0.5 mtk yes tchain 5 pchain 5
fix 1 all npt temp 1.25 0.45 0.1 iso 5.68 5.68 0.5 mtk yes tchain 5 pchain 5
run 5000000 # 5000000  # Run for this many steps
Neighbor list info ...
  update every 1 steps, delay 10 steps, check yes
  max neighbors/atom: 2000, page size: 100000
  master list distance cutoff = 3.8
  ghost atom cutoff = 3.8
  binsize = 1.9, bins = 8 8 8
  4 neighbor lists, perpetual/occasional/extra = 1 3 0
  (1) pair lj/cut, perpetual
      attributes: half, newton on
      pair build: half/bin/atomonly/newton
      stencil: half/bin/3d
      bin: standard
  (2) compute orientorder/atom, occasional
      attributes: full, newton on
      pair build: full/bin/atomonly
      stencil: full/bin/3d
      bin: standard
  (3) compute coord/atom, occasional
      attributes: full, newton on
      pair build: full/bin/atomonly
      stencil: full/bin/3d
      bin: standard
  (4) compute cluster/atom, occasional
      attributes: full, newton on
      pair build: full/bin/atomonly
      stencil: full/bin/3d
      bin: standard
Per MPI rank memory allocation (min/avg/max) = 9.818 | 9.824 | 9.829 Mbytes
Step Temp PotEng c_msd[4] v_twopoint v_fit v_max_n 
   12000     1.237761   -7.0649464 1.0590458e-30 7.3544842e-33 8.3333333e+20            2 
   13000     1.256759   -7.0365328   0.47952446 0.0030738746  0.038817342            2 
   14000    1.2421843   -6.9666351   0.95195648 0.0056664074  0.039270258            1 
   15000    1.2593636   -7.0563265    1.4194331 0.0078857391  0.039114718            2 
   16000    1.2619719   -7.0260704    1.9004762 0.0098983134  0.038999163            1 
   17000    1.2699545   -7.0314585    2.3593497  0.011565439  0.038917284            1 
   18000    1.2504665   -7.0528707    2.8328826  0.013115197  0.039080657            1 
   19000    1.2505444   -7.0109353    3.2336271  0.014182574  0.038789353            1 
   20000    1.2349765   -7.0305513    3.7005244  0.015418851    0.0384808            1 
   21000    1.2479803   -7.0507082    4.1281133  0.016381402  0.038353565            1 
   22000    1.2458145   -7.0360105    4.5471949  0.017224223  0.038063792            3 
   23000    1.2407564   -7.0414139    5.0106492  0.018154526  0.037809128            1 
   24000    1.2643287    -7.047237    5.4262709  0.018841218  0.037568785            2 
   25000    1.2895334   -7.0539215    5.9222545  0.019740848  0.037521627            1 
   26000    1.2288886   -7.0750354    6.3495737  0.020351197   0.03751432            2 
   27000    1.2487944   -7.0731583    6.7202799  0.020741604  0.037398379            1 
   28000     1.272006   -7.0586224    7.1922383  0.021405471  0.037272748            1 
   29000    1.2383118   -7.0427979    7.7079936  0.022149407  0.037303108            2 
   30000    1.2574803   -7.0378674    8.1384481    0.0226068   0.03735049            2 
   31000    1.2356654   -7.0663504    8.5979764  0.023112839  0.037370024            1 
   32000    1.2299932   -7.0412199    9.0439738  0.023552015  0.037374965            1 
   33000    1.2467176   -7.0268335     9.446185  0.023854002  0.037350122            1 
   34000    1.2358189   -7.0434801     9.915117  0.024301757   0.03731616            5 
   35000    1.2513252    -7.019323    10.325267  0.024583968  0.037272321            3 
   36000     1.259524   -7.0146881    10.704482  0.024778892   0.03718641            3 
   37000    1.2808458   -7.0349381    11.177339  0.025174186  0.037099889            1 
   38000    1.2416261    -7.031459    11.715387  0.025691639  0.037060936            4 
   39000    1.2800023   -7.0938593     12.13502   0.02592953  0.037053642            2 
   40000    1.2159846   -7.0269804      12.5884  0.026225833  0.037070802            5 
   41000    1.2733793   -7.0216266    13.028066  0.026479808  0.037078742            2 
   42000    1.2578834   -7.0138177    13.619094  0.027022011  0.037148856            3 
   43000     1.233383   -7.0118094    14.065371  0.027258471  0.037207737            2 
   44000    1.2441259   -7.0553328    14.537939  0.027533975   0.03728559            1 
   45000    1.2420951   -6.9854873    15.146348  0.028048793  0.037381823            2 
   46000    1.2375876   -7.0629662    15.338641  0.027787393  0.037427667            1 
   47000    1.2493153   -7.0208445    15.797188  0.028009198  0.037420001            1 
   48000    1.2452271   -7.0416596    15.964829  0.027716716  0.037372041            1 
   49000    1.2108698   -7.0170013    16.423655  0.027931385   0.03728388            1 
   50000    1.2211316   -7.0233987    16.882318  0.028137197  0.037214727            1 
   51000    1.2420047   -7.0073287    17.389097  0.028413557  0.037174468            1 
   52000    1.2278331   -7.0076968    17.850803  0.028607055  0.037146194            1 
   53000    1.2614782   -7.0099511    18.297958  0.028770374  0.037117445            2 
   54000    1.2658593   -6.9923704    18.828076  0.029055673  0.037099435            2 
   55000    1.2610998   -7.0551993    19.120049  0.028969771  0.037072273            3 
   56000    1.2510883   -7.0573733    19.534278  0.029068866  0.037049367            2 
   57000    1.2552131   -7.0444877    20.041854  0.029300956  0.037018149            1 
   58000    1.2525056   -7.0492624    20.429455  0.029352665  0.036990406            1 
   59000    1.2560526   -6.9993813    20.771863  0.029338789  0.036951848       -1e+20 
   60000    1.2345086   -7.0371545     21.25229   0.02951707  0.036921397            2 
   61000     1.253052   -7.0317848    21.658838  0.029588576    0.0369001            1 
   62000    1.2188964   -7.0336074    22.258786  0.029917723  0.036878928            2 
   63000    1.2487231   -7.0354027    22.689155   0.03001211  0.036874628            5 
   64000    1.2148335   -7.0381322    23.173845  0.030174277  0.036869877            1 
   65000    1.2193362   -7.0607376    23.631229  0.030296447   0.03686706            1 
   66000    1.2543694     -7.04544    24.048375   0.03036411  0.036877231            1 
   67000    1.2745857   -7.0347602    24.360968  0.030299712  0.036860062            1 
   68000    1.2518364    -7.087385    24.775556  0.030362201  0.036840795            1 
   69000    1.2404788   -7.0286927    25.416029  0.030695687  0.036832089            3 
   70000    1.2436204   -6.9978985    25.731403  0.030632623  0.036828184            2 
   71000    1.2411691    -7.079527    26.159362  0.030703477  0.036813783            1 
   72000    1.2290016   -7.0103296    26.671401  0.030869677  0.036801986            1 
   73000    1.2274046   -6.9883842    27.003267  0.030825647  0.036791873            2 
   74000    1.2286623   -7.0637429    27.445811  0.030907445  0.036777894            2 
   75000    1.2374908   -7.0667685    27.820681  0.030911867   0.03676935            2 
   76000    1.2045238   -7.0570948     28.33344  0.031067368  0.036761975            1 
   77000    1.2139481   -7.0531274    28.799728  0.031168537  0.036761223            2 
   78000    1.2327252   -7.0219251    29.327325  0.031332612  0.036750533            1 
   79000    1.2518645   -7.0608255    29.558978  0.031180357  0.036740932            6 
   80000    1.2169452   -7.0920623    30.087731  0.031341387  0.036721758            2 
   81000    1.2453996   -7.0668159    30.451945  0.031329161  0.036704866            2 
   82000    1.2355637   -7.0206356    31.082337  0.031587741  0.036696662            1 
   83000     1.223737   -7.0425657    31.364239  0.031490199  0.036698237            1 
   84000    1.2276475    -7.067894    31.909519  0.031656269  0.036693261            1 
   85000    1.2580434   -7.1091727    32.065092  0.031436364  0.036685015            3 
   86000    1.2616519   -7.1172401    32.604396  0.031593406  0.036674253            2 
   87000    1.2410049   -7.0287133    33.076876  0.031682831  0.036662135            1 
   88000    1.2349815   -7.0626257    33.339514  0.031571509  0.036640897            1 
   89000    1.1936451   -7.0925761    33.618753  0.031478233  0.036609431            2 
   90000    1.2519207   -7.0847253     33.92944  0.031416148  0.036570694            1 
   91000     1.221592   -7.0466531    34.589964  0.031675791  0.036534342            1 
   92000     1.255774   -7.0554993     34.78723  0.031510172  0.036502623            1 
   93000    1.2066853   -7.0750144    35.212692  0.031552591  0.036463908            2 
   94000    1.2523022   -7.0132549    35.530128   0.03149834  0.036423136            1 
   95000    1.2073975   -7.0813006    36.131309  0.031694131  0.036386132            1 
   96000     1.224691   -7.0394462    36.460566  0.031649797  0.036351278            2 
   97000    1.2691957   -7.0433471    36.726907  0.031552325  0.036312952            1 
   98000    1.2219697   -7.0745278    37.221158  0.031650644  0.036272616            3 
   99000     1.239716   -7.0600045    37.632341  0.031677055   0.03623311            1 
  100000     1.223119   -7.0870713    37.952803  0.031627335  0.036196206            1 
  101000    1.2331319   -7.0576264      38.3772  0.031664356  0.036161842            1 
  102000    1.2382076   -7.0618101     38.98509  0.031850564  0.036133632            1 
  103000    1.2360632   -7.0866786     39.42883  0.031900348  0.036110535       -1e+20 
  104000    1.1956083   -7.0748153    39.896356  0.031968234   0.03609253            1 
  105000    1.2213691   -7.0639924    40.371015  0.032040488  0.036073652            1 
  106000    1.2421167   -7.0393232    40.505531  0.031843971  0.036045409            2 
  107000    1.2535486   -7.0422836    40.948581  0.031891418  0.036014091            1 
  108000    1.2155487   -7.0681282    41.247874  0.031827063  0.035982857            1 
  109000    1.2495732   -7.0810189    41.774686  0.031937833  0.035954978            3 
  110000    1.2362597   -7.0692872    42.087728  0.031884642  0.035923045            1 
  111000    1.2370578   -7.0750966    42.605259   0.03198593  0.035893408            1 
  112000     1.220007   -7.0747357    42.997029  0.031991837  0.035865097            1 
  113000    1.2265909   -7.0234323    43.295899  0.031929129  0.035836068            3 
  114000    1.2166809   -7.0792396    43.562595  0.031844002  0.035805447            1 
  115000    1.2193016    -7.023997    44.141902  0.031986886  0.035774652            2 
  116000    1.2097574   -7.0312974    44.567683  0.032017014  0.035750757            1 
  117000    1.2251222   -7.1096093    44.922243    0.0319959  0.035725032            1 
  118000    1.2527604   -7.1059815    45.345056  0.032023345  0.035696937            3 
  119000    1.2097028   -7.0374268    46.068202  0.032260645  0.035676584            2 
  120000    1.2133389   -7.0095782    46.511677  0.032299775   0.03565986            1 
  121000    1.2280709   -7.0241797    46.933845  0.032323584  0.035646075            1 
  122000    1.2227054   -7.0865902    47.134165  0.032195468  0.035628859            2 
  123000     1.256061    -7.034275    47.677161  0.032301599  0.035609395            1 
  124000    1.2492855   -7.0817666    47.929656   0.03221079  0.035593843            1 
  125000    1.2343412   -7.0648024    48.205148  0.032136765  0.035571706            1 
  126000    1.2483382   -7.0555074    48.638886  0.032168575  0.035548609            1 
  127000    1.2236302   -7.0351127    49.060611  0.032192002  0.035527001            2 
  128000    1.2413542   -7.0937279    49.455313  0.032197469  0.035501741            2 
  129000    1.2250614   -7.0868832     49.78295  0.032159528  0.035478885            2 
  130000    1.2092444   -7.0574182    50.007665  0.032056196  0.035449269            1 
  131000     1.204564   -7.0124743    50.563908  0.032165335   0.03542213            2 
  132000    1.2263683   -7.0304588     51.00383  0.032199387  0.035400003            2 
  133000    1.2315227    -7.076024    51.304185  0.032145479  0.035375136            1 
  134000    1.2015223    -7.071294    52.021377  0.032351602  0.035354697            2 
  135000    1.2576406   -7.0614653    52.329132  0.032301933   0.03533638            3 
  136000    1.2499948   -7.0696778    52.491722  0.032164045  0.035315518            2 
  137000    1.2275445   -7.0864246     52.80217  0.032118108  0.035291769            2 
  138000    1.2088729   -7.1198245     53.11684  0.032075386  0.035265092            1 
  139000    1.2517499   -7.1037092    53.736855   0.03221634  0.035241229            3 
  140000    1.2278245   -7.0158365    54.470673   0.03242302  0.035223452            1 
  141000    1.2153561   -7.1001725    54.716433  0.032338318  0.035208107            1 
  142000    1.2334115   -7.1225606    55.170506  0.032377057  0.035195466            1 
  143000    1.2200381   -7.0627527    55.799584   0.03251724  0.035182232            2 
  144000    1.2441771   -7.0994595    56.120785  0.032477306  0.035174814            1 
  145000      1.24196    -7.083444    56.870463  0.032684174  0.035165907       -1e+20 
  146000    1.2550201   -7.0557726    57.196852  0.032646605  0.035164014            1 
  147000    1.2632489   -7.0948889    57.510264  0.032602191  0.035158227            1 
  148000    1.2181344   -7.0802198    57.750973   0.03251744  0.035148278            1 
  149000    1.2142995   -7.1076333    58.145538  0.032519876  0.035139913            3 
  150000    1.1986638   -7.1101905    58.431002  0.032461668  0.035127744            3 
  151000    1.2617584   -7.0575179    59.139446  0.032637663  0.035117519            3 
  152000    1.2258034   -7.0347969     59.52218  0.032632774  0.035109406            1 
  153000    1.2121508   -7.0740747    59.955609   0.03265556  0.035101021            2 
  154000    1.2373879   -7.0669485    60.478262  0.032726332  0.035093078            1 
  155000    1.2335709   -7.1218701    60.781295  0.032678116  0.035088906            2 
  156000    1.2310753   -7.1535951    60.979319  0.032574422  0.035082924            1 
  157000    1.2322596   -7.1030987    61.564678  0.032677642  0.035076777            2 
  158000    1.2537101   -7.0410972    61.772272  0.032580312  0.035066292            1 
  159000    1.2194472   -7.0807322     62.28403  0.032643621  0.035055976            2 
  160000    1.2194011   -7.0335033    62.791118  0.032703707   0.03504561            2 
  161000    1.2387603   -7.0947109    62.871386  0.032542125  0.035033121            2 
  162000    1.2174808   -7.0959738    63.238681  0.032530186  0.035019798            1 
  163000    1.2120906    -7.068936    64.112982  0.032777598  0.035010955            3 
  164000    1.2254112    -7.079081    64.515432  0.032782231  0.035004739            3 
  165000    1.2334916   -7.0763715    65.003622  0.032830112  0.035000047            1 
  166000    1.2327445   -7.0502163    65.305552  0.032783911  0.034996559            1 
  167000    1.2542469   -7.1006557    65.634731  0.032751862  0.034989595            1 
  168000    1.2384407   -7.0877517    66.136846  0.032805975  0.034985913            2 
  169000    1.2369468   -7.0916062     66.82776  0.032952544  0.034983698            2 
  170000    1.1983045   -7.0729789    67.496387  0.033086464  0.034983981            1 
  171000    1.2215673   -7.0991789    67.579818  0.032933635  0.034985837            2 
  172000    1.2564331   -7.1098529    67.520811  0.032713571  0.034981178            1 
  173000    1.2147916   -7.0999288    68.202914  0.032853041  0.034973713            1 
  174000    1.2172994   -7.0730606    68.477523  0.032795749  0.034966544            2 
  175000    1.2009099   -7.0621633    69.435142  0.033064353   0.03496229            1 
  176000    1.2134492   -7.0973849    69.925667  0.033108744   0.03496452            1 
  177000    1.2144557   -7.0316318    70.221618  0.033061025  0.034965489            2 
  178000    1.2365087   -7.1119011    70.402228  0.032959845  0.034964654            1 
  179000    1.2040913   -7.1005412    70.772254  0.032947977  0.034960399            1 
  180000    1.2278924   -7.0702713    71.277988  0.032999068  0.034957794            3 
  181000      1.21084   -7.1077562    71.436451   0.03288971  0.034951498            1 
  182000    1.2292603   -7.0606263    72.023663  0.032977868   0.03494635            1 
  183000    1.2035287   -7.0952717    72.059047  0.032813774  0.034939899            1 
  184000    1.2343253   -7.1159542    72.611795  0.032885776  0.034932342            1 
  185000    1.2255588   -7.0745728    73.356774  0.033043592  0.034925667            2 
  186000    1.2047216   -7.0707622    73.677452  0.033009611  0.034920622            1 
  187000    1.2071761   -7.0959755    74.012609  0.032982446  0.034917044            1 
  188000    1.2246534   -7.0320634     74.59509  0.033065199  0.034914578            1 
  189000    1.2181713   -7.0928055    74.988988  0.033063928   0.03491232            2 
  190000    1.2295973   -7.0985544    75.378536  0.033060761  0.034909732            3 
  191000    1.2070828   -7.1047908    75.524654   0.03295142  0.034905054            2 
  192000    1.1745815     -7.08781    75.996145  0.032984438  0.034898791            1 
  193000    1.2263421   -7.0724539    76.495798  0.033029273  0.034894599            1 
  194000    1.2083362   -7.1324937    76.673246  0.032935243  0.034889314            1 
  195000    1.2085389   -7.1398906     76.59591  0.032733295  0.034879602            3 
  196000    1.2170275   -7.0826543    77.299632   0.03286549  0.034869677            2 
  197000    1.2327956     -7.08747    77.978521  0.032985838  0.034863111            1 
  198000    1.2113147   -7.0750886      78.3316  0.032967845  0.034858656            1 
  199000    1.2082415   -7.0816788    78.622129   0.03292384  0.034848681            1 
  200000    1.2161554   -7.0543651    79.423575  0.033093156  0.034840519            1 
  201000     1.241363   -7.0738257    79.336974  0.032892609  0.034835533            1 
  202000    1.2254248   -7.0941569    79.985881  0.032997476  0.034828705            1 
  203000    1.2183423   -7.0562211    80.252124  0.032944222  0.034822267            2 
  204000     1.197172   -7.1017637    81.019044  0.033096014  0.034816097            2 
  205000    1.2465923   -7.1140509    81.593376  0.033168039  0.034813797            4 
  206000    1.2036373   -7.1400834    81.879196  0.033122652  0.034812584            4 
  207000    1.2061852   -7.0805417    82.626032  0.033263298   0.03481061            2 
  208000    1.2143414   -7.1146922    82.388411  0.033008177  0.034808185            2 
  209000    1.2414534   -7.0471901    83.343477  0.033231051  0.034806538            2 
  210000    1.2326976   -7.1352417    83.629698  0.033186388  0.034805251            2 
  211000    1.2076312   -7.0718459    84.242201  0.033271011  0.034805013            1 
  212000    1.2263102   -7.0874227    84.536419  0.033229725  0.034806045            1 
  213000    1.1951988   -7.0606578    84.663727  0.033123524   0.03480512            2 
  214000    1.2015981   -7.0694067    84.820704  0.033029869   0.03480001            1 
  215000    1.2171568   -7.1108697    85.109882  0.032988326  0.034795625            1 
  216000    1.2207205   -7.1071169    85.655933   0.03304627  0.034790825            3 
  217000    1.2443744   -7.1172921    85.916025  0.032993865  0.034783657            1 
  218000    1.2167375    -7.097122    86.519803  0.033073319  0.034776615            1 
  219000    1.2086576   -7.1070321    86.666364  0.032978068  0.034769497            2 
  220000    1.2008745   -7.0766758    87.391011  0.033102656  0.034763504            2 
  221000    1.2244909   -7.0863427    87.225702  0.032890536  0.034755653            2 
  222000    1.2399181   -7.1055886    87.953229  0.033015476  0.034748296            3 
  223000    1.2329228   -7.1163575    88.765613  0.033171006  0.034741454            1 
  224000    1.2338389   -7.1187116    88.787885  0.033031207   0.03473568            1 
  225000    1.2416214   -7.0884713    89.224453  0.033046094  0.034728567            2 
  226000    1.2386772   -7.1394587     89.77976  0.033104631  0.034723033            1 
  227000    1.2076971   -7.1365684    89.932555  0.033014888  0.034714772            1 
  228000    1.2215593   -7.1202545    90.207958  0.032970745  0.034704694            2 
  229000     1.216685   -7.0960903    91.004935  0.033116789  0.034696094            2 
  230000    1.2111882   -7.0817365    91.291383  0.033076588  0.034688476            1 
  231000    1.2203111   -7.0668652    91.897392  0.033152017  0.034681956            1 
  232000    1.2226032   -7.1037266    92.066184   0.03306975  0.034676081            1 
  233000    1.2410496   -7.0945552    92.547306  0.033099895  0.034670797            1 
  234000    1.2537256   -7.0915507    93.392997  0.033259614  0.034665186       -1e+20 
  235000    1.2158665   -7.0862143    93.432637  0.033132141  0.034659523            1 
  236000    1.2062021   -7.1225891    93.471119  0.033005339  0.034652558            1 
  237000    1.2135114   -7.1059263     93.88324  0.033010984  0.034644885            1 
  238000    1.2088886   -7.1019079    94.330709   0.03302896  0.034637553            1 
  239000    1.1987911   -7.1429476    94.778738   0.03304698  0.034630456            1 
  240000    1.1856869   -7.1534283    95.049497  0.033003297  0.034623531            1 
  241000     1.195681   -7.1155924    95.859437  0.033146417  0.034615728            2 
  242000    1.2312038   -7.0675052    96.378012  0.033188021  0.034610948            2 
  243000    1.2368458   -7.0778377    97.095953  0.033297652  0.034606671            1 
  244000    1.1850782    -7.106371    97.557389   0.03331878  0.034602725            1 
  245000    1.2151345   -7.0903706    97.723889  0.033239418  0.034599815            2 
  246000    1.2006526   -7.1235161    98.020244   0.03320469  0.034596327            1 
  247000    1.2148479   -7.1146424    98.495681  0.033230661  0.034592049            2 
  248000      1.19606   -7.1002263    98.876543  0.033224645  0.034588574            2 
  249000    1.2219268   -7.1040904    99.257001  0.033218541  0.034584831            2 
  250000    1.1820692    -7.144801    99.473635  0.033157878  0.034579699            2 
  251000     1.216174   -7.0865643    99.843515  0.033148577   0.03457626            2 
  252000    1.1792417   -7.0978528    100.18588   0.03313025  0.034571908            3 
  253000    1.2205357   -7.0959515    100.39937  0.033069621  0.034565233            2 
  254000    1.2267782   -7.0749663    100.84307  0.033084997  0.034558593            1 
  255000    1.2314549   -7.1318492      101.296  0.033103268  0.034550432            1 
  256000    1.2163738   -7.1123168    101.38304  0.033002291  0.034543326            2 
  257000    1.2112253   -7.1191804    102.05946   0.03309321  0.034537785            1 
  258000     1.229274   -7.1241642    102.73684  0.033183734  0.034532363            2 
  259000    1.2040051    -7.104407    103.23797   0.03321685  0.034527194            2 
  260000    1.2109372   -7.0769953    103.69726  0.033236301  0.034523811            1 
  261000     1.201967   -7.1080052    104.43253   0.03334372  0.034521771            1 
  262000    1.2240832   -7.1373112    104.94514  0.033379499   0.03452101            1 
  263000    1.2045975   -7.1049931    105.34069  0.033377911  0.034521028            1 
  264000    1.1976831   -7.1306413    105.51994  0.033308062  0.034521461            1 
  265000    1.2285534    -7.103397    106.45765  0.033477247  0.034520456            1 
  266000    1.2253361   -7.1510205    106.29806  0.033301398  0.034519281       -1e+20 
  267000    1.2323742   -7.1030994    106.92915  0.033373641   0.03451725            1 
  268000    1.2210309   -7.1323376    106.87662   0.03323278  0.034516245            1 
  269000    1.1968394   -7.1321403    107.44044  0.033283902  0.034514061            1 
  270000    1.2092164   -7.1690166    108.07618  0.033356845  0.034513209            1 
  271000     1.219561   -7.0972792    108.39216  0.033330923  0.034511548            2 
  272000    1.2017582   -7.1219797    109.09985    0.0334252  0.034511189            1 
  273000    1.2133736   -7.0938855    109.41694  0.033399555  0.034510005            2 
  274000    1.2200128   -7.0890002    109.66493  0.033353082  0.034508226            1 
  275000    1.1916532   -7.0915784    110.26067  0.033412324  0.034506353            3 
  276000    1.2269992   -7.1427518    110.21232  0.033276667  0.034503712            1 
  277000    1.2126123   -7.1662996    109.84994  0.033047514  0.034500768            4 
  278000    1.2209451   -7.1227027    110.83163  0.033222909  0.034497627            1 
  279000    1.2047104   -7.0852644    111.30942   0.03324654  0.034494776            1 
  280000    1.2041655   -7.1369511    111.59722  0.033213457  0.034491508            1 
  281000    1.2197642   -7.1209891    112.32411  0.033310829  0.034489171            1 
  282000    1.2054344   -7.1244259    112.89554  0.033361566  0.034487589            2 
  283000    1.2002891   -7.1765399    112.62499  0.033164013  0.034484775            2 
  284000    1.1737603   -7.0701418    113.56865  0.033324135   0.03448175            2 
  285000    1.2350626   -7.1546464    113.35288  0.033144117  0.034477004            2 
  286000     1.219262   -7.1118521    114.56177  0.033380469  0.034471832            1 
  287000    1.1951775   -7.1709457    113.99738  0.033100284  0.034467864            3 
  288000    1.1946128   -7.1236685    114.50252  0.033131516  0.034463106            1 
  289000    1.2141933   -7.1708301     114.6922  0.033071569   0.03445903            1 
  290000    1.2372991   -7.1433315    115.58212  0.033213254   0.03445465            1 
  291000    1.1996528   -7.1367469     116.0566  0.033234995  0.034450369            2 
  292000    1.2171869   -7.1272736    116.26925  0.033181863  0.034446563            1 
  293000    1.2094509   -7.1407862    116.57333    0.0331551  0.034441035            1 
  294000    1.2000939   -7.0868072     117.1697  0.033211367  0.034435959            3 
  295000    1.1728933   -7.1036125    117.66377  0.033238352   0.03443035            1 
  296000     1.229077   -7.1251587    118.06462  0.033238914  0.034425098            2 
  297000    1.2198954   -7.1694908    118.21013  0.033167826  0.034420848            3 
  298000    1.2076778   -7.1247666    119.00241  0.033278078  0.034416176            1 
  299000    1.2243154   -7.1186331    119.33187  0.033258605  0.034410712            2 
  300000    1.2175231   -7.1294738    119.58045  0.033216792  0.034405762            2 
  301000     1.197105   -7.1101262    120.08002  0.033244746  0.034401245            1 
  302000    1.1845686   -7.1257753    120.28878  0.033192268  0.034396283            1 
  303000    1.2016168     -7.15343    120.49914  0.033140577  0.034391039            2 
  304000    1.2149801   -7.1151038    121.02725   0.03317633  0.034384663            1 
  305000    1.2081954   -7.1143005    121.22752  0.033122272  0.034377782            2 
  306000    1.2156123   -7.1305521    121.58424  0.033111175  0.034369778            1 
  307000    1.1848972   -7.1510053    121.64854  0.033020778  0.034363243            1 
  308000    1.2182286   -7.1439964     122.0728  0.033028354  0.034355667            1 
  309000    1.2129529   -7.1385277     123.0754  0.033191855  0.034349969            1 
  310000    1.2077046   -7.1524469    123.34337  0.033156819  0.034345203            1 
  311000    1.1887158   -7.1511037    123.44524  0.033077503  0.034339659            2 
  312000    1.2233608    -7.111596    124.11297  0.033149832  0.034332313            1 
  313000    1.2029984   -7.0973586    124.12973  0.033048385  0.034325195            1 
  314000    1.2147009   -7.1398829    124.09038  0.032932691  0.034318771            1 
  315000    1.2114601   -7.1241696    124.77078  0.033008143  0.034312071       -1e+20 
  316000    1.2086431   -7.1200285    125.17769  0.033010993  0.034305539            2 
  317000    1.1956087   -7.1359014    125.32734    0.0329462  0.034296868            1 
  318000    1.2339627   -7.1663123    125.47571  0.032881476  0.034287494            4 
  319000    1.1889978   -7.1366952    125.87333  0.032882271  0.034276569            1 
  320000    1.2087986   -7.1385965    126.13612  0.032847947   0.03426617            1 
  321000    1.1827675   -7.1925139    126.02578  0.032716973  0.034253649            2 
  322000    1.2118042   -7.1422326    126.56968  0.032756129  0.034240774            1 
  323000    1.2110949   -7.1283678    127.30829  0.032845275  0.034229282            2 
  324000    1.2101293   -7.1524649    127.17015  0.032708372  0.034216912            1 
  325000    1.2135283    -7.128458    127.88303   0.03279052  0.034205377            2 
  326000    1.2266897   -7.1053988    128.67827  0.032893218  0.034195662            2 
  327000     1.221641    -7.170753    128.81841  0.032828341  0.034187032            1 
  328000    1.2000297   -7.1225653    129.76416  0.032968536   0.03417904            2 
  329000    1.2188769   -7.1050571    130.42776  0.033036414  0.034171831            1 
  330000    1.2159465   -7.1062103    130.54715  0.032966451  0.034164444            1 
  331000    1.2208758   -7.1044127    131.07512  0.032999778  0.034156991            1 
  332000    1.2195303   -7.1084496    130.99777  0.032880967   0.03414917            2 
  333000    1.2148802   -7.1550281    131.51287  0.032911128  0.034140938            1 
  334000    1.1973771   -7.1561397    131.45931  0.032799228  0.034131614            2 
  335000    1.2252245   -7.1624091    131.85503  0.032799759  0.034122455            2 
  336000     1.203829   -7.1298292    132.81232  0.032939562   0.03411329            2 
  337000     1.179768   -7.0950416    132.69975  0.032813983  0.034104211            4 
  338000     1.191182   -7.1435716     133.0282  0.032797879   0.03409487            2 
  339000    1.1942828   -7.1317627    133.68115  0.032861639  0.034085677            1 
  340000    1.2165778   -7.1354365    133.63041   0.03275255  0.034076306            2 
  341000    1.2132019   -7.1008979    134.27365  0.032813697  0.034066013            3 
  342000     1.198395   -7.1471008    134.52426  0.032778816  0.034055605            1 
  343000    1.2309791   -7.1505485     134.8188   0.03275481  0.034045122            3 
  344000    1.1992626   -7.1244743    135.52956  0.032831772  0.034035646            1 
  345000    1.1968108   -7.0987854    136.22341  0.032904204  0.034026614            1 
  346000    1.1738388   -7.1322079    136.33114  0.032835054  0.034017128            1 
  347000    1.1888591   -7.1689268    136.19079  0.032706721  0.034008258       -1e+20 
  348000    1.2179854   -7.1598659     136.6323  0.032718463  0.033998929            1 
  349000    1.2021396   -7.1937151    137.25343  0.032773025  0.033989963            2 
  350000    1.1901251   -7.1208895    137.69684  0.032784961  0.033981857            1 
  351000    1.1934204   -7.1090286    138.31196  0.032837596  0.033973219            1 
  352000     1.211681    -7.147976    138.33574  0.032749938  0.033964583            1 
  353000    1.2071198   -7.1665109    138.80024  0.032766819  0.033956103       -1e+20 
  354000    1.1763157    -7.133531    139.45316  0.032827956  0.033947199            2 
  355000    1.1975293   -7.1198844      139.509  0.032748591   0.03393848            1 
  356000    1.2148654   -7.1673813    140.08014  0.032790294   0.03392923            1 
  357000    1.2022494   -7.1668486    140.32556  0.032755732  0.033919802            1 
  358000    1.1860279   -7.1088368    140.85918  0.032788449  0.033911708            1 
  359000    1.2051208   -7.1168215    140.98485  0.032726288    0.0339025            1 
  360000    1.1664472   -7.1395006    141.93081  0.032854355   0.03389359            1 
  361000    1.2401938   -7.1619123    141.70746  0.032711786  0.033884701            1 
  362000    1.2251571   -7.1858771    142.05245  0.032700841    0.0338749            1 
  363000    1.2324633   -7.1343355     142.1697  0.032637671  0.033865313            1 
  364000    1.1857073   -7.1061694    143.36113  0.032820771  0.033856434            1 
  365000    1.1685307   -7.1462579    143.58738  0.032782507  0.033848366            1 
  366000    1.1804742   -7.1718783    143.80354  0.032742155  0.033839831            1 
  367000    1.2001699   -7.1556531    144.33861  0.032774435  0.033831304            1 
  368000    1.1806903   -7.1739774    144.53363  0.032729536  0.033823067            1 
  369000    1.2313121   -7.1666798     145.2007  0.032791487  0.033815409            2 
  370000    1.1972367   -7.1347248     146.6409  0.033027229  0.033809372            3 
  371000    1.2062535   -7.1408935    146.22726  0.032845296  0.033803634            1 
  372000    1.1569078   -7.1890926     146.6093  0.032842585  0.033797506            2 
  373000     1.175395   -7.1528069    146.91507  0.032822848  0.033791764            3 
  374000    1.1737068   -7.1733335    148.20607  0.033022742  0.033787662            1 
  375000    1.1802029   -7.1553005    147.91783   0.03287063  0.033783234            1 
  376000    1.1953815   -7.1560765    148.67754  0.032951583  0.033778969            4 
  377000    1.2056093   -7.1797367    148.49185  0.032823132  0.033774801            2 
  378000    1.1561035   -7.1675019    149.33831  0.032922907  0.033770433            2 
  379000    1.1840732   -7.1859871    149.95296  0.032971188  0.033766878            2 
  380000    1.1985661   -7.1719478    150.09044   0.03291457  0.033761973            1 
  381000    1.1827044   -7.1771116    150.41626  0.032899444  0.033756762            3 
  382000    1.2056819   -7.1554415    150.56905   0.03284665  0.033751797            1 
  383000    1.1870462   -7.1396417    151.44121  0.032950656  0.033747133            1 
  384000    1.1804575   -7.1545736    151.98347  0.032982524  0.033742931            1 
  385000    1.2036059   -7.1916657    151.49001  0.032790045  0.033737491            2 
  386000    1.1945453    -7.161783    151.45545  0.032697635  0.033731766            1 
  387000    1.2038006   -7.1665612    152.38444  0.032813188  0.033725595            1 
  388000    1.2060442   -7.1333652    152.88583  0.032836303  0.033720135            2 
  389000    1.2072386   -7.1773221    153.44588  0.032871867    0.0337149            1 
  390000    1.2012988   -7.1164457    153.91007  0.032886766  0.033709792            4 
  391000    1.1924446   -7.1413244    153.55939  0.032727917  0.033704145            1 
  392000    1.2054998    -7.133755    154.24476  0.032790127  0.033698592            2 
  393000     1.177685   -7.1619866     154.4356   0.03274716  0.033692603            2 
  394000    1.1898502   -7.1740394    154.73659  0.032727704  0.033685318            1 
  395000    1.1571147   -7.1546305    154.56713  0.032609099  0.033677414            2 
  396000    1.1706936    -7.199488    154.83166  0.032582419    0.0336697            1 
  397000    1.2282657   -7.1528305    155.37924  0.032615289  0.033662221            2 
  398000    1.1848826   -7.1805321    155.65297  0.032590656  0.033655181            1 
  399000    1.1944832    -7.185764    155.96397  0.032573929  0.033647488            2 
  400000    1.1765111   -7.1679873    156.96986  0.032702053  0.033640481            1 
  401000    1.1903248   -7.1604551    157.64133  0.032760044  0.033635107            1 
  402000    1.2100332     -7.15063    157.51658   0.03265269  0.033628774            2 
  403000     1.181542   -7.1355085    157.89923  0.032650792   0.03362185            2 
  404000    1.1787167   -7.1916582     158.5295   0.03269998  0.033615198            2 
  405000    1.1809262   -7.1392234    159.18173  0.032753442  0.033609129            1 
  406000    1.1876125   -7.1917638    159.81748   0.03280326  0.033604125            2 
  407000    1.1776395   -7.1581738    160.72607  0.032908695  0.033598676            1 
  408000    1.1964126   -7.1546451    160.86052  0.032855499  0.033593421            2 
  409000    1.1673885   -7.1813347    160.44428  0.032690359  0.033587489            2 
  410000    1.2022156   -7.2220585    160.56555  0.032635275  0.033581172            2 
  411000    1.1711607   -7.1757765    161.45222  0.032735649  0.033575464            2 
  412000    1.1865942   -7.1976723    162.04213  0.032775512  0.033570337            1 
  413000    1.1554114   -7.1925072    162.22185  0.032732415  0.033565449            2 
  414000    1.1853948   -7.1451112    163.06574  0.032823217  0.033560656            1 
  415000    1.1952582    -7.130541    163.23377  0.032777865  0.033555967            1 
  416000    1.1789481   -7.1721628    162.86646  0.032625492  0.033550377            3 
  417000    1.1994709   -7.1706891    163.18732  0.032611376   0.03354374            1 
  418000    1.1794713    -7.185046    163.90498  0.032676432  0.033536918            1 
  419000    1.1769052   -7.1717852    163.79087  0.032575751  0.033529981            1 
  420000    1.1848097   -7.1829735    164.64415  0.032667491  0.033523182            1 
  421000    1.1777029   -7.1460275    165.28101  0.032715956  0.033516537            1 
  422000    1.1717213   -7.1860329    164.95435  0.032573925  0.033510123            2 
  423000    1.1954403   -7.1840933    165.46063  0.032596657  0.033502864            2 
  424000    1.1658735   -7.1792708    165.99206  0.032624225  0.033496046            1 
  425000     1.174011   -7.1368134    167.18103  0.032780595  0.033490055            2 
  426000    1.1801089   -7.1856489    166.66856  0.032603396  0.033484106            1 
  427000    1.1653867   -7.1401944    167.21018  0.032632744  0.033477408            2 
  428000    1.2065963   -7.2149318    167.33004  0.032579837  0.033471366            2 
  429000    1.1688108   -7.2010401    167.97646   0.03262946  0.033464436            3 
  430000    1.1769282   -7.1693723    168.31184  0.032618573  0.033456974            1 
  431000    1.1748631   -7.1687221    167.68092  0.032420905  0.033449899            2 
  432000    1.2028532   -7.1245406    169.31441  0.032660958  0.033442823            1 
  433000    1.1881152   -7.1314301    169.17745   0.03255917   0.03343636            1 
  434000    1.1990542   -7.1601417    169.74961   0.03259401  0.033429461            1 
  435000    1.1783175   -7.1906407    169.98426  0.032564034  0.033423269            2 
  436000    1.1887781    -7.129952    170.54264   0.03259607  0.033416728            3 
  437000    1.1849677   -7.2115585    170.47798   0.03250915  0.033409799            1 
  438000    1.2003707   -7.2066218    170.45152  0.032429893  0.033402418            3 
  439000    1.1779389   -7.1972901    170.54662  0.032374073  0.033393851            1 
  440000    1.1883081   -7.1891545    171.33337  0.032449502  0.033385693            2 
  441000    1.1707054   -7.1670876    171.47818  0.032403285  0.033377851            1 
  442000     1.189742   -7.1679578    171.67961   0.03236795  0.033369522            1 
  443000    1.1745536   -7.1705006    171.55947  0.032272286  0.033361004            1 
  444000    1.1663724   -7.1780699    171.99507  0.032281357  0.033350496            1 
  445000    1.1855169    -7.172317    172.22612  0.032252082  0.033340182            2 
  446000    1.1888266   -7.1638589    172.81851  0.032290454  0.033330042            2 
  447000    1.1565127   -7.2035038    172.91602  0.032236394  0.033319842            1 
  448000    1.2214775   -7.1747693    173.37852  0.032250468  0.033310067            1 
  449000    1.1761114   -7.1724797    173.81598  0.032259833  0.033299808            1 
  450000    1.1734873   -7.1705978    174.28516  0.032275029   0.03328961            2 
  451000    1.1815064   -7.1470155    174.69993  0.032280105  0.033280057            1 
  452000     1.175754   -7.1816388    174.89373  0.032244418  0.033269658            1 
  453000    1.1557013   -7.2336203     174.8899  0.032172535  0.033258591            2 
  454000    1.1635028   -7.1906115    175.45637  0.032205648  0.033247597            2 
  455000    1.1943034   -7.1767915    175.99446  0.032233417  0.033237458            1 
  456000    1.1884349   -7.2117962    175.78952  0.032125277  0.033227423            1 
  457000    1.1550504   -7.2175864    175.96249  0.032086523  0.033217904            1 
  458000     1.216522   -7.1991884    176.79456   0.03216786  0.033207972            2 
  459000    1.1820844   -7.2014546    176.46799  0.032038488   0.03319793            2 
  460000     1.179776   -7.1969581    177.09993  0.032083321   0.03318716            2 
  461000    1.1592601   -7.1540595     178.4841  0.032263938  0.033176712            1 
  462000    1.1915659   -7.2114056    177.08575  0.031941874  0.033166555            1 
  463000     1.190446   -7.1647282    178.70587  0.032164483  0.033156031            1 
  464000    1.1648537   -7.1907344    178.30298  0.032022806  0.033145306            2 
  465000    1.1874611   -7.1646826    179.38555  0.032147947  0.033134093            1 
  466000    1.1913584   -7.2013261    178.60446  0.031939281   0.03312218            2 
  467000    1.1784005   -7.1824497    179.00005  0.031941479   0.03311045            1 
  468000    1.1695509   -7.2031213     179.6362  0.031986503  0.033098507            1 
  469000    1.1836979   -7.1776673    179.58383  0.031908997  0.033087675            2 
  470000     1.157582   -7.1884246    180.66531  0.032032857  0.033076478            1 
  471000    1.1862025   -7.1680656    181.24765  0.032067879  0.033064995            1 
  472000    1.1358464   -7.1899224    181.13999   0.03198093  0.033053895            2 
  473000    1.1608339   -7.1523535    181.56545  0.031988276  0.033043234            2 
  474000     1.160261   -7.2135271      181.864  0.031973277  0.033032368            1 
  475000    1.1953767   -7.1709078    182.50121  0.032017756  0.033021133            1 
  476000     1.208699   -7.1872978    183.25763  0.032082919  0.033010759            1 
  477000    1.1565793   -7.1470355    182.99494  0.031969765  0.033000207            2 
  478000    1.1954187   -7.2233482    182.95308  0.031895585  0.032989055            4 
  479000    1.1557386    -7.208832    183.04569   0.03184511  0.032977906            1 
  480000    1.1632813   -7.1977247    184.48887  0.032029318  0.032966414            1 
  481000    1.1821246   -7.2089631    183.53692  0.031797804  0.032954689            1 
  482000    1.2032808   -7.1920292    184.30917  0.031865348    0.0329429            1 
  483000    1.1657895   -7.2259616    184.88625  0.031898938  0.032931398            3 
  484000    1.1758791   -7.1621015    185.14965  0.031878383  0.032920515            1 
  485000    1.1870253   -7.1603344    185.81348  0.031926715  0.032909695            1 
  486000    1.1855616   -7.1748042     186.1785  0.031923611  0.032898865            3 
  487000    1.1630474   -7.2470859    185.62388  0.031763155  0.032887641            1 
  488000    1.1542226   -7.1733361    186.77647  0.031894889  0.032876425            1 
  489000    1.1878912   -7.2162192    186.85699  0.031843386   0.03286488            1 
  490000    1.1577481   -7.2095757      186.485  0.031715136  0.032853098            2 
  491000    1.1608297   -7.2005303    186.90819  0.031722367  0.032841579            3 
  492000    1.1872203   -7.2152263    188.12443  0.031863894  0.032830067            3 
  493000    1.1612414   -7.1760446    188.52133   0.03186635  0.032818595            1 
  494000    1.1508706   -7.2189633    188.20257  0.031748072   0.03280744            3 
  495000    1.1798014   -7.2143586    188.77215  0.031779823  0.032796418            1 
  496000    1.1810664   -7.1648619    189.34273  0.031811615  0.032785613            2 
  497000    1.1839388   -7.1837376    190.21707   0.03189421  0.032774953            2 
  498000    1.1934489   -7.1643487    190.17291  0.031822777  0.032764722            3 
  499000    1.1484858   -7.1992645    190.18666    0.0317613   0.03275387            3 
  500000    1.1810442   -7.1980811    190.56862  0.031761437  0.032743028            1 
  501000    1.1968398   -7.2263569    190.58463  0.031700703  0.032732061            1 
  502000    1.2004588   -7.2099491    191.72736  0.031827251  0.032721479            2 
  503000    1.1741439   -7.1681113    192.08501  0.031823228  0.032711279            1 
  504000    1.1483378   -7.2373154    191.90427  0.031730203  0.032701322            1 
  505000    1.1390909   -7.1940719    192.85387  0.031824071  0.032690325            2 
  506000    1.1715869   -7.2237167    192.42535  0.031690604  0.032679662            1 
  507000    1.1625281   -7.1702854    193.82487  0.031858131  0.032670076            1 
  508000    1.1687367   -7.2259052    192.98518  0.031657673  0.032660884            2 
  509000    1.1807765   -7.1863262    194.53993  0.031850021  0.032650417            1 
  510000    1.1762943   -7.1605243    194.33469  0.031754035  0.032639675            1 
  511000    1.1537589   -7.1975242    194.74076  0.031758114  0.032629127            1 
  512000    1.1485646   -7.2233712    194.49985  0.031656877  0.032618791            1 
  513000    1.1934875   -7.2133118    195.29346  0.031724083  0.032607936            1 
  514000    1.1837798   -7.1892499     195.7447  0.031735522  0.032597818            3 
  515000    1.1540535    -7.204196    195.47336  0.031629993  0.032587452            1 
  516000    1.1382317   -7.2393471       196.31  0.031703811  0.032577604            2 
  517000    1.1597734   -7.1469603    196.99627  0.031753107  0.032567589            2 
  518000    1.1611246   -7.1874634    197.36765  0.031751553  0.032557507            1 
  519000    1.1747671   -7.2091292    196.74427  0.031590281  0.032547222            1 
  520000    1.1796593   -7.2202612    196.68497  0.031520027  0.032536554            2 
  521000    1.1458296   -7.1700922    198.33949  0.031724167  0.032526118            2 
  522000    1.1725917   -7.2135113    197.52738  0.031533745  0.032515211            2 
  523000    1.1341282    -7.180595    198.23854  0.031586765  0.032504809            1 
  524000    1.1651553   -7.1603346    198.79685  0.031615275  0.032494636            1 
  525000    1.1482378   -7.1993631    199.66981  0.031693621  0.032484683            1 
  526000    1.1575487   -7.1967241    199.52293  0.031610096  0.032474542            1 
  527000    1.1738097   -7.1961944    199.60145  0.031562532  0.032463999            2 
  528000    1.1816092   -7.2576897    199.38644  0.031468819  0.032453581            1 
  529000    1.1573526   -7.2132557    200.26347  0.031547491  0.032443384            1 
  530000    1.1596137   -7.2146222    200.82462  0.031576197   0.03243391            1 
  531000    1.1827806   -7.2242685    201.33838   0.03159736  0.032424674            2 
  532000    1.1905198   -7.2187987    202.06043  0.031651069  0.032415289            1 
  533000    1.1663686   -7.1744613    202.42191  0.031648203  0.032406316            1 
  534000    1.1652974   -7.1865987    203.03285  0.031684277   0.03239771            2 
  535000    1.1797732   -7.1997959    203.34876  0.031674262  0.032389354            2 
  536000    1.1563668   -7.1986621    203.57397  0.031650182  0.032380994            2 
  537000    1.1525862   -7.1799594    204.76137  0.031775507  0.032373175            2 
  538000     1.167546   -7.1871634    205.02648  0.031757509  0.032365854            1 
  539000      1.12737   -7.2286829    204.48534  0.031614925  0.032357801            2 
  540000    1.1356042   -7.2337995    205.46764  0.031707969  0.032349965            2 
  541000    1.1688611   -7.2268883    205.41692  0.031641546   0.03234191            1 
  542000    1.1732608   -7.2371171    205.68842  0.031624911  0.032333386       -1e+20 
  543000    1.1673103   -7.2158229    205.98072  0.031611529  0.032325344            1 
  544000    1.1591813   -7.2067699     207.3215  0.031758809  0.032317162            1 
  545000    1.1526711   -7.1941403    207.10096  0.031666814  0.032308775            3 
  546000    1.1596482   -7.2520478    206.38948  0.031500225  0.032300188            1 
  547000    1.1393273   -7.1951724    206.88031  0.031517415  0.032291075            2 
  548000    1.1309168   -7.2267938    207.08489  0.031491011  0.032281635            2 
  549000    1.1748481   -7.2117737    207.63172  0.031516654  0.032272378            2 
  550000    1.1692009   -7.2134538    207.60227   0.03145489  0.032263285            1 
  551000    1.1570743   -7.2131857    208.73083  0.031568487  0.032254141            4 
  552000    1.1717752   -7.2110663     208.4561  0.031469822  0.032245019            2 
  553000    1.1521605   -7.2255294    209.46149   0.03156442  0.032236068            2 
  554000      1.17438   -7.1890874    209.15787  0.031461773  0.032226646            1 
  555000    1.1618189    -7.233628    209.44853  0.031448729  0.032217087            2 
  556000    1.1636168   -7.2247853    210.16078  0.031498918  0.032207723            1 
  557000    1.1817661    -7.214964      210.111  0.031434919  0.032198574            1 
  558000    1.1669954   -7.2307713    210.60481  0.031452331  0.032189577            2 
  559000    1.1777626   -7.1942308    211.18163  0.031482056  0.032180432            2 
  560000    1.1524904   -7.2147166    211.59569  0.031487454  0.032171746            1 
  561000    1.1733429   -7.1980311      211.348  0.031394534   0.03216242            1 
  562000    1.1463744   -7.2152261    212.41485  0.031496863  0.032153607            1 
  563000     1.132377   -7.1823794    212.80054  0.031498008  0.032144625            2 
  564000    1.1640354   -7.2098533    212.36234  0.031377415   0.03213514            1 
  565000    1.1659797   -7.2376594    212.41962  0.031330327   0.03212542            2 
  566000    1.1312195   -7.1818406    213.15932  0.031383881  0.032115509            1 
  567000    1.1833029   -7.1917608    213.39966  0.031363853  0.032105779            2 
  568000    1.1550836   -7.2175026    213.61153  0.031339719  0.032095917            3 
  569000    1.1686906    -7.245529    214.05203  0.031349155  0.032085893            2 
  570000    1.1775278    -7.221959    214.25755  0.031324203  0.032076455            1 
  571000    1.1552415   -7.2233552    213.95726   0.03122552  0.032067043            1 
  572000    1.1748182   -7.2208445    215.43301  0.031385928  0.032057636            1 
  573000    1.1735136   -7.2121539     215.5889  0.031353824  0.032048543            4 
  574000    1.1607267   -7.2564737    215.38916  0.031270203  0.032038939            2 
  575000    1.1818574   -7.2084185     216.3338  0.031352725  0.032029617            3 
  576000    1.1492294    -7.181342    216.45599  0.031315971  0.032020601            2 
  577000    1.1754268    -7.248188    216.51788  0.031270635  0.032011782            1 
  578000    1.1401815   -7.2568791    216.63688   0.03123369  0.032002668            2 
  579000    1.1656945   -7.1904548    217.97157  0.031371843   0.03199338            1 
  580000    1.1597873   -7.2185022    217.71268  0.031280557   0.03198437            2 
  581000    1.1647669   -7.2337535    218.74691  0.031375058  0.031975223            2 
  582000    1.1795981   -7.2493211    217.69565  0.031170626  0.031966442            1 
  583000    1.1663712   -7.2097217    218.66353  0.031255507  0.031957828            2 
  584000    1.1395089   -7.2586184    218.07099  0.031117435  0.031948622            2 
  585000    1.1622109   -7.2009324    220.60128  0.031424684  0.031940037            1 
  586000    1.1593566   -7.2210066    221.14402  0.031448239  0.031932175            2 
  587000    1.1485059   -7.2205622    220.68685  0.031329762  0.031924329            1 
  588000    1.1521274   -7.2118948     221.4546  0.031385289  0.031916586            2 
  589000    1.1680135     -7.20846     221.5633  0.031347383  0.031908744            1 
  590000    1.1445093   -7.2187222    222.29029  0.031396933  0.031901535            2 
  591000    1.1876293   -7.2517197    222.48673  0.031371508  0.031894054            2 
  592000    1.1723145   -7.2798151     222.3127  0.031294017  0.031886287            1 
  593000    1.1727635   -7.1990427    223.37257  0.031390186  0.031879283            1 
  594000    1.1623691   -7.2447954    223.88137  0.031408722   0.03187223            2 
  595000    1.1507918   -7.2302817    224.16263  0.031395326  0.031865139            1 
  596000    1.1489179   -7.2483774     224.0218  0.031322959  0.031858182            1 
  597000    1.1570629   -7.2451705    224.79139  0.031377916  0.031851593            1 
  598000    1.1633812   -7.2346493    225.60919  0.031439408  0.031845155            1 
  599000    1.1824897   -7.2491113    226.23002  0.031473291  0.031839549            1 
  600000    1.1512512   -7.2343441    226.94377  0.031519968  0.031833966            1 
  601000    1.1587991   -7.2440522    226.81761   0.03145003  0.031828193            3 
  602000     1.169607    -7.197997    227.96088  0.031556047  0.031822738            2 
  603000    1.1695697    -7.178438    228.73554  0.031610771  0.031817341            2 
  604000    1.1590177   -7.2176656    228.30574  0.031499136  0.031812121            2 
  605000    1.1503689   -7.2436919    228.57775  0.031484539  0.031806576            2 
  606000     1.170348   -7.2128259    228.93076  0.031481128  0.031801099            1 
  607000    1.1371583    -7.236646    229.77084  0.031544596  0.031795602            1 
  608000    1.1642005   -7.2562629     229.3465  0.031434553  0.031789668            1 
  609000    1.1439807   -7.2062094    229.84991  0.031451821  0.031783829            1 
  610000    1.1519942   -7.2222511    230.12798  0.031438249  0.031778077            1 
  611000    1.1763557    -7.241226    230.03945  0.031374721  0.031772323            1 
  612000    1.1407626   -7.2307652    230.32966  0.031362971  0.031766192            2 
  613000    1.1588015   -7.2161112    231.02067  0.031405746  0.031759679            1 
  614000    1.1515268   -7.2140705    231.38547  0.031404109  0.031753478            1 
  615000    1.1588211   -7.2563662    231.09518   0.03131371  0.031747351            1 
  616000    1.1770578    -7.218011    232.35941  0.031433903  0.031741178            1 
  617000    1.1607621   -7.2799001    231.62809  0.031284182  0.031735192            2 
  618000    1.1542096   -7.2394489    232.53406  0.031355726  0.031728701            1 
  619000    1.1153326     -7.26512     231.9992  0.031233064  0.031722084            2 
  620000    1.1595552   -7.2419244    232.92871  0.031307622  0.031715547            2 
  621000    1.1589008    -7.260335    233.66554  0.031356084    0.0317094            1 
  622000    1.1614387    -7.252636    233.81295  0.031325422  0.031703482            1 
  623000    1.1311083   -7.2078554    234.68302  0.031391523  0.031697641            1 
  624000    1.1686017   -7.2258049    235.08422  0.031394794   0.03169196            2 
  625000    1.1439786   -7.1949826    235.68996  0.031425328    0.0316865            1 
  626000    1.1487075   -7.2118872    236.54527  0.031488986  0.031681113            1 
  627000    1.1707028   -7.1989474    236.40512  0.031420139  0.031675491            1 
  628000    1.1702977   -7.2559698    236.00111  0.031316496  0.031669924            4 
  629000    1.1398853   -7.2561944    236.41379  0.031321382  0.031664297            1 
  630000    1.1599715   -7.2700422    236.13495  0.031234782   0.03165808            2 
  631000    1.1388077   -7.2360916    236.59022  0.031245407     0.031652            2 
  632000    1.1457965   -7.2314414    237.19207  0.031275326  0.031645622            2 
  633000    1.1569121   -7.2739346    236.90296  0.031187857  0.031638927            2 
  634000    1.1602941   -7.2226157     237.8509  0.031263262  0.031632754            2 
  635000    1.1702195   -7.2450432    237.60383  0.031181604  0.031626438            1 
  636000    1.1630477   -7.2442571    238.35324   0.03123077   0.03162043            2 
  637000    1.1688776   -7.2250615    238.78969  0.031238839  0.031613985            1 
  638000    1.1704441   -7.2974453    238.51223  0.031153636  0.031607679            2 
  639000    1.1205087   -7.2868244    239.06161  0.031176527  0.031601346            2 
  640000    1.1331675   -7.2065917    240.28447   0.03128704  0.031595301            4 
  641000    1.1515249   -7.2830782     240.0545  0.031208333  0.031589499            2 
  642000    1.1416511    -7.227233    241.03003  0.031286348  0.031583682            3 
  643000    1.1568037    -7.273372    240.32679  0.031146551   0.03157757            4 
  644000     1.158455   -7.3025594    240.83038  0.031163352  0.031571574            1 
  645000     1.127667    -7.275704    241.17029  0.031158952  0.031565701            1 
  646000    1.1470754   -7.2707184    241.10215  0.031101928  0.031559196            4 
  647000    1.1303226   -7.2324499    242.22539   0.03119853  0.031552797            2 
  648000    1.1484231   -7.2416666    242.30335   0.03116041  0.031546751            1 
  649000    1.1401316   -7.2394885    243.78575  0.031302741  0.031540676            1 
  650000    1.1378392   -7.2433642     242.3495  0.031070449  0.031534655            2 
  651000    1.1736557   -7.2622563    243.64082  0.031188021  0.031528513            1 
  652000     1.160211   -7.2379073    243.47311  0.031118751  0.031522597            1 
  653000    1.1066786   -7.2797843    243.76531  0.031108385  0.031516368            2 
  654000     1.142702   -7.2329645     245.1419  0.031236225  0.031510199            1 
  655000    1.1340795    -7.206275    245.74476  0.031265237  0.031504414            3 
  656000    1.1566589   -7.2321664    245.98739  0.031248398  0.031498705            2 
  657000    1.1559063   -7.2593271    245.88703  0.031188106  0.031493013            1 
  658000    1.1450955      -7.2764    245.67588  0.031113967  0.031487226            3 
  659000    1.1533814   -7.2450121    246.48814  0.031169466  0.031481711            1 
  660000     1.151156   -7.2954451    245.97709  0.031057714  0.031476178            3 
  661000    1.1375184   -7.2745265    247.33738  0.031182222  0.031470321            3 
  662000    1.1218849   -7.3002426    247.52076  0.031158203  0.031464767            1 
  663000    1.1326257   -7.2154705    248.35805  0.031216446  0.031459579            1 
  664000    1.1265586   -7.2453657    248.50064   0.03118733  0.031454333            3 
  665000    1.1352594   -7.2842632    248.17035  0.031099042  0.031448939            2 
  666000    1.1515462   -7.2662162    249.15703  0.031175804  0.031443102            2 
  667000    1.1289213   -7.2518839     249.3606  0.031154497  0.031437318            3 
  668000    1.1591896   -7.2591829    249.93875  0.031179984  0.031431964            3 
  669000    1.1421379   -7.2885774    249.87316  0.031125207  0.031426611            2 
  670000    1.1561058   -7.2719738    249.41133  0.031021309  0.031421286            2 
  671000    1.1170744   -7.3302774     249.5934   0.03099769  0.031415553            1 
  672000    1.1322228   -7.2819086    250.45546  0.031058465  0.031409636            1 
  673000    1.1234341   -7.2386782    251.72891  0.031169999  0.031404008            3 
  674000    1.1695212   -7.2598435    252.20139   0.03118217  0.031398297            3 
  675000    1.1503491   -7.2671133    252.43796   0.03116518  0.031392743            4 
  676000    1.1730238   -7.2761762    252.73535  0.031155738  0.031387598            4 
  677000    1.1419093   -7.3199069    252.14315  0.031036823  0.031382121            1 
  678000    1.1430157   -7.2571624    253.33471  0.031137501  0.031376497            4 
  679000     1.141698   -7.2534043    253.33295  0.031091428  0.031371018            2 
  680000    1.1470683   -7.2131872    254.15724  0.031146721  0.031365802            1 
  681000    1.1343714    -7.290333    254.12428   0.03109695  0.031361018            3 
  682000     1.148066   -7.2589359    255.27059  0.031191421  0.031356538            1 
  683000    1.1428986   -7.2774394    255.24668  0.031142836  0.031352136            3 
  684000    1.1276413   -7.2575493    255.48285  0.031126078  0.031348198            2 
  685000    1.1558625   -7.2343637    257.02534  0.031268289  0.031343812            3 
  686000    1.1144655   -7.2944797     256.2372  0.031126969  0.031339572            1 
  687000    1.1424141   -7.2845447    256.68792  0.031136332  0.031334995            2 
  688000     1.108271   -7.2711801    257.96492  0.031245751  0.031330725            2 
  689000     1.135769    -7.221933    258.52942  0.031268676  0.031326995            1 
  690000    1.1481576   -7.2749784    257.93443  0.031151501  0.031322919            3 
  691000    1.1501526   -7.2546007    258.40536  0.031163212  0.031318597            3 
  692000    1.1386319   -7.2363334    259.13645   0.03120622  0.031314303            1 
  693000    1.1626962   -7.2737691    259.54582  0.031210416  0.031309706            2 
  694000     1.141977   -7.3220454    258.73237  0.031067768  0.031304815            1 
  695000    1.1384661   -7.2783978    259.24801  0.031084893  0.031300009            1 
  696000    1.1380804    -7.311363    259.63811  0.031086938  0.031295088            3 
  697000    1.1318126    -7.254851    259.87373  0.031070508  0.031289923            2 
  698000    1.1345409   -7.2333931    260.01583  0.031042959  0.031285284            4 
  699000    1.1403027   -7.2265689    259.65575  0.030955621   0.03128029            2 
  700000    1.1150119   -7.2963547    260.77643  0.031044813  0.031275017            2 
  701000    1.1475389   -7.2390332    261.05984  0.031034218  0.031269654            2 
  702000    1.1589882   -7.3428496    260.89245  0.030970138  0.031264099            2 
  703000    1.1579399   -7.2612497      261.514  0.030999763  0.031258716            3 
  704000    1.1237867   -7.2796799    261.61603  0.030967806  0.031253386            2 
  705000    1.1196138   -7.2747026     262.3713  0.031013157  0.031248041            2 
  706000    1.1470475    -7.284864    262.98712  0.031041916  0.031242934            2 
  707000     1.123183   -7.2647947    262.82826  0.030979286   0.03123765            1 
  708000    1.1458164   -7.2991745    262.92524  0.030946944  0.031232119            3 
  709000    1.1258222   -7.2485814    263.67285  0.030991167   0.03122696            1 
  710000    1.1371351   -7.2678207    263.34439  0.030908966  0.031221576            1 
  711000    1.1215546   -7.2409518    264.63631  0.031016914  0.031216478            3 
  712000    1.1518688   -7.2836437    264.85307   0.03099872  0.031211396            1 
  713000    1.1703435    -7.258839    265.03351  0.030976334   0.03120628            1 
  714000    1.1265352   -7.3105547    265.57583  0.030996245  0.031201139            1 
  715000    1.1354807   -7.2919094    265.21387  0.030910708   0.03119592            5 
  716000    1.1525629   -7.2670696     266.4973  0.031016911  0.031190665            3 
  717000    1.1522708   -7.2862775     266.6052  0.030986192  0.031185665            3 
  718000    1.1735436   -7.2599095    267.49897   0.03104677  0.031181165            2 
  719000    1.1382475   -7.2892581     268.2581  0.031091574  0.031176963            1 
  720000    1.1504679   -7.3033517    268.04106  0.031023271   0.03117293            3 
  721000    1.1298991   -7.3178459    268.28642  0.031008601  0.031168776            1 
  722000    1.1718956    -7.308937    268.66315  0.031009135  0.031164903            4 
  723000    1.1501207   -7.2777395    270.03143  0.031123954  0.031160862            1 
  724000    1.1180756    -7.245863    269.54623  0.031025119   0.03115686            1 
  725000    1.1504353   -7.2788111    270.72862  0.031118232  0.031152694            1 
  726000    1.1490174   -7.3003141    269.96994  0.030988285  0.031149083            3 
  727000    1.1077633   -7.3028746    271.23157  0.031090276  0.031145257       -1e+20 
  728000    1.1447143   -7.2362698    272.00987  0.031136661  0.031141298            1 
  729000    1.1341433   -7.2858761    271.40143  0.031024398  0.031137186            1 
  730000    1.1406354   -7.2874164     272.2767  0.031081816  0.031133208            1 
  731000    1.1472114   -7.3014321    272.27598  0.031039213  0.031129303            2 
  732000    1.1631407   -7.2007177    273.88757  0.031180278  0.031125591            2 
  733000    1.1121038   -7.2405563    273.56032  0.031100537  0.031122081            2 
  734000    1.1325914   -7.2708844    273.17372  0.031014274  0.031118211            3 
  735000    1.1422806    -7.313504    271.82852   0.03081956  0.031113868            6 
  736000    1.1614237   -7.2707203    274.67856  0.031100381  0.031109484            1 
  737000    1.1357758   -7.2864781    274.33949  0.031019843  0.031105183            1 
  738000     1.094796   -7.2491469    275.36196  0.031093266   0.03110101            1 
  739000    1.1360655    -7.311044     275.3286  0.031047429  0.031096878            2 
  740000    1.1280117    -7.264111    275.67206  0.031044151  0.031092939            2 
  741000    1.1225687   -7.2887297    275.58036  0.030991943  0.031089105            1 
  742000    1.1083821   -7.2958931    276.26048  0.031026559  0.031084869            1 
  743000    1.1292945   -7.3040819    275.79846  0.030932981  0.031080674            2 
  744000    1.1322793    -7.319099    276.19158  0.030935437   0.03107626            1 
  745000    1.1375179   -7.3019741    276.19791  0.030894621  0.031071936            1 
  746000    1.1596781    -7.347317    276.75577  0.030915524  0.031067258            2 
  747000    1.1595608   -7.2504277     277.8743  0.030998918  0.031062872            3 
  748000    1.1458744   -7.3110225    277.52731  0.030918818  0.031058843            3 
  749000    1.0927462   -7.3174503    277.78501   0.03090621  0.031054524            1 
  750000    1.1414105   -7.2675065    278.90493  0.030989437  0.031050202            2 
  751000    1.1167365   -7.2121513    278.99278   0.03095792  0.031046119            2 
  752000    1.1309123   -7.3010949    278.66697  0.030880648  0.031041608            1 
  753000    1.1539957   -7.2962401    278.73258  0.030846899  0.031036926            3 
  754000    1.1126308   -7.2506509    280.49367  0.031000626  0.031032467            1 
  755000    1.1391957    -7.271628    280.29437  0.030937568  0.031028218            2 
  756000    1.1520349   -7.2794777    280.58944  0.030929171  0.031024097            1 
  757000    1.1334508   -7.2927331    280.90907  0.030923499  0.031020145            1 
  758000    1.1026159   -7.3052434      281.459  0.030943162  0.031016363            1 
  759000    1.1263868   -7.3025587    281.69429  0.030928226  0.031012346            2 
  760000    1.1476901   -7.2546195     282.6645  0.030993914  0.031008653            2 
  761000    1.1468983   -7.3184766    282.03487  0.030884239  0.031004704            1 
  762000    1.1063362   -7.2549938    282.82767   0.03093041  0.031000448            3 
  763000    1.1462294   -7.2884987    282.62063   0.03086726  0.030996024            1 
  764000    1.1592972    -7.352133    282.11984  0.030772233  0.030992099            1 
  765000    1.1336296   -7.3020322     283.2033  0.030850033  0.030987835            2 
  766000    1.1342346   -7.3099236    283.17904  0.030807119  0.030983526            1 
  767000    1.1494986   -7.3310693    283.03222  0.030751001   0.03097902            1 
  768000      1.10389   -7.3167605    283.90353  0.030805504  0.030974741            1 
  769000    1.1165872    -7.293018    285.30587  0.030917412  0.030970191            2 
  770000    1.1328884   -7.3069312    284.74756  0.030816836  0.030965824            2 
  771000    1.1289515   -7.2814141     284.5952  0.030760398   0.03096129            1 
  772000    1.1152774    -7.287011    285.44101  0.030811854  0.030956836            1 
  773000    1.1166227   -7.2572263    286.15507  0.030848972   0.03095255            3 
  774000    1.1072342   -7.3415481    285.22156  0.030708609  0.030947814            2 
  775000    1.1292539   -7.2912536    286.16078  0.030769976  0.030942883            1 
  776000    1.1634728   -7.2742961    287.17363  0.030839092   0.03093812            1 
  777000    1.1596356   -7.3301123    286.39392  0.030715779  0.030933696            3 
  778000    1.1346872   -7.2808695    287.04989   0.03074656  0.030928747            3 
  779000    1.1400655   -7.2493229    287.40566   0.03074515  0.030923785            1 
  780000    1.1209966   -7.3183317    287.18245  0.030681885  0.030918942            1 
  781000     1.132002   -7.2987351    288.13029  0.030743736  0.030913844            2 
  782000    1.1268992   -7.2728179    287.97513  0.030687886  0.030908808            1 
  783000    1.1263378   -7.2985502    287.84876  0.030635245   0.03090401            1 
  784000    1.1381702    -7.313125    288.68549  0.030685108  0.030898617            2 
  785000    1.1308303   -7.2998274    288.68371  0.030645829  0.030893319            2 
  786000    1.1457716    -7.302737    289.59874  0.030703853  0.030888297            2 
  787000    1.1199765   -7.3383923    288.92805  0.030593822  0.030883015            1 
  788000    1.1260984    -7.274554    290.75903  0.030748628  0.030878026            1 
  789000    1.1048441   -7.2864647    291.80983  0.030820641  0.030872914            3 
  790000    1.1065282    -7.337011    290.09265  0.030600491   0.03086784            1 
  791000    1.1260563   -7.2811606    290.91007  0.030647921  0.030862692            3 
  792000    1.1180437   -7.3034121    290.72263  0.030589502  0.030858057            1 
  793000     1.095673   -7.2526175    292.79127  0.030768314  0.030853694            1 
  794000    1.1242263   -7.3014422    292.92639  0.030743744  0.030849283            1 
  795000    1.1143951   -7.3376174    292.29888  0.030639296  0.030844543            2 
  796000    1.1285174   -7.2904056    293.73988  0.030751662  0.030839762            1 
  797000    1.1318503   -7.2908005     293.2946   0.03066652  0.030835288            1 
  798000    1.1181102   -7.3056674    294.34189  0.030737458  0.030830802            1 
  799000    1.1215705   -7.2639423    294.49848  0.030715319  0.030826266            1 
  800000    1.1438995   -7.3093794    294.08764   0.03063413  0.030821495            2 
  801000    1.1219184   -7.2659139    295.07504   0.03069861  0.030816831            2 
  802000    1.0995286   -7.2860098    295.47626  0.030702022  0.030812481            3 
  803000    1.0956848   -7.2928372    295.78247  0.030695565   0.03080794            3 
  804000    1.1239515   -7.3165765    295.19252  0.030596239  0.030803177            2 
  805000    1.1288579   -7.3156089    295.33166  0.030572636  0.030798619            1 
  806000    1.1184402   -7.3383454    295.87733  0.030591122  0.030793739            2 
  807000    1.1363248   -7.3077224    296.14166   0.03058051  0.030788985            2 
  808000    1.1078303   -7.2918227    296.23352  0.030552136  0.030784241            1 
  809000    1.1141228    -7.322201    296.42441  0.030534034  0.030779348            1 
  810000      1.10136   -7.3136323    296.79628  0.030534596  0.030774455            3 
  811000    1.1110184   -7.2821281     297.3122  0.030549959  0.030769251            2 
  812000    1.1262662    -7.299129    297.24496  0.030505435   0.03076415            1 
  813000    1.1128922   -7.3147454    298.09608  0.030555153  0.030758897            1 
  814000    1.1310774    -7.280195    298.67902  0.030577295  0.030753743            1 
  815000     1.119219    -7.263988     298.6223  0.030533977  0.030748737            1 
  816000    1.0926633   -7.3439827    298.12832  0.030446111  0.030743354            1 
  817000    1.1171095   -7.3069285    298.88404  0.030485928  0.030737854            1 
  818000    1.1178808   -7.3272166    299.44497  0.030505804  0.030732649            2 
  819000    1.1177252   -7.3029199    300.45554  0.030571382  0.030727193            2 
  820000    1.1386109   -7.3587739    299.69289  0.030456594  0.030721772            2 
  821000    1.1057498   -7.3001751    300.28489  0.030479586  0.030715931            3 
  822000    1.1528443   -7.3237209    299.48731   0.03036165  0.030710372            4 
  823000    1.1071396   -7.3509973    299.80402  0.030356826  0.030704293            2 
  824000    1.1218564   -7.3136847     301.3032  0.030471602  0.030698391            1 
  825000    1.1044932   -7.3204388    301.55018  0.030459615   0.03069236            1 
  826000    1.1371068   -7.3321102    301.08951  0.030376262  0.030686682            2 
  827000    1.1313423   -7.2887876    301.91712  0.030422926  0.030681108            3 
  828000    1.1326833   -7.2903787    303.00517   0.03049569  0.030675677            2 
  829000    1.1297992   -7.2963009    303.70976   0.03052973  0.030670596            4 
  830000    1.1216057   -7.2977588     303.4798  0.030469859  0.030665176            1 
  831000     1.137459   -7.3275835    303.52636  0.030437862  0.030659829            4 
  832000    1.0852084   -7.3356513    304.18822  0.030467571  0.030654437            1 
  833000    1.1247348   -7.2939474    303.72927  0.030385081  0.030649078            1 
  834000    1.1333573   -7.3488768    304.55723  0.030431378  0.030643944            1 
  835000    1.1225634   -7.3243529    305.49818   0.03048884  0.030638589            1 
  836000    1.1299331   -7.2950421    305.38822   0.03044141  0.030633454            2 
  837000    1.1006528   -7.2962291    306.61335  0.030527016  0.030628199            2 
  838000    1.1646621   -7.2794556    306.14534  0.030444047  0.030623183            3 
  839000    1.1117022   -7.3134319     306.3314  0.030426242  0.030618188            1 
  840000    1.1201386   -7.3180019    305.82891  0.030340169  0.030613037            1 
  841000    1.1278171   -7.3165108    306.33848  0.030354585  0.030607793            2 
  842000    1.1331607   -7.3213882    307.06828  0.030390764  0.030602537            3 
  843000    1.1371832   -7.2812274    308.11345  0.030458032  0.030597112            1 
  844000    1.1220642   -7.3708898    307.83761  0.030394709  0.030591787            1 
  845000    1.0959602   -7.3200358    308.07654  0.030382302  0.030586343            1 
  846000    1.1317221   -7.3249112    308.27003  0.030365448  0.030580839            1 
  847000    1.1241891   -7.3370152    307.73011  0.030276477  0.030575698            3 
  848000    1.1053926   -7.3375115    308.30816  0.030297578  0.030570537            1 
  849000    1.1106402   -7.3450813    308.56915   0.03028751   0.03056512            2 
  850000    1.1116474   -7.3569722    309.72288  0.030364988  0.030559962            2 
  851000    1.1263093   -7.3426339    308.86095  0.030244903  0.030554645            2 
  852000    1.1174788   -7.2993466    310.10091  0.030330683  0.030549368            1 
  853000    1.1134151   -7.2962256    311.17943  0.030400491  0.030544155            1 
  854000    1.1135108   -7.3136888    310.42242  0.030291024  0.030538896            5 
  855000    1.1228412   -7.3104185    310.96412  0.030308393  0.030533775            3 
  856000    1.1023914   -7.3564295    311.35209  0.030310756  0.030528623            4 
  857000    1.1200338   -7.3303048    312.31591  0.030369108  0.030523558            1 
  858000    1.1202704   -7.3311783    312.04782  0.030307675   0.03051846            3 
  859000     1.122637   -7.3345659    312.57679  0.030323709  0.030513125            1 
  860000    1.1196508    -7.317537    311.77807  0.030211053  0.030507925            1 
  861000    1.1042881   -7.3027392    313.99792  0.030390817  0.030502718            3 
  862000    1.0950595   -7.2877122    312.66311  0.030226518  0.030497289            5 
  863000    1.1176536   -7.3162661    313.90003  0.030310933  0.030491851            1 
  864000    1.1308368   -7.3181093    312.68873  0.030159021   0.03048612            3 
  865000    1.0980427   -7.3301526    313.03182  0.030157208  0.030480392            2 
  866000    1.1010071   -7.3539276    312.67081  0.030087645  0.030474349            1 
  867000    1.1210256   -7.3469359    314.05047  0.030185551  0.030468324            2 
  868000    1.1147495   -7.3658264     313.0467  0.030054407  0.030462182            2 
  869000    1.1280613   -7.3281651    313.60466  0.030073327  0.030456083            3 
  870000    1.0884053   -7.3342381    315.10818  0.030182775  0.030450035            1 
  871000    1.1125502   -7.3705034    314.12293  0.030053859  0.030444058            2 
  872000    1.1225793   -7.3803575    314.27623  0.030034044  0.030437957            2 
  873000    1.1182547   -7.3653955    314.79863  0.030049506  0.030431929            2 
  874000    1.1391303   -7.3298809    315.66307  0.030097547   0.03042613            2 
  875000    1.0856828   -7.3365702    316.04654   0.03009967  0.030420147            1 
  876000     1.129148    -7.358361    317.13824  0.030169163  0.030414073            1 
  877000    1.1019723   -7.3503206    316.39619  0.030064252   0.03040796            2 
  878000    1.1250105   -7.3231506    316.10421  0.030002298   0.03040163            1 
  879000    1.0977327   -7.3459497    316.37699  0.029994027  0.030395362            1 
  880000    1.1123681   -7.3922202    316.73247  0.029993605  0.030389057            1 
  881000    1.1437018   -7.3729782    317.59797  0.030041427  0.030382547            2 
  882000    1.0975865   -7.3098034     318.7656  0.030117687  0.030376045            4 
  883000    1.1193379   -7.3416433    317.09456  0.029925874  0.030369556            2 
  884000    1.1156023   -7.3538724    318.13088  0.029989714  0.030363252            1 
  885000    1.0998261   -7.3718799    318.81761   0.03002049  0.030356942            2 
  886000    1.0907374   -7.3223317    319.56411   0.03005682  0.030350849            2 
  887000    1.0939485   -7.3363507    319.62037  0.030028219  0.030344735            2 
  888000    1.0944775    -7.349582    320.43134  0.030070508  0.030338695            2 
  889000    1.1302996   -7.3725525    319.46706  0.029946293  0.030332318            1 
  890000    1.1222349   -7.3335569    320.44717  0.030004417  0.030326394            2 
  891000    1.0963087   -7.3694297    322.20879  0.030135502  0.030320582            2 
  892000    1.1113839    -7.349492    322.17853  0.030098891  0.030315117            1 
  893000    1.1017159   -7.3552258    322.34063  0.030080313   0.03030943            1 
  894000    1.1141381   -7.3264685    321.90518  0.030006076  0.030303791            2 
  895000    1.1205822   -7.3342472    322.59609   0.03003688  0.030297945            1 
  896000     1.102176   -7.3674804    322.77875  0.030020345   0.03029212            2 
  897000    1.1008474   -7.3830672    322.69919  0.029979487  0.030286286            3 
  898000    1.0767346   -7.3431944    323.93275  0.030060574  0.030280573            2 
  899000    1.0981511   -7.3144823    324.28735  0.030060006  0.030275001            2 
  900000    1.1057579   -7.3425264      323.537  0.029957129  0.030269545            2 
  901000    1.0868657      -7.2992    324.94452  0.030054062  0.030264217            2 
  902000      1.10868   -7.3600531    323.90111  0.029924345  0.030258493            6 
  903000     1.108816    -7.353638    325.30169  0.030020459  0.030252693            2 
  904000    1.1192884    -7.344822    325.44505  0.030000466  0.030246916            2 
  905000    1.1050494   -7.3606736    325.40109  0.029963268  0.030240999            6 
  906000    1.1189793   -7.3757461    327.16984  0.030092884   0.03023518            2 
  907000     1.095389   -7.3300381     326.0754  0.029959151   0.03022939            1 
  908000    1.1208475   -7.3414762    327.13024  0.030022967  0.030223857            2 
  909000    1.0874811   -7.3565895    326.35637  0.029918992  0.030218285            2 
  910000    1.1040672   -7.3637983    327.19792  0.029963179  0.030212896            3 
  911000    1.1239265   -7.3505213    327.71231  0.029977343  0.030207121            2 
  912000     1.108226   -7.3453359    326.78476  0.029859718  0.030201634            1 
  913000    1.1118239   -7.3724835    327.95777  0.029934079   0.03019594            3 
  914000    1.1153918   -7.3265502    328.13227  0.029917238  0.030190269            2 
  915000     1.113843   -7.3277616    329.27731  0.029988826  0.030184487            1 
  916000     1.112415   -7.3746387    328.13323  0.029852004  0.030178492            1 
  917000    1.0998791    -7.346523    329.05838  0.029903524   0.03017246            1 
  918000    1.1256744   -7.3808945    329.30759  0.029893572  0.030166469            2 
  919000     1.092485   -7.3633137    330.25804  0.029947229  0.030160719            1 
  920000    1.0969894   -7.3653742    330.12832  0.029902928  0.030154958            1 
  921000    1.1061819   -7.3424541    330.78866  0.029930208   0.03014922            4 
  922000    1.0702938   -7.3576491    330.60048  0.029880738  0.030143447            3 
  923000    1.1211772   -7.3518756    331.61284  0.029939765  0.030137637            2 
  924000    1.0994314   -7.3174126    331.62764  0.029908697  0.030132136            1 
  925000    1.1011377   -7.3191842    331.52087  0.029866745   0.03012634            2 
  926000    1.0903377    -7.344018    332.05053  0.029882157  0.030120533            1 
  927000     1.088873   -7.3916922    331.79557  0.029827002  0.030114512            3 
  928000    1.0723804   -7.3388993    332.09987  0.029822187  0.030108397            1 
  929000    1.1107699   -7.4072468    331.33464  0.029721442  0.030102429       -1e+20 
  930000    1.1118607   -7.3682355     332.7445  0.029815816  0.030096155            1 
  931000    1.0928789   -7.3795311     332.1742  0.029732742  0.030090005            1 
  932000     1.112774    -7.351813    333.40094  0.029810527   0.03008418            2 
  933000    1.1132693   -7.3214455    333.39391  0.029777948  0.030078108            1 
  934000      1.08661   -7.3494034    334.11138  0.029810081  0.030072094            1 
  935000    1.0897297   -7.2973622    335.07049   0.02986368  0.030066254            1 
  936000    1.1072456   -7.3742526       333.66  0.029706197  0.030059977            2 
  937000    1.0826675   -7.3661601    334.24725  0.029726721  0.030053954            1 
  938000    1.1155165   -7.3474005    335.20516  0.029780132  0.030047507            3 
  939000    1.1074178   -7.3747963    333.67541  0.029612657  0.030040806            1 
  940000    1.0942895    -7.350554     334.6044   0.02966351  0.030034146            1 
  941000    1.0781527   -7.3360579    335.69163   0.02972827  0.030027833            1 
  942000    1.0900843   -7.3478909    334.39386  0.029581906  0.030021031            3 
  943000    1.0952208   -7.3585779    334.78512  0.029585112   0.03001396            2 
  944000    1.1001743    -7.356997    335.69065  0.029633708  0.030007266            3 
  945000     1.110217   -7.3845649    335.71111  0.029604154  0.030000717            2 
  946000    1.0912286   -7.3278861     336.4645  0.029639227  0.029994072            3 
  947000    1.0987204   -7.3750076    336.20288  0.029584906  0.029987503            2 
  948000     1.101407   -7.3836297    336.47287  0.029577432   0.02998075            4 
  949000    1.1145907   -7.3696905    337.38265  0.029626154  0.029974092            2 
  950000    1.0949643   -7.3506408    337.18642  0.029577757  0.029967458            1 
  951000    1.0735717   -7.3691896    337.71223   0.02959273  0.029960713            2 
  952000    1.0997888   -7.3534975    337.42282  0.029536311  0.029953852            2 
  953000    1.0886097   -7.3498685    337.74585  0.029533565  0.029946994            1 
  954000    1.0959152   -7.4046273    336.84617  0.029424019  0.029939877            2 
  955000      1.10492    -7.363336    337.83848  0.029479798  0.029932795            1 
  956000     1.071959   -7.3698679    337.67883  0.029435044  0.029925347            3 
  957000    1.1282493   -7.3561147    337.91543   0.02942489  0.029918228            5 
  958000    1.0899676   -7.3388798    339.21514  0.029507232  0.029910929            2 
  959000     1.131087   -7.3438581    338.47822  0.029412428  0.029903816            2 
  960000    1.1146182   -7.4155134    338.73037  0.029403678  0.029896493            3 
  961000    1.0916221   -7.3581923    340.44217   0.02952152  0.029889134            1 
  962000     1.096611   -7.3576341    339.45192  0.029405052  0.029881808            3 
  963000    1.0843628   -7.3746873    341.34293  0.029538156  0.029874451            3 
  964000    1.0644063   -7.3698533    338.99746   0.02930476  0.029867082            2 
  965000    1.1023866   -7.3615637    340.53053  0.029406781  0.029859785            3 
  966000    1.1080166   -7.3611311    341.47701  0.029457989  0.029852853            1 
  967000    1.0974878   -7.3731524    340.91659   0.02937923  0.029845844            2 
  968000    1.0865461   -7.3978174    339.89189  0.029260666  0.029838584            3 
  969000    1.0777417    -7.409749     341.1552  0.029339112  0.029831158            2 
  970000    1.0742296   -7.3524805    342.70043  0.029441618  0.029823992            3 
  971000    1.1136069   -7.3513309    342.18875  0.029367383  0.029817015            2 
  972000    1.1026437   -7.3889456    341.93361  0.029315296  0.029809837            3 
  973000    1.0773931   -7.3877706    342.68014  0.029349104  0.029802566            2 
  974000    1.0823647   -7.3852352    341.55016  0.029222293  0.029795259            1 
  975000    1.1039032   -7.3864474    342.88776  0.029306646  0.029787887            2 
  976000    1.1173478   -7.3580112    344.24979  0.029392913   0.02978056            1 
  977000    1.0817167   -7.3644066    342.65364  0.029226684  0.029773158            2 
  978000     1.083184   -7.3485903    343.39098  0.029259626  0.029765714            1 
  979000    1.0994527   -7.4183611    343.32689  0.029224284  0.029758131            1 
  980000    1.1194688   -7.3512756    345.13128  0.029347898  0.029750784            3 
  981000    1.0929555   -7.3648399    345.04474   0.02931063  0.029743562            4 
  982000    1.0993965   -7.4113761    345.21481  0.029295215  0.029736184            2 
  983000    1.1003305   -7.3555553    345.37954  0.029279377  0.029728723            1 
  984000    1.1075551   -7.3580168    345.99605  0.029301833  0.029721275            2 
  985000    1.0878337   -7.3688646    346.15497   0.02928553  0.029714099            1 
  986000    1.1143667   -7.3943917    345.16245  0.029171945  0.029706841            2 
  987000    1.0844128   -7.4237226    345.96422  0.029210083  0.029699464            1 
  988000     1.106605   -7.3686542    347.15583  0.029281025  0.029692016            1 
  989000    1.0898024   -7.3580876    347.88911  0.029313204  0.029684855            4 
  990000     1.125407   -7.3900855    347.14674  0.029221106  0.029677865            1 
  991000    1.1058215   -7.4027444    347.18151  0.029194543  0.029670687            1 
  992000     1.088358   -7.3909595    347.35741   0.02917989  0.029663352            2 
  993000    1.1057061   -7.3778514    348.66667  0.029260379  0.029656087            3 
  994000    1.0908299   -7.3712952    349.34315  0.029287655  0.029649039            3 
  995000     1.091066   -7.3539116    348.52913  0.029190045  0.029641885            5 
  996000    1.0838936   -7.3941932     348.4257  0.029152083  0.029634482            1 
  997000    1.0956128   -7.3923037    347.98312  0.029085851  0.029627015            3 
  998000    1.0789054   -7.3386674     350.2154  0.029243103  0.029619829            1 
  999000    1.0830693   -7.3393293     350.5532  0.029242008  0.029612718            4 
 1000000    1.0937409   -7.3887911    349.06818  0.029089015  0.029605533            2 
 1001000      1.07326   -7.3991164    349.63908  0.029107483   0.02959842            2 
 1002000    1.0915721   -7.4193592    350.21343    0.0291262   0.02959111            1 
 1003000    1.1052514   -7.4390118     350.1319  0.029090388  0.029583674            2 
 1004000    1.0838636   -7.4010817    350.60433  0.029100625  0.029576298            2 
 1005000    1.0833266   -7.3967548    350.94706  0.029100088  0.029568734            2 
 1006000    1.0981707   -7.3628018    351.44234  0.029112189  0.029561334            4 
 1007000    1.0681369   -7.3862209    351.79796  0.029112707  0.029554003            6 
 1008000    1.1115318   -7.4115626    350.77822  0.028999522   0.02954655            3 
 1009000    1.1236028   -7.3814678    351.85512  0.029059723  0.029539119            2 
 1010000    1.0857381   -7.3791188    352.81084  0.029109805  0.029531859            3 
 1011000    1.0802643   -7.3954375    351.93836  0.029009097  0.029524531            3 
 1012000    1.0874221   -7.3963983    354.34728  0.029178795  0.029517258            2 
 1013000    1.0698658    -7.399916    353.60815  0.029089187  0.029510119            1 
 1014000    1.1041818   -7.4157306    352.81708  0.028995486  0.029502661            2 
 1015000    1.0834666    -7.364799    354.69624  0.029121202  0.029495459            2 
 1016000    1.0955303   -7.4163029    353.59565  0.029002268  0.029488101            1 
 1017000    1.0805715   -7.3856094    353.92624  0.029000839  0.029480843            1 
 1018000    1.0994038    -7.388827    353.73428  0.028956637  0.029473493            1 
 1019000    1.0661991   -7.3623493    355.19313  0.029047524  0.029466194            3 
 1020000    1.0877548   -7.4108604    355.40525  0.029036377  0.029458952            1 
 1021000    1.0991693   -7.4233247    354.49516  0.028933657  0.029451496            4 
 1022000     1.078649   -7.3936377    355.51661  0.028988634   0.02944421            4 
 1023000    1.0926641   -7.3644401    356.31903  0.029025662  0.029436888            2 
 1024000    1.0888887    -7.378628    357.34433  0.029080756  0.029429785            2 
 1025000    1.0798747   -7.4004816    356.18581  0.028958196  0.029422433            2 
 1026000    1.0715125   -7.3687767    356.57309  0.028961427  0.029415289            4 
 1027000    1.0888055   -7.3706538     357.4024  0.029000519  0.029408161            5 
 1028000    1.0862093    -7.406452    358.44122  0.029056519     0.029401            1 
 1029000    1.0822274   -7.3756791    357.99588  0.028992216  0.029393734            1 
 1030000    1.0819161   -7.4307939    357.45093  0.028919978  0.029386706            1 
 1031000    1.0639234   -7.4092128    359.80698  0.029082362  0.029379505            3 
 1032000    1.0791589   -7.3932898    358.94436  0.028984525   0.02937232            1 
 1033000    1.0790728   -7.3876451    359.29039  0.028984381  0.029365201            3 
 1034000    1.0948522   -7.3774056    360.12247   0.02902341   0.02935817            2 
 1035000    1.0724722   -7.4040329    360.34041  0.029012916  0.029351489            2 
 1036000    1.0748211   -7.3963247    360.61628  0.029007101  0.029344653            1 
 1037000    1.0761213   -7.3892632    361.66446   0.02906336  0.029337584            2 
 1038000    1.0895378   -7.4248352    360.11963  0.028911339  0.029330648            4 
 1039000    1.0654939   -7.4090818     359.6712  0.028847546  0.029323699            1 
 1040000    1.0870434   -7.4006394    361.51423  0.028967487   0.02931683            1 
 1041000    1.0671835   -7.3691045    361.80131  0.028962641  0.029309998            1 
 1042000    1.0855474   -7.4316451    361.75258  0.028930949  0.029303032            2 
 1043000    1.1016246   -7.3961756    362.83963  0.028990063  0.029296228            1 
 1044000    1.0664914   -7.4104877    362.93329  0.028969771  0.029289378            1 
 1045000    1.0627147   -7.3970138    361.89589  0.028859322  0.029282267            2 
 1046000    1.1011668   -7.4365066    362.38953  0.028871059  0.029275232            2 
 1047000    1.0846105   -7.4007626    364.54846  0.029015319  0.029268216            2 
 1048000    1.0753038   -7.3708839     363.7276   0.02892236   0.02926143            1 
 1049000     1.098443   -7.4026547    364.60244  0.028964287  0.029254812            2 
 1050000    1.0845254   -7.4346137    364.35926  0.028917401  0.029248112            1 
 1051000    1.0730886   -7.4037337     364.4712  0.028898763  0.029241649            3 
 1052000    1.1050795   -7.3933861     364.2077   0.02885042  0.029234865            2 
 1053000    1.1059284   -7.4097489     365.2192   0.02890307  0.029228244            2 
 1054000    1.0879029    -7.379096    365.59774  0.028905577    0.0292215            1 
 1055000    1.0636869   -7.3915711    364.64655  0.028803045  0.029214665            1 
 1056000    1.0749957   -7.4255175    364.82206  0.028789619  0.029207767            1 
 1057000    1.0803888   -7.4089302    366.12772   0.02886532   0.02920097            1 
 1058000    1.0879392    -7.358536     367.0895  0.028913792    0.0291946            2 
 1059000    1.0572999   -7.3959147    366.72184  0.028857557  0.029188007            1 
 1060000    1.0792776   -7.4445355    367.39358  0.028883143  0.029181357            1 
 1061000    1.0940949   -7.4621209    365.59669  0.028714788  0.029174542            1 
 1062000    1.0450068   -7.4350088    367.08214  0.028804311  0.029167677            1 
 1063000    1.0881154   -7.4269543    366.97035   0.02876845   0.02916057            1 
 1064000    1.0816695   -7.4051077    367.75741  0.028803055  0.029153664            2 
 1065000    1.0965955   -7.4113306    367.08366  0.028723291   0.02914691            1 
 1066000    1.1029618   -7.4627266    367.39783  0.028720906  0.029139995            2 
 1067000    1.0918922   -7.3998433    368.91874  0.028812773  0.029133001            1 
 1068000    1.1035517   -7.4148328    369.05112  0.028796123  0.029126028            1 
 1069000    1.0784346   -7.3908069    370.79011  0.028904748  0.029119254            1 
 1070000    1.0854296   -7.3734684    370.72818  0.028872911  0.029112755            1 
 1071000    1.0641009   -7.3909766    369.95592  0.028785863  0.029105977            2 
 1072000    1.0563902   -7.4029842    370.51823  0.028802723  0.029099059            1 
 1073000    1.0722762   -7.4116362    368.82221   0.02864416  0.029091903            1 
 1074000    1.0832963   -7.4189634    370.53431  0.028750335  0.029084864            1 
 1075000    1.0937419   -7.4531778    370.22183  0.028699367  0.029077892            2 
 1076000    1.0854121    -7.432847     370.3405  0.028681885  0.029070845            1 
 1077000    1.0501714   -7.4138194    370.66337  0.028680236  0.029063902            1 
 1078000    1.0722837   -7.3910756    372.06791  0.028762207  0.029056905            2 
 1079000    1.0840937   -7.4421834    370.86798  0.028642877  0.029049671            1 
 1080000    1.0795486    -7.388164    370.88076  0.028617342  0.029042334            3 
 1081000    1.0376469   -7.3856166    371.90937  0.028670164  0.029035167            1 
 1082000     1.089387   -7.3933213    371.78377  0.028633993  0.029028036            2 
 1083000    1.0694026   -7.4195857     371.7317  0.028603547  0.029020831            2 
 1084000    1.0791663   -7.4514197    371.08824  0.028527693  0.029013662            3 
 1085000    1.0802052   -7.4589228    372.53672  0.028612651  0.029006433            1 
 1086000    1.0727631   -7.3703262    374.31979  0.028723127  0.028999241            2 
 1087000    1.0779766   -7.4175624    373.09067  0.028602474  0.028992273            2 
 1088000    1.0762597    -7.403805    374.10275  0.028653704  0.028985301            3 
 1089000    1.0790046    -7.395642     373.7372  0.028599418  0.028978277            2 
 1090000      1.10999   -7.4200911    375.07787  0.028675678  0.028971251            1 
 1091000    1.0761045   -7.4382181    373.89539  0.028559074   0.02896448            1 
 1092000    1.0574158   -7.4203274    375.38898    0.0286469  0.028957632            2 
 1093000    1.0872255   -7.4148353     375.3394  0.028616911  0.028950746            2 
 1094000    1.1047459   -7.4327191    375.91322  0.028634462  0.028944045            2 
 1095000    1.0773503   -7.4201755    375.85865  0.028604159   0.02893731            1 
 1096000    1.0538135   -7.4274996    375.95703  0.028585541   0.02893047            3 
 1097000    1.1000499   -7.4188044    376.03619  0.028565496  0.028923673            1 
 1098000    1.0708776   -7.4164746    377.38563  0.028641897  0.028917119            2 
 1099000    1.0637571   -7.3834788    377.61377  0.028633134  0.028910381            1 
 1100000    1.0993169   -7.4213093    376.19966  0.028499974  0.028903425            2 
 1101000    1.0895882   -7.4279583    377.92694  0.028604825  0.028896646            2 
 1102000     1.072518   -7.4590676    376.80748  0.028494214  0.028889796            4 
 1103000    1.1017195   -7.4146318    377.93345  0.028553449  0.028883014            2 
 1104000    1.0811425     -7.41357     377.6601  0.028506952  0.028876165            1 
 1105000    1.0734889   -7.4225176    378.22046  0.028523413  0.028869305            2 
 1106000     1.057133   -7.4106633    379.01765  0.028557689  0.028862434            1 
 1107000    1.0884526   -7.4306394    378.69808  0.028507835  0.028855343            2 
 1108000    1.0780517   -7.4251229    379.59798  0.028549788  0.028848487            1 
 1109000    1.0662119   -7.3968206    380.63257  0.028601786  0.028841784            2 
 1110000    1.0687895   -7.4176394    378.53802  0.028418771  0.028835034            3 
 1111000    1.0744946   -7.3943551    381.06871  0.028583012  0.028828367            2 
 1112000    1.0751776   -7.4209655    380.89193   0.02854406  0.028821619            1 
 1113000    1.0608429   -7.4479516    381.20357  0.028541747  0.028815087            5 
 1114000    1.0651143   -7.4324886    381.84123  0.028563827  0.028808669            2 
 1115000    1.0730026   -7.3828427    382.92064  0.028618882  0.028802271            3 
 1116000    1.0636392   -7.4290091    383.68047  0.028649975  0.028795972            2 
 1117000    1.0542993   -7.4558313    383.17771  0.028586818  0.028789723            2 
 1118000    1.0657416   -7.4087521    384.12708  0.028632013  0.028783428            1 
 1119000    1.0761009    -7.389995    383.50411  0.028560032  0.028777243            2 
 1120000    1.0847113   -7.3980804    384.39351  0.028600707  0.028771192            2 
 1121000    1.0813938   -7.4227776    384.07399  0.028551442  0.028765105            2 
 1122000    1.0710747   -7.4298229    384.75013  0.028576213   0.02875914            2 
 1123000    1.0708155    -7.445895    384.90506  0.028562263  0.028753111            1 
 1124000    1.0662818   -7.3793785    385.75327  0.028599738  0.028747002            2 
 1125000    1.0695153   -7.4252527     385.7176  0.028571674  0.028740802            2 
 1126000    1.0666169   -7.4446814    386.18063  0.028580567  0.028734484            1 
 1127000    1.0700152   -7.4504512    385.71752  0.028520964  0.028728501            2 
 1128000    1.0684824   -7.3867246    386.72027   0.02856976  0.028722238            3 
 1129000     1.056386   -7.4419279     384.5717  0.028385865  0.028715797            1 
 1130000    1.0859476   -7.4310053    386.14885  0.028477054  0.028709086            1 
 1131000     1.048333   -7.4460926    385.38273  0.028395426  0.028702617            4 
 1132000    1.0752439   -7.4256959    385.55211  0.028382811  0.028696003            2 
 1133000    1.0786921   -7.4761785    385.98418  0.028389539  0.028689308            1 
 1134000    1.0624155   -7.4688167    386.12052  0.028374524  0.028682875            3 
 1135000    1.0619968   -7.4554518    386.01332  0.028341653  0.028676274            1 
 1136000    1.0652089   -7.4196791    387.32668  0.028413049  0.028669737            2 
 1137000    1.0624156   -7.3857097    389.31488  0.028533779   0.02866337            1 
 1138000      1.06378   -7.4276307    387.44587  0.028371842  0.028657044            2 
 1139000    1.0680552   -7.4508434    388.29082  0.028408752  0.028650527            2 
 1140000    1.0551623   -7.4272457    388.62104   0.02840797  0.028644097            2 
 1141000    1.0930236   -7.4014769    389.42883  0.028442071  0.028637727            1 
 1142000    1.0645999   -7.4096437    389.52377  0.028424093  0.028631433            1 
 1143000    1.0724775   -7.4326382    388.59377  0.028331421  0.028625154            2 
 1144000    1.0586413    -7.439108      389.193  0.028350306  0.028618614            2 
 1145000     1.077383   -7.4120601    389.02176  0.028313083   0.02861199            7 
 1146000    1.0544488    -7.419942    389.38576  0.028314846  0.028605203            2 
 1147000     1.081011   -7.4425208    388.63297  0.028235467  0.028598453            3 
 1148000    1.0538715   -7.4333369    389.31905  0.028260675  0.028591644            2 
 1149000    1.0805706   -7.4504999    388.35829  0.028166398  0.028584525            2 
 1150000    1.0621322   -7.4250067    390.38125  0.028288496  0.028577395            1 
 1151000    1.0582479   -7.4489504      390.543   0.02827563  0.028570323            3 
 1152000    1.0733544   -7.4148971    389.34071  0.028164114  0.028563219            2 
 1153000    1.0688862   -7.4459064    388.45478  0.028075656  0.028555891            1 
 1154000    1.0627896   -7.4966744    388.87744  0.028081849  0.028548335            4 
 1155000    1.0826199   -7.4404793    389.95212  0.028135074  0.028540779            2 
 1156000      1.05931   -7.4531845    389.84826  0.028103249  0.028533259            4 
 1157000    1.0735689   -7.4327494    391.32719  0.028185479  0.028525973            1 
 1158000    1.0464816   -7.4319186    390.54848  0.028105101  0.028518488            4 
 1159000    1.0736933   -7.4343322    389.75376   0.02802371  0.028511165            1 
 1160000     1.072823   -7.4183322    391.97244   0.02815894  0.028503918            1 
 1161000    1.0773102   -7.4470559    390.77279  0.028048578  0.028496511            3 
 1162000    1.0536693   -7.4516177    391.59044  0.028083078  0.028489019            1 
 1163000    1.0456798   -7.4436887    392.47533  0.028122337  0.028481588            2 
 1164000     1.053046   -7.4244383    391.79565  0.028049517  0.028474136            1 
 1165000      1.08679   -7.4092478    393.02304  0.028113236  0.028466622            1 
 1166000    1.0581532   -7.4676826     392.7518   0.02806974  0.028459529            2 
 1167000    1.0376397   -7.4910116    390.56189  0.027889309  0.028452137            3 
 1168000    1.0562013   -7.4455062    392.69781  0.028017823  0.028444609            2 
 1169000     1.059885   -7.4858138    393.18989  0.028028934  0.028436992            2 
 1170000    1.0591187   -7.4371359    393.01163  0.027992282  0.028429341            3 
 1171000    1.0506055   -7.4893219    392.81011  0.027954035  0.028421658            1 
 1172000    1.0659743   -7.4175773    393.47289   0.02797731  0.028414022            2 
 1173000    1.0523877   -7.4301972      393.661  0.027966823  0.028406416            1 
 1174000    1.0621398   -7.4502795    394.14164  0.027977118  0.028398557            2 
 1175000    1.0583267   -7.4469982    395.00008   0.02801419  0.028390855            1 
 1176000     1.044027    -7.466341    393.26313  0.027867285  0.028383025            2 
 1177000    1.0709677   -7.4370566    394.04456  0.027898935  0.028375258            2 
 1178000    1.0634127   -7.4569186    393.90013  0.027865035  0.028367398            1 
 1179000    1.0511163   -7.4609605    394.40536  0.027877111  0.028359573            2 
 1180000    1.0517996   -7.4397159      395.602  0.027937995  0.028351654            2 
 1181000     1.057443   -7.4478868    393.90203  0.027794385  0.028343819            2 
 1182000    1.0410573   -7.4571387    395.68623   0.02789666   0.02833588            1 
 1183000    1.0395509    -7.425517    395.55096  0.027863551  0.028328082            2 
 1184000    1.0481947   -7.4659069      395.188   0.02781447  0.028320375            1 
 1185000    1.0759148   -7.4447899    394.71679  0.027757861  0.028312559            1 
 1186000    1.0648621   -7.4697005    396.12664  0.027833519  0.028304557            2 
 1187000    1.0552478   -7.4803777    394.53322  0.027698204  0.028296534            2 
 1188000    1.0654821   -7.4263358    396.22451  0.027793527   0.02828855            1 
 1189000    1.0582301    -7.493484    396.06356   0.02775887  0.028280584            2 
 1190000    1.0718867   -7.4652467    396.26875  0.027749912   0.02827252            2 
 1191000    1.0518416   -7.4645417    397.05634   0.02778172  0.028264581            2 
 1192000    1.0412069   -7.4465772    398.37854  0.027850848  0.028256645            1 
 1193000    1.0727271   -7.5118764    396.56486  0.027700814  0.028248716            2 
 1194000     1.034691   -7.4271937    397.53857  0.027745573  0.028240869            1 
 1195000    1.0474167   -7.4754918    397.33835  0.027708392  0.028232917            3 
 1196000    1.0516604   -7.4474425    397.73789  0.027713064   0.02822491            1 
 1197000    1.0762881   -7.4594629    397.71521  0.027688333  0.028216855            2 
 1198000    1.0666227   -7.4703179    396.98957  0.027614744   0.02820892            3 
 1199000    1.0611671   -7.4394928    399.02085  0.027732892  0.028201147            2 
 1200000    1.0402823   -7.4668893    398.40886  0.027667282  0.028193163            2 
 1201000    1.0693959   -7.4830318    398.32788  0.027638626  0.028185183            5 
 1202000    1.0421316   -7.4289667    398.64363  0.027637523  0.028177153            2 
 1203000    1.0616752   -7.4632254    398.31199  0.027591576  0.028169148            2 
 1204000    1.0537179   -7.4377887     400.0899  0.027691715   0.02816121            1 
 1205000    1.0546918   -7.4537166    399.65765  0.027638842  0.028153415            1 
 1206000    1.0799017   -7.4616799    401.14012  0.027718361  0.028145537            1 
 1207000    1.0553313   -7.4648245    400.51927  0.027652532  0.028137598            4 
 1208000    1.0394691    -7.471593    400.17907  0.027606172  0.028129703            3 
 1209000    1.0463966   -7.4425152    401.22058  0.027655127  0.028121712            2 
 1210000    1.0483586   -7.4795983    400.57853  0.027588053  0.028113705            1 
 1211000    1.0406556   -7.4479973    400.49837  0.027559756  0.028105761            2 
 1212000    1.0626509   -7.4513296    401.86428  0.027630932  0.028097823            3 
 1213000     1.049825   -7.4699947    401.99158  0.027616899  0.028089987            2 
 1214000    1.0530098   -7.4466774    402.57362  0.027634104  0.028082098            2 
 1215000    1.0523019   -7.5173241    400.53157  0.027471301  0.028074108            1 
 1216000    1.0652042   -7.4478713    402.63732  0.027593018  0.028066139            1 
 1217000     1.043596   -7.4557059    402.40023  0.027554111  0.028058242            3 
 1218000    1.0323621   -7.4422804    402.84219  0.027561726  0.028050334            3 
 1219000    1.0661195   -7.4843342    403.44634  0.027580417  0.028042488            1 
 1220000    1.0516142   -7.4444906    402.53201  0.027495356  0.028034557            1 
 1221000    1.0572533   -7.4628131    402.76477  0.027488723  0.028026491            1 
 1222000    1.0362556   -7.4654783    403.40419  0.027509833  0.028018469            3 
 1223000     1.066472   -7.4662043    403.57163  0.027498748  0.028010556            2 
 1224000    1.0780468   -7.4836439     403.8507  0.027495282   0.02800254            1 
 1225000    1.0403307    -7.489139    404.45686  0.027514072  0.027994591            1 
 1226000    1.0456619   -7.4332638    405.82113  0.027584362  0.027986727            2 
 1227000    1.0669439   -7.4263805    405.77517  0.027558759  0.027978933            2 
 1228000    1.0497012   -7.4772946    404.22886  0.027431383  0.027970971            1 
 1229000    1.0557706    -7.459411    404.56015  0.027431526  0.027963007            2 
 1230000    1.0356811   -7.4469651    406.75645  0.027558025  0.027954939            3 
 1231000     1.022295    -7.444385    405.48712   0.02744971  0.027947136            2 
 1232000    1.0409502   -7.4554589    407.25365  0.027546919  0.027939318            1 
 1233000    1.0657029   -7.5057324    405.34156  0.027395348  0.027931409            1 
 1234000    1.0706176   -7.4849836    407.00546  0.027485512  0.027923408            2 
 1235000    1.0761375   -7.4824489    405.94219  0.027391511  0.027915549            2 
 1236000    1.0598317   -7.4861323    405.95158  0.027369983  0.027907543            1 
 1237000    1.0589825   -7.4654174    406.93571  0.027414155  0.027899567            1 
 1238000    1.0565278   -7.4677042    407.95914    0.0274609   0.02789175            2 
 1239000    1.0381187   -7.4458861    408.09437  0.027447832  0.027884024       -1e+20 
 1240000    1.0454839   -7.4323168    409.18723  0.027499142  0.027876449            1 
 1241000    1.0752051   -7.4810755    410.01311  0.027532441  0.027868987            2 
 1242000    1.0447186   -7.4373279    409.22408  0.027457332  0.027861309            1 
 1243000    1.0538192   -7.4314117    410.61009  0.027528164   0.02785382            1 
 1244000    1.0558813   -7.5024941    410.07506  0.027470194  0.027846454            2 
 1245000    1.0460119    -7.458149    411.13338  0.027518968  0.027839153            2 
 1246000    1.0725845   -7.4548929    409.94154  0.027417171  0.027831791            1 
 1247000    1.0693776   -7.4937266     410.2504  0.027415824  0.027824313            3 
 1248000     1.055493   -7.4620911    410.80471   0.02743087  0.027816738            2 
 1249000     1.038902   -7.5028682    409.33243  0.027310677  0.027809119            2 
 1250000     1.087668   -7.5116735    410.36171  0.027357447  0.027801493            2 
 1251000    1.0948637   -7.4999084    411.05997  0.027382092  0.027793842            1 
 1252000    1.0462461   -7.4959984    411.56611   0.02739391  0.027786193            1 
 1253000    1.0668223   -7.4576128    411.30909  0.027354954    0.0277787            3 
 1254000    1.0509128   -7.4683899    412.05451  0.027382676  0.027771086            2 
 1255000    1.0402195   -7.4654551     413.0942  0.027429893   0.02776351            1 
 1256000     1.030774   -7.4802182    412.35165  0.027358788  0.027755928            1 
 1257000    1.0551019   -7.5088505     411.2935  0.027266872  0.027748324            1 
 1258000    1.0359634   -7.4897753    412.68623  0.027337456  0.027740708            2 
 1259000    1.0407141   -7.4363063    414.16814   0.02741383  0.027733333            1 
 1260000    1.0541062   -7.5008055    413.46457   0.02734554   0.02772582            3 
 1261000    1.0331463   -7.4448601    415.60998  0.027465634  0.027718293            1 
 1262000    1.0599398     -7.47668    414.11874    0.0273454  0.027710959            3 
 1263000    1.0565015   -7.5225987    414.12652  0.027324262  0.027703788            2 
 1264000    1.0532792   -7.5267549    413.79413  0.027280731  0.027696392            2 
 1265000    1.0497948   -7.4699687    413.86733  0.027263988  0.027689079            2 
 1266000    1.0544469   -7.5012192    414.57228  0.027288854  0.027681696            2 
 1267000    1.0563783   -7.4879766    414.34423  0.027252317  0.027674348            3 
 1268000    1.0407915   -7.4745669    415.20706   0.02728753  0.027666863            1 
 1269000    1.0158132   -7.4827925     414.9125  0.027246684  0.027659503            2 
 1270000    1.0680782   -7.5001418    415.09478   0.02723719  0.027652066            2 
 1271000    1.0290522   -7.4888326    416.29248  0.027294288  0.027644612            3 
 1272000    1.0405955   -7.4714026    416.41692  0.027280983  0.027637276            1 
 1273000    1.0433133   -7.5153785    417.00034  0.027297744  0.027629911            3 
 1274000    1.0350001   -7.4726225    418.49209  0.027373894  0.027622632            2 
 1275000    1.0655646    -7.486639    418.85583  0.027376198  0.027615527            2 
 1276000    1.0388147   -7.5063761    418.66498  0.027342279  0.027608565            1 
 1277000    1.0372528   -7.4821044    417.97204  0.027275648  0.027601536            1 
 1278000    1.0648141   -7.4963038    418.36703  0.027280062  0.027594487            1 
 1279000    1.0575786   -7.5221943    418.86544  0.027291206  0.027587208            2 
 1280000    1.0451422   -7.5024644    419.56242  0.027315262  0.027579973            2 
 1281000    1.0493025   -7.4816404    419.32068  0.027278213  0.027572816            2 
 1282000    1.0718428   -7.4622175    419.99894  0.027301023  0.027565566            2 
 1283000    1.0633311   -7.4822511    418.83657  0.027204246  0.027558619            1 
 1284000    1.0447536    -7.467314    420.74804  0.027307116  0.027551622            2 
 1285000    1.0567178   -7.4799219    420.58303  0.027275164  0.027544531            1 
 1286000    1.0434826    -7.480966    420.27703  0.027234126  0.027537473            2 
 1287000    1.0459574   -7.5080099      420.252  0.027211344  0.027530405            4 
 1288000    1.0250039   -7.5089672      419.858  0.027164726  0.027523167            1 
 1289000    1.0435992   -7.4924026    420.21891  0.027166984  0.027515926            3 
 1290000    1.0452639    -7.521294     420.5914  0.027169987  0.027508591            3 
 1291000    1.0412227   -7.4992921    419.82091  0.027099207  0.027501071       -1e+20 
 1292000    1.0584836   -7.4835112    421.14948  0.027163924  0.027493604            1 
 1293000    1.0382607   -7.4629384    422.10812  0.027204699  0.027486491            2 
 1294000    1.0233501   -7.4985993      421.891  0.027169693  0.027479151            1 
 1295000    1.0622925   -7.5292016     420.8433  0.027081293  0.027471636            2 
 1296000    1.0236684   -7.4951895    422.56522  0.027171118   0.02746436            2 
 1297000    1.0418703   -7.4849539    423.23269  0.027193054  0.027457118            2 
 1298000    1.0405557   -7.4827534     422.6489  0.027134624  0.027449904            2 
 1299000    1.0673611   -7.4687165    423.87115  0.027192145  0.027442885            2 
 1300000      1.02598   -7.4537433    425.69434  0.027288098  0.027436119            2 
 1301000    1.0272641   -7.5196195    424.13197  0.027167049  0.027429153            1 
 1302000     1.044798    -7.496122    422.86175  0.027064884  0.027422003            1 
 1303000    1.0360975   -7.4773407     424.3111  0.027136806  0.027414918            2 
 1304000    1.0258463   -7.4949855    424.39819  0.027121561  0.027407741            1 
 1305000    1.0384348   -7.5260223    423.31363  0.027031522  0.027400541       -1e+20 
 1306000    1.0477474   -7.5336268    425.09303  0.027124364  0.027393301            1 
 1307000    1.0368152   -7.4866425    424.54746  0.027068825  0.027386171            1 
 1308000    1.0471643   -7.5104811    424.09321   0.02701919  0.027379025            2 
 1309000    1.0256086   -7.4920559     425.3541   0.02707882  0.027371655            1 
 1310000    1.0124317   -7.4826419    426.11823  0.027106758  0.027364379            3 
 1311000    1.0633494   -7.4995816    425.95796  0.027075894  0.027357142            4 
 1312000    1.0204483   -7.4723295    425.82495  0.027046808   0.02734975            2 
 1313000    1.0430558   -7.4721982    426.14694  0.027046645  0.027342511            2 
 1314000     1.031569   -7.5644679    424.97548  0.026951768  0.027335242            3 
 1315000    1.0404055   -7.5100661    427.22978  0.027074131  0.027327881            2 
 1316000    1.0234711   -7.5274564    426.36333  0.026998691  0.027320554            1 
 1317000    1.0346498   -7.5143677    426.54789  0.026989869  0.027313218            2 
 1318000    1.0620428   -7.5232188    425.26972  0.026888576  0.027305825            3 
 1319000    1.0422768    -7.482929    425.61824   0.02689021   0.02729856            2 
 1320000    1.0386526    -7.459923    428.19953  0.027032798  0.027291271            3 
 1321000    1.0324115   -7.5448601    427.15791  0.026946626  0.027283953            3 
 1322000    1.0274611   -7.5148116    428.19007  0.026991305  0.027276627            1 
 1323000    1.0312911   -7.4869873    427.92088  0.026953948  0.027269482            1 
 1324000    1.0445401   -7.4940494    428.41889  0.026964935  0.027262286            1 
 1325000    1.0570371   -7.4903871    429.21758  0.026994816  0.027255064            4 
 1326000    1.0451128   -7.5629868    427.12004  0.026842637  0.027247723            1 
 1327000     1.044851   -7.4942433    429.79284  0.026990256  0.027240525            2 
 1328000      1.01418   -7.5022998    430.19533  0.026995189  0.027233394            4 
 1329000    1.0425935    -7.460893    429.69042  0.026943217  0.027226345            1 
 1330000    1.0437285    -7.474331    429.59854  0.026917202  0.027219324            2 
 1331000    1.0393273   -7.5194074    429.42924  0.026886378  0.027212343            1 
 1332000    1.0227908   -7.4981683    430.87912  0.026956902  0.027205285            4 
 1333000    1.0373434   -7.4897111    431.27454  0.026961399  0.027198308            2 
 1334000    1.0376938   -7.5198113    430.24373  0.026876794  0.027191166            2 
 1335000    1.0432607   -7.5060209     431.4535  0.026932179  0.027184202            1 
 1336000    1.0229025   -7.5054058    431.88887  0.026939176  0.027177228            2 
 1337000    1.0338242   -7.5093593     431.8482  0.026916492  0.027170269            3 
 1338000    1.0306459   -7.4693834    432.78444  0.026954686  0.027163359            1 
 1339000    1.0296706   -7.5406513    431.76272  0.026870969  0.027156296            5 
 1340000    1.0496818   -7.4814932    432.17475  0.026876539  0.027149222            2 
 1341000    1.0422747   -7.5056245     434.2003   0.02698237  0.027142157            1 
 1342000    1.0281029   -7.4555193    433.12732  0.026895636  0.027135197            1 
 1343000    1.0371016   -7.5151733    433.06061   0.02687147  0.027128176            1 
 1344000    1.0493095    -7.534053    432.20933  0.026798693  0.027120983            2 
 1345000    1.0289907    -7.508753    432.99689  0.026827564   0.02711375            7 
 1346000    1.0413763   -7.5583167     433.1039  0.026814258  0.027106556            3 
 1347000    1.0160857   -7.5310059     432.9646  0.026785734    0.0270994            1 
 1348000    1.0378278   -7.5141233    433.82668  0.026819157  0.027092302            2 
 1349000     1.032652   -7.5451215    433.06492  0.026752219  0.027085231            3 
 1350000    1.0360982   -7.5322829    433.43804  0.026755435  0.027078315            4 
 1351000    1.0086293   -7.5106205    434.78308  0.026818596  0.027071379            1 
 1352000    1.0383433   -7.4874091    436.65328  0.026914033  0.027064647            2 
 1353000    1.0238744   -7.5670286    435.49554  0.026822834  0.027057777            1 
 1354000    1.0430673   -7.5130706    437.31471  0.026914987  0.027050986            2 
 1355000    1.0287574   -7.5048119    436.14182   0.02682299  0.027044286            1 
 1356000    1.0382195   -7.5396348    436.23627  0.026809014  0.027037428            1 
 1357000    1.0440914    -7.556448     437.5406  0.026869356  0.027030485            2 
 1358000    1.0266587   -7.5403582    437.84215  0.026868075  0.027023549            2 
 1359000    1.0477986   -7.5621235     436.2633   0.02675149  0.027016677            2 
 1360000     1.024357   -7.5198836    437.62272  0.026815118  0.027009912            2 
 1361000    1.0330689   -7.4960044    437.73927  0.026802551  0.027003073            1 
 1362000    1.0457702   -7.4886836    438.17274  0.026809394  0.026996218            3 
 1363000    1.0401188   -7.5067372    438.95033  0.026837266  0.026989399            1 
 1364000    1.0290138   -7.5471414     436.9055  0.026692663  0.026982595            1 
 1365000    1.0321788    -7.490435     439.1392  0.026809475  0.026975705            2 
 1366000    1.0471381   -7.5192115    438.58018  0.026755745   0.02696902            1 
 1367000    1.0135779   -7.5469817    439.04836  0.026764713  0.026962195            1 
 1368000    1.0256563   -7.5182152    440.05458  0.026806443  0.026955463            1 
 1369000    1.0459824   -7.4976207     439.8424  0.026773947  0.026948813            3 
 1370000    1.0149999   -7.5365825    441.19047  0.026836403  0.026942197            1 
 1371000    1.0290048   -7.5197838    439.39969   0.02670798  0.026935535            4 
 1372000    1.0353326   -7.5053004    441.69922  0.026828184  0.026929033            2 
 1373000    1.0476048   -7.5535978     439.3655  0.026667001  0.026922365            1 
 1374000    1.0285782   -7.5077453    440.43815  0.026712649  0.026915567            2 
 1375000    1.0349218    -7.511389    440.60363   0.02670325  0.026908793            2 
 1376000    1.0144113   -7.5030398    440.84347  0.026698369  0.026901934            2 
 1377000    1.0306927   -7.5140106    441.26635  0.026704572   0.02689514            3 
 1378000    1.0457492   -7.5289305    441.17398  0.026679607  0.026888359            2 
 1379000    1.0191543   -7.5644844    440.80553  0.026637995  0.026881445            2 
 1380000    1.0487528   -7.5375136    442.14174   0.02669938  0.026874611            1 
 1381000    1.0239598   -7.4687124    442.53221  0.026703609  0.026867796            1 
 1382000    1.0184279   -7.5114704    441.41354  0.026616832  0.026860865            4 
 1383000    1.0567619    -7.498912    442.19118  0.026644443  0.026854031            1 
 1384000    1.0195067   -7.5239777    442.19456  0.026625395  0.026847097            1 
 1385000    1.0485868   -7.5221064    442.73296  0.026638566  0.026840176            4 
 1386000    1.0180524   -7.5328413    441.82416  0.026564704  0.026833233            1 
 1387000    1.0074978   -7.5333431    442.26433  0.026571998  0.026826323            2 
 1388000    1.0413375   -7.5113933     443.1664  0.026607013  0.026819319            1 
 1389000    1.0528418   -7.5703406    441.35122  0.026478955  0.026812383            1 
 1390000     1.007021   -7.5090052    443.45907  0.026586275  0.026805441            2 
 1391000     1.020269   -7.5051044    443.65352  0.026578811  0.026798408            1 
 1392000    1.0333725   -7.5604309     442.4201  0.026485878   0.02679143            2 
 1393000    1.0306968   -7.5331677    444.24495  0.026576032  0.026784456            2 
 1394000    1.0490728   -7.5590397    442.34251  0.026443239  0.026777443            2 
 1395000    1.0230142    -7.534524    443.88359  0.026516344  0.026770328            1 
 1396000    1.0489027   -7.5315967    445.09181  0.026569473  0.026763391            2 
 1397000    1.0273914   -7.5182541    444.08368  0.026490318  0.026756448            3 
 1398000     1.009639   -7.5482064    445.74843  0.026570602   0.02674943            2 
 1399000       1.0111    -7.524725    444.70767  0.026489616  0.026742482            1 
 1400000   0.99198701   -7.5204593    445.16598  0.026497975  0.026735533            2 
 1401000    1.0405756   -7.5362977    444.42655  0.026435079  0.026728511            6 
 1402000    1.0301855   -7.5272305    446.02485  0.026511225  0.026721531            1 
 1403000    1.0357296   -7.4926421    445.34058  0.026451686  0.026714489            2 
 1404000    1.0391557   -7.5303632    445.54233   0.02644482  0.026707406            5 
 1405000    1.0014187   -7.5476603    445.99263  0.026452707  0.026700292            3 
 1406000    1.0284254   -7.5418935    444.98821  0.026374361  0.026693118            2 
 1407000    1.0219959   -7.5080237     445.5246  0.026387384  0.026685872            1 
 1408000    1.0245308   -7.5484559    445.61366  0.026373915  0.026678662            2 
 1409000    1.0271173   -7.5053458    445.71825  0.026361382  0.026671453            2 
 1410000     1.003456   -7.5743143    445.04207  0.026302723  0.026664206            2 
 1411000    1.0387106   -7.5077216    447.03627  0.026401859  0.026657007            2 
 1412000    1.0472174   -7.5605372    447.15649  0.026390255  0.026650047            2 
 1413000    1.0229102   -7.5379931    447.56601  0.026395731  0.026642994            1 
 1414000    1.0207658   -7.5156658    448.66718   0.02644196  0.026636066            2 
 1415000    1.0357313   -7.5477672    447.67846  0.026365045  0.026629002            2 
 1416000    1.0288587   -7.5249634    446.78322  0.026293739  0.026621875            1 
 1417000    1.0180177   -7.5537841    447.60925  0.026323762  0.026614729            3 
 1418000    1.0483245   -7.5352519    448.38437   0.02635075  0.026607591            2 
 1419000    1.0283122    -7.509014    448.79214  0.026356128  0.026600552            1 
 1420000    1.0173373   -7.5616656    447.97138    0.0262894  0.026593475            2 
 1421000    1.0159825   -7.5046051    449.59818  0.026366302  0.026586264            3 
 1422000    1.0237458   -7.5415244    449.10046  0.026318592  0.026579077            2 
 1423000    1.0057593   -7.5344862    448.14824  0.026244333  0.026571904            2 
 1424000   0.99915794   -7.5499965      448.343  0.026237301   0.02656464            1 
 1425000    1.0369519   -7.5329074    449.89475  0.026309635  0.026557412            3 
 1426000    1.0512528   -7.5131537    450.77695  0.026342739  0.026550281            2 
 1427000    1.0357812    -7.542553    449.01263  0.026221247  0.026543008            1 
 1428000    1.0451596   -7.5522845    450.00138  0.026260584  0.026535728            1 
 1429000    1.0139195    -7.522406    449.28875   0.02620065  0.026528405            3 
 1430000    1.0190312   -7.5456498    449.36984  0.026187054  0.026521078            2 
 1431000    1.0274741   -7.5457671    451.24257  0.026277811  0.026513727            1 
 1432000    1.0014101   -7.5257882     450.4184  0.026211499  0.026506459            5 
 1433000    1.0257284   -7.5384308    450.35928   0.02618977  0.026499211            3 
 1434000    1.0388055   -7.5311768    451.80915  0.026255762  0.026491974            7 
 1435000    1.0152585   -7.5568153    451.58162  0.026224252  0.026484783            1 
 1436000    1.0535612    -7.566261     451.3918  0.026194974  0.026477562            2 
 1437000    1.0186652   -7.5400934    451.43153   0.02617905  0.026470307            1 
 1438000    1.0344104   -7.5599267    452.21676  0.026206349  0.026463171            1 
 1439000    1.0304513   -7.5056521    452.02425  0.026176989  0.026456017            2 
 1440000    1.0267612   -7.4951052    453.46917  0.026242429  0.026448858            2 
 1441000   0.99588866   -7.5506784    453.36048  0.026217932   0.02644166            1 
 1442000    1.0258795   -7.5481755    453.04388  0.026181454  0.026434539            1 
 1443000   0.99949935   -7.5483853    453.66405  0.026199125  0.026427499            1 
 1444000    1.0088943   -7.5569103    453.23574  0.026156264   0.02642049            1 
 1445000    1.0113701   -7.5648881    453.46519  0.026151395  0.026413317            4 
 1446000     1.026031   -7.5190705    455.11246  0.026228242  0.026406214            2 
 1447000     1.015444   -7.5892581    454.05038  0.026148951   0.02639917            2 
 1448000    1.0304647   -7.5498843    455.63268  0.026221955  0.026392094            1 
 1449000    1.0087765   -7.5359629    454.89608  0.026161495  0.026385108            2 
 1450000    1.0119294   -7.5657499    455.18571  0.026160098  0.026378049            1 
 1451000    1.0275641   -7.5522072    454.49193  0.026102224  0.026371016            2 
 1452000    1.0034219   -7.5751277    455.21618  0.026125814  0.026364004            5 
 1453000   0.99296321   -7.5347773    455.79167  0.026140839  0.026356946            4 
 1454000    1.0006285   -7.5542212    455.50583  0.026106478  0.026350034            9 
 1455000    1.0366187   -7.5472173    456.98661  0.026173345  0.026343084            1 
 1456000    1.0370503   -7.5392076    456.45367  0.026124867  0.026336204            2 
 1457000    1.0389177   -7.5432771    456.68156   0.02611997  0.026329396            1 
 1458000    1.0370276   -7.5510048      456.722  0.026104367  0.026322532            2 
 1459000    1.0097761   -7.5509003    457.59755  0.026136483  0.026315742            4 
 1460000    1.0430518   -7.5136996    459.89832  0.026249904  0.026309041            2 
 1461000    1.0161803   -7.5603031     458.3076  0.026141204  0.026302257            2 
 1462000    1.0093605   -7.5634875    458.46719   0.02613242  0.026295544            3 
 1463000    1.0036241   -7.5678469    458.74515  0.026130391  0.026288803            2 
 1464000    1.0267804   -7.5814307     457.9546  0.026067543  0.026282051            3 
 1465000    1.0201261    -7.537583     459.3277  0.026127855  0.026275236            3 
 1466000    1.0226627   -7.5905745    458.81728  0.026081019  0.026268491            2 
 1467000    1.0051684   -7.5596881    461.05906  0.026190585  0.026261728            2 
 1468000    1.0193305   -7.5567856    460.49304  0.026140613  0.026254882            2 
 1469000    1.0367485   -7.5758219    459.40418  0.026061049  0.026248201            1 
 1470000    1.0207025   -7.5647296    459.66432  0.026058068  0.026241453            2 
 1471000    1.0333045   -7.5267192    462.17638  0.026182664   0.02623474            4 
 1472000    1.0439533   -7.5649413    460.03354  0.026043566  0.026228022            1 
 1473000    1.0375091   -7.5981756    460.30173  0.026041057  0.026221106            4 
 1474000    1.0102271    -7.527079     462.3785  0.026140802  0.026214332            2 
 1475000    1.0363296   -7.5535948    460.03322  0.025990577  0.026207575            3 
 1476000    1.0114279   -7.5852065    460.52191   0.02600056  0.026200747            2 
 1477000     1.012714   -7.5751824    461.02185  0.026011163  0.026193868            1 
 1478000    1.0183734    -7.542696    461.28569   0.02600844   0.02618711            2 
 1479000    1.0211581   -7.5713054    460.54901  0.025949347  0.026180233            2 
 1480000   0.99982551   -7.5889673    461.17455  0.025967036  0.026173373            1 
 1481000    1.0068637   -7.5504278    462.11863  0.026002624  0.026166534            2 
 1482000   0.99777486   -7.5951939    462.03522  0.025980388  0.026159644            3 
 1483000    1.0248271   -7.5705973    461.04177  0.025907045  0.026152748            1 
 1484000    1.0059623   -7.5193218    462.38138  0.025964813  0.026146045            1 
 1485000    1.0204693   -7.5857162    462.45109   0.02595124  0.026139314            2 
 1486000    1.0125204   -7.5538546     462.6961  0.025947516  0.026132505            2 
 1487000    1.0080848    -7.596545    461.96596  0.025889148  0.026125688            2 
 1488000    1.0198993   -7.5778908    462.90221  0.025924183  0.026118873            2 
 1489000   0.98251416   -7.5548843    463.28656  0.025928283  0.026112052            3 
 1490000   0.99959898   -7.5625695    464.12834  0.025957961  0.026105174            3 
 1491000     1.010605   -7.5713551    463.27021  0.025892589  0.026098233            1 
 1492000    1.0249642   -7.5613681    462.95833  0.025857816  0.026091227            1 
 1493000    1.0080392   -7.6053866    462.96157  0.025840677  0.026084181            3 
 1494000    1.0268066   -7.5399913    462.73293  0.025810627  0.026077132            3 
 1495000   0.99903539   -7.5114356    463.94403  0.025860871  0.026070079            1 
 1496000    1.0410759   -7.5355282    463.48564   0.02581805  0.026062982            2 
 1497000    1.0029553   -7.5416936    464.52814  0.025858837  0.026055965            3 
 1498000    1.0331282    -7.568273    463.89183  0.025806176  0.026048913            1 
 1499000   0.99128468   -7.5853469    462.28307  0.025699526  0.026041727            2 
 1500000     1.002331   -7.5151982    466.77923   0.02593218  0.026034742            2 
 1501000    1.0220753   -7.5914707    464.69641  0.025799268  0.026027898       -1e+20 
 1502000   0.99501471   -7.5544682    466.72981  0.025894907  0.026021102            2 
 1503000    1.0034914    -7.561936    465.60963  0.025815571  0.026014282            1 
 1504000    1.0078103   -7.6150011    465.77843  0.025807759  0.026007273            1 
 1505000    1.0244281   -7.5747267     466.4304  0.025826711  0.026000342            2 
 1506000    1.0104612   -7.5553247    466.50175   0.02581351  0.025993454            3 
 1507000    1.0380924   -7.5389438    468.51954   0.02590796  0.025986643            1 
 1508000   0.99801966   -7.5663014    467.15091  0.025815147  0.025980005            2 
 1509000   0.99560727   -7.5861374    467.89695  0.025839239  0.025973189            1 
 1510000    1.0003066   -7.5652562    466.92097  0.025768265  0.025966239            4 
 1511000    1.0061048    -7.535196    468.37739  0.025831535  0.025959398            2 
 1512000    1.0080772   -7.5774926    468.29773   0.02581006   0.02595258            1 
 1513000    1.0091391   -7.5701801    467.35744  0.025741212  0.025945858            1 
 1514000    1.0016908   -7.6025593    468.44003  0.025783798  0.025939062            3 
 1515000   0.99759093   -7.5498574    468.28689  0.025758355   0.02593238            2 
 1516000   0.99914806   -7.6195588    468.31307  0.025742803  0.025925516            2 
 1517000    1.0068128   -7.5879352    468.66437  0.025745132  0.025918691            2 
 1518000    1.0089446    -7.569048     470.0099  0.025802037  0.025911849            1 
 1519000    1.0050441   -7.6062583    469.49417  0.025756757  0.025905112            2 
 1520000     1.009825   -7.5713825    469.22041  0.025724803  0.025898339            1 
 1521000    1.0026447   -7.5841201    469.77419  0.025738231  0.025891552            3 
 1522000    1.0266063   -7.5797179    469.45858   0.02570404  0.025884881            3 
 1523000   0.98842572   -7.5880369    469.81257  0.025706532  0.025878107            2 
 1524000    1.0206825    -7.593637    469.29792  0.025661523  0.025871343            2 
 1525000    1.0078365   -7.5924204    470.38547  0.025704124  0.025864611            2 
 1526000    1.0172452   -7.5834801    471.35391  0.025740165  0.025857967            3 
 1527000    1.0091368   -7.5611776    470.95914  0.025701765  0.025851329            4 
 1528000    1.0071656   -7.6066252    471.83273  0.025732588  0.025844665            1 
 1529000    1.0016944     -7.58506    471.29965  0.025686704  0.025838078            2 
 1530000    0.9947535   -7.5511739    472.04074   0.02571028  0.025831573            1 
 1531000    1.0012361   -7.5934479    472.02721   0.02569275  0.025824992            1 
 1532000    1.0101845   -7.5897102    474.25552  0.025797189  0.025818408            5 
 1533000    1.0246264   -7.5786313    473.91863  0.025762048   0.02581187            2 
 1534000    1.0082044   -7.6059502    472.24425  0.025654294  0.025805294            3 
 1535000    1.0223165   -7.5962187    472.69433  0.025662016  0.025798615            3 
 1536000    1.0011819    -7.613782    472.21787  0.025619459  0.025792015            3 
 1537000    1.0018953   -7.6040703    473.31336  0.025662186  0.025785333            2 
 1538000   0.99551933   -7.6263649    472.82996  0.025619309  0.025778526            4 
 1539000   0.98911194   -7.6075881    472.29699  0.025573803  0.025771724            2 
 1540000     1.009004   -7.5741152    474.61406  0.025682579  0.025764912            3 
 1541000    1.0065602   -7.5805143    472.83422  0.025569663  0.025758037            2 
 1542000    1.0229071   -7.6019118     472.4306  0.025531269  0.025751184            3 
 1543000    1.0301283   -7.5627989    473.36342  0.025565102  0.025744272            1 
 1544000   0.98689736   -7.5743464    474.73164   0.02562239  0.025737439            1 
 1545000    1.0070525   -7.5827771    474.54259  0.025595609  0.025730571            1 
 1546000   0.99961949   -7.6260376      473.427   0.02551892  0.025723651            1 
 1547000   0.98952135   -7.6102151    474.69366  0.025570656  0.025716816            2 
 1548000    1.0080624   -7.5934193    474.52547  0.025545083   0.02570995            3 
 1549000   0.99452119   -7.6137578     473.9628  0.025498322  0.025703085            2 
 1550000   0.97126029    -7.592057     474.6911  0.025521027  0.025696155            2 
 1551000    0.9966574   -7.5727884    475.15722  0.025529617  0.025689239            1 
 1552000    1.0072358   -7.6163193    475.81486  0.025548478  0.025682406            3 
 1553000    1.0035196   -7.6162723    475.84703  0.025533753  0.025675538            1 
 1554000   0.99880955    -7.618624    475.31007  0.025488528  0.025668643            3 
 1555000   0.98447931   -7.5972626    475.98452  0.025508281  0.025661773            3 
 1556000   0.98337192   -7.6234102    475.21133  0.025450478   0.02565496            1 
 1557000    1.0097586   -7.5885732    475.68829   0.02545966  0.025648021            1 
 1558000    1.0104943   -7.6072184    476.42847  0.025482909  0.025641179            1 
 1559000    1.0038645   -7.5590392    477.45357  0.025521358  0.025634439            2 
 1560000   0.98509005   -7.6268004    475.61702  0.025406892  0.025627647            1 
 1561000   0.99063688    -7.609254    476.86485  0.025457231  0.025620811            1 
 1562000    1.0039841   -7.6262098    477.50285  0.025474971  0.025613995            2 
 1563000    0.9971598    -7.552143    478.41971  0.025507555  0.025607258            2 
 1564000     1.024348   -7.6299831    476.88989  0.025409734  0.025600434            1 
 1565000    1.0101956   -7.5523442    479.71555  0.025543959  0.025593611            2 
 1566000   0.98480877   -7.6522288    476.26725  0.025344149   0.02558682            3 
 1567000    1.0147257   -7.5887279    478.35219  0.025438853  0.025579968            1 
 1568000   0.99022786   -7.5945624    477.81619  0.025394143  0.025573152            3 
 1569000   0.99458161   -7.6190871    477.68019  0.025370735   0.02556641            2 
 1570000   0.99310068   -7.6151717    479.96458  0.025475827  0.025559594            1 
 1571000   0.98419113   -7.5737029    479.57906  0.025439161  0.025552822            2 
 1572000     1.002693   -7.6645251      478.418  0.025361429  0.025545959            1 
 1573000    1.0138437   -7.5982953    479.24061  0.025388886  0.025539167            1 
 1574000   0.99451234   -7.6374226    478.85731  0.025352462  0.025532276            3 
 1575000   0.98880106   -7.5875375    478.90513  0.025338896  0.025525423            2 
 1576000    1.0174138   -7.5940056    480.23462  0.025393117  0.025518656            1 
 1577000   0.97810395   -7.5759966    480.16809  0.025373499  0.025511837            3 
 1578000   0.99132831   -7.6219942    478.83989  0.025287278  0.025504929            2 
 1579000    1.0141394   -7.6410885     478.8577  0.025272203  0.025498089            3 
 1580000   0.99308551    -7.595004    479.67132   0.02529912  0.025491189            2 
 1581000   0.97567999    -7.584912    481.42081  0.025375332  0.025484347            2 
 1582000   0.98848183   -7.6089418      480.315  0.025301043   0.02547746            4 
 1583000   0.98574385   -7.5704569    481.67731  0.025356776  0.025470693            3 
 1584000    1.0087894   -7.5653832    482.11608  0.025363851  0.025463976            1 
 1585000    1.0056923   -7.6143829    480.77656  0.025277422   0.02545721            3 
 1586000   0.99145748   -7.5974052    481.55473  0.025302371  0.025450443            1 
 1587000    0.9968024    -7.582715    481.01706  0.025258195  0.025443703            6 
 1588000    1.0074606   -7.5837003    481.23991  0.025253983  0.025436863            2 
 1589000   0.99420623   -7.5828181    481.20898  0.025236469  0.025430045            2 
 1590000    1.0164612   -7.6364499    481.69138  0.025245879  0.025423269            1 
 1591000    1.0092251   -7.6180147    483.39968  0.025319489  0.025416345            2 
 1592000   0.99585914   -7.5971563    481.56779  0.025207694  0.025409409            2 
 1593000   0.98361073   -7.6575348    482.60377  0.025246065  0.025402529            1 
 1594000    1.0046606   -7.5923875    482.90688  0.025246073  0.025395663            3 
 1595000    1.0032923   -7.6330419    482.16482  0.025191474  0.025388697            1 
 1596000   0.99422752   -7.6213654    482.04211  0.025169283  0.025381688            4 
 1597000   0.98487592   -7.6033307    482.47156  0.025175932  0.025374666            1 
 1598000    1.0083909   -7.6101524    480.46034  0.025055295  0.025367609            1 
 1599000    1.0058029   -7.6093526    481.53933  0.025095858  0.025360455            2 
 1600000   0.99124977   -7.6210156    481.68666  0.025087847  0.025353274            4 
 1601000   0.98780589    -7.629301    481.72671  0.025074262  0.025346115            2 
 1602000   0.99002538   -7.5863565    482.64006   0.02510612  0.025338955            2 
 1603000    1.0005861   -7.6016334    482.04861  0.025059712  0.025331729            1 
 1604000   0.99682143   -7.5938816    482.62605  0.025074088  0.025324585            2 
 1605000    1.0210396   -7.6116717    481.51569  0.025000815  0.025317471            3 
 1606000    1.0165665    -7.599114    482.28498  0.025025165  0.025310432            1 
 1607000   0.99368598   -7.6233654    482.34235  0.025012568  0.025303401            2 
 1608000   0.98729328   -7.6391061    482.88938  0.025025362  0.025296187            4 
 1609000   0.99139277   -7.6181156    483.58837  0.025046011  0.025289167            2 
 1610000    1.0009193   -7.6444723     485.4216  0.025125341  0.025282206            1 
 1611000    1.0004705   -7.5864158    486.17243  0.025148584  0.025275285            3 
 1612000    1.0234751   -7.6282969    484.55511  0.025049375  0.025268414            2 
 1613000   0.99159599   -7.6037469    485.28429  0.025071517  0.025261438            1 
 1614000   0.98858136   -7.6025438    485.93569  0.025089617  0.025254468            1 
 1615000   0.97099778   -7.6064539    484.93227  0.025022305  0.025247528            2 
 1616000    0.9948799   -7.5835633    486.25297  0.025074926  0.025240551            1 
 1617000    1.0074534   -7.5984393    485.65094  0.025028393  0.025233575            5 
 1618000    0.9884646   -7.6344435    486.56099  0.025059796  0.025226636            2 
 1619000    1.0107154   -7.6125977    485.85083  0.025007763  0.025219722            1 
 1620000   0.99548152   -7.6271051    485.41588  0.024969952  0.025212743            1 
 1621000   0.98971106   -7.6623667    485.48711  0.024958211  0.025205662            1 
 1622000    1.0003958   -7.6204843    485.75175  0.024956419  0.025198671            3 
 1623000   0.99406164    -7.670672    487.26259  0.025018617  0.025191613            2 
 1624000   0.97182908   -7.6282429    486.89541   0.02498437  0.025184513            1 
 1625000   0.98637508   -7.6470793    486.20622  0.024933652  0.025177431            2 
 1626000    1.0249776   -7.6121421    487.59009  0.024989242  0.025170435            3 
 1627000   0.98707667   -7.6270203    486.43206   0.02491457  0.025163477            1 
 1628000   0.98881009   -7.6110847    487.70972  0.024964666  0.025156461            2 
 1629000   0.98054381   -7.6020893    489.09156  0.025020031  0.025149518            1 
 1630000   0.98507869   -7.6455133    488.46383  0.024972589  0.025142502            2 
 1631000   0.99992167   -7.6552091     488.6083  0.024964659  0.025135469            4 
 1632000   0.99870981   -7.6126326    489.22688  0.024980947   0.02512853            2 
 1633000   0.99414697   -7.6437832    488.63613  0.024935504  0.025121625            2 
 1634000   0.98470052   -7.6416351    489.83296  0.024981281  0.025114692            2 
 1635000   0.98253302   -7.6216209    488.41399  0.024893679  0.025107765            1 
 1636000   0.99755313   -7.6396162    487.52684  0.024833274    0.0251008            1 
 1637000   0.99090939   -7.6086782    490.92365  0.024991023  0.025093788            2 
 1638000   0.99832818   -7.6061611    490.43206  0.024950756  0.025086895            4 
 1639000   0.99126048   -7.6321914    489.79892  0.024903341  0.025079966            2 
 1640000   0.99244056   -7.6393975    488.98963  0.024847034     0.025073            2 
 1641000   0.98820076   -7.6351064    490.48462  0.024907811  0.025066032            3 
 1642000   0.99180359   -7.6229254    489.95388  0.024865706   0.02505902            2 
 1643000   0.98468486   -7.6066187    491.41507  0.024924684  0.025052136            3 
 1644000   0.96712713   -7.6131817    492.00438  0.024939395  0.025045137            2 
 1645000     0.975499   -7.6039528    491.00303  0.024873507  0.025038092            4 
 1646000   0.98790784   -7.5794605    490.38736  0.024827225  0.025031006            2 
 1647000   0.98051132   -7.6322977    489.99052  0.024792073  0.025023973            2 
 1648000   0.99954432    -7.595757    490.75287  0.024815578  0.025016907            2 
 1649000    0.9950103   -7.6408806    490.45458  0.024785455  0.025009775            2 
 1650000    1.0112132   -7.6471813    489.40216  0.024717281   0.02500259            3 
 1651000   0.97843971    -7.607812    492.47927  0.024857625  0.024995486            2 
 1652000    0.9968283   -7.6401211    491.94762  0.024815759  0.024988357            1 
 1653000    1.0004328   -7.6375351    492.29433  0.024818226  0.024981308            2 
 1654000    1.0039384   -7.6134314    492.19648  0.024798291  0.024974392            2 
 1655000   0.97439002    -7.678202    491.92655  0.024769716  0.024967435            2 
 1656000   0.99602927   -7.6129722    492.44671  0.024780933  0.024960422            1 
 1657000   0.97744956   -7.6040806    493.54951   0.02482144  0.024953565            2 
 1658000   0.98875801   -7.6199859    493.37784  0.024797841  0.024946668            2 
 1659000   0.97735588    -7.607586     493.6961   0.02479888  0.024939714            2 
 1660000   0.97934423   -7.6093796    493.92165  0.024795263  0.024932789            2 
 1661000   0.98679936   -7.6591634    492.47748  0.024707881  0.024925832            1 
 1662000   0.97951845   -7.6124395    491.86116  0.024662112  0.024918776            3 
 1663000   0.99542751   -7.6234308    493.63958  0.024736399  0.024911742            1 
 1664000   0.98348113   -7.6730919    491.69767  0.024624282  0.024904561            2 
 1665000   0.98409667   -7.6275628    493.26286  0.024687831  0.024897472            3 
 1666000    0.9787312   -7.6536132    492.55969  0.024637839  0.024890313            1 
 1667000   0.98163438   -7.6419474      492.549  0.024622525  0.024883125            1 
 1668000    0.9960883   -7.6841993    492.33398  0.024597021   0.02487593            1 
 1669000    0.9837309   -7.6616825    492.01638  0.024566426  0.024868624            3 
 1670000   0.99920764   -7.6359033     492.0994  0.024555858  0.024861367            2 
 1671000   0.97070647   -7.6284711    493.43811  0.024607925  0.024854188            1 
 1672000     1.010696   -7.6321464    493.04175  0.024573453  0.024846974            3 
 1673000   0.95451812    -7.691582    492.42664  0.024528125  0.024839775            1 
 1674000   0.98007164   -7.6348507    494.27036  0.024605255  0.024832505            3 
 1675000   0.98284874   -7.6495083    494.26066  0.024590083  0.024825388            2 
 1676000   0.98237678   -7.6666619    494.45281  0.024584964  0.024818229            2 
 1677000   0.97044503   -7.5830945    495.81675  0.024638081  0.024811193            3 
 1678000   0.98749859   -7.6499554    494.65746  0.024565825  0.024804113            1 
 1679000   0.95853903   -7.6482054    496.08273  0.024621934  0.024796994            2 
 1680000    1.0011268   -7.6656297    496.31562   0.02461883  0.024789912            1 
 1681000   0.96776342   -7.6317772    496.14844  0.024595897  0.024782689            1 
 1682000   0.97847586   -7.6348429    495.23116  0.024535828  0.024775524            2 
 1683000   0.97878889   -7.6580127    494.88558  0.024504139  0.024768241            1 
 1684000   0.98304538   -7.6758321    494.67102   0.02447897  0.024760964            2 
 1685000   0.97307939   -7.6517478    495.57161  0.024508982  0.024753738            1 
 1686000   0.98733987   -7.6648727    494.52612   0.02444277  0.024746435            4 
 1687000   0.99759603   -7.6467593    495.39446  0.024471175  0.024739176            2 
 1688000   0.97027705   -7.6441579     494.6919  0.024421994  0.024731899            4 
 1689000   0.98103237   -7.6226897    495.28651  0.024436871   0.02472465            1 
 1690000   0.97803265    -7.651993    496.16501   0.02446573  0.024717322            1 
 1691000   0.97733108   -7.6783519    495.67383  0.024427056  0.024710046            3 
 1692000   0.99148803   -7.6202201     496.3577  0.024446301   0.02470285            2 
 1693000    0.9933746   -7.6393556    497.23678  0.024475132  0.024695601            1 
 1694000    1.0007464   -7.6513378    495.95827   0.02439779  0.024688397            1 
 1695000   0.97065319   -7.6509815    496.64985  0.024417397  0.024681059            3 
 1696000   0.99924707   -7.6261441    496.27427  0.024384546  0.024673718            2 
 1697000    0.9845829   -7.6480154    495.79996  0.024346885  0.024666405            3 
 1698000    0.9856167   -7.6362318    497.48271  0.024415131  0.024659074            1 
 1699000   0.97703554    -7.637418    496.10975  0.024333419  0.024651787            1 
 1700000   0.97372722   -7.6603235    496.73957  0.024349979  0.024644437            1 
 1701000   0.97917707   -7.6854878    495.18854  0.024259678  0.024636951            1 
 1702000   0.98401242   -7.6874738    495.85062  0.024277841  0.024629545            2 
 1703000   0.98808768   -7.7025899    495.54155  0.024248461   0.02462213            4 
 1704000   0.99054088   -7.6386366    498.45499  0.024376711  0.024614708            3 
 1705000   0.98940769   -7.6875957    495.67962  0.024226765  0.024607176            1 
 1706000   0.96859344   -7.6561188    498.38094  0.024344516  0.024599762            1 
 1707000   0.97774765   -7.6475933     497.2739  0.024276211  0.024592436            1 
 1708000   0.95826557    -7.646829    498.65183  0.024329227  0.024585098            3 
 1709000   0.95838189   -7.6682205    499.11155  0.024337407  0.024577782            2 
 1710000   0.97804945   -7.6437641    499.55039  0.024344561  0.024570519            2 
 1711000   0.98402004   -7.6990499    498.50653  0.024279492  0.024563236            1 
 1712000   0.98221172   -7.6464635    500.85564  0.024379655  0.024555894            2 
 1713000   0.98665592   -7.6612049    499.76726  0.024312476  0.024548622            2 
 1714000   0.96727185   -7.6370514    499.21842  0.024271607  0.024541389            2 
 1715000   0.97377181   -7.7136601    499.00579  0.024247123  0.024534089            1 
 1716000   0.98483407   -7.6555798    499.64864  0.024264212  0.024526716            2 
 1717000    0.9797658   -7.6311554    500.30364  0.024281869  0.024519329            2 
 1718000   0.99348243   -7.6338344    500.14273  0.024259931  0.024511999            3 
 1719000   0.95136852   -7.6191471    501.63353  0.024318088  0.024504783            3 
 1720000   0.96994625   -7.6147974    501.66575  0.024305511  0.024497662            3 
 1721000   0.97628933   -7.6678147    500.53468   0.02423662  0.024490424            1 
 1722000    0.9882488   -7.6851192    500.01538  0.024197415  0.024483103            1 
 1723000   0.97172914   -7.6676575    498.28575  0.024099717  0.024475797            3 
 1724000   0.97137236   -7.7111734    500.04633  0.024170839  0.024468421            4 
 1725000   0.96586317   -7.6915668    499.82663  0.024146214  0.024460996            2 
 1726000   0.98084769    -7.641914    501.42159  0.024209231  0.024453651            1 
 1727000   0.96374014   -7.6830165    500.35094   0.02414355  0.024446277            2 
 1728000   0.99133199   -7.6903162    499.04402  0.024066552  0.024438958            2 
 1729000    1.0013424   -7.6474468    501.41174  0.024166751  0.024431573            1 
 1730000   0.97650809   -7.6585832    501.77368  0.024170216  0.024424204            3 
 1731000   0.97121726    -7.652986    502.36733  0.024184832  0.024416925            2 
 1732000     0.963748   -7.6441319    502.83965  0.024193594  0.024409683            2 
 1733000   0.95827781     -7.66746    502.70374  0.024173098  0.024402373            2 
 1734000   0.98568919   -7.6463274    503.01858  0.024174288  0.024395096            2 
 1735000   0.96521831   -7.6419035    502.52833  0.024136808  0.024387921            3 
 1736000   0.98859137   -7.6316912    504.75345  0.024229716  0.024380739            2 
 1737000   0.95544359    -7.653341      502.769  0.024120562  0.024373593            2 
 1738000   0.99110196   -7.6725211     503.5846   0.02414579  0.024366361            2 
 1739000   0.96838474   -7.6676511    503.70964  0.024137897  0.024359159            2 
 1740000   0.98115629   -7.6476708    504.93696  0.024182805  0.024351901            2 
 1741000    0.9792715   -7.6698533    504.74296  0.024159628  0.024344761            4 
 1742000   0.94579524   -7.6412637    503.75499  0.024098497  0.024337637            2 
 1743000   0.98825518   -7.6734988    502.67897  0.024033226  0.024330492            3 
 1744000   0.97235512   -7.6759401    503.26653  0.024047522  0.024323337            2 
 1745000   0.96891607   -7.6891039    503.16703  0.024028989  0.024316032            2 
 1746000   0.97337475   -7.6630191    504.63363  0.024085225  0.024308827            3 
 1747000   0.97267894   -7.6310692    504.34622  0.024057729  0.024301701            3 
 1748000   0.99570203    -7.666458    504.88903  0.024069843  0.024294484            3 
 1749000   0.96826491   -7.6675001    504.73851  0.024048909  0.024287275            1 
 1750000    0.9618717   -7.6753496    505.42586  0.024067898  0.024280024            2 
 1751000   0.95065667   -7.6956107    505.08758  0.024038053  0.024272774            2 
 1752000   0.97600284   -7.6495085    506.02453  0.024068899   0.02426549            1 
 1753000   0.98340644   -7.6404391    505.99414  0.024053724  0.024258293            4 
 1754000   0.98425822   -7.6948024    504.75825  0.023981293  0.024251074            1 
 1755000   0.97521214   -7.6859176    504.89695  0.023974214  0.024243752            2 
 1756000   0.96449382   -7.6610133    505.64396  0.023996012  0.024236527            3 
 1757000   0.95228264   -7.6761191    506.93044  0.024043371  0.024229248            2 
 1758000   0.98712183   -7.6337869    505.56319  0.023964884  0.024221982            3 
 1759000   0.97775347   -7.6438904    506.96294  0.024017573  0.024214799            1 
 1760000    0.9831522   -7.6920023    505.93126  0.023955079  0.024207586            2 
 1761000   0.98476862   -7.6703903    505.57736  0.023924728  0.024200389            5 
 1762000   0.96391438   -7.6615177    506.62621  0.023960755  0.024193207            3 
 1763000   0.96873036    -7.697448     505.4497  0.023891553  0.024185983            2 
 1764000    0.9532695   -7.6602185    508.03676  0.024000225    0.0241788            1 
 1765000    0.9700693    -7.676932    506.58489  0.023918078  0.024171556            2 
 1766000   0.97337195    -7.693502    508.07759  0.023974971  0.024164359            3 
 1767000   0.98263986   -7.6793788    506.21325  0.023873479  0.024157166            2 
 1768000   0.96413688   -7.6948486     506.6357  0.023879888  0.024149879            4 
 1769000   0.94094145   -7.6785777     508.7056  0.023963897  0.024142702            4 
 1770000   0.96025663   -7.6419049    508.04022  0.023919031  0.024135502            2 
 1771000   0.96326059   -7.6892784     507.8763  0.023897812   0.02412834            2 
 1772000   0.95685673   -7.6575631    507.47884  0.023865634  0.024121177            3 
 1773000   0.94327871   -7.6702916    508.73202  0.023911074  0.024114036            3 
 1774000    0.9579307   -7.7032074    507.98244  0.023862384  0.024106831            2 
 1775000   0.94997872   -7.6903408       509.61  0.023925352  0.024099657            1 
 1776000   0.97273444   -7.6497544    509.21442  0.023893319  0.024092538            3 
 1777000   0.94592593   -7.6708904    509.92475  0.023913185  0.024085424            2 
 1778000   0.96146384   -7.6532939    508.65586  0.023840263  0.024078333            2 
 1779000    0.9516957   -7.6793149    509.33912  0.023858868   0.02407115            2 
 1780000   0.95641671   -7.6870751    508.10237  0.023787564   0.02406395            1 
 1781000   0.96512374   -7.6897325    508.18154  0.023777912  0.024056691            1 
 1782000   0.95016813   -7.6755367    509.80552  0.023840513  0.024049416            1 
 1783000   0.97563846   -7.6823351    509.58844  0.023816996  0.024042261            1 
 1784000   0.96429361   -7.6780124    509.45438  0.023797383  0.024035157            4 
 1785000   0.95044683   -7.6910922    510.41027  0.023828677  0.024028049            1 
 1786000   0.94833404    -7.694112    510.01803  0.023797034    0.0240209            5 
 1787000   0.96047111   -7.6741313    511.52348  0.023853921  0.024013749            2 
 1788000   0.96793385   -7.6766524    511.27322  0.023828916  0.024006681            1 
 1789000   0.94763548   -7.7002206    510.79728  0.023793427  0.023999574            1 
 1790000   0.95305113    -7.676145    511.40858  0.023808593  0.023992439            1 
 1791000    0.9496509   -7.6773019    511.55584  0.023802152  0.023985375            1 
 1792000   0.94556712   -7.7065232    511.43462  0.023783232  0.023978301            1 
 1793000   0.96042955   -7.6996032     512.3549  0.023812739  0.023971337            2 
 1794000   0.97276802   -7.6808373    512.40883  0.023801971  0.023964256            2 
 1795000   0.98366293   -7.6814758    513.07839  0.023819795  0.023957227            5 
 1796000   0.96242772   -7.6874359    511.64077  0.023739828   0.02395016            1 
 1797000   0.97377749   -7.7057125    512.34562  0.023759303  0.023943072            1 
 1798000   0.96335366   -7.6858251      510.986  0.023683074  0.023935959            2 
 1799000   0.96651189   -7.6487212    513.78081   0.02379937  0.023928898            2 
 1800000   0.96875079   -7.6684024    512.36557  0.023720628  0.023921806            1 
 1801000   0.95792777   -7.6964315    511.31544  0.023658867  0.023914696            2 
 1802000   0.96325282   -7.7059009    512.67035  0.023708396  0.023907458            2 
 1803000   0.97230726   -7.6970182     512.7701  0.023699857  0.023900271            1 
 1804000    0.9722958   -7.6862163    511.99897  0.023651098  0.023893082            1 
 1805000   0.95796599   -7.6471659    512.05968  0.023640798  0.023885906            1 
 1806000   0.97342809   -7.7313027    511.76249  0.023613995  0.023878654            1 
 1807000   0.96481212   -7.7312747    510.82386   0.02355764  0.023871318            1 
 1808000   0.96308145   -7.7118957    512.65569  0.023629042  0.023864077            2 
 1809000   0.93617348   -7.6918232     511.9104  0.023581647  0.023856793            7 
 1810000   0.95947435   -7.6910178    512.95087  0.023616522  0.023849581            2 
 1811000   0.96877554   -7.6972177    513.55379  0.023631225  0.023842347            3 
 1812000   0.95561229   -7.7128605     513.0745  0.023596141  0.023835113            2 
 1813000   0.99168202   -7.6973711    512.93782  0.023576844  0.023827916            2 
 1814000   0.96150589   -7.7102976    513.70617  0.023599144  0.023820628            2 
 1815000   0.95731611   -7.7339429    514.32813  0.023614698   0.02381337            2 
 1816000   0.96779213   -7.6775016    513.32863  0.023555829  0.023806134            2 
 1817000   0.96641994    -7.697502    512.65594  0.023512014  0.023798876            3 
 1818000   0.95596347     -7.69379    514.62636    0.0235894  0.023791611            2 
 1819000   0.97324103   -7.6751703     514.6488   0.02357746  0.023784409            1 
 1820000   0.94554355   -7.6984293     516.0321  0.023627843  0.023777181            2 
 1821000   0.94893081   -7.6727113    515.48588  0.023589872  0.023769881            5 
 1822000   0.95328042   -7.6985916    514.32159  0.023523673  0.023762685            3 
 1823000   0.96667547   -7.6788877    514.16342  0.023503539   0.02375548            2 
 1824000   0.93775743   -7.7218297    514.19612  0.023492147  0.023748286            2 
 1825000   0.92608636   -7.6849107    515.65614  0.023545943  0.023741058            3 
 1826000   0.95583191   -7.7077024     515.4384  0.023523111  0.023733894            4 
 1827000   0.94463651   -7.6907027    516.04941  0.023538105   0.02372666            1 
 1828000   0.96151253   -7.6942098    515.95536  0.023520941  0.023719467            1 
 1829000   0.96865516   -7.7018189    515.59231  0.023491539  0.023712308            1 
 1830000   0.97535219   -7.7031309    516.89696  0.023538113  0.023705222            5 
 1831000   0.95757433   -7.7111845    516.24645  0.023495651  0.023698043            2 
 1832000   0.94013061   -7.7389804    515.86515  0.023465482   0.02369085            1 
 1833000   0.95445665   -7.7070068    516.76733  0.023493695  0.023683678            2 
 1834000   0.97300374   -7.7291267    516.00894  0.023446426  0.023676555            3 
 1835000   0.95348302   -7.7063674    516.56016  0.023458681  0.023669353            4 
 1836000   0.95350641   -7.7184203    517.28225  0.023478679  0.023662138            1 
 1837000   0.96312506   -7.7196838    517.37565  0.023470135  0.023654995            1 
 1838000   0.95303547   -7.7017986    518.54353  0.023510316  0.023647882            2 
 1839000   0.94571333   -7.6880815    518.51321  0.023496158  0.023640907            4 
 1840000    0.9493502   -7.7380042     517.9391  0.023457387  0.023633842            1 
 1841000   0.97807455   -7.7140317    517.66317  0.023432155  0.023626686            1 
 1842000   0.95132097   -7.7290411    516.65133  0.023373658   0.02361944            5 
 1843000   0.96086017   -7.7255229    516.41863  0.023350453  0.023612225            1 
 1844000   0.95325627   -7.7218783    517.01131  0.023364575  0.023605072            1 
 1845000   0.96246557    -7.762515    518.32514  0.023411253  0.023597906            1 
 1846000   0.95472692    -7.705775    519.76272  0.023463467  0.023590747            2 
 1847000   0.98212977   -7.7646903    518.76055  0.023405547  0.023583597            1 
 1848000   0.94414435   -7.6808577    519.13174   0.02340962  0.023576426            1 
 1849000   0.97011795   -7.7128804    518.62801  0.023374257  0.023569309            2 
 1850000   0.95482535   -7.7324971    519.46069   0.02339913  0.023562199            2 
 1851000   0.96384553   -7.7151544    518.30492  0.023334455  0.023555041            3 
 1852000   0.95737353   -7.7102995    518.64425  0.023337124  0.023547939            1 
 1853000   0.94425118   -7.6794304    521.26463  0.023442374  0.023540938            2 
 1854000   0.95558255    -7.697294    519.65115  0.023357208  0.023533973            1 
 1855000   0.94281422   -7.7606677    520.08757  0.023364222  0.023526955            2 
 1856000   0.95217218   -7.7275225    521.03784    0.0233943  0.023520044            3 
 1857000   0.95247519   -7.7057068    521.81153  0.023416421  0.023513104            2 
 1858000   0.97815516   -7.6799465    522.74129  0.023445519  0.023506201            2 
 1859000   0.95494207   -7.6911023    521.05715  0.023357412  0.023499393            1 
 1860000   0.96444447   -7.6792182    521.62133  0.023370131  0.023492496            3 
 1861000   0.96818129    -7.716741    520.63623  0.023313462  0.023485542            2 
 1862000   0.95415517    -7.712174    522.24133  0.023372777    0.0234786            2 
 1863000   0.94424299   -7.7210459    521.72296  0.023337044  0.023471581            2 
 1864000   0.94543795   -7.7094639    521.97032  0.023335583  0.023464648            3 
 1865000   0.94945647   -7.7375765    520.50686  0.023257679  0.023457711            2 
 1866000   0.95447398   -7.7344671    521.55255  0.023291915  0.023450705            6 
 1867000   0.93935412   -7.7472111    521.47269  0.023275875  0.023443664            1 
 1868000   0.93803539   -7.7392846    521.15565  0.023249271  0.023436625            1 
 1869000    0.9508727   -7.7341704    522.24723  0.023285502  0.023429665            2 
 1870000   0.94639442   -7.7023403      521.234  0.023227896  0.023422641            1 
 1871000   0.95561122   -7.7103204    521.78125  0.023239856  0.023415632            4 
 1872000   0.95276302   -7.7011819    522.56025  0.023262119  0.023408518            1 
 1873000   0.95357962   -7.7272916    522.01275   0.02322534  0.023401347            2 
 1874000   0.95172275   -7.7491862    520.18938  0.023131865  0.023394113            2 
 1875000    0.9446021   -7.7592063    522.17704  0.023207868  0.023386897            2 
 1876000   0.94089562   -7.7351268    522.33831  0.023202661  0.023379739            1 
 1877000   0.96607354   -7.7396046    522.00751  0.023175613  0.023372675            1 
 1878000   0.95001346   -7.7402609    522.95413  0.023205277  0.023365623            2 
 1879000   0.94851371   -7.7458699    523.45686  0.023215223  0.023358573            3 
 1880000   0.93925975   -7.7246006    522.52137  0.023161408   0.02335157            1 
 1881000   0.95042865   -7.7026991    523.32785  0.023184824  0.023344615            1 
 1882000   0.93197223   -7.7475427    522.61522   0.02314095  0.023337553            2 
 1883000   0.95017814   -7.7597474    523.80127   0.02318115  0.023330416            2 
 1884000   0.96137868   -7.7319276    524.29276  0.023190585  0.023323378            2 
 1885000   0.96006099   -7.7554271    523.98558  0.023164703  0.023316297            5 
 1886000   0.94891086   -7.7710178    523.90142  0.023148702  0.023309171            2 
 1887000   0.95075358   -7.7506856    522.53443  0.023076066  0.023302047            2 
 1888000    0.9573541   -7.7428792    523.31319  0.023098217  0.023294931            3 
 1889000   0.95752925   -7.7138826    522.79043  0.023062927  0.023287781            2 
 1890000   0.95183679   -7.7375979    523.48293  0.023081258  0.023280575            2 
 1891000   0.95455698   -7.7248928    522.90216  0.023043459  0.023273365            3 
 1892000   0.95688908   -7.7135517    525.09693  0.023127948  0.023266177            2 
 1893000   0.93756169   -7.7409606    524.46317  0.023087831  0.023259014            1 
 1894000   0.95310625   -7.7307472    524.37294  0.023071671  0.023251932            4 
 1895000   0.94663884   -7.7101319    525.31704  0.023101013  0.023244842            2 
 1896000   0.94161678   -7.7189323    523.58886  0.023012872  0.023237761            2 
 1897000   0.93206221   -7.7105149    523.96805  0.023017398  0.023230657            2 
 1898000   0.93508611   -7.7308501    524.26723  0.023018407  0.023223477            1 
 1899000   0.95065471   -7.7339815    524.55352  0.023018849  0.023216294            1 
 1900000   0.95904897   -7.7317755    525.35844  0.023042037  0.023209131            2 
 1901000   0.95097418    -7.721449    525.37161  0.023030493   0.02320205            1 
 1902000   0.95516923   -7.7735412    523.73351  0.022946614  0.023194952            1 
 1903000   0.91165345    -7.760575    525.59982  0.023016282  0.023187813            2 
 1904000    0.9509972   -7.6918554    526.12212  0.023027054  0.023180744            4 
 1905000   0.93343694   -7.7383773    524.07014  0.022925203  0.023173629            2 
 1906000   0.94699612   -7.7262047    525.22245  0.022963556  0.023166466            2 
 1907000   0.95453048    -7.733752    525.45034  0.022961473  0.023159307            3 
 1908000   0.95326271    -7.721457    525.04731  0.022931836  0.023152148            3 
 1909000   0.94364765   -7.7069487     526.3165  0.022975227   0.02314507            1 
 1910000   0.92885717   -7.7031533    529.21299  0.023089572   0.02313805            1 
 1911000   0.94071259   -7.6837065    527.20328  0.022989852  0.023131004            1 
 1912000   0.94603333   -7.6776114    529.40351  0.023073723  0.023123943            1 
 1913000   0.94538967   -7.7284275    526.12661  0.022918915  0.023116846            2 
 1914000   0.93842947   -7.7442555    526.87532  0.022939538  0.023109674            2 
 1915000   0.95345818   -7.7601495    526.16752  0.022896759  0.023102552            1 
 1916000    0.9297952   -7.7578345     526.9155  0.022917341  0.023095366            3 
 1917000    0.9467886    -7.722906    527.39052  0.022926035  0.023088223            1 
 1918000   0.93764562   -7.7479882    526.08667  0.022857433  0.023081095            3 
 1919000   0.95040109   -7.7362689    526.55048  0.022865663  0.023073964            1 
 1920000   0.94026009   -7.7316954    526.74808   0.02286233  0.023066825            1 
 1921000   0.96101727   -7.7342737    526.95772  0.022859523  0.023059759            1 
 1922000   0.95114312   -7.7337402    527.46021  0.022869416  0.023052696            1 
 1923000   0.96039828   -7.7427213    527.94472   0.02287852   0.02304552            2 
 1924000   0.91606361   -7.7583239    528.01466  0.022869658   0.02303838            2 
 1925000   0.92737118    -7.754005    527.53454  0.022836993   0.02303124            1 
 1926000   0.95856761    -7.741943    526.21444  0.022768018  0.023024078            2 
 1927000   0.92448781   -7.7156623    527.12843  0.022795729  0.023016862            1 
 1928000   0.95215665   -7.7268269    526.87233  0.022772836  0.023009685            1 
 1929000   0.94556862   -7.6965309    527.89405  0.022805169  0.023002561            3 
 1930000   0.93244314    -7.706914    528.98573  0.022840489  0.022995397            2 
 1931000   0.95098997   -7.7670648     526.5246  0.022722449  0.022988212            3 
 1932000   0.94686793   -7.7739871    527.33716  0.022745737  0.022980938            2 
 1933000   0.95642746   -7.7465862    528.18638   0.02277058  0.022973691            2 
 1934000    0.9338366   -7.7264531    528.22531  0.022760484  0.022966439            1 
 1935000   0.94040628    -7.772285    527.50774  0.022717818  0.022959194            2 
 1936000   0.93545873    -7.724726    527.38581  0.022700835  0.022951929            1 
 1937000    0.9399117   -7.7523322     527.1304  0.022678128  0.022944725            2 
 1938000   0.95818401   -7.7546543     527.4696  0.022681011  0.022937546            5 
 1939000   0.93790391   -7.7287621    529.33294  0.022749396  0.022930371            1 
 1940000   0.95011428    -7.740034    529.48736  0.022744302  0.022923245            4 
 1941000   0.95121892   -7.7490111    528.20986  0.022677738  0.022916113            3 
 1942000   0.93584227   -7.7506201     527.8549  0.022650828  0.022908929            2 
 1943000   0.93058787   -7.7584932    528.41807  0.022663324    0.0229017            1 
 1944000   0.95616972   -7.7699525    528.67904  0.022662853  0.022894533            2 
 1945000   0.91720943   -7.7279952    528.73384  0.022653549  0.022887314            2 
 1946000   0.93389208   -7.7676252    529.11845  0.022658378  0.022880092            2 
 1947000   0.93983418   -7.7365843    529.49517  0.022662865  0.022872869            4 
 1948000   0.94477982   -7.7209797    529.73215  0.022661369   0.02286561            1 
 1949000   0.92533271   -7.7256002    529.06236  0.022621103  0.022858452            3 
 1950000   0.93354807   -7.7242935    530.75471  0.022681825  0.022851327            2 
 1951000    0.9151212   -7.7504868    528.68175  0.022581657  0.022844083            3 
 1952000   0.93853483   -7.7399524    530.33605  0.022640713  0.022836828            1 
 1953000   0.94199101   -7.7588807    529.80773  0.022606577  0.022829561            2 
 1954000   0.97204708   -7.7487516    530.00093  0.022603247   0.02282238            5 
 1955000   0.93777851   -7.7624803    529.33134  0.022563143  0.022815182            3 
 1956000   0.93379859   -7.7509639    530.89049  0.022618034  0.022807975            1 
 1957000    0.9470278   -7.7624101    531.15452  0.022617719  0.022800782            2 
 1958000   0.93328532   -7.7811535     530.3143  0.022570408  0.022793548            2 
 1959000   0.93627483   -7.7469012    531.47034  0.022608063  0.022786335            2 
 1960000    0.9280595   -7.7415705    530.18468  0.022541865  0.022779162            3 
 1961000   0.95091498   -7.7515163     532.1579  0.022614223  0.022772009            6 
 1962000    0.9382176    -7.743057    531.52095  0.022575644  0.022764852            1 
 1963000   0.93268746   -7.7601988    531.48583  0.022562652   0.02275769            1 
 1964000   0.95314981   -7.7837515     532.0764  0.022576222  0.022750522            2 
 1965000   0.94080707   -7.7608523    531.41402  0.022536642  0.022743291            2 
 1966000    0.9515131   -7.7590607    531.45129  0.022526759  0.022736062            2 
 1967000   0.94541427   -7.7843155    531.42973  0.022514393  0.022728869            2 
 1968000   0.93104998   -7.7645982    531.37397  0.022500591  0.022721686            1 
 1969000   0.94738686   -7.7645092    532.35191  0.022530553  0.022714553            1 
 1970000   0.92469796   -7.7220031    532.65639  0.022531996   0.02270739            1 
 1971000    0.9164912   -7.7220066     534.6557  0.022605095   0.02270028            3 
 1972000   0.94845862    -7.736835    532.33735  0.022495662  0.022693234            2 
 1973000   0.94596849   -7.7837542    533.10934  0.022516867  0.022686155            3 
 1974000   0.92928316   -7.7381709    533.75815   0.02253285  0.022679024            1 
 1975000   0.93041355   -7.8095173    532.46195  0.022466749  0.022671957            3 
 1976000   0.92832548   -7.7963774    533.11565  0.022482948  0.022664848            2 
 1977000   0.93972952   -7.7584863    534.65904  0.022536631  0.022657786            4 
 1978000   0.93586627   -7.7833196    534.29826  0.022510038  0.022650811            1 
 1979000    0.9409204   -7.7610964    534.59907   0.02251133  0.022643779            2 
 1980000   0.94260017   -7.7527546    534.38151  0.022490804  0.022636751            2 
 1981000   0.94118043   -7.7824164    534.21894  0.022472612  0.022629742            3 
 1982000   0.95379794   -7.7872569    534.25609  0.022462836  0.022622719            3 
 1983000   0.91470056   -7.7774274    535.34336    0.0224972  0.022615698            4 
 1984000    0.9393719   -7.7685267    534.61317   0.02245519  0.022608783            5 
 1985000   0.93002689   -7.7523905     536.0682  0.022504962  0.022601895            5 
 1986000   0.93979405   -7.7400718    537.76199  0.022564702   0.02259512            1 
 1987000   0.94748517   -7.7306154    536.86545  0.022515746  0.022588271            4 
 1988000   0.92533139   -7.7637226    536.14196  0.022474093  0.022581398            2 
 1989000   0.91621242   -7.7680929    536.86809  0.022493216  0.022574636            1 
 1990000   0.93628916   -7.7866792    536.14699  0.022451717  0.022567777            2 
 1991000   0.91817988   -7.7817391    537.26665  0.022487303  0.022560956            2 
 1992000   0.94077675   -7.7728537    537.33248  0.022478768  0.022554159            1 
 1993000    0.9351408   -7.7650616    536.65071  0.022438983  0.022547315            3 
 1994000   0.93494783   -7.7812734    536.68088   0.02242899  0.022540376            2 
 1995000   0.93467033   -7.7489471    538.92924  0.022511664  0.022533464            2 
 1996000   0.92435517   -7.7295812    538.06876  0.022464461  0.022526634            1 
 1997000    0.9346238   -7.7767552    537.81093  0.022442452  0.022519767            2 
 1998000   0.94052018   -7.7653845    538.98698  0.022480271  0.022512946            1 
 1999000   0.91915631   -7.7836561    537.36051  0.022401222  0.022506081            2 
 2000000   0.92298601   -7.7618139    540.02729  0.022501137  0.022499166            3 
 2001000   0.92590453   -7.7725725    537.74671  0.022394916  0.022492305            2 
 2002000   0.94147237    -7.747644    537.44663  0.022371238  0.022485488            2 
 2003000   0.93566715   -7.8054843     536.9433  0.022339129  0.022478665            3 
 2004000   0.94124424    -7.761974    539.17482  0.022420776  0.022471806            2 
 2005000   0.94168885   -7.7938018    537.55417  0.022342235  0.022464966            1 
 2006000   0.93697944   -7.7772686    540.26936  0.022443892  0.022458143            2 
 2007000   0.95089276   -7.7356693    540.30374  0.022434137  0.022451417            2 
 2008000    0.9252849   -7.8133978    538.98811  0.022368364   0.02244466            1 
 2009000    0.9257259    -7.791405     540.4607  0.022418313  0.022437865            2 
 2010000   0.93546512   -7.7962654    539.92474  0.022384939  0.022431111            4 
 2011000   0.94226858   -7.7893517    540.28369  0.022388683  0.022424366            1 
 2012000   0.92720416   -7.7864083    541.33094   0.02242093  0.022417699            2 
 2013000   0.93019588   -7.8098892    539.58935  0.022337695  0.022410956            1 
 2014000   0.92575259    -7.815374    537.19512  0.022227537  0.022404173            4 
 2015000   0.93584219   -7.8207659    540.44846  0.022351053  0.022397408            2 
 2016000   0.92933861   -7.7970546    541.49392  0.022383181  0.022390722            1 
 2017000   0.93327136   -7.7866399    541.72985  0.022381831  0.022383972            3 
 2018000   0.93324408   -7.7531144    542.78457  0.022414295  0.022377333            1 
 2019000   0.92801867   -7.7746721    541.53751  0.022351722  0.022370722            2 
 2020000   0.95028231   -7.7874534    541.43215   0.02233631  0.022364128            4 
 2021000    0.9164901   -7.7962063    541.83748  0.022341971  0.022357493            1 
 2022000   0.94890872   -7.8054199    542.36758  0.022352769  0.022350847            1 
 2023000   0.92806653   -7.7932116    543.23943  0.022377633  0.022344169            1 
 2024000   0.91304547   -7.7831618    543.07132  0.022359656  0.022337519            1 
 2025000   0.93193641   -7.7672133     541.8671  0.022299058  0.022330912            1 
 2026000   0.91591864   -7.7830002    540.12293   0.02221631  0.022324255            2 
 2027000   0.90559337   -7.7504616    543.69923  0.022352377  0.022317699            2 
 2028000   0.94238178   -7.7731641    544.38121  0.022369379  0.022311112            2 
 2029000   0.94252401   -7.7602411     542.6443  0.022287017  0.022304519            3 
 2030000   0.94040294   -7.7261948    544.61478  0.022356928  0.022297903            3 
 2031000   0.90774323   -7.8028705     542.7635  0.022269961  0.022291286            2 
 2032000   0.93728207   -7.7937227    542.65641   0.02225461  0.022284638            1 
 2033000   0.93248318   -7.7950644    542.76102  0.022247951  0.022277958            1 
 2034000   0.92760612   -7.7860397    545.27031  0.022339819  0.022271325            1 
 2035000   0.93338053   -7.7506717    543.83199  0.022269942  0.022264728            2 
 2036000   0.92708231   -7.7621813    543.39584  0.022241153  0.022258114            2 
 2037000   0.92187942   -7.7835176    543.46766  0.022233172  0.022251458            1 
 2038000   0.92317454   -7.7773571    543.96205  0.022242478  0.022244802            2 
 2039000    0.9222707   -7.7664383    545.12631  0.022279153  0.022238223            2 
 2040000   0.92695437   -7.7469338    544.64742  0.022248669  0.022231649            7 
 2041000   0.91816489   -7.7937424    545.02315  0.022253109  0.022225037            4 
 2042000   0.91461003   -7.7926149     542.9935  0.022159382  0.022218429            2 
 2043000   0.92132108   -7.7492862    545.05818  0.022232753  0.022211849            2 
 2044000   0.93357791   -7.7895789     545.5499  0.022241924  0.022205288            2 
 2045000   0.90901793   -7.8014974    545.64857  0.022235068  0.022198722            3 
 2046000   0.90743837   -7.7758454    546.47434  0.022257834  0.022192181            3 
 2047000   0.94128095   -7.7572923    547.54302  0.022290466  0.022185713            2 
 2048000   0.92318775   -7.8119865    545.63809  0.022202071  0.022179273            1 
 2049000   0.94184577   -7.7752949    545.95593  0.022204162  0.022172843            2 
 2050000   0.92928238   -7.8022819    546.50615  0.022215697   0.02216641            2 
 2051000   0.94170424   -7.7733409     547.4183  0.022241927  0.022160001            3 
 2052000    0.9134681   -7.7821734    548.35658  0.022269192  0.022153597            2 
 2053000   0.93327218   -7.7988581    545.78378  0.022153912  0.022147143            4 
 2054000   0.91995356    -7.806325    547.98289  0.022232347  0.022140687            1 
 2055000   0.92694429   -7.7905313    547.48314  0.022201263   0.02213422            2 
 2056000   0.90134642   -7.8204504    546.40725  0.022146857  0.022127763            2 
 2057000   0.94932885   -7.8219879     545.7871  0.022110966  0.022121288            1 
 2058000   0.92821887   -7.7795072     548.0043  0.022190002  0.022114778            3 
 2059000   0.92206661   -7.7940206    547.75258  0.022169038  0.022108395            4 
 2060000   0.92737669   -7.7986912    547.92245  0.022165148  0.022102037            1 
 2061000   0.93203271   -7.7440932    549.24565  0.022207894  0.022095709            3 
 2062000   0.89850622   -7.7777777    549.04355  0.022188957  0.022089387            2 
 2063000   0.90729494   -7.7825976    547.80984  0.022128366  0.022083043            2 
 2064000   0.90317714   -7.7850231    548.63854  0.022151104  0.022076618            2 
 2065000   0.92210417   -7.8226165    548.93037  0.022152154  0.022070226            2 
 2066000   0.93173262   -7.8207006    549.20182   0.02215238  0.022063809            1 
 2067000    0.9060026   -7.8057047    548.08212  0.022096521  0.022057395            2 
 2068000   0.92464997    -7.828293    549.42581  0.022139982  0.022051003            1 
 2069000   0.93702805   -7.7987115    549.61459  0.022136885  0.022044621            4 
 2070000   0.91439983   -7.8185599    549.15658  0.022107753  0.022038187            2 
 2071000   0.92768319   -7.8214685    549.38503   0.02210627  0.022031734            2 
 2072000   0.91482882   -7.7680948    550.23926  0.022129957  0.022025306            2 
 2073000   0.91300924   -7.7931822    548.96777  0.022068169  0.022018893            3 
 2074000   0.91388381   -7.7898464    549.11041   0.02206326  0.022012454            3 
 2075000   0.92659199   -7.7948878    548.62767   0.02203324  0.022006045            2 
 2076000   0.93321192    -7.801828    548.89666  0.022033424  0.021999613            2 
 2077000   0.92640361   -7.8205887     549.2245  0.022035969  0.021993157            5 
 2078000    0.9193502   -7.7769902     551.8138  0.022129203  0.021986737            3 
 2079000   0.93225015   -7.8179003    550.40835  0.022062224  0.021980326            3 
 2080000   0.94587584   -7.8218605    549.00199  0.021995272  0.021973874            1 
 2081000   0.92816557   -7.8062767    550.85527  0.022058917  0.021967498            1 
 2082000   0.91652755   -7.8391576    550.65849  0.022040446  0.021961131            2 
 2083000   0.92672916   -7.8097673    550.85924  0.022037896  0.021954686            2 
 2084000   0.93183018   -7.7975724    549.98913  0.021992528  0.021948286            2 
 2085000   0.92759665   -7.8024735    551.17391  0.022029333  0.021941887            2 
 2086000   0.93741979   -7.8206694    550.08966  0.021975458  0.021935526            1 
 2087000   0.91448219   -7.8177195    550.23241  0.021970628  0.021929106            2 
 2088000   0.91286996   -7.8219195    551.04202  0.021992418  0.021922696            4 
 2089000   0.92843222   -7.8099249     552.0794  0.022023273  0.021916346            3 
 2090000   0.91780779   -7.8495491     551.5442  0.021991396   0.02190997            2 
 2091000   0.91703742   -7.7921297    552.47124  0.022017824  0.021903629            1 
 2092000    0.9250835   -7.7898251    552.38597  0.022003902  0.021897301            3 
 2093000   0.92919474   -7.7614192    552.69363  0.022005639  0.021891007            2 
 2094000   0.91764086   -7.8338191    552.62748  0.021992498  0.021884611            2 
 2095000   0.93664012   -7.8193054    551.47154   0.02193602  0.021878232            1 
 2096000   0.93260639   -7.7770423    553.78522  0.022017542  0.021871895            2 
 2097000   0.91859129   -7.7737715    553.56358  0.021998235  0.021865586            3 
 2098000   0.92841901   -7.8159078    553.04894  0.021967308  0.021859257            1 
 2099000   0.90332664   -7.8197515    551.21256  0.021883935  0.021852867            3 
 2100000   0.90273988   -7.8131714    551.90222  0.021900882  0.021846467            2 
 2101000    0.9178267   -7.8525509     551.6182  0.021879192  0.021840068            2 
 2102000   0.91131333   -7.8281903    552.26907  0.021894587  0.021833701            3 
 2103000    0.9156227   -7.8180809    552.77818   0.02190435  0.021827246            1 
 2104000   0.92009398   -7.8170239    554.16933  0.021949039  0.021820844            2 
 2105000   0.90731349   -7.7788898    554.12453  0.021936838  0.021814475            2 
 2106000   0.91006656   -7.8132995    553.44774  0.021899641  0.021808141            1 
 2107000   0.92534245   -7.8150322    553.99164  0.021910759  0.021801787            1 
 2108000   0.92096077   -7.8091007    553.97004  0.021899511  0.021795467            3 
 2109000   0.90483748   -7.8145982    553.17827  0.021857842  0.021789177            3 
 2110000   0.90084132    -7.819681    553.89187  0.021875666  0.021782889            2 
 2111000   0.89797472   -7.7734594    554.41535  0.021885968  0.021776614            4 
 2112000   0.91710957   -7.8337892    554.82385  0.021891724  0.021770361            2 
 2113000   0.91427887   -7.8365877    555.14035  0.021893845  0.021764072            2 
 2114000   0.92824468   -7.8183788    555.07076  0.021880746  0.021757777            3 
 2115000   0.91992773   -7.8280302    555.55115  0.021889328  0.021751497            2 
 2116000   0.88030031    -7.783262    555.69989  0.021884841  0.021745229            1 
 2117000   0.91298154   -7.8331888    554.20385  0.021815614  0.021738994            1 
 2118000   0.92638592   -7.8164657    554.81469  0.021829347  0.021732714            5 
 2119000   0.90254625   -7.7996851    554.87955  0.021821596  0.021726463            3 
 2120000   0.91448311    -7.815618    554.43077  0.021793662  0.021720186            2 
 2121000   0.90346989   -7.8374374    554.71743   0.02179465  0.021713872            3 
 2122000   0.91032268   -7.8345095    555.19706  0.021803215   0.02170754            3 
 2123000   0.91165376   -7.8398936    556.89229  0.021859487  0.021701268            6 
 2124000   0.91149531   -7.8160887    556.31707  0.021826627   0.02169503            2 
 2125000   0.91445759   -7.8174436     555.4995  0.021784294  0.021688779            2 
 2126000   0.90826167     -7.86858      556.573  0.021816126  0.021682505            1 
 2127000    0.9102792    -7.826752    556.60343  0.021807061  0.021676257            1 
 2128000    0.9149688   -7.8580286     556.4182   0.02178956  0.021670015            2 
 2129000   0.91987629    -7.872047    555.41981  0.021740246  0.021663729            2 
 2130000   0.90464859   -7.8463595    556.45077  0.021770374   0.02165744            1 
 2131000   0.92135982   -7.8534023     556.6599  0.021768336  0.021651197            3 
 2132000   0.90823004   -7.8137305    557.91332  0.021807118  0.021645005            2 
 2133000   0.91278089   -7.8193627    556.84645  0.021755214  0.021638794            2 
 2134000   0.90359846   -7.8466077      555.974   0.02171095  0.021632591            2 
 2135000    0.9017985   -7.8432057     556.1522  0.021707736  0.021626337            1 
 2136000   0.92130934   -7.8601476    556.49866   0.02171109  0.021620089            1 
 2137000   0.91267572   -7.8610857    557.79082  0.021751319  0.021613801            1 
 2138000   0.90459551   -7.8527546    557.71011  0.021737999  0.021607602            1 
 2139000   0.92264642   -7.8380684    557.34118  0.021713463  0.021601428            1 
 2140000    0.9156353   -7.8483835    558.37391  0.021743532   0.02159525            3 
 2141000   0.91801624   -7.8269528    558.37578  0.021733449  0.021589114            4 
 2142000   0.88852246   -7.8221016    559.64686  0.021772754  0.021583007            3 
 2143000   0.92513039   -7.8082502    560.78191  0.021806732   0.02157692            1 
 2144000   0.92219137   -7.8325978    559.94911  0.021764191  0.021570801            3 
 2145000   0.92186308   -7.8278523    558.70199  0.021705594  0.021564636            1 
 2146000   0.89345575   -7.8341973    560.14882  0.021751663  0.021558425            3 
 2147000   0.91250237   -7.8415564    559.15588  0.021702992   0.02155222            2 
 2148000    0.9359238   -7.8364339    558.27494  0.021658711  0.021546086            2 
 2149000   0.89616701   -7.8299408      560.516  0.021735536  0.021539956            2 
 2150000   0.90028042   -7.8338504    559.91824  0.021702257  0.021533862            1 
 2151000   0.89515737   -7.8510983    561.02681  0.021735116  0.021527769            2 
 2152000   0.91079224   -7.7973472    560.59207  0.021708181  0.021521695            4 
 2153000   0.91846154    -7.850724    560.65449  0.021700514  0.021515618            2 
 2154000   0.91024491   -7.8641347    559.01355  0.021626956   0.02150949            1 
 2155000    0.9162564   -7.8486241    560.08068  0.021658186  0.021503388            2 
 2156000    0.8948851     -7.84082    561.46271  0.021701558  0.021497327            2 
 2157000   0.90138642   -7.8686683    559.79213  0.021626956  0.021491233            1 
 2158000   0.89838498   -7.8372601     562.3655  0.021716308  0.021485151            1 
 2159000   0.90316495   -7.8256276    561.81519  0.021685008  0.021479128            1 
 2160000   0.89972606   -7.8410747    562.29529  0.021693491  0.021473136            1 
 2161000   0.92182632   -7.8570255     561.0561  0.021635666  0.021467113            1 
 2162000   0.89991346   -7.8459316    563.31579  0.021712758  0.021461081            1 
 2163000   0.89404946   -7.8689547    562.28702  0.021663084   0.02145506            3 
 2164000   0.92693847   -7.8358352    561.20932  0.021611573   0.02144904            1 
 2165000   0.90341737   -7.8279568    564.46157  0.021726773  0.021443064            3 
 2166000   0.89875483   -7.7997608    562.87543  0.021655718  0.021437041            2 
 2167000   0.91335875   -7.8276993    562.49376  0.021631047  0.021431064            3 
 2168000    0.8900355   -7.8107913     562.8161   0.02163346  0.021425131            4 
 2169000   0.90203324   -7.8343573      563.269  0.021640887  0.021419183            1 
 2170000   0.90425574   -7.8341948    561.64332  0.021568484  0.021413231            2 
 2171000   0.89526258   -7.8535733    562.64467  0.021596986  0.021407231            4 
 2172000   0.89772218   -7.8377212    565.07278  0.021680202  0.021401263            2 
 2173000   0.92131999   -7.8832776    563.37291  0.021605036  0.021395282            1 
 2174000    0.9067778   -7.8841115    561.88011  0.021537876  0.021389304            2 
 2175000   0.92456028   -7.8568249    562.77609  0.021562302  0.021383294            1 
 2176000   0.92032743   -7.8779789    562.94954  0.021559036  0.021377266            2 
 2177000   0.90594096   -7.8360865    563.06339  0.021553491  0.021371258            4 
 2178000   0.90079004   -7.8389088     565.3096  0.021629538  0.021365304            2 
 2179000   0.90399599   -7.8586051    564.12347  0.021574249  0.021359377            2 
 2180000   0.89336653   -7.8514753    564.36002  0.021573395  0.021353417            1 
 2181000   0.90343674   -7.8144691     565.8388  0.021620006  0.021347503            1 
 2182000   0.91988677   -7.8404864    565.84189  0.021610216   0.02134156            2 
 2183000   0.91635371    -7.845428    562.88115  0.021487294  0.021335594            1 
 2184000   0.90059448   -7.8439948    563.60797  0.021505188  0.021329569            2 
 2185000   0.88275718   -7.8387072    565.29855  0.021559823   0.02132359            2 
 2186000    0.9062558   -7.8432631    566.08222  0.021579834  0.021317646            1 
 2187000   0.89701814   -7.8647455    565.22281   0.02153722   0.02131176            1 
 2188000   0.90829431   -7.8386796     565.3928  0.021533851  0.021305846            2 
 2189000     0.915159   -7.8357295    565.67202  0.021534644  0.021299931            2 
 2190000   0.90502058   -7.8544568    565.05586  0.021501365  0.021293962            2 
 2191000   0.90864827   -7.8447442    565.63099  0.021513426  0.021288039            2 
 2192000   0.90113394   -7.8450067    566.41759  0.021533515  0.021282115            2 
 2193000   0.89722112   -7.8414009    567.60116  0.021568672   0.02127623            5 
 2194000   0.91537927   -7.8921456    566.63549  0.021522162  0.021270316            1 
 2195000   0.90467529   -7.8713829    565.71689  0.021477483  0.021264384            1 
 2196000   0.89402587   -7.8308125    567.31843  0.021528477  0.021258497            2 
 2197000   0.90968986   -7.8663407     565.7958  0.021460924  0.021252621            1 
 2198000   0.89744603    -7.832796    567.42489  0.021512924  0.021246693            2 
 2199000   0.90687022   -7.7990961    567.93229   0.02152237  0.021240829            4 
 2200000   0.90603528   -7.8326801    567.95304  0.021513373  0.021234991            2 
 2201000   0.89157966   -7.8467512    568.78758  0.021535195  0.021229201            3 
 2202000   0.90071067   -7.8384995     568.1369  0.021500791  0.021223418            2 
 2203000   0.90340923   -7.8177079    567.71362   0.02147502  0.021217564            2 
 2204000   0.89281365   -7.8995954    567.66496  0.021463436  0.021211675            2 
 2205000   0.90167671   -7.8624297    567.16401   0.02143477  0.021205805            2 
 2206000   0.89314428   -7.8344048    568.34053  0.021469497  0.021199907            1 
 2207000   0.89160235   -7.8674882    568.62034  0.021470334  0.021194024            2 
 2208000   0.90159143   -7.8896149      567.247  0.021408779  0.021188155            3 
 2209000   0.88294173   -7.8426841    569.22221  0.021473601  0.021182274            1 
 2210000   0.90146133   -7.8841182    568.11848  0.021422265  0.021176432            1 
 2211000   0.90252379   -7.8561544    567.40538    0.0213857  0.021170544            2 
 2212000     0.892794   -7.8627963    568.93894  0.021433806   0.02116472            1 
 2213000   0.89294892   -7.8490122    570.30142  0.021475426   0.02115888            1 
 2214000   0.89617799   -7.8930782     567.7684  0.021370385   0.02115302            2 
 2215000   0.89797976   -7.8461905    568.77745    0.0213987  0.021147172            2 
 2216000   0.89617063   -7.8828186    568.77368  0.021388902  0.021141319            2 
 2217000   0.89112386   -7.8686921    568.14758   0.02135572  0.021135454            2 
 2218000   0.91849308   -7.8828309     568.6488  0.021364923  0.021129549            3 
 2219000   0.91653076   -7.8766287    569.04294  0.021370097  0.021123634            1 
 2220000   0.89938607   -7.8836655    568.41277  0.021336816  0.021117739            3 
 2221000   0.89901167   -7.8711156    569.71029  0.021375893  0.021111828            1 
 2222000   0.88803737   -7.8808827     569.2242  0.021348042  0.021105875            1 
 2223000   0.89891004   -7.8622839    569.55949  0.021351008  0.021099968            1 
 2224000   0.89538581    -7.858675    568.88517  0.021316141  0.021094073            1 
 2225000   0.89223347   -7.8825582    568.39878  0.021288344  0.021088171            1 
 2226000   0.91337919   -7.8461357    570.85961  0.021370905  0.021082278            1 
 2227000   0.90956264   -7.8880091    569.83551  0.021322987  0.021076382            1 
 2228000   0.88741637   -7.8799441    570.41715  0.021335172  0.021070541            1 
 2229000   0.90001401   -7.8952785    568.56993   0.02125654  0.021064623            2 
 2230000   0.88412708   -7.8118448    572.20041  0.021382676  0.021058777            1 
 2231000   0.88668297   -7.8622401     570.7115  0.021317477  0.021053023            4 
 2232000     0.873457   -7.8517966     571.4646  0.021336044  0.021047192            1 
 2233000   0.88311663   -7.8635109     572.6412  0.021370398  0.021041343            1 
 2234000   0.90653074   -7.8711543    569.98933  0.021261912   0.02103552            2 
 2235000   0.89496843   -7.8368971      570.885  0.021285794  0.021029679            2 
 2236000   0.88989266    -7.902953    570.81705  0.021273742  0.021023821            2 
 2237000   0.89375955   -7.8761128     569.4556  0.021213515  0.021017943            2 
 2238000   0.90852651   -7.8836823    570.70198  0.021250446  0.021012049            2 
 2239000   0.90259337   -7.8585175    571.85154   0.02128374  0.021006233            2 
 2240000   0.89464567   -7.8403073    571.86426  0.021274712  0.021000403            2 
 2241000   0.89368818   -7.8604605    570.55599   0.02121657  0.020994587            3 
 2242000   0.91801532   -7.8771521    570.96529   0.02122232  0.020988728            3 
 2243000   0.87916391    -7.842035    571.84897  0.021245689   0.02098289            5 
 2244000   0.88316924   -7.8346339    571.91783  0.021238779  0.020977016            2 
 2245000   0.89109681   -7.8143638    573.25593  0.021278988  0.020971171            1 
 2246000   0.88149821   -7.8632399    571.92667  0.021220194  0.020965342            3 
 2247000   0.87858096   -7.8565057    572.18351  0.021220276  0.020959515            1 
 2248000   0.87923187    -7.903814     571.4008  0.021181821  0.020953636            2 
 2249000   0.89867354   -7.8882506    571.17122  0.021163896  0.020947735            1 
 2250000   0.88189919   -7.8989364    571.64244  0.021171942  0.020941829            2 
 2251000   0.88535216   -7.8574319    573.14044  0.021217993   0.02093597            2 
 2252000   0.88911184   -7.8999739    571.41578  0.021144752  0.020930116            2 
 2253000    0.8877284   -7.8772134    572.58615  0.021178656  0.020924232            2 
 2254000   0.88249635   -7.8626382    573.09546   0.02118809  0.020918372            1 
 2255000   0.87261136    -7.890084    573.48896  0.021193236  0.020912541            3 
 2256000   0.90070535   -7.8865625    572.41954  0.021144339    0.0209067            3 
 2257000   0.90610415   -7.8899571    573.24017   0.02116527  0.020900853            1 
 2258000   0.89051016   -7.8351868    573.54044  0.021166978  0.020895053            2 
 2259000   0.90293178   -7.8812604    572.59451  0.021122713   0.02088924            2 
 2260000    0.8797973   -7.8412261    574.34371  0.021177865  0.020883475            2 
 2261000   0.88793884   -7.8378562     574.6597  0.021180145  0.020877717            5 
 2262000   0.88810713   -7.8756189    573.56399  0.021130415  0.020871917            1 
 2263000   0.90249681   -7.8985234    574.49118  0.021155221  0.020866102            2 
 2264000   0.89987824   -7.8525575    574.73131  0.021154715  0.020860301            1 
 2265000   0.87650828   -7.8771795    574.76059  0.021146453  0.020854514            2 
 2266000   0.89862549   -7.8567853    575.34109  0.021158469  0.020848691            1 
 2267000   0.89607088   -7.8928407    574.39241  0.021114263  0.020842909            2 
 2268000   0.87833294   -7.8724616    573.27567  0.021063921  0.020837071            1 
 2269000   0.88690909   -7.8757246    574.69407  0.021106731  0.020831257            2 
 2270000   0.89020495   -7.8865203    574.98644  0.021108166  0.020825471            2 
 2271000   0.89222765   -7.9124255    574.62296  0.021085534  0.020819672            4 
 2272000   0.91179159    -7.904553    572.95472  0.021015065  0.020813811            1 
 2273000   0.88653078   -7.8672897    576.00606  0.021117688  0.020807979            2 
 2274000   0.88026097   -7.8810648    574.71625  0.021061135  0.020802176            3 
 2275000   0.89125535   -7.8770444     575.6563  0.021086311  0.020796383            1 
 2276000   0.87063089   -7.8530883    575.28413   0.02106342  0.020790658            6 
 2277000   0.88398447   -7.8894525    575.61819  0.021066396  0.020784841            1 
 2278000    0.8666966   -7.9130673    573.76227  0.020989255  0.020779025       -1e+20 
 2279000   0.88508223   -7.8864866    575.46648  0.021042361   0.02077315            1 
 2280000   0.88927765   -7.8908271    575.54134  0.021035868  0.020767256            2 
 2281000   0.88901577   -7.8827882    574.66647  0.020994683  0.020761345            2 
 2282000   0.88227602   -7.9137093    574.20887  0.020968773  0.020755428            2 
 2283000   0.87119338   -7.9051476    574.44568  0.020968232  0.020749503            2 
 2284000   0.89682575    -7.865402    573.76413  0.020934184  0.020743576            3 
 2285000   0.86705754   -7.8747542    576.04332  0.021008145  0.020737676            1 
 2286000    0.8843558   -7.9280553    574.34292  0.020936969  0.020731833            4 
 2287000   0.90409924   -7.9156825    574.86389  0.020946797  0.020725943            4 
 2288000   0.88825298    -7.913212    574.65348  0.020929978  0.020720056            3 
 2289000   0.87891144   -7.8835588    574.82118   0.02092694  0.020714147            3 
 2290000   0.88128782   -7.8819205    577.74584   0.02102423  0.020708262            2 
 2291000   0.87939313   -7.8732667    575.77623   0.02094341  0.020702401            1 
 2292000   0.89452399   -7.8923143    576.33441  0.020954567   0.02069656            4 
 2293000   0.89688885   -7.8549847    576.61278  0.020955545  0.020690696            2 
 2294000   0.86893545   -7.8750964    576.62847   0.02094698  0.020684871            2 
 2295000   0.87243678     -7.93778    574.44376  0.020858524  0.020678931            3 
 2296000   0.88408582   -7.9013091    575.62731  0.020892396  0.020672967            4 
 2297000   0.88937156   -7.9102145    575.24245  0.020869339  0.020667011            5 
 2298000   0.90081227   -7.8915236    576.92008  0.020921094  0.020661095            1 
 2299000   0.87828866   -7.8854836    576.80257  0.020907734  0.020655238            1 
 2300000   0.89207715   -7.8621753    577.22543  0.020913965  0.020649408            2 
 2301000    0.8835607   -7.9126476    575.96289  0.020859152  0.020643556            2 
 2302000   0.87079095   -7.8618134     576.5928  0.020872893  0.020637651            1 
 2303000   0.87256585   -7.8833117    576.93201  0.020876104  0.020631785            1 
 2304000   0.87293294   -7.8829352    577.37001  0.020882885  0.020625893            2 
 2305000   0.89155231   -7.8930508    577.58488  0.020881594  0.020620017            2 
 2306000   0.89101893   -7.8754522    578.52123  0.020906376  0.020614171            3 
 2307000   0.88727277   -7.9212235    577.00804  0.020842654  0.020608308            2 
 2308000   0.86784831   -7.8969673    577.64028  0.020856451  0.020602455            1 
 2309000   0.89763733   -7.9019866    576.97547  0.020823425  0.020596594            1 
 2310000   0.88172549   -7.9174636    576.92035  0.020812423  0.020590738            2 
 2311000   0.86233079   -7.9134793    576.95969  0.020804835  0.020584839            1 
 2312000    0.8810333   -7.8995814     577.6588  0.020821035   0.02057894            1 
 2313000   0.87087144   -7.8987577    578.24834  0.020833273  0.020573059            2 
 2314000   0.87020428   -7.9018762    577.52883  0.020798359  0.020567161            1 
 2315000   0.88473915   -7.8956982    578.57296  0.020826961   0.02056136            3 
 2316000    0.8785256   -7.8815765    578.87655  0.020828891  0.020555549            2 
 2317000   0.87390559   -7.8753339     579.8681  0.020855564  0.020549702            1 
 2318000   0.86692742   -7.9042274    577.79661  0.020772096  0.020543842            2 
 2319000   0.88498505   -7.9404262     576.4201  0.020713673  0.020537962            3 
 2320000   0.88330131   -7.9019791    576.46446  0.020706338  0.020532066            2 
 2321000   0.85969553   -7.9183558     577.5103  0.020734967  0.020526149            1 
 2322000   0.88680221   -7.9136798    577.92939  0.020741078  0.020520241            4 
 2323000   0.87874117   -7.9367743    579.17186   0.02077672  0.020514299            2 
 2324000   0.88073276   -7.9195391    577.94279  0.020723709  0.020508364            1 
 2325000   0.86976334   -7.9494854    578.10455  0.020720593  0.020502401            2 
 2326000   0.86840235   -7.9179698    578.38701  0.020721805  0.020496499            2 
 2327000    0.8845682   -7.9416863    579.03684  0.020736171  0.020490581            1 
 2328000   0.88693043   -7.9409867    579.76013  0.020753155  0.020484701            4 
 2329000   0.88713744   -7.9038476    579.61178  0.020738936  0.020478849            4 
 2330000   0.87889861   -7.9072417    580.02027  0.020744645  0.020473006            2 
 2331000   0.88215663   -7.9057519    579.03375  0.020700477  0.020467144            4 
 2332000   0.88662586   -7.9240927    579.06322  0.020692654  0.020461295            1 
 2333000   0.87062867   -7.8931467    578.87386   0.02067702  0.020455481            3 
 2334000   0.88605403   -7.9156846    581.20829   0.02075151  0.020449658            1 
 2335000   0.88208159   -7.9011117    579.51859  0.020682319  0.020443863            3 
 2336000   0.87060041   -7.8939505    580.20675  0.020698015  0.020438052            1 
 2337000   0.87213958   -7.8894229    581.42279   0.02073252  0.020432254            1 
 2338000   0.87115864   -7.9055054    580.26379  0.020682342  0.020426428            2 
 2339000   0.87779654   -7.9237906     580.0628  0.020666339  0.020420568            1 
 2340000   0.87690399   -7.9256635    578.47018   0.02060079  0.020414679            2 
 2341000   0.87066456    -7.912588    580.08611  0.020649513  0.020408808            3 
 2342000   0.86681159    -7.908148    579.90305  0.020634182  0.020402993            2 
 2343000    0.8788311   -7.9341441    579.84796  0.020623416  0.020397139            2 
 2344000   0.89208127   -7.9231364    580.24869  0.020628864  0.020391297            3 
 2345000   0.87812829   -7.9165234    581.01266  0.020647216  0.020385489            4 
 2346000   0.88869211    -7.911221    580.73943   0.02062871   0.02037964            4 
 2347000   0.89161707   -7.8913667      581.452  0.020645221  0.020373809            3 
 2348000   0.86854406   -7.9428078    579.49395  0.020566935  0.020367925            2 
 2349000   0.86892396   -7.9216792    580.83912  0.020605901   0.02036207            4 
 2350000   0.87618682   -7.9352835    580.77539  0.020594872  0.020356275            2 
 2351000   0.86699085   -7.9376675    580.76581  0.020585772  0.020350421            4 
 2352000   0.86221989   -7.9510089    580.35811  0.020562575  0.020344582            4 
 2353000   0.88276695   -7.9216542    581.45273  0.020592603  0.020338763            2 
 2354000   0.86511713   -7.9141986    581.70532  0.020592797  0.020332925            3 
 2355000   0.86636459   -7.9115684    582.94011  0.020627746  0.020327087            2 
 2356000     0.876158   -7.8849303    581.11532  0.020554447  0.020321249            4 
 2357000   0.86954681   -7.9472352    580.71406  0.020531539  0.020315392            1 
 2358000   0.87701857   -7.9456053    582.39047  0.020582078  0.020309498            1 
 2359000   0.86405052   -7.9453911    581.31777  0.020535459  0.020303614            1 
 2360000   0.86559266   -7.9561641    583.61445  0.020607855   0.02029776            4 
 2361000   0.86519628   -7.9521463    581.44016  0.020522383  0.020291916            1 
 2362000   0.86801795   -7.9109598    582.44469  0.020549135  0.020286124            2 
 2363000   0.87052602    -7.946024    581.57962  0.020509931  0.020280346            3 
 2364000   0.88839497   -7.9657325     581.1138  0.020484835  0.020274546            1 
 2365000    0.8626729   -7.9097815    581.71386  0.020497317  0.020268704            2 
 2366000    0.8623618   -7.9464683    581.74552  0.020489769  0.020262866            2 
 2367000   0.89271875   -7.9628629    583.15698  0.020530805  0.020257061            2 
 2368000   0.86955748   -7.9269255      582.505   0.02049919  0.020251201            2 
 2369000   0.87180383   -7.9401198     581.7454  0.020463817  0.020245333            2 
 2370000   0.87100795   -7.9176498    583.61224  0.020520824  0.020239509            1 
 2371000   0.86438788   -7.9191273    582.82996  0.020484674  0.020233674            2 
 2372000   0.87167746   -7.9285086    582.63985  0.020469359  0.020227794            1 
 2373000   0.87994835    -7.942366    581.88525  0.020434234  0.020221898            4 
 2374000   0.86051403    -7.946577    581.89305  0.020425901  0.020216042            2 
 2375000   0.86876849   -7.9591357    582.01288  0.020421505  0.020210104            2 
 2376000   0.86419303   -7.9189543    583.32074   0.02045878  0.020204205            3 
 2377000   0.87539052   -7.9430425    582.48376   0.02042083  0.020198291            3 
 2378000   0.88266875   -7.9010267    583.29792  0.020440774  0.020192437            1 
 2379000   0.87832367   -7.9048838    582.05146   0.02038852  0.020186595            3 
 2380000   0.89599141    -7.896935    583.64763  0.020435841  0.020180738            1 
 2381000   0.88192734   -7.9023855    581.98328  0.020369007  0.020174911            1 
 2382000   0.87723972   -7.8928464    585.00413   0.02046614  0.020169075            3 
 2383000    0.8960107   -7.9447918    584.44274  0.020437919  0.020163241            2 
 2384000   0.88107868   -7.9354497    582.80497  0.020372098  0.020157333            3 
 2385000   0.88106599    -7.930006    582.11077    0.0203393  0.020151428            1 
 2386000   0.86263958   -7.9434262     583.2467  0.020370449  0.020145544            2 
 2387000   0.86617875   -7.9672982    583.77445   0.02038034  0.020139625            1 
 2388000   0.87430773    -7.934069    584.55661    0.0203991  0.020133676            3 
 2389000   0.87530678   -7.9727325    582.35462  0.020313751  0.020127727            2 
 2390000   0.88065079   -7.9449784    584.82509  0.020391391    0.0201218            2 
 2391000   0.89071283   -7.9380805    583.87416   0.02034972  0.020115906            4 
 2392000   0.85425196   -7.9227342    584.26739  0.020354912  0.020110003            2 
 2393000   0.85763332   -7.9260415    583.60887  0.020323474  0.020104099            1 
 2394000   0.85120439   -7.9563124    582.71417   0.02028384  0.020098157            2 
 2395000   0.87413471   -7.9515169    582.09875  0.020253958  0.020092196            1 
 2396000   0.88705369   -7.9660225    584.10668  0.020315341  0.020086218            4 
 2397000   0.85617641    -7.928488    583.20018   0.02027535   0.02008024            4 
 2398000   0.86615216   -7.9351564     583.5207  0.020278034  0.020074271            3 
 2399000   0.86805051   -7.9644627    581.61306  0.020203316   0.02006826            2 
 2400000   0.85425321   -7.9440464     582.6686  0.020231548  0.020062285            2 
 2401000   0.88195125   -7.9507949     583.4723  0.020251017  0.020056297            3 
 2402000   0.86777685   -7.9049055    583.70662  0.020250715  0.020050319            4 
 2403000   0.85778238   -7.9597637    583.13581  0.020222493  0.020044382            5 
 2404000   0.86376296   -7.9133631    585.39377  0.020292352  0.020038403            2 
 2405000   0.86587257   -7.9256405    584.57342  0.020255489  0.020032438            1 
 2406000   0.88476703   -7.9456858    582.37037  0.020170767  0.020026432            4 
 2407000    0.8744735   -7.9179474    586.15074  0.020293268  0.020020441            1 
 2408000   0.87481978   -7.9406996    584.15754  0.020215862  0.020014466            2 
 2409000   0.87878645   -7.9397412    585.25474  0.020245425  0.020008536            2 
 2410000   0.87171549   -7.9316178    585.74224  0.020253881  0.020002592            2 
 2411000   0.85106374   -7.9186186    585.19571   0.02022659  0.019996633            2 
 2412000    0.8356373   -7.9398744    583.38853  0.020155767  0.019990709            2 
 2413000   0.86696284   -7.9577892    583.69305  0.020157931  0.019984758            1 
 2414000   0.87611683   -7.9612538    584.66527  0.020183142  0.019978808            1 
 2415000     0.866716   -7.8990524     584.5055  0.020169272  0.019972839            1 
 2416000    0.8598808   -7.9545263    583.86554   0.02013885  0.019966871            1 
 2417000   0.87957266   -7.9462759    585.07058  0.020172065  0.019960912            1 
 2418000   0.86674857   -7.9827768    584.78337  0.020153825  0.019954961            3 
 2419000   0.87547619   -7.9964537    583.79953    0.0201116     0.019949            2 
 2420000   0.86707825   -7.9366943    586.08564  0.020182013  0.019943049            2 
 2421000    0.8942401   -7.9368346    585.39968  0.020150065  0.019937174            2 
 2422000   0.85756809   -7.9616063    584.88103    0.0201239   0.01993125            3 
 2423000   0.85340688   -7.9759102    583.51025   0.02006845  0.019925338            2 
 2424000   0.85837468   -7.9885965    584.29435  0.020087127  0.019919352            1 
 2425000   0.84036783   -7.9607647    584.50322  0.020086021  0.019913394            3 
 2426000   0.85162784   -7.9607966    585.28815  0.020104704   0.01990749            2 
 2427000   0.86354744     -7.92169     585.5984  0.020107073  0.019901602            2 
 2428000   0.86945273   -7.9566462    585.62912  0.020099846  0.019895711            4 
 2429000   0.85114526   -7.9505679    585.64574  0.020092141  0.019889804            5 
 2430000   0.87116564   -7.9561016    587.84172  0.020159181   0.01988392            1 
 2431000   0.87148508   -7.9427848    587.43079  0.020136802  0.019878019            2 
 2432000   0.86554861   -7.9375269    586.66013  0.020102115  0.019872177            1 
 2433000   0.85214726   -7.9421615    586.82296   0.02009943  0.019866281            1 
 2434000   0.83382607   -7.9218743    587.05777  0.020099211  0.019860394            3 
 2435000   0.85836325   -7.9493744    585.72459  0.020045332  0.019854519            1 
 2436000   0.85549021   -7.9766322     585.2428  0.020020621  0.019848625            1 
 2437000   0.85390072   -7.9736384    586.71109  0.020062614  0.019842741            2 
 2438000   0.86246492   -7.9637916    586.88833  0.020060443  0.019836823            2 
 2439000   0.86355952   -7.9634499    586.28371  0.020031561  0.019830918            2 
 2440000   0.85261591   -7.9422125    588.07543  0.020084543  0.019825014            5 
 2441000    0.8754484   -7.9397796    588.99361  0.020107661  0.019819095            3 
 2442000   0.86384776   -7.9451361    587.94511  0.020063647  0.019813275            3 
 2443000   0.86503909   -7.9425157    587.78497  0.020049972   0.01980744            1 
 2444000   0.85760348   -7.9195629     587.4072  0.020028887  0.019801575            1 
 2445000   0.87827296   -7.9541704    586.71262  0.019997022  0.019795697            2 
 2446000   0.86422215    -8.001056    586.66765  0.019987314  0.019789798            3 
 2447000   0.85767984   -7.9101046     589.7963  0.020085693  0.019783962            1 
 2448000    0.8476865   -7.9479499    588.55552   0.02003525  0.019778151            3 
 2449000   0.86724503   -7.9088099    589.03516   0.02004339  0.019772373            3 
 2450000   0.85170991   -7.8981979    590.78482  0.020094722  0.019766599            1 
 2451000   0.84772309   -7.9566666    589.04615  0.020027409   0.01976081            2 
 2452000   0.87571738   -7.9482843    587.53245  0.019967797  0.019755024            2 
 2453000   0.85920559   -7.9221542    589.19003  0.020015968  0.019749255            2 
 2454000   0.84305478    -7.933024    590.59882  0.020055651  0.019743462            3 
 2455000   0.86453725   -7.9676227    588.70038  0.019983041  0.019737641            3 
 2456000   0.85717263   -7.9567196    589.14521  0.019989998  0.019731834            2 
 2457000   0.84637872   -7.9389477     589.5422  0.019995326  0.019726088            4 
 2458000   0.85305855    -7.952369    590.02039  0.020003404  0.019720323            2 
 2459000   0.85265321   -7.9096311    591.37551  0.020041193  0.019714551            2 
 2460000   0.84565563   -7.9940501    589.16531  0.019958174  0.019708783            2 
 2461000   0.84199734   -7.9617928    590.78187  0.020004804  0.019703057            1 
 2462000    0.8626252   -7.9609436    591.75903  0.020029753  0.019697363            3 
 2463000   0.86906696   -7.9830098    590.01354  0.019962564   0.01969162            3 
 2464000   0.85979378   -7.9705862    591.53561  0.020005939   0.01968592            2 
 2465000   0.84198701   -8.0011019    590.50363  0.019962935  0.019680214            3 
 2466000   0.89302658    -7.963443    591.05227   0.01997338  0.019674489            2 
 2467000   0.85162156   -7.9870696    591.21076  0.019970638  0.019668797            3 
 2468000    0.8514469   -7.9876828     590.7151   0.01994581  0.019663109            1 
 2469000   0.84782708   -7.9326002    592.62823  0.020002303  0.019657434            2 
 2470000   0.85481099   -7.9562444    591.69356  0.019962671  0.019651801            3 
 2471000   0.87070397   -7.9734309    590.30364  0.019907718  0.019646102            2 
 2472000   0.84071438   -7.9803359    590.70073   0.01991305  0.019640353            2 
 2473000   0.86892783   -7.9901934    590.79816  0.019908281  0.019634619            1 
 2474000   0.86382315    -7.935939    592.24468  0.019948959  0.019628884            2 
 2475000     0.848984   -7.9821894    590.06722  0.019867583  0.019623141            1 
 2476000   0.84775962   -7.9605087    591.15085   0.01989603  0.019617429            3 
 2477000   0.86561035    -7.985787    592.56588  0.019935604  0.019611695            2 
 2478000   0.84700788   -7.9716236    590.69693  0.019864707  0.019605969            3 
 2479000    0.8631991   -7.9479387    591.88197   0.01989653  0.019600276            1 
 2480000   0.85990976   -7.9436767    592.07805  0.019895096  0.019594611            3 
 2481000   0.87402629   -7.9831066    593.08416  0.019920871  0.019588918            4 
 2482000   0.86040805    -7.983064    592.44599  0.019891418  0.019583194            2 
 2483000   0.83670227   -7.9475575    592.28165  0.019877891  0.019577469            1 
 2484000   0.86130734   -7.9532278    591.68598  0.019849905  0.019571716            3 
 2485000    0.8535492   -7.9705285    591.18258  0.019825036  0.019565981            1 
 2486000   0.85859925   -7.9634195    592.97305   0.01987708   0.01956025            3 
 2487000   0.83750852   -7.9531956    591.91817  0.019833741   0.01955451            2 
 2488000   0.86333744   -7.9466906    592.50789  0.019845521  0.019548752            2 
 2489000    0.8565718   -7.9615486    592.89443   0.01985049   0.01954299            2 
 2490000   0.82750691   -7.9539439    590.78287   0.01977185  0.019537252            3 
 2491000   0.86367727   -7.9458926    591.84411  0.019799415  0.019531494            2 
 2492000   0.85625979   -7.9879069    591.52601  0.019780832  0.019525701            3 
 2493000   0.85310331   -7.9628319    590.99119   0.01975502  0.019519898            1 
 2494000   0.84297015   -7.9516834    592.99836  0.019814166  0.019514139            2 
 2495000     0.854884   -7.9635673    593.05978  0.019808276  0.019508404            2 
 2496000   0.85305558   -7.9716133    591.87334  0.019760728  0.019502636            2 
 2497000   0.84161069   -7.9307992    593.17856  0.019796374   0.01949689            3 
 2498000    0.8575369   -7.9478308    592.88684  0.019778718  0.019491183            3 
 2499000   0.84282927   -7.9491666    592.97924  0.019773884  0.019485446            3 
 2500000   0.85583458   -7.9581393    594.17264  0.019805755  0.019479738            2 
 2501000   0.84280864   -7.9363064    593.89649  0.019788634  0.019474024            2 
 2502000   0.85967801    -7.948768    593.41348  0.019764638  0.019468275            6 
 2503000   0.87410384   -7.9924621    592.92884  0.019740606  0.019462492            3 
 2504000   0.87043067   -7.9903272    591.08745  0.019671441  0.019456667            2 
 2505000   0.84221793   -7.9743272    592.94152  0.019725267  0.019450868            2 
 2506000   0.86370065   -8.0021572     591.3919  0.019665865  0.019445038            2 
 2507000   0.85658179    -8.026949    591.37184  0.019657354  0.019439176            2 
 2508000   0.83407822   -8.0048992    591.98653   0.01966994  0.019433309            5 
 2509000     0.865457   -7.9635381    592.57604  0.019681681  0.019427484            1 
 2510000   0.84351936   -7.9638782    593.54135  0.019705888  0.019421663            1 
 2511000   0.85695087   -7.9472154    593.74581  0.019704826  0.019415829            1 
 2512000   0.83066963   -7.9706712    593.65222  0.019693877   0.01941004            3 
 2513000   0.85641835   -7.9983458    593.47348  0.019680113  0.019404175            2 
 2514000   0.84440242   -8.0117086    592.16927  0.019629053  0.019398346            1 
 2515000   0.84473953   -8.0077913    593.46696  0.019664246  0.019392537            2 
 2516000   0.85986221   -7.9943346    593.62841  0.019661778  0.019386704            4 
 2517000   0.85499239   -7.9734542    593.06857  0.019635431  0.019380902            3 
 2518000   0.85384593   -7.9856136    593.49499  0.019641746  0.019375089            2 
 2519000   0.83648571   -7.9949478    592.37594  0.019596928  0.019369259            3 
 2520000   0.85301669   -7.9765745     591.7509  0.019568482  0.019363422            3 
 2521000   0.86208954   -7.9914915    593.40373  0.019615355   0.01935755            3 
 2522000    0.8767468   -7.9652759     593.3351   0.01960531  0.019351715            4 
 2523000   0.85746094   -7.9795683    593.61588  0.019606813  0.019345849            2 
 2524000   0.86200967   -8.0042657    593.06352  0.019580808  0.019339951            1 
 2525000   0.85161127   -7.9665044    592.11974  0.019541906  0.019334062            3 
 2526000   0.82168531   -7.9818387     592.6467  0.019551554  0.019328184            2 
 2527000   0.87442705   -7.9889269    592.52012  0.019539643    0.0193223            2 
 2528000   0.86013364   -7.9711188    592.72723   0.01953874  0.019316412            6 
 2529000   0.83990467      -7.9858    591.17809  0.019479969  0.019310521            3 
 2530000    0.8458977   -7.9788583    592.75029  0.019524054  0.019304594            2 
 2531000   0.85438125   -7.9830058    592.03916  0.019492926  0.019298646            3 
 2532000   0.83164224   -8.0133757    591.62666  0.019471652  0.019292693            3 
 2533000   0.85935171   -8.0185721    591.30915  0.019453519  0.019286758            1 
 2534000   0.83852597   -8.0083837    593.02096  0.019502136  0.019280784            2 
 2535000   0.87433625   -7.9963579    593.12758  0.019497948  0.019274845            2 
 2536000   0.84982128   -7.9819678    592.64509  0.019474405   0.01926893            2 
 2537000   0.83419829   -8.0090521    592.75634  0.019470383  0.019263019            2 
 2538000   0.85781861   -7.9760921    593.45922   0.01948579  0.019257093            2 
 2539000   0.85164813   -7.9791307    593.26616  0.019471779  0.019251217            2 
 2540000   0.85793014   -7.9817673     594.1263  0.019492333  0.019245332            1 
 2541000   0.86252864   -8.0061885    593.47754  0.019463385  0.019239409            1 
 2542000   0.82810292   -7.9855217    593.27902   0.01944922  0.019233495            2 
 2543000   0.84416218   -8.0064316    592.53886  0.019417318  0.019227549            2 
 2544000   0.84202945   -8.0097452     591.9108  0.019389112   0.01922161            1 
 2545000   0.84531581    -7.996077    592.42954  0.019398479  0.019215672            4 
 2546000   0.85635929   -8.0056623    593.70684  0.019432667  0.019209741            5 
 2547000   0.82898592   -8.0101217    594.56467  0.019453104  0.019203864            2 
 2548000   0.83111109   -7.9980269    593.27595  0.019403321  0.019197964            2 
 2549000   0.83835726    -8.014785    593.38304   0.01939921  0.019192071            3 
 2550000   0.83906094   -7.9901614    593.05227  0.019380793  0.019186188            2 
 2551000   0.85016016   -8.0120524    592.84064  0.019366283  0.019180301            2 
 2552000   0.84099561   -7.9805589    594.99055  0.019428897  0.019174413            4 
 2553000   0.83531094   -8.0305927    592.17077  0.019329246  0.019168482            3 
 2554000   0.83342542   -7.9992526    593.41143  0.019362158  0.019162532            2 
 2555000   0.85155816   -8.0510638    592.72244  0.019332108  0.019156585            2 
 2556000   0.84681461     -7.99813    593.18569  0.019339648  0.019150645            1 
 2557000   0.84005549   -7.9572225    596.44234   0.01943822  0.019144786            1 
 2558000    0.8556812   -8.0107527    593.75221  0.019342983  0.019138956            2 
 2559000   0.84159902   -8.0349323    594.59004  0.019362708  0.019133059            1 
 2560000   0.82533833   -7.9932822    595.71409  0.019391735  0.019127199            1 
 2561000   0.83916754    -7.987032    593.14294  0.019300499  0.019121316            2 
 2562000   0.81927925    -8.030666    593.35937  0.019300005  0.019115456            4 
 2563000    0.8461113   -8.0211685    594.13265  0.019317618  0.019109567            4 
 2564000   0.84699009     -7.99131    594.41201  0.019319163    0.0191037            3 
 2565000   0.84352621    -8.024335    594.95923   0.01932941   0.01909781            4 
 2566000   0.83139194   -8.0078818    594.90585  0.019320143  0.019091936            2 
 2567000   0.83755869   -8.0312365    594.71694  0.019306484  0.019086056            2 
 2568000    0.8337452   -8.0233234    593.49613   0.01925935   0.01908017            2 
 2569000   0.85639852   -8.0094526    594.04579  0.019269683   0.01907426            2 
 2570000   0.83899857   -8.0277691    592.32741  0.019206466  0.019068333            6 
 2571000   0.84308445   -7.9940232    593.99472  0.019253038  0.019062391            2 
 2572000   0.82998806    -7.992911    595.16051  0.019283324  0.019056532            2 
 2573000   0.86039004   -8.0271244     594.0715  0.019240559   0.01905061            3 
 2574000   0.83165071   -8.0096507    594.30989  0.019240802  0.019044698            3 
 2575000   0.83532785   -8.0073292     595.2501  0.019263757  0.019038803            3 
 2576000   0.84731338   -8.0205444    595.55005  0.019265983  0.019032936            4 
 2577000   0.83021863   -8.0070601    594.21669  0.019215389  0.019027052            3 
 2578000   0.85697257   -8.0205463    594.76966   0.01922581  0.019021217            3 
 2579000   0.83655297   -7.9921611    594.98225  0.019225225  0.019015375            1 
 2580000   0.83129327   -8.0115226    595.26946   0.01922705  0.019009508            3 
 2581000   0.83070342   -7.9992482    595.77266  0.019235847   0.01900364            2 
 2582000   0.85434354    -8.024785    596.55143  0.019253532  0.018997779            4 
 2583000   0.84068719   -7.9685615    597.14613  0.019265264  0.018991937            3 
 2584000   0.82952004   -8.0092485    596.73098   0.01924442  0.018986101            3 
 2585000   0.83329565   -8.0007478    596.39002  0.019225984  0.018980271            3 
 2586000   0.83762539   -8.0064173    596.02161  0.019206677  0.018974431            2 
 2587000   0.82917587   -8.0306808    596.44977  0.019213045  0.018968612            1 
 2588000    0.8249838   -8.0365981     595.4445  0.019173252  0.018962724            3 
 2589000   0.84043212   -8.0341742    595.51144  0.019168001  0.018956873            1 
 2590000   0.82074777   -8.0288321    595.85976  0.019171807  0.018951029            1 
 2591000   0.83493177   -8.0256266    595.35127  0.019148053  0.018945185            3 
 2592000   0.83876749   -8.0080341    596.46195  0.019176374  0.018939338            1 
 2593000   0.80381714   -8.0321936    596.65819  0.019175286  0.018933462            2 
 2594000   0.84975797   -8.0010606    595.73361  0.019138191  0.018927608            2 
 2595000   0.83624371   -8.0180058    598.17839  0.019209325  0.018921822            4 
 2596000    0.8374915    -8.010214    596.46873  0.019147044  0.018916018            2 
 2597000   0.82854577   -8.0268879    595.61739  0.019112354   0.01891018            2 
 2598000   0.82798283   -8.0226383    597.50798   0.01916564  0.018904344            2 
 2599000   0.82978989   -8.0304683     597.1636  0.019147223  0.018898531            2 
 2600000   0.84018684    -8.033872    598.12905  0.019170803  0.018892733            1 
 2601000   0.84875712   -8.0429427    597.57881  0.019145803  0.018886982            4 
 2602000   0.82169084   -8.0221331    597.24205   0.01912766  0.018881228            1 
 2603000   0.80892155   -8.0507599    596.92633  0.019110204  0.018875458            3 
 2604000   0.84723188   -8.0388194     597.5213  0.019121905  0.018869621            2 
 2605000   0.84660618   -8.0321233    595.15462  0.019038856  0.018863804            2 
 2606000   0.84887528   -8.0877409    595.77162   0.01905128   0.01885794            3 
 2607000   0.80446874   -8.0192227    597.90525  0.019112174  0.018852092            2 
 2608000   0.82772662   -8.0379925    598.17999  0.019113624  0.018846265            3 
 2609000   0.85201889   -8.0398652    596.85977   0.01906413  0.018840428            2 
 2610000   0.82335005   -8.0438453    598.14692  0.019097922  0.018834586            2 
 2611000   0.82936469   -8.0684222    597.91995  0.019083364  0.018828734            2 
 2612000   0.83000068   -8.0353604    597.86857  0.019074418  0.018822879            3 
 2613000   0.84546088   -8.0252302    598.08477  0.019074014  0.018817071            2 
 2614000   0.81592456   -8.0360402    598.99494  0.019095733   0.01881125            4 
 2615000   0.83008019   -7.9903481     598.0957  0.019059774  0.018805499            5 
 2616000   0.83439988   -7.9986228    598.66223  0.019070535  0.018799758            2 
 2617000   0.83350289   -8.0101376    598.67081  0.019063521  0.018793972            2 
 2618000   0.83248382   -7.9871945    599.71964  0.019089624  0.018788209            1 
 2619000   0.84354619   -8.0463345    600.18299  0.019097079  0.018782433            1 
 2620000   0.81300943   -8.0204032    597.73351   0.01901188  0.018776659            3 
 2621000   0.82355479   -8.0282181    597.89762  0.019009844  0.018770846            2 
 2622000   0.82194518   -8.0358452    598.82397  0.019032036  0.018765044            2 
 2623000   0.83628128   -8.0395971    597.11531  0.018970495  0.018759243            3 
 2624000   0.82602966   -8.0616665    598.27673   0.01900015  0.018753456            2 
 2625000   0.83786282   -8.0193751    598.71111  0.019006702  0.018747651            2 
 2626000   0.82902188   -8.0514052     599.1323   0.01901283  0.018741864            2 
 2627000   0.83512417   -8.0631412    597.73861  0.018961382  0.018736075            2 
 2628000   0.83067327   -8.0070627    598.68545  0.018984191  0.018730282            4 
 2629000   0.82953736   -8.0277763     598.7514   0.01897906  0.018724488            2 
 2630000   0.83471388     -8.05299    599.47776  0.018994859   0.01871869            1 
 2631000   0.80918173   -8.0700356    598.28875  0.018949979  0.018712866            3 
 2632000   0.81655487   -8.0211258    599.56729   0.01898326  0.018707062            2 
 2633000   0.82522481   -8.0403206    599.35063  0.018969193  0.018701292            2 
 2634000   0.81786399   -8.0437828    599.09122  0.018953785  0.018695521            3 
 2635000    0.8195039   -8.0364931    600.36605  0.018986909  0.018689777            2 
 2636000   0.82242295   -8.0676604    599.20605  0.018943034  0.018684005            2 
 2637000   0.82270581   -8.0842288    599.21557  0.018936151  0.018678213            3 
 2638000   0.82710982   -8.0777335    599.37233  0.018933925  0.018672416            1 
 2639000   0.84464107   -8.0402972    599.98195  0.018946001  0.018666665            2 
 2640000   0.83438286   -8.0428784    598.06328   0.01887826  0.018660901            3 
 2641000   0.81626123    -8.043521    598.70005  0.018891204  0.018655134            2 
 2642000   0.83798588   -8.0584353    600.16819  0.018930362  0.018649334            2 
 2643000   0.82169863   -8.0445938    598.83669  0.018881217  0.018643571            1 
 2644000   0.82755935    -8.076596     600.6487  0.018931187  0.018637806            1 
 2645000   0.83308848    -8.045907     599.5236  0.018888582  0.018632055            1 
 2646000   0.82935085      -8.0407     600.9616  0.018926732  0.018626333            4 
 2647000   0.82184603   -8.0398401    599.15229  0.018862621  0.018620597            3 
 2648000   0.81946629   -8.0109932    599.59858  0.018869543  0.018614877            3 
 2649000   0.81727348   -8.0311403    600.91947  0.018903972  0.018609135            2 
 2650000   0.84679757   -7.9986673    601.68474  0.018920904  0.018603404            2 
 2651000   0.82817607   -8.0430653     601.9844  0.018923186  0.018597716            2 
 2652000   0.83167929   -8.0449549     601.1639  0.018890268  0.018592028            3 
 2653000   0.83669989   -8.0180413     600.5948  0.018865272  0.018586348            2 
 2654000   0.81929304    -8.026845    599.63714  0.018828094   0.01858072            1 
 2655000   0.84018208   -8.0563685    602.32893  0.018905491  0.018575051            1 
 2656000   0.82127864   -8.0669961     600.6236  0.018844867  0.018569382            4 
 2657000   0.82143882     -8.03825    603.04107  0.018913595  0.018563742            3 
 2658000   0.80928196   -8.0504983     602.3845  0.018885895  0.018558115            3 
 2659000   0.81661491   -8.0263332    602.83438  0.018892891   0.01855248            2 
 2660000   0.80897456   -8.0386978    602.10453  0.018862924  0.018546819            2 
 2661000   0.84355467   -8.0179184    602.82541  0.018878411   0.01854122            4 
 2662000   0.82916989   -8.0526319    602.50822  0.018861389  0.018535618            4 
 2663000   0.82282577   -8.0466118    600.29938  0.018785185  0.018529964            2 
 2664000   0.83445745   -8.0431739    602.53239  0.018847985  0.018524313            2 
 2665000   0.81756044   -8.0500693    602.21491  0.018830985  0.018518651            1 
 2666000   0.80892128   -8.0506996    602.36807  0.018828709   0.01851299            3 
 2667000   0.83192209   -8.0365041    601.53302  0.018795557  0.018507339            2 
 2668000   0.81418805   -8.0567275    601.64185  0.018791912  0.018501685            2 
 2669000   0.82046471   -8.0398815    601.19498  0.018770919  0.018495992            2 
 2670000   0.82584764   -8.0310583    601.18621  0.018763615  0.018490288            2 
 2671000   0.82843325   -8.0221732    603.05963  0.018815039  0.018484607            2 
 2672000    0.8282887    -8.070297    601.31012  0.018753434  0.018478961            1 
 2673000   0.83523887   -8.0422615    603.15123  0.018803817  0.018473291            3 
 2674000   0.81652482   -8.0785037    602.12457   0.01876479  0.018467599            1 
 2675000   0.82845481    -8.076944    602.08342  0.018756493  0.018461888            3 
 2676000   0.83034451   -8.0744104    601.60487  0.018734581  0.018456204            3 
 2677000   0.81552056   -8.0585109    603.24471   0.01877863  0.018450507            3 
 2678000   0.82785405   -8.0559149    602.82298  0.018758495  0.018444848            2 
 2679000   0.80119465   -8.0520357    603.05586  0.018758736  0.018439154            3 
 2680000   0.83620896   -8.0774881    601.91842  0.018716369  0.018433462            4 
 2681000      0.83696   -8.0636607    602.52085  0.018728113   0.01842776            1 
 2682000   0.82715751   -8.0522531    602.23928  0.018712381  0.018422059            2 
 2683000   0.84439437   -8.0791698    600.63487  0.018655574  0.018416329            2 
 2684000   0.82437801   -8.0903632    602.07824  0.018693438  0.018410598            2 
 2685000    0.8238006   -8.0739088    603.07391  0.018717378  0.018404889            2 
 2686000   0.82542644   -8.1005999    601.10282  0.018649256  0.018399179            2 
 2687000   0.83002868   -8.0445606    602.63887  0.018689954  0.018393507            2 
 2688000   0.84130793   -8.0798529    601.51398  0.018648127  0.018387838            1 
 2689000   0.82542629   -8.0771564    601.63341  0.018644893  0.018382144            2 
 2690000   0.80974187   -8.0662838    601.84795  0.018644608  0.018376436            2 
 2691000   0.81708743   -8.0837196    602.32876  0.018652569  0.018370723            4 
 2692000   0.82947965   -8.0766574    604.04948  0.018698907   0.01836507            2 
 2693000   0.82495387    -8.054669    604.43494  0.018703891   0.01835942            1 
 2694000   0.82844276   -8.0625526    603.21673  0.018659265  0.018353778            2 
 2695000   0.83800156    -8.067189    603.43988  0.018659242  0.018348122            1 
 2696000   0.81874294   -8.0998999     603.8374  0.018664608  0.018342445            2 
 2697000   0.82322525   -8.0457016    604.88982  0.018690206  0.018336791            1 
 2698000   0.82106692   -8.0545436    605.02105  0.018687332  0.018331144            1 
 2699000   0.83321873   -8.0410722    605.06499  0.018681764  0.018325519            1 
 2700000   0.79030723   -8.0456894    605.14639  0.018677358  0.018319924            2 
 2701000   0.82779177   -8.0853096    602.94293   0.01860246  0.018314315            2 
 2702000   0.83301902   -8.0432094    603.99566  0.018628043   0.01830871            2 
 2703000    0.8095849   -8.0452173    604.06116   0.01862317  0.018303089            1 
 2704000   0.82788368   -8.0862601    603.18981   0.01858943  0.018297441            3 
 2705000   0.81324686    -8.041494    603.79219  0.018601115  0.018291805            6 
 2706000   0.84416536   -8.0749682    604.02837  0.018601514  0.018286155            2 
 2707000   0.82801046   -8.0603207    602.42892  0.018545404  0.018280518            1 
 2708000   0.82259419   -8.0756676     604.1995  0.018593042   0.01827491            3 
 2709000   0.80160279   -8.0719625    603.69963  0.018570802  0.018269246            2 
 2710000   0.83115143   -8.0676446    603.88758  0.018569729  0.018263578            1 
 2711000   0.80512142   -8.0651892    604.64556  0.018586179  0.018257939            3 
 2712000   0.81875463   -8.0671103    604.78811  0.018583705  0.018252287            3 
 2713000   0.81045201   -8.0613534     604.8127  0.018577611  0.018246652            2 
 2714000   0.82358184   -8.0830739    604.70957  0.018567599  0.018241025            1 
 2715000    0.8049804   -8.0964151    603.65136   0.01852828  0.018235389            2 
 2716000    0.8309296   -8.0901345    603.34718  0.018512125  0.018229711            2 
 2717000   0.82481935   -8.0801491    605.34742  0.018566661   0.01822407            5 
 2718000   0.82151069   -8.0672052     602.8915  0.018484532  0.018218416            6 
 2719000    0.8319148   -8.0722214    606.01885  0.018573583  0.018212759            1 
 2720000   0.82688721   -8.0734052    605.44625  0.018549211  0.018207107            4 
 2721000   0.82178712   -8.0684026    605.50941  0.018544328  0.018201485            2 
 2722000   0.82636553   -8.0666718    604.48728  0.018506223  0.018195869            3 
 2723000   0.80986258   -8.0404899    606.01428  0.018546159  0.018190281            2 
 2724000   0.82262686    -8.047737    606.13377  0.018543006  0.018184698            2 
 2725000   0.83947247   -8.0375603    605.06438  0.018503498  0.018179079            1 
 2726000    0.8127295   -8.1131596    603.07264  0.018435823   0.01817346            1 
 2727000   0.80931715   -8.0848516    606.65546  0.018538549  0.018167832            1 
 2728000    0.8080208   -8.0743415    606.13731  0.018515925  0.018162218            1 
 2729000   0.82211873   -8.0697439     606.0944  0.018507829  0.018156584            2 
 2730000   0.82092081   -8.0428289    605.03119  0.018468596  0.018150984            2 
 2731000   0.81059891    -8.064329    606.85832  0.018517586  0.018145416            2 
 2732000   0.82316547   -8.0741685     604.9457  0.018452468  0.018139838            3 
 2733000    0.8160486   -8.0589882    605.36795  0.018458591  0.018134236            2 
 2734000    0.7995908   -8.0984726    605.05543  0.018442314  0.018128625            2 
 2735000   0.79665338   -8.0859479    605.08948  0.018436608  0.018122987            3 
 2736000   0.83644259   -8.0735305    604.11981  0.018400335   0.01811732            4 
 2737000   0.79830861   -8.1304412    603.33261  0.018369645  0.018111657            2 
 2738000   0.80712237   -8.0898819    604.87309  0.018409821  0.018105952            3 
 2739000   0.81611917   -8.1179043    603.69518  0.018367262  0.018100274            2 
 2740000   0.82390682   -8.0605887    604.61457  0.018388521  0.018094584            3 
 2741000   0.80349246   -8.0695787     604.3346    0.0183733  0.018088923            2 
 2742000   0.80935011   -8.0833851    604.81278  0.018381133  0.018083295            5 
 2743000   0.82111746   -8.0639145    605.40371  0.018392384  0.018077644            2 
 2744000   0.80150928   -8.0840342    607.44832  0.018447775  0.018072014            2 
 2745000   0.81668536   -8.0869486    605.02072  0.018367356  0.018066387            3 
 2746000    0.8098141   -8.1064897    605.38933  0.018371854  0.018060761            5 
 2747000   0.82089394   -8.0905564    605.44738  0.018366927  0.018055106            4 
 2748000   0.80055785   -8.0847164    604.60977  0.018334843  0.018049461            2 
 2749000   0.81260932    -8.106549    605.10033  0.018343044    0.0180438            2 
 2750000   0.81785545    -8.070585    606.89303  0.018390698  0.018038193            3 
 2751000   0.79607894   -8.1017621     606.5932   0.01837493  0.018032621            4 
 2752000   0.82982716   -8.0762193    604.93995  0.018318191  0.018027011            2 
 2753000    0.8257567    -8.069169    608.21034  0.018410532  0.018021443            1 
 2754000    0.8256842   -8.0804655     606.2599  0.018344829  0.018015844            3 
 2755000   0.79818538   -8.0676975    606.94796  0.018358982  0.018010222            3 
 2756000   0.81165518   -8.0836829    606.63403  0.018342829  0.018004621            1 
 2757000   0.82724053   -8.0998812    605.81914  0.018311545  0.017999013            4 
 2758000   0.82702231   -8.0765844    606.30205  0.018319496  0.017993404            3 
 2759000   0.80066936   -8.0957396    606.27684  0.018312095   0.01798779            4 
 2760000   0.80293484   -8.0685612    605.85897  0.018292843  0.017982163            4 
 2761000   0.80766198   -8.0933025    606.64982  0.018310088  0.017976558            3 
 2762000   0.82131733   -8.0893901    607.13474  0.018318089  0.017970917            1 
 2763000   0.82023897   -8.0666597    606.13382  0.018281271  0.017965286            4 
 2764000   0.81656029   -8.0813315    604.81347  0.018234849  0.017959676            1 
 2765000   0.80379183   -8.0687046    605.33546  0.018243986   0.01795406            3 
 2766000     0.812408   -8.0941037    606.74228  0.018279775  0.017948442            3 
 2767000   0.81154312   -8.1111225    606.13179  0.018254782  0.017942785            3 
 2768000   0.81250454   -8.1025113    604.59001   0.01820177   0.01793713            3 
 2769000   0.81495482   -8.0740862    605.76627  0.018230597   0.01793148            1 
 2770000   0.80447535   -8.0736465    606.63053  0.018250016   0.01792583            2 
 2771000   0.80170749   -8.1025983    606.32196   0.01823415  0.017920211            1 
 2772000    0.8109525   -8.0817576     606.3453  0.018228274  0.017914587            1 
 2773000   0.79753511   -8.0718485    606.26829  0.018219386  0.017908996            1 
 2774000   0.80844882   -8.1192672    604.45433  0.018158325  0.017903387            2 
 2775000   0.79974846   -8.0966988    606.69109  0.018218952  0.017897757            7 
 2776000   0.80257214   -8.1022826    606.02889   0.01819251  0.017892112            5 
 2777000   0.80565657   -8.0878953    606.97334    0.0182143  0.017886482            2 
 2778000   0.81712934   -8.0897494    606.27896  0.018186914  0.017880847            2 
 2779000   0.79958327   -8.1241269    606.37996  0.018183398  0.017875217            4 
 2780000   0.80790349   -8.1054052    606.62096  0.018184082  0.017869592            3 
 2781000   0.82153174   -8.1242043    604.86275  0.018124858  0.017863962            2 
 2782000    0.8179912   -8.1060045    606.62226  0.018171048  0.017858324            2 
 2783000   0.82671619    -8.088037    607.83081  0.018200707  0.017852696            2 
 2784000   0.81716004   -8.0689112    607.73231  0.018191221  0.017847092            2 
 2785000   0.81738827   -8.0983987    605.81399  0.018127289  0.017841486            1 
 2786000   0.80938129   -8.0730496    607.05875  0.018158015  0.017835882            7 
 2787000   0.81035679   -8.0593274    608.16063  0.018184447  0.017830257            1 
 2788000   0.80512733   -8.0808635    605.98777  0.018112977  0.017824667            3 
 2789000   0.80763605   -8.0870148    606.69577  0.018127638  0.017819037            3 
 2790000   0.80045567   -8.1014291    606.90139  0.018127282  0.017813402            2 
 2791000   0.80894773   -8.0891997    608.03141  0.018154527  0.017807739            2 
 2792000    0.8174409   -8.1047548    606.43577  0.018100399  0.017802099            5 
 2793000   0.80942716   -8.1032641    607.01594  0.018111229  0.017796469            3 
 2794000    0.8205509   -8.0673635      608.621  0.018152619  0.017790876            1 
 2795000   0.80463274   -8.1160116    605.74846  0.018060479  0.017785263            4 
 2796000   0.81239584   -8.1122804    606.66951  0.018081471  0.017779614            2 
 2797000   0.79452008    -8.109361    606.86949  0.018080964  0.017773976            3 
 2798000   0.78557438   -8.0918472    608.22585  0.018114899  0.017768332            3 
 2799000   0.80589033   -8.1040001    607.38419  0.018083369  0.017762722            2 
 2800000   0.80989127   -8.1511403    605.61459  0.018024244  0.017757101            1 
 2801000   0.80441938   -8.1172643    606.58691  0.018046736  0.017751501            2 
 2802000   0.81280538    -8.073679    606.95314  0.018051188  0.017745918            2 
 2803000   0.82176701   -8.0953864    605.60069  0.018004539  0.017740307            1 
 2804000    0.7971172   -8.1203585    607.13345  0.018043671  0.017734718            2 
 2805000    0.8218093   -8.1262865    607.86913  0.018059095  0.017729133            1 
 2806000   0.80851114   -8.1010892      608.929  0.018084135  0.017723562            2 
 2807000   0.79594713    -8.084435    610.00461  0.018109625  0.017717999            5 
 2808000   0.81799701   -8.1222817    608.07934  0.018046039  0.017712413            3 
 2809000   0.79496967    -8.104355    609.07226  0.018069071  0.017706836            2 
 2810000   0.79082301   -8.1374265    607.72381  0.018022651  0.017701249            3 
 2811000   0.80158175   -8.1239641    608.73636  0.018046258  0.017695651            3 
 2812000   0.80746738   -8.1181023    607.33762  0.017998388  0.017690055            2 
 2813000   0.78235637   -8.1037017    607.77912  0.018005069  0.017684434            3 
 2814000    0.8072253   -8.0949744    608.69994   0.01802594  0.017678835            2 
 2815000   0.80644051   -8.1261499    607.19968  0.017975124  0.017673209            9 
 2816000   0.78466422   -8.1137277    607.41835  0.017975211  0.017667579            1 
 2817000   0.79858001    -8.144472    606.11329  0.017930224  0.017661924            1 
 2818000   0.78591097   -8.1548844    605.73301  0.017912616  0.017656284            4 
 2819000   0.79736134   -8.1453554     608.8378  0.017998043  0.017650639            2 
 2820000   0.81177893   -8.1587762    605.92511  0.017905588  0.017645024            2 
 2821000   0.78811692   -8.0822263    607.20787  0.017937134  0.017639403            3 
 2822000   0.80943235   -8.1163091    606.80683  0.017918936  0.017633764            1 
 2823000   0.80473873   -8.1369323    605.78215   0.01788234  0.017628119            2 
 2824000   0.79121769   -8.1343933    607.92306  0.017939184  0.017622481            3 
 2825000   0.79926608   -8.1306551    607.80599   0.01792938  0.017616855            2 
 2826000   0.79104821   -8.1086591    608.67905  0.017948781  0.017611221            4 
 2827000   0.78510357   -8.1029906    608.89572  0.017948818  0.017605623            3 
 2828000   0.78458937   -8.1002047     607.7003  0.017907246  0.017600011            2 
 2829000   0.79830316   -8.0941655    607.53075  0.017895922  0.017594397            2 
 2830000   0.78530339   -8.0946844    608.74606  0.017925385    0.0175888            3 
 2831000   0.78657958   -8.1432119    607.44124  0.017880644  0.017583197            3 
 2832000   0.78583427    -8.119735    607.18392  0.017866759  0.017577562            3 
 2833000   0.79737292   -8.1248294    607.74718   0.01787702  0.017571955            4 
 2834000   0.80166833   -8.1260015    608.06626  0.017880095  0.017566308            1 
 2835000   0.79705863   -8.1063383     607.9433  0.017870174   0.01756067            2 
 2836000   0.79151428   -8.1738591    606.88115  0.017832662  0.017555013            3 
 2837000   0.80399078    -8.116819    607.63897  0.017848636  0.017549373            2 
 2838000   0.79198269   -8.1332081    607.95883  0.017851739  0.017543748            1 
 2839000    0.7924079   -8.1274182    608.55208  0.017862865  0.017538124            3 
 2840000   0.79491679   -8.1257518    609.14654  0.017874018  0.017532498            2 
 2841000   0.80282657   -8.1135936    608.30351  0.017842999  0.017526891            2 
 2842000   0.79549239   -8.0873406    608.63923  0.017846564  0.017521303            1 
 2843000   0.80200088   -8.1280964    607.66242  0.017811655  0.017515728            1 
 2844000   0.78972188   -8.1020358    607.55241  0.017802169  0.017510114            1 
 2845000   0.80453746   -8.1224114     608.4203  0.017821333  0.017504517            3 
 2846000    0.8014431   -8.1306582    608.49867  0.017817366  0.017498897            2 
 2847000   0.80485196   -8.1346242    608.49139  0.017810894  0.017493256            2 
 2848000   0.79917167   -8.1423047    607.93606  0.017788391  0.017487626            2 
 2849000   0.79089635   -8.1507374    608.37277  0.017794921  0.017481974            2 
 2850000    0.7827127   -8.1036768    608.31328  0.017786938  0.017476382            1 
 2851000    0.7903278   -8.0925675     608.9509  0.017799337  0.017470792            2 
 2852000   0.79165929   -8.1194903    609.22987  0.017801247  0.017465196            2 
 2853000   0.77491346   -8.1399133    608.75014  0.017780995  0.017459556            1 
 2854000   0.78359464   -8.1285248    608.32107  0.017762236  0.017453925            4 
 2855000   0.79105072   -8.1308677    609.47033   0.01778956  0.017448319            3 
 2856000   0.79263811    -8.132004    608.95992  0.017768438  0.017442728            3 
 2857000   0.79287357   -8.1342297    608.35913  0.017744695  0.017437125            1 
 2858000   0.80926563    -8.162854    607.55236  0.017714963  0.017431519            6 
 2859000   0.78745898   -8.1597503     607.1711  0.017697654  0.017425893            2 
 2860000   0.79120651    -8.164499    609.06696  0.017746706  0.017420281            2 
 2861000   0.80013096   -8.1144856    609.64671   0.01775739  0.017414671            3 
 2862000    0.7990825   -8.1253339    608.66742  0.017722671  0.017409105            5 
 2863000    0.7786137   -8.1223701    609.25824  0.017733678  0.017403529            2 
 2864000   0.79306866   -8.1257978    609.11427  0.017723297  0.017397961            2 
 2865000   0.78852369   -8.1452582    609.49834  0.017728282  0.017392381            2 
 2866000   0.78074746   -8.1352571    610.62978  0.017754995  0.017386837            3 
 2867000   0.79721967   -8.1130321    610.19022  0.017736025  0.017381276            3 
 2868000   0.78552628   -8.1136578    609.45635  0.017708518  0.017375731            3 
 2869000    0.8056061   -8.1452485    607.86878  0.017656233  0.017370145            3 
 2870000    0.7918613    -8.089753    610.60727  0.017729596  0.017364589            1 
 2871000   0.80302832   -8.1365931    610.11143  0.017709028  0.017359035            8 
 2872000   0.78909432   -8.1268207     609.1995  0.017676401  0.017353464            2 
 2873000   0.77002469   -8.1377611    608.95945  0.017663286   0.01734789            3 
 2874000   0.79958555   -8.1268125    609.89654  0.017684312  0.017342317            3 
 2875000   0.80895248   -8.1385513    609.87719    0.0176776  0.017336756            3 
 2876000   0.79912871   -8.1586001     610.5305  0.017690383  0.017331166            1 
 2877000   0.80941808   -8.1298567    610.11043  0.017672067  0.017325592            2 
 2878000   0.79528846   -8.1429616    609.99577  0.017662606  0.017320014            2 
 2879000   0.79097028   -8.1486029    608.79984  0.017621855  0.017314411            2 
 2880000   0.77602286    -8.173706    609.05013  0.017622978   0.01730881            3 
 2881000   0.78951624   -8.1382501    611.31326  0.017682323  0.017303239            2 
 2882000   0.78730901   -8.1171166    610.76568  0.017660354  0.017297691            2 
 2883000   0.79280397   -8.1402422    611.25675  0.017668423   0.01729213            2 
 2884000   0.79015675     -8.14883    611.25599  0.017662274  0.017286568            2 
 2885000   0.79733367   -8.1416495    609.56533  0.017607318  0.017281012            2 
 2886000   0.78118184   -8.1505825    608.67628  0.017575545  0.017275443            3 
 2887000   0.77258477   -8.1443136    608.22502  0.017556432  0.017269882            1 
 2888000   0.78659716    -8.155188    608.94023   0.01757099  0.017264299            2 
 2889000   0.78179551   -8.1408383    610.07987  0.017597781  0.017258719            2 
 2890000   0.78930873   -8.1466143    610.53584   0.01760484  0.017253153            3 
 2891000   0.78486629   -8.1327537    609.44692  0.017567362  0.017247578            1 
 2892000   0.78476302   -8.1249095    610.53876  0.017592749  0.017242034            2 
 2893000   0.77104332   -8.1629759    610.83711  0.017595262  0.017236479            5 
 2894000   0.78869476   -8.1671139    608.88354  0.017532928  0.017230915            3 
 2895000   0.78405323   -8.1786428    610.51328  0.017573785  0.017225366            3 
 2896000    0.8014231   -8.1409569    610.87753  0.017578198  0.017219825            2 
 2897000   0.79865515   -8.1692062    610.16691  0.017551689  0.017214286            2 
 2898000   0.77998273    -8.161967     609.9071  0.017538161  0.017208735            1 
 2899000   0.79945004   -8.1592587    609.40538  0.017517689  0.017203169            4 
 2900000   0.77526998   -8.1468937    611.50489   0.01757198  0.017197615            1 
 2901000   0.78373646   -8.1554567    610.73152  0.017543707    0.0171921            4 
 2902000   0.78796117   -8.1436995    610.02707  0.017517432  0.017186571            2 
 2903000   0.76946484   -8.1352644    610.21141   0.01751669  0.017181041            2 
 2904000   0.78772278    -8.176032    610.32523  0.017513924  0.017175502            4 
 2905000   0.76569669   -8.1487615    609.34389  0.017479744  0.017169955            2 
 2906000   0.78122702   -8.1616846    612.30068  0.017558519  0.017164429            1 
 2907000   0.79648952   -8.1460975    610.45613  0.017499602   0.01715889            1 
 2908000    0.7962603   -8.1209069    611.07135  0.017511215  0.017153373            2 
 2909000   0.79587452   -8.1373073    610.64621  0.017493016  0.017147885            1 
 2910000   0.77831203   -8.1292169    612.67284  0.017545041   0.01714242            3 
 2911000   0.77733098   -8.1326164    610.95904  0.017489953  0.017136932            1 
 2912000   0.78154743   -8.1418495    611.23364  0.017491805  0.017131428            2 
 2913000   0.78366914   -8.1557898    611.94041  0.017506019   0.01712591            2 
 2914000   0.78381225    -8.160071    612.41059  0.017513458    0.0171204            1 
 2915000    0.7879125   -8.1495914     611.8644  0.017491835  0.017114926            4 
 2916000   0.79009211   -8.1420669    610.73623  0.017453596  0.017109434            4 
 2917000   0.77951438    -8.158495    610.51564  0.017441311  0.017103951            1 
 2918000   0.77598715   -8.1511863     611.8178  0.017472521  0.017098482            4 
 2919000    0.7865065   -8.1715752    613.04382  0.017501537  0.017093006            2 
 2920000   0.79400765   -8.1682489    611.08654  0.017439684  0.017087548            2 
 2921000   0.79585207   -8.1473347    612.56368  0.017475855  0.017082071            1 
 2922000   0.77960269   -8.1798878    612.61783  0.017471419  0.017076611            2 
 2923000   0.77276179     -8.16659     610.5333  0.017406013  0.017071116            1 
 2924000    0.7753615   -8.1594001    612.91499  0.017467938  0.017065641            2 
 2925000   0.76311507   -8.1688228    611.01881  0.017407943  0.017060169            3 
 2926000   0.80307708   -8.1398704    612.70719   0.01745008  0.017054719            2 
 2927000   0.77768349   -8.1657133    612.68285  0.017443425  0.017049262            1 
 2928000   0.78058575   -8.1532806    613.67535  0.017465715  0.017043833            1 
 2929000   0.79063952   -8.1299273    614.45241   0.01748186  0.017038421            4 
 2930000   0.78290551   -8.1505384     613.6288  0.017452469  0.017033001            5 
 2931000   0.77538585   -8.1646368    612.79503  0.017422809  0.017027583            2 
 2932000   0.78657141   -8.1776579    611.76641  0.017387631  0.017022165            1 
 2933000   0.77905224   -8.1751004    611.87099  0.017384674  0.017016748            2 
 2934000   0.77496366   -8.1744665    613.50153  0.017425061  0.017011335            5 
 2935000   0.78805592   -8.1724161    612.54534  0.017391974   0.01700592            1 
 2936000   0.78023479   -8.1815164    611.79532  0.017364763    0.0170005            2 
 2937000    0.7809368   -8.1328836    612.06179  0.017366411  0.016995075            1 
 2938000   0.79224313   -8.1705233    613.95376  0.017414164  0.016989662            2 
 2939000   0.78215801   -8.1874079    612.73238  0.017373607  0.016984248            1 
 2940000   0.79192923   -8.1614986     612.1385  0.017350864  0.016978817            1 
 2941000   0.79812122   -8.1972795    613.23784  0.017376115  0.016973393            2 
 2942000    0.7724334     -8.15556     613.4772  0.017376988   0.01696797            2 
 2943000   0.79901573   -8.1741089    614.48476  0.017399614  0.016962558            2 
 2944000   0.79317151   -8.1940444    613.59507   0.01736852  0.016957123            2 
 2945000   0.79218073   -8.1665351    613.42385  0.017357777  0.016951691            2 
 2946000   0.77302242   -8.1687977    613.07735  0.017342084  0.016946239            2 
 2947000   0.78141925    -8.166249    613.52627  0.017348893   0.01694082            2 
 2948000   0.78977555   -8.1423523    614.51545   0.01737097  0.016935415            1 
 2949000    0.7751717   -8.1866998    613.67225  0.017341253  0.016930027            2 
 2950000   0.76608564   -8.1368952    614.88013  0.017369495  0.016924637            3 
 2951000   0.77958525   -8.1564834    614.08875  0.017341262  0.016919269            5 
 2952000   0.78676022   -8.1658654    613.06472  0.017306479  0.016913893            2 
 2953000   0.80132252   -8.1930351     611.7173  0.017262595  0.016908522            1 
 2954000   0.77463846   -8.1921068    612.47574  0.017278147  0.016903118            1 
 2955000   0.78446881   -8.1663477    614.37726  0.017325924  0.016897709            2 
 2956000   0.77828219   -8.1932727    613.58563  0.017297745  0.016892281            1 
 2957000   0.78023117    -8.167137     614.2453  0.017310486   0.01688686            4 
 2958000   0.75394828   -8.1590091     612.1384  0.017245278  0.016881455            3 
 2959000    0.7919709   -8.1679574    612.03398   0.01723651  0.016876049            3 
 2960000   0.78560871   -8.1704134    613.25496  0.017265061  0.016870643            1 
 2961000   0.77753598   -8.1619957    613.67815   0.01727114   0.01686523            2 
 2962000   0.77090782   -8.1822133    613.14044  0.017250181   0.01685983            2 
 2963000   0.78202183   -8.1779015    613.87439  0.017265001  0.016854428            4 
 2964000    0.7895578   -8.1968426    612.80301  0.017229054  0.016849009            2 
 2965000   0.77580879   -8.2073355    612.69276  0.017220145  0.016843575            2 
 2966000   0.78555197   -8.1635032    614.08354  0.017253415  0.016838145            2 
 2967000   0.75911783   -8.1858901    612.96012  0.017216047  0.016832711            1 
 2968000   0.77531153   -8.1863644    612.96948  0.017210509  0.016827284            3 
 2969000   0.76651857   -8.1774265    613.39509  0.017216658  0.016821872            6 
 2970000   0.77452175   -8.1675958     612.3987  0.017182904  0.016816445            1 
 2971000   0.77709124   -8.1778825     612.3405  0.017175488  0.016811022            2 
 2972000   0.76400377   -8.1575033    615.12517   0.01724779  0.016805663            2 
 2973000   0.77293163   -8.1752453    613.12556  0.017185939  0.016800279            3 
 2974000   0.78101706   -8.2016011    612.43551  0.017160825   0.01679489            3 
 2975000    0.7812784   -8.1883997    613.43129  0.017182949  0.016789457            3 
 2976000   0.78158067   -8.1737961    614.22036  0.017199271  0.016784026            4 
 2977000   0.77640265   -8.2058534     612.7936  0.017153555  0.016778586            2 
 2978000   0.77589681   -8.2065547    612.67219  0.017144397  0.016773146            2 
 2979000   0.77945253    -8.180891    614.06382  0.017177571  0.016767728            3 
 2980000   0.76579968   -8.2006318     613.0307  0.017142917  0.016762329            1 
 2981000   0.76873135   -8.1823182    614.22131  0.017170449   0.01675691            4 
 2982000   0.78631913    -8.173557    614.36693   0.01716876  0.016751504            2 
 2983000   0.78634431   -8.1966352    613.92029  0.017150528  0.016746075            7 
 2984000   0.77972724   -8.1890822    614.83661   0.01717037   0.01674069            3 
 2985000   0.76066003   -8.1903749    613.08277  0.017115655  0.016735283            3 
 2986000    0.7686823   -8.1612649    613.64166  0.017125521  0.016729896            2 
 2987000   0.77364429   -8.1623544     614.1299  0.017133409   0.01672451            1 
 2988000   0.78633131   -8.1862384    612.94365  0.017094591   0.01671914            1 
 2989000    0.7726883   -8.1928949     613.0786  0.017092634  0.016713709            2 
 2990000   0.77151041   -8.1786579    612.65033  0.017074981  0.016708272            2 
 2991000   0.78172806   -8.1659393    613.14499  0.017083054  0.016702849            4 
 2992000   0.77294007   -8.2019002    612.83313  0.017068659  0.016697401            2 
 2993000   0.77222761   -8.1887721    613.01336  0.017067974  0.016691967            2 
 2994000   0.77966135   -8.2163995    613.15755  0.017066287   0.01668654            3 
 2995000   0.76419001   -8.1970394    611.80768  0.017023029  0.016681087            1 
 2996000   0.77744233    -8.180085    613.21728  0.017056555  0.016675635            2 
 2997000   0.76580175   -8.2149248    612.96706  0.017043907  0.016670163            2 
 2998000   0.77345944   -8.2034878    613.36727  0.017049346  0.016664683            1 
 2999000   0.80863713   -8.1675895    612.84747  0.017029217  0.016659232            2 
 3000000    0.7655495   -8.2395655     612.1081  0.017003003  0.016653763            6 
 3001000   0.77687227   -8.1741501    613.92728  0.017047853  0.016648307            1 
 3002000   0.78067671   -8.1987973    613.03329  0.017017357  0.016642827            4 
 3003000    0.7754257   -8.2050395    613.28886  0.017018783  0.016637376            3 
 3004000   0.77228291   -8.2112972    612.62764  0.016994775  0.016631926            2 
 3005000   0.75987343   -8.2005895    612.77313  0.016993154  0.016626491            2 
 3006000   0.76528105   -8.2086198    611.50987   0.01695248  0.016621006            2 
 3007000   0.77614562   -8.2286823    610.92022  0.016930502  0.016615524            1 
 3008000   0.76407389   -8.2088344     612.5423  0.016969811  0.016610018            2 
 3009000   0.74690958   -8.2062365    613.84993  0.017000386  0.016604537            4 
 3010000   0.77796151   -8.2000982    612.27366  0.016951098  0.016599077            1 
 3011000   0.77557242   -8.1927799    613.33494   0.01697484   0.01659361            1 
 3012000   0.75911373   -8.2411296    611.96322  0.016931253  0.016588144            1 
 3013000   0.77095477   -8.1883364    612.89261  0.016951339  0.016582675            2 
 3014000   0.78058365    -8.202569    614.46454  0.016989177  0.016577221            2 
 3015000   0.77072957   -8.2070615     613.3721  0.016953347  0.016571762            2 
 3016000   0.78764551   -8.2020643    613.58674  0.016953657    0.0165663            2 
 3017000   0.76475018   -8.1708107    613.39042  0.016942615  0.016560845            2 
 3018000   0.76072443   -8.1900152    614.48564  0.016967242  0.016555418            1 
 3019000   0.77178179    -8.199329     612.9285   0.01691864  0.016549979            2 
 3020000   0.79398801   -8.1881569    613.42403  0.016926712  0.016544535            2 
 3021000   0.76942891   -8.1906613    612.94739  0.016907961  0.016539084            1 
 3022000   0.78382473   -8.1654065    613.38604  0.016914462   0.01653364            3 
 3023000   0.76431696   -8.2109313    612.76394  0.016891717  0.016528197            4 
 3024000   0.75683725   -8.1693452    613.69561  0.016911806  0.016522749            2 
 3025000   0.76183035   -8.2054315    614.74054  0.016935001    0.0165173            3 
 3026000   0.76676485   -8.2108968    613.48585  0.016894852  0.016511848            1 
 3027000   0.76811646   -8.2165051    613.14643  0.016879926  0.016506382            1 
 3028000   0.77237392   -8.2188175    612.94671  0.016868855  0.016500897            3 
 3029000    0.7390472     -8.20832    613.61602    0.0168817   0.01649543            3 
 3030000   0.77130021   -8.1946621     613.0454  0.016860434  0.016489968            1 
 3031000   0.77258309   -8.2072424     613.4706  0.016866562  0.016484483            1 
 3032000   0.76781995   -8.2229577    612.80158  0.016842612  0.016478988            1 
 3033000   0.75193112   -8.2122994    612.48222  0.016828284   0.01647349            3 
 3034000   0.76927553   -8.2109651      612.107  0.016812431  0.016468006            4 
 3035000   0.77466551    -8.252408    611.97574  0.016803288  0.016462527            3 
 3036000   0.77186467    -8.202325    612.03965  0.016799507  0.016457028            3 
 3037000   0.75451016   -8.2137325    613.64045  0.016837901  0.016451543            2 
 3038000   0.75198505   -8.2020471    612.10273  0.016790178  0.016446066            2 
 3039000   0.77748703   -8.2507977    613.39912  0.016820202  0.016440567            2 
 3040000   0.76632608   -8.2299187    612.95884    0.0168026  0.016435088            2 
 3041000   0.77276579   -8.2350324    613.35146  0.016807833  0.016429591            2 
 3042000   0.75994802   -8.2126175    612.47547  0.016778311  0.016424108            3 
 3043000   0.76270244   -8.2267524    611.73934  0.016752638  0.016418621            2 
 3044000   0.76582805   -8.2461226    612.54715   0.01676925  0.016413156            8 
 3045000   0.76265026   -8.2247361    613.78256  0.016797552  0.016407682            2 
 3046000   0.76299958   -8.2379641    612.62469   0.01676036  0.016402214            2 
 3047000   0.76926061   -8.2304312    612.49112  0.016751207  0.016396727            1 
 3048000   0.74494063   -8.2230244    611.76598  0.016725885  0.016391248            2 
 3049000   0.75946741   -8.2227157    613.70992   0.01677353  0.016385763            2 
 3050000   0.76784353   -8.2553426    612.45873  0.016733845  0.016380282            2 
 3051000   0.75524991   -8.2275474    612.73589  0.016735931  0.016374794            1 
 3052000    0.7411045   -8.2292144    613.24416  0.016744325  0.016369318            3 
 3053000   0.76850608   -8.2080332    614.10326   0.01676229  0.016363866            2 
 3054000   0.77823489    -8.233759    613.88232  0.016750773  0.016358439            2 
 3055000    0.7579179   -8.2552924    613.05871  0.016722824  0.016352989            3 
 3056000   0.74573753   -8.2265145    612.64598  0.016706097  0.016347504            2 
 3057000   0.76909999    -8.235525    613.14989  0.016714368  0.016342031            2 
 3058000   0.77303015   -8.2319379    611.98605  0.016677187  0.016336604            2 
 3059000   0.77201993   -8.2485639    611.62385  0.016661868   0.01633115            4 
 3060000   0.75783684   -8.2057343    613.90125  0.016718444  0.016325699            2 
 3061000   0.75153214   -8.2512329    613.36757  0.016698453  0.016320282            5 
 3062000   0.74939968   -8.2173794    613.55615  0.016698132  0.016314842            2 
 3063000   0.74898892    -8.225183    611.98297  0.016649879  0.016309381            5 
 3064000   0.75805608   -8.2074259    613.57533  0.016687754  0.016303944            2 
 3065000   0.75650257   -8.2148566    612.45462  0.016651839  0.016298516            3 
 3066000   0.74465222   -8.2375626    613.50644  0.016674996  0.016293083            2 
 3067000   0.76086785   -8.2158306     613.9167  0.016680706  0.016287632            1 
 3068000   0.75028235   -8.2669906    613.46353   0.01666296  0.016282184            1 
 3069000   0.77932409   -8.2342912    614.47038   0.01668487  0.016276731            3 
 3070000   0.76155772    -8.233262    612.16075  0.016616741   0.01627127            2 
 3071000   0.76343056   -8.2366516    613.02917  0.016634896  0.016265799            3 
 3072000   0.76308145   -8.2615418    612.02609   0.01660227  0.016260342            1 
 3073000   0.76068966   -8.2685054    612.23058  0.016602413  0.016254878            8 
 3074000   0.76872566   -8.2494887    613.35506  0.016627496  0.016249423            2 
 3075000   0.74501436   -8.2886815    612.21349  0.016591152  0.016243943            4 
 3076000   0.76006888   -8.2321304    613.05381  0.016608523  0.016238491            1 
 3077000   0.75637114   -8.2376656    614.46495  0.016641343  0.016233069            3 
 3078000   0.76271121   -8.2474971    613.91786  0.016621125  0.016227639            5 
 3079000     0.754484   -8.2623083     612.6279  0.016580814  0.016222202            1 
 3080000   0.76374373   -8.2354331    613.35771  0.016595176  0.016216766            2 
 3081000   0.75905587   -8.2344044    612.35068  0.016562552  0.016211329            6 
 3082000   0.76109715   -8.2772243    612.93457  0.016572966  0.016205875            4 
 3083000   0.74503159   -8.2599531    612.56633  0.016557637  0.016200412           11 
 3084000   0.75648611   -8.2432819    612.50203   0.01655053  0.016194968            3 
 3085000   0.75554733   -8.2560851    612.61979  0.016548346  0.016189532            2 
 3086000   0.74993343   -8.2246646    613.17831  0.016558066    0.0161841            3 
 3087000   0.76745096   -8.2357094    612.54991  0.016535739  0.016178665            1 
 3088000   0.75993008   -8.2405191    613.71332   0.01656178  0.016173228            1 
 3089000   0.75876455   -8.2489348    611.90725  0.016507695  0.016167796            5 
 3090000   0.76009218   -8.2257474    614.41901  0.016570092  0.016162369            5 
 3091000   0.77199727   -8.2288894    613.71711  0.016545808  0.016156929            1 
 3092000   0.76437705   -8.2281485    613.07134  0.016523053  0.016151495            1 
 3093000   0.76664234   -8.2462538    612.87888  0.016512525   0.01614607            2 
 3094000   0.76840627   -8.2462283    614.11551  0.016540495  0.016140648            3 
 3095000   0.73750991   -8.2561241    613.46974  0.016517764   0.01613523            1 
 3096000   0.75782122   -8.2168573    614.22913  0.016532868  0.016129816            1 
 3097000   0.76237158    -8.222692    613.92082  0.016519234   0.01612441            1 
 3098000   0.75766462   -8.2459975     612.8263   0.01648446  0.016118975            2 
 3099000   0.74124525   -8.2405825    612.53843    0.0164714  0.016113544            1 
 3100000   0.75118167   -8.2132536    613.85084  0.016501367  0.016108114            3 
 3101000   0.75354706   -8.2205215    615.03122  0.016527766  0.016102694            2 
 3102000     0.750616   -8.2355208    613.74126  0.016487784  0.016097302            2 
 3103000   0.75132647   -8.2598132     613.9945  0.016489271  0.016091865            5 
 3104000   0.75574228   -8.2192322    613.55264  0.016472096  0.016086426            5 
 3105000   0.73946892   -8.2322494    613.37186  0.016461939  0.016080978            2 
 3106000   0.76103218   -8.2323118    613.36383  0.016456424  0.016075527            1 
 3107000   0.74784934   -8.2060482    613.11041   0.01644433  0.016070077            6 
 3108000   0.75983854   -8.2683949    613.46279  0.016448487  0.016064636            6 
 3109000    0.7610683   -8.2404163    612.06239  0.016405661  0.016059168            1 
 3110000   0.75109235   -8.2751931    611.99249  0.016398513  0.016053731            1 
 3111000   0.76227831   -8.2495785      612.911  0.016417845  0.016048289            3 
 3112000   0.74647738   -8.2671723    612.35114  0.016397578  0.016042852            3 
 3113000   0.75414598     -8.26379    613.49357  0.016422892  0.016037423            3 
 3114000   0.75245959   -8.2655289    612.20807  0.016383217  0.016031983            3 
 3115000   0.76092654     -8.24574    612.78535  0.016393401  0.016026565            1 
 3116000   0.74715509   -8.2436935    614.31378  0.016429016  0.016021151            1 
 3117000   0.75651768   -8.2631628    612.69159  0.016380376  0.016015719            2 
 3118000   0.75230266    -8.256849    612.14707  0.016360569  0.016010281            4 
 3119000   0.77287337   -8.2652651    612.95509  0.016376913  0.016004854            7 
 3120000   0.75312972   -8.2673845    613.82304  0.016394846  0.015999436            2 
 3121000   0.75587015   -8.2768655    612.60981  0.016357199  0.015994004            1 
 3122000   0.76416704   -8.2706183    612.93292  0.016360584  0.015988579            1 
 3123000   0.78010443    -8.291218    613.04316  0.016358287  0.015983143            3 
 3124000   0.76026003   -8.2805642    612.82835   0.01634732  0.015977714            2 
 3125000   0.74784299   -8.2641176    612.37308  0.016329949  0.015972269            3 
 3126000   0.74290914   -8.2763911    613.29812  0.016349385  0.015966847            1 
 3127000   0.74799156   -8.2572531    613.84747  0.016358796  0.015961455            5 
 3128000    0.7497279   -8.2548272     613.8991  0.016354942  0.015956041            2 
 3129000   0.75678287   -8.2827978    613.33335  0.016334648  0.015950648            3 
 3130000   0.73982323   -8.2359023    614.32998  0.016355963   0.01594526            2 
 3131000   0.74128153   -8.2402742    613.97527  0.016341299  0.015939886            3 
 3132000   0.72742864   -8.2315803    613.99086  0.016336496  0.015934504            4 
 3133000   0.75196791   -8.2616857    614.67039  0.016349356  0.015929115            2 
 3134000    0.7490381   -8.2743553    614.59198  0.016342054  0.015923727            1 
 3135000   0.75031746   -8.2926413    613.33475  0.016303422  0.015918314            1 
 3136000   0.76125219   -8.2888309     614.2857  0.016323493  0.015912908            1 
 3137000   0.75843104   -8.2636331    614.43726  0.016322316  0.015907499            2 
 3138000   0.73812664    -8.216768    614.33671  0.016314444  0.015902098            3 
 3139000   0.74378732   -8.2388634    614.05446  0.016301754  0.015896729            5 
 3140000   0.75171742   -8.2741122    612.93894  0.016266957  0.015891367            5 
 3141000   0.74039551   -8.2722222    613.57454  0.016278641  0.015885984            4 
 3142000   0.74405368   -8.2354801    613.83264  0.016280305  0.015880617            1 
 3143000   0.74779068   -8.2454683    613.74861  0.016272898  0.015875249            2 
 3144000   0.75595794   -8.2618609    612.85797  0.016244115  0.015869864            1 
 3145000   0.74084746   -8.2714356    613.41248  0.016253643  0.015864471            2 
 3146000   0.76463537   -8.2556965    612.77069  0.016231476   0.01585908            2 
 3147000   0.74888246   -8.2766145    613.91382  0.016256589  0.015853691            2 
 3148000   0.74117692    -8.266259    612.15127  0.016204767  0.015848305            1 
 3149000   0.73349372   -8.2690936     613.5351  0.016236242  0.015842935            2 
 3150000   0.76960949    -8.261101     614.0366  0.016244355  0.015837556            2 
 3151000   0.75392504   -8.2547489    613.48088  0.016224502  0.015832195            2 
 3152000   0.73972069   -8.2457727    613.94623  0.016231658  0.015826843            1 
 3153000   0.74895438   -8.2605356    612.69292  0.016193385  0.015821478            2 
 3154000   0.74340626   -8.2709219    613.03092  0.016197181  0.015816103            3 
 3155000   0.74437716   -8.2724865    613.61921  0.016207586  0.015810743            2 
 3156000   0.74509471    -8.280649    612.81147  0.016181122  0.015805381            3 
 3157000   0.72710177   -8.2701977     613.9792  0.016206821  0.015800009            2 
 3158000   0.75013796    -8.254385    613.66633  0.016193433  0.015794657            1 
 3159000    0.7440501   -8.2586376    614.50584  0.016210453  0.015789292            3 
 3160000   0.76062953   -8.2917378    614.52784  0.016205903  0.015783928            5 
 3161000   0.73200882     -8.29583    612.19917  0.016139386  0.015778564            1 
 3162000   0.74711557   -8.2552514    613.58976   0.01617093  0.015773202            2 
 3163000   0.74318941   -8.2764507    613.07722  0.016152314  0.015767849            1 
 3164000   0.74597076   -8.2609216    614.14256  0.016175268  0.015762494            2 
 3165000   0.73799711    -8.251099    614.94834  0.016191373  0.015757156            3 
 3166000   0.76210101   -8.2528502    614.77488  0.016181693  0.015751823            6 
 3167000   0.75742617   -8.2707431    613.89037  0.016153309   0.01574649            5 
 3168000   0.75202473   -8.2777234    614.08043   0.01615321  0.015741152            2 
 3169000   0.73511695    -8.276207    614.70307  0.016164486  0.015735789            1 
 3170000   0.73619742   -8.2596117    613.84882   0.01613693  0.015730447            3 
 3171000   0.75939729   -8.2534814    614.33982  0.016144745  0.015725108            1 
 3172000   0.73037289   -8.2725915    614.50774  0.016144066   0.01571976            2 
 3173000    0.7491623   -8.3220056    612.94531  0.016097944  0.015714409            2 
 3174000   0.74388263   -8.2735388    613.17227  0.016098831  0.015709051            2 
 3175000   0.75204319   -8.2847967     614.7834  0.016136047  0.015703697            2 
 3176000    0.7328309    -8.256675    613.73243  0.016103391  0.015698358            2 
 3177000    0.7434695   -8.2777632    613.61366  0.016095207   0.01569302            1 
 3178000   0.75178362   -8.2762696    615.47891  0.016139053  0.015687676            3 
 3179000   0.73161365    -8.311763    613.75154  0.016088695  0.015682337            3 
 3180000   0.75795431   -8.2628573    614.54104  0.016104325  0.015677002            5 
 3181000   0.73903561   -8.2822645    614.73428  0.016104325  0.015671691            2 
 3182000   0.71989413   -8.2892419    613.66297  0.016071207  0.015666365            1 
 3183000   0.74097267   -8.2756019    613.76718  0.016068886  0.015661048            1 
 3184000   0.75756631   -8.2834676    613.44796  0.016055485  0.015655721            2 
 3185000   0.74961175   -8.2891063    613.83239  0.016060502  0.015650381            4 
 3186000   0.72852931   -8.2856459    614.66222  0.016077166  0.015645056            2 
 3187000   0.72878799   -8.2729773     614.9132  0.016078684  0.015639731            2 
 3188000   0.73569236   -8.3138537    613.45145  0.016035431  0.015634411            2 
 3189000   0.73167235    -8.304703    613.91443  0.016042501  0.015629087            3 
 3190000   0.73539167   -8.2949615     614.0919  0.016042108  0.015623759            2 
 3191000   0.74031327   -8.3004019    613.94288  0.016033189    0.0156184            2 
 3192000   0.74391375   -8.3236692    613.87219  0.016026321  0.015613068            3 
 3193000    0.7276826   -8.2846875    614.11104  0.016027535  0.015607752            5 
 3194000   0.75102283   -8.2889729    615.38609  0.016055784  0.015602436            3 
 3195000   0.73836968   -8.2978736    613.71537  0.016007182   0.01559712            2 
 3196000   0.75236684   -8.2984595    614.25778  0.016016317  0.015591819            2 
 3197000   0.72453851   -8.2952838     613.5601  0.015993121  0.015586504            4 
 3198000    0.7304067   -8.2796943    615.34778  0.016034703  0.015581217            1 
 3199000   0.72655464   -8.2841844    613.63876  0.015985171   0.01557592            4 
 3200000   0.74812142   -8.3128984    615.45695  0.016027525  0.015570609            2 
 3201000   0.75025856   -8.2773674    614.81836  0.016005893    0.0155653            3 
 3202000   0.72606453   -8.2720706    614.89773   0.01600296  0.015559999            2 
 3203000   0.73283226   -8.2917537    615.16042  0.016004798  0.015554714            3 
 3204000    0.7537639    -8.291518    614.39219  0.015979822  0.015549417            2 
 3205000   0.73368054   -8.2985058    613.61489  0.015954625  0.015544116            1 
 3206000   0.73191765   -8.3189303    614.63785  0.015976239  0.015538813            1 
 3207000   0.73091266   -8.2815016    614.02013  0.015955206  0.015533496            4 
 3208000   0.74149886   -8.2739076    614.52955  0.015963465    0.0155282            1 
 3209000    0.7556431   -8.2557008    614.71748  0.015963371  0.015522909            2 
 3210000   0.73889954   -8.3053807    613.54364  0.015927924  0.015517611            3 
 3211000   0.75121023   -8.3057461    614.29134  0.015942369  0.015512314            1 
 3212000   0.75179688   -8.3035623    614.43705  0.015941185  0.015507003            2 
 3213000   0.74615411   -8.3259778    615.14928  0.015954697  0.015501696            2 
 3214000   0.75278401   -8.2986295    615.05679  0.015947334  0.015496397            3 
 3215000   0.73893528   -8.2797716    614.28337  0.015922327  0.015491098            3 
 3216000   0.72828272   -8.2881441    613.87297  0.015906742  0.015485808            4 
 3217000   0.73492197   -8.3012609    615.47393  0.015943268  0.015480503            2 
 3218000   0.74006675   -8.2952472    614.67119  0.015917526  0.015475208            3 
 3219000   0.73042265    -8.313319      613.546  0.015883452  0.015469901            3 
 3220000   0.72140517   -8.3382001    613.70785  0.015882708  0.015464597            1 
 3221000   0.73106532   -8.3176434    614.62591  0.015901529  0.015459302            2 
 3222000   0.72053831   -8.2949814    613.22459   0.01586035  0.015454004            3 
 3223000   0.72346465    -8.312945    613.10133  0.015852243  0.015448704            2 
 3224000   0.73776321   -8.2856508    615.02629  0.015897082  0.015443416            2 
 3225000   0.74628545   -8.3023434    614.90885  0.015889118  0.015438134            3 
 3226000   0.73109679   -8.2926896    614.50454  0.015873748  0.015432849            1 
 3227000   0.73450968   -8.2950938    615.03446  0.015882514  0.015427571            3 
 3228000   0.75354417   -8.3048053    614.50041  0.015863806  0.015422318            3 
 3229000   0.73400671   -8.2927392    615.19477  0.015876814  0.015417072            3 
 3230000   0.74792403   -8.2851196    615.09632  0.015869358  0.015411828            1 
 3231000   0.73517689   -8.2905787    616.14889  0.015891594  0.015406581            3 
 3232000   0.73185975   -8.2855164    614.48003  0.015843648  0.015401322            4 
 3233000   0.74246411   -8.2752362    615.69446   0.01587005  0.015396071            1 
 3234000   0.73806457   -8.2898476    614.77295  0.015841397  0.015390813            2 
 3235000   0.73848399   -8.2986534    613.81662  0.015811866   0.01538557            3 
 3236000   0.73521223   -8.2854131    615.89901  0.015860605  0.015380319            4 
 3237000   0.73513075   -8.2925488    615.34023   0.01584132  0.015375071            3 
 3238000    0.7444407   -8.2617588    615.55481   0.01584195  0.015369846            2 
 3239000   0.73883133   -8.3109523     614.3873  0.015807021  0.015364612            1 
 3240000    0.7490514   -8.3112724     614.5483  0.015806284  0.015359372            6 
 3241000   0.73244583   -8.3121855    615.43395  0.015824179  0.015354127            4 
 3242000   0.72806033   -8.2720741    616.17013  0.015838221  0.015348901            4 
 3243000   0.74086206   -8.3047742    615.75707  0.015822723   0.01534368            2 
 3244000   0.71985257   -8.3070362     615.9834  0.015823659  0.015338443            1 
 3245000    0.7257214   -8.3211928    615.52895  0.015807112  0.015333196            2 
 3246000    0.7299889   -8.2830178    615.04303  0.015789768  0.015327958            2 
 3247000   0.73057874   -8.3207816    614.73569  0.015777017  0.015322722            1 
 3248000   0.73744561   -8.3121241      613.427  0.015738583   0.01531747            1 
 3249000   0.71854159    -8.299553    614.59944   0.01576381  0.015312221            6 
 3250000   0.73641791   -8.3240926    614.43661  0.015754785   0.01530697            1 
 3251000   0.73452756    -8.308832    614.65163   0.01575545  0.015301711            2 
 3252000   0.73733606   -8.2883124    615.56034  0.015773891   0.01529646            3 
 3253000   0.74826753   -8.3139045     614.9531  0.015753487  0.015291223            2 
 3254000   0.73246658   -8.3167277     614.0261  0.015724905  0.015285993            5 
 3255000    0.7220812   -8.2918094    615.06113  0.015746573  0.015280753            4 
 3256000   0.73196158   -8.3037565    614.01419  0.015714941  0.015275505            2 
 3257000   0.74342266   -8.3045933    614.13957  0.015713324  0.015270255            2 
 3258000   0.73584572   -8.3306001    614.50308  0.015717799  0.015265027            2 
 3259000   0.73895036   -8.2736344    615.69689  0.015743502  0.015259802            3 
 3260000   0.71557037    -8.306396    614.59463  0.015710497  0.015254568            3 
 3261000   0.73634859    -8.316881    615.77444  0.015735828  0.015249348            2 
 3262000   0.74290122   -8.3327678    614.16183  0.015689808  0.015244116            5 
 3263000   0.72804456   -8.3091133    614.60927  0.015696426  0.015238874            3 
 3264000   0.73215197   -8.3137922    613.75297  0.015669755  0.015233625            1 
 3265000   0.71584191   -8.3388447    614.52732   0.01568472  0.015228373            6 
 3266000   0.73491656    -8.327023    613.87337  0.015663231  0.015223118            1 
 3267000   0.72308345   -8.3148971    612.91134  0.015633898  0.015217859            1 
 3268000   0.72271564   -8.3038786    614.37426  0.015666418  0.015212596            2 
 3269000   0.73562135   -8.3063524    612.88461  0.015623652  0.015207351            3 
 3270000   0.72469063    -8.292463    614.31778  0.015655397  0.015202128            2 
 3271000   0.71145055   -8.3191317    614.50516  0.015655385  0.015196908            2 
 3272000   0.72368134   -8.3020682    615.85332  0.015684936  0.015191673            2 
 3273000   0.73648327   -8.3117363    616.16598  0.015688104  0.015186441            2 
 3274000   0.71674725   -8.3334938    614.48431  0.015640509  0.015181202            2 
 3275000   0.72846721   -8.3210573    613.77204  0.015617609  0.015175956            2 
 3276000    0.7232954   -8.3269102    613.08974  0.015595486  0.015170699            1 
 3277000   0.72896002   -8.3239577    613.84039  0.015609816  0.015165442            2 
 3278000   0.72876402   -8.3161732    615.02706  0.015635221  0.015160213            2 
 3279000   0.72853501   -8.3060473    614.51169  0.015617355  0.015154965            2 
 3280000   0.71982686   -8.3161432    614.93775  0.015623418  0.015149722            2 
 3281000   0.71981066   -8.3401827    614.45721  0.015606451  0.015144484            3 
 3282000   0.70832445   -8.3085813    613.26065  0.015571315  0.015139246            2 
 3283000   0.71054962   -8.3359573    613.59479  0.015575053  0.015134009            1 
 3284000   0.72345743   -8.3350073    613.55442  0.015569286  0.015128775            3 
 3285000   0.72893408   -8.3264431    613.20228  0.015555613  0.015123549            2 
 3286000   0.72391721   -8.3203964    613.85784  0.015567504  0.015118324            1 
 3287000   0.72628947   -8.3249047    614.05045  0.015567652  0.015113107            1 
 3288000   0.72750532    -8.330603    615.74048   0.01560575  0.015107888            3 
 3289000   0.71358185   -8.3473336    614.08173  0.015558978  0.015102686            2 
 3290000   0.74786862   -8.3259477     614.5611  0.015566391  0.015097475            2 
 3291000   0.72332975   -8.3253118    614.85597  0.015569127  0.015092267            2 
 3292000   0.70715668   -8.3388338    616.37861  0.015602942  0.015087038            2 
 3293000   0.72432887   -8.3174977      615.883  0.015585661  0.015081854            3 
 3294000   0.72390471     -8.29817     615.3734  0.015568038  0.015076673            3 
 3295000    0.7174899   -8.3480098    614.50554  0.015541364  0.015071478            3 
 3296000   0.72354909    -8.322021    615.32248  0.015557304   0.01506627            3 
 3297000   0.72818822   -8.3292028    615.01567   0.01554483  0.015061082            1 
 3298000   0.73180666   -8.3005606    614.53177   0.01552789  0.015055901            2 
 3299000    0.7200114   -8.3295234    614.13241  0.015513095  0.015050709            2 
 3300000   0.73884158   -8.3044082    615.86874  0.015552241  0.015045511            1 
 3301000   0.71316767   -8.3168432    615.17302  0.015529966  0.015040328            2 
 3302000   0.73364903   -8.3349812    615.61837  0.015536502  0.015035133            2 
 3303000   0.73560061   -8.3347754    614.67048  0.015507884  0.015029946            2 
 3304000   0.72328109   -8.3259104    616.48949  0.015549069  0.015024774            4 
 3305000   0.74150979   -8.3370644    614.63711  0.015497658  0.015019597            3 
 3306000    0.7252396   -8.3499249    613.23691  0.015457676  0.015014415            5 
 3307000   0.72108186   -8.3429057    615.64351  0.015513646  0.015009214            6 
 3308000   0.73754138   -8.3008866      615.959  0.015516903   0.01500405            2 
 3309000     0.719177   -8.3162881    614.55733  0.015476915   0.01499888            2 
 3310000   0.71453851   -8.3170413    615.98388  0.015508154  0.014993712            5 
 3311000   0.72571906   -8.3314458    614.61199  0.015468942  0.014988549            4 
 3312000   0.72762355   -8.3424967    616.28001   0.01550624  0.014983379            4 
 3313000   0.72268988   -8.3355918    614.19456  0.015449103  0.014978214            1 
 3314000   0.72632419   -8.3331294    615.61348  0.015480122  0.014973055            2 
 3315000   0.72529849   -8.3050697    615.04965  0.015461278  0.014967897            2 
 3316000   0.73051264   -8.3179632    615.50767  0.015468126  0.014962738            2 
 3317000   0.73363034   -8.3231165    614.85512  0.015447069  0.014957569            5 
 3318000    0.7184923   -8.3536109    613.84696  0.015417093  0.014952395            3 
 3319000   0.72971359   -8.3587729    613.94326  0.015414866  0.014947216            3 
 3320000   0.71103466   -8.3356716    614.35305  0.015420508  0.014942028            1 
 3321000   0.72168659   -8.3618357    614.24705  0.015413205  0.014936825            2 
 3322000   0.72547911   -8.3461889    613.01995  0.015377783  0.014931633            1 
 3323000   0.72035582   -8.3320504    614.84732  0.015418982  0.014926444            2 
 3324000   0.70771651   -8.3509176    613.75503  0.015386959  0.014921253            3 
 3325000   0.71300606   -8.3350391    614.47924  0.015400482  0.014916077            1 
 3326000   0.73785156    -8.361921     615.0255  0.015409539  0.014910899            2 
 3327000   0.72608428   -8.3502569    615.79281  0.015424126  0.014905732            2 
 3328000   0.71405007   -8.3680419    614.98761  0.015399329  0.014900563            3 
 3329000   0.71506465   -8.3494229    615.87687  0.015416964  0.014895385            1 
 3330000   0.73181772   -8.3663394    614.43196  0.015376175  0.014890205            2 
 3331000   0.71999845   -8.3428475    615.19672  0.015390692  0.014885037            2 
 3332000   0.70897951   -8.3808728     615.5424  0.015394718  0.014879872            2 
 3333000    0.7134588   -8.3405748    614.78699  0.015371212  0.014874714            2 
 3334000   0.71120222   -8.3441565    615.39608  0.015381826  0.014869555            1 
 3335000   0.71644269   -8.3454737    614.49064  0.015354589  0.014864414            3 
 3336000   0.72118814   -8.3793704    614.79711  0.015357642  0.014859257            3 
 3337000   0.73376385   -8.3336797    614.65356  0.015349455  0.014854101            2 
 3338000   0.70583517   -8.3602655    614.33863  0.015336994   0.01484894            3 
 3339000   0.71324488    -8.335737    613.86003  0.015320456  0.014843802            2 
 3340000    0.7065468   -8.3747381    615.70619  0.015361931  0.014838652            2 
 3341000   0.72078784   -8.3658519    613.77778  0.015309233  0.014833495            1 
 3342000   0.70615159   -8.3290156    616.07619  0.015361964  0.014828354            2 
 3343000   0.71681013   -8.3545484     616.2267   0.01536112  0.014823231            1 
 3344000   0.71543512   -8.3435082    615.61996  0.015341407  0.014818108            3 
 3345000   0.71925258   -8.3606156    614.52113  0.015309445  0.014812969            3 
 3346000   0.70076192   -8.3342023    615.12874  0.015320003  0.014807835            3 
 3347000   0.72109254   -8.3421215    615.64918  0.015328383  0.014802716            8 
 3348000   0.70108977    -8.328406    615.17355  0.015311966  0.014797593            2 
 3349000   0.72728583   -8.3401602      614.962   0.01530213  0.014792465            1 
 3350000   0.72847371   -8.3581234    613.61337  0.015264014  0.014787337            1 
 3351000   0.72551577   -8.3677307    614.21111  0.015274324  0.014782186            2 
 3352000   0.70743067   -8.3478412    614.83216  0.015285207  0.014777058            3 
 3353000   0.72384884    -8.346646    614.71931  0.015277843  0.014771934            3 
 3354000   0.71600886    -8.346335    616.10898  0.015307816  0.014766822            2 
 3355000     0.708777   -8.3651573    616.09949  0.015303018  0.014761711            4 
 3356000   0.70324413   -8.3663696    616.04307  0.015297057  0.014756596            1 
 3357000   0.71948541   -8.3599754    615.07675  0.015268512  0.014751484            1 
 3358000   0.72661222   -8.3511699    616.17663   0.01529126  0.014746364            3 
 3359000   0.71213681   -8.3564669    614.61577  0.015247985  0.014741242            2 
 3360000   0.71107156   -8.3679229    615.91653  0.015275708  0.014736125            2 
 3361000   0.69799317   -8.3910855    614.44553   0.01523469  0.014731002            2 
 3362000   0.72205654   -8.3733718    614.57222  0.015233299  0.014725888            5 
 3363000   0.69818953    -8.353387    614.73011  0.015232682  0.014720766            2 
 3364000   0.70647865   -8.3651712    615.93788  0.015258073  0.014715642            5 
 3365000   0.70968653   -8.3864625    613.69758  0.015198058  0.014710524            3 
 3366000   0.72245518   -8.3727594     615.3711  0.015234975   0.01470541            3 
 3367000   0.71505597   -8.3719209     615.7235  0.015239172  0.014700296            3 
 3368000   0.70898217   -8.3665417    613.93187  0.015190317  0.014695199            2 
 3369000   0.70576818   -8.3484664    615.07439  0.015214069  0.014690099            3 
 3370000   0.70943511   -8.3646697    614.02302  0.015183556     0.014685            1 
 3371000    0.7068536   -8.3945527    614.73513  0.015196656  0.014679893            3 
 3372000   0.71061997    -8.351571    614.43056  0.015184622  0.014674782            1 
 3373000   0.74548919   -8.3627444    614.57776  0.015183757  0.014669675            1 
 3374000   0.72517901   -8.3583301    614.33356  0.015173226   0.01466458            3 
 3375000   0.73242315   -8.3850954    613.53315  0.015148967  0.014659484            3 
 3376000   0.69847235   -8.3712936    615.27089  0.015187374  0.014654393            3 
 3377000   0.70954392   -8.4082725    614.95831  0.015175163  0.014649296            4 
 3378000    0.7331709    -8.381231     614.9872  0.015171383  0.014644202            5 
 3379000   0.70413734   -8.3843212    615.39907  0.015177051  0.014639107            4 
 3380000   0.71052829   -8.3794994    615.65334   0.01517883  0.014634027            2 
 3381000   0.69803003   -8.3707395    615.89978  0.015180415  0.014628942            2 
 3382000   0.71893092   -8.3932515    613.93616  0.015127542  0.014623856            3 
 3383000   0.72052849   -8.4097095    614.91813  0.015147259  0.014618766            2 
 3384000   0.72449054   -8.3774548    615.27545  0.015151582  0.014613685            3 
 3385000   0.70922354   -8.3691924    615.77442   0.01515939  0.014608598            2 
 3386000   0.70163858   -8.3527634    615.86042  0.015157029  0.014603506            2 
 3387000   0.70963956   -8.3723251    614.60502  0.015121667  0.014598423            2 
 3388000   0.70803101   -8.4001696    614.26037  0.015108726  0.014593341            2 
 3389000   0.69717548   -8.3734287    614.88643  0.015119662  0.014588249            1 
 3390000   0.69195802   -8.3731132    614.47087  0.015104987  0.014583158            2 
 3391000   0.72973094   -8.3732579    615.16389  0.015117563  0.014578073            4 
 3392000   0.70692443   -8.3626145    616.73774  0.015151772  0.014573018            3 
 3393000   0.70572154   -8.3817042     614.5833  0.015094393  0.014567952            2 
 3394000   0.72164636   -8.3647015    614.85143  0.015096529  0.014562889            6 
 3395000   0.70693406   -8.3621413    615.07509  0.015097572  0.014557826            3 
 3396000   0.70521968   -8.3456131    615.23848  0.015097136  0.014552762            7 
 3397000     0.720815   -8.3779684     614.5118  0.015074865  0.014547696            5 
 3398000   0.71262854   -8.3492945    615.80782  0.015102212  0.014542649            2 
 3399000   0.70635443   -8.3547225    615.79371  0.015097424  0.014537614            3 
 3400000   0.71618935   -8.3439575    615.97702  0.015097476  0.014532576            2 
 3401000   0.70570085   -8.3661543    615.73158  0.015087023  0.014527549            1 
 3402000   0.70221034   -8.3704107      615.644  0.015080443  0.014522511            2 
 3403000   0.71026694   -8.3459704    615.47755  0.015071935  0.014517473            3 
 3404000   0.70892514   -8.3669692    614.69583   0.01504837  0.014512444            3 
 3405000   0.71281132   -8.3767926    616.14208  0.015079346  0.014507413            2 
 3406000    0.7150216   -8.3743216    615.39761  0.015056704   0.01450238            3 
 3407000   0.70185557    -8.396469    616.11982   0.01506995  0.014497348            7 
 3408000   0.69858379   -8.3643724    615.10609   0.01504074  0.014492314            2 
 3409000    0.7058385   -8.3867038    616.55092  0.015071647  0.014487288            4 
 3410000   0.70464611   -8.3909985     615.0087  0.015029538  0.014482257            4 
 3411000   0.71936948   -8.3919563     615.5774  0.015039026  0.014477228            2 
 3412000   0.70150453   -8.3954134    614.55082  0.015009545  0.014472199            3 
 3413000   0.70682869   -8.3936316    615.36887  0.015025121   0.01446717            5 
 3414000   0.69588528   -8.3923499    614.61908  0.015002419  0.014462153            4 
 3415000   0.69962455   -8.4209104    615.07912  0.015009251  0.014457123            2 
 3416000   0.69605704   -8.3643122    616.62852  0.015042655  0.014452093            3 
 3417000   0.70963051   -8.3922955    615.47579   0.01501014  0.014447062            3 
 3418000   0.71029317   -8.3639521    615.30408  0.015001562   0.01444204            4 
 3419000   0.69371982   -8.3894949    615.20115  0.014994666  0.014437012            1 
 3420000   0.71703718   -8.4198366    614.11787  0.014963886  0.014431982            3 
 3421000   0.70508204   -8.4044914    614.96349   0.01498011  0.014426962            3 
 3422000   0.70008338   -8.3936225    614.00094  0.014952292  0.014421943            2 
 3423000   0.70274478   -8.3991932      615.165  0.014976264  0.014416913            3 
 3424000   0.70098976   -8.4209241    615.17805  0.014972207   0.01441188            1 
 3425000   0.70223827   -8.4078642    614.94528  0.014962172  0.014406864            1 
 3426000   0.71176936   -8.3742144    615.69939  0.014976148  0.014401851            3 
 3427000   0.70904737   -8.3780922    615.21288  0.014959947  0.014396839            3 
 3428000   0.70779787   -8.3845461    615.57027  0.014964271  0.014391823            2 
 3429000   0.68949883   -8.4287285     616.1005  0.014972793  0.014386795            1 
 3430000   0.71082482   -8.4168732    614.93422  0.014940093  0.014381769            1 
 3431000   0.70029193   -8.3709201    616.47951  0.014973271  0.014376755            7 
 3432000   0.67918477   -8.4091275    614.57246  0.014922602  0.014371737            6 
 3433000   0.70852091   -8.4010255    615.56025  0.014942233  0.014366739            3 
 3434000   0.70332765    -8.390101    615.04717  0.014925431  0.014361741            6 
 3435000   0.71503124   -8.3841389    614.77856   0.01491457  0.014356757            1 
 3436000   0.70158921   -8.4054696    614.76482  0.014909896  0.014351762            2 
 3437000   0.70443356   -8.3972032    613.89229  0.014884402  0.014346743            3 
 3438000   0.68718223   -8.3929416    614.28691  0.014889638  0.014341735            2 
 3439000    0.7077579   -8.4237392     615.7112  0.014919822  0.014336723            7 
 3440000   0.69022105   -8.4096277    615.65056  0.014914016  0.014331715            3 
 3441000   0.71173364   -8.3813581    616.73696  0.014935992   0.01432671            5 
 3442000   0.69775349   -8.4028612    614.26355  0.014871769  0.014321709            2 
 3443000   0.71043456   -8.4098226    613.29611  0.014844034  0.014316698            3 
 3444000    0.7104393   -8.3760757    614.16822  0.014860826  0.014311699            3 
 3445000   0.71735841   -8.3975339    613.39334  0.014837768  0.014306696            4 
 3446000   0.68591492   -8.4021009     614.1333  0.014851357  0.014301691            3 
 3447000   0.69332138   -8.4118873    615.14749  0.014871567  0.014296697            6 
 3448000   0.69377349   -8.4184463    614.92857  0.014861963  0.014291697            2 
 3449000   0.71573453   -8.4180453    613.58478  0.014825185  0.014286699            2 
 3450000   0.69776104   -8.4173755    614.68342  0.014847426  0.014281706            2 
 3451000   0.69932996   -8.4052738    614.90017  0.014848357  0.014276705            3 
 3452000   0.69966286   -8.4076673    614.94664  0.014845178  0.014271707            2 
 3453000   0.69633644   -8.3994929    615.16864  0.014846236  0.014266721            4 
 3454000   0.68889523   -8.4273796     614.0336  0.014814553  0.014261729            1 
 3455000   0.70444913   -8.4210427     615.0419  0.014834585   0.01425675            1 
 3456000   0.70563389   -8.3911102    615.72235    0.0148467  0.014251783            3 
 3457000   0.70159753   -8.4020062     615.2789  0.014831716   0.01424683            3 
 3458000   0.70773047   -8.4282715    614.87746  0.014817752  0.014241862            2 
 3459000   0.70799794   -8.3957501    614.96877  0.014815669  0.014236884            4 
 3460000   0.70802315   -8.3912638    616.09132  0.014838423  0.014231926            1 
 3461000   0.68599084   -8.3978609    615.89002  0.014829289  0.014226975            3 
 3462000    0.7080465   -8.4031936    615.17338  0.014807755   0.01422202            2 
 3463000   0.68001331   -8.3990033    613.92954  0.014773547  0.014217059            5 
 3464000   0.69618227   -8.4148201    615.86431  0.014815827  0.014212109            2 
 3465000   0.70353846   -8.4081658    614.28464   0.01477356  0.014207159            3 
 3466000   0.71654354   -8.3856513    615.45727  0.014797491  0.014202209            2 
 3467000   0.69913769   -8.4075394    615.76873   0.01480071  0.014197266            2 
 3468000   0.69364863   -8.3890241    614.76091  0.014772225  0.014192343            1 
 3469000   0.69343282    -8.398935    614.67239   0.01476584  0.014187416            2 
 3470000   0.69270768   -8.4128629    614.68033  0.014761776  0.014182484            4 
 3471000    0.6899198   -8.3819049    617.11616  0.014816003  0.014177567            2 
 3472000   0.70271274   -8.3956404    615.28034  0.014767673  0.014172652            2 
 3473000     0.707398     -8.37672    615.52063  0.014769187  0.014167741            5 
 3474000   0.70911758   -8.4137103    615.49877  0.014764411  0.014162819            2 
 3475000   0.69939891   -8.4167207    615.89601  0.014769689  0.014157893            2 
 3476000   0.70521819   -8.4147799    615.89476   0.01476541  0.014152969            4 
 3477000   0.71167315   -8.3974248     616.3287  0.014771563  0.014148054            2 
 3478000   0.69293008   -8.3941087    616.81531  0.014778975  0.014143147            2 
 3479000   0.69878499   -8.3921314    616.16833   0.01475923   0.01413823            2 
 3480000   0.69502753   -8.4078655    616.84154   0.01477111  0.014133321            2 
 3481000   0.70334161   -8.3941267    614.76596  0.014717178  0.014128406            2 
 3482000   0.69904522   -8.4219425    615.46673  0.014729723  0.014123502            2 
 3483000   0.71563611    -8.400368    616.23871  0.014743964  0.014118596            3 
 3484000   0.70574335   -8.3992417    616.78142  0.014752713  0.014113686            1 
 3485000    0.6917152   -8.3888719    617.56758  0.014767278  0.014108785            1 
 3486000   0.69704451   -8.3616588    616.35128  0.014733966   0.01410388            2 
 3487000   0.69001751   -8.3877749    616.67448  0.014737465  0.014098995            4 
 3488000   0.68175932   -8.3636515    616.68883  0.014733582  0.014094105            3 
 3489000   0.68535048   -8.3759699    616.35457  0.014721376   0.01408923            3 
 3490000   0.68599683   -8.3777802     616.3281  0.014716526  0.014084372            1 
 3491000   0.70169974   -8.3778949    617.18765  0.014732828  0.014079502            1 
 3492000   0.69065462   -8.3931846    615.85646  0.014696842  0.014074633            1 
 3493000   0.70387405   -8.4034464    616.54261  0.014709004  0.014069772            1 
 3494000   0.67225525   -8.4004667    615.30852  0.014675361  0.014064906            2 
 3495000   0.68810626   -8.3979001    616.14773  0.014691171  0.014060044            1 
 3496000   0.68253233   -8.4127736    615.86304  0.014680183  0.014055192            1 
 3497000    0.7029748   -8.3667558    616.81517  0.014698674  0.014050323            2 
 3498000   0.68918869   -8.3778986    616.89922  0.014696475  0.014045462            2 
 3499000   0.68645855   -8.3912204    616.79349  0.014689756  0.014040602            3 
 3500000   0.69099308   -8.4033068    615.61239  0.014657438  0.014035742            3 
 3501000   0.68890426   -8.4053577     615.3868  0.014647882  0.014030882            2 
 3502000   0.70042924   -8.4047849    616.13172  0.014661425  0.014026022            2 
 3503000   0.70163215   -8.3812278     615.4401  0.014640786  0.014021169            1 
 3504000   0.69006529   -8.3988962    616.27659  0.014656502  0.014016296            5 
 3505000   0.68968431   -8.4146858    615.37546  0.014630895  0.014011432            5 
 3506000   0.69018936   -8.3912948    616.25119  0.014647537   0.01400658            6 
 3507000    0.6854179   -8.3886134    617.45541  0.014671975  0.014001727            1 
 3508000   0.70189387   -8.3825483    617.22075  0.014662219  0.013996884            4 
 3509000   0.68472197   -8.3974049    616.96343  0.014651929  0.013992049            1 
 3510000   0.66937807   -8.4055761    616.36534  0.014633555  0.013987201            4 
 3511000    0.6814712   -8.4162723     615.8026   0.01461603  0.013982352            4 
 3512000   0.68054701   -8.4259621    615.49711   0.01460462  0.013977495            2 
 3513000      0.69717   -8.4303185    615.72115  0.014605777  0.013972636            2 
 3514000   0.70367982   -8.4367595    615.70709  0.014601287  0.013967772            3 
 3515000   0.68015858   -8.4296094    614.47725  0.014567976  0.013962907            4 
 3516000   0.69002493   -8.4483922    615.61225  0.014590734   0.01395806            1 
 3517000   0.69219368   -8.4373976    615.35108  0.014580397  0.013953196            1 
 3518000   0.68252751   -8.4394607    616.24458  0.014597418  0.013948327            2 
 3519000   0.67358439   -8.4497858    614.45934  0.014550993  0.013943457            1 
 3520000   0.68061497   -8.4210597    615.85687  0.014579945  0.013938592            3 
 3521000   0.69324488   -8.4101529    616.50039  0.014591034  0.013933745            3 
 3522000   0.69103042   -8.4264831    614.99516  0.014551277  0.013928906            3 
 3523000    0.6903667   -8.4249722    616.55473  0.014584037  0.013924057            3 
 3524000   0.69516908   -8.4299255    615.79299  0.014561885  0.013919205            2 
 3525000   0.68957721   -8.4218587    616.27098  0.014569054  0.013914364            1 
 3526000   0.67821584   -8.4197103    615.87341  0.014555526  0.013909512            3 
 3527000   0.69191114   -8.4122557    615.94703  0.014553138  0.013904672            2 
 3528000   0.69385217   -8.4310243    616.53832   0.01456298  0.013899841            4 
 3529000   0.67853619   -8.4398921    614.94888  0.014521321  0.013895003            2 
 3530000    0.6822889   -8.4379141    615.55518   0.01453152  0.013890164            2 
 3531000   0.67567598   -8.4476071    615.02753  0.014514952  0.013885342            3 
 3532000   0.68725092   -8.4006081    616.39787  0.014543174  0.013880507            2 
 3533000   0.68857259   -8.4383121    615.63884  0.014521154  0.013875683            1 
 3534000   0.68722937   -8.4227443    617.35474  0.014557506  0.013870858            1 
 3535000   0.69287185    -8.409004    616.82267  0.014540846  0.013866034            2 
 3536000   0.68636217   -8.4055386    616.45568  0.014528084  0.013861217            3 
 3537000   0.67180714    -8.434727    615.44102  0.014500071  0.013856401            3 
 3538000   0.69023493   -8.4396785    614.77526  0.014480292  0.013851584            3 
 3539000   0.68259485   -8.4147763    615.64644  0.014496714  0.013846778            3 
 3540000   0.68891197   -8.4087898    615.56566  0.014490717  0.013841961            2 
 3541000   0.67230908   -8.4478578    615.45654  0.014484057  0.013837146            3 
 3542000   0.68132097   -8.4451277    616.29129  0.014499607  0.013832333            4 
 3543000   0.67928081   -8.4371593    615.42084  0.014475041  0.013827522            3 
 3544000   0.69164042   -8.4346269    615.80568  0.014480006  0.013822706            3 
 3545000   0.68517954   -8.4211476    615.42401  0.014466949  0.013817892            2 
 3546000   0.70366094   -8.4318476     615.2616  0.014459052  0.013813096            2 
 3547000   0.67101327   -8.4502689    614.89396  0.014446339  0.013808278            3 
 3548000   0.70359386   -8.4440856    615.36334  0.014453292  0.013803453            2 
 3549000   0.69241075   -8.4569885    615.55052  0.014453614  0.013798637            3 
 3550000   0.68956396   -8.4579778    614.86491  0.014433449  0.013793823            5 
 3551000   0.68944265   -8.4558714     615.0392  0.014433474  0.013789016            2 
 3552000   0.67138421   -8.4430806    615.03652  0.014429348  0.013784209            1 
 3553000   0.68116479   -8.4211212    615.73527  0.014441675  0.013779397            2 
 3554000    0.6895009   -8.4417634    614.98564  0.014420035  0.013774579            3 
 3555000   0.66633584   -8.4581817    615.89241  0.014437234  0.013769769            2 
 3556000   0.69530034   -8.4507151     615.5931   0.01442616  0.013764953            3 
 3557000   0.67344807     -8.46539    614.63902  0.014399752  0.013760131            3 
 3558000   0.67629363   -8.4590177    614.74653  0.014398223  0.013755318            2 
 3559000   0.67159144   -8.4189879    616.69032  0.014439691  0.013750514            2 
 3560000   0.67660079   -8.4295603    615.72406  0.014413016  0.013745708            1 
 3561000   0.68956891   -8.4552271     615.2875  0.014398753  0.013740904            1 
 3562000   0.68246176   -8.4653744    613.68364  0.014357188   0.01373611            3 
 3563000   0.67745918   -8.4380176    615.32822  0.014391623  0.013731314            2 
 3564000   0.68566965   -8.4275925    615.82515  0.014399204  0.013726531            2 
 3565000    0.6873298   -8.4733761    616.38194   0.01440818  0.013721735            1 
 3566000    0.6810499   -8.4601147     615.4059  0.014381331  0.013716946            2 
 3567000   0.67284184   -8.4771588    615.34889  0.014375967  0.013712164            1 
 3568000   0.68154835   -8.4532814    616.54348  0.014399838   0.01370737            4 
 3569000   0.69125285   -8.4364308    614.85211  0.014356312  0.013702585            1 
 3570000   0.69799134   -8.4432283    615.79422  0.014374282  0.013697803            2 
 3571000   0.68401027   -8.4455563    614.81448  0.014347393  0.013693027            3 
 3572000   0.67173702   -8.4457547    616.13584  0.014374203  0.013688253            3 
 3573000   0.68254724   -8.4538145    614.90256  0.014341416  0.013683469            3 
 3574000   0.67085664   -8.4629253    615.25394  0.014345596  0.013678693            2 
 3575000   0.68352812      -8.4757    615.12686  0.014338622  0.013673919            2 
 3576000   0.68218066   -8.4789666    614.06525  0.014309872  0.013669141            3 
 3577000   0.67398516   -8.4702686    615.86622  0.014347829  0.013664362            3 
 3578000   0.67162021   -8.4699813    615.34493  0.014331678  0.013659593            2 
 3579000   0.67165491    -8.460602    616.11672  0.014345644  0.013654833            1 
 3580000   0.68470589   -8.4702283    615.94446  0.014337627  0.013650069            1 
 3581000   0.68475416   -8.4845978    615.07449  0.014313378    0.0136453            2 
 3582000    0.6773227   -8.4401108    616.19425  0.014335433  0.013640531            3 
 3583000   0.66845134    -8.484693    617.18241  0.014354415  0.013635777            3 
 3584000    0.6765271   -8.4544889    615.94246  0.014321579  0.013631013            2 
 3585000   0.69238132   -8.4660476    614.74867  0.014289834  0.013626257            5 
 3586000   0.67606576    -8.487275    615.00559   0.01429182  0.013621492            1 
 3587000   0.68357583   -8.4623195    614.67638  0.014280187  0.013616726            2 
 3588000   0.67651763   -8.4953275    615.16787  0.014287622  0.013611948            2 
 3589000   0.67670229   -8.4477218    616.38486  0.014311899  0.013607173            2 
 3590000   0.68484878   -8.4774148    615.29667  0.014282652   0.01360242            4 
 3591000    0.6694943   -8.4711303    614.78096  0.014266707  0.013597636            1 
 3592000   0.67900187   -8.4857298    614.19296  0.014249094  0.013592875            2 
 3593000   0.69475912    -8.461418     615.7729  0.014281772  0.013588112            1 
 3594000   0.68241229   -8.4412481     615.2339  0.014265301  0.013583366            3 
 3595000   0.67825766    -8.457766    615.40534  0.014265307  0.013578611            2 
 3596000   0.66232622   -8.4808478    614.15311  0.014232321  0.013573859            4 
 3597000   0.67289338    -8.473683    615.74943  0.014265347    0.0135691            2 
 3598000   0.67391144   -8.4564937    616.29141  0.014273935  0.013564362            2 
 3599000    0.6776375   -8.4813407    615.58441  0.014253598  0.013559609            3 
 3600000   0.68225319   -8.4720329    614.72234  0.014229684  0.013554857            4 
 3601000   0.67149265   -8.4850339    614.70175  0.014225256  0.013550102            3 
 3602000   0.67580486    -8.468331     616.5899  0.014264989  0.013545352            2 
 3603000    0.6767206   -8.4748029    615.22761  0.014229522  0.013540602            3 
 3604000    0.6695634   -8.4867493    614.96429  0.014219485  0.013535849            2 
 3605000   0.67346834   -8.4492329    614.53877  0.014205704  0.013531091            3 
 3606000   0.68365934    -8.480179    615.73756  0.014229469   0.01352634            2 
 3607000   0.67329598   -8.4985882    614.70514  0.014201671  0.013521587            1 
 3608000   0.68214445   -8.4847639     615.1428  0.014207844  0.013516832            3 
 3609000   0.67450205    -8.463323    615.02416  0.014201168  0.013512082            1 
 3610000   0.66880638   -8.4872466    614.21685  0.014178598  0.013507338            2 
 3611000   0.67399097   -8.4806389    614.62528  0.014184097  0.013502596            2 
 3612000   0.67581798   -8.4842459    615.41183  0.014198317  0.013497858            3 
 3613000   0.68868602   -8.4897366    614.75534  0.014179245  0.013493141            2 
 3614000   0.66552061   -8.4704251    614.63932  0.014172646  0.013488416            2 
 3615000   0.66356985   -8.4674829    616.02471  0.014200662  0.013483684            5 
 3616000   0.65247443   -8.4792951    615.17751   0.01417721  0.013478957            2 
 3617000   0.68347364   -8.4948908    615.27694  0.014175582  0.013474226            1 
 3618000    0.6806359   -8.5095029    614.70133  0.014158405  0.013469495            2 
 3619000   0.67704408   -8.4727304    613.87552  0.014135477  0.013464769            2 
 3620000   0.68050408   -8.4858872    615.01048    0.0141577  0.013460053            2 
 3621000    0.6743933   -8.4732283    614.20067  0.014135153  0.013455334            1 
 3622000   0.67982083   -8.4645244    613.98927  0.014126387  0.013450608            3 
 3623000   0.66742237   -8.4732426      616.607  0.014182698   0.01344589            1 
 3624000   0.66354272   -8.4709422    615.19645   0.01414635  0.013441175            4 
 3625000    0.6659987   -8.4641684    615.10319  0.014140303  0.013436459            2 
 3626000   0.69292888   -8.4729214    615.15438   0.01413758   0.01343175            2 
 3627000   0.64821801   -8.4817078    614.63255  0.014121693  0.013427035            2 
 3628000   0.66960409   -8.4837099    614.76915  0.014120938  0.013422329            2 
 3629000    0.6623567   -8.4668259    615.44789  0.014132633  0.013417612            5 
 3630000    0.6731444   -8.4729383    615.50244  0.014129992  0.013412912            1 
 3631000   0.67037936   -8.4719166     614.8882  0.014112003  0.013408224            1 
 3632000   0.65965137   -8.4854752    613.88325   0.01408506   0.01340353            1 
 3633000   0.67149308   -8.4586146    614.87844  0.014104011  0.013398838            3 
 3634000   0.67409219   -8.4854396    614.97164  0.014102267  0.013394159            1 
 3635000   0.68486791   -8.4758355     614.8178   0.01409486  0.013389465            1 
 3636000   0.66396769   -8.4682587    615.56987   0.01410822  0.013384776            2 
 3637000   0.65566049   -8.4789652    615.12826  0.014094223  0.013380084            2 
 3638000   0.65766316   -8.4694496    614.97764  0.014086899  0.013375404            1 
 3639000   0.67615249   -8.4567057    616.02563  0.014107026  0.013370717            2 
 3640000   0.67004949   -8.4891374    614.90478   0.01407749  0.013366036            1 
 3641000   0.67794449   -8.4872165    614.55853  0.014065699  0.013361346            2 
 3642000   0.65630789   -8.4538048    615.05261  0.014073142  0.013356667            2 
 3643000   0.67348501   -8.4674116    615.56841  0.014081078  0.013351997            3 
 3644000   0.67178366   -8.4634444     615.4626  0.014074794  0.013347313            3 
 3645000    0.6687826    -8.496093    614.24158  0.014043017  0.013342628            2 
 3646000    0.6645897   -8.4772369     614.7833  0.014051547  0.013337952            2 
 3647000   0.68328703   -8.4693888    615.52522  0.014064647  0.013333277            3 
 3648000    0.6715885   -8.4755924    615.69953  0.014064774   0.01332862            1 
 3649000   0.67022864   -8.4807366    615.34711  0.014052871  0.013323965            2 
 3650000   0.66274998   -8.4719212    615.32603  0.014048539  0.013319296            1 
 3651000   0.66086696   -8.4439938    616.81576  0.014078695  0.013314645            2 
 3652000   0.65942298   -8.4650577    614.22879  0.014015808  0.013309982            5 
 3653000   0.66571811   -8.4677483    616.35962  0.014060581  0.013305327            2 
 3654000   0.66943567   -8.4612952    615.78939  0.014043728  0.013300677            2 
 3655000   0.68140564   -8.4661282    615.10442  0.014024269  0.013296021            2 
 3656000   0.67102022   -8.4893656    614.87796  0.014015271  0.013291371            5 
 3657000   0.66042052    -8.473912    615.57028  0.014027214  0.013286716            2 
 3658000   0.67032317   -8.4955635    614.73145   0.01400427  0.013282068            5 
 3659000   0.65842807   -8.4861525    614.91415  0.014004604  0.013277412            4 
 3660000   0.66371827   -8.4754039    614.55014   0.01399249  0.013272771            2 
 3661000   0.66487524   -8.4650831    614.46742  0.013986785  0.013268137            2 
 3662000   0.67159473   -8.4575713    616.48638  0.014028909  0.013263507            2 
 3663000   0.67510234   -8.4634306    615.25932  0.013997163  0.013258883            2 
 3664000   0.67061117   -8.4791631    615.82149  0.014006129  0.013254253            2 
 3665000   0.66398176   -8.4887179    615.49459  0.013994875  0.013249634            1 
 3666000   0.65984269   -8.4807478    614.54419  0.013969453  0.013245002            3 
 3667000   0.65061664   -8.4683369    616.71965  0.014015082  0.013240378            4 
 3668000   0.68137603   -8.4675514    616.05482  0.013996156  0.013235758            3 
 3669000   0.67043227   -8.4736631    614.76013  0.013962936  0.013231132            3 
 3670000   0.66319386   -8.4803795    615.54227  0.013976891  0.013226492            5 
 3671000   0.66409932   -8.4882257    614.08303  0.013939958  0.013221856            2 
 3672000   0.68810003   -8.4828601    615.71956  0.013973302  0.013217219            3 
 3673000   0.65808444   -8.4620935    615.75302  0.013970256  0.013212584            2 
 3674000   0.68493569   -8.4964592    615.59076  0.013962774  0.013207947            3 
 3675000   0.65885922   -8.5034572    614.93893  0.013944194  0.013203307            3 
 3676000   0.66731424   -8.4965444    614.78056   0.01393681   0.01319867            4 
 3677000   0.66239609   -8.5114819    614.46196  0.013925799  0.013194023            4 
 3678000   0.66708358   -8.5075089    615.22191  0.013939231   0.01318938            2 
 3679000    0.6567876   -8.4914361    613.76403   0.01390242  0.013184738            5 
 3680000   0.64461579    -8.486519    614.06785  0.013905522    0.0131801            1 
 3681000   0.66972275   -8.4686806    614.16169  0.013903869  0.013175462            2 
 3682000   0.66554677   -8.5062008    614.66308   0.01391144  0.013170822            1 
 3683000   0.66040706    -8.506181    614.22125  0.013897666  0.013166178            2 
 3684000   0.64517531    -8.490692    614.82515  0.013907554  0.013161542            1 
 3685000   0.66845633   -8.4855691    614.78036  0.013902767  0.013156907            2 
 3686000   0.66132616   -8.4878179    614.98962  0.013903726  0.013152285            2 
 3687000   0.66028945   -8.4964062    614.43288  0.013887372  0.013147659            1 
 3688000   0.65284116    -8.482809    615.22487  0.013901502  0.013143047            1 
 3689000   0.65880431   -8.4802152    615.66467  0.013907669  0.013138438            2 
 3690000   0.65335106   -8.4705789    614.63178  0.013880573  0.013133825            2 
 3691000   0.64885152   -8.4745565    615.28265  0.013891508  0.013129222            1 
 3692000   0.65888957   -8.5142198    614.92204  0.013879605  0.013124608            1 
 3693000   0.65959379   -8.4799166    614.59079  0.013868372  0.013119997            6 
 3694000   0.66868651   -8.4942961    614.81679  0.013869716  0.013115386            2 
 3695000   0.66890367   -8.4972114    614.27167  0.013853669  0.013110778            1 
 3696000   0.66652021   -8.5072668     614.6889  0.013859328  0.013106166            2 
 3697000   0.66646157   -8.5122013    614.55145  0.013852481  0.013101552            2 
 3698000   0.66181772   -8.5015604     613.8572   0.01383309  0.013096941            4 
 3699000    0.6659463   -8.4858407    613.55814  0.013822613  0.013092343            3 
 3700000   0.66967446   -8.4808848    616.08801  0.013875856  0.013087744            1 
 3701000    0.6583559   -8.5028877     614.0327  0.013825829  0.013083145            2 
 3702000   0.65718869   -8.4892046    615.20902  0.013848573  0.013078541            5 
 3703000   0.65895172   -8.4931376    615.11232  0.013842657  0.013073933            3 
 3704000   0.65561762   -8.5090812    614.45905  0.013824223  0.013069331            3 
 3705000   0.66304687   -8.5204468    614.41656  0.013819536   0.01306472            2 
 3706000   0.65057789   -8.4820921    613.49743  0.013795139  0.013060115            3 
 3707000   0.67159774   -8.4889305    614.90681  0.013823101  0.013055515            1 
 3708000   0.67357498   -8.5239764    614.36865  0.013807278  0.013050917            1 
 3709000   0.65646631   -8.5107314    614.61661  0.013809127  0.013046322            1 
 3710000   0.66288451    -8.479721    614.89688    0.0138117  0.013041728            2 
 3711000   0.64591291   -8.5112097    614.87317  0.013807446  0.013037142            4 
 3712000   0.67459799   -8.4996676    614.17949  0.013788153  0.013032558            2 
 3713000   0.65258758   -8.5070032    615.28208  0.013809186  0.013027978            4 
 3714000   0.64592964   -8.4990115    615.01545  0.013799485    0.0130234            1 
 3715000    0.6523118   -8.4907617    614.04832  0.013774076  0.013018824            3 
 3716000   0.67150486   -8.4717149     614.6654  0.013784208   0.01301425            1 
 3717000   0.66967919   -8.5177145     614.4465  0.013775592  0.013009672            1 
 3718000    0.6517428   -8.5097586    613.54505  0.013751682  0.013005091            1 
 3719000   0.65401859   -8.5113981    614.63364  0.013772377  0.013000509            3 
 3720000   0.65799864   -8.5045054    614.71938  0.013770595  0.012995938            1 
 3721000   0.65341849   -8.4985505    614.93609  0.013771748  0.012991358            2 
 3722000   0.65859886   -8.4948637    614.36435  0.013755247  0.012986781            3 
 3723000   0.63632454     -8.51732    615.22244  0.013770759  0.012982204            1 
 3724000   0.64901424   -8.5225255     614.0881  0.013741678  0.012977621            1 
 3725000   0.66153246    -8.513542     615.8206  0.013776747  0.012973043            1 
 3726000   0.63947376   -8.5306768     613.4156  0.013719261  0.012968471            2 
 3727000   0.65677034   -8.5221972    614.18918  0.013732877  0.012963902            3 
 3728000   0.65040791   -8.5145861    614.98731  0.013747034  0.012959337            2 
 3729000   0.64869283   -8.5144382    613.49151   0.01370992  0.012954773            4 
 3730000   0.64038547   -8.5504122    614.42404  0.013727079  0.012950214            1 
 3731000   0.65730578   -8.5191918    614.14848  0.013717245  0.012945648            1 
 3732000   0.63652019   -8.5091885    613.75691  0.013704826  0.012941094            2 
 3733000    0.6655357   -8.4831978    614.29858  0.013713246  0.012936544            1 
 3734000    0.6359307   -8.5209613    614.97256  0.013724615  0.012931988            2 
 3735000   0.64521347   -8.4835931    615.45963  0.013731808  0.012927436            2 
 3736000   0.64963392   -8.5072029        613.9  0.013693344   0.01292289            1 
 3737000   0.64769951   -8.5186192    614.04671  0.013692951  0.012918342            1 
 3738000   0.68665669   -8.5171631    613.54796  0.013678169  0.012913794            1 
 3739000   0.64858811   -8.5049098    614.84069  0.013703323  0.012909249            1 
 3740000   0.65148202   -8.5071542    614.33611  0.013688416  0.012904711            1 
 3741000   0.65346771   -8.5168815    613.60592  0.013668491  0.012900177            3 
 3742000   0.64407069   -8.4983129    614.51292  0.013685037  0.012895638            2 
 3743000   0.65077068   -8.5134001    614.86122  0.013689136  0.012891098            2 
 3744000   0.65596724   -8.5128203    615.36706  0.013696738  0.012886553            2 
 3745000   0.63100888   -8.5076824    616.62031  0.013720968  0.012882016            1 
 3746000   0.64783069   -8.5024081    615.37058  0.013689504  0.012877483            3 
 3747000   0.67893762   -8.4988577    615.27654  0.013683759  0.012872941            1 
 3748000   0.65306128   -8.5280809     616.2586  0.013701943  0.012868411            2 
 3749000   0.64596346   -8.5242738    615.21397  0.013675068  0.012863872            1 
 3750000    0.6597452    -8.533548    614.39771  0.013653282  0.012859336            1 
 3751000    0.6451395   -8.5263868    612.93953  0.013617247  0.012854789            2 
 3752000   0.65441603   -8.5194073    614.52835  0.013648906  0.012850251            2 
 3753000   0.65017734   -8.5279878    613.20074  0.013615791  0.012845713            1 
 3754000   0.65245969   -8.5328331    613.66001  0.013622359   0.01284118            2 
 3755000   0.65557913   -8.5349053    613.27724  0.013610236  0.012836637            2 
 3756000   0.64622087   -8.5423602    614.04635  0.013623676  0.012832095            2 
 3757000    0.6744524   -8.5293895    613.22952  0.013601932  0.012827556            1 
 3758000   0.65245959   -8.5232887    613.72895  0.013609388  0.012823019            1 
 3759000   0.64923464   -8.5302117    613.71976  0.013605563  0.012818494            2 
 3760000   0.64584982   -8.5627513    613.84252  0.013604666  0.012813958            3 
 3761000    0.6411703   -8.5383984     614.2254  0.013609532  0.012809422            1 
 3762000   0.64747651   -8.5331276    613.46354  0.013589038   0.01280489            1 
 3763000   0.65843524   -8.5604604    614.00148   0.01359734  0.012800361            3 
 3764000   0.64679544   -8.5425486    615.12347  0.013618568  0.012795835            2 
 3765000   0.62987686    -8.536532    614.59121   0.01360317  0.012791303            1 
 3766000   0.63463897   -8.5510581    613.27335  0.013570396  0.012786784            1 
 3767000   0.65696952    -8.538164    613.05222  0.013561902  0.012782263            5 
 3768000   0.64513474   -8.5371545    614.29638  0.013585819  0.012777747            1 
 3769000   0.64487154   -8.5177602    612.18807  0.013535599  0.012773225            1 
 3770000   0.65184528   -8.5404893    613.91234  0.013570123  0.012768707            1 
 3771000   0.64854343   -8.5405298    614.47382  0.013578932  0.012764194            2 
 3772000   0.65747748   -8.5401212    614.77793   0.01358205  0.012759682            2 
 3773000   0.66067382   -8.5522755    614.00978  0.013561485  0.012755168            8 
 3774000   0.63814051   -8.5326544     614.0464    0.0135587  0.012750655            3 
 3775000   0.65055561   -8.5562735      613.339  0.013539492  0.012746145            3 
 3776000   0.65625779   -8.5468727      613.143  0.013531581  0.012741632            1 
 3777000   0.65724447   -8.5510778     614.1703  0.013550664  0.012737124            2 
 3778000   0.64215021   -8.5571596    612.97307  0.013520669  0.012732618            1 
 3779000   0.64196209   -8.5635305    613.99213  0.013539564  0.012728116            1 
 3780000   0.63849798   -8.5705346    613.88165  0.013533546  0.012723614            2 
 3781000   0.64603612   -8.5424621    613.96282  0.013531756  0.012719115            2 
 3782000   0.64633594   -8.5448855     612.9131  0.013505048  0.012714624            2 
 3783000   0.65982267   -8.5409002    614.72866  0.013541472  0.012710141            2 
 3784000   0.64775251   -8.5249139    614.38826  0.013530397   0.01270565            3 
 3785000    0.6385168   -8.5604512    613.56235  0.013508638  0.012701164            3 
 3786000   0.64670883   -8.5491997    612.75038  0.013487198  0.012696684            4 
 3787000   0.64445454   -8.5485099    613.31009  0.013495953  0.012692195            2 
 3788000   0.65431292   -8.5326652    614.57645  0.013520249  0.012687715            2 
 3789000   0.63669984   -8.5355311    613.38063  0.013490381  0.012683229            2 
 3790000   0.62634007   -8.5453594    613.77507  0.013495494  0.012678752            2 
 3791000   0.65629799   -8.5710453    613.54019  0.013486771  0.012674279            1 
 3792000   0.64961183   -8.5493138    614.49716  0.013504245    0.0126698            1 
 3793000   0.64678592   -8.5669454     614.5727  0.013502344  0.012665316            2 
 3794000   0.63950311   -8.5873833    613.80406  0.013481903  0.012660833            1 
 3795000   0.64836375    -8.538457    613.10812  0.013463068  0.012656356            2 
 3796000   0.64955355    -8.537349    613.19325   0.01346139  0.012651877            3 
 3797000   0.64976712   -8.5460608    613.50844  0.013464763  0.012647407            3 
 3798000    0.6501138   -8.5418662    613.64219  0.013464152  0.012642937            1 
 3799000   0.65131904   -8.5625565    614.10062  0.013470664  0.012638466            2 
 3800000   0.65380283    -8.558277     613.4334  0.013452487  0.012633987            1 
 3801000    0.6388632   -8.5589523    612.31066  0.013424333  0.012629509            1 
 3802000   0.64258102   -8.5598031    612.91024  0.013433943  0.012625033            2 
 3803000   0.62106445   -8.5585565    612.64797  0.013424664  0.012620566            2 
 3804000   0.65159713   -8.5450938    613.36258   0.01343679  0.012616105            2 
 3805000   0.64695935   -8.5350823    614.00209  0.013447264  0.012611646            1 
 3806000   0.63321372   -8.5350778    613.58835  0.013434672  0.012607184            4 
 3807000   0.63892426   -8.5446506    613.49379  0.013429073  0.012602725            1 
 3808000   0.64415662   -8.5634583    613.35653  0.013422543  0.012598273            5 
 3809000   0.63537789   -8.5443171    613.41924  0.013420391  0.012593819            4 
 3810000   0.64922889    -8.544745    613.68283  0.013422634  0.012589367            2 
 3811000   0.64073276     -8.56368     613.9221  0.013424344  0.012584911            4 
 3812000   0.64500838   -8.5644061     613.3347  0.013407981  0.012580466            3 
 3813000   0.64685104   -8.5484969       613.42  0.013406329  0.012576028            2 
 3814000   0.64288537   -8.5658292     613.9118   0.01341356  0.012571593            4 
 3815000   0.64707799   -8.5711239    613.54662  0.013402067  0.012567149            4 
 3816000   0.63132548   -8.5466189    612.92706  0.013385025  0.012562718            9 
 3817000   0.64234844   -8.5433106    613.14473   0.01338627  0.012558289            2 
 3818000   0.63855136   -8.5584486    614.06028  0.013402748  0.012553866            1 
 3819000   0.64623144   -8.5495791    614.03176  0.013398616  0.012549448            2 
 3820000   0.63764642   -8.5664571    614.72967  0.013410333  0.012545027            2 
 3821000   0.64543604   -8.5404736    613.81462  0.013386867  0.012540615            2 
 3822000   0.63650116   -8.5472745    613.37217  0.013373717  0.012536204            1 
 3823000   0.63763786   -8.5232468    613.96633  0.013383171  0.012531798            1 
 3824000   0.63636078   -8.5264196     613.9735  0.013379827  0.012527386            1 
 3825000   0.64436198   -8.5470057     614.1476  0.013380122  0.012522981            2 
 3826000   0.64317336   -8.5496901    613.83687  0.013369857   0.01251857            2 
 3827000   0.63532545   -8.5616274      613.777   0.01336506  0.012514158            2 
 3828000   0.63897356   -8.5357188    614.29736  0.013372896   0.01250975            3 
 3829000   0.63434631   -8.5467827    614.33322  0.013370184  0.012505344            1 
 3830000   0.63236373   -8.5292677    614.93562    0.0133798  0.012500938            2 
 3831000   0.65372436    -8.573735     613.8979  0.013353735  0.012496533            3 
 3832000   0.64163116   -8.5623482    613.74488  0.013346922  0.012492118            4 
 3833000   0.63261481   -8.5561649    613.86362  0.013346022  0.012487709            3 
 3834000   0.64284503   -8.5644887    613.38103  0.013332052  0.012483304            5 
 3835000   0.64106531   -8.5803407    612.89972  0.013318117  0.012478899            3 
 3836000   0.64437952   -8.5523712    613.68196  0.013331638  0.012474488            2 
 3837000   0.62818281   -8.5653871    613.54716  0.013325236   0.01247008            1 
 3838000   0.63675999   -8.5516443      614.332  0.013338805  0.012465685            7 
 3839000   0.64208868   -8.5546827    614.35243  0.013335774  0.012461291            4 
 3840000   0.63846601   -8.5493906    612.91864  0.013301186  0.012456892            3 
 3841000   0.64146541   -8.5421702    613.59067  0.013312303  0.012452502            3 
 3842000   0.63957169   -8.5849899    613.53599  0.013307652  0.012448117            2 
 3843000   0.62542324   -8.5707176    613.84786  0.013310952  0.012443722            2 
 3844000   0.64484757   -8.5579097    613.84262  0.013307376  0.012439331            4 
 3845000   0.63103938   -8.5549214    614.99745  0.013328943  0.012434937            1 
 3846000   0.64312794   -8.5860343    612.97412  0.013281637  0.012430549            1 
 3847000   0.63556603   -8.5411591    613.25326  0.013284231  0.012426162            1 
 3848000   0.64158648    -8.545504    613.40107   0.01328398  0.012421784            2 
 3849000   0.64609111   -8.5547152    613.40019   0.01328051  0.012417406            3 
 3850000   0.64227293   -8.5630014    613.06529  0.013269811  0.012413024            2 
 3851000   0.63568582   -8.5608044    612.96619  0.013264221   0.01240865            2 
 3852000   0.64705449   -8.5582338    612.29415  0.013246239   0.01240428            2 
 3853000   0.63886703   -8.5782226    614.17106  0.013283395  0.012399911            3 
 3854000   0.64755828   -8.5481278    614.19767  0.013280524   0.01239555            2 
 3855000   0.63341901   -8.5686451    613.10371  0.013253431  0.012391188            1 
 3856000   0.63971035   -8.5542563    614.94197  0.013289721  0.012386824            5 
 3857000   0.64797713   -8.5720799    612.45306  0.013232501  0.012382452            1 
 3858000   0.63594627   -8.5697412    613.15448  0.013244222   0.01237809            1 
 3859000    0.6477029   -8.5598175    613.05782  0.013238702  0.012373731            3 
 3860000   0.64000027   -8.5864709    613.39452  0.013242541  0.012369372            2 
 3861000   0.63033596   -8.5657267    613.90008  0.013250023  0.012365014            2 
 3862000   0.63653627   -8.5660586     614.2538  0.013254225  0.012360663            2 
 3863000   0.62912848   -8.5522472    614.07458  0.013246928  0.012356312            2 
 3864000   0.63292516   -8.5645102    614.40838  0.013250698  0.012351958            3 
 3865000   0.62323363   -8.5748123     613.6709  0.013231369  0.012347611            2 
 3866000   0.62449693   -8.5767457    613.99293  0.013234888   0.01234326            2 
 3867000    0.6303142   -8.5751601    613.89494  0.013229354  0.012338912            2 
 3868000   0.62091783   -8.5680333    613.76149  0.013223059   0.01233456            2 
 3869000   0.63220144   -8.5880554    612.57827  0.013194156  0.012330208            2 
 3870000   0.62522669   -8.5764621    612.34896  0.013185809  0.012325862            1 
 3871000   0.63057172   -8.5993344    613.80864  0.013213826   0.01232151            2 
 3872000   0.61870059   -8.5868834     613.0056   0.01319313  0.012317167            2 
 3873000   0.62098819   -8.5837666    612.78127  0.013184897  0.012312818            2 
 3874000    0.6177543   -8.5448712    614.57068  0.013219985  0.012308488            2 
 3875000   0.63115644   -8.5589149    613.26957  0.013188593  0.012304152            1 
 3876000   0.63315708   -8.5691037    612.87743  0.013176759  0.012299819            3 
 3877000    0.6176883   -8.5661259    614.14036  0.013200506  0.012295492            1 
 3878000   0.62170012   -8.5606205     613.2078  0.013177063  0.012291163            1 
 3879000   0.62565317   -8.5519457     613.6387  0.013182923  0.012286834            1 
 3880000   0.62288324   -8.5630499    612.97972  0.013165372  0.012282509            4 
 3881000   0.63871798   -8.5716902    613.22674  0.013167284  0.012278187            2 
 3882000   0.62888357   -8.5803356    613.60691  0.013172053  0.012273859            3 
 3883000   0.63204014   -8.5772151    613.83958  0.013173654  0.012269535            2 
 3884000   0.62757445   -8.5783515    612.72795  0.013146412  0.012265213            3 
 3885000   0.63368054    -8.572358    613.98097  0.013169905  0.012260886            5 
 3886000   0.61961985   -8.5841382    612.53359  0.013135477  0.012256568            3 
 3887000   0.62874869   -8.5886359    612.99351  0.013141958  0.012252244            4 
 3888000   0.63071226   -8.6035211    613.29788  0.013145102  0.012247926            2 
 3889000   0.62038421   -8.5892721    612.71147  0.013129156  0.012243602            1 
 3890000   0.61855079   -8.5888007    612.56433  0.013122629   0.01223928            4 
 3891000   0.61469674   -8.5875172    613.60103  0.013141459  0.012234966            3 
 3892000   0.61147364   -8.5916175    613.35098  0.013132729  0.012230647            3 
 3893000    0.6252804   -8.5798353    614.11493  0.013145709  0.012226331            3 
 3894000   0.63840031   -8.5842385    613.38801  0.013126776  0.012222013            3 
 3895000   0.63355185   -8.5959242    613.08899  0.013117009  0.012217702            3 
 3896000   0.63377857   -8.5742255     613.5195   0.01312285  0.012213393            2 
 3897000   0.63212112   -8.5794695    614.34498  0.013137135  0.012209086            2 
 3898000   0.62369112   -8.6004407    612.97917  0.013104566  0.012204781            6 
 3899000   0.62927592   -8.5740564    613.61924  0.013114885   0.01220047            3 
 3900000   0.63336435   -8.5764155    614.79855  0.013136721  0.012196168            2 
 3901000    0.6234688   -8.5579503    613.96816  0.013115615  0.012191872            1 
 3902000   0.62001667   -8.6104963    613.62122  0.013104844  0.012187564            4 
 3903000   0.62986875   -8.6005161    613.48241  0.013098523   0.01218325            4 
 3904000   0.62240444   -8.5954778    613.17801   0.01308867  0.012178942            1 
 3905000   0.62439473   -8.5775854    613.10742  0.013083812  0.012174637            3 
 3906000   0.62997736   -8.6092488    613.18709  0.013082162  0.012170332            4 
 3907000   0.61484024   -8.6013345    612.34325  0.013060815  0.012166023            3 
 3908000   0.63011135   -8.6077729    612.67629  0.013064575  0.012161718            2 
 3909000   0.61916708   -8.6024962    611.41993  0.013034449  0.012157422            2 
 3910000   0.62756515   -8.6157278    613.42387  0.013073825  0.012153125            3 
 3911000   0.62820201   -8.6138531    612.83931  0.013058027  0.012148837            6 
 3912000   0.62076105   -8.6136193    612.68421  0.013051385  0.012144544            3 
 3913000   0.61306316   -8.5888325    611.71668  0.013027444   0.01214025            3 
 3914000   0.64107699   -8.5828513    612.87794  0.013048841  0.012135971            3 
 3915000   0.62158213   -8.5910354    612.98053  0.013047691  0.012131687            2 
 3916000    0.6217535   -8.6044952    612.42808  0.013032603  0.012127405            4 
 3917000   0.61175553   -8.5844002    613.85931  0.013059725  0.012123127            2 
 3918000    0.6309146   -8.5756642    613.32174  0.013044958  0.012118858            2 
 3919000   0.62507746   -8.5693245     613.5914  0.013047363   0.01211459            2 
 3920000   0.62496854   -8.6010701    613.38321  0.013039609  0.012110313            4 
 3921000   0.62217552   -8.5805043    611.50363  0.012996337  0.012106036            5 
 3922000   0.62999003   -8.5944093    612.10242  0.013005746  0.012101764            4 
 3923000   0.62937588   -8.5827537    612.80124  0.013017275   0.01209749            1 
 3924000   0.62501523   -8.6201924      612.958  0.013017287  0.012093223            1 
 3925000   0.62952088   -8.6081367    612.06284  0.012994965  0.012088959            1 
 3926000   0.63115955   -8.6015644    611.77537  0.012985553  0.012084693            2 
 3927000    0.6184818   -8.5794959    612.26076  0.012992547  0.012080429            4 
 3928000   0.62863131   -8.6030758    612.68247  0.012998185  0.012076166            4 
 3929000   0.62299958   -8.5870193    612.54439  0.012991949  0.012071901            3 
 3930000   0.62218016   -8.6010539    613.33982  0.013005509  0.012067642            3 
 3931000   0.60969914   -8.5883002      613.756  0.013011023  0.012063389            1 
 3932000   0.63774977   -8.6041867    612.55877  0.012982341  0.012059136            2 
 3933000   0.62068434   -8.6024953    613.08926   0.01299028  0.012054884            2 
 3934000   0.62184839   -8.5860303    613.64983  0.012998853  0.012050635            1 
 3935000   0.63239339   -8.6117749    611.89969  0.012958486  0.012046383            1 
 3936000   0.62256925    -8.588592    612.68246  0.012971766  0.012042127            2 
 3937000   0.61787051   -8.6292617    612.41094  0.012962724  0.012037875            3 
 3938000   0.61458174   -8.6215985    612.45835  0.012960436  0.012033624            3 
 3939000   0.62667512   -8.5996301    611.61837  0.012939375  0.012029377            2 
 3940000   0.61033276   -8.6012142    612.30328  0.012950577  0.012025126            4 
 3941000   0.62034788   -8.6037913    612.57743  0.012953088  0.012020876            2 
 3942000   0.61658432   -8.6148747    611.90631  0.012935615  0.012016633            2 
 3943000   0.62329591   -8.6063116    612.70689  0.012949254  0.012012391            3 
 3944000   0.61498268   -8.6022188    613.08058  0.012953866  0.012008155            1 
 3945000   0.61579203   -8.6279454    613.00908  0.012949072  0.012003924            1 
 3946000   0.62029275   -8.6104205    612.31824  0.012931201  0.011999693            2 
 3947000   0.61711051   -8.5905042    613.47238  0.012952293  0.011995449            2 
 3948000     0.634689   -8.6056711    612.74958  0.012933755  0.011991215            3 
 3949000   0.61713869    -8.615517    612.80625  0.012931676  0.011986986            1 
 3950000    0.6064378   -8.5963428    613.51178  0.012943287   0.01198275            2 
 3951000   0.62802606   -8.6180147    612.02813  0.012908718  0.011978521            3 
 3952000   0.62211118   -8.6197506    612.53922  0.012916228    0.0119743            2 
 3953000   0.61473474   -8.6336855    613.12902  0.012925395  0.011970075            2 
 3954000   0.61230433   -8.6157258    611.92574  0.012896766  0.011965854            2 
 3955000    0.6271637   -8.6018197    612.16201  0.012898483  0.011961631            5 
 3956000   0.61953548   -8.6100624    612.51836  0.012902729  0.011957409            3 
 3957000   0.64032775   -8.5951871    612.22402   0.01289327   0.01195319            3 
 3958000   0.61256705   -8.6237643    613.43954  0.012915604   0.01194898            2 
 3959000   0.61830998   -8.6174849    613.11049  0.012905416  0.011944771            4 
 3960000   0.60575386   -8.6053659    612.61828  0.012891799   0.01194056            2 
 3961000   0.60947349   -8.6201867     613.1054  0.012898792  0.011936351            1 
 3962000   0.62866638   -8.5746694     612.5827  0.012884543   0.01193215            2 
 3963000   0.61494618    -8.601051    612.71149     0.012884  0.011927951            1 
 3964000   0.60112029   -8.6072702    613.49919  0.012897309  0.011923747            2 
 3965000   0.61474158   -8.6103054    613.31464  0.012890177  0.011919546            4 
 3966000   0.61652927   -8.6212672    612.98849  0.012880074  0.011915345            3 
 3967000   0.62006437   -8.5974743    612.03396  0.012856776  0.011911144            3 
 3968000   0.63214699   -8.6016038    613.17755  0.012877553  0.011906949            1 
 3969000   0.60910547   -8.6268505    612.20376  0.012853863  0.011902754            3 
 3970000   0.60948136   -8.5837291    612.23084  0.012851193  0.011898556            4 
 3971000    0.6113516   -8.6186917    612.88539  0.012861693  0.011894361            2 
 3972000   0.61397309   -8.6182191    613.19749  0.012865003  0.011890169            2 
 3973000   0.61781093   -8.6111118    612.25877  0.012842075  0.011885975            1 
 3974000   0.62504086   -8.5957108    613.27349  0.012860122  0.011881792            1 
 3975000   0.62306568   -8.6187448     611.2692  0.012814868  0.011877607            5 
 3976000   0.61727223   -8.6099541    611.98051  0.012826553  0.011873421            4 
 3977000   0.61359018   -8.5978643    612.01749  0.012824103  0.011869234            1 
 3978000   0.61392229   -8.6266648    611.77051  0.012815705  0.011865052            2 
 3979000   0.60633583     -8.62982    612.27668  0.012823085  0.011860867            2 
 3980000   0.62104538   -8.6282677    612.41496  0.012822759  0.011856681            1 
 3981000   0.61665531   -8.6018018    611.80476  0.012806765  0.011852503            2 
 3982000     0.624431   -8.6132431    610.90462  0.012784711  0.011848325            2 
 3983000   0.61465189   -8.6054995    612.73122  0.012819717  0.011844152            1 
 3984000   0.60860692   -8.6005105    612.55634  0.012812842   0.01183998            3 
 3985000   0.60806573    -8.613776     611.5063  0.012787668  0.011835809            2 
 3986000   0.60844457   -8.6040372    611.60751  0.012786576  0.011831636            4 
 3987000    0.6027607   -8.6080423    611.96761  0.012790896  0.011827468            3 
 3988000   0.61115962   -8.6012061    613.01955   0.01280967  0.011823303            1 
 3989000   0.62110444   -8.6147401    612.80318  0.012801938  0.011819135            4 
 3990000   0.61640733   -8.6008342    612.32744  0.012788794  0.011814975            3 
 3991000   0.60621238   -8.6003877    613.44143   0.01280885  0.011810815            2 
 3992000   0.62853981     -8.60313    614.04511  0.012818243  0.011806658            3 
 3993000   0.61697801    -8.617763    612.15531  0.012775593  0.011802495            1 
 3994000   0.61229485   -8.6119753    612.02634  0.012769703  0.011798339            2 
 3995000   0.61797668   -8.6165889    612.81047  0.012782863  0.011794185            2 
 3996000   0.60680716   -8.6046926    611.93148  0.012761334  0.011790027            3 
 3997000   0.60791682   -8.6018117    611.62828   0.01275182  0.011785869            3 
 3998000   0.61103701    -8.634018    611.39051  0.012743674  0.011781713            2 
 3999000   0.60417422    -8.609023    611.80856  0.012749199  0.011777563            2 
 4000000   0.61038966   -8.6167056    611.90116  0.012747941  0.011773412            1 
 4001000   0.61829367    -8.625544    612.39291  0.012754997  0.011769257            1 
 4002000   0.62804633   -8.6239239    612.43822  0.012752753  0.011765108            1 
 4003000   0.60670303   -8.6153749    612.88061  0.012758777  0.011760967            3 
 4004000   0.60271101   -8.6205733    612.74953  0.012752862  0.011756828            2 
 4005000    0.6065309    -8.604906    612.00303  0.012734146   0.01175269            2 
 4006000   0.61491861   -8.6139302    612.88967  0.012749411  0.011748546            2 
 4007000   0.61113314    -8.599545    612.39592   0.01273596  0.011744403            2 
 4008000   0.60734958    -8.632512    612.76495  0.012740456  0.011740263            3 
 4009000   0.61163264   -8.6153246    613.50302   0.01275262   0.01173613            1 
 4010000   0.61428214   -8.6038321    612.44156  0.012727381     0.011732            2 
 4011000   0.61524399   -8.5980142    612.10631  0.012717242  0.011727869            2 
 4012000   0.61715474   -8.5902093    613.54619   0.01274398   0.01172374            2 
 4013000   0.60905833    -8.617609    611.85615  0.012705709  0.011719611            3 
 4014000    0.6019498   -8.6204495    612.03155  0.012706186  0.011715486            2 
 4015000    0.6058246   -8.6155497    613.51406  0.012733791  0.011711361            2 
 4016000   0.59588981   -8.6442982    610.79398  0.012674178  0.011707235            1 
 4017000   0.60429311   -8.6210443    612.02102  0.012696478  0.011703115            2 
 4018000   0.60179936   -8.6275826    612.32424  0.012699607  0.011698988            2 
 4019000   0.61000638   -8.6090751    613.22601  0.012715145  0.011694871            1 
 4020000   0.61760364   -8.5957721    612.04303  0.012687459  0.011690754            1 
 4021000   0.61775854   -8.6261685     612.2159  0.012687886   0.01168664            1 
 4022000   0.59998298   -8.6207431    612.53796  0.012691405  0.011682523            4 
 4023000   0.60955802   -8.6005743    612.83548  0.012694413  0.011678404            3 
 4024000   0.61121912   -8.6362266    612.72545   0.01268898  0.011674288            1 
 4025000   0.60815485   -8.6425197      610.846  0.012646915  0.011670178            2 
 4026000   0.60813551   -8.6289224    612.03507  0.012668386  0.011666059            4 
 4027000   0.59698405   -8.6090185    612.97417  0.012684674  0.011661947            4 
 4028000   0.60776546   -8.6288439      611.498  0.012650985   0.01165784            2 
 4029000   0.60857084   -8.6162146     612.5296  0.012669182  0.011653737            3 
 4030000   0.61323876   -8.6300905    610.87477  0.012631819  0.011649628            2 
 4031000   0.60227119   -8.6312046    611.76131  0.012647013  0.011645521            3 
 4032000   0.61597342   -8.6335689    611.52553  0.012639003  0.011641409            4 
 4033000   0.60624749   -8.6479233    611.66658  0.012638784  0.011637308            2 
 4034000   0.60015425   -8.6305688    612.18245  0.012646307  0.011633212            6 
 4035000   0.60708269   -8.6365086    611.49046  0.012628882  0.011629112            2 
 4036000    0.6078504   -8.6068757    613.12061  0.012659411  0.011625013            3 
 4037000   0.61091989   -8.6456362    611.27455  0.012618168  0.011620915            3 
 4038000   0.61548318   -8.6255447    611.13546  0.012612173  0.011616817            3 
 4039000   0.62035821   -8.6424173    611.05562  0.012607403  0.011612718            2 
 4040000   0.62554415   -8.6273374     612.1358  0.012626564   0.01160863            2 
 4041000   0.60256504   -8.6365434    611.88893  0.012618348  0.011604537            2 
 4042000    0.6153803   -8.6411148    611.47732   0.01260674  0.011600449            3 
 4043000   0.59574837   -8.6346651    611.57973  0.012605733  0.011596356            4 
 4044000    0.6038473   -8.6271693    612.36961  0.012618892  0.011592269            4 
 4045000   0.60034777   -8.6468241    611.07426  0.012589087  0.011588183            2 
 4046000    0.6135836   -8.6494261    612.30799  0.012611386  0.011584097            2 
 4047000   0.61234651   -8.6497673    611.45882  0.012590784  0.011580012            3 
 4048000   0.60940248   -8.6269085    611.40753  0.012586617  0.011575935            3 
 4049000    0.5916369   -8.6370983    611.41353  0.012583632  0.011571855            4 
 4050000   0.59984009   -8.6372403    611.39894  0.012580225  0.011567775            3 
 4051000    0.6216148   -8.6318519    611.97204  0.012588909  0.011563697            5 
 4052000   0.59532471   -8.6476065    611.64693  0.012579116  0.011559623            1 
 4053000   0.61616846   -8.6222544     611.6171  0.012575399  0.011555547            2 
 4054000   0.60510264   -8.6233603    611.43481   0.01256855  0.011551477            4 
 4055000   0.59735439   -8.6245887    612.06385  0.012578377  0.011547407            5 
 4056000   0.60301725   -8.6265253    611.65645  0.012566906  0.011543335            3 
 4057000   0.60388685   -8.6338465    611.07802  0.012551927  0.011539272            4 
 4058000   0.61533821   -8.6514524    612.09655   0.01256975  0.011535204            4 
 4059000   0.59580844   -8.6544219    611.59115  0.012556277  0.011531141            3 
 4060000   0.60192416   -8.6375465    611.41474  0.012549564  0.011527077            4 
 4061000   0.59360271   -8.6554668    612.17734  0.012562122  0.011523016            3 
 4062000   0.59378211   -8.6110322    611.71436  0.012549531  0.011518954            1 
 4063000   0.60755137   -8.6604227    610.75945  0.012526857  0.011514895            4 
 4064000    0.6073429   -8.6264616    612.37281  0.012556857  0.011510835            2 
 4065000   0.60446418   -8.6385921    611.52054  0.012536296  0.011506776            5 
 4066000    0.6010921    -8.644329    612.03828  0.012543824   0.01150272            5 
 4067000   0.59347554    -8.647115    612.39375  0.012548024  0.011498671            4 
 4068000   0.59198466   -8.6315047    611.82867  0.012533363  0.011494623            3 
 4069000    0.6067266   -8.6615684    611.06539  0.012514651  0.011490576            4 
 4070000   0.59575651   -8.6282919    611.93931   0.01252947  0.011486528            2 
 4071000   0.60451883    -8.638385    611.85424  0.012524651  0.011482483            4 
 4072000   0.59102575   -8.6538491     611.7093  0.012518609  0.011478436            4 
 4073000    0.6008939   -8.6550142    610.99275  0.012500875  0.011474388            1 
 4074000   0.59223749   -8.6364616    611.33347  0.012504776  0.011470338            2 
 4075000   0.58888901   -8.6329695    611.97661  0.012514859    0.0114663            4 
 4076000   0.59695744   -8.6542124    611.52978  0.012502653  0.011462263            3 
 4077000   0.60825723   -8.6287692     612.3118  0.012515571  0.011458227            3 
 4078000   0.60325171   -8.6687372    611.51119  0.012496142  0.011454189            1 
 4079000    0.5981902   -8.6405756    611.04948  0.012483645  0.011450156            2 
 4080000   0.60212701   -8.6457211    609.12299  0.012441237  0.011446124            3 
 4081000   0.59565574   -8.6659372    611.61302  0.012489035  0.011442095            3 
 4082000   0.59326628   -8.6503471    610.50646  0.012463385  0.011438064            4 
 4083000   0.58942266   -8.6355487    611.18968  0.012474277  0.011434037            6 
 4084000   0.60781175   -8.6643866    611.57694  0.012479125  0.011430011            2 
 4085000   0.59340726   -8.6592648    611.86909  0.012482029  0.011425983            4 
 4086000   0.59557584   -8.6339033    610.71091  0.012455354  0.011421961            3 
 4087000    0.6029953   -8.6653801    611.31319  0.012464587  0.011417934            5 
 4088000   0.60255649   -8.6313341    612.21515  0.012479924  0.011413913            3 
 4089000   0.59813301   -8.6660982     610.6793  0.012445571  0.011409895            7 
 4090000   0.60446959   -8.6505161     611.8403  0.012466184  0.011405872            2 
 4091000   0.59539934   -8.6519157    610.59195  0.012437708  0.011401858            4 
 4092000   0.59571568   -8.6520552    610.76081  0.012438107  0.011397845            2 
 4093000   0.59703482    -8.672081     611.0037  0.012440014  0.011393826            4 
 4094000   0.61018667    -8.658673    611.94954  0.012456227  0.011389811            4 
 4095000   0.61087334   -8.6463453    611.30348  0.012440038  0.011385799            2 
 4096000   0.58773572   -8.6729076    612.45841  0.012460498  0.011381788            3 
 4097000   0.59834436   -8.6700234    611.08375  0.012429496  0.011377778            2 
 4098000   0.58853806   -8.6642942    610.33513   0.01241124  0.011373767            3 
 4099000   0.57407374    -8.658477    610.90587  0.012419815  0.011369756            2 
 4100000   0.58840983   -8.6482839     610.7006  0.012412614  0.011365748            2 
 4101000   0.60392853   -8.6306674    610.17981  0.012399004  0.011361743            5 
 4102000   0.59288006   -8.6664052    610.40028  0.012400461   0.01135774            4 
 4103000    0.5775978    -8.663201    610.65375  0.012402587  0.011353734            3 
 4104000   0.59999157   -8.6649534    612.14712  0.012429888  0.011349739            4 
 4105000   0.59165969   -8.6570931    611.21046  0.012407845   0.01134574            2 
 4106000   0.58640441   -8.6670402    610.97018  0.012399947  0.011341742            7 
 4107000   0.59542621   -8.6534228    609.58726  0.012368867  0.011337748            3 
 4108000   0.58551519   -8.6563222    609.72952  0.012368742  0.011333753            3 
 4109000   0.59224463   -8.6639862      610.619  0.012383771  0.011329756            2 
 4110000   0.58873888    -8.654321    611.63365  0.012401331   0.01132576            2 
 4111000   0.59752219    -8.652023     611.4272  0.012394129   0.01132177            3 
 4112000   0.60578245   -8.6608793    611.62426  0.012395109  0.011317784            3 
 4113000    0.5987619   -8.6673373    609.91424  0.012357449  0.011313795            3 
 4114000   0.59402768   -8.6594654    610.38288  0.012363938  0.011309808            1 
 4115000   0.60149652    -8.652427    610.96937   0.01237281  0.011305828            4 
 4116000   0.60240542   -8.6711086    610.43579  0.012359001   0.01130185            4 
 4117000   0.59674653   -8.6562724    611.43012  0.012376126  0.011297874            4 
 4118000    0.6004179   -8.6517747    610.94739  0.012363352  0.011293899            3 
 4119000   0.59090385   -8.6599956    611.11759  0.012363794  0.011289927            6 
 4120000   0.58819352   -8.6657956    611.80196  0.012374635  0.011285955            4 
 4121000   0.58922235   -8.6856581     610.0472  0.012336148  0.011281983            4 
 4122000   0.59456655   -8.6652581    610.92032  0.012350807  0.011278011            4 
 4123000   0.60157053   -8.6615769    611.63098  0.012362175  0.011274041            3 
 4124000   0.57599336   -8.6677617    611.49899  0.012356511   0.01127007            2 
 4125000   0.59657264   -8.6675969    610.38109  0.012330931  0.011266103            5 
 4126000   0.59392075    -8.663078    610.43616  0.012329055  0.011262139            4 
 4127000   0.58773787   -8.6648983    611.63531  0.012350281  0.011258177            4 
 4128000   0.58729955   -8.6636707    611.06104  0.012335696   0.01125421            2 
 4129000   0.58749011    -8.675345    611.85085  0.012348649  0.011250251            4 
 4130000   0.58215112    -8.659356    611.43498  0.012337267  0.011246292            2 
 4131000   0.59728559   -8.6340138     611.1228  0.012327983  0.011242338            4 
 4132000   0.58309386   -8.6646877    610.77689  0.012318024  0.011238383            2 
 4133000   0.59078112   -8.6559946    611.66256  0.012332901  0.011234427            5 
 4134000   0.58107787   -8.6527388    611.10067  0.012318591  0.011230472            1 
 4135000   0.59176799   -8.6642928    611.71221  0.012327937  0.011226519            1 
 4136000   0.59888256   -8.6877244    609.87847  0.012288009  0.011222564            4 
 4137000   0.57591852   -8.6745232    610.34284  0.012294393  0.011218613            4 
 4138000   0.58378029    -8.676911    611.05935  0.012305851  0.011214662            4 
 4139000    0.5927808   -8.6663529    610.10805  0.012283725  0.011210714            4 
 4140000   0.60153469   -8.6712321    610.25889  0.012283794  0.011206769           10 
 4141000   0.58817477   -8.6670611     611.2301  0.012300372  0.011202829            7 
 4142000   0.57974711   -8.6578888     611.3133  0.012299077  0.011198884            3 
 4143000   0.57636556   -8.6673403    611.04011  0.012290613  0.011194946            5 
 4144000    0.5826229    -8.661669    610.89884  0.012284806  0.011191005            6 
 4145000   0.58534015   -8.6733472    610.57127  0.012275257  0.011187069            3 
 4146000   0.59440646   -8.6593484    610.04633  0.012261745  0.011183132            2 
 4147000    0.5782483   -8.6762403    611.94955  0.012297033  0.011179201            3 
 4148000   0.56767399   -8.6759157     609.8485  0.012251858  0.011175262            4 
 4149000   0.58686921   -8.6583397     611.0643  0.012273325  0.011171327            3 
 4150000   0.58590589   -8.6600627    610.60696  0.012261184  0.011167401            5 
 4151000   0.58924989   -8.6403872    610.09687   0.01224799  0.011163479            4 
 4152000   0.59128045    -8.639879    611.36006  0.012270393  0.011159554            4 
 4153000   0.58275874    -8.647601    610.45449  0.012249267  0.011155631            5 
 4154000   0.59460476   -8.6496637    610.95312  0.012256322  0.011151709            1 
 4155000   0.59460825   -8.6617571    610.49658  0.012244215  0.011147792            4 
 4156000   0.57336839   -8.6840565     611.3328  0.012258037  0.011143877            5 
 4157000   0.57035753   -8.6768084    610.68785  0.012242159  0.011139964            4 
 4158000   0.58611505   -8.6567027    612.57871  0.012277111  0.011136051            7 
 4159000   0.58782298   -8.6471545    611.36275  0.012249795  0.011132138            4 
 4160000   0.58160095   -8.6471998    611.12155  0.012242018  0.011128227            3 
 4161000   0.59244476   -8.6753179    612.07847  0.012258241  0.011124322            4 
 4162000   0.58449924   -8.6641876    611.38571  0.012241425  0.011120416            5 
 4163000   0.58397781   -8.6797563    611.07014  0.012232167  0.011116511            4 
 4164000   0.59032799   -8.6626638    610.63849  0.012220591  0.011112602            3 
 4165000     0.590423   -8.6921945    610.87144  0.012222318  0.011108694            4 
 4166000   0.59624193   -8.6649383    611.12256  0.012224407  0.011104792            4 
 4167000   0.58036574   -8.6810642    612.02074  0.012239436  0.011100891            4 
 4168000   0.59369446   -8.6728025    611.62935  0.012228674  0.011096992            4 
 4169000   0.59746239   -8.6741545    610.97316  0.012212624  0.011093098            7 
 4170000   0.58475791   -8.6499424    611.35462  0.012217319  0.011089206            2 
 4171000   0.58236907   -8.6668312    611.32239  0.012213745  0.011085315            4 
 4172000   0.58700526   -8.6663007    610.12062  0.012186813  0.011081425            2 
 4173000   0.58381521   -8.6637478    611.03022  0.012202057  0.011077531            3 
 4174000   0.57407055   -8.6757356     609.9973  0.012178512  0.011073642            5 
 4175000    0.5854551   -8.6685406    609.87104  0.012173075  0.011069753            4 
 4176000   0.57533537   -8.6773903    610.17471   0.01217622  0.011065867            5 
 4177000   0.57497604   -8.6721107    610.04361  0.012170689  0.011061979            4 
 4178000   0.57844837   -8.6755477    609.74974  0.012161914  0.011058093            3 
 4179000   0.58261279   -8.6840783    610.07467  0.012165484  0.011054209            7 
 4180000   0.57261485   -8.6727497    610.66332  0.012174309  0.011050324            3 
 4181000     0.577136   -8.6783766    611.32361  0.012184557  0.011046447            5 
 4182000   0.59208066   -8.7010437     610.9667  0.012174532  0.011042564            4 
 4183000   0.58470962   -8.6845574    610.65538  0.012165419  0.011038691            5 
 4184000   0.57943141   -8.6822607    611.61622  0.012181649  0.011034816            2 
 4185000   0.58018207   -8.6833834    610.51875  0.012156885  0.011030941            1 
 4186000   0.57511548   -8.6620256    609.12799  0.012126294  0.011027069            2 
 4187000   0.58276445   -8.6918725    610.45737  0.012149856  0.011023195            3 
 4188000   0.56672625   -8.6721737    611.30201  0.012163762  0.011019329            5 
 4189000   0.57569672   -8.6784507     610.9266   0.01215339   0.01101546            2 
 4190000   0.58208784   -8.6832495    609.94389  0.012130945  0.011011593            3 
 4191000   0.57224045   -8.6767378    611.01101  0.012149268  0.011007729            1 
 4192000   0.58117345   -8.6697609    609.73819  0.012121068  0.011003865            5 
 4193000   0.58838264   -8.6557877    610.00227  0.012123425  0.011000006            3 
 4194000   0.58877198   -8.6567682    610.55668  0.012131551   0.01099615            9 
 4195000   0.57910917   -8.6718477    610.96232  0.012136717  0.010992293            2 
 4196000   0.59226687   -8.6874207    610.59352    0.0121265  0.010988433            4 
 4197000   0.57105662   -8.6715282      610.493  0.012121615  0.010984579            9 
 4198000   0.57446936   -8.6878883    611.08845  0.012130547  0.010980725            2 
 4199000   0.58960446   -8.6633083    610.59773   0.01211792  0.010976874            4 
 4200000   0.57035432   -8.6873206    609.64062  0.012096044  0.010973026           11 
 4201000   0.58621636   -8.6834191    609.09612  0.012082364  0.010969173            3 
 4202000      0.57912   -8.6915584    610.20828  0.012101545  0.010965323            5 
 4203000   0.58191768   -8.6800046    609.66173  0.012087829  0.010961472            6 
 4204000   0.58122975   -8.6695995    610.20592  0.012095741  0.010957625            8 
 4205000   0.56911406   -8.6759859    611.16317  0.012111834   0.01095378            5 
 4206000   0.58297762   -8.6879954    609.74326  0.012080822  0.010949935            7 
 4207000   0.56011776   -8.6670868    610.72626  0.012097422  0.010946093            3 
 4208000   0.58158792   -8.6757812    610.01603  0.012080482  0.010942253           10 
 4209000   0.57881502   -8.6830631    610.28859  0.012083008  0.010938414            3 
 4210000     0.574902   -8.6741666    609.84471  0.012071352  0.010934573            3 
 4211000   0.56951815   -8.6783797     610.6704  0.012084825  0.010930737            2 
 4212000   0.58105479   -8.6786426    609.93925  0.012067491  0.010926905            5 
 4213000   0.59770338   -8.6901107    609.72746  0.012060437  0.010923073            7 
 4214000   0.57239349    -8.698768    611.60216  0.012094648  0.010919244            6 
 4215000   0.57859338   -8.6807819    609.31093  0.012046479  0.010915413            5 
 4216000   0.58457383   -8.6948824    609.13992  0.012040242  0.010911586            6 
 4217000   0.55817746   -8.6866852    610.01013  0.012054583  0.010907755            2 
 4218000   0.57521261    -8.670585    610.73725  0.012066091  0.010903931            3 
 4219000   0.57535945   -8.6950982    610.12416  0.012051121  0.010900108            3 
 4220000   0.58133364    -8.686046    609.57775  0.012037475   0.01089629            4 
 4221000   0.58085561   -8.6710738    610.82434  0.012059234  0.010892475            5 
 4222000   0.56845594   -8.6859059    609.91127  0.012038356  0.010888657           11 
 4223000   0.58681087   -8.6807451    609.68666  0.012031073  0.010884842            2 
 4224000    0.5661778   -8.6821211     610.9508  0.012053164  0.010881032            2 
 4225000   0.58496392   -8.6715172    610.90288  0.012049366  0.010877225            3 
 4226000   0.57975062   -8.7071816    610.56202  0.012039794  0.010873417            6 
 4227000   0.57184811   -8.6706577    609.11892  0.012008495  0.010869614            3 
 4228000   0.56551389   -8.7076141    610.06147  0.012024233  0.010865807            4 
 4229000   0.56478503   -8.6816793    610.21649  0.012024444  0.010862003            3 
 4230000   0.57546927   -8.6729141    610.40083  0.012025233  0.010858199            3 
 4231000   0.57727697   -8.6677065     610.7143  0.012028565  0.010854401            1 
 4232000   0.58265543   -8.6862303      609.849  0.012008684  0.010850607            2 
 4233000   0.57452564   -8.6857961    610.42008   0.01201709  0.010846804            2 
 4234000   0.56630046   -8.6777441    610.27482  0.012011392  0.010843007            8 
 4235000   0.57528652   -8.6991835     609.8766   0.01200072   0.01083921            5 
 4236000   0.56645432   -8.6744777    610.69448  0.012013977  0.010835413            4 
 4237000   0.57049969   -8.6962481    609.45656  0.011986794  0.010831618            6 
 4238000   0.56973099   -8.6843707    610.46908  0.012003875  0.010827823            3 
 4239000    0.5742259   -8.7045789    610.36593  0.011999016  0.010824029            7 
 4240000   0.56526124   -8.7053383    610.80701  0.012004855  0.010820236            3 
 4241000   0.56746016   -8.7113657    609.39825  0.011974343  0.010816445            3 
 4242000   0.57493917   -8.6957729    610.21211  0.011987508  0.010812655            3 
 4243000   0.56836709    -8.706018    610.03209  0.011981147  0.010808869            4 
 4244000   0.56971178   -8.6965183    610.59624  0.011989401  0.010805083            5 
 4245000   0.56298643   -8.6995491     609.7196  0.011969368  0.010801301            4 
 4246000   0.58696399   -8.6794026    610.19084  0.011975798  0.010797524            3 
 4247000    0.5734978   -8.6975374    609.81223  0.011965549  0.010793746            5 
 4248000   0.57134255    -8.712238    609.77888  0.011962078  0.010789968            5 
 4249000   0.57787869   -8.6891734    611.19843  0.011987103  0.010786195            7 
 4250000   0.59050684   -8.6968359    610.04024  0.011961573   0.01078242            2 
 4251000   0.58568169   -8.6764713    610.32097  0.011964263  0.010778651           10 
 4252000   0.56323067   -8.6868572       610.59  0.011966721  0.010774886            9 
 4253000   0.57114834   -8.6971209    611.03173  0.011972563  0.010771116            5 
 4254000   0.57322825   -8.7121217    609.85444  0.011946686  0.010767346            5 
 4255000   0.57603687   -8.6994097    609.42519  0.011935472  0.010763577            8 
 4256000   0.57487608   -8.7046767    610.69476  0.011957526  0.010759812            4 
 4257000   0.57747528   -8.6763752     609.9161  0.011939474  0.010756051            9 
 4258000   0.57232303   -8.6817807    609.03216  0.011919371   0.01075229            7 
 4259000   0.59029278   -8.7210207    610.84355  0.011952014  0.010748528            7 
 4260000   0.57136422   -8.6825737    611.16929  0.011955581  0.010744767            4 
 4261000    0.5707736    -8.695807    608.96595  0.011909684  0.010741006            3 
 4262000   0.56919869   -8.7071298    610.09264  0.011928919  0.010737249           10 
 4263000   0.57163313   -8.7148126     609.1184  0.011907076  0.010733494            7 
 4264000   0.56079403   -8.6620137    609.14879  0.011904878   0.01072974            5 
 4265000   0.57281624   -8.7208242    609.98546  0.011918434   0.01072598            6 
 4266000    0.5690683   -8.6940321    610.12458  0.011918358  0.010722228            6 
 4267000   0.57657229   -8.7012311    609.64005  0.011906102  0.010718476            7 
 4268000   0.56904364   -8.7095184    609.03992  0.011891595  0.010714727            7 
 4269000   0.57619866   -8.7100551    609.87538  0.011905118  0.010710977            4 
 4270000   0.56659887   -8.7124451    608.81371   0.01188161  0.010707227            8 
 4271000   0.56193632   -8.7242435    609.67361  0.011895606  0.010703479            5 
 4272000   0.56964791   -8.7119542    609.26357  0.011884823  0.010699733            5 
 4273000    0.5652513   -8.7021235    609.07185  0.011878303  0.010695986            3 
 4274000   0.56666765   -8.7134078    609.33185  0.011880593  0.010692243            9 
 4275000    0.5661012   -8.7075814    609.31561  0.011877497  0.010688502            6 
 4276000    0.5690064   -8.7160244    610.16572  0.011891287  0.010684764            8 
 4277000     0.573496   -8.7004641    609.61351  0.011877747  0.010681025            3 
 4278000   0.56726254   -8.7210923    610.08765  0.011884207  0.010677286            6 
 4279000   0.56170987   -8.7245163    609.15341  0.011863235  0.010673552            3 
 4280000   0.57026433   -8.7155995     609.0775  0.011858986  0.010669815            7 
 4281000   0.56168273   -8.7118095    609.13942  0.011857421  0.010666083            3 
 4282000   0.56597833   -8.7118731    608.93579  0.011850689  0.010662351            9 
 4283000   0.56433484   -8.6908366     609.0234  0.011849627   0.01065862            5 
 4284000   0.57119424   -8.7241717    610.16574  0.011869082  0.010654891            7 
 4285000   0.56568659   -8.6924822    608.89523  0.011841603  0.010651162            3 
 4286000   0.56568806   -8.7195816    609.94405  0.011859233  0.010647441            7 
 4287000    0.5807455   -8.7240941     609.6314  0.011850389  0.010643715            5 
 4288000   0.56552485   -8.7162165     608.0969  0.011817803  0.010639993            6 
 4289000   0.56828348   -8.7061533    609.97676  0.011851573  0.010636271           10 
 4290000   0.55807985   -8.7071355    608.80106  0.011825972  0.010632552            7 
 4291000    0.5760569   -8.7052171     609.6222  0.011839163  0.010628834            3 
 4292000   0.56352943   -8.6920686    608.95496   0.01182345  0.010625116           11 
 4293000   0.57759784   -8.7307479    609.16671  0.011824806  0.010621404            8 
 4294000   0.56037918   -8.7123211    609.39957  0.011826571  0.010617692            4 
 4295000   0.55824948   -8.7243398    608.93643  0.011814832  0.010613978            7 
 4296000   0.55799477   -8.7177022    609.99705  0.011832655  0.010610268            7 
 4297000    0.5635983   -8.7218886    609.15652  0.011813601   0.01060656            4 
 4298000   0.55981804   -8.7235327    609.20572  0.011811806  0.010602851            5 
 4299000   0.53718352    -8.719681    609.75334  0.011819674  0.010599144            6 
 4300000   0.56804527   -8.7255178     608.7271  0.011797037  0.010595441            6 
 4301000   0.56899634   -8.7190418     609.2174  0.011803794  0.010591735            4 
 4302000   0.56564456   -8.7439161    608.98227  0.011796495  0.010588035            5 
 4303000   0.57201548   -8.7017735    609.57589   0.01180525  0.010584335           11 
 4304000   0.54691427   -8.7035957    609.50065   0.01180105  0.010580636            4 
 4305000   0.56763275   -8.7185739    609.15406    0.0117916   0.01057694           12 
 4306000   0.55045948   -8.7159372    610.51235  0.011815148  0.010573246            6 
 4307000   0.55776933   -8.7071073    609.43255  0.011791513  0.010569555            4 
 4308000   0.55252268   -8.7254429    609.17647  0.011783822  0.010565863            5 
 4309000   0.55523995   -8.7210979    609.28531  0.011783192  0.010562172           10 
 4310000   0.56962953   -8.7142361    608.91706  0.011773338  0.010558479            2 
 4311000   0.57336244   -8.7159571    608.80257  0.011768394  0.010554788            4 
 4312000   0.55412013   -8.7281692    608.94418  0.011768402  0.010551098            7 
 4313000   0.55895303   -8.7379027    609.54604  0.011777302   0.01054741            5 
 4314000    0.5642134   -8.7348144    608.35699  0.011751603  0.010543722            3 
 4315000   0.56734677    -8.707529    608.90815  0.011759524  0.010540042            7 
 4316000   0.55370028    -8.705363     609.4811  0.011767862  0.010536358            7 
 4317000   0.56961134   -8.7292468     609.5016  0.011765532  0.010532681            5 
 4318000   0.56123245   -8.7147154    609.50967  0.011762963  0.010529003            3 
 4319000    0.5443241   -8.7132986    608.10117  0.011733063  0.010525323            5 
 4320000   0.55412743    -8.719352    609.04433   0.01174854  0.010521653            7 
 4321000   0.56624054   -8.7327655    608.88249    0.0117427   0.01051798            2 
 4322000   0.55023649   -8.7156117    609.29008  0.011747842  0.010514312            3 
 4323000   0.54835768   -8.7273868    608.92484  0.011738084  0.010510642            7 
 4324000   0.55753059   -8.7242103    610.07137  0.011757466  0.010506972            3 
 4325000   0.56351264    -8.705511    607.95872  0.011714041  0.010503309            2 
 4326000   0.54542251   -8.7174729    610.02119  0.011751063  0.010499644            5 
 4327000    0.5500641   -8.7162773    609.56696  0.011739599  0.010495982            6 
 4328000   0.56004957   -8.7365104    608.49295  0.011716207  0.010492319            4 
 4329000   0.57346346   -8.7092238    609.62936  0.011735377  0.010488656           11 
 4330000   0.54781615   -8.7308411    609.34983  0.011727287  0.010484997            6 
 4331000   0.54696889   -8.7029854    608.82267  0.011714436  0.010481342            5 
 4332000   0.56083911   -8.7332948    609.38619  0.011722572  0.010477685            5 
 4333000    0.5601261   -8.7167074    608.89288  0.011710379   0.01047403            5 
 4334000   0.56384409   -8.7219024    608.62766  0.011702578  0.010470376            4 
 4335000   0.55677671   -8.7277762    608.32631  0.011694085  0.010466723            4 
 4336000   0.55391141    -8.750147    609.24359  0.011709017  0.010463069            3 
 4337000   0.56013992   -8.7482283    609.22378  0.011705937  0.010459414            4 
 4338000   0.56704711   -8.7230233    609.12002  0.011701245  0.010455761            3 
 4339000   0.55987388    -8.738922    608.85442  0.011693447  0.010452112            3 
 4340000   0.55186186   -8.7138395    608.70067  0.011687801  0.010448462            1 
 4341000   0.55728335   -8.7367961    608.55642  0.011682339  0.010444813            7 
 4342000    0.5419707   -8.7302637    607.66644  0.011662568  0.010441163            2 
 4343000   0.56004586    -8.736914    609.31338  0.011691484  0.010437519            4 
 4344000   0.56395728   -8.7320978    608.74032  0.011677799  0.010433875            6 
 4345000   0.55718148   -8.7319545    607.64495  0.011654103  0.010430233            5 
 4346000   0.55992827   -8.7264526    608.94924  0.011676431  0.010426592            3 
 4347000   0.55179129    -8.727822    609.40941  0.011682567   0.01042295            4 
 4348000   0.55152867   -8.7172708    609.00257  0.011672082  0.010419309            3 
 4349000   0.55711865   -8.7219801    609.54059  0.011679708   0.01041567            2 
 4350000   0.55174101   -8.7269481    608.57651  0.011658554  0.010412031            4 
 4351000   0.54943747   -8.7606248     609.6429  0.011676299  0.010408396            2 
 4352000   0.55859318   -8.7344119    609.31924  0.011667418  0.010404766            5 
 4353000   0.55554724   -8.7502997    607.83586   0.01163634  0.010401135            6 
 4354000    0.5493719   -8.7276939    609.11555   0.01165816  0.010397504            6 
 4355000   0.55294081   -8.7320306    608.57969  0.011645229  0.010393876            6 
 4356000   0.55098264   -8.7386076    609.27721    0.0116559  0.010390248            4 
 4357000   0.54999344   -8.7268349    609.45916  0.011656705  0.010386623            5 
 4358000   0.55492539   -8.7157515    608.41368  0.011634038  0.010382995            6 
 4359000   0.55600983    -8.742692    608.60728  0.011635071  0.010379372            5 
 4360000   0.55033811   -8.7394465    609.42481  0.011648028   0.01037575            3 
 4361000   0.55608689   -8.7215152    608.75631  0.011632582  0.010372129            5 
 4362000   0.54546923   -8.7300394    607.59324  0.011607696  0.010368511            3 
 4363000    0.5567341    -8.755228    609.00256  0.011631954  0.010364895            3 
 4364000   0.55579536   -8.7220265     609.4326    0.0116375  0.010361283            5 
 4365000   0.56296029   -8.7360711    608.11558   0.01160969   0.01035767            7 
 4366000   0.55358671   -8.7472573    608.26793  0.011609939  0.010354057            8 
 4367000   0.56201798   -8.7293116    607.53044  0.011593207  0.010350447            6 
 4368000   0.55805408   -8.7412729    608.01005  0.011599703  0.010346834            4 
 4369000   0.54956526   -8.7398622    608.59687  0.011608241  0.010343227            3 
 4370000    0.5430042   -8.7458325    608.55319  0.011604752  0.010339621            4 
 4371000    0.5476671   -8.7528611    609.49125  0.011619981  0.010336013            8 
 4372000   0.55901085      -8.7395    608.99915  0.011607944  0.010332411            4 
 4373000   0.54887588   -8.7364126    608.96351   0.01160461  0.010328812            3 
 4374000   0.54859327   -8.7473381     609.3255  0.011608853  0.010325211            5 
 4375000   0.55395433    -8.743593    608.37172  0.011588033  0.010321614            6 
 4376000   0.55478312    -8.719064    608.84205  0.011594341  0.010318014           11 
 4377000   0.56155319   -8.7627423    608.09452   0.01157746  0.010314419            6 
 4378000   0.54169144   -8.7274167    608.50672  0.011582662  0.010310825            6 
 4379000   0.55008603     -8.75082    607.43081  0.011559542  0.010307237            3 
 4380000   0.53890665   -8.7511494     609.3019  0.011592502  0.010303646            4 
 4381000   0.54029411   -8.7405631     608.1052  0.011567093  0.010300058            4 
 4382000   0.56194248   -8.7533897    609.02599  0.011581964  0.010296468            2 
 4383000   0.57062765   -8.7393635    608.74321  0.011573945  0.010292884            4 
 4384000   0.54902471    -8.762431    608.23607  0.011561665  0.010289301            3 
 4385000   0.56484116   -8.7233191    608.94516  0.011572504  0.010285721            9 
 4386000   0.54739605   -8.7569978    608.29291  0.011557473  0.010282141            3 
 4387000   0.55257999   -8.7475189    608.89789   0.01156633  0.010278562            6 
 4388000    0.5400896   -8.7361473    608.76986  0.011561263  0.010274978            4 
 4389000   0.55943838   -8.7568306    609.04819  0.011563913  0.010271404            4 
 4390000    0.5485631   -8.7501135    608.73319    0.0115553  0.010267825            8 
 4391000   0.54564082   -8.7597209    608.69384  0.011551921  0.010264252            3 
 4392000    0.5553402   -8.7374024    609.37647  0.011562243  0.010260676            6 
 4393000   0.55645101   -8.7606251    608.69812  0.011546743  0.010257104            6 
 4394000   0.54539219   -8.7459936    608.61664   0.01154257  0.010253536            5 
 4395000   0.54081263   -8.7633811    608.49856  0.011537705  0.010249966            5 
 4396000   0.55759018   -8.7400209    608.09045  0.011527344  0.010246398            6 
 4397000   0.55286452   -8.7422857    608.63948  0.011535128  0.010242831            7 
 4398000   0.53765937   -8.7475784    608.58999  0.011531567  0.010239265            5 
 4399000   0.55047557   -8.7415125    608.22132  0.011521962  0.010235701           10 
 4400000   0.55782117   -8.7357214    608.99814  0.011534056  0.010232136            5 
 4401000   0.55886385   -8.7504105    608.79638  0.011527615  0.010228577            8 
 4402000   0.54879885   -8.7522902     608.6233  0.011521719  0.010225015            8 
 4403000   0.54829111    -8.748161    608.64625  0.011519537  0.010221455           10 
 4404000   0.54385621   -8.7389728    607.60317  0.011497184  0.010217902            5 
 4405000   0.53668925   -8.7599317    608.92338  0.011519549  0.010214349            3 
 4406000   0.55144265   -8.7550115    608.95784  0.011517587  0.010210795            8 
 4407000    0.5369275   -8.7410739     607.6008  0.011489312  0.010207245            8 
 4408000   0.54927419   -8.7558461    606.92755  0.011473978  0.010203693            8 
 4409000   0.54187492    -8.757647    607.97806  0.011491231  0.010200143            9 
 4410000   0.54516342   -8.7513433    608.20148  0.011492847  0.010196594            7 
 4411000   0.54156617   -8.7572414    607.64503  0.011479729   0.01019305            3 
 4412000   0.55128861   -8.7494366    607.33584  0.011471287  0.010189506            8 
 4413000    0.5561179   -8.7729665    607.48674  0.011471538  0.010185961            8 
 4414000    0.5551379   -8.7543596    608.73832  0.011492568  0.010182419            9 
 4415000   0.53809249   -8.7531517    608.06478  0.011477251  0.010178876            5 
 4416000   0.54387043   -8.7707798    608.05908  0.011474545  0.010175333            5 
 4417000   0.55820124   -8.7480915    607.42398  0.011459965  0.010171791            5 
 4418000   0.54662967   -8.7437922    609.17065  0.011490317  0.010168253            6 
 4419000   0.53834845   -8.7594739    607.97284  0.011465129  0.010164717            8 
 4420000   0.54539767   -8.7727199    608.80062  0.011478141  0.010161186            5 
 4421000   0.54725476   -8.7611362    608.20479  0.011464314  0.010157655           14 
 4422000   0.55701722   -8.7682846    608.70922  0.011471228  0.010154126            8 
 4423000   0.53894973   -8.7576323    607.23377  0.011440835  0.010150596            5 
 4424000   0.55809237   -8.7618699    608.12635  0.011455062  0.010147067            8 
 4425000   0.53571763   -8.7482753    608.24759  0.011454757  0.010143542            7 
 4426000   0.54942083   -8.7580129    607.85026  0.011444688  0.010140019            4 
 4427000   0.53969195   -8.7528336    608.67556  0.011457638  0.010136499            5 
 4428000   0.54897991   -8.7752147    606.99603  0.011423442  0.010132976           10 
 4429000   0.54754423   -8.7619888    608.04034  0.011440512  0.010129456            5 
 4430000   0.55505035   -8.7531122    608.38929  0.011444494  0.010125936            4 
 4431000    0.5390136   -8.7520747    607.70824  0.011429102   0.01012242            3 
 4432000   0.54507044   -8.7601507    608.29409  0.011437539  0.010118903            4 
 4433000   0.53531831   -8.7446635    608.34473  0.011435911  0.010115392            8 
 4434000   0.54296327   -8.7529527     606.8854  0.011405905  0.010111878            5 
 4435000   0.55168502   -8.7706101    608.27369  0.011429419  0.010108368           11 
 4436000   0.54187365   -8.7722833    607.40785  0.011410577  0.010104859            6 
 4437000   0.54903575   -8.7711831    608.56864  0.011429807  0.010101353            4 
 4438000   0.54742461   -8.7698804    608.52894  0.011426486  0.010097851            7 
 4439000   0.53839091   -8.7600215    606.88017   0.01139296  0.010094345            5 
 4440000   0.53192572   -8.7546518    608.42024  0.011419299  0.010090842            7 
 4441000   0.53556065   -8.7871716     608.5636  0.011419418  0.010087342            7 
 4442000   0.54339029   -8.7551335    608.70225  0.011419448  0.010083843            9 
 4443000    0.5485179   -8.7723997    608.34739  0.011410222  0.010080347            4 
 4444000   0.53541393   -8.7623984     607.9837  0.011400835   0.01007685            3 
 4445000   0.53586524   -8.7640455    607.27642   0.01138501  0.010073353            7 
 4446000   0.54451451   -8.7681124    608.93226  0.011413485  0.010069862            7 
 4447000   0.54484408   -8.7716181    607.99306  0.011393319  0.010066373            7 
 4448000   0.53366391   -8.7571371    608.69577  0.011403923  0.010062884            7 
 4449000   0.53477745   -8.7594307    608.12799  0.011390724  0.010059398            9 
 4450000   0.53592103   -8.7548659    608.09062  0.011387465  0.010055911            6 
 4451000   0.54790899   -8.7450549    608.47445  0.011392093  0.010052428            5 
 4452000   0.53581835   -8.7583484    607.72567  0.011375518  0.010048947            6 
 4453000    0.5380799   -8.7649216    608.60163  0.011389356  0.010045464            3 
 4454000   0.53315471   -8.7768454    606.23858  0.011342587  0.010041984            6 
 4455000    0.5521837    -8.765249    608.87409   0.01138934  0.010038505            5 
 4456000   0.54106898   -8.7601601    608.20571  0.011374284  0.010035028            6 
 4457000   0.54465859    -8.750956    606.92131  0.011347717  0.010031549            8 
 4458000   0.52808302   -8.7611435    608.77421  0.011379808  0.010028075            3 
 4459000   0.53662133   -8.7471356     607.8626  0.011360219  0.010024602            3 
 4460000   0.54900912    -8.778939    608.56866  0.011370864  0.010021132            5 
 4461000   0.53575053   -8.7634379    607.24068  0.011343508   0.01001766            4 
 4462000   0.54021699   -8.7736787    607.32947  0.011342624  0.010014194            5 
 4463000   0.53565771   -8.7631422    608.34499  0.011359045  0.010010725            4 
 4464000   0.53852399   -8.7680925    608.79895  0.011364974  0.010007257            2 
 4465000   0.53443545   -8.7723716    607.86379  0.011344976  0.010003792            2 
 4466000    0.5337015   -8.7471192    607.80775   0.01134139  0.010000327            4 
 4467000    0.5413019   -8.7690734    607.69924  0.011336826 0.0099968662            3 
 4468000   0.53682013   -8.7583487    607.48863  0.011330361 0.0099934051            2 
 4469000   0.53484237   -8.7699976    607.49652  0.011327973 0.0099899447            5 
 4470000   0.54184774   -8.7603517    607.43925  0.011324371 0.0099864862            5 
 4471000    0.5444639   -8.7679107    607.32361  0.011319683 0.0099830291            3 
 4472000   0.53860169   -8.7752499    607.13718  0.011313677 0.0099795743            3 
 4473000   0.52526692   -8.7503455    608.12029  0.011329464 0.0099761205            2 
 4474000   0.51827648   -8.7694945    607.11628   0.01130823 0.0099726673            2 
 4475000   0.52851116   -8.7896462    607.70421  0.011316652 0.0099692146            3 
 4476000    0.5331407   -8.7676177    608.12096  0.011321883 0.0099657661            7 
 4477000   0.53615426   -8.7882807    607.59499  0.011309564 0.0099623228            2 
 4478000   0.54049723   -8.7681629    607.69715  0.011308939  0.009958882            2 
 4479000   0.53558427   -8.7783187    607.15445  0.011296317 0.0099554339            2 
 4480000   0.53763892   -8.7655733    608.45571  0.011318001 0.0099519965            2 
 4481000   0.53462487    -8.774789    608.20793  0.011310867 0.0099485567            5 
 4482000   0.53740447   -8.7665991    607.74647  0.011299763 0.0099451195            2 
 4483000   0.53885592   -8.7842248    609.21833  0.011324603 0.0099416849            5 
 4484000   0.53791699   -8.7659598    607.34274   0.01128722 0.0099382472            4 
 4485000   0.53488753    -8.757735    607.89893  0.011295038 0.0099348115            3 
 4486000   0.53568588   -8.7580608    607.96193   0.01129369 0.0099313765            3 
 4487000   0.53451602   -8.7627374    607.71583  0.011286603 0.0099279441            5 
 4488000   0.52985471   -8.7706646    607.51383  0.011280337  0.009924511            4 
 4489000   0.53387553   -8.7717687    607.51065  0.011277765 0.0099210809            3 
 4490000   0.53551442   -8.7773665    608.42203  0.011292168 0.0099176553            4 
 4491000   0.52772043   -8.7644025    607.83828  0.011278822 0.0099142291            3 
 4492000    0.5320876   -8.7853866    606.92673  0.011259401  0.009910806            3 
 4493000   0.53219489   -8.7663195    608.02944  0.011277347 0.0099073823            5 
 4494000   0.53678119   -8.7725018    607.71053  0.011268924 0.0099039599            5 
 4495000   0.53119618   -8.7888168    607.41146  0.011260872 0.0099005415            3 
 4496000   0.52998782    -8.771181    608.08828  0.011270913 0.0098971238            2 
 4497000   0.54275332   -8.7767008    606.02136  0.011230105 0.0098937064            2 
 4498000   0.53200197   -8.7741105    607.58898  0.011256651 0.0098902917            3 
 4499000   0.54366698   -8.7860302    607.96546  0.011261122 0.0098868782            3 
 4500000   0.54199787   -8.7718595    608.15547  0.011262138 0.0098834668            6 
 4501000   0.52053439    -8.796479    607.11239  0.011240324 0.0098800539            5 
 4502000   0.54159615   -8.7874173     605.8555  0.011214562 0.0098766459            6 
 4503000   0.51802368   -8.7683387    606.69107  0.011227535  0.009873234            2 
 4504000   0.52477621   -8.7807367    607.38146  0.011237816  0.009869826            2 
 4505000   0.53338839   -8.7803859    607.55036  0.011238445 0.0098664191            2 
 4506000   0.53970355   -8.7887236    607.41926  0.011233527 0.0098630143            3 
 4507000   0.53516925   -8.7658948    606.72375  0.011218174 0.0098596086            3 
 4508000   0.52439729   -8.7928825    606.29495  0.011207759 0.0098562068            2 
 4509000   0.52304585   -8.7758435     607.0319  0.011218894 0.0098528071            3 
 4510000   0.52065135   -8.7780361    607.76789  0.011230005 0.0098494103            2 
 4511000   0.52520317   -8.7818671    608.09924  0.011233637  0.009846014            5 
 4512000   0.53028352   -8.7831783    606.87901  0.011208611 0.0098426183            3 
 4513000   0.53618279   -8.7735489    607.91804  0.011225313 0.0098392244            8 
 4514000   0.53608139   -8.7893378    607.91825   0.01122283 0.0098358315            7 
 4515000    0.5307462   -8.7846187    606.81569  0.011199994 0.0098324381            4 
 4516000    0.5418613   -8.7857267    606.93172  0.011199655 0.0098290454            3 
 4517000   0.52864082   -8.7896018    608.15083  0.011219667 0.0098256555            3 
 4518000   0.52116672   -8.7871987    608.39418  0.011221672 0.0098222674            6 
 4519000   0.53690891   -8.7788959    606.50561  0.011184362 0.0098188781            6 
 4520000   0.54218584   -8.7981296    607.60875  0.011202226 0.0098154896            5 
 4521000   0.52548139   -8.7843033    607.91991  0.011205484  0.009812106            3 
 4522000   0.52779962   -8.7633915    607.17188  0.011189221  0.009808726            2 
 4523000    0.5292719   -8.7699753    606.96685  0.011182969 0.0098053472            2 
 4524000   0.53093756   -8.7759567    606.87215  0.011178753 0.0098019651            3 
 4525000   0.53727274    -8.774921    608.10646  0.011199014  0.009798589            3 
 4526000   0.53341336   -8.7754022    608.08063  0.011196064 0.0097952126            5 
 4527000   0.51213165   -8.7818408    606.49291  0.011164364 0.0097918332            3 
 4528000   0.54203743   -8.7809659    607.04967  0.011172145 0.0097884567            3 
 4529000   0.51068493   -8.7827724    608.43307  0.011195133 0.0097850817            2 
 4530000   0.53138413   -8.7711203    607.63483  0.011177977  0.009781713            7 
 4531000   0.52387763   -8.7849271    607.44305  0.011171983 0.0097783416            5 
 4532000   0.53138805    -8.779995    606.99187  0.011161221 0.0097749702            6 
 4533000   0.51172591   -8.7817264    606.94271  0.011157856 0.0097716012            4 
 4534000   0.53876089   -8.8021933    607.07709  0.011157864 0.0097682326            3 
 4535000   0.51804467   -8.7847536    606.63123  0.011147211 0.0097648682            3 
 4536000    0.5157832   -8.7828363    607.06685  0.011152757 0.0097615023            2 
 4537000   0.53003437   -8.7944964    607.14736  0.011151777 0.0097581389            4 
 4538000   0.53422116   -8.7886658    607.32842  0.011152645 0.0097547771            2 
 4539000    0.5239667   -8.7859687    607.05134  0.011145101 0.0097514151            4 
 4540000   0.53000608   -8.7861524    606.97375  0.011141222 0.0097480573           10 
 4541000   0.54142485   -8.7884408    607.31552   0.01114504 0.0097446978            4 
 4542000   0.52444675   -8.7917203    606.67265  0.011130791 0.0097413414            6 
 4543000   0.51747275   -8.7725318    607.14976  0.011137093 0.0097379854            2 
 4544000   0.51328436   -8.7839588    606.97741  0.011131481 0.0097346312            2 
 4545000   0.51607281   -8.7798356    607.44686  0.011137639 0.0097312802            3 
 4546000   0.51564398   -8.7769977    607.42208  0.011134735 0.0097279264            3 
 4547000    0.5221127   -8.7989022    606.40914  0.011113722 0.0097245782            4 
 4548000   0.53109589   -8.7765647    607.35375  0.011128587 0.0097212314            4 
 4549000   0.52430084   -8.7884148    607.00257  0.011119707 0.0097178871            2 
 4550000   0.52662678   -8.7832056    607.24981  0.011121791 0.0097145445            7 
 4551000   0.51078736   -8.7947324    606.32845  0.011102477 0.0097112022            4 
 4552000   0.51947089   -8.7768273    607.08939  0.011113968 0.0097078644            2 
 4553000   0.52847939   -8.7692659    608.02436   0.01112864  0.009704528            4 
 4554000    0.5101598   -8.7803344    606.97845  0.011107057 0.0097011926            5 
 4555000   0.52044189   -8.7886413    607.33289  0.011111103 0.0096978557            5 
 4556000   0.53202776   -8.7774258    607.82758  0.011117713  0.009694521           14 
 4557000   0.51987294   -8.7918352    606.92261  0.011098724 0.0096911877            3 
 4558000   0.52468383   -8.7916494    607.06377   0.01109887 0.0096878575            5 
 4559000   0.51592839   -8.7835199    607.01595  0.011095561 0.0096845277            2 
 4560000   0.51046304   -8.7710768    606.92038  0.011091381 0.0096811934            2 
 4561000   0.52752699   -8.7844571    607.69839  0.011103164 0.0096778635            3 
 4562000   0.51100013   -8.7909862    608.40058  0.011113557 0.0096745341            2 
 4563000   0.51989446   -8.7920877      606.821  0.011082274 0.0096712064            3 
 4564000   0.52621735   -8.7860348    607.67679  0.011095472 0.0096678837            3 
 4565000   0.52110469   -8.7682087    608.19484  0.011102498  0.009664563            2 
 4566000   0.52016326   -8.7858087    606.81277  0.011074842 0.0096612426            7 
 4567000   0.52208627    -8.771538    606.56395  0.011067877 0.0096579245            4 
 4568000   0.52866431   -8.8082049    607.13736  0.011075915  0.009654607            5 
 4569000   0.52284484   -8.7857459    607.10155  0.011072838 0.0096512913            3 
 4570000   0.52124359   -8.7888304    607.68441  0.011081043 0.0096479755            2 
 4571000   0.51511965   -8.7994047    607.36099  0.011072723 0.0096446592            3 
 4572000   0.52107919   -8.7798728    606.96969  0.011063169 0.0096413446            3 
 4573000   0.52465538   -8.7937951    607.08747  0.011062896 0.0096380295            4 
 4574000    0.5311577   -8.7831233    607.04939  0.011059783 0.0096347183            3 
 4575000   0.52370077   -8.8142624    605.85908  0.011035684 0.0096314074            5 
 4576000    0.5171265   -8.7915601    607.13727   0.01105655 0.0096280989            6 
 4577000   0.50755394   -8.7957235    607.37461  0.011058455  0.009624791            3 
 4578000   0.52049595    -8.805176    606.87794  0.011046999 0.0096214833            3 
 4579000   0.50616348   -8.7987823    606.56185  0.011038834 0.0096181783            2 
 4580000   0.52580097   -8.8078293    607.13875  0.011046921 0.0096148741            3 
 4581000    0.5110326   -8.7879653    607.41893  0.011049606 0.0096115711            3 
 4582000   0.51386593   -8.7974532    606.65038  0.011033217  0.009608266            3 
 4583000   0.52490978   -8.8100742    606.62832  0.011030408 0.0096049623            2 
 4584000   0.51705267    -8.786638    605.61184  0.011009523 0.0096016593            3 
 4585000   0.50764718   -8.7944881    607.25347  0.011036959 0.0095983582            2 
 4586000   0.52235169   -8.7973028    606.74778  0.011025363 0.0095950561            4 
 4587000   0.50301538   -8.7896603     607.6455  0.011039269 0.0095917597            3 
 4588000   0.52705695   -8.8019729    606.58875  0.011017668  0.009588462            5 
 4589000    0.5212763   -8.8095545    607.08384  0.011024258  0.009585168            3 
 4590000   0.51740922   -8.7970517    606.75688   0.01101592 0.0095818771            3 
 4591000   0.52246774   -8.8240766    606.55564  0.011009868  0.009578589            5 
 4592000    0.5142304   -8.7858771    606.05728  0.010998426 0.0095752989            6 
 4593000    0.5120417   -8.7992386    606.50904  0.011004228 0.0095720133            4 
 4594000   0.49638244   -8.7988463    606.96094   0.01101003 0.0095687256            3 
 4595000   0.51281559     -8.79683    606.54017  0.011000003  0.009565439            2 
 4596000    0.5075551   -8.7937517    607.26393  0.011010733 0.0095621602            3 
 4597000   0.51331288   -8.8046708    607.20908  0.011007343 0.0095588768            7 
 4598000   0.52215471   -8.8105973    605.91939  0.010981575  0.009555596            5 
 4599000   0.51115826   -8.8048083    606.01544  0.010980928 0.0095523146            6 
 4600000   0.51581139   -8.7897689    606.83027  0.010993302 0.0095490367            5 
 4601000   0.51213143   -8.8206513    606.39225  0.010982979 0.0095457567            2 
 4602000   0.50689393   -8.7886831      606.565  0.010983721 0.0095424792            7 
 4603000   0.51249628   -8.8048667    606.66875  0.010983213 0.0095392052            4 
 4604000   0.51619888   -8.8105525    606.57215  0.010979079 0.0095359298            6 
 4605000   0.52568549   -8.8012185    607.09348  0.010986129 0.0095326574            5 
 4606000   0.52072543   -8.8173345     606.1662  0.010966967 0.0095293843            5 
 4607000    0.5180482   -8.8077517    606.50238  0.010970667 0.0095261136            4 
 4608000   0.50306595    -8.816131    606.39394  0.010966326 0.0095228427            2 
 4609000   0.51162284   -8.8041325    606.40647  0.010964173  0.009519578            6 
 4610000   0.51271377   -8.8188901    605.60262  0.010947264 0.0095163134            3 
 4611000   0.51018346   -8.7986367    605.37905  0.010940849 0.0095130479            2 
 4612000   0.51511239   -8.8088609    605.74727   0.01094513 0.0095097837            6 
 4613000   0.51699102   -8.8160614    606.05834  0.010948377 0.0095065207            5 
 4614000   0.49783038   -8.8174541    606.25866  0.010949622 0.0095032605            4 
 4615000   0.50822887   -8.7974811    606.84968  0.010957921 0.0095000011            3 
 4616000   0.51764396   -8.8227213    605.52866  0.010931699 0.0094967404            4 
 4617000   0.52506736   -8.7917929    607.23946   0.01096021 0.0094934823            5 
 4618000   0.52016872     -8.81753     607.3799  0.010960371 0.0094902267            7 
 4619000   0.50278749   -8.8100285    605.43194  0.010922854   0.00948697            4 
 4620000   0.51833194   -8.8163055    606.68696  0.010943127 0.0094837169            3 
 4621000   0.52482038   -8.7979086    606.94615  0.010945433 0.0094804655            4 
 4622000   0.50913926   -8.7898168    606.70736  0.010938759 0.0094772155            5 
 4623000   0.51125689   -8.8096469     606.4611  0.010931954 0.0094739703            3 
 4624000   0.50102794   -8.8002445    606.63421   0.01093271 0.0094707242            4 
 4625000   0.51761508   -8.7857862    606.74071  0.010932265 0.0094674782            2 
 4626000    0.5168765   -8.8087314     607.2673  0.010939388 0.0094642364            5 
 4627000   0.50026821   -8.8070674    605.55284  0.010906146  0.009460995            5 
 4628000   0.51117264   -8.8088003    606.70038  0.010924452 0.0094577551            6 
 4629000    0.5072265   -8.8139086    607.69715  0.010940037 0.0094545159            3 
 4630000   0.51126877    -8.811847    606.62943  0.010918456 0.0094512803            4 
 4631000   0.50587783   -8.8188185    607.42916  0.010930489 0.0094480445            3 
 4632000   0.50673486   -8.8260293    606.46834  0.010910844 0.0094448111            3 
 4633000   0.50253797   -8.8138679    606.99641  0.010917987 0.0094415752            3 
 4634000   0.51182927   -8.8168561    606.29639  0.010903043 0.0094383435            4 
 4635000    0.5141526   -8.8080442    605.92707   0.01089405 0.0094351089            3 
 4636000   0.52214393   -8.8120851    606.83026  0.010907935 0.0094318791            5 
 4637000   0.49525985   -8.7885248    606.13664  0.010893118 0.0094286515            2 
 4638000   0.49910138   -8.8120907    606.12609  0.010890579 0.0094254229            3 
 4639000   0.50586592   -8.8014315    605.82387  0.010882803 0.0094221963            3 
 4640000   0.51361602   -8.8083514    606.20909  0.010887376 0.0094189687            3 
 4641000    0.5154848   -8.8088187    607.35671  0.010905637  0.009415745            5 
 4642000   0.50035716   -8.8221838     605.6987  0.010873523 0.0094125201            3 
 4643000   0.50476706   -8.8026807    606.89877   0.01089272 0.0094093022            2 
 4644000   0.50624849   -8.8033981    605.59435  0.010866967 0.0094060804            3 
 4645000   0.50483219   -8.8258502    606.46037  0.010880164 0.0094028634            3 
 4646000   0.50616324   -8.8209651    606.34755  0.010875799 0.0093996458            3 
 4647000   0.50349436   -8.8138951    606.35752  0.010873637  0.009396429            4 
 4648000   0.51271528   -8.8008561    606.93814  0.010881708 0.0093932148            5 
 4649000   0.49348679   -8.8137175    606.65215  0.010874241 0.0093900025            3 
 4650000    0.5105942   -8.8298263    606.86376  0.010875695 0.0093867907            8 
 4651000   0.51015699   -8.8229258    606.04063  0.010858608 0.0093835814            5 
 4652000   0.50565193   -8.8142968    606.16789  0.010858553 0.0093803696            5 
 4653000   0.50926774   -8.8139462    605.91775   0.01085174 0.0093771602            5 
 4654000   0.50594762   -8.8266313    605.70271  0.010845558 0.0093739528            2 
 4655000   0.49432945   -8.8184324    606.70611  0.010861191 0.0093707502            3 
 4656000   0.50621312   -8.8168518    606.32642  0.010852062 0.0093675462            5 
 4657000   0.51124926   -8.8168772     605.9206   0.01084247 0.0093643443            3 
 4658000   0.50056056   -8.8129664    606.46404  0.010849865 0.0093611411            2 
 4659000   0.49616171   -8.8115715    606.62901  0.010850487 0.0093579412            5 
 4660000   0.50896135   -8.8075807    605.73371  0.010832148 0.0093547422            4 
 4661000   0.50913146   -8.8193419    606.26076  0.010839247 0.0093515456            5 
 4662000   0.50152875   -8.8191443    605.85533  0.010829675  0.009348351            3 
 4663000   0.49924284   -8.8203465    606.79389  0.010844126 0.0093451542            5 
 4664000   0.50256449   -8.8114971    605.87832  0.010825442 0.0093419625            2 
 4665000     0.527621    -8.817404     606.3231  0.010831066 0.0093387724            4 
 4666000    0.4992701   -8.8206167    605.95961  0.010822253 0.0093355831            1 
 4667000   0.50303831   -8.8329432    606.82636  0.010835411 0.0093323947            3 
 4668000   0.50733476   -8.8183539    605.64855  0.010812063 0.0093292095            3 
 4669000   0.50644674   -8.8258977    605.92738  0.010814724 0.0093260261            9 
 4670000   0.50430123   -8.8274012    605.44994  0.010803889 0.0093228419            4 
 4671000   0.50573742   -8.8019825    605.94562  0.010810419 0.0093196592            4 
 4672000    0.5083265    -8.809576     606.9323  0.010825704  0.009316478            3 
 4673000   0.49771938   -8.8119887     605.6232  0.010800043 0.0093132965            5 
 4674000   0.50190078   -8.8164101    605.87702  0.010802257 0.0093101201            4 
 4675000   0.50179929    -8.813859    606.77976  0.010816039 0.0093069446            5 
 4676000   0.49628936   -8.8146881     606.5742  0.010810062  0.009303768            3 
 4677000   0.51559942   -8.8113454    606.83208  0.010812346 0.0093005957            5 
 4678000   0.50352364   -8.8242489    606.25562  0.010799765  0.009297425            5 
 4679000   0.49342564    -8.834898    605.62299   0.01078619 0.0092942517            1 
 4680000   0.50087531   -8.8171597    606.98857  0.010808201 0.0092910818            4 
 4681000   0.50002877   -8.8301269     605.3322  0.010776405  0.009287911            2 
 4682000   0.50291769   -8.8397084    605.77659  0.010782012 0.0092847438            4 
 4683000   0.50260129   -8.8277418    605.20487  0.010769537  0.009281578            3 
 4684000   0.49710611   -8.8202897    606.00901  0.010781544 0.0092784151            4 
 4685000   0.50695178   -8.8380517    606.39331  0.010786078 0.0092752544            4 
 4686000   0.49475456   -8.8104414    606.56299  0.010786794 0.0092720926            3 
 4687000   0.49714516   -8.8144843    605.78093  0.010770588 0.0092689349            5 
 4688000   0.49721218   -8.8429956    606.15489  0.010774938 0.0092657758            5 
 4689000   0.50081677   -8.8073209    606.10283  0.010771714 0.0092626179            2 
 4690000   0.49883175   -8.8359803    606.34247  0.010773676 0.0092594613            3 
 4691000   0.49989113   -8.8234567    607.10795  0.010784978 0.0092563097            7 
 4692000   0.50910647   -8.8178387    606.09982  0.010764774 0.0092531587            3 
 4693000   0.50316199   -8.8286722    606.47645  0.010769168 0.0092500065            4 
 4694000   0.50572811    -8.838332    606.04622  0.010759236  0.009246855            2 
 4695000   0.49455466   -8.8371944    606.63437  0.010767383 0.0092437064            2 
 4696000   0.48620856    -8.808861    606.56525  0.010763864 0.0092405602            4 
 4697000    0.4951923   -8.8291625    606.18466   0.01075482 0.0092374129            2 
 4698000   0.50148289   -8.8163415     605.5491  0.010741257 0.0092342664            5 
 4699000   0.48420118   -8.8277894    606.04214  0.010747715 0.0092311206            4 
 4700000   0.49035612   -8.8306855    606.38171  0.010751449 0.0092279766            2 
 4701000   0.49998303   -8.8312612    606.16458  0.010745313 0.0092248361            3 
 4702000   0.50200699   -8.7997762    605.62169  0.010733406 0.0092216966            4 
 4703000   0.48955837   -8.8208037    606.28749  0.010742921 0.0092185577            6 
 4704000   0.49756177   -8.8359188    606.21533  0.010739359 0.0092154221            4 
 4705000   0.49284133   -8.8064399    606.26295   0.01073792 0.0092122879            2 
 4706000   0.49338387   -8.8224258    605.48227  0.010721814 0.0092091519            3 
 4707000   0.50446785   -8.8351353    605.46898  0.010719301 0.0092060177            4 
 4708000   0.49316792   -8.8216788    605.55356  0.010718521  0.009202887            2 
 4709000   0.50306014   -8.8346696    606.01531  0.010724416 0.0091997589            3 
 4710000   0.48859565   -8.8239888    606.11237  0.010723857 0.0091966286            3 
 4711000   0.50418793   -8.8026424    606.19021  0.010722957 0.0091935003            5 
 4712000   0.49931049   -8.8249788    606.03324  0.010717905 0.0091903749            5 
 4713000   0.50113028   -8.8226105    605.62713  0.010708451 0.0091872498            4 
 4714000   0.49561583   -8.8156323    605.51863  0.010704261  0.009184127            2 
 4715000   0.50632157   -8.8181077    605.51937  0.010702004 0.0091810043            3 
 4716000   0.50628101   -8.8316233    605.47884  0.010699018 0.0091778807            4 
 4717000   0.49881333   -8.8271871    607.00655  0.010723739 0.0091747604            3 
 4718000   0.50066029   -8.8387577     606.3828  0.010710449 0.0091716457            2 
 4719000   0.49773862   -8.8228489    606.12991  0.010703714 0.0091685283            5 
 4720000   0.49550534   -8.8336028    605.18659  0.010684792 0.0091654131            3 
 4721000   0.49674953   -8.8349167    605.29204   0.01068439 0.0091623016            2 
 4722000   0.48549751   -8.8279552    606.06929  0.010695844 0.0091591898            6 
 4723000    0.4898308   -8.8330507    604.48716  0.010665664 0.0091560806            6 
 4724000   0.49238508   -8.8332078    605.81719  0.010686868 0.0091529707            3 
 4725000   0.50188255    -8.835882    605.79469   0.01068421  0.009149863            1 
 4726000   0.48765013   -8.8309055    605.04403  0.010668713 0.0091467545            5 
 4727000    0.4873654   -8.8507087    606.07429  0.010684618 0.0091436462            5 
 4728000   0.48979638   -8.8331587    605.82638  0.010677989 0.0091405414            4 
 4729000   0.49816593   -8.8266343    606.10262  0.010680599 0.0091374369            3 
 4730000   0.49289876   -8.8263744    605.61366  0.010669726 0.0091343336            4 
 4731000   0.49476423   -8.8199801    605.92712  0.010672992 0.0091312364            1 
 4732000   0.50046724   -8.8312063     605.2277   0.01065842 0.0091281361            4 
 4733000   0.50120985   -8.8371894    605.62015  0.010663077 0.0091250386            4 
 4734000   0.49561142   -8.8330547    605.13572  0.010652298 0.0091219421            3 
 4735000   0.48382258   -8.8413136     605.7799  0.010661385 0.0091188454            4 
 4736000   0.49661342   -8.8228952    605.37256  0.010651967 0.0091157506            3 
 4737000   0.48808104   -8.8364083    606.29759  0.010665991 0.0091126584            4 
 4738000   0.49069701   -8.8541005    605.57627  0.010651053  0.009109565            4 
 4739000   0.50343269    -8.837886    606.01771  0.010656568  0.009106474            3 
 4740000   0.49485812    -8.839132    605.20383  0.010640011 0.0091033836            5 
 4741000   0.49107601   -8.8230388    606.00877  0.010651915 0.0091002947            4 
 4742000   0.49913521   -8.8403256    606.18369  0.010652743 0.0090972105            6 
 4743000   0.49543718   -8.8179561    605.97762  0.010646877 0.0090941263            3 
 4744000   0.49056594   -8.8354969    605.14074  0.010629931 0.0090910422            6 
 4745000   0.50176788    -8.834901    605.61896   0.01063609 0.0090879579            2 
 4746000   0.48125781   -8.8448898    605.33118  0.010628796 0.0090848764            3 
 4747000   0.49407948   -8.8330989    604.90769  0.010619122 0.0090817926            1 
 4748000   0.49599803   -8.8371559    605.59899  0.010629019 0.0090787127            5 
 4749000   0.48959263   -8.8639009    605.44281   0.01062404 0.0090756342            3 
 4750000   0.49314794    -8.837302    605.43364  0.010621643 0.0090725592            2 
 4751000   0.49631936   -8.8544973    605.26757  0.010616494 0.0090694843            6 
 4752000   0.49632518   -8.8282527    605.71224  0.010622058 0.0090664102            3 
 4753000   0.48739938   -8.8471832      604.827  0.010604302 0.0090633371            5 
 4754000   0.49447523   -8.8315843     605.3758  0.010611692 0.0090602643            4 
 4755000   0.49529298   -8.8394668    605.85064  0.010617782 0.0090571946            4 
 4756000   0.48783757   -8.8396376    605.74441  0.010613688  0.009054125            8 
 4757000   0.49308465   -8.8380369     605.8197  0.010612776 0.0090510582            3 
 4758000   0.50212719   -8.8401993    605.45539  0.010604165 0.0090479955            4 
 4759000   0.49330219    -8.852683    606.09195  0.010613083 0.0090449319            2 
 4760000   0.49135057   -8.8354503    605.72826  0.010604486 0.0090418686            2 
 4761000   0.48642988   -8.8426314    605.55548  0.010599235 0.0090388029            3 
 4762000   0.49571732   -8.8373997    604.70026  0.010582043 0.0090357401            5 
 4763000   0.48933931   -8.8479571      606.043  0.010603314 0.0090326798            4 
 4764000   0.48118445   -8.8451751    605.75538  0.010596057 0.0090296208            4 
 4765000   0.49855963   -8.8471686    604.46128  0.010571201 0.0090265633            4 
 4766000   0.48634028   -8.8409847    605.30551  0.010583744 0.0090235063            4 
 4767000   0.48465611   -8.8423491    605.22553  0.010580126 0.0090204546            7 
 4768000   0.49006762   -8.8282185    605.42666  0.010581422 0.0090174039            5 
 4769000   0.49896077   -8.8460715    605.63691  0.010582877 0.0090143503            4 
 4770000   0.48788458    -8.845843    605.61589  0.010580292 0.0090112998            5 
 4771000   0.49300373   -8.8493526    605.47053  0.010575535 0.0090082525            7 
 4772000   0.48275275   -8.8514806    605.22841  0.010569091  0.009005205            5 
 4773000   0.49206454   -8.8569951    604.35302  0.010551593 0.0090021571            3 
 4774000    0.4905459   -8.8518827    605.10571  0.010562521 0.0089991129            7 
 4775000   0.50352607   -8.8388851    605.38353  0.010565158 0.0089960698            6 
 4776000   0.48878669   -8.8569745    604.88241  0.010554202 0.0089930297            4 
 4777000   0.47703511   -8.8295205    605.49054  0.010562601 0.0089899889            3 
 4778000   0.48350378   -8.8227598    605.73425  0.010564641 0.0089869511            3 
 4779000   0.48260978   -8.8460844    605.55877   0.01055937 0.0089839129            5 
 4780000   0.48788671    -8.832666    605.70753  0.010559755 0.0089808772            5 
 4781000   0.48602062   -8.8648209    605.57392  0.010555217 0.0089778423            4 
 4782000   0.48274398   -8.8360104    605.35561  0.010549205 0.0089748065            1 
 4783000   0.48585658   -8.8505889    605.50907  0.010549674 0.0089717711            4 
 4784000   0.48909919   -8.8507012    605.57756  0.010548661 0.0089687387            4 
 4785000   0.49643672   -8.8483635    605.91809  0.010552388 0.0089657076            4 
 4786000   0.48819155   -8.8642093    606.35763  0.010557836 0.0089626785            2 
 4787000   0.48438699   -8.8525511    604.69086  0.010526615 0.0089596489            2 
 4788000   0.47670166   -8.8431325      605.787  0.010543494 0.0089566204            3 
 4789000   0.48864235   -8.8533696    604.86493  0.010525248 0.0089535947            3 
 4790000   0.49042409   -8.8539777    604.35762  0.010514224  0.008950571            3 
 4791000   0.49171821   -8.8451277    605.14265  0.010525684 0.0089475462            3 
 4792000   0.49210946   -8.8383032    605.86866  0.010536113 0.0089445247            4 
 4793000   0.48309729    -8.851331    606.25042  0.010540553 0.0089415046            4 
 4794000   0.47901315   -8.8555403    605.04447  0.010517391 0.0089384855            3 
 4795000   0.48685083   -8.8441133    604.85376  0.010511883 0.0089354677            3 
 4796000   0.48725331   -8.8388148    604.95133  0.010511387 0.0089324496            3 
 4797000   0.48356231   -8.8434721    604.94021  0.010509002 0.0089294333            4 
 4798000   0.49670782   -8.8541934    605.24826  0.010512162 0.0089264197            4 
 4799000   0.47967756   -8.8491231    605.15184  0.010508298 0.0089234046            6 
 4800000   0.48720633   -8.8563441    605.43238  0.010510979 0.0089203943            6 
 4801000   0.48868813   -8.8340988    604.43527  0.010491482 0.0089173856            3 
 4802000   0.49342477   -8.8549607    604.72919  0.010494398 0.0089143755            4 
 4803000   0.48120398   -8.8375971    606.69274  0.010526281 0.0089113664            4 
 4804000   0.49398754   -8.8439955    605.33486  0.010500535 0.0089083614            5 
 4805000   0.46787673   -8.8589371    605.65851  0.010503963 0.0089053546            2 
 4806000    0.4764982   -8.8541245    605.16886  0.010493287 0.0089023523            7 
 4807000   0.47819414   -8.8464935    605.55401  0.010497781 0.0088993513            3 
 4808000   0.47845157   -8.8459548    605.86844  0.010501048 0.0088963505            6 
 4809000   0.48096849   -8.8438292    604.61621  0.010477165 0.0088933484            2 
 4810000   0.47412045   -8.8511087    604.66793  0.010475882 0.0088903496            5 
 4811000   0.48724115   -8.8542384    606.02835  0.010497269 0.0088873504            5 
 4812000   0.48671668   -8.8595232    604.76115  0.010473143 0.0088843527            4 
 4813000   0.47545525   -8.8537363    604.28829  0.010462779 0.0088813589            3 
 4814000   0.47763298   -8.8611016    606.39061  0.010496999  0.008878367            7 
 4815000   0.48441097   -8.8584043    605.32178   0.01047632  0.008875374            3 
 4816000   0.49206146   -8.8655168    604.26237  0.010455813 0.0088723838            2 
 4817000   0.47742104   -8.8539495    604.65557  0.010460445 0.0088693933            4 
 4818000   0.48204117   -8.8591057    605.46517  0.010472277 0.0088664048            5 
 4819000   0.48095553   -8.8566135    604.72066  0.010457229 0.0088634165            2 
 4820000   0.47582075   -8.8650311    604.52015  0.010451593   0.00886043            3 
 4821000   0.46871451   -8.8386217    605.42517  0.010465069 0.0088574424            3 
 4822000   0.47758068   -8.8573693    604.35879   0.01044447 0.0088544582            3 
 4823000   0.47886012   -8.8509624    605.51029    0.0104622 0.0088514729            2 
 4824000   0.48656313   -8.8530097    605.12135  0.010453312  0.008848493            2 
 4825000   0.48043121   -8.8443198    604.79361  0.010445485 0.0088455124            3 
 4826000   0.48242621   -8.8670693    605.07863  0.010448243 0.0088425332            2 
 4827000   0.48575954    -8.855397    604.88299  0.010442701 0.0088395547            4 
 4828000   0.48275103   -8.8504069    605.71356  0.010454874 0.0088365781            6 
 4829000   0.48281711   -8.8554667    604.76673  0.010436369 0.0088336028            3 
 4830000   0.47886941    -8.851992    604.81121  0.010434976 0.0088306281            7 
 4831000   0.47905926   -8.8557529    605.31317  0.010441475 0.0088276572            4 
 4832000   0.47730767   -8.8571199    604.53333  0.010425864 0.0088246865            3 
 4833000   0.47316472   -8.8531811    605.83901  0.010446221 0.0088217158            3 
 4834000   0.49558329   -8.8586417    605.85206  0.010444285  0.008818746            6 
 4835000   0.48316978   -8.8453011    604.18259   0.01041335  0.008815781            4 
 4836000   0.48142219   -8.8712199    605.72014  0.010437692  0.008812816            4 
 4837000    0.4801212   -8.8582348    604.89661  0.010421346 0.0088098521            5 
 4838000   0.47712074   -8.8735014     604.8022  0.010417566 0.0088068876            4 
 4839000   0.47704222   -8.8687932    604.42617  0.010408937 0.0088039253            5 
 4840000   0.46759912    -8.870313    605.18665   0.01041988  0.008800965            3 
 4841000   0.48135635   -8.8720765    604.49577  0.010405835 0.0087980047            8 
 4842000   0.46935711    -8.862557    604.78142  0.010408602 0.0087950464            4 
 4843000   0.47919641   -8.8723595    603.74686  0.010388651 0.0087920863            5 
 4844000   0.47652195   -8.8692089    604.64448  0.010401949 0.0087891298            5 
 4845000   0.47874933   -8.8724783    604.84406  0.010403235 0.0087861741            5 
 4846000   0.46050075   -8.8703963    605.27853  0.010408559  0.008783218            5 
 4847000   0.46705398   -8.8484127    604.82267  0.010398574 0.0087802631            3 
 4848000   0.47997148   -8.8613221    604.50399  0.010390951 0.0087773112            3 
 4849000   0.47064111   -8.8685728    605.06059  0.010398374 0.0087743631            5 
 4850000   0.48514197   -8.8667239    604.33312  0.010383731 0.0087714149            5 
 4851000   0.47242534    -8.860315    606.16614  0.010413079 0.0087684669            4 
 4852000   0.47789109   -8.8492429    605.12186  0.010392997 0.0087655203            6 
 4853000   0.48420093   -8.8540019    604.16831  0.010374482 0.0087625766            2 
 4854000   0.48307719   -8.8577192    605.17538  0.010389634 0.0087596331            5 
 4855000   0.46682829   -8.8535951    604.14427  0.010369795 0.0087566935            3 
 4856000   0.47189465   -8.8616685    605.68813  0.010394154 0.0087537537            3 
 4857000   0.47579964   -8.8707102    604.07578   0.01036435 0.0087508128            3 
 4858000   0.47673069   -8.8574193    604.84268  0.010375372 0.0087478759            2 
 4859000   0.48581653   -8.8586039    605.44951  0.010383644 0.0087449388            3 
 4860000   0.47409816   -8.8646181    604.36384  0.010362892 0.0087420036            5 
 4861000   0.47697333   -8.8690168    604.03134   0.01035506  0.008739072            3 
 4862000   0.48131107   -8.8567999    604.07586  0.010353693 0.0087361373            3 
 4863000   0.47827367   -8.8596575    604.60669   0.01036066 0.0087332067            2 
 4864000   0.47839766   -8.8762066     603.0822  0.010332412  0.008730275            2 
 4865000   0.46344771   -8.8657031    604.84125  0.010360419 0.0087273437            3 
 4866000   0.46855321   -8.8734765    604.42609   0.01035118 0.0087244131            4 
 4867000   0.47577976   -8.8655561     603.8858  0.010339802 0.0087214838            2 
 4868000   0.48240028   -8.8622763    605.14865  0.010359296 0.0087185581            9 
 4869000   0.47971138   -8.8620389    605.17615  0.010357639 0.0087156331            3 
 4870000   0.47858173    -8.877085    603.61638  0.010328822 0.0087127098            3 
 4871000   0.46538061   -8.8602237    605.34746  0.010356317 0.0087097856            4 
 4872000   0.47435653   -8.8880344    604.62714  0.010341871 0.0087068672            4 
 4873000   0.47472245   -8.8600254    605.11447  0.010348082 0.0087039471            3 
 4874000   0.47054836   -8.8604932    604.81448   0.01034083 0.0087010268            5 
 4875000   0.46807769   -8.8763196    604.84596  0.010339247 0.0086981105            6 
 4876000   0.47198748    -8.871723    605.06881  0.010340935 0.0086951937            5 
 4877000   0.47042089   -8.8763807    604.41522  0.010327647  0.008692278            1 
 4878000   0.46675377    -8.879789    605.25421  0.010339863 0.0086893643            5 
 4879000   0.46336597   -8.8790416    604.78805  0.010329782 0.0086864507            2 
 4880000    0.4681575   -8.8790546    604.76949  0.010327348  0.008683538            4 
 4881000    0.4659363   -8.8568327    604.91316  0.010327685  0.008680628            4 
 4882000   0.46652589   -8.8669164    603.59569  0.010303081 0.0086777181            4 
 4883000   0.47080895     -8.87757    604.60387  0.010318176 0.0086748106            4 
 4884000   0.46387141   -8.8773512    604.00153  0.010305786  0.008671901            5 
 4885000   0.46660161   -8.8788109    604.32376  0.010309174  0.008668993            4 
 4886000   0.48015599   -8.8869314    604.38799  0.010308159 0.0086660893            2 
 4887000   0.47111119   -8.8619787    603.31718   0.01028779 0.0086631861            2 
 4888000   0.46487094   -8.8656764    604.04372  0.010298072 0.0086602837            4 
 4889000   0.46554399   -8.8755743    603.48883  0.010286508 0.0086573835            2 
 4890000   0.46899639   -8.8709976    603.48352  0.010284314 0.0086544815            3 
 4891000   0.46136435   -8.8571141    604.18256  0.010294121 0.0086515834            5 
 4892000   0.46772558     -8.85782    604.91086  0.010304423 0.0086486892            3 
 4893000   0.46561464   -8.8761137    604.79562  0.010300355  0.008645792            2 
 4894000   0.46388151   -8.8937272    604.78338  0.010298042 0.0086428982            4 
 4895000   0.47075374   -8.8642348    604.67074   0.01029402  0.008640004            6 
 4896000   0.47774027   -8.8587031    604.12019  0.010282547 0.0086371108            1 
 4897000   0.47705416   -8.8822061    604.78713  0.010291797 0.0086342205            4 
 4898000   0.47340579   -8.8878855     604.5475  0.010285618 0.0086313284            4 
 4899000   0.47142257   -8.8774815    604.56306  0.010283783 0.0086284399            5 
 4900000   0.46174466   -8.8697594    605.96408  0.010305512 0.0086255537            5 
 4901000   0.45222373   -8.8610476    603.42645  0.010260261 0.0086226678            4 
 4902000   0.47226981   -8.8694769    604.64819  0.010278937 0.0086197833            3 
 4903000   0.46892529   -8.8810846    603.44262   0.01025635    0.0086169            2 
 4904000    0.4691566   -8.8782862     604.4761  0.010271821 0.0086140175            6 
 4905000    0.4608628   -8.8423485    603.36872  0.010250913 0.0086111388            6 
 4906000   0.45936337   -8.8876472    604.68773  0.010271228   0.00860826            2 
 4907000   0.46689785   -8.8768522    603.60296  0.010250713  0.008605383            3 
 4908000   0.47476125   -8.8834526    604.74109  0.010267948 0.0086025067            5 
 4909000   0.46464382   -8.8915479    604.55715  0.010262734 0.0085996306            3 
 4910000   0.47348305   -8.8779254    604.95617  0.010267416 0.0085967557            3 
 4911000   0.46227519   -8.8826875    604.50608  0.010257688 0.0085938827            7 
 4912000   0.46697084   -8.8782276    604.59817  0.010257162 0.0085910122            3 
 4913000   0.46824533   -8.8814177    604.09849  0.010246599  0.008588143            4 
 4914000   0.47127242   -8.8912996    604.22163  0.010246602 0.0085852719            5 
 4915000   0.47075803   -8.8722661    604.24895  0.010244981 0.0085824055            2 
 4916000   0.46421037   -8.8841959    604.55301  0.010248051 0.0085795364            4 
 4917000   0.46791968   -8.8715759    604.65768   0.01024774 0.0085766709            4 
 4918000   0.45973662   -8.8772238    604.48022   0.01024265 0.0085738055            4 
 4919000   0.46315658   -8.8720236    603.89156  0.010230595 0.0085709398            2 
 4920000   0.45555894    -8.877067     604.3601  0.010236452  0.008568081            4 
 4921000   0.45565944   -8.8574435    604.45457  0.010235971 0.0085652193            5 
 4922000   0.46317749   -8.8839352    604.23466  0.010230168 0.0085623593            4 
 4923000   0.46830642   -8.8848779    604.03551  0.010224719 0.0085594996            4 
 4924000   0.46920424    -8.879894    604.33902  0.010227779 0.0085566419            4 
 4925000   0.45541663   -8.8856719     603.8392  0.010217245 0.0085537862            7 
 4926000   0.46108801   -8.8800964    604.91698  0.010233404 0.0085509332            5 
 4927000   0.46360008     -8.87631    604.07117  0.010217021 0.0085480797            3 
 4928000   0.46985122   -8.8809718    604.00604  0.010213847 0.0085452257            5 
 4929000   0.46857132   -8.8782697    604.93981  0.010227562 0.0085423747            4 
 4930000   0.46811701   -8.8969812    604.81164  0.010223321 0.0085395246            4 
 4931000   0.46274226   -8.8792362    603.59454  0.010200678 0.0085366733            2 
 4932000   0.44933853   -8.8874282    604.68471   0.01021703  0.008533825            4 
 4933000   0.46375071   -8.8742668    604.46272  0.010211209 0.0085309777            8 
 4934000     0.452967   -8.8877238    604.74504  0.010213908 0.0085281312            4 
 4935000     0.475585   -8.9074477    603.75312  0.010195088 0.0085252852            6 
 4936000   0.46729049   -8.8909462    604.47092  0.010205141 0.0085224418            5 
 4937000   0.45878829   -8.8995823     603.9666  0.010194562 0.0085196003            5 
 4938000   0.46219842   -8.8824486    603.32355  0.010181645 0.0085167571            5 
 4939000   0.46282011   -8.8844579    604.37648  0.010197349  0.008513918            3 
 4940000   0.46578223   -8.8703423    604.02243  0.010189312 0.0085110791            6 
 4941000   0.45597214   -8.8758867    604.02879  0.010187357 0.0085082428            5 
 4942000   0.45980276   -8.8895578     604.3063  0.010189975 0.0085054066            2 
 4943000   0.46549463    -8.886621    604.28893  0.010187621 0.0085025702            3 
 4944000   0.46196879   -8.8793606    604.19186  0.010183924  0.008499736            3 
 4945000   0.46882466   -8.8853136    604.10548  0.010180409  0.008496903            5 
 4946000   0.45158694   -8.8850193    603.36168  0.010165819 0.0084940737            3 
 4947000   0.45289762   -8.8745826    604.76985  0.010187485 0.0084912448            4 
 4948000   0.45147659   -8.8872588    604.48511   0.01018063 0.0084884152            4 
 4949000   0.45630233   -8.8956481    603.37796  0.010159931 0.0084855874            4 
 4950000   0.46202838   -8.8924936    604.36235   0.01017445 0.0084827628            2 
 4951000   0.46127491   -8.8777482    604.40319  0.010173083 0.0084799387            3 
 4952000   0.45646542   -8.8816685    604.85699  0.010178665  0.008477116            5 
 4953000   0.46132073   -8.8873812    603.57446  0.010155032 0.0084742945            4 
 4954000   0.46889572   -8.8958838    604.37812    0.0101665 0.0084714743            3 
 4955000   0.45714815   -8.8907854    604.00491  0.010158172 0.0084686542            4 
 4956000   0.45673408   -8.8899406    604.01718  0.010156329 0.0084658339            8 
 4957000   0.46698276    -8.893738    603.56393   0.01014666 0.0084630154            4 
 4958000   0.46087278    -8.888407    603.12026  0.010137156 0.0084601982            3 
 4959000   0.45775512   -8.9023775    603.76141  0.010145886 0.0084573804            4 
 4960000   0.45709078   -8.8896683    604.27941  0.010152544 0.0084545694            3 
 4961000   0.46142993   -8.9042532    603.29526  0.010133966 0.0084517542            6 
 4962000   0.45763634   -8.8938659    603.98232  0.010143462 0.0084489413            4 
 4963000   0.46500411   -8.8928388    604.63038    0.0101523 0.0084461314            4 
 4964000   0.45657034   -8.8842008    603.76626  0.010135748 0.0084433221            2 
 4965000   0.45813087   -8.8889245    603.97619   0.01013723 0.0084405159            3 
 4966000   0.46532018   -8.9050252     604.0588  0.010136575 0.0084377078            3 
 4967000   0.45941235   -8.8902942    603.53916  0.010125816 0.0084349049            3 
 4968000   0.45215969   -8.8999804    604.19027    0.0101347 0.0084321014            5 
 4969000   0.46035663     -8.89502    603.75044  0.010125284 0.0084292982            3 
 4970000   0.46239109   -8.9111122    603.49963  0.010119041 0.0084264958            3 
 4971000   0.45259879   -8.8956191     603.7877  0.010121835 0.0084236964            3 
 4972000   0.46019481   -8.8928803    603.91242   0.01012189 0.0084208959            6 
 4973000   0.45800496   -8.8770162    604.35339  0.010127244 0.0084181005            3 
 4974000   0.45698354   -8.8806035    604.03233  0.010119829  0.008415302            2 
 4975000    0.4604189   -8.8952927    604.29206  0.010122145 0.0084125063            2 
 4976000   0.46004886   -8.8757184    603.35108  0.010104352 0.0084097086            2 
 4977000   0.45283056   -8.9000518    603.49169  0.010104676 0.0084069138            2 
 4978000   0.45104719    -8.901903    603.71421  0.010106372 0.0084041209            4 
 4979000   0.45961785   -8.8973453    603.08711  0.010093846 0.0084013286            3 
 4980000   0.45585154   -8.8969969    604.40176  0.010113818 0.0083985374            2 
 4981000   0.45874374   -8.8938225    603.49992    0.0100967  0.008395748            3 
 4982000   0.45215621   -8.8957858    603.42852  0.010093479 0.0083929597            3 
 4983000   0.45395387   -8.8824789    603.77395   0.01009723 0.0083901741            6 
 4984000   0.45262921   -8.8856732    604.27076  0.010103511 0.0083873861            4 
 4985000   0.46099408   -8.8961917    603.20128  0.010083605 0.0083846014            4 
 4986000   0.45675623   -8.8891139    603.33943  0.010083892 0.0083818205            7 
 4987000   0.46128626   -8.8813633    602.76633  0.010072293 0.0083790385            5 
 4988000    0.4636526   -8.9037296    603.41703  0.010081145 0.0083762546            4 
 4989000   0.44954187   -8.9011077     603.4259  0.010079273 0.0083734736            3 
 4990000   0.45349711    -8.907518     603.8987  0.010085149 0.0083706951            4 
 4991000   0.45715487   -8.9034639    604.25581  0.010089091 0.0083679175            2 
 4992000   0.45485653   -8.9014155    603.58722  0.010075908   0.00836514            2 
 4993000   0.44817701   -8.9004171    603.31473  0.010069343 0.0083623671            7 
 4994000   0.45707886   -8.9029455    603.43604   0.01006935 0.0083595958            1 
 4995000   0.45757708   -8.8986882    603.61334  0.010070293 0.0083568256            3 
 4996000   0.46199784   -8.8946328    603.65436  0.010068961 0.0083540545            4 
 4997000   0.45209743   -8.8854126    604.66225  0.010083754 0.0083512853            5 
 4998000   0.45342066   -8.8959002    603.47966  0.010062019  0.008348515            2 
 4999000   0.45015673   -8.8828287    603.13763  0.010054305 0.0083457472            4 
 5000000   0.45559984   -8.8918821    603.61235  0.010060206 0.0083429799            6 
 5001000   0.45610454   -8.8979983    604.14616  0.010067089  0.008340214            3 
 5002000   0.45145102   -8.9053098    603.82893  0.010059792 0.0083374492            4 
 5003000   0.43792828   -8.8998123    603.86556  0.010058391 0.0083346851            3 
 5004000   0.44966808   -8.9064154    603.17578  0.010044894 0.0083319213            3 
 5005000   0.44724434   -8.8973866    603.61591  0.010050215 0.0083291615            4 
 5006000   0.44367458     -8.89499    603.67259  0.010049151 0.0083264021            4 
 5007000   0.45009414   -8.8929125    604.10105  0.010054275 0.0083236422            2 
 5008000   0.44057291    -8.907221    603.94617   0.01004969 0.0083208835            5 
 5009000   0.44615896   -8.9004597    603.74557  0.010044346 0.0083181268            4 
 5010000   0.45378595   -8.9101534    603.32466   0.01003534 0.0083153687            3 
 5011000   0.44423444   -8.8987106    603.28527  0.010032683 0.0083126139            1 
 5012000   0.45896619   -8.8993398    603.57368  0.010035476 0.0083098592            4 
Loop time of 12149 on 48 procs for 5000000 steps with 4000 atoms

Performance: 71116.870 tau/day, 411.556 timesteps/s
99.4% CPU use with 48 MPI tasks x no OpenMP threads

MPI task timing breakdown:
Section |  min time  |  avg time  |  max time  |%varavg| %total
---------------------------------------------------------------
Pair    | 817.46     | 868.82     | 932.75     | 100.9 |  7.15
Neigh   | 80.599     | 83.319     | 86.182     |  17.2 |  0.69
Comm    | 780.37     | 841.44     | 896.06     | 107.3 |  6.93
Output  | 13.889     | 13.895     | 13.978     |   0.3 |  0.11
Modify  | 10208      | 10233      | 10260      |  12.4 | 84.23
Other   |            | 108.7      |            |       |  0.89

Nlocal:        83.3333 ave          90 max          76 min
Histogram: 3 1 7 2 5 12 5 8 1 4
Nghost:        2138.06 ave        2165 max        2110 min
Histogram: 2 1 6 4 9 8 10 3 4 1
Neighs:        14100.4 ave       16067 max       12631 min
Histogram: 4 1 9 9 8 6 6 4 0 1
FullNghs:      28202.6 ave       30529 max       25829 min
Histogram: 4 3 4 4 6 10 5 7 1 4

Total # of neighbors = 1353727
Ave neighs/atom = 338.43175
Neighbor list builds = 267259
Dangerous builds = 0

#clear
#
#next RN
#
#jump SELF
Total wall time: 3:22:32
