
units lj                  # Use reduced LJ style units
atom_style atomic         # Uncharged point particles
atom_modify map hash      # Needed for indexing of clusters etc
                          # Used to be able to find where atoms are in relation to each other.

lattice fcc 1.0 spacing 1 1 1
Lattice spacing in x,y,z = 1.5874011 1.5874011 1.5874011
region box block 0 10 0 10 0 10 units lattice
create_box 2 box
Created orthogonal box = (0.0000000 0.0000000 0.0000000) to (15.874011 15.874011 15.874011)
  3 by 4 by 4 MPI processor grid
create_atoms 1 box
Created 4000 atoms
  using lattice units in orthogonal box = (0.0000000 0.0000000 0.0000000) to (15.874011 15.874011 15.874011)
  create_atoms CPU = 0.003 seconds
set type 1 type/fraction 2 0.48 78393
Setting atom values ...
  1918 settings made for type/fraction
mass 1 1.0
mass 2 1.0
pair_style lj/cut  3.5
pair_modify tail  yes
pair_coeff 1  1  1.0  1.0   # Intearaction between 1 and 1 set with epsilon = 1 and sigma = 1
pair_coeff 1  2  1.5  0.8
pair_coeff 2  2  0.5  0.88

write_data data.0
System init for write_data ...
Neighbor list info ...
  update every 1 steps, delay 10 steps, check yes
  max neighbors/atom: 2000, page size: 100000
  master list distance cutoff = 3.8
  ghost atom cutoff = 3.8
  binsize = 1.9, bins = 9 9 9
  1 neighbor lists, perpetual/occasional/extra = 1 0 0
  (1) pair lj/cut, perpetual
      attributes: half, newton on
      pair build: half/bin/atomonly/newton
      stencil: half/bin/3d
      bin: standard
WARNING: Not all mixed pair coeffs generated from mixing. Use write_data with 'pair ij' option to store all pair coeffs. (../write_data.cpp:312)


#############################
#   M E L T   S Y S T E M   #
#############################

velocity all create 2.4 6583654 mom yes dist gaussian # Assign velocities
                                                    # Temperature 2.4, random number seed, zero linear momentum
                                                                                # Gaussian distribution

timestep 0.002   # simulation timestep
thermo 1000       # output thermodynamic data every 1000 steps bf 100

# Define a fix  in this case with index 1 applied to all
# particles in the simulation. This fix is for simulations
# in the anisotropic NPT ensemble. Note that we use the MTK
# correction.
fix 1 all npt temp 2.4 2.4 0.1 iso 5.68 5.68 0.5 mtk yes tchain 5 pchain 5 # Use NPT ensemble
                                                                         # Set temperature and pressure and damping
                                                                         # Numbers of thermostats in chain and in barostat
run 10000          # run for 10000 steps
Per MPI rank memory allocation (min/avg/max) = 3.642 | 3.644 | 3.648 Mbytes
Step Temp E_pair E_mol TotEng Press Volume 
       0          2.4   -5.4168687            0   -1.8177687   -4.2006027         4000 
    1000    2.4282817     -4.88522            0    -1.243708    5.8234193    3745.1102 
    2000     2.439596   -4.9425032            0    -1.284024    5.8783068    3720.9228 
    3000    2.3404869   -4.9265304            0   -1.4166776    5.3829979    3757.3482 
    4000    2.4359389   -4.9560603            0   -1.3030654    5.8534543    3717.6377 
    5000    2.4099679   -4.9540223            0   -1.3399741    5.5546092    3737.7883 
    6000    2.4167343   -4.9538499            0   -1.3296548    5.6434894    3730.9849 
    7000    2.4300079   -4.8887831            0   -1.2446825    5.8840471    3746.7717 
    8000    2.4003871   -4.9060698            0   -1.3063893    5.6865439    3734.6746 
    9000    2.4234947   -4.9450883            0    -1.310755    5.6135553    3736.7763 
   10000    2.4120927   -4.9258122            0   -1.3085777    5.2963719    3765.0132 
Loop time of 2.6046 on 48 procs for 10000 steps with 4000 atoms

Performance: 663440.690 tau/day, 3839.356 timesteps/s
99.6% CPU use with 48 MPI tasks x no OpenMP threads

MPI task timing breakdown:
Section |  min time  |  avg time  |  max time  |%varavg| %total
---------------------------------------------------------------
Pair    | 1.1603     | 1.236      | 1.357      |   3.6 | 47.45
Neigh   | 0.21273    | 0.22023    | 0.23542    |   1.0 |  8.46
Comm    | 0.7748     | 0.88762    | 0.96657    |   4.5 | 34.08
Output  | 0.00024495 | 0.0002512  | 0.00031562 |   0.0 |  0.01
Modify  | 0.21071    | 0.24476    | 0.29085    |   5.0 |  9.40
Other   |            | 0.0158     |            |       |  0.61

Nlocal:        83.3333 ave          92 max          74 min
Histogram: 1 4 5 8 4 9 4 5 5 3
Nghost:        1708.21 ave        1732 max        1688 min
Histogram: 2 4 4 10 10 9 2 0 5 2
Neighs:        10133.1 ave       11411 max        8844 min
Histogram: 2 5 6 6 6 5 6 4 3 5

Total # of neighbors = 486389
Ave neighs/atom = 121.59725
Neighbor list builds = 901
Dangerous builds = 202

# Equilibrate just above the melting temperature to avoid step fn in T

fix 1 all npt temp 1.25 1.25 0.1 iso 5.68 5.68 0.5 mtk yes tchain 5 pchain 5
run 2000
Per MPI rank memory allocation (min/avg/max) = 3.644 | 3.646 | 3.649 Mbytes
Step Temp E_pair E_mol TotEng Press Volume 
   10000    2.4120927   -4.9258122            0   -1.3085777    5.2963719    3765.0132 
   11000    1.2681376   -7.0478831            0   -5.1461522     5.434443     2925.205 
   12000    1.2580236   -7.1407629            0   -5.2541992    5.7548928     2890.189 
Loop time of 0.636903 on 48 procs for 2000 steps with 4000 atoms

Performance: 542625.879 tau/day, 3140.196 timesteps/s
99.7% CPU use with 48 MPI tasks x no OpenMP threads

MPI task timing breakdown:
Section |  min time  |  avg time  |  max time  |%varavg| %total
---------------------------------------------------------------
Pair    | 0.28773    | 0.31201    | 0.34996    |   2.1 | 48.99
Neigh   | 0.040039   | 0.042324   | 0.048108   |   0.7 |  6.65
Comm    | 0.19375    | 0.23231    | 0.26269    |   2.8 | 36.47
Output  | 5.1759e-05 | 5.3041e-05 | 6.7785e-05 |   0.0 |  0.01
Modify  | 0.040137   | 0.045242   | 0.049391   |   1.4 |  7.10
Other   |            | 0.004966   |            |       |  0.78

Nlocal:        83.3333 ave          93 max          74 min
Histogram: 1 0 3 13 12 5 10 2 1 1
Nghost:        2042.10 ave        2064 max        2018 min
Histogram: 3 2 4 4 9 9 6 3 3 5
Neighs:        13202.2 ave       14437 max       11890 min
Histogram: 2 4 6 3 9 4 6 8 3 3

Total # of neighbors = 633707
Ave neighs/atom = 158.42675
Neighbor list builds = 141
Dangerous builds = 8

#############################
# L I N E A R  Q U E N C H  #
#############################

# Define solid atoms. This closely follows ten Wolde  Ruiz-Montero and Frenkel  Faraday Discuss  1996  104  93-110
# Compute components of the per-atom q6 vector
compute q6 all orientorder/atom degrees 1 6 components 6 nnn NULL cutoff 1.3 # compute the Q6 parameter.
                                                                             # Use all neighbours within 1.3 unit cell.

# get number of connections
compute coord_number all coord/atom orientorder q6 0.5

# An atom is solid if it has 8 or more connections (of a possible 14)
variable is_solid atom c_coord_number>=8
group solid dynamic all var is_solid    # Must be dynamic to update
dynamic group solid defined

# do clustering
compute cluster solid cluster/atom 1.3 # Create a cluster where all atoms within are solid and max 1.3 units from another member

# define chunks one chunk per cluster
compute clus_chunks solid chunk/atom c_cluster nchunk every compress yes  # Says which atoms are in which chunk

# count the size of each chunk
compute size_chunks solid property/chunk clus_chunks count


# Find the maximum entry in the vector of chunk sizes
variable max_n equal max(c_size_chunks)


# Thermo style which includes this variable
# thermo_style custom step temp pe vol v_max_n

thermo ${N}  # Print the thermo information every 100 steps
thermo 1000  

# Reset the npt fix at a lower temperature (below freezing)
fix 1  all npt temp  ${temp} ${temp}  0.1  iso  5.68  5.68  0.5  mtk yes tchain  5  pchain  5
fix 1  all npt temp  0.45 ${temp}  0.1  iso  5.68  5.68  0.5  mtk yes tchain  5  pchain  5
fix 1  all npt temp  0.45 0.45  0.1  iso  5.68  5.68  0.5  mtk yes tchain  5  pchain  5

dump dmp2 all dcd ${N} traj.dcd
dump dmp2 all dcd 1000 traj.dcd


compute msd all msd com yes
variable twopoint equal c_msd[4]/6/(step*dt+1.0e-6)
fix 9 all vector 10 c_msd[4]
variable fit equal slope(f_9)/6/(10*dt)
thermo_style custom step temp pe c_msd[4] v_twopoint v_fit v_max_n

fix 1 all npt temp 1.25 ${temp} 0.1 iso 5.68 5.68 0.5 mtk yes tchain 5 pchain 5
fix 1 all npt temp 1.25 0.45 0.1 iso 5.68 5.68 0.5 mtk yes tchain 5 pchain 5
run 5000000 # 5000000  # Run for this many steps
Neighbor list info ...
  update every 1 steps, delay 10 steps, check yes
  max neighbors/atom: 2000, page size: 100000
  master list distance cutoff = 3.8
  ghost atom cutoff = 3.8
  binsize = 1.9, bins = 8 8 8
  4 neighbor lists, perpetual/occasional/extra = 1 3 0
  (1) pair lj/cut, perpetual
      attributes: half, newton on
      pair build: half/bin/atomonly/newton
      stencil: half/bin/3d
      bin: standard
  (2) compute orientorder/atom, occasional
      attributes: full, newton on
      pair build: full/bin/atomonly
      stencil: full/bin/3d
      bin: standard
  (3) compute coord/atom, occasional
      attributes: full, newton on
      pair build: full/bin/atomonly
      stencil: full/bin/3d
      bin: standard
  (4) compute cluster/atom, occasional
      attributes: full, newton on
      pair build: full/bin/atomonly
      stencil: full/bin/3d
      bin: standard
Per MPI rank memory allocation (min/avg/max) = 9.836 | 9.842 | 9.847 Mbytes
Step Temp PotEng c_msd[4] v_twopoint v_fit v_max_n 
   12000    1.2580236   -7.1407629 9.8607613e-34 6.8477506e-36 8.3333333e+20            2 
   13000    1.2447915   -7.1058605   0.45515174 0.0029176392  0.036557114            1 
   14000    1.2517453   -7.1317886   0.84885947 0.0050527348  0.034389078            3 
   15000    1.2535679   -7.1462525    1.2944722 0.0071915118  0.034892816            1 
   16000    1.2449414   -7.1394449    1.7240701 0.0089795314  0.035276231            2 
   17000    1.2462665   -7.1169265    2.1490228  0.010534425  0.035564262            2 
   18000     1.259417   -7.1379867     2.541658  0.011766935   0.03538649            3 
   19000    1.2574276   -7.0987388    2.9889712  0.013109523  0.035416944            2 
   20000     1.257422   -7.1210588    3.2900624  0.013708593  0.035029059            1 
   21000    1.2530047   -7.1295479    3.7191774   0.01475864  0.034523412            3 
   22000    1.2515137   -7.1433513    4.1009959  0.015534075  0.034294183            1 
   23000    1.2879178   -7.1636796     4.465563  0.016179576  0.033911194            1 
   24000    1.2704637   -7.1542868    4.9230633  0.017093969  0.033777118            1 
   25000    1.2472065   -7.1549312    5.4142064  0.018047354  0.033875042            3 
   26000    1.2725201   -7.1217197    5.8448731  0.018733567  0.033993356            3 
   27000    1.2536503   -7.1131202    6.1484384  0.018976662  0.034054496            4 
   28000    1.2498082   -7.1357231    6.5437385  0.019475412  0.033946873            2 
   29000    1.2381458   -7.1630901    6.9871399  0.020077988  0.033893647            4 
   30000    1.2383135   -7.1258548    7.4105422  0.020584839  0.033909192            3 
   31000    1.2554767   -7.1402921    7.7197633  0.020752051  0.033847563            3 
   32000    1.2484877   -7.1500949    8.0573637  0.020982718  0.033702658            1 
   33000    1.2342822   -7.1162893    8.4470479  0.021330929  0.033587979            1 
   34000     1.237165   -7.1284575    8.7908492  0.021546199  0.033448678            3 
   35000    1.2390614   -7.0993097    9.2723763  0.022077086  0.033358755            1 
   36000    1.2533325    -7.131081    9.6843771  0.022417539  0.033324496            4 
   37000    1.2748778   -7.1089977    10.031771  0.022594079  0.033272428            2 
   38000    1.2535309   -7.1636326    10.341877  0.022679556  0.033196217            1 
   39000    1.2485155   -7.1492382     10.75998  0.022991409  0.033090802            6 
   40000    1.2194999   -7.1389671    11.255906  0.023449803  0.033040654            6 
   41000    1.2472725    -7.178152    11.561764  0.023499521   0.03301327            1 
   42000    1.2675891   -7.1369546    11.871205  0.023553977  0.032958879            2 
   43000    1.2642781   -7.1257785    12.329555  0.023894486  0.032891724            2 
   44000     1.236788   -7.1743611    12.671462  0.023998981  0.032835046            2 
   45000     1.244122   -7.1438466    12.998338  0.024070996  0.032767907            1 
   46000    1.2417652   -7.1468574     13.34704   0.02417942  0.032684057            3 
   47000    1.2261438   -7.1236935    13.738556  0.024359141  0.032617396            5 
   48000    1.2303127   -7.1463453     14.14706  0.024560867  0.032560614            1 
   49000    1.2380113   -7.1741652    14.507749  0.024673042  0.032512885            2 
   50000    1.2729957   -7.1645186    14.949394  0.024915656  0.032469826            2 
   51000     1.220138   -7.1685779    15.331966  0.025052231  0.032440406            2 
   52000    1.2492626   -7.1873429    15.647066  0.025075426  0.032401527            3 
   53000    1.2443678   -7.1577352    16.138022  0.025374248  0.032382487            2 
   54000    1.2439195   -7.1519735    16.594375  0.025608604  0.032391012            2 
   55000    1.2382486    -7.194859    16.921883  0.025639216  0.032393723            3 
   56000    1.2573477   -7.1439321     17.27926  0.025713184  0.032375963            2 
   57000    1.2264174   -7.1442281    17.600708  0.025732029  0.032362159            4 
   58000    1.2178651   -7.1424754    17.936794  0.025771256  0.032325765            2 
   59000    1.2178895   -7.1569766    18.369414    0.0259455  0.032289172            5 
   60000    1.2634376   -7.1663852    18.772722  0.026073224  0.032267111            1 
   61000    1.2637622   -7.1472375    19.347621  0.026431176  0.032259937            2 
   62000     1.263928   -7.1585024    19.626752  0.026380043  0.032273613            1 
   63000     1.221289   -7.1374962    20.083227  0.026565115  0.032289648            2 
   64000    1.2417699   -7.1562656    20.559748  0.026770505  0.032312727            1 
   65000    1.2464219    -7.193389    20.875368  0.026763292  0.032332085            2 
   66000    1.2385083   -7.1885075    21.237267  0.026814731  0.032335131            1 
   67000    1.2399961   -7.1336291    21.663474   0.02694462  0.032347336            2 
   68000    1.2435673    -7.158819    21.871057  0.026802766  0.032340901            2 
   69000    1.2306402   -7.1049054     22.28863  0.026918635   0.03233193            2 
   70000    1.2199046   -7.1812116    22.622217  0.026931211  0.032330586            2 
   71000    1.2574832   -7.1467425    23.028998   0.02702934  0.032316756            3 
   72000    1.2467833   -7.1502405    23.301235  0.026969021   0.03229618            1 
   73000    1.2576382   -7.1810394    23.813034  0.027183828  0.032279537            1 
   74000    1.2431735    -7.159445    24.432008  0.027513523  0.032280444            3 
   75000    1.2142795   -7.1714886    24.745464  0.027494959  0.032292866            2 
   76000    1.2183159   -7.1404884     25.13477  0.027560055  0.032299875            1 
   77000    1.2313636   -7.1731051    25.564032  0.027666702  0.032312588            1 
   78000    1.2536405   -7.1674965    25.885193  0.027655121  0.032316551            3 
   79000    1.2356567   -7.1722326    26.257988    0.0276983  0.032320324            3 
   80000    1.2260136    -7.193069    26.511174  0.027615806  0.032318872            2 
   81000    1.2405896   -7.1390828    26.972992  0.027749991  0.032307833            2 
   82000    1.2425037   -7.1634017    27.208357  0.027650769  0.032296343            3 
   83000    1.2136553   -7.1614198    27.595245  0.027706069  0.032275797            2 
   84000    1.2243816   -7.1714172    27.856389  0.027635306  0.032252184            2 
   85000    1.2610947   -7.1649817    28.097755  0.027546818   0.03222347            2 
   86000    1.2219546   -7.1931579    28.710879  0.027820619  0.032206771            1 
   87000    1.2438038   -7.1985109    29.257285   0.02802422  0.032208408            2 
   88000    1.2308954   -7.1597413    29.686659  0.028112366  0.032216894            2 
   89000    1.2428843   -7.1802045    30.069152  0.028154636  0.032217502            1 
   90000    1.2563019   -7.1411737     30.46886  0.028211907  0.032214972            2 
   91000    1.2200929   -7.1451264    30.557092  0.027982684  0.032204027            5 
   92000    1.2299131   -7.1798559    30.859992  0.027952891  0.032184008            3 
   93000    1.2088201   -7.1763458    31.357862  0.028098442   0.03216158            3 
   94000    1.2431404    -7.185082    31.623003  0.028034577  0.032140459            2 
   95000    1.1976018   -7.1781243     32.10751  0.028164483  0.032117493            2 
   96000    1.2427363   -7.1299229    32.455198  0.028172915  0.032100099            1 
   97000    1.2457402    -7.201916    32.615414  0.028020115  0.032073891            2 
   98000    1.2389834   -7.1486222    33.030105  0.028086824  0.032050655            1 
   99000    1.2343983   -7.2316207     33.37223  0.028091103  0.032025145            3 
  100000      1.25448   -7.1737393     33.84645  0.028205375  0.032002591            3 
  101000     1.234836   -7.1467212    34.203887  0.028221028  0.031985987            1 
  102000    1.2608394   -7.1401533    34.753051  0.028393015  0.031975358            1 
  103000    1.2377573     -7.17585    35.049414  0.028357131  0.031964177            2 
  104000    1.2278475   -7.2126101    35.622621  0.028543767  0.031961275            1 
  105000    1.2455546   -7.1739777    35.776066  0.028393703  0.031953061            6 
  106000    1.2461009   -7.1639139    36.120293  0.028396457  0.031934622            2 
  107000    1.2408476   -7.1588479    36.499118  0.028426104  0.031915537            3 
  108000    1.1975165   -7.1841604    36.683004  0.028304787   0.03189594            1 
  109000    1.2548916   -7.1750339    37.212332  0.028449795  0.031881485            1 
  110000    1.2459418   -7.1673997    37.814456  0.028647315  0.031868509            2 
  111000    1.2203389    -7.188908     37.96158  0.028499684  0.031854022            1 
  112000    1.2357451   -7.2294552    38.274135  0.028477779  0.031839963            3 
  113000    1.2202771   -7.1518968    38.775011   0.02859514  0.031832077            1 
  114000    1.2338387   -7.2361882    38.929459  0.028457207  0.031818538            3 
  115000    1.2368317   -7.2117798    39.256797  0.028446954  0.031802088            2 
  116000     1.238208   -7.1838384    39.705034  0.028523731  0.031783108            1 
  117000    1.2210357   -7.1568649    40.201692  0.028633683  0.031765641            2 
  118000    1.2384352   -7.1763711    40.352738  0.028497696  0.031747255            2 
  119000     1.255714    -7.147866    40.741402  0.028530394  0.031728708            3 
  120000    1.2153359   -7.1944461    41.117061  0.028553515  0.031709969            1 
  121000    1.2088786   -7.1461346    41.460185  0.028553846  0.031693402            2 
  122000    1.2304581   -7.1209952    41.807793  0.028557236  0.031670325            1 
  123000    1.2329429   -7.1361009    42.018333  0.028467705  0.031642382            3 
  124000    1.2386973    -7.194367    42.328936  0.028446866  0.031615534            2 
  125000    1.2487961   -7.1762136    42.755655   0.02850377  0.031590248            3 
  126000    1.2468876   -7.1093105    43.175594  0.028555287   0.03156846            3 
  127000    1.2447793   -7.1490996    43.494413  0.028539641   0.03154754            2 
  128000    1.2311291    -7.169139    43.669906  0.028430929  0.031521323            5 
  129000    1.2466598   -7.1999991    44.011541  0.028431228  0.031495209            1 
  130000    1.2508341   -7.1563714    44.686019  0.028644884  0.031473249            2 
  131000    1.2390171   -7.1784901     45.06934  0.028670063  0.031455925            1 
  132000     1.251185   -7.2059263    45.260394  0.028573481  0.031438277            1 
  133000    1.2202219    -7.201948    45.857974  0.028733066  0.031423614            3 
  134000    1.2065469   -7.2065957    46.176165   0.02871652  0.031411374            2 
  135000    1.2264317    -7.124627    46.718594  0.028838638  0.031398596            2 
  136000    1.2421534   -7.2193224    46.787608  0.028668877  0.031387439            3 
  137000    1.2351169    -7.153428    47.204625  0.028713275  0.031372243            2 
  138000    1.2340726   -7.1778883    47.559891  0.028719741  0.031355773            2 
  139000     1.214244   -7.2166155    47.865364  0.028696262  0.031337015            1 
  140000    1.2078025   -7.2166498    48.122482  0.028644334  0.031316999            4 
  141000    1.2262088   -7.2105262    48.459036  0.028640092  0.031295604            1 
  142000    1.2047538   -7.1702733    49.020577  0.028767944  0.031279035            1 
  143000    1.2133638   -7.1521257    49.382128  0.028777464  0.031262382            1 
  144000    1.2105633    -7.192938    49.455773  0.028620239  0.031244832       -1e+20 
  145000    1.2317932   -7.1780805    50.003864  0.028737853  0.031228973            1 
  146000    1.2288468   -7.2247896    50.395404    0.0287645  0.031213719            3 
  147000    1.2181242   -7.1476799    50.678827  0.028729494  0.031198154            3 
  148000    1.2522689   -7.1698339    51.309024  0.028890216  0.031181824            7 
  149000    1.2370008   -7.1412133    51.620403  0.028870472  0.031169563            4 
  150000    1.2244829   -7.1597793    51.760645  0.028755914  0.031152804            1 
  151000    1.2069146   -7.2050559    51.988026  0.028690963  0.031135476            2 
  152000    1.2229138   -7.1899173    52.602683   0.02883919   0.03111921            1 
  153000    1.2323976   -7.2090938     52.69284  0.028699804  0.031105593            2 
  154000    1.2493709   -7.1581581    53.125136  0.028747368  0.031091675            1 
  155000    1.2239801   -7.2366938    53.550903  0.028790808  0.031078479            3 
  156000    1.2621679   -7.1679778     53.84821   0.02876507  0.031065933            2 
  157000     1.258388   -7.1323364     54.42397  0.028887457  0.031054534            2 
  158000     1.208353   -7.1541833     55.17933  0.029103022  0.031048024            1 
  159000    1.2442415   -7.1926738    55.393342   0.02903215  0.031043496            1 
  160000    1.2121707   -7.1917145    55.711198  0.029016249  0.031038914            3 
  161000     1.220922   -7.2178295    55.989867  0.028980263  0.031031924            2 
  162000    1.2358776    -7.174222    56.301367  0.028961609  0.031027969            3 
  163000    1.2075211   -7.1376411    56.839883  0.029059245  0.031025353            2 
  164000    1.2322555    -7.188568    57.286539  0.029109014  0.031024219            4 
  165000    1.2384138   -7.1540454    57.723089  0.029153075  0.031021401            2 
  166000    1.2374005   -7.2079592    57.616506  0.028923949  0.031015133            1 
  167000    1.2182601   -7.2039898     58.01274  0.028948473  0.031005398            1 
  168000     1.229093   -7.2230469     58.10887  0.028823844  0.030992317            1 
  169000    1.2355254   -7.2238072    58.712429  0.028950902  0.030979254            4 
  170000    1.2156358   -7.1086504    59.513412  0.029173241  0.030970698            2 
  171000    1.2608267   -7.2207246    59.521769   0.02900671  0.030966351            4 
  172000    1.2276717   -7.1641136    60.183809  0.029158822  0.030962173            2 
  173000    1.2268135   -7.2186064    60.547045  0.029165243  0.030958244            2 
  174000    1.2219991   -7.1759875     60.85236  0.029143851  0.030955523            2 
  175000    1.1858534   -7.2305886    61.122327   0.02910587  0.030951022            2 
  176000    1.2275335   -7.2059046    61.520887  0.029129208  0.030945361            3 
  177000    1.2383892   -7.2275062    61.654698  0.029027636  0.030938748            2 
  178000    1.2329631   -7.1966352    62.233509  0.029135538  0.030932192            2 
  179000    1.2296007   -7.1724304    62.601182  0.029143939  0.030924912            1 
  180000    1.2117312   -7.1594495    63.172822  0.029246677   0.03091838            5 
  181000    1.2047793   -7.1679752    63.436043  0.029206281   0.03091562            3 
  182000    1.2423236   -7.2289611    63.738421  0.029184259  0.030914049            2 
  183000    1.2125055   -7.2351749    64.110768  0.029194339  0.030910614            2 
  184000    1.2429553   -7.2400443    64.268872  0.029107279  0.030907568            3 
  185000    1.2168768   -7.2067981    64.797777  0.029188188  0.030902004            3 
  186000     1.225151   -7.1740949    65.199989  0.029211465  0.030897176            1 
  187000    1.1984293   -7.1984435    65.447862  0.029165714  0.030891963            2 
  188000    1.2427643   -7.1844728    65.943436  0.029230247  0.030887921            2 
  189000    1.2040484   -7.1907479    66.355961  0.029257478   0.03088532            4 
  190000    1.2148926   -7.1913191    66.642695  0.029229252  0.030882764            2 
  191000    1.2535864   -7.1732088    67.167101  0.029305018  0.030882623            2 
  192000    1.2151372   -7.2151495     67.56923  0.029326923  0.030880432            1 
  193000    1.2132772   -7.1889026    67.804555  0.029276578  0.030878622            2 
  194000    1.2062709   -7.2405279    68.135683  0.029267905  0.030875083            3 
  195000    1.2098553   -7.2378615    68.438582  0.029247257  0.030872174            1 
  196000    1.2258901    -7.199919    68.856735  0.029275823  0.030870548            3 
  197000     1.198102   -7.1824972    69.678397  0.029474787  0.030870357            2 
  198000    1.2295961   -7.1911122    70.505898  0.029674199  0.030874795            5 
  199000    1.2105828   -7.2227537    70.508812  0.029526303  0.030879722            2 
  200000      1.24309   -7.1774222    71.260443  0.029691851  0.030886442            2 
  201000    1.2281673   -7.1807354    71.398379  0.029601318  0.030894218            1 
  202000    1.2121094   -7.2115029    71.669923    0.0295668  0.030900748            2 
  203000    1.2029572   -7.1634489    72.240876  0.029655532  0.030905623            3 
  204000    1.1805423   -7.1740964    72.469633  0.029603608  0.030912116            2 
  205000    1.2195382   -7.1661123    73.091631  0.029712045   0.03091761            1 
  206000    1.2278252   -7.2035404    73.249259  0.029631577  0.030922139            2 
  207000    1.2390726   -7.1895386    73.510403   0.02959356  0.030926584            1 
  208000    1.2210259   -7.2158263    73.497325  0.029446044  0.030929255            3 
  209000    1.1904885   -7.2082291    73.663705  0.029371493  0.030928458            2 
  210000    1.2404773   -7.2113617    74.033564  0.029378398  0.030928311            2 
  211000    1.2348223    -7.133749    74.894426  0.029579157  0.030928865            1 
  212000    1.2176527   -7.2057202    75.260814  0.029583653  0.030930103            4 
  213000    1.2038534   -7.2136848    75.204791  0.029422845  0.030928475            1 
  214000    1.2089888    -7.188565    75.978446  0.029586622  0.030927972            4 
  215000    1.2056354     -7.20057    76.031909  0.029469732  0.030927773            2 
  216000    1.2131242   -7.2153975    76.300074  0.029436757  0.030927707            3 
  217000    1.2376123   -7.2600996     76.81491  0.029498813  0.030927035            3 
  218000    1.2580416   -7.2207636    77.440152  0.029602505   0.03092501            3 
  219000      1.21404   -7.1972781    77.776807  0.029595436  0.030925089            2 
  220000    1.2223396   -7.2316444    77.868101  0.029495493   0.03092475            2 
  221000    1.2078091   -7.1998017    78.398673  0.029562094  0.030924263            2 
  222000     1.222426   -7.1474349    79.238511  0.029744186  0.030926074            1 
  223000    1.2252141   -7.1773028    79.122676  0.029567517  0.030928258            2 
  224000    1.2175814   -7.2351678    79.582782   0.02960669  0.030928933            2 
  225000    1.2163394   -7.1994456    79.853875  0.029575509  0.030928477            2 
  226000    1.2203899   -7.2305556    79.814003  0.029429942  0.030925311            5 
  227000    1.2394483   -7.2154275    80.204779  0.029443751  0.030920254            1 
  228000    1.2193737   -7.1894255    80.632287  0.029470865  0.030912734            1 
  229000    1.2103478   -7.1795709    81.044398  0.029492139  0.030907136            3 
  230000    1.2229979   -7.1716777    81.301944  0.029457226  0.030902552            2 
  231000    1.2269716   -7.2183499    81.684521   0.02946772  0.030897964            2 
  232000    1.2527186   -7.2343559    81.782705  0.029375972  0.030892681            3 
  233000    1.2319572   -7.2294198    82.092854   0.02936082  0.030888349            1 
  234000    1.2383508   -7.2365305     82.58771  0.029411577  0.030883039            3 
  235000     1.216608   -7.2413176    82.844752  0.029377571   0.03087698            2 
  236000    1.1919791   -7.2164966    83.456679  0.029469166  0.030869802            3 
  237000    1.2247887   -7.2274162    83.494215  0.029358022  0.030862532            6 
  238000    1.2027703   -7.1847438     83.85834  0.029362164  0.030853223            2 
  239000    1.2321546   -7.2562683    84.190667  0.029355184  0.030845433            3 
  240000    1.1969068   -7.2253429    84.617787  0.029381176  0.030837483            1 
  241000    1.2174283   -7.2557334    84.797676  0.029321465  0.030829766            3 
  242000     1.233484   -7.1878933    85.448476  0.029424406  0.030821984            2 
  243000    1.2011916   -7.2512175    85.398193  0.029286074  0.030815933            3 
  244000    1.2147951    -7.188252     85.94208  0.029351803  0.030809358            2 
  245000    1.2035846   -7.2325844    86.340331   0.02936746  0.030802939            1 
  246000    1.2145218   -7.1989037    86.854855  0.029422376   0.03079926            2 
  247000    1.2088013   -7.1910576    87.232557  0.029430687  0.030794401            2 
  248000    1.2163058    -7.191397    87.195057  0.029299414  0.030788708            1 
  249000    1.2181313   -7.1887621    87.857186  0.029403342  0.030781841            2 
  250000    1.2203845   -7.2425367    88.142247  0.029380749  0.030776774            1 
  251000    1.2011571   -7.2503689    88.509168  0.029385514  0.030772791            2 
  252000    1.2142904   -7.2140998    89.158231  0.029483542  0.030767871            1 
  253000    1.2076273   -7.2435543    89.580037  0.029505941  0.030766054            3 
  254000    1.1984351   -7.2499519    90.309392  0.029629065  0.030765329            2 
  255000    1.2358591   -7.2319978    90.898017  0.029705234  0.030765174            1 
  256000    1.1995302   -7.2192238    91.475709  0.029777249  0.030766228            7 
  257000    1.2047281   -7.1716194    92.246635   0.02991136  0.030769785            1 
  258000    1.2331171   -7.2404824    92.406814  0.029847162  0.030773259            1 
  259000    1.2349902   -7.1794351    93.076521  0.029947401  0.030776741            3 
  260000    1.2145456   -7.2143513    93.265025  0.029892636  0.030782392            2 
  261000    1.2222471    -7.248419    93.568687   0.02987506  0.030787145            2 
  262000    1.2039278   -7.1815686    94.048201   0.02991355  0.030791908            2 
  263000    1.1952505   -7.2380583    94.514616  0.029947597   0.03079661            3 
  264000    1.1920969   -7.2418707    94.679239  0.029886123  0.030802168            1 
  265000    1.1936549   -7.2204538    95.080685  0.029899587   0.03080722            2 
  266000    1.2106915   -7.1951135    95.751105  0.029997213  0.030812994            4 
  267000    1.1945705   -7.2716962    95.504944  0.029808035  0.030818639            1 
  268000    1.1735897   -7.2194031    96.149334  0.029897181  0.030823427            2 
  269000    1.2306787   -7.2088702    96.350085   0.02984823  0.030825967            3 
  270000    1.2313944   -7.2371796    96.675492  0.029838115  0.030827474            2 
  271000    1.2157961   -7.2385339    97.092129  0.029856128  0.030829232            2 
  272000    1.2166415   -7.2356212    97.303863  0.029811233  0.030831325            1 
  273000    1.2108958   -7.2378736    97.786044   0.02984922  0.030833134            2 
  274000    1.2200131   -7.2486095    98.164727  0.029855452  0.030832784            1 
  275000    1.2154027   -7.2440347    98.555903  0.029865425  0.030833656            2 
  276000     1.211312   -7.2304861    98.648609  0.029785208  0.030835119            1 
  277000    1.2219639   -7.2236448    98.966107  0.029773197  0.030837027            2 
  278000    1.2106775   -7.2486012    99.541616  0.029838614  0.030838101            2 
  279000    1.2098971    -7.242336    99.939389  0.029850475  0.030838495            1 
  280000    1.1966954   -7.2190471    100.23219   0.02983101  0.030839983            2 
  281000    1.2213992   -7.2218377    101.00002  0.029952555  0.030841783            1 
  282000    1.1891275   -7.2714427    100.71918   0.02976335  0.030843682            2 
  283000    1.2081628   -7.2096891    101.31517  0.029833679  0.030844688            2 
  284000    1.2158742   -7.1639134     102.1509  0.029973856  0.030846371            1 
  285000    1.2198186    -7.179264    102.28862  0.029908952  0.030847376            3 
  286000    1.1927573   -7.2215288    102.58397  0.029890434  0.030848882            2 
  287000    1.2018581   -7.2013192    102.70439  0.029821251  0.030849215            1 
  288000    1.2185177   -7.2221184    102.91333  0.029778163  0.030848666            2 
  289000    1.2000448   -7.2524494    103.33849  0.029797719  0.030846854            2 
  290000    1.1871145   -7.2244838    103.86689  0.029846808  0.030845816            2 
  291000    1.1911047   -7.2777826    104.24232  0.029851753  0.030844799            1 
  292000     1.220301   -7.1997566    104.40351  0.029795522  0.030844261            1 
  293000    1.2002539   -7.2577609    104.78238  0.029801587  0.030843268            1 
  294000    1.2349004   -7.2668487    104.82909  0.029713461  0.030841266            2 
  295000    1.2191663     -7.26338    105.24463  0.029730122  0.030839868            4 
  296000    1.2013008   -7.2113201    105.97202  0.029834464  0.030838474            2 
  297000    1.2073088   -7.2283377    106.04588  0.029754737  0.030835975            3 
  298000    1.2160849   -7.2924269    106.21183  0.029701294  0.030832718            1 
  299000    1.2263103   -7.1871466    106.79459  0.029764379  0.030830506            2 
  300000    1.2106638   -7.2664415    106.67181  0.029631058  0.030828366            3 
  301000    1.2266373   -7.2417991    107.70096  0.029817542  0.030826376            1 
  302000    1.2008704   -7.2373989    107.55627  0.029678883  0.030824531            1 
  303000    1.2274108    -7.211301    108.35029  0.029799309  0.030822143            3 
  304000    1.2220272   -7.2090512    108.68069  0.029791855  0.030819799            3 
  305000    1.1911886   -7.2551222     108.6864  0.029695737  0.030816885            6 
  306000    1.1865869   -7.2598457    109.39598  0.029791933  0.030814225            3 
  307000     1.221866   -7.2340607    109.78698  0.029801027  0.030811185            1 
  308000    1.1834752   -7.2431113     109.6963  0.029679735  0.030807681            1 
  309000    1.1840618   -7.2508867    110.49767  0.029799802  0.030805002            1 
  310000    1.2299666   -7.2669601    110.30242  0.029651188  0.030802369            2 
  311000    1.2063617   -7.2452402    111.20252  0.029797032  0.030800013            3 
  312000    1.2017308   -7.2152371     111.8016  0.029861539  0.030798372            2 
  313000    1.2112904   -7.2310455    111.46857  0.029677468  0.030796313            2 
  314000    1.2185327   -7.2217626    112.43244  0.029838758  0.030794094            2 
  315000    1.2086263   -7.2872258    112.76721  0.029832595   0.03079262            4 
  316000    1.2118148   -7.2318374    113.24444   0.02986404  0.030792945            1 
  317000    1.2071697   -7.2694524    113.60558  0.029864769  0.030792157            4 
  318000     1.187982   -7.2601448    113.88058  0.029842919  0.030792067            2 
  319000     1.200475    -7.262928    114.62337  0.029943408  0.030792011            3 
  320000    1.1875602     -7.24289    114.75876  0.029885094  0.030792323            1 
  321000    1.2232174   -7.2503408    115.14537   0.02989236  0.030792359            2 
  322000    1.2193927   -7.2119912    115.93563  0.030004046  0.030793086            2 
  323000     1.184823   -7.2187412    116.06843  0.029945414  0.030793982            1 
  324000    1.1952507   -7.2499507    116.30594  0.029914079  0.030794863            2 
  325000    1.1831206    -7.281705    117.11765  0.030030168  0.030795952            1 
  326000    1.1997424   -7.1992017    117.56748  0.030053038  0.030797892            2 
  327000    1.2224693   -7.2518323    117.79667  0.030019539  0.030799574            1 
  328000    1.2270266   -7.2609836    117.65931  0.029893117  0.030799883            2 
  329000    1.2285266   -7.2696002    118.22257  0.029944926  0.030800169            1 
  330000    1.1911469   -7.2687219    118.72926  0.029982136   0.03080146            1 
  331000    1.1921709   -7.2352146    119.16474  0.030001194  0.030802909            4 
  332000     1.200828   -7.2775962    119.41837  0.029974491  0.030804635            4 
  333000    1.1750721   -7.2486304    120.42703  0.030136895  0.030806771            1 
  334000    1.2071091   -7.2176088    120.57067  0.030082504  0.030809568            1 
  335000    1.2263196   -7.2170494    120.92457  0.030080738  0.030812075            4 
  336000    1.2272885   -7.2677154    120.81306  0.029963557  0.030813798            1 
  337000    1.1983203   -7.2460057    121.41835  0.030024321  0.030815078            2 
  338000    1.1845717   -7.2675921    121.21159  0.029884513  0.030814366            5 
  339000    1.2116483   -7.2688078     121.4429  0.029853219  0.030812758            4 
  340000    1.2179521   -7.2387477     122.1411  0.029936545  0.030811502            2 
  341000    1.1809763    -7.253992    122.69797  0.029984842  0.030811048            3 
  342000    1.2147558   -7.2590674    123.02469  0.029976776  0.030811398            2 
  343000    1.2044277   -7.2174467    123.72079    0.0300585  0.030810717            2 
  344000    1.2057363   -7.2546984     123.4086  0.029895494  0.030809631            1 
  345000     1.220422   -7.2483859    123.45398  0.029819802  0.030807981            2 
  346000    1.1942526   -7.2449599    124.21057   0.02991584  0.030806025            4 
  347000    1.1986579   -7.2772813    124.28302  0.029847026  0.030804391            1 
  348000    1.2136813   -7.3032457     124.3673  0.029781441  0.030802754            2 
  349000    1.1949271   -7.2756948    124.70721  0.029777271  0.030801173            4 
  350000    1.2011485   -7.2467298    125.59898  0.029904518  0.030800534            2 
  351000    1.2104805   -7.2727258    125.94108  0.029900541  0.030799569            4 
  352000    1.2129924    -7.216898    126.97144  0.030059527  0.030799261            3 
  353000    1.2119587   -7.3102497    126.41837  0.029843808  0.030798524            3 
  354000    1.2071659    -7.233356    127.22293  0.029948902   0.03079718            1 
  355000    1.1971587   -7.2968214    127.22845  0.029865833  0.030796709            3 
  356000    1.1843083   -7.2881609    127.32774  0.029805181  0.030794561            4 
  357000    1.2047974   -7.2452909    127.97545  0.029872888    0.0307917            2 
  358000    1.1823109   -7.2368526    128.46778  0.029904046  0.030789892            3 
  359000    1.2221697   -7.2404478    129.03881  0.029953298  0.030788027            2 
  360000    1.2201932   -7.2726688    129.12103  0.029889128  0.030786106            4 
  361000    1.1904121   -7.2668508    129.36878  0.029863524  0.030783903            2 
  362000    1.2206691   -7.2897841    129.69817  0.029856854  0.030782049            3 
  363000    1.2063626   -7.2846502    130.09096  0.029864776   0.03078033            2 
  364000    1.1653531   -7.2782893    130.38743  0.029850601  0.030778016            1 
  365000    1.1872648   -7.3004045    130.81492   0.02986642  0.030775352            1 
  366000    1.2120201   -7.2762954    130.75704   0.02977164  0.030771676            1 
  367000    1.1870084   -7.2443888    131.15509  0.029780902  0.030768315            4 
  368000    1.1472075   -7.2560994    131.32772  0.029739068  0.030764002            1 
  369000    1.1666941   -7.2290593    131.79072  0.029763036  0.030760166            3 
  370000    1.1978079   -7.2765907    132.32686  0.029803347  0.030756586            5 
  371000    1.1811452   -7.3075833    132.59819   0.02978396  0.030752619            2 
  372000    1.1962426   -7.2587205    132.99944  0.029793781  0.030748759            2 
  373000    1.1874822   -7.2369026    133.56447  0.029840141  0.030744682            4 
  374000     1.189155    -7.277036    133.49151  0.029744098  0.030739818            1 
  375000    1.1933639   -7.2545318    133.83752   0.02974167  0.030735961            1 
  376000    1.2087392   -7.2522608    134.53655  0.029817498  0.030731306            2 
  377000    1.1948107   -7.2995298    134.23987  0.029672826   0.03072696            2 
  378000    1.1883788   -7.2559748    135.16877  0.029799111   0.03072191            2 
  379000    1.1931266   -7.2920242    135.20457  0.029728357  0.030717071            2 
  380000    1.1788513   -7.2703505    135.31271   0.02967384  0.030712207            2 
  381000    1.1747619      -7.3039    135.44402  0.029624676  0.030706901            2 
  382000    1.1808264   -7.3083043    136.16213  0.029703781  0.030702545            2 
  383000     1.163162   -7.2680075    136.86715  0.029779624  0.030698427            1 
  384000    1.1923516    -7.275532    137.25341  0.029785896  0.030695596            2 
  385000    1.2280725   -7.2667674    137.86935  0.029841851  0.030692746            2 
  386000    1.1800427   -7.2993266    138.17832  0.029831244  0.030690165            2 
  387000    1.1939599   -7.2720576     137.9247  0.029699547  0.030686141            3 
  388000    1.2082439   -7.2939101    138.09254  0.029659052  0.030681938            1 
  389000    1.1922978   -7.2165114    139.13373  0.029805855  0.030677797            3 
  390000    1.1698298    -7.281596    139.59292  0.029827547  0.030673334            3 
  391000    1.1816786   -7.3233315    139.65498  0.029764489  0.030670206            2 
  392000      1.15829   -7.2879481    140.22809  0.029810392  0.030666271            2 
  393000    1.1864398   -7.2648909    140.29684  0.029749118   0.03066356            2 
  394000    1.1796065     -7.27635    140.58644  0.029734865  0.030659976            3 
  395000    1.1903602   -7.2905239     140.8565  0.029716562  0.030656113            4 
  396000    1.1943898   -7.2621517    141.30389  0.029735666  0.030652664            2 
  397000    1.1845804   -7.2132382    142.40605  0.029892117  0.030650148            3 
  398000    1.1713419   -7.3094716     142.2853  0.029791729  0.030647939            3 
  399000    1.1940177   -7.2747067    142.89901   0.02984524  0.030645027            1 
  400000    1.2016714   -7.3161276    143.08089   0.02980852    0.0306427            1 
  401000    1.2029449   -7.2462552    144.01516  0.029928338  0.030640668            3 
  402000     1.223627   -7.2574084    144.31144  0.029915306  0.030638774            1 
  403000    1.2072767   -7.3060268    144.23793  0.029825874   0.03063789            1 
  404000    1.1897949   -7.2553423    145.07926   0.02992559  0.030636748            2 
  405000    1.2065181   -7.2594076     145.8117  0.030002408  0.030635434            1 
  406000    1.1805647   -7.2628453    145.82519  0.029931278  0.030633489            2 
  407000    1.1834162   -7.3113021    145.26563  0.029743167  0.030631486            1 
  408000    1.1718447   -7.2716395    146.58597  0.029939945  0.030630048            3 
  409000    1.1882419    -7.261728    146.57732   0.02986498  0.030628187            2 
  410000    1.1829086   -7.2767885    146.53448   0.02978343   0.03062587            5 
  411000    1.1894399   -7.2626543    147.44222  0.029895016  0.030623135            2 
  412000    1.2055145    -7.325697     147.0064  0.029734304  0.030619762            2 
  413000    1.1831834   -7.2745155     148.0754  0.029878006  0.030616451            2 
  414000    1.1783342   -7.2758641    148.02323  0.029795335  0.030613797            4 
  415000     1.182441    -7.300738    147.91667  0.029702142  0.030610964            1 
  416000    1.2000873   -7.2490679    149.25239  0.029898315  0.030608104            2 
  417000    1.2052199   -7.3375816    148.92503  0.029761197  0.030604929            3 
  418000    1.1626115   -7.2529664    149.18955  0.029742733  0.030600994            2 
  419000    1.1797637   -7.2964546     149.4762  0.029728759  0.030597378            1 
  420000    1.1990478   -7.3188985    149.39084  0.029641039  0.030593577            3 
  421000    1.1868028   -7.2771004     150.2954  0.029749684  0.030589841            1 
  422000    1.1748198    -7.266091    150.96601  0.029811613  0.030586161            2 
  423000    1.1764333   -7.3192513    150.52746   0.02965474  0.030582308            1 
  424000    1.1883495    -7.315468    150.55808  0.029590818  0.030578019            1 
  425000    1.2111506   -7.2684752    151.25626   0.02965809   0.03057272            2 
  426000    1.2038435   -7.2722767     151.8266  0.029700038   0.03056756            2 
  427000    1.2133505   -7.2765182    152.12719  0.029689146  0.030562469            2 
  428000    1.1790823   -7.2783809    152.68672  0.029728722  0.030557051            1 
  429000    1.1630767   -7.2720706    152.28785  0.029581945  0.030551906            1 
  430000    1.1767757   -7.3182676    152.57163  0.029568146  0.030546494            3 
  431000    1.1788204   -7.2997746    153.15826  0.029612966  0.030541572            2 
  432000    1.1665666   -7.3082155    153.31123  0.029573925  0.030536682            1 
  433000    1.1786105    -7.286399    153.63175  0.029567311  0.030530658            2 
  434000    1.1779959   -7.3702584    153.32497  0.029440278  0.030525094            2 
  435000    1.1725896   -7.3431805    153.97623  0.029497362  0.030518574            3 
  436000    1.1629223   -7.3782522    154.19405   0.02947134  0.030512063            1 
  437000    1.2033533   -7.2977529    154.79699  0.029518877  0.030505894            2 
  438000    1.1884895   -7.2761025    155.04095  0.029497897  0.030499736            2 
  439000    1.1901634   -7.3245027    154.71377  0.029368598  0.030492606            4 
  440000    1.1959646   -7.3169139    154.87497  0.029332381  0.030485123            5 
  441000    1.1948717   -7.3321342    155.35941  0.029357409  0.030477309            1 
  442000    1.1912944    -7.290841    155.68055  0.029351537  0.030468863            1 
  443000    1.1788743   -7.2612466    155.98869  0.029343245  0.030460809            1 
  444000    1.1896711   -7.3083674     155.8615  0.029253284  0.030452064            3 
  445000    1.1811928     -7.34455    155.99485  0.029212519  0.030442799            4 
  446000    1.1904223   -7.3480481    156.20326   0.02918596  0.030433352            5 
  447000    1.1700715   -7.2751092    157.37229  0.029338607  0.030424122            3 
  448000     1.202999   -7.3156903    157.59517  0.029314578  0.030415574            1 
  449000    1.1573369   -7.2983569    158.09971  0.029342931  0.030407504            1 
  450000    1.1758888   -7.2898499    158.37848  0.029329347  0.030399417            2 
  451000     1.175111   -7.3200946    158.62664  0.029310171  0.030391161            2 
  452000    1.1845029   -7.2587409    159.09708  0.029332058  0.030383876            3 
  453000    1.1780995   -7.2912977    159.21117  0.029288294  0.030376386            1 
  454000    1.1841979   -7.2980881    159.26154  0.029233028  0.030367922            2 
  455000    1.1879846   -7.2767582    159.79522  0.029266523  0.030360052            2 
  456000    1.1958129   -7.2951846    160.23295  0.029282338  0.030352289            1 
  457000    1.1808641   -7.2832942    160.19141  0.029210687  0.030344433            3 
  458000    1.1717202   -7.2826438     160.5979   0.02922087  0.030336367            2 
  459000    1.1701412   -7.2853537    161.07343  0.029243543  0.030329314            3 
  460000    1.1864002    -7.325506    161.61645  0.029278343   0.03032165            2 
  461000    1.1684698   -7.3005453    162.42228  0.029360499  0.030314429            2 
  462000    1.1870353   -7.2935442    162.73693  0.029353703  0.030306689            2 
  463000      1.17291   -7.3014547    162.89139  0.029318105  0.030299666            4 
  464000    1.1703493    -7.316116    163.21604  0.029313225  0.030292245            3 
  465000    1.1606272   -7.2801782     163.7228  0.029341004  0.030285093            3 
  466000    1.1822731    -7.304867    163.38251  0.029217187  0.030277781            1 
  467000     1.151291   -7.2681124    163.75471   0.02922104  0.030270312            1 
  468000    1.1788563    -7.290014    163.92605  0.029189112  0.030262308            1 
  469000    1.1669145   -7.3215138    164.88897  0.029297969  0.030254691            1 
  470000    1.1597055   -7.2454616    165.78612  0.029394702  0.030247278            1 
  471000    1.1799542   -7.2351574    166.04388  0.029377897  0.030240496            1 
  472000     1.191075   -7.3037681    165.92117  0.029293993  0.030233588            1 
  473000    1.1804441   -7.3328076     166.0641  0.029257241   0.03022624            1 
  474000    1.1823718   -7.3327622    166.37274  0.029249778  0.030218831            3 
  475000    1.1537414   -7.2828982    167.33124  0.029356358   0.03021156            2 
  476000    1.1677977   -7.2908339    167.71971  0.029362694  0.030204631            2 
  477000    1.1872575   -7.3328692    167.82696  0.029319874  0.030197657            2 
  478000    1.1698962    -7.306398    167.70702  0.029237626  0.030191201            5 
  479000    1.1647409   -7.3100514    167.96719   0.02922185  0.030184454            4 
  480000    1.1687116   -7.3066894    168.26846  0.029213275  0.030177597            4 
  481000    1.1722377   -7.3382938    168.09328   0.02912219  0.030170283            1 
  482000    1.1783362   -7.3100028    168.70375  0.029167315  0.030162627            2 
  483000    1.1724766   -7.3431615    168.45279  0.029063628  0.030154474            2 
  484000    1.1299012   -7.3302571    169.27752  0.029145578  0.030146297            2 
  485000      1.17356   -7.3356657     169.6475  0.029149054  0.030138481            3 
  486000    1.1787066   -7.2844607    169.96855  0.029144126   0.03013051            2 
  487000    1.1823264   -7.3236562    169.84485  0.029063115  0.030122351            1 
  488000     1.185552   -7.2618949    170.84569  0.029174468  0.030113886            3 
  489000     1.170433   -7.3327723    170.20074  0.029004898  0.030104717            3 
  490000    1.2007369   -7.3379068    170.16967   0.02894042  0.030095711            1 
  491000    1.1735466   -7.3222134    171.21645  0.029059139  0.030087035            6 
  492000    1.1762264   -7.3593224    170.85392  0.028938673  0.030078436            1 
  493000    1.1855299   -7.3193688    172.30916  0.029125957  0.030069163            5 
  494000    1.1964757    -7.330703    172.05264  0.029023724  0.030060717            2 
  495000    1.1688239    -7.344088    172.52129  0.029043988  0.030052223            1 
  496000    1.1574156   -7.3422955    172.48085  0.028978637  0.030043558            2 
  497000    1.1938961   -7.3891716    172.28769  0.028887942  0.030034025            4 
  498000    1.1935236   -7.3563332    172.68432  0.028896305  0.030024863            1 
  499000     1.174564   -7.3079927    173.88388  0.029038724  0.030016543            2 
  500000    1.2120556   -7.3102651     174.1462  0.029024367  0.030008682            1 
  501000    1.1573132   -7.3806788    174.22511  0.028979559  0.030000831            3 
  502000    1.1793916    -7.348263    174.55742  0.028976996   0.02999236            2 
  503000    1.1719459   -7.3417625    174.73493  0.028948796  0.029983875            2 
  504000     1.180756   -7.3630789    174.99192   0.02893385  0.029975565            3 
  505000    1.1896861   -7.3126662    175.73561  0.028999275  0.029967343            1 
  506000    1.1608202   -7.3140178    176.09607  0.029001329  0.029959055            3 
  507000    1.1913461   -7.3511597    175.66122  0.028872653  0.029950231            4 
  508000    1.1836862   -7.3327808    176.55597  0.028962593  0.029941571            2 
  509000    1.1660959   -7.3300929    176.91896  0.028965121  0.029933187            1 
  510000    1.1672827   -7.3135493     177.4202  0.028990229  0.029924246            2 
  511000    1.1911223   -7.3609819    176.78694  0.028830224  0.029915635            3 
  512000    1.1831103   -7.3289353    177.50921  0.028891474  0.029906362            1 
  513000    1.1742358   -7.3409253    177.52804  0.028838213  0.029897408            1 
  514000    1.1608476   -7.3124587    178.26223  0.028901139  0.029888356            1 
  515000    1.1826613   -7.3665514    177.81045  0.028771918  0.029879377            2 
  516000    1.1839877   -7.3081933     178.5981  0.028843363  0.029870808            1 
  517000    1.1611165   -7.2920539    179.48257  0.028930137   0.02986261            3 
  518000    1.1420856   -7.3222999    179.96074  0.028951212    0.0298548            3 
  519000    1.1645639   -7.3142697    180.03975  0.028908116  0.029846736            1 
  520000    1.1588443   -7.3441537    180.59838  0.028942049   0.02983952            2 
  521000    1.1679684   -7.3376934    181.18466  0.028980272  0.029832147            6 
  522000    1.1463825   -7.3724213    181.68112   0.02900401  0.029824795            4 
  523000    1.1665992   -7.3391605     181.6865   0.02894941  0.029817365            2 
  524000    1.1737366   -7.3464577    181.64532  0.028887614  0.029810193            2 
  525000    1.1563292   -7.3636526    181.88813  0.028871132  0.029803015            4 
  526000      1.18122   -7.3149868    182.06726  0.028844622   0.02979509            3 
  527000    1.1675862   -7.3231881    183.25795  0.028978171  0.029787753            2 
  528000    1.1915908   -7.3788321     183.4408  0.028952147  0.029780479            2 
  529000    1.1890106   -7.3554162    183.35438  0.028883803  0.029773347            2 
  530000    1.1797146   -7.3247682    184.24305  0.028969033  0.029766419            3 
  531000    1.1693657    -7.311556    184.31422  0.028925647  0.029759346            2 
  532000    1.1479403    -7.357896    184.64494   0.02892308  0.029752387            2 
  533000    1.1663101   -7.3704034    184.41072  0.028832195  0.029745146            3 
  534000    1.1602739   -7.3206843    185.46662  0.028942981  0.029738602            2 
  535000    1.1923173   -7.3006428    186.61482  0.029067729  0.029732509            2 
  536000    1.1644387   -7.3635765    186.02117  0.028921202  0.029726709            2 
  537000    1.1496921   -7.3331377    186.61734  0.028959861  0.029720479            6 
  538000    1.1830787   -7.3781039    187.14641  0.028987981  0.029714469            2 
  539000    1.1781979   -7.3558017     187.2415  0.028948903  0.029707942            1 
  540000    1.1933731   -7.3711935    187.31698  0.028906942  0.029701529            2 
  541000    1.1504344   -7.3645927    187.98139  0.028955852  0.029694957            2 
  542000    1.1786115   -7.3678151    187.69951  0.028859088  0.029688536            2 
  543000    1.1552775   -7.3269528    188.97607  0.029001853  0.029681826            3 
  544000    1.1488498   -7.3260442     188.7717  0.028917233  0.029675866            2 
  545000    1.1696876   -7.3673962    188.33717  0.028797732  0.029669504            1 
  546000    1.1529815   -7.3683996    188.84236  0.028822095  0.029662488            4 
  547000    1.1574942   -7.3456207    189.08344   0.02880613  0.029655298            1 
  548000    1.1558853   -7.3305425    189.96411  0.028887487  0.029648233            4 
  549000     1.177756    -7.399595    189.00821   0.02868977  0.029640484            3 
  550000    1.1773179   -7.3451498    189.23147  0.028671434  0.029632226            1 
  551000    1.1577431   -7.3107544    190.57855  0.028823132  0.029624132            3 
  552000    1.1576921   -7.3965134    189.84088  0.028659553  0.029615954            3 
  553000    1.1304619   -7.3402781    190.89751  0.028766955  0.029608097            3 
  554000    1.1567294   -7.3858541    190.44916  0.028647587   0.02960006            2 
  555000    1.1706785   -7.3440461    191.47933   0.02875065  0.029591837            1 
  556000    1.1627117   -7.3639637    191.64791  0.028724207  0.029583968            2 
  557000    1.1857099   -7.3807364    191.66837  0.028675699  0.029575925            3 
  558000    1.1624982    -7.359827     191.7952  0.028643249  0.029567739            2 
  559000    1.1556685   -7.3371207    192.44181  0.028688403  0.029559869            2 
  560000    1.1410283   -7.3641857    192.87937  0.028702287  0.029552027            3 
  561000    1.1495519   -7.3784776    193.25491  0.028706909  0.029544211            5 
  562000    1.1539657    -7.378703    193.68372  0.028719413  0.029536403            2 
  563000    1.1566298   -7.4001788    193.44572  0.028633174  0.029528632            3 
  564000    1.1554929     -7.32305    194.62027   0.02875595  0.029521539            2 
  565000    1.1722868   -7.3204227    194.51674  0.028689785  0.029514772            1 
  566000     1.135624   -7.3540417    194.63854  0.028657029  0.029507226            1 
  567000    1.1753228   -7.3639122    194.76542  0.028625135  0.029499297            3 
  568000    1.1427372   -7.3693506    195.19172  0.028637283  0.029491244            2 
  569000    1.1662334   -7.3602661    195.05637  0.028567131  0.029483727            3 
  570000     1.190525    -7.392328    195.36461  0.028562077  0.029475677            1 
  571000    1.1530821   -7.3181675    196.12121  0.028622477   0.02946771            2 
  572000    1.1563845    -7.339416    196.65283  0.028649887  0.029459374            2 
  573000    1.1540254    -7.342581    196.23071  0.028538497  0.029450956            1 
  574000    1.1521018    -7.346335    196.84132  0.028577428  0.029442328            1 
  575000    1.1426865   -7.3490277    196.99016  0.028549299  0.029433849            2 
  576000    1.1793787    -7.373065    197.75553  0.028610465  0.029425388            3 
  577000    1.1654102   -7.3189294    197.73502  0.028557917  0.029416961            2 
  578000    1.1752811   -7.3517532    197.48307  0.028472185  0.029407988            2 
  579000    1.1637537    -7.361359    197.13688  0.028373183  0.029398942            5 
  580000    1.1435777    -7.368794    198.44885  0.028512766  0.029390156            3 
  581000    1.1828039   -7.3685884     198.7006    0.0284998  0.029381261            6 
  582000    1.1676368   -7.3475323    199.09366   0.02850711  0.029372619            3 
  583000    1.1646558   -7.3862383    198.85315  0.028423835  0.029363428            3 
  584000    1.1653352   -7.3459413    199.41928  0.028455948  0.029354126            2 
  585000    1.1940894   -7.3574292    199.87395  0.028472073  0.029345295            3 
  586000    1.1698672   -7.3259071    200.11517  0.028457788  0.029336518            1 
  587000    1.1500685   -7.3866669    199.66156  0.028344912  0.029327649            2 
  588000    1.1499573     -7.31951    200.25405  0.028380676  0.029318621            2 
  589000    1.1726807   -7.3930765    200.31188  0.028340673  0.029309521            2 
  590000    1.1435814   -7.3787485    200.43126  0.028309501  0.029300342            2 
  591000    1.1653327   -7.3409809    201.22056  0.028372893  0.029291287            4 
  592000    1.1678652   -7.3843516    201.12529  0.028311556  0.029281819            2 
  593000    1.1726203   -7.3719944    201.67961   0.02834171  0.029272193            1 
  594000    1.1702594   -7.3951275    201.17438  0.028223117  0.029262281            3 
  595000    1.1541238   -7.3876345    201.91503  0.028279416  0.029252466            3 
  596000    1.1722284   -7.3523667    202.53625  0.028318826  0.029243042            3 
  597000    1.1328203   -7.3610509    202.53103  0.028270663  0.029233714            2 
  598000    1.1522128   -7.3448519    203.44752  0.028351104  0.029224545            2 
  599000    1.1803298     -7.34591    203.67782  0.028335813  0.029215324            8 
  600000    1.1608285   -7.3907987    203.34464  0.028242312  0.029205866            1 
  601000     1.154538   -7.3625322    204.23925  0.028319363  0.029196287            2 
  602000    1.1487545   -7.3228772    204.41858  0.028297145  0.029186807            2 
  603000    1.1564533   -7.3371296    204.61968   0.02827801  0.029177554            2 
  604000    1.1708221   -7.3795302    204.31049  0.028188533   0.02916793            2 
  605000    1.1716309   -7.3737628    205.15877  0.028258784  0.029158651            1 
  606000     1.165152   -7.3985075    204.24765   0.02808686   0.02914944            2 
  607000    1.1607305   -7.3348847    205.65872  0.028234311  0.029140125            5 
  608000    1.1751889   -7.3766295    205.67236  0.028189743  0.029130271            2 
  609000    1.1415583   -7.3868601    205.77754  0.028157847  0.029119903            2 
  610000    1.1572575   -7.3216187    206.85135  0.028258381  0.029110369            5 
  611000    1.1569837   -7.3818662    206.56462  0.028173025  0.029100966            3 
  612000    1.1531308   -7.3917782    207.13306  0.028204393  0.029091875            2 
  613000     1.180166    -7.381869    208.08372  0.028287618  0.029083241            6 
  614000    1.1485167   -7.3834912     207.9308  0.028220793  0.029074315            2 
  615000     1.149339   -7.3473489    208.28685  0.028223151  0.029065299            1 
  616000    1.1564895   -7.3835969     208.1212  0.028154924  0.029056097            2 
  617000    1.1514061   -7.4189134    207.76979   0.02806183  0.029046269            1 
  618000    1.1698828   -7.3976348    208.11882  0.028063487  0.029036344            1 
  619000    1.1540685   -7.4097613    209.11317  0.028152016  0.029026666            1 
  620000    1.1627501   -7.3969337    207.79665  0.027929658  0.029016917            2 
  621000    1.1614352   -7.3258948     210.3259  0.028224087   0.02900745            2 
  622000    1.1335403   -7.3691438    210.04782  0.028141455  0.028998546            2 
  623000    1.1574006   -7.3867099    209.74821  0.028056208  0.028989003            2 
  624000    1.1471257   -7.3834949    210.20169  0.028071807  0.028979581            3 
  625000    1.1546511   -7.3880236    210.30824  0.028041098  0.028970332            2 
  626000    1.1368682   -7.3555435    211.11333  0.028103479  0.028960877            4 
  627000    1.1473386   -7.3859982    211.62483  0.028126639   0.02895127            2 
  628000    1.1746892   -7.3777354    211.37629  0.028048871  0.028941732            3 
  629000      1.16733   -7.3853175    211.48083  0.028018129  0.028931884            2 
  630000    1.1339748   -7.3915402    212.14777  0.028061875  0.028922667            3 
  631000    1.1564915   -7.3866249    211.89406  0.027983896  0.028913222            2 
  632000    1.1195632   -7.4150149     212.2091  0.027981158  0.028903778            1 
  633000     1.144727   -7.3711436    213.08867  0.028052747  0.028893951            1 
  634000    1.1456982   -7.4196465    212.43857   0.02792305  0.028883909            1 
  635000    1.1722536   -7.3768073    212.91881  0.027942101  0.028874093            3 
  636000    1.1454326   -7.3825937    212.87404  0.027892301  0.028864155            2 
  637000    1.1374161   -7.3699257    213.30645  0.027905082  0.028853856            1 
  638000    1.1548057   -7.3764457    214.14771  0.027971226  0.028843596            2 
  639000    1.1373794   -7.3224973    214.31185  0.027948859  0.028833645            2 
  640000    1.1689891   -7.4106195    213.78552  0.027836656   0.02882375            2 
  641000    1.1695619   -7.3495768    214.79563  0.027924549  0.028813796            1 
  642000    1.1596445   -7.4031369    214.94496  0.027900436  0.028804054            2 
  643000    1.1525835   -7.3794853    214.53087  0.027803378  0.028794122            2 
  644000     1.149307   -7.3534325    215.31211  0.027861298  0.028784633            3 
  645000    1.1407748   -7.4016123     215.5749  0.027852054  0.028774538            1 
  646000    1.1914735   -7.3803334    215.83901   0.02784301  0.028764314            4 
  647000      1.14653   -7.3834535     216.5452  0.027890933  0.028754383            2 
  648000    1.1458371   -7.3927612    217.36702  0.027953578  0.028744938            2 
  649000    1.1461379   -7.4309779     216.7764  0.027834669  0.028735397            1 
  650000    1.1215361   -7.4003535    217.28432  0.027856964  0.028725736            3 
  651000     1.154042   -7.4250772    218.17246  0.027927862  0.028716396            2 
  652000    1.1183759   -7.3874534    218.11105  0.027877179   0.02870708            1 
  653000    1.1396549   -7.3815512    217.95097   0.02781406  0.028697716            1 
  654000    1.1384407   -7.4027441    218.74171  0.027872288  0.028688187            2 
  655000    1.1698994   -7.3466251    218.77273  0.027833681  0.028679064            2 
  656000    1.1477634   -7.3804999    219.44514  0.027876669  0.028670307            3 
  657000    1.1267009   -7.4205544    220.13952  0.027922313  0.028661497            2 
  658000    1.1269063   -7.3976652    220.01942  0.027864669  0.028652577            1 
  659000    1.1453746   -7.3697808    219.43031   0.02774789  0.028643222            3 
  660000     1.140349   -7.3892433    220.10764  0.027791368  0.028634135            4 
  661000       1.1555   -7.3860448    220.53491  0.027803191  0.028625283            2 
  662000    1.1568983   -7.4206888    220.77665  0.027791623  0.028615943            1 
  663000    1.1438813   -7.3819225    220.86378  0.027760657  0.028606847            3 
  664000    1.1383041   -7.4277972    220.90914   0.02772454  0.028597423            1 
  665000    1.1659437   -7.3585189    221.69534  0.027781371  0.028587951            7 
  666000    1.1680627   -7.3301172    222.77986  0.027875357  0.028578817            2 
  667000    1.1595933   -7.3867657    222.50258  0.027798923  0.028569857            1 
  668000    1.1414804   -7.3932943    222.41166  0.027745966  0.028560751            2 
  669000    1.1329673   -7.4022079    222.64204  0.027733189  0.028551616            3 
  670000    1.1470534   -7.3858983    223.03236  0.027740343  0.028542319            4 
  671000    1.1355879   -7.4038093    223.24282  0.027725138  0.028533084            3 
  672000    1.1527665   -7.3358136    224.23113   0.02780644  0.028524418            2 
  673000    1.1598112    -7.390093    224.48192  0.027796176  0.028515761            3 
  674000     1.136742   -7.3557549    224.93749  0.027811262  0.028506857            3 
  675000    1.1436555   -7.3952109    224.66558  0.027736492  0.028498235            1 
  676000    1.1632956   -7.3354648    225.36577  0.027781776  0.028489367            2 
  677000    1.1387508   -7.3735193      225.948  0.027812408  0.028480744            4 
  678000     1.148786   -7.3670066    226.02234  0.027780524  0.028471691            4 
  679000      1.15402   -7.4286112      225.681  0.027697718  0.028462519            3 
  680000    1.1543849   -7.4330343    226.17318  0.027717302   0.02845277            3 
  681000    1.1466128   -7.4282361    225.26344  0.027565277  0.028443263            1 
  682000    1.1198545   -7.3719747    226.47799  0.027673264  0.028434304            2 
  683000    1.1337868   -7.3642951    226.99241  0.027695511  0.028425348            2 
  684000    1.1376491   -7.4133887    226.77844  0.027628952  0.028415861            3 
  685000    1.1295527   -7.4092821    226.79353  0.027590454  0.028406492            2 
  686000    1.1478297   -7.3923315    227.72679  0.027663604  0.028397094            3 
  687000     1.125656   -7.3778107    227.61554  0.027609842  0.028387655            1 
  688000    1.1517719   -7.3515374     227.9527   0.02761055  0.028378353            1 
  689000    1.1266238   -7.3569257    227.86251  0.027559568   0.02836904            2 
  690000    1.1291003   -7.4590465    227.58191  0.027485738  0.028359675            1 
  691000    1.1156675   -7.4051605    229.16879  0.027637335  0.028349882            1 
  692000    1.1178458   -7.4022846    229.55064  0.027643382  0.028340431            2 
  693000    1.1370149   -7.4158588    229.03853  0.027541911  0.028331244            1 
  694000    1.1357082   -7.4047398    229.35076  0.027539717  0.028322039            8 
  695000    1.1463325   -7.4547423    229.94839   0.02757175  0.028312625            4 
  696000    1.1345416   -7.4171266    229.55674  0.027485241  0.028303008            3 
  697000    1.1403902   -7.3998302    230.48484  0.027556771  0.028293729            2 
  698000    1.1515829   -7.3837373    230.81022  0.027556138  0.028284575            2 
  699000    1.1417543   -7.3773861    231.51306  0.027600508  0.028275539            5 
  700000    1.1398716   -7.3914478    230.48366  0.027438531  0.028266456            3 
  701000    1.1318703   -7.4253534    230.69266  0.027424235  0.028257023            2 
  702000    1.1652151   -7.3713823    231.64212  0.027497877  0.028247409            1 
  703000     1.140769   -7.3998367    231.91731  0.027491383  0.028237958            2 
  704000    1.1553646   -7.4582494    231.12251  0.027358251  0.028228237            3 
  705000    1.1391375   -7.4167999    232.15341  0.027441301  0.028218622            2 
  706000    1.1451167   -7.4133115    232.73239  0.027470774  0.028209361            3 
  707000    1.1309774   -7.4141494    232.58066  0.027414034   0.02819994            3 
  708000    1.1320181   -7.4266969    232.77177  0.027397807  0.028190476            1 
  709000     1.136213    -7.428066    232.93313   0.02737813   0.02818123            8 
  710000    1.1161597   -7.3969194     234.2168  0.027490235  0.028171541            2 
  711000    1.1266319   -7.3936409    233.27659  0.027341373  0.028161852            4 
  712000    1.1091124   -7.3710783    235.06083  0.027511801  0.028152128            2 
  713000    1.1359539   -7.4361248    233.53859  0.027295301  0.028142405            2 
  714000    1.1447926    -7.438939    234.09781   0.02732234  0.028132887            3 
  715000    1.1430762   -7.4086352    235.21433  0.027414257  0.028123737            2 
  716000    1.1390276    -7.401503    235.40113  0.027397711  0.028114749            3 
  717000    1.1315558   -7.4199586    236.09459  0.027440096  0.028105482            1 
  718000    1.1296056   -7.3817444    236.40497  0.027437903  0.028096727            3 
  719000    1.1320119   -7.3999295    236.41491  0.027400894  0.028087939            2 
  720000    1.1614865   -7.4023915    236.91125  0.027420284  0.028078497            2 
  721000    1.1452368    -7.416253    236.66542  0.027353839  0.028069668            4 
  722000    1.1445986   -7.4213764    236.96913  0.027351008  0.028059999            4 
  723000    1.1490839   -7.4201451    236.88303  0.027303254  0.028050606            4 
  724000    1.1535999   -7.4016311    237.01632  0.027280884  0.028041037            1 
  725000    1.1262322   -7.3974637    237.98024   0.02735405  0.028031334            2 
  726000    1.1372422   -7.4171524    237.94985  0.027312885  0.028021641            2 
  727000    1.1348679   -7.4147916      238.214  0.027305594  0.028012181            1 
  728000    1.1312572   -7.4184378    238.69373     0.027323  0.028002577            2 
  729000    1.1376661   -7.4623287    237.74874  0.027177497  0.027992952            3 
  730000    1.1255142   -7.4197666    239.45481  0.027335024  0.027983151            2 
  731000    1.1245728   -7.4565209    238.54897  0.027194365  0.027973543            3 
  732000    1.1646661   -7.3975822    240.09947  0.027333729  0.027964209            2 
  733000    1.1418165   -7.4443312    239.42732  0.027220023  0.027955096            3 
  734000    1.1311517   -7.4286541    240.03846  0.027252322  0.027946088            3 
  735000    1.1212931   -7.4069669     241.3019  0.027358493  0.027937198            2 
  736000    1.1469325   -7.4247482    240.87459  0.027272939   0.02792831            4 
  737000    1.1253131    -7.430902    240.50643  0.027194304  0.027919717            3 
  738000    1.1416823   -7.4338345    240.39973  0.027145408  0.027910653            4 
  739000    1.1164105   -7.4509955    240.49197  0.027119076   0.02790137            4 
  740000    1.1229389   -7.4488696     240.4893  0.027082129  0.027891592            2 
  741000    1.1409905   -7.4482175    242.14047  0.027231272  0.027882266            2 
  742000    1.1332801   -7.3983438    242.53306  0.027238663  0.027873254            2 
  743000    1.1509937   -7.3869366    242.60219  0.027209757  0.027864475            2 
  744000    1.1289209   -7.3871866    243.05045  0.027223393  0.027855496            4 
  745000    1.1377539   -7.4206956    242.56719  0.027132795  0.027846428            3 
  746000    1.1255653   -7.3872276    242.90879  0.027134584  0.027837318            1 
  747000    1.1647099   -7.3997587    243.70559  0.027187147  0.027828048            1 
  748000    1.1377281   -7.3936597    243.90131  0.027172606  0.027818952            2 
  749000    1.1308182   -7.4581049    243.04811    0.0270414  0.027809447            3 
  750000    1.1479948   -7.4498675    243.03417  0.027003797  0.027799683            4 
  751000    1.1512908   -7.4604521    243.43486  0.027012301  0.027790116            3 
  752000    1.1371124   -7.4046123    244.06273  0.027045959  0.027780244            2 
  753000    1.1256985   -7.4556311     244.6132  0.027070961  0.027770305            1 
  754000    1.0963202   -7.4652922    243.42496  0.026903731  0.027759879            1 
  755000    1.1109914   -7.4176658    243.53084  0.026879784   0.02774945            4 
  756000    1.1264222   -7.4537409    243.79025  0.026872823  0.027739141            2 
  757000    1.1250009   -7.4439537    244.06052  0.026867077  0.027728794            4 
  758000    1.1353824   -7.4157602    245.25764  0.026963241  0.027718718            4 
  759000    1.1173645   -7.4154078    245.17761  0.026918929  0.027708323            3 
  760000    1.1296376   -7.4392443     245.0618  0.026870811  0.027698093            5 
  761000    1.1164334   -7.4375081      245.429  0.026875712  0.027687712            4 
  762000    1.1481863    -7.440876    244.97299  0.026790572  0.027677065            2 
  763000    1.1117348   -7.4183689     245.9643  0.026863728  0.027666347            3 
  764000     1.120707   -7.4054066    246.20631  0.026854964  0.027655886            4 
  765000    1.1296323    -7.430343    246.33999  0.026834422  0.027645562            2 
  766000    1.1182154   -7.4277143    245.73186  0.026733232  0.027634995            6 
  767000    1.1425981   -7.4208069     247.0076  0.026836983  0.027624537            2 
  768000    1.1293135   -7.4377368    246.93931   0.02679463  0.027614277            1 
  769000    1.1705335   -7.4269686    247.42216  0.026812111  0.027604242            1 
  770000    1.1363319    -7.462139    247.28807  0.026762779  0.027593992            3 
  771000    1.1195082   -7.4146588     247.4964  0.026750584   0.02758396            6 
  772000    1.1300238    -7.425163    247.57789  0.026724729  0.027574262            3 
  773000    1.1394615    -7.390509    249.70197  0.026919142  0.027564678            3 
  774000     1.124963    -7.460136    249.16434   0.02682648  0.027554996            3 
  775000    1.1045084   -7.4106682    250.64992  0.026951604  0.027545539            3 
  776000    1.1093224   -7.4276289    249.64995  0.026809488  0.027535962            2 
  777000     1.110653   -7.4596582    249.30095  0.026737554  0.027526176            4 
  778000    1.1386266   -7.4730165    249.99744  0.026777789  0.027516401            2 
  779000    1.0983918   -7.4710537    250.11143  0.026755608  0.027506527            4 
  780000    1.1238133   -7.4014738    251.68252  0.026889158  0.027496897            1 
  781000    1.1328505   -7.4458144    251.49497  0.026834717  0.027487202            1 
  782000     1.124694   -7.4286181    251.53114  0.026804256  0.027477441            2 
  783000    1.1092517   -7.4854856    250.73838  0.026685651  0.027467623            3 
  784000     1.118131   -7.4397151    251.42913  0.026725035  0.027457522            2 
  785000    1.1694763   -7.4827515    250.72696   0.02661645  0.027447515            2 
  786000    1.1226564   -7.4539428    251.20858  0.026633649  0.027437775            1 
  787000    1.0891152   -7.4573017    252.29635  0.026714988  0.027427855            5 
  788000    1.1300593   -7.4804699    251.37284  0.026583422  0.027417612            2 
  789000    1.1394463   -7.4858366    250.83918  0.026493365  0.027407219            4 
  790000    1.1414116   -7.4441453     252.1321  0.026596213  0.027397014            1 
  791000    1.1337025   -7.4584545     252.4863  0.026599905   0.02738707            2 
  792000    1.1355694   -7.4347678    253.21075  0.026642545  0.027377286            1 
  793000    1.1339324   -7.4680223     253.2482  0.026612883  0.027367334            2 
  794000    1.0996108    -7.472909    253.19175  0.026573441  0.027357101            4 
  795000     1.147357   -7.4463004     253.8144  0.026605283  0.027347019            2 
  796000    1.1181161   -7.4465237     254.7864  0.026673618  0.027336939            3 
  797000    1.1202936   -7.4372075    254.57732  0.026618289  0.027327072            1 
  798000    1.1262032   -7.4544191    254.95725  0.026624608  0.027317209            1 
  799000    1.1393298   -7.4371656    254.64557  0.026558778  0.027307431            6 
  800000    1.1404117   -7.4613264    255.82826  0.026648777  0.027297707            2 
  801000    1.1283331    -7.498035     255.1334  0.026543217  0.027287939            2 
  802000    1.1232865    -7.461144    256.17877  0.026618741  0.027277868            2 
  803000    1.1326338   -7.4069398    256.51353  0.026620333  0.027268467            2 
  804000    1.1267806   -7.4818793    256.40067  0.026575526  0.027259043            1 
  805000    1.1080709   -7.4724334    257.03896  0.026608588  0.027249787            2 
  806000    1.1429517   -7.4699758    257.63831  0.026637542  0.027240562            3 
  807000    1.1573917   -7.4109526    257.90781  0.026632363  0.027231452            4 
  808000    1.1206688   -7.5139143    257.17537  0.026523863  0.027221908            2 
  809000    1.1512925   -7.4125167    258.77502  0.026655852  0.027212642            4 
  810000    1.1115137   -7.4550268    258.66589  0.026611717  0.027203594            1 
  811000    1.1063698   -7.4642505    258.49225  0.026561062  0.027194258            2 
  812000    1.1196743   -7.5121774    258.45474  0.026524501  0.027184721            7 
  813000    1.1130009   -7.4659882    258.81548  0.026528852  0.027175602            1 
  814000    1.1087138   -7.4595937    260.08302  0.026626026  0.027166554            2 
  815000    1.1190102   -7.4549887    259.61007  0.026544997  0.027157655            2 
  816000     1.110127   -7.4596098    259.76069  0.026527849  0.027148444            3 
  817000    1.1150892   -7.4667582     259.9463   0.02651431   0.02713936            1 
  818000    1.1003166   -7.4140754    260.08983  0.026496519  0.027130234            2 
  819000    1.1479969    -7.443329    261.05273  0.026562142  0.027121245            1 
  820000    1.1175626   -7.4293069       261.32   0.02655691  0.027112141            2 
  821000    1.1411858   -7.4288397    261.50151  0.026542987  0.027103079            2 
  822000    1.1098101    -7.427573    260.91618  0.026451357  0.027094027            3 
  823000    1.1272154   -7.4637767    261.41132  0.026469352  0.027085188            1 
  824000    1.1269611   -7.4728366    262.03179  0.026499979  0.027076129            2 
  825000    1.1178673   -7.4637097     262.5344  0.026518626  0.027067012            2 
  826000    1.1373106   -7.4760901    263.21186  0.026554869  0.027058337            3 
  827000    1.1124721   -7.4412438    263.16532  0.026518069  0.027049633            2 
  828000     1.113523   -7.4444771    263.76555  0.026546453  0.027040758            4 
  829000    1.1340999   -7.4952141    263.03626   0.02644112  0.027032031            1 
  830000     1.140059   -7.5026674    263.73431  0.026479348  0.027023335            1 
  831000    1.1247586   -7.4964156    264.05053  0.026479195  0.027014852            3 
  832000     1.132266   -7.4870885     264.8648  0.026528926  0.027006264            3 
  833000    1.1440841   -7.5407757    263.34386  0.026344924  0.026997801            3 
  834000    1.1152509   -7.4549288    265.43978   0.02652276  0.026989299            3 
  835000    1.1325794   -7.4784375    265.72705  0.026519665  0.026980959            3 
  836000    1.1167045   -7.4554292    265.15348  0.026430769  0.026972252            3 
  837000    1.0855036   -7.4256614    265.80252  0.026463812  0.026963566            6 
  838000    1.1183525    -7.484085    265.75709  0.026427714  0.026954947            3 
  839000    1.1177141   -7.4506781    266.95164  0.026514863  0.026946382            1 
  840000    1.1092641   -7.4523321    267.46985  0.026534708  0.026938172            2 
  841000    1.1263344    -7.468064    267.63207   0.02651923  0.026930035            3 
  842000    1.1360192   -7.4405812    268.49544  0.026573183  0.026921978            2 
  843000    1.1074958   -7.4388629    267.57398  0.026450571  0.026913771            3 
  844000    1.1253516   -7.4279425    268.75329  0.026535672   0.02690571            1 
  845000    1.1191015   -7.4618742    268.54879  0.026484102  0.026897819            1 
  846000    1.1134725   -7.5053358    268.25527  0.026423884  0.026889479            1 
  847000    1.1375509   -7.4142774    269.40655  0.026505957  0.026881536            2 
  848000    1.1076249   -7.4439337    269.15435  0.026449917  0.026873831            1 
  849000     1.129765   -7.4711494    269.65348  0.026467754  0.026866036            3 
  850000    1.1246917   -7.4676036    269.87245  0.026458083  0.026858286            2 
  851000    1.1125469   -7.4923921    269.26096  0.026367113  0.026850528            3 
  852000    1.1128941   -7.5118261    270.48368  0.026455759  0.026842935            1 
  853000    1.1112801   -7.4871359     270.4823   0.02642461  0.026835309            1 
  854000    1.1283711    -7.445585    271.59796  0.026502533  0.026827675            4 
  855000    1.1054509   -7.5081407    270.07853  0.026323443  0.026819963            2 
  856000    1.1205469   -7.5020901    271.05427  0.026387682   0.02681203            4 
  857000    1.0985076   -7.4842193    271.56127  0.026406191  0.026804239            5 
  858000     1.121095   -7.4968452    271.95457  0.026413614  0.026796387            1 
  859000    1.1226139   -7.4691786    272.42344  0.026428351  0.026788282            4 
  860000    1.1282627   -7.4849349    271.78585  0.026335838   0.02678058            6 
  861000    1.1086663   -7.4308672    273.51496  0.026472605  0.026772661            1 
  862000    1.1213203   -7.4466945    272.86964  0.026379509   0.02676472            1 
  863000    1.1124308   -7.4410181    273.06875  0.026368168  0.026757111            4 
  864000    1.1062793   -7.4669206    274.03159  0.026430516  0.026749772            2 
  865000    1.1169082   -7.4846965    274.45501  0.026440752  0.026742175            1 
  866000    1.1305275   -7.4859268    274.28598  0.026393955  0.026734384            2 
  867000    1.1297855   -7.5076625    274.16463  0.026351848  0.026726401            1 
  868000    1.0990269   -7.4583118    274.65022  0.026368108  0.026718543            2 
  869000    1.1179956    -7.477923    274.17693  0.026292379  0.026710821            5 
  870000    1.1239238   -7.4843978    275.15436  0.026355781  0.026702888            2 
  871000    1.1087397   -7.4835241     274.6849  0.026280606  0.026694895            4 
  872000     1.116459   -7.5320569    275.01399  0.026281918  0.026686993            2 
  873000    1.1032595   -7.5132217    274.57206  0.026209628  0.026678831            2 
  874000    1.1176848   -7.5091363    275.66633  0.026283975  0.026670784            4 
  875000      1.14019   -7.4732718    275.40205  0.026228767  0.026662714            2 
  876000    1.1117734   -7.4628863    276.69267  0.026321601  0.026654982            2 
  877000    1.1115608   -7.4491267    276.19158  0.026243973  0.026647138            1 
  878000     1.133956   -7.5047249     276.1013  0.026205515  0.026639208            2 
  879000    1.1016525   -7.4892395    277.45832  0.026304354  0.026631075            4 
  880000    1.1044417   -7.4690047     277.4016  0.026269091  0.026623413            7 
  881000    1.0943749   -7.4639186     277.5143  0.026249934  0.026615411            2 
  882000    1.0994963   -7.4991915     276.8119  0.026153808  0.026607164            4 
  883000    1.1213626     -7.53406    277.47565   0.02618683  0.026598908            3 
  884000    1.1032664   -7.4834374     277.7686  0.026184823  0.026590603            6 
  885000    1.1220283   -7.5213166    277.54475  0.026134157  0.026582463            5 
  886000    1.1257538   -7.4810407    278.63952   0.02620763  0.026574422            2 
  887000    1.1105712    -7.491456    278.88683  0.026201318  0.026566559            2 
  888000    1.1068498    -7.527545    278.41476  0.026127511  0.026558617            2 
  889000    1.0975084   -7.5020643     279.1439   0.02616647  0.026550399            1 
  890000    1.1160547   -7.4849549    279.17534  0.026140013  0.026542458            2 
  891000    1.1150822   -7.4370535    280.63113  0.026246832  0.026534677            2 
  892000    1.1163178     -7.46268    280.16669  0.026174018  0.026526804            3 
  893000    1.1217094   -7.4847681    279.96445  0.026125835  0.026518718            2 
  894000    1.1285768   -7.4902995    280.71651  0.026166714  0.026510661            2 
  895000    1.1201551   -7.4733566    280.79065  0.026144381  0.026502704            2 
  896000     1.113866   -7.5019866    280.01822  0.026043361  0.026494614            4 
  897000    1.0705142   -7.4639076    281.16412  0.026120784  0.026486546            4 
  898000    1.1041435   -7.4982812    281.12676  0.026088229   0.02647841            1 
  899000    1.1180472   -7.4736466    280.76791  0.026025946  0.026470243            1 
  900000    1.1038438   -7.4600193    281.37309  0.026053064  0.026461953            2 
  901000    1.0975643   -7.5043934    280.93638  0.025983757  0.026453611            2 
  902000    1.1189015   -7.4795112    280.89513  0.025951139  0.026445129            2 
  903000    1.1059067   -7.5058351    281.16694  0.025947484  0.026436685            1 
  904000    1.1120692   -7.5333927     280.7386  0.025879295  0.026428089            4 
  905000    1.1118614   -7.5168543    281.54198  0.025924676  0.026419198            1 
  906000    1.1200291   -7.4857576    281.74421  0.025914662  0.026410591            2 
  907000    1.1078054    -7.487053    282.26174   0.02593364  0.026401976            2 
  908000    1.1139424   -7.5192418    281.53121  0.025838033  0.026393104            3 
  909000    1.1608102   -7.5000512    282.39286  0.025888601  0.026384017            1 
  910000    1.1017462   -7.5046589    282.19755  0.025842266  0.026374922            1 
  911000    1.1129721   -7.4813419    282.95302  0.025883006  0.026366049            2 
  912000    1.0781291   -7.4773222    283.71554    0.0259243  0.026357384            3 
  913000    1.0953087   -7.4760208    283.00276  0.025830847  0.026348436            3 
  914000    1.1021023    -7.450536    285.82599  0.026059992  0.026339947            1 
  915000    1.0867944   -7.4689589    284.42595  0.025904002  0.026331903            1 
  916000     1.131772   -7.4907664    285.44914  0.025968809  0.026323771            6 
  917000    1.0851183   -7.4916505    285.64933  0.025958681  0.026315576            2 
  918000     1.086762   -7.4633347    286.41583  0.025999984  0.026307543            4 
  919000    1.0756514   -7.4976763     286.4143  0.025971554  0.026299639            3 
  920000    1.0890512   -7.5074371     286.3855  0.025940715   0.02629171            2 
  921000    1.0690752   -7.5401119    284.82385   0.02577125  0.026283507            3 
  922000    1.0965828   -7.4717248    286.79736   0.02592167  0.026275097            2 
  923000     1.127216   -7.4756204    287.16076  0.025926395  0.026267032            2 
  924000     1.099081   -7.5298549    286.90191  0.025874992  0.026258738            2 
  925000       1.0911   -7.5209319    287.36458  0.025888701  0.026250597            2 
  926000    1.1252019   -7.4966842    287.85186  0.025904595  0.026242497            4 
  927000    1.0796447   -7.4802624    287.51023   0.02584594  0.026234432            1 
  928000    1.0993115   -7.4888728    288.20013   0.02588004  0.026226284            2 
  929000    1.0936471   -7.5094819     287.0838  0.025752045  0.026218109            6 
  930000    1.1222479   -7.4548555    289.28862  0.025921919  0.026210085            1 
  931000    1.0885045   -7.4854826    289.05666  0.025873314  0.026202227            2 
  932000    1.1191109   -7.5286065    288.52531  0.025798043  0.026194138            2 
  933000    1.0735748    -7.517767    288.07824  0.025730461  0.026185983            1 
  934000     1.091575   -7.4876155    289.48187  0.025828147  0.026177886            2 
  935000    1.0890008   -7.4989595    289.37759  0.025791229   0.02616988            1 
  936000    1.1193107   -7.4972221    289.17776  0.025745883  0.026161759            2 
  937000    1.1108862   -7.5220744    288.87974  0.025691902  0.026153553            2 
  938000    1.0892692   -7.4775972    290.89322  0.025843392  0.026145782            2 
  939000    1.1061626   -7.4987236    290.80544  0.025808079  0.026138008            4 
  940000    1.0974352   -7.5087174    290.77969  0.025778342  0.026130175            4 
  941000    1.1065788   -7.5234323    291.06825  0.025776501  0.026122247            1 
  942000    1.1041308   -7.5054273    292.02812  0.025834052  0.026114469            2 
  943000    1.1287816   -7.4584497    291.69786  0.025777471  0.026106585            6 
  944000    1.0975552   -7.5358018     291.7263  0.025752675  0.026098922            2 
  945000    1.1045472   -7.4814509    292.84805  0.025824343  0.026091175            1 
  946000      1.08653   -7.5122477    292.10327  0.025731437  0.026083639           11 
  947000    1.0866848   -7.4987917    292.97468  0.025780947  0.026076019            6 
  948000    1.0992549   -7.4767896    293.19058   0.02577273  0.026068237            3 
  949000      1.08426   -7.4993071    294.13336   0.02582836  0.026060625            2 
  950000    1.1054344   -7.5760401      292.391  0.025648333  0.026052989            2 
  951000    1.0952226   -7.4984611    293.75141  0.025740572  0.026045043            2 
  952000    1.1174315   -7.5242161    293.85275  0.025722405    0.0260373            3 
  953000    1.0940073   -7.5464536    293.27118  0.025644559  0.026029477            3 
  954000    1.1017612   -7.5315108    294.02996  0.025683959  0.026021839            6 
  955000    1.0927193   -7.4778404    294.66117  0.025712144  0.026014354            2 
  956000    1.1121513   -7.4795314     294.9616  0.025711437  0.026006987            4 
  957000    1.0837402   -7.5515626    293.99505  0.025600405  0.025999411            1 
  958000     1.105906   -7.5187934    295.65973  0.025718487  0.025991801            2 
  959000    1.0877131     -7.49347    295.73769  0.025698444  0.025984455            1 
  960000    1.1059595   -7.5168566    296.01449  0.025695702   0.02597721            4 
  961000    1.1067367   -7.5285155    296.48781  0.025710008  0.025970042            3 
  962000    1.1101334   -7.5227287    296.45732  0.025680641  0.025962585            3 
  963000    1.0986812   -7.5177049     297.3932   0.02573496  0.025955372            2 
  964000    1.1148472   -7.5070865    297.47052  0.025714948  0.025947895            2 
  965000    1.0944233   -7.4728977    297.52332   0.02569286  0.025940461            2 
  966000    1.0880098   -7.5102331    296.89988  0.025612481  0.025933121            2 
  967000     1.106359   -7.5021184    297.70269  0.025655178  0.025925622            2 
  968000    1.1067511   -7.5651712    297.62249  0.025621771  0.025918116            2 
  969000    1.1096761   -7.5439295    297.83865  0.025613919  0.025910446            2 
  970000    1.0888763   -7.5161642    298.61386  0.025654111  0.025902888            4 
  971000    1.0997722   -7.5596507     297.5918  0.025539976  0.025895113            3 
  972000    1.0809341   -7.5674718    297.27802  0.025486799  0.025887037            4 
  973000    1.1171005   -7.5798979    298.10999  0.025531859  0.025879275            2 
  974000    1.0956322   -7.5135855    298.36885  0.025527794  0.025871546            1 
  975000    1.0864972   -7.5000886    298.83858  0.025541759  0.025863835            2 
  976000    1.0798811   -7.5472235    299.04068  0.025532845  0.025855975            1 
  977000    1.0747853   -7.4645917    301.19698  0.025690633  0.025848191            4 
  978000     1.093354   -7.5137941    298.89501  0.025468218  0.025840497            3 
  979000    1.1011676   -7.5050373    300.00139   0.02553638  0.025832735            3 
  980000    1.0893471   -7.5469538    299.75642  0.025489491  0.025824954            2 
  981000    1.0995284   -7.5011722    301.55722  0.025616482  0.025817348            2 
  982000    1.0857063   -7.4669728    300.74505  0.025521474  0.025809881            1 
  983000     1.112734   -7.4614983    300.76363  0.025497087  0.025802146            3 
  984000    1.1001641   -7.5130003    301.29316  0.025516019  0.025794389            2 
  985000    1.1217014   -7.5169881     300.7248   0.02544203  0.025786422            1 
  986000    1.1010666    -7.564575    299.85422  0.025342649  0.025778292            2 
  987000    1.0869838   -7.5738645    299.93042  0.025323406  0.025770119            3 
  988000    1.0903506   -7.5016679    301.16607  0.025401996   0.02576201            4 
  989000    1.0943176   -7.5171682    300.95845  0.025358818  0.025754174            3 
  990000    1.0939015   -7.5316742    302.26444  0.025443135  0.025746239            2 
  991000    1.1032765   -7.5305028    302.15988  0.025408668   0.02573846            5 
  992000    1.1101248   -7.5441076    302.78868  0.025435877  0.025730644            4 
  993000    1.0979317   -7.5138842    302.43384  0.025380483  0.025722911            4 
  994000    1.0964454   -7.5247443    303.12978  0.025413295  0.025714769            3 
  995000     1.086599   -7.5526946    302.80077  0.025360198  0.025706877            2 
  996000    1.1034419   -7.5574486    302.75796  0.025331155  0.025698913            3 
  997000    1.0839552   -7.5656294    302.39187  0.025275148  0.025690855            5 
  998000    1.1241883   -7.5079227    304.39728  0.025417275  0.025683004            1 
  999000    1.0648111   -7.5127808    304.25189  0.025379704  0.025675247            5 
 1000000    1.0791184   -7.5379159    304.17515  0.025347929  0.025667349            1 
 1001000    1.0907655   -7.5394565     304.8883  0.025381976  0.025659607            3 
 1002000    1.0794395   -7.5100854    304.96078  0.025362673  0.025651841            3 
 1003000    1.1142504   -7.5348677    304.60906  0.025308164  0.025644278            2 
 1004000     1.075856   -7.5297056    305.18351  0.025330636   0.02563635            2 
 1005000    1.0781424   -7.5507226    305.23496  0.025309698  0.025628465            2 
 1006000    1.1080752    -7.583106    305.12733  0.025275624  0.025620614            4 
 1007000    1.0932222   -7.5417907    305.39099  0.025272343  0.025612573            2 
 1008000     1.109541   -7.5476681    304.98426  0.025213646  0.025604704            4 
 1009000     1.088504   -7.5238038    307.00983  0.025355949  0.025597063            3 
 1010000    1.1144038    -7.556233    305.86493  0.025236381  0.025589181            2 
 1011000    1.0875074   -7.5584256    307.09941  0.025313173  0.025581303            2 
 1012000     1.105121    -7.561424     306.5828  0.025245619  0.025573291            3 
 1013000    1.1048078   -7.5267562    306.41975  0.025207284  0.025565331            1 
 1014000    1.0891948   -7.5289375    308.39592  0.025344833  0.025557451            2 
 1015000    1.0996317   -7.5532355    307.25551  0.025226232  0.025549632            3 
 1016000    1.0930009   -7.5384934    307.41773  0.025214709  0.025541858            2 
 1017000    1.0830771   -7.5946416    307.34969   0.02518434  0.025533889            4 
 1018000    1.1018272   -7.5958629    307.41593  0.025165024  0.025525911            2 
 1019000    1.0907697   -7.5168479    309.10551  0.025278501  0.025518131            1 
 1020000    1.0777503   -7.5489691    308.52756    0.0252065   0.02551025            5 
 1021000    1.0873135   -7.5377207     309.1889   0.02523579  0.025502544            3 
 1022000    1.0958161   -7.5394658    309.26566  0.025217356  0.025494824            3 
 1023000    1.0608308    -7.567859    309.08303  0.025177829  0.025487073            3 
 1024000    1.0903297   -7.5214542    309.19629  0.025162458  0.025479375            2 
 1025000    1.0932709   -7.5412556    309.77759   0.02518517  0.025471476            2 
 1026000    1.1025519   -7.4844446    310.41914  0.025212731  0.025463787            2 
 1027000    1.0808218   -7.5307911    309.95531  0.025150544  0.025456006            3 
 1028000    1.1207187   -7.5560513    310.57498  0.025176312  0.025448315            2 
 1029000    1.1031702   -7.5496888     310.1827  0.025120076  0.025440452            2 
 1030000    1.1030401   -7.5265146    310.15884  0.025093757  0.025432459            2 
 1031000    1.0852269   -7.5222935    311.69745   0.02519378  0.025424467            4 
 1032000    1.0948094   -7.5748095    310.53388   0.02507541  0.025416578            2 
 1033000    1.0998483   -7.5616633     311.5954   0.02513677  0.025408712            4 
 1034000    1.0900212   -7.5547182    311.11864  0.025074036  0.025400996            1 
 1035000    1.0709363   -7.5418497    312.75743  0.025181757  0.025393259            1 
 1036000    1.0767292   -7.5433428    311.99583   0.02509619  0.025385704            2 
 1037000    1.0811812   -7.5913538    311.19236  0.025007422  0.025377932            3 
 1038000    1.0965595   -7.6167618    312.08027  0.025054613  0.025370118            2 
 1039000     1.083481   -7.5393096    312.49994  0.025064159  0.025362155            5 
 1040000    1.0864744    -7.539473    312.50348  0.025040343  0.025354211            2 
 1041000    1.0950684   -7.5269918    311.70055  0.024952013  0.025346234            3 
 1042000    1.0959597   -7.5585559      311.741  0.024931302  0.025338221            4 
 1043000    1.0709998   -7.5703751    311.76774  0.024909535  0.025329969            2 
 1044000    1.0662456   -7.5754438    311.76199  0.024885217  0.025321487            4 
 1045000    1.0740835   -7.5979327     312.7697  0.024941762  0.025313041            4 
 1046000    1.0705126   -7.5397589    312.61668  0.024905727  0.025304682            3 
 1047000    1.0975008   -7.5589642    312.94467  0.024908045   0.02529638            2 
 1048000     1.083237   -7.5483025    314.22405  0.024986009  0.025288285            1 
 1049000    1.0901643    -7.530375    313.91553  0.024937681  0.025280343            4 
 1050000    1.0854561   -7.5895108    314.02529  0.024922642  0.025272401            4 
 1051000    1.0755553   -7.5112026    315.13642   0.02498703   0.02526446            3 
 1052000    1.0763503   -7.5293654    314.61779  0.024922195  0.025256541           11 
 1053000    1.0855284   -7.5770156     314.8876   0.02491988  0.025248525            3 
 1054000    1.0892791   -7.5343975    315.85018  0.024972342  0.025240573            4 
 1055000    1.0612946   -7.5534046    316.00111  0.024960593   0.02523269            7 
 1056000    1.0735126   -7.5381859    316.42982  0.024970787  0.025224769            3 
 1057000    1.0630612   -7.5990723    314.03784  0.024758581  0.025216765            1 
 1058000    1.0762101   -7.5683979    316.91415  0.024961732  0.025208929            1 
 1059000    1.0679471   -7.5438323    316.88921  0.024936199  0.025201256            2 
 1060000    1.0955376   -7.5929971    315.72306  0.024820995  0.025193272            1 
 1061000    1.0596355   -7.6088857    315.82694   0.02480576  0.025185147            3 
 1062000    1.0822558   -7.5467582    317.24251   0.02489348  0.025177349            2 
 1063000    1.0723189   -7.5598419    317.54325  0.024893638  0.025169469            2 
 1064000    1.0973625   -7.5492387    317.18809  0.024842425  0.025161731            4 
 1065000     1.074205   -7.5573146    318.29217  0.024905491  0.025154072            2 
 1066000    1.0711369   -7.5614262    317.96891  0.024856856  0.025146221            3 
 1067000    1.0934664    -7.553517    318.47233  0.024872878   0.02513845            3 
 1068000     1.082508   -7.5229965    320.21882  0.024985863  0.025130839            1 
 1069000    1.0718713   -7.5259084    319.94027  0.024940775  0.025123094            2 
 1070000     1.066909   -7.5929987    319.04963  0.024848102  0.025115236            2 
 1071000    1.0675122    -7.515512    319.09631  0.024828533  0.025107446            2 
 1072000    1.0989108   -7.5542982    319.90891  0.024868541  0.025099969            2 
 1073000    1.0767525   -7.5487428    319.38438  0.024804627  0.025092311            3 
 1074000     1.077739   -7.5695028    320.14871  0.024840837  0.025084779            1 
 1075000    1.0890957   -7.6002774    320.34034  0.024832585   0.02507735            4 
 1076000    1.0669825   -7.5772541    320.33037  0.024808734  0.025069611            6 
 1077000    1.0895147   -7.5758243    320.89044  0.024829035  0.025061982            2 
 1078000    1.1138097   -7.5555858    320.83005  0.024801333  0.025054272            1 
 1079000     1.069006    -7.580142    320.88199   0.02478236  0.025046745            2 
 1080000    1.0806956   -7.5497402    320.94398  0.024764196  0.025039312            2 
 1081000    1.0937609    -7.581571    321.63903  0.024794868  0.025031997            2 
 1082000    1.1067163   -7.5400064    322.60079  0.024846025  0.025024727            2 
 1083000    1.0934842   -7.5771262     322.1535  0.024788666  0.025017381            1 
 1084000    1.0791836   -7.5726949    323.65882  0.024881521  0.025010012            2 
 1085000    1.0844762    -7.555478    321.75762  0.024712566  0.025002576            2 
 1086000    1.0903983   -7.5602505    323.17711  0.024798735  0.024995254            3 
 1087000    1.0881898   -7.5540243     323.1015  0.024770124  0.024987885            1 
 1088000    1.0773654   -7.5602463    323.54994  0.024781705  0.024980456            2 
 1089000    1.1053678   -7.5804141    323.91032  0.024786526  0.024973055            4 
 1090000    1.0518007   -7.5846895    323.48708  0.024731428  0.024965639            5 
 1091000     1.085032   -7.5626877    323.09128  0.024678527  0.024958385            2 
 1092000    1.0919073   -7.6079058    323.13796   0.02465949  0.024951001            4 
 1093000    1.0587634   -7.5411139    324.64408  0.024751759   0.02494346            2 
 1094000     1.091217   -7.5715571    324.16312  0.024692499  0.024935923            3 
 1095000    1.0738797   -7.5891834    324.57143  0.024701022  0.024928449            5 
 1096000    1.0819586   -7.5857507    324.57203  0.024678531  0.024920911            3 
 1097000    1.0823889   -7.5860432    325.13718  0.024698965  0.024913409            2 
 1098000    1.0841902   -7.5612815    325.60677  0.024712111  0.024906049            4 
 1099000    1.1048606   -7.6037877    324.44791  0.024601753  0.024898579            1 
 1100000    1.0938293   -7.5699003    325.11206  0.024629702  0.024891237            3 
 1101000    1.0592297   -7.5619672    325.97964  0.024672998  0.024883887            2 
 1102000    1.0641256   -7.5777747    326.00285  0.024652363   0.02487641            1 
 1103000    1.0866608   -7.5372304    327.24852  0.024724125  0.024869177            2 
 1104000    1.0627812   -7.5306597    327.41388  0.024714212  0.024861998            3 
 1105000    1.0734813   -7.6188103    327.46143  0.024695432  0.024854671            5 
 1106000    1.0802283   -7.5855809     326.0497  0.024566735  0.024847221            2 
 1107000    1.0769013   -7.5751419    326.94148  0.024611674  0.024839886            4 
 1108000    1.0631765   -7.6068475    327.23088  0.024611227  0.024832368            5 
 1109000    1.0664127   -7.5987436    326.88011  0.024562677  0.024824856            1 
 1110000    1.0783179   -7.5514526    327.88065  0.024615665  0.024817316            3 
 1111000    1.0860511   -7.5491486     328.3182  0.024626328  0.024809888            4 
 1112000    1.0893505   -7.5645308    328.57601  0.024623502  0.024802479            6 
 1113000    1.0902412   -7.5784457    328.30514  0.024581098  0.024795078            2 
 1114000    1.0954684   -7.5846149    327.48148  0.024497418  0.024787847            5 
 1115000    1.0679928   -7.5741574    329.41732  0.024620128  0.024780653            2 
 1116000    1.1019614   -7.5906273    329.08115  0.024572966  0.024773247            1 
 1117000      1.05012    -7.609251    329.08809  0.024551484  0.024765806            4 
 1118000    1.1008085   -7.5243885    331.11701  0.024680755  0.024758633            1 
 1119000    1.0855145   -7.5833021    329.82665  0.024562604  0.024751458            7 
 1120000    1.0523862   -7.6001722    329.95476  0.024550205  0.024744094            4 
 1121000     1.059261   -7.5824752     330.1579  0.024543406  0.024736909            3 
 1122000    1.0718317   -7.5967807    330.74611  0.024565219  0.024729526            2 
 1123000    1.0804131   -7.5305521    331.06706  0.024567161  0.024722298            3 
 1124000    1.0610034   -7.5437603    331.06218  0.024544942  0.024715031            3 
 1125000    1.0482435   -7.5947582    330.91652  0.024512335  0.024707699            6 
 1126000    1.0911199   -7.5628286    332.37235  0.024598309  0.024700402            2 
 1127000    1.0614597   -7.5748536    332.06266  0.024553583  0.024693284            2 
 1128000    1.0641277   -7.6020933    331.99236  0.024526623  0.024686255            4 
 1129000    1.0791948   -7.5574894    333.17689   0.02459233  0.024679297            3 
 1130000    1.0835079   -7.5835808    333.56878  0.024599468  0.024672319            2 
 1131000    1.0711947   -7.5908505    333.45114   0.02456905   0.02466543            2 
 1132000     1.071441   -7.5868667    333.42651  0.024545532  0.024658375            5 
 1133000    1.0593496   -7.5668226    334.08391  0.024572221  0.024651344            3 
 1134000    1.0785278   -7.5862478     333.4743  0.024505754  0.024644502            3 
 1135000    1.0909006    -7.601336    333.90197  0.024515563  0.024637559            4 
 1136000    1.0692308   -7.5816212    333.64227  0.024474932  0.024630504            2 
 1137000    1.0898966   -7.5809754    334.94511  0.024548894  0.024623528            4 
 1138000    1.0645406   -7.5971161    334.51145  0.024495566  0.024616841            3 
 1139000    1.0744012   -7.5925059     335.8443  0.024571576  0.024610042            2 
 1140000    1.0736269    -7.565459    336.46324  0.024595266  0.024603208            2 
 1141000     1.064883   -7.5682075    335.22059  0.024482952  0.024596359            1 
 1142000    1.0758884   -7.5636571    335.84764  0.024507271  0.024589372            3 
 1143000    1.0782674   -7.5732879    334.38888  0.024379475  0.024582258            6 
 1144000    1.0917726   -7.6037722    335.53851  0.024441908  0.024575156            3 
 1145000    1.0477057   -7.5931094    335.69707  0.024432101  0.024567974            4 
 1146000    1.0906588   -7.5981815    334.54984  0.024327359   0.02456071            1 
 1147000    1.0618949   -7.6355019    334.97752  0.024337222  0.024553345            2 
 1148000    1.0806581   -7.6276627    335.40617  0.024347138  0.024545855            2 
 1149000    1.0920953   -7.6128547    334.72624  0.024276634  0.024538512            5 
 1150000       1.0761   -7.5430706    335.89269   0.02434005  0.024531086            3 
 1151000    1.0647437   -7.5975561    335.60521   0.02429809  0.024523852            4 
 1152000    1.0849255   -7.6049827    335.78427   0.02428995  0.024516448            2 
 1153000    1.0608918   -7.5948108    336.32203   0.02430775  0.024509134            3 
 1154000    1.0667452   -7.5792448    336.96394   0.02433304  0.024501873            5 
 1155000    1.0537942   -7.5601381    337.67637  0.024363374  0.024494738            3 
 1156000     1.056269   -7.6057797    337.26323  0.024312517  0.024487579            2 
 1157000    1.0672408    -7.570581    338.90247   0.02440957   0.02448057            2 
 1158000    1.0738132    -7.633791    338.05979  0.024327849  0.024473497            3 
 1159000    1.0693226   -7.5984555     338.7021  0.024353042  0.024466394            4 
 1160000     1.080768    -7.629214    337.87688  0.024272765  0.024459232            3 
 1161000    1.0626141   -7.6547806    337.67196  0.024237149  0.024451953            5 
 1162000    1.0646015    -7.624242    339.04983  0.024315105  0.024444605            3 
 1163000    1.1030754   -7.5924904     339.0147  0.024291681  0.024437362            4 
 1164000    1.0523374   -7.6439599    338.10684  0.024205816  0.024430372            3 
 1165000    1.0552294    -7.579823     338.8307  0.024236817  0.024423119            3 
 1166000    1.0609378   -7.6359873    338.42148  0.024186784  0.024415825            1 
 1167000    1.0562284   -7.5952015    338.89856  0.024200126  0.024408638            2 
 1168000    1.0731696    -7.546121    339.42871  0.024217231  0.024401398            2 
 1169000    1.0551472    -7.589466    340.23765  0.024254181  0.024394213            5 
 1170000     1.070164   -7.6207946    338.67336  0.024122034  0.024386808            2 
 1171000     1.057083   -7.6123738    339.89334  0.024188253  0.024379419            2 
 1172000    1.0621514   -7.5730119    340.15567  0.024186268  0.024372055            2 
 1173000    1.0959377   -7.6347945    339.70004  0.024133279  0.024364609            4 
 1174000    1.0602263   -7.6509452    339.59389  0.024105188  0.024357051            2 
 1175000     1.045552   -7.6651297     339.6562  0.024089092  0.024349406            1 
 1176000    1.0761163   -7.6473975    340.32423  0.024115946  0.024341849            2 
 1177000    1.0704332   -7.6129053    340.78723  0.024128238  0.024334464            3 
 1178000    1.0493578   -7.6338339    340.98411  0.024121683  0.024326957            3 
 1179000    1.0596471    -7.658519    340.87601  0.024093582  0.024319387            3 
 1180000    1.0491122    -7.605689    341.36289  0.024107549  0.024311828            2 
 1181000    1.0903297   -7.6001957    341.93423  0.024127451  0.024304359            5 
 1182000    1.0609394    -7.638508    341.39067  0.024068716  0.024296743            3 
 1183000    1.0411507   -7.6727078    341.16374  0.024032386  0.024289147           10 
 1184000    1.0571085    -7.628841    340.93099  0.023995706  0.024281419            4 
 1185000    1.0674933   -7.6062685    341.30259  0.024001589  0.024273806            2 
 1186000    1.0525187   -7.6255362    340.93705  0.023955667  0.024266104            1 
 1187000    1.0721199   -7.6196525    342.03358  0.024012467  0.024258555            9 
 1188000    1.0678501     -7.61894    341.80957  0.023976541  0.024250916            3 
 1189000    1.0521264   -7.6372475     342.9079  0.024033355  0.024243291            3 
 1190000    1.0733531   -7.6035926    343.57186  0.024059654  0.024235785            1 
 1191000    1.0708615   -7.5658584    343.28082  0.024019089  0.024228299            4 
 1192000    1.0600832   -7.6141644    343.70446  0.024028556  0.024220845            5 
 1193000    1.0628461   -7.6402816    343.02474  0.023960935  0.024213404            1 
 1194000    1.0594826   -7.6550775    343.27245  0.023958155   0.02420604            3 
 1195000     1.074929   -7.6168285    343.91147  0.023982669  0.024198688            3 
 1196000    1.0507118   -7.6050974    345.16411  0.024049896  0.024191355            2 
 1197000    1.0524497   -7.5616802    345.82934  0.024076117  0.024184151            5 
 1198000    1.0479314   -7.6328199    345.76458  0.024051515  0.024177041            2 
 1199000    1.0607757   -7.6239542    344.78531  0.023963394   0.02416972            2 
 1200000    1.0509194   -7.5998234    346.01092  0.024028536  0.024162385            1 
 1201000    1.0702651   -7.6047966    346.36412  0.024033037  0.024155198            2 
 1202000    1.0618469   -7.6399373    346.08139  0.023993441  0.024147881            1 
 1203000    1.0709855   -7.6419306    346.78143  0.024021989  0.024140493            2 
 1204000    1.0774177   -7.6344587    344.86885   0.02386966  0.024133047            3 
 1205000    1.0785598   -7.5916844    346.29211  0.023948279  0.024125605            1 
 1206000    1.0643988   -7.6312069    347.66911  0.024023571  0.024118192            4 
 1207000    1.0519283   -7.6132691    347.41752  0.023986296  0.024110916            4 
 1208000     1.054186   -7.6051373    347.24986  0.023954874  0.024103716            5 
 1209000    1.0230291   -7.6104814    346.83655  0.023906572  0.024096519            4 
 1210000    1.0323356   -7.6633915    346.37096  0.023854749  0.024089131            6 
 1211000    1.0610106   -7.5991014    348.00295  0.023947354  0.024081904            5 
 1212000    1.0653895   -7.6310218    347.78887  0.023912876  0.024074736            2 
 1213000     1.063905   -7.6200306    348.47161  0.023940067  0.024067517            7 
 1214000    1.0813031    -7.620055     349.0814  0.023962205  0.024060427            2 
 1215000    1.0651767   -7.5913569    348.93101  0.023932168  0.024053283            7 
 1216000    1.0678808   -7.6190689    349.47699  0.023949904  0.024046216            5 
 1217000    1.0908389   -7.6241435    348.97028  0.023895527  0.024039203            2 
 1218000    1.0617681   -7.6098295    349.86562  0.023937166  0.024032095            9 
 1219000    1.0646248   -7.6309242    349.93773  0.023922459  0.024024892            2 
 1220000    1.0510121   -7.6574319    349.79979  0.023893428  0.024017714            2 
 1221000    1.0553279   -7.6177674    349.60156  0.023860331  0.024010627            4 
 1222000    1.0623054   -7.6243598    349.99505  0.023867638  0.024003621            6 
 1223000    1.0326521   -7.6127194    350.94328  0.023912733  0.023996802            2 
 1224000    1.0614181    -7.577377    350.50535  0.023863381  0.023989822            5 
 1225000     1.054084   -7.6045333    351.91488  0.023939788  0.023982808            3 
 1226000    1.0596693   -7.5901045    350.39448  0.023816917  0.023975752            2 
 1227000    1.0488259   -7.6233663    351.71431  0.023887144  0.023968564            2 
 1228000    1.0600856   -7.6718446    350.15896  0.023762144  0.023961174            2 
 1229000    1.0618518   -7.6763733    349.56395  0.023702465  0.023953767            2 
 1230000    1.0331795   -7.6382955    350.35471  0.023736769   0.02394623            2 
 1231000    1.0641505   -7.6186137    350.87336  0.023752597  0.023938854            2 
 1232000    1.0620128   -7.6447063    350.66915  0.023719504  0.023931526            2 
 1233000    1.0745218   -7.5957761    351.36719  0.023747445  0.023924214            3 
 1234000    1.0632613    -7.642992    351.54509  0.023740214  0.023916938            3 
 1235000    1.0447194   -7.6605796    351.91282  0.023745805  0.023909586            3 
 1236000    1.0555935   -7.5978081    352.44941   0.02376277  0.023902338            2 
 1237000    1.0395707   -7.6314087    353.06532  0.023785053  0.023895241            3 
 1238000    1.0415646   -7.6431549    352.41508  0.023722071  0.023888065            3 
 1239000    1.0740247    -7.662954    353.22252  0.023757232  0.023880873            2 
 1240000    1.0473037   -7.6122999    353.68323  0.023769034  0.023873681            5 
 1241000      1.04034   -7.6644099    353.39234  0.023730348  0.023866491            3 
 1242000    1.0522014   -7.6300944    353.62351  0.023726752  0.023859194            4 
 1243000    1.0711492   -7.6146839    353.37362  0.023690911  0.023851843            1 
 1244000    1.0537429   -7.6777602    352.69744   0.02362657  0.023844413            3 
 1245000    1.0210816   -7.6043791    353.38898  0.023653881  0.023836971            3 
 1246000    1.0460365   -7.6633865    354.24055   0.02369185  0.023829731            2 
 1247000    1.0399325    -7.618892    354.99689  0.023723396  0.023822713            6 
 1248000     1.055378   -7.6424741    354.32303   0.02365939  0.023815524            2 
 1249000    1.0461567   -7.6331103     354.5037  0.023652502  0.023808419            3 
 1250000    1.0245891   -7.6872972    353.69271  0.023579514  0.023801174            4 
 1251000    1.0749704   -7.6608422    354.17627  0.023592877  0.023793849            5 
 1252000    1.0507429   -7.6602845    353.99306  0.023561839  0.023786628            5 
 1253000    1.0777472   -7.7023052    354.32677  0.023565228  0.023779218            3 
 1254000    1.0359519   -7.6587696    355.65447  0.023634667   0.02377191            3 
 1255000    1.0470134   -7.6448245    355.53937  0.023608192  0.023764572            3 
 1256000    1.0476891   -7.6301562    355.31732  0.023574663  0.023757293            2 
 1257000    1.0396434   -7.6448594    354.91679  0.023529355  0.023750021            2 
 1258000    1.0493457   -7.6395941    355.39254  0.023542166   0.02374267            2 
 1259000    1.0628811   -7.6373823    355.73036  0.023545827  0.023735145            3 
 1260000    1.0560035   -7.6350592    356.15121  0.023554974  0.023727778            3 
 1261000    1.0451002   -7.6304146    356.93879  0.023588342   0.02372027            1 
 1262000    1.0657109   -7.6220238    356.10403  0.023514529  0.023712748            4 
 1263000    1.0442564   -7.6361688    354.78398  0.023408814  0.023705157            2 
 1264000    1.0607508   -7.6357375    355.76652  0.023455071  0.023697433            4 
 1265000    1.0650618   -7.6706149    354.84487  0.023375815  0.023689654            4 
 1266000    1.0379262   -7.5843033    356.66708  0.023477296  0.023681943            3 
 1267000    1.0695192   -7.6510653    356.30572  0.023434999  0.023674248            3 
 1268000    1.0877382   -7.6462411    356.34285  0.023418957   0.02366651            2 
 1269000    1.0608664    -7.666918     357.1909  0.023456192  0.023658981            9 
 1270000    1.0333109   -7.6022751    357.37292  0.023449667  0.023651478            3 
 1271000    1.0348307   -7.6524841    357.31039  0.023427117  0.023643868            2 
 1272000    1.0479999   -7.6740499     357.1603  0.023398867  0.023636196            3 
 1273000    1.0307762   -7.6991931    356.55694  0.023340988  0.023628627            7 
 1274000    1.0369696     -7.63698    358.74972  0.023466099  0.023621043            3 
 1275000    1.0716297   -7.6475638    358.19816  0.023411645  0.023613403            3 
 1276000    1.0421736    -7.602634    358.84732  0.023435692  0.023605888            2 
 1277000    1.0457425   -7.7163242     358.4097  0.023388782  0.023598261            2 
 1278000    1.0516582   -7.6566059    359.23551  0.023424329  0.023590791            6 
 1279000    1.0577857   -7.6441423    358.89011   0.02338351  0.023583466            3 
 1280000    1.0520853    -7.659079    358.72386  0.023354418  0.023576152            3 
 1281000    1.0511741   -7.6940478    360.25114  0.023435541  0.023568781            3 
 1282000    1.0446336    -7.657774    360.14304  0.023410234  0.023561557            2 
 1283000    1.0239164   -7.6527409    360.75163  0.023431517  0.023554333            2 
 1284000    1.0593612   -7.6871762    359.58608  0.023337622  0.023547222            3 
 1285000     1.066615   -7.6886223    361.29251  0.023430124  0.023540113            3 
 1286000    1.0456454   -7.6546518    361.39476   0.02341853   0.02353293            6 
 1287000    1.0526417   -7.6516632    361.06068  0.023378703   0.02352566            3 
 1288000    1.0635675   -7.6704764    361.47391  0.023387287  0.023518592            3 
 1289000    1.0321495   -7.6540711    362.34769  0.023425633  0.023511647            3 
 1290000    1.0362763   -7.6316722    362.01778  0.023386161  0.023504691            2 
 1291000    1.0372833   -7.6610553    362.60487  0.023405943  0.023497673            3 
 1292000    1.0455148   -7.6672124    362.14214  0.023357981  0.023490624            2 
 1293000    1.0641928   -7.6611031    362.09607  0.023336947   0.02348354            4 
 1294000    1.0653733   -7.6929209    362.25077  0.023328875  0.023476379            3 
 1295000    1.0303812   -7.6686697    362.49031  0.023326275  0.023469186            2 
 1296000    1.0401376   -7.6542771    363.43081   0.02336875  0.023462103            2 
 1297000    1.0522269   -7.6745282    362.42127  0.023285869  0.023455037            4 
 1298000    1.0593722   -7.6501438    364.35641  0.023392168  0.023447845            3 
 1299000    1.0464871   -7.6488057    364.94114  0.023411672  0.023440852            2 
 1300000    1.0333711   -7.6802089    364.98226  0.023396299  0.023433864            3 
 1301000    1.0472707   -7.6699862      363.614  0.023290674  0.023426935            5 
 1302000    1.0699987    -7.703596    363.80346  0.023284912  0.023419889            2 
 1303000    1.0513244   -7.6753009    364.59265  0.023317514  0.023412908            3 
 1304000    1.0501062    -7.675873    366.25319  0.023405751  0.023405942            2 
 1305000    1.0456578   -7.6793347    364.12769  0.023252087  0.023398921            2 
 1306000    1.0301941    -7.671855    366.05245  0.023357099  0.023392119            6 
 1307000    1.0198606   -7.6868191     366.2732  0.023353303  0.023385263            2 
 1308000     1.056665   -7.6692925     367.2882  0.023400115  0.023378453            3 
 1309000     1.032418   -7.6681576    367.26831  0.023380972   0.02337155            2 
 1310000    1.0356813   -7.6442394    366.14278  0.023291525  0.023364783            3 
 1311000    1.0452945    -7.648893    366.62839  0.023304627  0.023357995            3 
 1312000    1.0480767   -7.6385454    368.52173  0.023407122  0.023351124            3 
 1313000    1.0260306   -7.6537483    367.30484  0.023312061  0.023344306            3 
 1314000    1.0427321    -7.672529    367.64137  0.023315663  0.023337406            1 
 1315000    1.0424079   -7.6943172    367.00988  0.023257914  0.023330416            2 
 1316000    1.0605622   -7.6536091    367.70707  0.023284389  0.023323474            4 
 1317000    1.0297775   -7.6640951    366.73202  0.023205012  0.023316522            2 
 1318000    1.0835928   -7.6345712    368.82302  0.023319614  0.023309744            1 
 1319000    1.0586563   -7.6939498    367.15683  0.023196666  0.023302673            2 
 1320000    1.0598352   -7.7365459    366.65294  0.023147282  0.023295642            2 
 1321000    1.0389839   -7.6680113    369.52883   0.02331118   0.02328879            3 
 1322000    1.0090202   -7.7174829    369.40926   0.02328601  0.023282052            3 
 1323000    1.0430029   -7.6268803    369.85322  0.023296373  0.023275336            2 
 1324000    1.0335986   -7.6825958    368.25172  0.023177978   0.02326858            5 
 1325000    1.0767479   -7.6422478    370.80153  0.023320851  0.023261815            2 
 1326000    1.0357431   -7.6644224    369.32865    0.0232107  0.023255039            6 
 1327000    1.0863651   -7.6374348    371.44963  0.023326402  0.023248321            3 
 1328000    1.0374576   -7.6605347    370.01489  0.023218806  0.023241649            3 
 1329000    1.0216413   -7.6653239     370.0415  0.023203004  0.023234957            5 
 1330000    1.0430354   -7.6564614    371.46713  0.023274883  0.023228317            7 
 1331000    1.0462874   -7.6311016    371.64078  0.023268268  0.023221774            2 
 1332000    1.0261049   -7.6718001    371.19703  0.023223038  0.023215182            4 
 1333000    1.0397207   -7.6874622    370.96392  0.023191043  0.023208608            4 
 1334000    1.0377867   -7.6602757    371.83082  0.023227812   0.02320184            3 
 1335000    1.0198585   -7.6722095    370.62541  0.023135169  0.023195137            2 
 1336000    1.0304585   -7.6613774    371.73693  0.023187184  0.023188444            3 
 1337000     1.048406   -7.6385942    371.32216  0.023143989  0.023181827            1 
 1338000    1.0574487   -7.7213629    370.25189  0.023060033  0.023175137            4 
 1339000    1.0500072   -7.6968688    371.27959  0.023106771   0.02316835            2 
 1340000    1.0426584   -7.6818343    372.76751  0.023182059  0.023161796            6 
 1341000    1.0159866   -7.6169306    373.07202  0.023183695  0.023155255            1 
 1342000    1.0374432   -7.6989848    372.29844  0.023118383  0.023148598            3 
 1343000    1.0256553   -7.6892515    372.28148  0.023100117   0.02314194            7 
 1344000    1.0269524   -7.6806011    373.30415  0.023146339  0.023135306            1 
 1345000    1.0391524   -7.6877169    374.08147   0.02317729  0.023128774            4 
 1346000    1.0353982   -7.6911521    374.92766   0.02321246  0.023122161            8 
 1347000    1.0233694   -7.6749338    374.20882  0.023150756  0.023115621            2 
 1348000    1.0353957   -7.6685533    374.92149  0.023177639  0.023109134            2 
 1349000    1.0529151   -7.6470768    375.03079   0.02316721  0.023102795            1 
 1350000    1.0503029   -7.6608249    374.20315   0.02309896  0.023096391            4 
 1351000    1.0440281   -7.6909989    374.48332  0.023099144  0.023089868            7 
 1352000    1.0289014   -7.7052424    374.82339   0.02310302  0.023083414            3 
 1353000    1.0218053   -7.7017747    374.10096  0.023041449  0.023076814            6 
 1354000     1.040572   -7.6543969    376.11254  0.023148236  0.023070242            3 
 1355000    1.0445358   -7.6671315    374.37084  0.023024037  0.023063743            9 
 1356000    1.0343464    -7.689431    373.89665  0.022977916  0.023057079            3 
 1357000    1.0375454   -7.7020786    374.27303  0.022984096  0.023050393            3 
 1358000    1.0464602   -7.7112677    375.06187  0.023015579  0.023043569            3 
 1359000    1.0332655   -7.7023627    375.36254   0.02301708  0.023036722            3 
 1360000    1.0332266   -7.6713415    375.74212  0.023023414  0.023029932            6 
 1361000    1.0338785   -7.6683353    375.50083  0.022991724  0.023023153            2 
 1362000    1.0277527   -7.6629971     375.5544  0.022978121  0.023016445            2 
 1363000    1.0275296   -7.6534309    376.16374  0.022998517  0.023009678            3 
 1364000    1.0433595   -7.6553093    377.10003  0.023038858  0.023002931            5 
 1365000    1.0285152   -7.6885631     375.8404  0.022945079  0.022996161           16 
 1366000    1.0411888   -7.6899045    377.08128  0.023003982  0.022989351            6 
 1367000    1.0363078   -7.6763564    377.17642  0.022992954  0.022982584            2 
 1368000    1.0409521   -7.6702247    376.86626  0.022957253  0.022975889            3 
 1369000    1.0403125   -7.7164649    376.55565  0.022921576  0.022969014            4 
 1370000    1.0320541   -7.6697996    377.07457   0.02293641  0.022962327            4 
 1371000    1.0081718   -7.6620393    377.23692  0.022929548  0.022955602            2 
 1372000    1.0296825   -7.6794966    376.86744  0.022890393  0.022948939            3 
 1373000    1.0171034    -7.683036    377.54283  0.022914714   0.02294234            2 
 1374000    1.0419239   -7.6750967    378.96166  0.022984089  0.022935712            3 
 1375000    1.0192024   -7.6559159    378.24132  0.022923716  0.022929119            3 
 1376000    1.0561223   -7.7116055    377.44293  0.022858705  0.022922452            7 
 1377000    1.0328621   -7.7009283    377.05246  0.022818474  0.022915652            5 
 1378000    1.0196578   -7.7084007    377.62386  0.022836469  0.022908884            4 
 1379000    1.0368381   -7.7172202    378.15109   0.02285177  0.022901968            4 
 1380000    1.0466898   -7.6775421    379.34987  0.022907601  0.022895128            7 
 1381000   0.99256186   -7.6674132    378.95547  0.022867214   0.02288855            6 
 1382000     1.027433    -7.674877    379.46238  0.022881234  0.022881865            4 
 1383000    1.0466719   -7.7021286    378.62335  0.022814133  0.022875079            4 
 1384000    1.0409431   -7.7004723    379.17783  0.022831035  0.022868228            2 
 1385000    1.0132071   -7.6940966    379.81712  0.022853015  0.022861497            4 
 1386000    1.0339446   -7.7344446    378.47151  0.022755622  0.022854775            2 
 1387000    1.0401244   -7.6806513    378.95003  0.022767966  0.022847885            8 
 1388000    1.0327612   -7.6971897    380.41979  0.022839805  0.022841193            2 
 1389000    1.0179144   -7.7176704    378.92889  0.022733915  0.022834541            2 
 1390000    1.0237396   -7.7201154     379.2975  0.022739659  0.022827755            3 
 1391000    1.0221838   -7.6776756    381.66491   0.02286514  0.022821102            1 
 1392000    1.0112629   -7.6596391    381.20411  0.022821127  0.022814572            4 
 1393000    1.0354221   -7.7113611    381.46485  0.022820343  0.022807903            3 
 1394000    1.0198017   -7.6999897    381.50846  0.022806579   0.02280115            2 
 1395000    1.0079212   -7.7241494     379.8876  0.022693405  0.022794397            2 
 1396000    1.0142251   -7.6974899    381.45117  0.022770485  0.022787569            5 
 1397000    1.0151352    -7.717531    380.72748  0.022711017  0.022780801            3 
 1398000    1.0007313   -7.6814618    380.70347   0.02269334  0.022773916            1 
 1399000    1.0387924   -7.7163311    381.05916  0.022698306  0.022767004            3 
 1400000    1.0156355   -7.7110835    381.74024  0.022722633  0.022760158            2 
 1401000    1.0400519   -7.7172906    382.80803  0.022769928   0.02275341            2 
 1402000    1.0292116   -7.7318003    380.57409  0.022620904  0.022746544            3 
 1403000    1.0508701   -7.7212343    380.37014  0.022592667  0.022739617            4 
 1404000     1.010109   -7.7107988    381.32862  0.022633465  0.022732647            3 
 1405000    1.0210995   -7.6865381    382.05497  0.022660437   0.02272571            3 
 1406000    1.0105664   -7.7099867    381.71588  0.022624222  0.022718792            3 
 1407000    1.0394834   -7.6886931     382.2827  0.022641714  0.022711817            2 
 1408000    1.0162185   -7.7438145    382.55492  0.022641745  0.022704959            2 
 1409000    1.0597657   -7.6805239    383.32658  0.022671314  0.022698096            2 
 1410000    1.0095796   -7.6804507    383.33843  0.022655936  0.022691307            2 
 1411000    1.0406748    -7.698453     383.7755  0.022665692  0.022684404            1 
 1412000    1.0164631   -7.7316432    382.43075  0.022570276  0.022677485            3 
 1413000    1.0259293    -7.730484    382.73849  0.022572451   0.02267061            2 
 1414000    1.0174098   -7.7420268     383.9528  0.022628053  0.022663747            4 
 1415000    1.0369324   -7.7044688    383.48249  0.022584363  0.022656866            3 
 1416000    1.0122798   -7.7409258    384.01498  0.022599751  0.022649969            3 
 1417000    1.0155544   -7.6947926    383.71323  0.022566057  0.022643142            8 
 1418000    1.0130669   -7.7320425     383.9438  0.022563693  0.022636256            3 
 1419000    1.0459282     -7.71254    385.16204  0.022619335  0.022629487            4 
 1420000    1.0249654   -7.6993728    385.19769  0.022605498  0.022622783            4 
 1421000    1.0451044   -7.7315448    384.55755   0.02255205  0.022616052            3 
 1422000    1.0071574   -7.7313579     384.7215  0.022545798  0.022609217            2 
 1423000    1.0133976   -7.6753693    386.11472  0.022611543  0.022602461            1 
 1424000     1.030136   -7.6848309    386.82934  0.022637485  0.022595697            5 
 1425000    1.0393842   -7.6801376    386.02534  0.022574581  0.022588911            6 
 1426000    1.0183511   -7.7231645    385.71083  0.022540371  0.022582011           14 
 1427000   0.99232611   -7.7173824    385.48895  0.022511618  0.022575105            5 
 1428000    1.0355905   -7.7285782    385.24305  0.022481504  0.022568094            3 
 1429000    1.0208035   -7.7001919    385.99778  0.022509784  0.022561157            4 
 1430000    1.0513062   -7.7308133     385.2147  0.022448409  0.022554244            4 
 1431000    1.0165976    -7.733026    385.25481  0.022435057  0.022547306            4 
 1432000    1.0377423    -7.712907    386.50415  0.022492094  0.022540399            3 
 1433000    1.0301512   -7.7060014    386.17558  0.022457291  0.022533465            2 
 1434000     1.027931   -7.7257565    386.82191  0.022479191  0.022526459            2 
 1435000    1.0023899   -7.7164503    386.46467   0.02244278  0.022519463            2 
 1436000    1.0333138   -7.7137652    387.09352  0.022463645  0.022512588            2 
 1437000    1.0120774   -7.7328716    386.63415  0.022421373  0.022505692            3 
 1438000    1.0340418   -7.7167584    386.79697  0.022415216  0.022498735            2 
 1439000    1.0406507   -7.7323183    386.83308   0.02240173  0.022491676            1 
 1440000    1.0014533   -7.6969626    387.21299  0.022408159  0.022484499            3 
 1441000    1.0301944   -7.6707642     387.3187  0.022398722   0.02247749            3 
 1442000    1.0374853   -7.7281378    386.80668  0.022353599  0.022470472            3 
 1443000    1.0058977   -7.7120448    386.38345  0.022313666  0.022463458            7 
 1444000    1.0325463   -7.7164473    387.01876  0.022334878  0.022456246            1 
 1445000    1.0378768   -7.7081305    386.37173  0.022282106  0.022449201            2 
 1446000    1.0441222   -7.7046443    388.96808  0.022416325  0.022442185            3 
 1447000    1.0113649   -7.7447353    387.19294  0.022298603  0.022435161            4 
 1448000    1.0334059   -7.6929702    387.86623  0.022321952  0.022428078            5 
 1449000    1.0370486    -7.700119    389.00297  0.022371921  0.022421083            2 
 1450000    1.0116359   -7.7230507    388.36787  0.022319992  0.022413978            2 
 1451000     1.002507   -7.7378379    388.51201  0.022312888   0.02240689            4 
 1452000    1.0046903   -7.7412697    389.37719  0.022347176  0.022399935            3 
 1453000    1.0250673   -7.7638447    388.68641  0.022292178  0.022392957            2 
 1454000    1.0182528   -7.7085242    388.56855  0.022270091  0.022386031            1 
 1455000    1.0253333   -7.7583065    388.91977  0.022274901  0.022379014            3 
 1456000    1.0303835   -7.7042951    389.99754  0.022321288  0.022372046            2 
 1457000     1.021112   -7.7320487    389.01211  0.022249606  0.022365102            3 
 1458000    1.0209771   -7.6950205    390.69846   0.02233073  0.022358106            8 
 1459000    1.0308187   -7.7316089     390.3088  0.022293169  0.022351163            4 
 1460000    0.9999787   -7.7482965    390.15999  0.022269406  0.022344184            3 
 1461000    1.0147515   -7.7530245     390.2565  0.022259668  0.022337266            2 
 1462000    1.0046493   -7.7152468    391.97379  0.022342327   0.02233043            7 
 1463000    1.0095279   -7.7113398    391.54972    0.0223029  0.022323603            2 
 1464000    1.0061245    -7.743783    390.87174  0.022249074  0.022316711           10 
 1465000   0.99674693    -7.737567    391.41637  0.022264867  0.022309832            2 
 1466000    1.0196041   -7.7353111    392.76836  0.022326533  0.022303089            2 
 1467000    1.0250816    -7.701173    393.85367  0.022372965  0.022296514            8 
 1468000    1.0168584   -7.7306387     392.5458  0.022283481  0.022289768            3 
 1469000    1.0098659    -7.756208    391.94127  0.022234018  0.022283112            2 
 1470000    1.0120434    -7.753317    393.49373  0.022306901  0.022276508            2 
 1471000    1.0307942    -7.771218    393.63887  0.022299959    0.0222699            5 
 1472000    1.0163491   -7.7349382    392.98952  0.022248048  0.022263289            1 
 1473000    1.0233583    -7.713587    393.77165  0.022277192  0.022256623            3 
 1474000    1.0176232   -7.7223737    393.09671  0.022223921  0.022249845            3 
 1475000    1.0225383   -7.7745929    394.65153  0.022296697  0.022243197            4 
 1476000    1.0080899   -7.7293105    394.08513  0.022249612  0.022236549            3 
 1477000   0.99790644   -7.7480415    393.68635  0.022212049  0.022229771           11 
 1478000    1.0078176    -7.755414    393.29748  0.022175095  0.022223044            3 
 1479000     1.005211   -7.7123896    394.48215  0.022226851  0.022216348            2 
 1480000    1.0074002    -7.717235    394.42102  0.022208391  0.022209819            1 
 1481000    1.0163426   -7.7326693    395.25614  0.022240386  0.022203232            2 
 1482000    1.0055406   -7.7551268    393.93406  0.022151038  0.022196598            5 
 1483000   0.99983644   -7.7261605    395.47484  0.022222681  0.022189921            3 
 1484000    1.0204209   -7.7199009    395.36394  0.022201479  0.022183337            3 
 1485000    1.0203073   -7.7755547    394.03404  0.022111899  0.022176574            3 
 1486000    1.0126304   -7.7927746    394.90784   0.02214602  0.022169921            3 
 1487000    1.0103318   -7.7642313    395.53394  0.022166215  0.022163128            4 
 1488000    1.0148742   -7.7189827    396.50745  0.022205838  0.022156397            4 
 1489000    1.0253258   -7.7518615    397.01355  0.022219249  0.022149846            6 
 1490000    1.0125462   -7.7784982     395.3899  0.022113529  0.022143323            2 
 1491000    1.0223745   -7.7592527    396.52924  0.022162376  0.022136685            3 
 1492000    1.0214294   -7.7744513    396.36571  0.022138389  0.022130099            3 
 1493000    1.0051802   -7.6828068    397.60829  0.022192917  0.022123481            7 
 1494000    1.0130855   -7.7194106    395.98609  0.022087578  0.022116792            3 
 1495000    1.0204132   -7.7376193    396.73708  0.022114664  0.022110116            3 
 1496000    1.0020136   -7.8006837    395.63172  0.022038309  0.022103313            2 
 1497000     1.021471   -7.6843045    397.73603  0.022140728  0.022096585            3 
 1498000    1.0070095   -7.7425224    396.57897  0.022061581  0.022089785            1 
 1499000    1.0192069   -7.7496086    396.95457  0.022067743  0.022083005            2 
 1500000     1.004252   -7.7663537    396.98302  0.022054612  0.022076199            2 
 1501000    1.0087285   -7.7618338    398.18231  0.022106502  0.022069511            3 
 1502000    1.0148181   -7.7765984     396.8817  0.022019624    0.0220627            1 
 1503000     1.005647   -7.7539084    397.42816  0.022035272  0.022055843            1 
 1504000    1.0161997   -7.7609215     397.0243  0.021998244  0.022048981            6 
 1505000    1.0104155    -7.744481      398.263  0.022052215  0.022042167            6 
 1506000   0.99989653   -7.7423385    397.18758  0.021978065  0.022035411            4 
 1507000   0.99762083   -7.7329919    396.68853  0.021935884  0.022028644            4 
 1508000   0.98710434   -7.7542681    397.47202  0.021964634   0.02202181            2 
 1509000    1.0190232   -7.7809897    397.09123  0.021929049  0.022015022            3 
 1510000    1.0117822   -7.7149844     398.6087  0.021998273  0.022008323            4 
 1511000    1.0048745   -7.7502875    399.13088  0.022012513  0.022001655            1 
 1512000   0.99392762   -7.7865128    398.05281  0.021938537  0.021994859            2 
 1513000   0.99771102   -7.7612324    399.10936   0.02198223  0.021988074            1 
 1514000    1.0246703   -7.7407892    399.42074  0.021984849  0.021981267            3 
 1515000    1.0125866   -7.7778097    398.21656  0.021904101  0.021974522            4 
 1516000    1.0056244   -7.7611852    400.36434  0.022007715  0.021967799            5 
 1517000    1.0031819   -7.7430319    400.32539  0.021991067  0.021961181            2 
 1518000    1.0243875   -7.7729118      399.034  0.021905687  0.021954527            2 
 1519000    1.0223337   -7.7515914    400.13315  0.021951566  0.021947966            4 
 1520000     1.005816   -7.7264212    401.51564  0.022012919  0.021941314            3 
 1521000    1.0067321   -7.7389623    400.46494   0.02194088  0.021934695            3 
 1522000    1.0039402   -7.7758609     400.2585  0.021915161  0.021928024            1 
 1523000     1.005391   -7.7596799    400.64146  0.021921726   0.02192129            6 
 1524000   0.99103806   -7.7500999    399.97375   0.02187083  0.021914619            4 
 1525000    1.0235204    -7.753773    400.08838  0.021862753  0.021907972            3 
 1526000   0.99907912   -7.7627511    400.77965  0.021886176  0.021901262            2 
 1527000    1.0209894    -7.801471    400.61455  0.021862833  0.021894489            2 
 1528000   0.99780335   -7.7863957    399.72838  0.021800195  0.021887596            3 
 1529000    1.0162687   -7.7784579    400.10795  0.021806625  0.021880643            2 
 1530000    1.0151712   -7.8038988    400.33489  0.021804732  0.021873799            2 
 1531000    1.0072895   -7.7662534    401.69767  0.021864668  0.021866916            3 
 1532000    1.0332154   -7.7797251    401.66406  0.021848567  0.021860062            2 
 1533000    1.0038031   -7.8138409    401.43477  0.021821851  0.021853273            5 
 1534000    1.0048267   -7.7374495    403.07878  0.021896935  0.021846428            3 
 1535000    1.0133558   -7.7365788     401.0125  0.021770494  0.021839746            3 
 1536000   0.99097201   -7.7790359    401.94742  0.021807043  0.021833071            6 
 1537000   0.99572957   -7.7803361    402.76806  0.021837349  0.021826309            6 
 1538000   0.99524102   -7.7536534    402.22755  0.021793864  0.021819518            2 
 1539000    1.0357529   -7.7448187    402.00446  0.021767623  0.021812694            3 
 1540000    1.0067831   -7.7788987     401.9336  0.021749654  0.021805858            3 
 1541000    1.0270576   -7.7700496    401.93414  0.021735569  0.021798986            1 
 1542000    1.0015041   -7.7794919    402.13192  0.021732162  0.021792045            3 
 1543000    1.0016206   -7.8067221    402.71602  0.021749623  0.021785082            4 
 1544000    1.0334843   -7.7372695    402.71512  0.021735488  0.021778035            4 
 1545000    1.0140012   -7.7686883     403.0771  0.021740944   0.02177114            2 
 1546000   0.99222287   -7.7620225    403.59759  0.021754937  0.021764216            2 
 1547000   0.99798737   -7.7585849    402.66266  0.021690512  0.021757291            2 
 1548000    1.0155458   -7.7866157    402.60246  0.021673259  0.021750351            3 
 1549000    1.0055811   -7.7164743    404.90945  0.021783379  0.021743454            2 
 1550000   0.99902511   -7.7241033    404.42927  0.021743509  0.021736597            4 
 1551000   0.99058374   -7.7988252    401.81864  0.021589224  0.021729737            4 
 1552000    1.0047047   -7.7687632    403.64541    0.0216734  0.021722747            4 
 1553000    1.0032614   -7.8008961    402.95397  0.021622342  0.021715768            5 
 1554000    1.0010221   -7.7547016    403.85214  0.021656593  0.021708816            7 
 1555000    1.0164335   -7.7680828    403.73353  0.021636309  0.021701881            1 
 1556000    1.0287421   -7.7463457     405.3843  0.021710813  0.021694962            2 
 1557000     1.018672   -7.7337147    405.34039  0.021694519  0.021688076            3 
 1558000    1.0100262   -7.7699679    404.55873  0.021638785  0.021681169            4 
 1559000    1.0022065   -7.7153256    406.04211  0.021704197  0.021674333            5 
 1560000    1.0151165   -7.7495636    405.18237  0.021644357  0.021667487            1 
 1561000    1.0109826   -7.7547477    405.76247   0.02166146  0.021660625            2 
 1562000   0.98585804   -7.7670772    405.18952  0.021617025  0.021653751            2 
 1563000     1.009444   -7.7129763    405.76956   0.02163412  0.021646793            2 
 1564000   0.98853114    -7.782912    404.88155  0.021572972  0.021639929            3 
 1565000    1.0044449   -7.7521566    405.99511  0.021618483  0.021632938            2 
 1566000    0.9929373   -7.8177993    404.87952  0.021545313  0.021625874            6 
 1567000   0.99600029   -7.7897887    406.15647  0.021599472   0.02161887            2 
 1568000   0.99692808   -7.7902654    404.83891  0.021515674  0.021611855            3 
 1569000    1.0081194   -7.7808963    405.28207  0.021525498   0.02160483            5 
 1570000   0.98096187   -7.7490788    405.28123  0.021511743  0.021597769            4 
 1571000    1.0106163   -7.7246648    406.44873  0.021559979  0.021590771            2 
 1572000    1.0085775   -7.7860481    405.12715  0.021476206   0.02158374            3 
 1573000   0.98480133   -7.7681851    406.64507  0.021542968  0.021576654            2 
 1574000    1.0140959    -7.766047    405.19388   0.02145245  0.021569598            4 
 1575000    0.9932758   -7.7821506     406.5009  0.021507984   0.02156257            2 
 1576000    1.0074864   -7.7784145    405.82272  0.021458477  0.021555541            4 
 1577000   0.98880727   -7.7903675    405.99837  0.021454152  0.021548491            4 
 1578000    1.0219922   -7.7800744    406.12047  0.021447004  0.021541364            3 
 1579000    1.0224315   -7.7780484    407.22966   0.02149196  0.021534363            2 
 1580000    1.0110467   -7.8061476    404.99341  0.021360412  0.021527298            6 
 1581000    1.0112272    -7.751087     406.9382   0.02144941  0.021520217            2 
 1582000   0.98131562   -7.8016699     405.3813   0.02135384  0.021513125            2 
 1583000   0.99574972   -7.7785148    406.02008  0.021373978  0.021505926            3 
 1584000    1.0000847   -7.8278857    406.18526  0.021369174  0.021498719            3 
 1585000    1.0005529   -7.7726137    406.47183  0.021370759  0.021491544            2 
 1586000      0.99387   -7.7665472    407.71017   0.02142235  0.021484454            5 
 1587000   0.99895294   -7.7519071    407.59599  0.021402856  0.021477566            4 
 1588000    1.0107172   -7.7635414    408.87524  0.021456509   0.02147067            6 
 1589000   0.98235638    -7.778471    407.59141  0.021375677  0.021463873            3 
 1590000   0.99570554   -7.7474249     408.9031   0.02143098  0.021456926            6 
 1591000    1.0236455   -7.8423813    406.86969  0.021311004  0.021449872            4 
 1592000   0.99636495   -7.8229066    406.66312  0.021286805  0.021442733            3 
 1593000   0.98421779   -7.7584002    408.56755  0.021373067  0.021435653            4 
 1594000   0.99432358   -7.7973477    407.60979  0.021309587  0.021428548            5 
 1595000    1.0117914   -7.8405817     407.3292  0.021281567  0.021421419            4 
 1596000    1.0007613    -7.801128    407.96719  0.021301545  0.021414233            5 
 1597000   0.99744719   -7.7982112    408.87832   0.02133575  0.021407172            4 
 1598000   0.98570255    -7.812716    408.10073  0.021281849  0.021400031            2 
 1599000   0.99280007   -7.8050599    409.07047  0.021319078  0.021392946            6 
 1600000    1.0013032   -7.7626734    409.20949  0.021312994  0.021385853            2 
 1601000    1.0073754   -7.8196782    409.00094  0.021288827   0.02137878            2 
 1602000    1.0239427   -7.7915531    407.87932  0.021217193   0.02137162            2 
 1603000   0.98810742   -7.7509305    410.53814  0.021342178  0.021364595            5 
 1604000    0.9915177   -7.8294399    409.68773  0.021284691  0.021357626            2 
 1605000   0.99211374   -7.8000099     408.9342  0.021232305  0.021350623            3 
 1606000   0.98701671   -7.7530224    410.12316  0.021280778  0.021343631            4 
 1607000    0.9875749   -7.7969859      410.211  0.021272091  0.021336612           10 
 1608000   0.98742049   -7.8062682    409.39134  0.021216384  0.021329541            3 
 1609000   0.98606722   -7.8358902    409.10157   0.02118819  0.021322381            6 
 1610000   0.98739514   -7.8088164    409.86074  0.021214324  0.021315337            3 
 1611000   0.98873213   -7.8283248    410.75814  0.021247576  0.021308291            4 
 1612000   0.99832827   -7.8235888    409.43863  0.021166182  0.021301207            9 
 1613000   0.98493725   -7.8040384    410.26338   0.02119567  0.021294169            5 
 1614000   0.98585627   -7.8054166    410.25082  0.021181889  0.021287149            5 
 1615000   0.99156112    -7.828139    411.35422  0.021225708  0.021280063            4 
 1616000   0.96517181   -7.7972159    411.27892   0.02120869  0.021273072            9 
 1617000    1.0050812   -7.8222791    410.82521  0.021172192   0.02126606            2 
 1618000    1.0013512   -7.7887996     412.9053  0.021266239  0.021259124            4 
 1619000     1.015859   -7.7405926    412.45586   0.02122997  0.021252241            3 
 1620000    1.0056082   -7.7765783    413.52019  0.021271615  0.021245435            2 
 1621000   0.99831364   -7.8022695    412.75761  0.021219289  0.021238614            3 
 1622000   0.97370127   -7.7627952      412.321  0.021183775  0.021231824            5 
 1623000   0.98773641   -7.7964368    413.25057  0.021218452  0.021224887            4 
 1624000   0.99906236   -7.8288984    411.58808  0.021120078  0.021217981            2 
 1625000    1.0265273   -7.8278826    412.22057  0.021139516  0.021211027            7 
 1626000    1.0027995   -7.8497535    411.81502  0.021105731  0.021204067            4 
 1627000   0.98284777    -7.817949    412.33568  0.021119426  0.021196974            4 
 1628000   0.99206981   -7.8439635    412.87256  0.021133935  0.021189984            7 
 1629000    1.0013231   -7.8337277    412.76104  0.021115257  0.021182904            4 
 1630000   0.98723748   -7.8089344     412.7776  0.021103149  0.021176056            2 
 1631000   0.99173077   -7.8331382    413.63979  0.021134263  0.021169159            2 
 1632000   0.99433713   -7.7942702    412.59727  0.021068079  0.021162232            2 
 1633000    1.0014955    -7.810683    413.20781  0.021086334  0.021155415            6 
 1634000   0.98575733   -7.8160621    413.73769  0.021100453  0.021148499            4 
 1635000   0.99622981   -7.8006414    414.33142  0.021117809  0.021141472            3 
 1636000    1.0094622   -7.7555168    413.91525  0.021083702  0.021134566            3 
 1637000   0.98616515   -7.8058285    414.68175  0.021109842  0.021127574            2 
 1638000    0.9778706    -7.818247    415.00064  0.021113179  0.021120664            3 
 1639000   0.98887423   -7.8490497    415.72827  0.021137293  0.021113754            4 
 1640000   0.98028297   -7.8293363    414.61766  0.021067971  0.021106867            4 
 1641000   0.98340455   -7.8021373     415.2869  0.021089117  0.021100042            3 
 1642000   0.96778724   -7.7759098    415.60537  0.021092437  0.021093225            3 
 1643000   0.99498766   -7.7973617    415.72422  0.021085627   0.02108649            2 
 1644000   0.96408896   -7.7979823    415.34661   0.02105366   0.02107978            2 
 1645000   0.97260723   -7.7801593    416.24462  0.021086354  0.021072991            4 
 1646000    1.0106499   -7.7970694    416.34283  0.021078515  0.021066232            3 
 1647000   0.97887424   -7.7707697    417.25041  0.021111638   0.02105965            2 
 1648000   0.98546916   -7.7942126    417.83689  0.021128484  0.021053039            3 
 1649000   0.99365484   -7.7874483    417.84875   0.02111627  0.021046414            2 
 1650000   0.97480574   -7.8592605    415.79325  0.020999659  0.021039755            4 
 1651000   0.98739957   -7.8259159    416.24018  0.021009498  0.021033066            3 
 1652000    1.0153615   -7.8185811      417.098  0.021040053  0.021026346            3 
 1653000     1.018268   -7.7893663      417.427   0.02104391  0.021019646            5 
 1654000   0.98617926   -7.8484366    417.66092  0.021042972  0.021012934            7 
 1655000   0.96960511   -7.8073848    418.61409  0.021078252  0.021006219            3 
 1656000   0.99075257   -7.8068695    418.09451  0.021039377  0.020999536            2 
 1657000   0.99574521   -7.8619491    417.52826  0.020998202  0.020992808            1 
 1658000   0.96961869   -7.7936071    417.16363  0.020967211  0.020986076            3 
 1659000   0.97390017   -7.8287893     417.9718  0.020995168  0.020979424            2 
 1660000   0.99481737   -7.7918503    419.34874  0.021051644  0.020972763            2 
 1661000   0.98980268   -7.8275619    418.62183    0.0210025  0.020966147            2 
 1662000   0.98500361   -7.7938104    418.15833  0.020966623  0.020959557            3 
 1663000   0.98534914   -7.8043369    420.06802  0.021049711   0.02095293            1 
 1664000   0.96638988    -7.806439    419.95642  0.021031471  0.020946305            3 
 1665000   0.98305074   -7.8060898     419.3269  0.020987333  0.020939738            4 
 1666000   0.98073763   -7.8162322    418.49475  0.020933111  0.020933054            2 
 1667000   0.96797341   -7.8165589     419.3957  0.020965592  0.020926367            2 
 1668000   0.98132624   -7.8200567    419.35955  0.020951216  0.020919707            4 
 1669000   0.97840573   -7.8213278    418.50645  0.020896068  0.020913091            5 
 1670000   0.99974112   -7.8304223    419.15082   0.02091571  0.020906436            4 
 1671000   0.98617194   -7.8106556    419.79055  0.020935096  0.020899765            5 
 1672000   0.98605184    -7.826731     420.3677  0.020951341  0.020893101           14 
 1673000   0.98535169   -7.8085139    419.33203   0.02088723  0.020886382            5 
 1674000    1.0016299   -7.7947613     420.4499  0.020930401  0.020879823            1 
 1675000   0.95095046   -7.7989603    421.04005  0.020947266  0.020873233            3 
 1676000   0.97232651   -7.8324249     419.1542     0.020841  0.020866602            2 
 1677000   0.97141185   -7.8126712    420.85273  0.020912976  0.020859951            3 
 1678000   0.97388211   -7.7822178    422.08714  0.020961816  0.020853344            3 
 1679000   0.95581196   -7.8037139    422.09473  0.020949709  0.020846662            1 
 1680000   0.97106449   -7.8107717    421.91696  0.020928421  0.020839982            2 
 1681000   0.98811771    -7.820655    421.79189   0.02090977  0.020833321            5 
 1682000   0.97193153   -7.8106039    420.91029  0.020853661  0.020826752            3 
 1683000    1.0002621   -7.7933782     423.0427  0.020946856  0.020820228            2 
 1684000   0.98034619   -7.8295008    420.96053   0.02083138  0.020813636            3 
 1685000    1.0142588   -7.8383414    421.76523  0.020858815  0.020807031            5 
 1686000   0.97842468   -7.7747739    423.46422  0.020930418   0.02080048            6 
 1687000   0.97093204   -7.8492067     420.9637  0.020794492   0.02079402            3 
 1688000   0.95888145    -7.815245    423.15057  0.020890135  0.020787432            3 
 1689000    0.9897316    -7.839091    423.09665  0.020875106  0.020780805            3 
 1690000   0.97286463   -7.8372384    422.11693  0.020814444  0.020774316            2 
 1691000   0.96481886   -7.8489915    421.71116  0.020782139  0.020767795            2 
 1692000   0.99228031   -7.8450495     422.9923  0.020832954   0.02076132            5 
 1693000   0.96808268   -7.8436991    423.31548  0.020836556  0.020754864            4 
 1694000   0.97097468   -7.8159321    424.36475  0.020875873   0.02074844            2 
 1695000    0.9798483    -7.847921    423.29119  0.020810776  0.020741926            2 
 1696000   0.97813755   -7.8008723    424.61435   0.02086352  0.020735373            4 
 1697000   0.97693034   -7.8823654    422.69819   0.02075713   0.02072885            4 
 1698000   0.97346405   -7.8580802    423.47541  0.020783049  0.020722236            3 
 1699000   0.95901909   -7.8288655    423.77146  0.020785338  0.020715678            2 
 1700000    1.0102276   -7.8234905    424.27563  0.020797825   0.02070912            2 
 1701000   0.97430471   -7.8095695    424.38699  0.020791054  0.020702639            3 
 1702000   0.95963264   -7.7962968     424.1012  0.020764845  0.020696108            3 
 1703000   0.96469301   -7.8669596    423.89429  0.020742527  0.020689489            4 
 1704000   0.98242874   -7.8559577    423.02351  0.020687769  0.020682892            4 
 1705000   0.97081348   -7.8572483    423.37015  0.020692578  0.020676306            4 
 1706000   0.97948988   -7.8515468     423.9377  0.020708172  0.020669808            9 
 1707000    0.9880097    -7.828801    424.77154  0.020736748  0.020663272            2 
 1708000   0.99136376   -7.8555487    424.43053  0.020707969  0.020656753            4 
 1709000   0.99506265   -7.8333683    424.55437   0.02070189  0.020650216            2 
 1710000   0.97209619   -7.8514374    424.23146  0.020674048  0.020643628            3 
 1711000   0.97485857   -7.8237569    424.77937  0.020688651  0.020637067            3 
 1712000   0.96152547   -7.8295665    424.30617  0.020653532   0.02063055            3 
 1713000    1.0005345   -7.8333179    425.53471  0.020701241  0.020624054            4 
 1714000   0.97880479   -7.8245043    426.00916  0.020712231  0.020617571            4 
 1715000    1.0062516   -7.8406358    425.72361  0.020686278  0.020611076            2 
 1716000    0.9510097   -7.8609021    426.05551  0.020690341  0.020604553            4 
 1717000   0.98037516   -7.8595657    424.58835  0.020607083  0.020597952            3 
 1718000   0.96721178   -7.9177582    424.12615  0.020572669  0.020591335            5 
 1719000   0.96601899    -7.859114    426.17822  0.020660181  0.020584702            3 
 1720000   0.97715526   -7.8629557    425.91008  0.020635178  0.020578126            2 
 1721000   0.99393601   -7.8579085    425.13595  0.020585704  0.020571595            5 
 1722000   0.96922279   -7.8471081    426.36116  0.020633041   0.02056507            7 
 1723000   0.98726901    -7.853707    427.05588  0.020654666  0.020558641            1 
 1724000    0.9683541   -7.8482649     425.7581  0.020579954  0.020552119            5 
 1725000   0.98717445   -7.9026605    425.85364   0.02057264  0.020545482            4 
 1726000    0.9655945   -7.8082042    428.10903  0.020669613  0.020538882            2 
 1727000   0.97481581   -7.8404251    427.15435  0.020611579  0.020532392            2 
 1728000   0.96739795   -7.8418696    427.76843  0.020629264   0.02052583            3 
 1729000   0.96647718   -7.8622759     426.0118  0.020532668  0.020519261           11 
 1730000   0.98703484   -7.8331025    427.89202  0.020611369  0.020512789            4 
 1731000   0.97451378   -7.8595502    428.94302  0.020650059  0.020506314            4 
 1732000   0.98911973   -7.8439254    427.37173  0.020562535  0.020499796            2 
 1733000   0.94538521   -7.8763642    427.09948  0.020537578   0.02049322            2 
 1734000   0.96764891   -7.8648504    426.27937  0.020486321  0.020486636            3 
 1735000   0.98184391   -7.8477185    427.26385  0.020521799  0.020480053            3 
 1736000   0.98688227   -7.8956257     428.1037  0.020550293  0.020473536            2 
 1737000   0.94478083   -7.8491635    427.17672   0.02049399  0.020467008            6 
 1738000   0.95511256   -7.8664806    427.33255   0.02048967  0.020460491            4 
 1739000   0.96937554   -7.8569099    427.17844  0.020470502  0.020453886            5 
 1740000   0.98162164   -7.8656856    427.60165  0.020479006  0.020447272            5 
 1741000   0.97296547   -7.8433927    427.90322  0.020481678  0.020440701            2 
 1742000   0.95628094    -7.867754    429.29588  0.020536542  0.020434175            4 
 1743000   0.96179022   -7.8833497    427.94974  0.020460401  0.020427633            3 
 1744000   0.96446621   -7.8735365    429.38839  0.020517411  0.020421106            4 
 1745000    0.9726544   -7.8803961    429.24786  0.020498943  0.020414629            2 
 1746000   0.97739084   -7.8536675    429.31685  0.020490495  0.020408135            3 
 1747000   0.95868823   -7.8777775    428.60155  0.020444645   0.02040155            2 
 1748000   0.96611195   -7.8601061    430.48724  0.020522847   0.02039506            4 
 1749000   0.99239286   -7.8653627    428.86465  0.020433803  0.020388632            5 
 1750000   0.95705472   -7.8805151    429.83883  0.020468516  0.020382047            2 
 1751000   0.95482721   -7.8760179     430.2643  0.020477075  0.020375485            2 
 1752000   0.99297269   -7.8561831    429.43039  0.020425723  0.020368867            3 
 1753000   0.96233683   -7.8626471    429.69592  0.020426693  0.020362353            2 
 1754000   0.96177025   -7.8690598    429.04801  0.020384265  0.020355799            4 
 1755000   0.97498783   -7.8868419    428.37805  0.020340838  0.020349226            2 
 1756000   0.97582763   -7.8315973     429.0427  0.020360796  0.020342661            5 
 1757000   0.96831728   -7.8326527    430.35514  0.020411456  0.020336195            6 
 1758000   0.98140888   -7.8585399     429.9626  0.020381238  0.020329624            4 
 1759000   0.96135462   -7.8661631    430.31749  0.020386464  0.020322938            2 
 1760000   0.96873006   -7.8887746     430.3145   0.02037474  0.020316364            2 
 1761000   0.96904135   -7.8640801    429.56851  0.020327868  0.020309734            3 
 1762000   0.96475212   -7.8610883    430.97771  0.020382979  0.020303148            1 
 1763000   0.97127704   -7.8755272    429.87993  0.020319528  0.020296625            3 
 1764000   0.95799201   -7.8895705    430.73056  0.020348193  0.020290002            2 
 1765000   0.97382982   -7.8806094     430.5339  0.020327379  0.020283439            4 
 1766000    0.9833319   -7.8735119    430.91175  0.020333699  0.020276989            4 
 1767000   0.97035855   -7.8274555    431.84364   0.02036614  0.020270503            1 
 1768000   0.96605304    -7.826124    431.60511  0.020343378  0.020264112            4 
 1769000   0.96774755   -7.8428903    432.35329  0.020367123  0.020257649            6 
 1770000   0.96086992   -7.8658674    432.38994  0.020357342   0.02025113            6 
 1771000   0.96363424   -7.8450269     432.5849  0.020355021  0.020244705            6 
 1772000    0.9733147   -7.9146931    432.41653  0.020335616  0.020238218            3 
 1773000   0.97228129   -7.9052801     432.1498  0.020311609  0.020231711            4 
 1774000   0.97978716   -7.8693066    432.37033  0.020310519  0.020225231            7 
 1775000   0.97154803    -7.860138    432.91269   0.02032454  0.020218831            9 
 1776000    0.9584011   -7.8749176    431.87605  0.020264454  0.020212376            7 
 1777000   0.93142179   -7.8858934    431.70699  0.020245123  0.020205906            3 
 1778000   0.97228877   -7.9052223    431.50375   0.02022421  0.020199325            1 
 1779000   0.97536711   -7.8673393    433.26268  0.020295235  0.020192847            6 
 1780000   0.97247792   -7.8424881    433.19446  0.020280639  0.020186382            2 
 1781000   0.97476224   -7.8577096     432.5164  0.020237526  0.020179875            2 
 1782000   0.96177914    -7.821453    433.95027  0.020293222  0.020173376            5 
 1783000   0.96067303   -7.8543658     433.2811  0.020250565  0.020166958            6 
 1784000   0.96219591   -7.8603117    434.20107  0.020282187  0.020160561            3 
 1785000   0.96495525   -7.8057295    434.87819  0.020302436  0.020154173            3 
 1786000   0.97194208   -7.9149851     433.9814  0.020249225  0.020147823            3 
 1787000   0.97698872   -7.8116353    435.28017   0.02029846  0.020141532            3 
 1788000   0.93752506   -7.8917693    434.75613  0.020262683  0.020135244            3 
 1789000   0.95370367   -7.8388803    435.27846  0.020275688   0.02012893            8 
 1790000   0.98691724   -7.8517148    434.71151  0.020237966  0.020122668            4 
 1791000   0.95987547   -7.8924166     434.0067  0.020193872  0.020116329            3 
 1792000   0.97079976   -7.8818109    435.51862  0.020252912  0.020109991            4 
 1793000   0.97476972   -7.8597146    434.34879  0.020187246  0.020103628            3 
 1794000   0.95772194   -7.8864449    434.08065  0.020163538  0.020097239            6 
 1795000   0.95921125   -7.8895906     434.5678  0.020174921  0.020090857            4 
 1796000   0.96760973   -7.9003096     435.2694  0.020196242  0.020084525            3 
 1797000   0.97096545   -7.8842116    435.52527  0.020196868  0.020078169            4 
 1798000   0.96963808   -7.8966446    435.34864  0.020177449  0.020071828            7 
 1799000   0.96748722   -7.9060071     434.9199  0.020146373   0.02006546            7 
 1800000   0.97835133   -7.9047709    435.58617  0.020166027  0.020059096            5 
 1801000   0.97789898   -7.8867672    436.84449  0.020213052  0.020052665            4 
 1802000   0.96263159   -7.8647672    435.79029  0.020153084  0.020046291            2 
 1803000   0.94410093   -7.8817857    436.02902   0.02015294      0.02004            4 
 1804000   0.97075929   -7.8677619    435.97665   0.02013935  0.020033681            3 
 1805000   0.98094365   -7.8855387    436.07436  0.020132704  0.020027371            1 
 1806000   0.94118967   -7.8741581    436.57987  0.020144882  0.020021076            2 
 1807000   0.94105936   -7.8768325    436.83553  0.020145523  0.020014727            2 
 1808000   0.98292065   -7.8945727    435.95416  0.020093757  0.020008347            2 
 1809000   0.98348995   -7.8822177    436.68041  0.020116105   0.02000195            2 
 1810000   0.96452131   -7.8864978    436.31204  0.020088031   0.01999553            3 
 1811000   0.94866899   -7.9032754    435.55442  0.020042077  0.019989074            3 
 1812000   0.96687129   -7.8771314    435.67983  0.020036784  0.019982633            2 
 1813000   0.97020419    -7.872357    436.11255  0.020045622   0.01997624            2 
 1814000   0.94967515   -7.9055119    436.51023   0.02005284   0.01996981            6 
 1815000   0.94670464    -7.872313    437.79701  0.020100873  0.019963398            4 
 1816000   0.94421308   -7.8781645    436.85532  0.020046592  0.019957054           10 
 1817000   0.94953987   -7.8819339    436.49347  0.020018963  0.019950633            1 
 1818000   0.96121556   -7.8942062    436.67835  0.020016426  0.019944169            9 
 1819000   0.95759859   -7.9019793    437.04989  0.020022443  0.019937753            3 
 1820000   0.94585205   -7.9046296    437.23608  0.020019967  0.019931366            3 
 1821000   0.96120006   -7.8379058    438.92854  0.020086424  0.019924969            4 
 1822000   0.96640922   -7.8540641    438.27167  0.020045356  0.019918659            5 
 1823000   0.95049465   -7.8716652    438.31182  0.020036196  0.019912313            4 
 1824000   0.96589611   -7.8817058    438.01806   0.02001179  0.019905964            6 
 1825000   0.97271964   -7.8796226    437.80707   0.01999119  0.019899588            5 
 1826000   0.96459518    -7.871126    438.82385  0.020026645  0.019893289            3 
 1827000   0.96294003   -7.8768028    438.66358  0.020008373  0.019886976            4 
 1828000   0.96140545   -7.8911882    439.58505  0.020039435  0.019880582            3 
 1829000   0.95734128   -7.8926285    438.09247  0.019960473  0.019874191            1 
 1830000   0.96409316   -7.8957233    438.98449  0.019990186  0.019867882            2 
 1831000   0.96405995   -7.8570974    439.44179  0.020000081  0.019861549            3 
 1832000   0.93832925   -7.8953494    438.48386   0.01994559  0.019855204            2 
 1833000   0.98523323   -7.8806677     438.7713  0.019947777  0.019848859            7 
 1834000   0.95503099   -7.8956721    439.36116  0.019963703  0.019842522            3 
 1835000   0.93802067   -7.9161896    438.47527  0.019912592  0.019836118            3 
 1836000   0.94145806   -7.8609622    439.39411  0.019943451  0.019829773            1 
 1837000   0.94520942   -7.8750031    439.64393  0.019943927  0.019823499            3 
 1838000   0.96704771    -7.905403    439.83586  0.019941778  0.019817206            4 
 1839000   0.95665444   -7.8670454    440.43305  0.019957996  0.019810882            3 
 1840000    0.9712206   -7.9093511    439.42223  0.019901369  0.019804516            3 
 1841000   0.98463089   -7.8820734    440.24282  0.019927703  0.019798141            3 
 1842000   0.95705977   -7.9246697    438.60255  0.019842678  0.019791682            4 
 1843000   0.97828827   -7.8614088    440.84904  0.019933489  0.019785264            7 
 1844000   0.94189733   -7.9220143    440.28234  0.019897069   0.01977886           10 
 1845000   0.95410022   -7.9292212    439.15454  0.019835345  0.019772431            4 
 1846000   0.95844403   -7.8920886    439.72104  0.019850173  0.019766059            2 
 1847000   0.95201213   -7.9291285    438.97596  0.019805809  0.019759619            6 
 1848000   0.96949505   -7.9112632    440.07402  0.019844608  0.019753232            3 
 1849000   0.96081018   -7.8886077    439.97328  0.019829335  0.019746878            3 
 1850000   0.95734187   -7.8887989    440.66241  0.019849658  0.019740577            5 
 1851000   0.96189516   -7.9228082     440.6671  0.019839145  0.019734132            5 
 1852000   0.96696155   -7.8431729    441.49266   0.01986558  0.019727721            3 
 1853000   0.98104609      -7.9236     440.5111  0.019810717  0.019721288            6 
 1854000   0.93179186   -7.9300384     441.5355  0.019846076  0.019714869            4 
 1855000   0.95252365   -7.8939029    441.62553  0.019839422  0.019708523            3 
 1856000   0.93541195   -7.9019843    441.46164  0.019821374   0.01970225            3 
 1857000   0.93247587    -7.868835    442.89215  0.019874895  0.019695954            2 
 1858000   0.94487744   -7.8916007    442.11297  0.019829251   0.01968964            1 
 1859000   0.96885035   -7.8798263    441.71416  0.019800707  0.019683392            6 
 1860000   0.94623865    -7.895176    442.36525  0.019819231  0.019677181            6 
 1861000   0.95413387   -7.8799822    442.37954  0.019809222  0.019670875            7 
 1862000   0.95476049   -7.8872369    442.54589  0.019806028  0.019664566            3 
 1863000   0.96341612    -7.886324    441.90094  0.019766548  0.019658251            4 
 1864000   0.96033645   -7.8694668    443.35792   0.01982108  0.019651925            5 
 1865000   0.94798991   -7.9235842    443.09444  0.019798679  0.019645535            2 
 1866000   0.96162404    -7.918103    441.60552  0.019721576  0.019639193            8 
 1867000   0.95402029   -7.8923474    443.78121  0.019808124  0.019632857            4 
 1868000   0.96436911   -7.9182456    442.61359  0.019745431  0.019626543            3 
 1869000   0.93978917   -7.9242119    443.49483  0.019774159  0.019620207            4 
 1870000   0.93289189   -7.8906561    442.06925  0.019700056  0.019613846            5 
 1871000   0.93018212   -7.8888225    443.94245  0.019772958  0.019607577            5 
 1872000   0.94658468    -7.947766    443.54136   0.01974454  0.019601298            7 
 1873000   0.96144903   -7.9180574    443.22369  0.019719865  0.019594947            3 
 1874000   0.93132549   -7.9345294    443.66199  0.019728833   0.01958868            2 
 1875000   0.96286049   -7.9312955    443.68226  0.019719211   0.01958241            5 
 1876000    0.9412775    -7.923591    443.64324  0.019706967  0.019576099            2 
 1877000   0.93290628   -7.9147402    445.10009  0.019761148  0.019569808            2 
 1878000   0.95474655    -7.901387     444.4736  0.019722826  0.019563532            2 
 1879000   0.95740102   -7.9193213     443.5692  0.019672219  0.019557281            3 
 1880000    0.9475148   -7.9282293     443.4865   0.01965809  0.019550955            2 
 1881000   0.94115775   -7.9358115    444.05043  0.019672622  0.019544597            4 
 1882000   0.95477483   -7.9225015    442.67205  0.019601136  0.019538264            4 
 1883000   0.97351231   -7.9128536    446.09318  0.019742131  0.019532004            2 
 1884000   0.92323225    -7.941679    443.43773  0.019614195  0.019525745            3 
 1885000   0.93822613   -7.8916342    446.10539  0.019721724  0.019519543            2 
 1886000   0.95695326   -7.8931123    444.87255  0.019656794  0.019513322            2 
 1887000   0.93657019   -7.8970111    445.59789  0.019678409  0.019507147            3 
 1888000   0.95825276   -7.9094978    445.52628  0.019664825    0.0195009            8 
 1889000     0.944739   -7.9173915    444.51047  0.019609603  0.019494652            7 
 1890000   0.93882296   -7.9359767    444.28389  0.019589237  0.019488364            4 
 1891000   0.96513715   -7.9909301    443.94836  0.019564091  0.019482031            5 
 1892000   0.94546795   -7.9396193    444.15088  0.019562671  0.019475686            3 
 1893000   0.93380359   -7.9564273    445.36909  0.019605965  0.019469318            5 
 1894000   0.95378815   -7.9445468    444.92007  0.019575856  0.019462963            3 
 1895000   0.96186332   -7.8990302    445.97781  0.019612041   0.01945664            3 
 1896000   0.93926783   -7.9187946     444.0383  0.019516451  0.019450314            3 
 1897000   0.94615715   -7.9174096    446.08857   0.01959623  0.019444069            2 
 1898000   0.92840811   -7.8963573    445.57967  0.019563561  0.019437746            3 
 1899000   0.94237404   -7.9430329    445.35339   0.01954333  0.019431447            5 
 1900000   0.93224005   -7.9219829    446.00136  0.019561463  0.019425098            3 
 1901000   0.96651952   -7.8568555    446.22067  0.019560787  0.019418755            3 
 1902000   0.96559986   -7.9185333    446.75206  0.019573785  0.019412533            5 
 1903000   0.94709229   -7.8898195    446.61646  0.019557561  0.019406242            4 
 1904000   0.93823736   -7.9274028     446.7384  0.019552626   0.01940001            7 
 1905000   0.92868828   -7.9056114    446.34173   0.01952501  0.019393716            5 
 1906000   0.94888395   -7.9320632    445.87819  0.019494499  0.019387468            3 
 1907000   0.95206244   -7.9024999     447.6499  0.019561698  0.019381209            2 
 1908000    0.9578258   -7.9449984    446.94632  0.019520716  0.019374997            5 
 1909000   0.96594494   -7.9210368    447.56988  0.019537711  0.019368728            1 
 1910000   0.94070676   -7.9259309    447.96748  0.019544829   0.01936252            8 
 1911000   0.94860815   -7.8814343    448.12453   0.01954145   0.01935641            3 
 1912000   0.94336943   -7.9339242    446.97079  0.019480944  0.019350282            1 
 1913000   0.93110495   -7.9164873    448.18902  0.019523829  0.019344231            3 
 1914000   0.93936607    -7.941038    448.34155   0.01952027  0.019338111            2 
 1915000   0.94817338   -7.9532135    448.18341  0.019503194   0.01933191            4 
 1916000   0.95107221   -7.9337565    447.73752  0.019473622  0.019325711            2 
 1917000   0.93803419   -7.9162744     449.4299  0.019537033  0.019319591            2 
 1918000   0.97079709   -7.8983626    449.11177  0.019513025  0.019313484            7 
 1919000   0.94836184   -7.9335503    448.69769  0.019484874  0.019307425            2 
 1920000   0.94664044   -7.9305033    448.84328  0.019481045  0.019301302            6 
 1921000   0.97063285   -7.9176952     449.8837  0.019516037  0.019295185            6 
 1922000    0.9548297   -7.9486119    449.63331  0.019495027  0.019289068            7 
 1923000   0.95821542   -7.9520266    449.00146  0.019457508  0.019282945            3 
 1924000   0.94513638   -7.9545757    449.05842  0.019449862  0.019276844            3 
 1925000   0.92958604   -7.9615788     448.7974  0.019428459  0.019270718            3 
 1926000   0.92326566   -7.9560979    449.88907  0.019465606  0.019264583           12 
 1927000   0.92387376   -7.9274107    449.34353  0.019431912  0.019258475            4 
 1928000   0.92395032   -7.9575173    449.15228  0.019413567  0.019252394            5 
 1929000   0.94162715   -7.9370378    449.63261  0.019424253  0.019246248            6 
 1930000   0.94246619   -7.9274285    451.46799  0.019493436  0.019240227            5 
 1931000   0.95110736   -7.9201347    450.87544   0.01945777   0.01923418            2 
 1932000   0.93542897   -7.9459925    451.76216  0.019485946  0.019228138            5 
 1933000   0.92983324   -7.9014292    450.77101  0.019433135  0.019222059            3 
 1934000   0.92552301   -7.9493298    451.08621  0.019436669  0.019216011            4 
 1935000   0.96174839   -7.9534614    451.09667  0.019427074  0.019209879            5 
 1936000   0.94127848   -7.9352797    450.08046  0.019373298  0.019203774            4 
 1937000   0.94511916   -7.9745785    450.03691  0.019361423  0.019197658            3 
 1938000   0.92669312   -7.9657877    450.44706  0.019369069  0.019191564            4 
 1939000   0.93528528   -7.9833229    449.83395   0.01933273  0.019185443            5 
 1940000   0.95985602   -7.9381503    451.37178  0.019388822  0.019179297            5 
 1941000    0.9511769   -7.9571168    451.09533  0.019366964   0.01917322            3 
 1942000   0.93620827   -7.9827616    450.90727  0.019348922  0.019167157            3 
 1943000   0.93014819   -7.9945343    450.36954  0.019315901  0.019160988            3 
 1944000   0.95064604   -7.9902366    451.42006  0.019350997  0.019154867            7 
 1945000   0.94004952   -7.9367172    450.98018  0.019322201  0.019148807            3 
 1946000   0.92251752   -7.9693124    451.51177  0.019335036  0.019142632            2 
 1947000   0.94139161   -7.9316023    451.36455  0.019318805  0.019136579            8 
 1948000   0.93551215   -7.9299587    452.30445  0.019349095  0.019130561            4 
 1949000   0.93311341   -7.9238033    452.41678   0.01934397  0.019124594            7 
 1950000    0.9602803   -7.9219816     453.0253  0.019360055  0.019118582            2 
 1951000   0.95553072   -7.9837673    452.38277  0.019322688  0.019112509            3 
 1952000   0.92828166   -7.9545891    452.72504  0.019327401   0.01910639            7 
 1953000   0.92213886   -7.9522572    450.71197  0.019231608  0.019100283            3 
 1954000   0.93452789   -7.9278473    452.49367  0.019297751  0.019094177            5 
 1955000   0.96377355   -7.9896703    452.28829  0.019279126  0.019088054            3 
 1956000   0.94372015   -7.9565729    451.88193  0.019251957     0.019082            3 
 1957000    0.9471828   -7.9491629    452.48473  0.019267788  0.019075945            4 
 1958000   0.92616972   -7.9337692    452.66141  0.019265467  0.019069901            6 
 1959000   0.95144995   -7.9674345     452.3203  0.019241122  0.019063862            3 
 1960000   0.93841135   -7.9554042    453.72974   0.01929123  0.019057819            4 
 1961000   0.91129256   -7.9325104    452.49505  0.019228924  0.019051726            4 
 1962000   0.92919156   -8.0127003    452.05227  0.019200317  0.019045635           10 
 1963000   0.91509208    -7.952117    452.70036  0.019218049   0.01903954            1 
 1964000   0.93977883   -7.9620267    453.58725  0.019245895  0.019033441            4 
 1965000   0.95217968   -7.9471107     453.7193    0.0192417  0.019027361            7 
 1966000   0.91497139   -7.9467196    452.65808  0.019186931  0.019021313           10 
 1967000   0.96920735    -7.976258    453.52506  0.019213907  0.019015215            6 
 1968000   0.91593489   -7.9799194    454.60998  0.019250084    0.0190092            4 
 1969000   0.93999057   -7.9177314     454.5944  0.019239648  0.019003149            4 
 1970000    0.9436045   -7.9483388    455.11901  0.019252073  0.018997211            5 
 1971000   0.91957912   -7.9442127    454.92673  0.019234176  0.018991274            2 
 1972000   0.93877357   -7.9731487    455.38585  0.019243824  0.018985352            7 
 1973000   0.92952501   -7.9223081     455.7689  0.019250249  0.018979392            3 
 1974000   0.92062517    -7.958896    454.08608  0.019169456  0.018973362            5 
 1975000   0.97047985   -7.9572411    455.06534  0.019201069  0.018967379            6 
 1976000   0.93347311   -7.9571625    455.76701  0.019220944  0.018961395            4 
 1977000   0.91593321   -7.9673788    454.23684  0.019146722  0.018955361            6 
 1978000   0.92290837   -7.9660367    456.49046  0.019231988  0.018949357            3 
 1979000   0.95728908   -7.9923977    454.72227  0.019147813  0.018943296            6 
 1980000   0.92386464   -7.9705331    455.33973   0.01916413  0.018937269            3 
 1981000   0.92078016   -7.9905846    455.54485  0.019163085  0.018931236            7 
 1982000   0.93289502   -7.9661232    456.12395  0.019177764   0.01892523            2 
 1983000   0.95887876   -7.9376505    455.50583  0.019142118  0.018919261            1 
 1984000   0.94221185   -7.9769842    455.49334  0.019131945  0.018913305            7 
 1985000   0.93934738   -7.9626071    456.83805   0.01917876  0.018907335            3 
 1986000   0.92790865    -7.987736    455.81611  0.019126222  0.018901357            2 
 1987000   0.94194882   -7.9330334    456.34779  0.019138894  0.018895412            5 
 1988000   0.94618144   -7.9509182    455.68523  0.019101494  0.018889483            4 
 1989000   0.92921977   -7.9459768    457.67235  0.019175144  0.018883584            7 
 1990000   0.95086933   -7.9456531    455.93213  0.019092635  0.018877728            5 
 1991000   0.93621608    -7.948238    456.70349  0.019115331  0.018871861            6 
 1992000   0.93794296   -7.9564078     457.8289  0.019152815  0.018865983            7 
 1993000   0.95001107   -7.9502302    458.17836  0.019157817  0.018860123            4 
 1994000   0.95810777   -7.9501707    457.81373  0.019132971  0.018854237            3 
 1995000   0.91883449   -7.9712459    457.43504  0.019107562  0.018848286            4 
 1996000   0.94252267   -7.9445002    458.31844  0.019134871   0.01884241            6 
 1997000   0.93264614   -7.9825089    456.80186  0.019062004  0.018836421            3 
 1998000    0.9181963    -7.976867    456.34931  0.019033588  0.018830412            3 
 1999000   0.92809705   -7.9602382    457.34676  0.019065648  0.018824476            7 
 2000000   0.91715676   -7.9549542    458.13789  0.019089079  0.018818555            9 
 2001000   0.93967362   -7.9701236    456.95932  0.019030457  0.018812651            5 
 2002000   0.95334973   -7.9541586    458.17355  0.019071493  0.018806735            4 
 2003000   0.93230674   -7.9694421    457.56513  0.019036659  0.018800768           11 
 2004000   0.94033695   -7.9815121    456.83558  0.018996822   0.01879474            3 
 2005000   0.92250929    -7.959106    457.35121  0.019008778  0.018788728           15 
 2006000   0.94837602   -8.0100978    456.66231  0.018970684  0.018782737            4 
 2007000   0.94203681   -7.9947009    457.14809  0.018981402  0.018776749            3 
 2008000   0.92857596   -7.9884281    456.91886  0.018962436  0.018770814            6 
 2009000   0.93917738   -7.9352726    459.15105  0.019045589  0.018764886            3 
 2010000    0.9347816   -8.0001879    458.17773   0.01899576  0.018758996            4 
 2011000   0.95473044    -7.988926    457.67645  0.018965541   0.01875312            6 
 2012000   0.91390899   -7.9344084     457.9902   0.01896911  0.018747206            4 
 2013000     0.921541    -7.932287    459.93111  0.019040036   0.01874129            2 
 2014000   0.94018905   -7.9477377    459.75924  0.019023471  0.018735404            2 
 2015000   0.92235902   -7.9692867    459.70006  0.019011582  0.018729571            4 
 2016000   0.92257384   -7.9973077    458.04882  0.018933897   0.01872364            2 
 2017000   0.91813864   -7.9917398    458.17989  0.018929924    0.0187177            3 
 2018000   0.92012294   -7.9479176    459.31076  0.018967243  0.018711799            3 
 2019000   0.92509983   -7.9997472    458.07214  0.018906725  0.018705898            3 
 2020000   0.92966574   -7.9934887    459.06083  0.018938153  0.018699991            3 
 2021000   0.94799472   -7.9942427    457.94218  0.018882656  0.018694059            2 
 2022000   0.92668963   -7.9981276     458.9868   0.01891637   0.01868809            4 
 2023000   0.93065114   -7.9947093    460.33136  0.018962406  0.018682238            4 
 2024000    0.9202724   -8.0039813     460.8802  0.018975634  0.018676361            2 
 2025000   0.89771194   -8.0016331    459.53148   0.01891076  0.018670501            2 
 2026000   0.93880233   -7.9687517    461.59437  0.018986277  0.018664687            3 
 2027000   0.93298638   -7.9759445    461.22583  0.018961759  0.018658885            5 
 2028000   0.93142258   -7.9884604    459.22357  0.018870134  0.018653056            8 
 2029000   0.92545113   -7.9996297     459.0641  0.018854284  0.018647119            3 
 2030000   0.91908954    -8.041221    458.40522  0.018817948  0.018641164            4 
 2031000   0.91825281    -8.017885    459.34418  0.018847209  0.018635221            4 
 2032000   0.93466719   -8.0164888    460.60327   0.01888957  0.018629255           12 
 2033000   0.94022987   -7.9973397    459.20114  0.018822804  0.018623308            1 
 2034000   0.91359675   -7.9794815    459.18466  0.018812875  0.018617325            6 
 2035000   0.91667992   -7.9774596    461.12894  0.018883249  0.018611392            2 
 2036000   0.93005232     -7.97254    459.37879  0.018802341  0.018605442            2 
 2037000   0.92049313   -7.9841291    459.74192  0.018807966  0.018599477            5 
 2038000   0.91671806   -8.0122753     459.8325  0.018802441  0.018593489            4 
 2039000   0.93132262   -7.9608479    461.63983  0.018867085  0.018587551            4 
 2040000   0.94513237    -7.942558    460.60411  0.018815527  0.018581675            5 
 2041000   0.91337488    -7.980322    460.81269  0.018814825  0.018575832            3 
 2042000   0.93306281   -8.0051593     460.3969  0.018788643  0.018569941            6 
 2043000   0.93199916   -7.9956213    460.17494  0.018770393  0.018563965            5 
 2044000   0.92653426   -7.9926904    461.75573  0.018825657  0.018558061            5 
 2045000   0.93727636   -8.0202605    461.01327  0.018786197  0.018552151            3 
 2046000   0.90915864   -8.0267804    460.86852  0.018771119  0.018546221            4 
 2047000   0.90931337   -8.0138324    461.18009  0.018774633  0.018540316            9 
 2048000   0.93981378   -8.0200642    460.93246   0.01875539  0.018534425            7 
 2049000   0.93413432   -8.0086478    461.46531  0.018767908  0.018528472            5 
 2050000   0.92402049   -7.9804998    462.25175  0.018790721  0.018522582            4 
 2051000    0.9307299    -7.982554    461.28209  0.018742162  0.018516675            3 
 2052000   0.93362123   -7.9853288    462.63794   0.01878809   0.01851074            3 
 2053000    0.9303173   -7.9964168    461.74344   0.01874263   0.01850479            5 
 2054000    0.9375489   -7.9779855    461.98026  0.018743114  0.018498831            3 
 2055000   0.91426237   -7.9894535    460.13978  0.018659358  0.018492885            3 
 2056000   0.93788324   -7.9540901    461.53315  0.018706759  0.018486934            5 
 2057000   0.94197821   -8.0136472    460.55406     0.018658  0.018480984            5 
 2058000   0.93240648   -8.0251368    460.81664  0.018659566  0.018474971            5 
 2059000   0.91652284   -7.9791339    461.45236  0.018676233  0.018468967            6 
 2060000   0.91647858   -7.9730808    462.41118  0.018705954  0.018462967            7 
 2061000   0.92675877    -7.991996    460.89677  0.018635645  0.018456993            4 
 2062000   0.92758219   -7.9826728    462.02872  0.018672354  0.018451017            3 
 2063000    0.9346775   -7.9728192    461.12547  0.018626816   0.01844505            3 
 2064000   0.91717431   -8.0166193    460.59165  0.018596239  0.018439017            2 
 2065000   0.93166251   -7.9929724    461.83349  0.018637348  0.018432957            2 
 2066000   0.92538857   -8.0089107    462.26002  0.018645532  0.018426887            3 
 2067000   0.91248765   -7.9781108    462.33277  0.018639444  0.018420889            2 
 2068000    0.9212735   -7.9878248    461.91745  0.018613695  0.018414892            4 
 2069000   0.91694475    -7.952327    463.37421  0.018663373  0.018408902            1 
 2070000   0.92760093   -8.0111999    462.78725  0.018630727  0.018402972            3 
 2071000   0.90339508    -8.046302    462.15574   0.01859632   0.01839696            4 
 2072000   0.91535425   -7.9889632    461.53767  0.018562487  0.018390947            4 
 2073000   0.94072074   -8.0108504    461.62125  0.018556892  0.018384922            2 
 2074000   0.90196801   -7.9915316    462.20276   0.01857131  0.018378915            3 
 2075000   0.92431881   -7.9517297    464.04697  0.018636425  0.018372934            3 
 2076000   0.90809668   -7.9924702     463.2041  0.018593613  0.018366968            3 
 2077000   0.91023445   -7.9965195    463.75197  0.018606643  0.018360947            7 
 2078000   0.92448742   -7.9845035    461.86968  0.018522204  0.018354884            1 
 2079000   0.92778557   -8.0381837    462.61983  0.018543363  0.018348854            7 
 2080000   0.91652395    -8.008066    461.76399   0.01850016  0.018342798            2 
 2081000   0.93551998    -8.041766    462.73343  0.018530091  0.018336763            3 
 2082000   0.90108298   -8.0355225    463.47091  0.018550709  0.018330691            5 
 2083000   0.92177819   -7.9804507    462.02152  0.018483818  0.018324587            6 
 2084000   0.90259361   -8.0021121    462.16346  0.018480625  0.018318511            6 
 2085000   0.91771522   -8.0335775    463.03368  0.018506542  0.018312447            2 
 2086000   0.93423299    -7.982725    462.71002  0.018484741  0.018306419            4 
 2087000   0.92826239   -7.9807283    463.87971  0.018522588  0.018300381            7 
 2088000   0.91749728   -8.0197132    462.96885  0.018477365  0.018294337            6 
 2089000   0.92624807   -8.0240345    462.55427  0.018451981  0.018288294            3 
 2090000   0.91050411   -8.0228509    463.64795   0.01848676   0.01828221            1 
 2091000    0.9105443    -8.037376    463.66695  0.018478676  0.018276164            3 
 2092000   0.92752512   -8.0625822    462.37356  0.018418322  0.018270108            3 
 2093000   0.90371248    -8.028761    462.57144  0.018417401  0.018263987           14 
 2094000   0.90819853   -8.0669449    462.40457  0.018401965  0.018257888            7 
 2095000   0.91303789   -8.0595944    462.78199  0.018408194  0.018251789           10 
 2096000   0.91069434   -8.0204191    464.16387  0.018454352  0.018245695            6 
 2097000    0.9119959   -8.0603874    462.96615  0.018397955  0.018239559            3 
 2098000     0.906058   -8.0098095    464.01877  0.018430997   0.01823344            7 
 2099000   0.91270421   -8.0061164    464.55497  0.018443503  0.018227367            3 
 2100000   0.91334375   -7.9917673    465.38081  0.018467492  0.018221346            2 
 2101000   0.89518069   -8.0070026    463.79231  0.018395697  0.018215357            4 
 2102000    0.9270283   -8.0346383    464.53103  0.018416232  0.018209325            4 
 2103000   0.91434568   -8.0165546    463.74473  0.018376317  0.018203261            3 
 2104000    0.8947308   -8.0007397    464.92035  0.018414146  0.018197205            3 
 2105000   0.90490408   -7.9997836    463.51086  0.018349598  0.018191184            4 
 2106000   0.94229208   -7.9928263    465.08407  0.018403137  0.018185141           11 
 2107000    0.9023679   -7.9782456    465.19744  0.018398886  0.018179108            4 
 2108000   0.90468228   -7.9950195    464.29636  0.018354537  0.018173084            2 
 2109000   0.90629443   -8.0128253    464.12378  0.018339015   0.01816702            4 
 2110000   0.92113251   -7.9865075    465.16425  0.018371416   0.01816096            5 
 2111000   0.93407284   -8.0115076    463.99177  0.018316429   0.01815488            7 
 2112000   0.90159194   -8.0228738     463.4061  0.018284647  0.018148741            7 
 2113000   0.92795022   -7.9764011    464.28791  0.018310771  0.018142608            3 
 2114000   0.90475114   -8.0084717    465.22112  0.018338896  0.018136503            3 
 2115000   0.92258055   -8.0188749    463.86059  0.018276619  0.018130393            3 
 2116000   0.93878574   -8.0101002    465.24183  0.018322378  0.018124276            9 
 2117000   0.90410404   -8.0027949    464.44683  0.018282429   0.01811818            4 
 2118000   0.92258095   -8.0092522    465.70126  0.018323153  0.018112176           11 
 2119000   0.91278599   -7.9867944    465.66445  0.018313058  0.018106176            5 
 2120000   0.89661172   -7.9794429    465.55796  0.018300234  0.018100139           10 
 2121000   0.91906153   -8.0199637    464.93636  0.018267184  0.018094047            3 
 2122000   0.93968536   -8.0248574    464.84646  0.018255045  0.018087949           15 
 2123000   0.90959599    -8.009445    464.49205  0.018232535  0.018081842            9 
 2124000   0.93369068    -8.024003     464.0998  0.018208561  0.018075765            9 
 2125000   0.90493815    -8.039572    464.80267  0.018227556  0.018069693            5 
 2126000   0.91826904   -8.0438028    465.09004  0.018230246  0.018063603            3 
 2127000   0.90256113   -8.0481595    465.06035  0.018220512  0.018057504            8 
 2128000   0.91347397   -8.0485267     464.9177  0.018206364  0.018051377            4 
 2129000   0.90590926   -8.0659222    465.78455  0.018231742  0.018045262            4 
 2130000   0.89862736   -8.0873908    464.18881  0.018160752  0.018039141            2 
 2131000   0.91896158   -8.0568383     465.6762  0.018210394  0.018033047            4 
 2132000   0.91772245   -8.0592586    466.37727  0.018229256   0.01802699            2 
 2133000   0.91576472   -8.0381944    467.13346  0.018250252  0.018020973            2 
 2134000   0.90344193     -7.97514    468.58065  0.018298213  0.018014956            8 
 2135000   0.90749376   -8.0599331    465.95797  0.018187274  0.018008939            6 
 2136000    0.9101803   -8.0171325    466.13627  0.018185716  0.018002853            5 
 2137000   0.89768097   -8.0290211     467.5572  0.018232616  0.017996779            3 
 2138000   0.89615821   -8.0662323    466.07611  0.018166359  0.017990658            7 
 2139000   0.91317014   -8.0681307    465.50811  0.018135738  0.017984575            4 
 2140000   0.90601098   -8.0623636    466.49597  0.018165731  0.017978468            3 
 2141000   0.89351535   -8.0267599    466.17736  0.018144845  0.017972411            8 
 2142000   0.92151868   -8.0604706     466.0456  0.018131248  0.017966328            3 
 2143000   0.91148375   -8.0768249    466.02449  0.018121966  0.017960217            1 
 2144000   0.91096252   -8.0075689    467.19926  0.018159175  0.017954108            4 
 2145000   0.90539685   -8.0522198     467.1359  0.018148248  0.017948056            3 
 2146000    0.8861167   -8.0238133    467.11075  0.018138814  0.017942045            1 
 2147000   0.88783424   -8.0415772    467.90115  0.018161044   0.01793611            4 
 2148000   0.91428108   -8.0421912    467.96997   0.01815526  0.017930138            6 
 2149000   0.89751528   -8.0334348    468.17469   0.01815475  0.017924206            5 
 2150000   0.91987981   -8.0436145    466.97001  0.018099613  0.017918246            9 
 2151000   0.91996669   -8.0665088    466.98816  0.018091902  0.017912253            9 
 2152000   0.92173662   -8.0530395    468.25092  0.018132393  0.017906256            4 
 2153000   0.90941379   -8.0504212    468.57734  0.018136605  0.017900297            7 
 2154000    0.9103532   -8.0542497    467.90634  0.018102226  0.017894315            6 
 2155000   0.92160909   -8.0070416    468.21386  0.018105718  0.017888315            7 
 2156000   0.90622779   -8.0651126    467.75096  0.018079428   0.01788235            9 
 2157000   0.89262951   -8.0404565    469.27622  0.018129973  0.017876392            9 
 2158000   0.89955099   -8.0525134    469.41744  0.018127025  0.017870458            3 
 2159000    0.9061189   -7.9976334    470.37254  0.018155494  0.017864548            5 
 2160000     0.926753   -8.0073607    469.96382   0.01813132  0.017858716            8 
 2161000   0.88448134   -8.0706076     468.8084  0.018078374  0.017852843            3 
 2162000   0.89087634   -8.0450256    470.61604  0.018139687  0.017846955            4 
 2163000   0.90104975   -8.0149678    469.90714  0.018103989  0.017841041            7 
 2164000   0.91524397   -8.0501255      469.022  0.018061537  0.017835089            6 
 2165000   0.89696838   -8.0492609    469.50014  0.018071599  0.017829144            3 
 2166000   0.91769932   -8.0326309    469.77812   0.01807395  0.017823231            3 
 2167000   0.91001077   -8.0520579     469.1306  0.018040709  0.017817287            5 
 2168000   0.88880841   -8.0304033    470.11257  0.018070133  0.017811425            5 
 2169000   0.88989836   -8.0183349    470.21104  0.018065585  0.017805552            3 
 2170000   0.91547724   -8.0829907    470.30786  0.018060978   0.01779964            4 
 2171000   0.90270537   -8.0445299     469.4574  0.018020014  0.017793716            3 
 2172000   0.89523205   -8.0396502     470.5603  0.018054033  0.017787718            2 
 2173000   0.90390318   -8.0249681    469.98495   0.01802366  0.017781747            6 
 2174000   0.89779668   -8.0881796    468.10936  0.017943474  0.017775754           18 
 2175000   0.90535415   -8.0877815    469.15265  0.017975197  0.017769762            8 
 2176000   0.89447199   -8.0485755    470.35737  0.018013073  0.017763762           14 
 2177000   0.90143907   -8.0282115    470.35163  0.018004579  0.017757798            3 
 2178000   0.90895393   -8.0757067    469.96696  0.017981595  0.017751876            5 
 2179000   0.88213411   -8.0504107    470.07756  0.017977572  0.017745994            3 
 2180000   0.90670861   -8.0612274    471.10903  0.018008755  0.017740118            5 
 2181000   0.90005819   -8.0428093    470.15502  0.017964046  0.017734202            7 
 2182000   0.89754549    -8.054627    471.08591  0.017991365  0.017728323            7 
 2183000   0.92201048   -8.0394909    471.09607  0.017983512  0.017722476            5 
 2184000   0.92167134   -8.0387789      471.061  0.017973939  0.017716634            6 
 2185000    0.8970037   -8.0558572    470.92904   0.01796068  0.017710816            1 
 2186000   0.90136949   -8.0563706    471.01653  0.017955799  0.017704957            2 
 2187000   0.88959409   -8.0937441    470.89971  0.017943138  0.017699063           13 
 2188000   0.92027629   -8.0368242    470.76629  0.017929856  0.017693141           11 
 2189000   0.90135741   -8.0331706    470.32462  0.017904851  0.017687262            9 
 2190000   0.90791327    -8.065082    471.50872  0.017941732  0.017681398            2 
 2191000    0.9024235    -8.018363     471.1076  0.017918287  0.017675537            5 
 2192000    0.8868584   -8.0236228    471.98637  0.017943521  0.017669694            6 
 2193000   0.89140694   -8.0724609    471.08894  0.017901236  0.017663831            4 
 2194000   0.91175213   -8.0791308    470.98417  0.017889098  0.017657967            8 
 2195000   0.91410863    -8.071792    471.70559  0.017908337  0.017652141            3 
 2196000   0.91353638   -8.0358193    472.89203  0.017945205  0.017646284           13 
 2197000   0.90659303   -8.0611875    471.76404  0.017894251  0.017640479            5 
 2198000   0.89917734   -8.0575906    471.57304  0.017878869  0.017634581            5 
 2199000   0.89908399   -8.0378268    471.50779  0.017868266  0.017628737           19 
 2200000   0.90325109   -8.0449884    471.46599   0.01785856  0.017622843            7 
 2201000   0.87694476   -8.0575091    471.49735  0.017851634   0.01761692            2 
 2202000   0.90824127   -8.0855576    471.44172  0.017841422  0.017611013            4 
 2203000   0.90430571   -8.0718486    471.48012  0.017834775  0.017605097            6 
 2204000   0.89227644   -8.0951508    471.54803  0.017829251  0.017599176            6 
 2205000   0.88914462   -8.0476074    472.07266  0.017840992   0.01759326            5 
 2206000    0.8895039   -8.0471621     472.2632  0.017840103  0.017587375            6 
 2207000   0.91201371     -8.06527    473.41586  0.017875542  0.017581531            3 
 2208000   0.89026988    -8.082895    473.15696  0.017857675  0.017575728            9 
 2209000   0.89882336   -8.0520151    472.82614  0.017837111  0.017569881            2 
 2210000   0.90162831    -8.081959    471.88971   0.01779373  0.017564023            3 
 2211000   0.89310757   -8.0779186     472.3544  0.017803196   0.01755816            5 
 2212000   0.88183637   -8.0558673    473.65233  0.017844045  0.017552381            6 
 2213000   0.89594066   -8.0532466    472.60289  0.017796464  0.017546593            5 
 2214000   0.89521213   -8.0553008    474.38125  0.017855362  0.017540806            7 
 2215000    0.9174416   -8.0352204    473.67413  0.017820697  0.017535037            5 
 2216000   0.89019838   -8.0415606    474.01219  0.017825368   0.01752926            5 
 2217000   0.89565466   -8.0454723    473.92905  0.017814203  0.017523491            5 
 2218000   0.90332684   -8.0262728    472.94744  0.017769291  0.017517697            3 
 2219000   0.89207999   -8.0610538    474.49034  0.017819226   0.01751192            3 
 2220000   0.90789908   -8.0822113    473.61792  0.017778451  0.017506152            5 
 2221000   0.88469123   -8.0490067    473.08397  0.017750412  0.017500397            7 
 2222000    0.8936821   -8.1240656    472.56962  0.017723133  0.017494582            4 
 2223000   0.88505065   -8.0891156    473.65384  0.017755804  0.017488757            7 
 2224000   0.87074339   -8.0651358    473.65067  0.017747702  0.017482967            7 
 2225000   0.91596528   -8.0656572    475.01144   0.01779069  0.017477137            4 
 2226000   0.89801696   -8.0822063    473.18581  0.017714354  0.017471342            7 
 2227000      0.88316   -8.0899487    474.08005  0.017739861  0.017465557            3 
 2228000    0.8777316   -8.1026541    473.42516  0.017707404  0.017459793            2 
 2229000   0.88035527   -8.0869282    475.22446  0.017766729  0.017454019            9 
 2230000   0.89639788   -8.0753302    474.76728  0.017741677  0.017448257            9 
 2231000   0.89686719   -8.0928177    475.61806  0.017765503  0.017442504            6 
 2232000   0.88514505   -8.0809592    474.98139  0.017733774  0.017436758            4 
 2233000   0.89262432   -8.0649297    475.36125  0.017740008  0.017431048            4 
 2234000   0.90610293   -8.0704369    475.97862  0.017755096  0.017425314            7 
 2235000   0.90540214   -8.0725221    475.76195  0.017739074  0.017419594            6 
 2236000   0.89445125   -8.0907517    474.52177   0.01768492  0.017413867            7 
 2237000    0.8792867   -8.0456023    476.37982  0.017746231  0.017408136            4 
 2238000    0.8999129   -8.0653433    476.53663   0.01774414  0.017402429            7 
 2239000    0.9017132   -8.0618831     474.5042   0.01766057  0.017396706            2 
 2240000   0.89494272   -8.0812141    475.81781  0.017701556   0.01739099            6 
 2241000   0.88220207   -8.0683191    475.48747  0.017681372  0.017385261            9 
 2242000   0.88921132      -8.0314    477.37025  0.017743467  0.017379524            6 
 2243000   0.90470051   -8.0677724    475.89533   0.01768076  0.017373839            2 
 2244000   0.89942885   -8.0752943    475.81739  0.017669986  0.017368133            2 
 2245000   0.89882924   -8.0742199    475.74484  0.017659422   0.01736246            8 
 2246000   0.89704804   -8.0409598    476.97243  0.017697107  0.017356795            2 
 2247000   0.89033643   -8.1132556    475.27482  0.017626273  0.017351089            3 
 2248000   0.88920506   -8.1331181    476.02216  0.017646136  0.017345365           10 
 2249000   0.88134524    -8.100421    475.71868  0.017627045  0.017339616           10 
 2250000   0.88408261   -8.0827611    475.41991  0.017608145  0.017333921            5 
 2251000   0.88942699    -8.105087    476.50326  0.017640429  0.017328244            6 
 2252000   0.88606807   -8.0781275    476.14526  0.017619348  0.017322583            7 
 2253000   0.88876848    -8.097715    475.64955  0.017593193  0.017316858            3 
 2254000   0.88881966   -8.1087975    477.88801  0.017668146  0.017311119            7 
 2255000   0.89419136   -8.1047538    475.94079  0.017588351  0.017305388            5 
 2256000   0.89449991   -8.1158513    475.65006  0.017569816  0.017299655            3 
 2257000   0.87529013   -8.0997567    476.69162  0.017600488  0.017293919            5 
 2258000   0.88874504    -8.110434     475.7951  0.017559607   0.01728816            5 
 2259000   0.87425668    -8.102032    476.48598   0.01757732  0.017282365            4 
 2260000    0.8955771   -8.1273306    476.35603  0.017564751  0.017276631           12 
 2261000   0.89199403   -8.0908049    477.06727  0.017583196   0.01727089            5 
 2262000   0.88328207   -8.0750391    477.95088  0.017607975  0.017265185            1 
 2263000    0.8925186   -8.1181184     476.6766   0.01755327  0.017259445            4 
 2264000   0.89444632   -8.0952821    477.18738  0.017564318  0.017253731            5 
 2265000   0.88559644    -8.082859    477.39013  0.017564022  0.017248027            2 
 2266000   0.88432697   -8.0876684    477.36424  0.017555319  0.017242328            7 
 2267000   0.86995095   -8.0925609    477.09049  0.017537513  0.017236625            5 
 2268000   0.86770306   -8.0920285     476.9915  0.017526143  0.017230948            4 
 2269000   0.88657741   -8.0595528    477.44582  0.017535104  0.017225249            7 
 2270000   0.88125235   -8.0667707    477.22194  0.017519161  0.017219572            8 
 2271000   0.85671532   -8.0339513    478.85576  0.017571399  0.017213857            2 
 2272000   0.89514898   -8.1129402    476.32837  0.017470964  0.017208121            3 
 2273000   0.87742722   -8.1083309    477.55225  0.017508148  0.017202382            3 
 2274000   0.89192561   -8.0776636     478.3285  0.017528896  0.017196662            2 
 2275000    0.8806035    -8.068831    477.48904  0.017490441  0.017190947            8 
 2276000   0.88778032   -8.0816493    477.99938  0.017501442  0.017185226           17 
 2277000   0.87247423   -8.0779735    476.79729  0.017449762  0.017179469            5 
 2278000   0.87433574   -8.1101752    476.97449  0.017448584  0.017173769            3 
 2279000   0.88917949   -8.0962129    476.42092  0.017420686  0.017168078            3 
 2280000   0.88329559   -8.1066042    477.61836  0.017456811  0.017162344            6 
 2281000   0.87838212   -8.0970412    477.29355  0.017437292  0.017156618            5 
 2282000      0.88381   -8.0969653     478.4772  0.017472875  0.017150897            5 
 2283000   0.88626948     -8.09443    479.21548   0.01749217  0.017145202           13 
 2284000   0.88382106   -8.1071177    478.01085  0.017440559  0.017139514            2 
 2285000   0.88204666   -8.1243949    477.93236  0.017430064   0.01713383            5 
 2286000   0.89653914   -8.0530264    479.75379  0.017488837  0.017128181            2 
 2287000   0.90540916   -8.0905407    480.16919  0.017496327  0.017122529            6 
 2288000   0.89599757   -8.0876329     479.3379  0.017458402  0.017116878            5 
 2289000   0.87782726   -8.0966073    479.47899  0.017455912  0.017111223            3 
 2290000   0.90034042   -8.0978043    478.20691  0.017401998  0.017105517            4 
 2291000   0.90898159    -8.130084    476.54799  0.017334061   0.01709979           18 
 2292000   0.90441495   -8.1290596    478.04426    0.0173809  0.017094036            9 
 2293000   0.87991996   -8.0979079    478.25468  0.017380967  0.017088283            4 
 2294000   0.88049141   -8.1179343      478.002  0.017364211  0.017082535            6 
 2295000   0.90718831   -8.1441918    477.97987  0.017355841  0.017076824            3 
 2296000   0.88536683   -8.1102875    478.74164  0.017375931  0.017071081            3 
 2297000   0.88452457   -8.1077489     479.4058  0.017392461  0.017065371            2 
 2298000   0.88218754   -8.1176296    479.64867    0.0173937  0.017059666            4 
 2299000   0.89415392   -8.1714587    477.84683  0.017320822   0.01705399            3 
 2300000   0.89550134    -8.165794     478.3559  0.017331736  0.017048294            4 
 2301000   0.89784006   -8.1390932    478.40239  0.017325887  0.017042591            3 
 2302000    0.8832444   -8.1203708    479.65029  0.017363535  0.017036888            2 
 2303000   0.88473546   -8.1303845    479.57861  0.017353402   0.01703118            5 
 2304000   0.89750491    -8.077492    479.91628  0.017358083  0.017025502            3 
 2305000    0.8916011   -8.0811471    480.58025  0.017374557  0.017019832            3 
 2306000   0.87332336   -8.1144957    480.35577  0.017358911  0.017014192            5 
 2307000   0.88496533   -8.0870083    479.78262  0.017330683  0.017008544            7 
 2308000   0.88727981   -8.1016667     479.6003  0.017316591  0.017002896            9 
 2309000    0.8942301   -8.0951155     479.6736  0.017311737  0.016997263           14 
 2310000   0.89652719   -8.1062499     479.7883   0.01730838   0.01699162            4 
 2311000   0.90912109   -8.1638141    479.19701  0.017279569   0.01698591            3 
 2312000   0.88465945    -8.128774    478.77982  0.017257058  0.016980226            3 
 2313000   0.88142671   -8.1322915    479.52512  0.017276449  0.016974553            7 
 2314000    0.8877289   -8.1222744    479.86274  0.017281142    0.0169689            3 
 2315000   0.88096289   -8.1452134     479.0943  0.017246015   0.01696318            3 
 2316000   0.87803899   -8.1800988    478.32439  0.017210866   0.01695738           14 
 2317000   0.88038917   -8.1447637    478.92887  0.017225179    0.0169516            6 
 2318000   0.86777571   -8.1254363    479.00827  0.017220602  0.016945846            8 
 2319000   0.88016062   -8.0986767    481.02326  0.017285585  0.016940094            3 
 2320000   0.88857607   -8.1547352    479.41177   0.01722025  0.016934338            5 
 2321000   0.88626756   -8.1310168    479.04271   0.01719958  0.016928558           13 
 2322000   0.88691449    -8.150317    479.33286  0.017202586  0.016922831           10 
 2323000   0.89380891   -8.1308782    480.16059  0.017224874  0.016917114           12 
 2324000   0.86395777   -8.1421697    479.08587  0.017178925  0.016911396           12 
 2325000   0.87201332   -8.1167191    479.93752  0.017202062  0.016905664            5 
 2326000   0.88522675   -8.1121795    480.98489   0.01723219  0.016899941            8 
 2327000   0.88742081   -8.1551298    480.67005   0.01721351  0.016894216           19 
 2328000   0.89777998   -8.1427006     479.6773  0.017170579  0.016888524           15 
 2329000   0.88148575    -8.113439    480.74962  0.017201575   0.01688285            6 
 2330000   0.87146284   -8.1087256    482.45712  0.017255262  0.016877222           13 
 2331000   0.87896828   -8.1467434    480.19073  0.017166836  0.016871537            9 
 2332000   0.88170411   -8.1154088    480.54799  0.017172241  0.016865924            4 
 2333000   0.88532089   -8.1266356    480.92028  0.017178178  0.016860249            7 
 2334000   0.87360292     -8.15543    480.55582  0.017157806  0.016854585            9 
 2335000   0.85693453    -8.070855    480.91339  0.017163219  0.016848944            9 
 2336000   0.85360628   -8.1114092    480.99872  0.017158915  0.016843291            3 
 2337000   0.88856929    -8.151842    480.80949  0.017144826  0.016837631            3 
 2338000   0.87463853   -8.1467628    481.42831  0.017159549  0.016831904            4 
 2339000   0.87676727   -8.1255826    481.24436  0.017145659  0.016826169            4 
 2340000   0.86975944   -8.1249286    482.13047  0.017169889  0.016820442            2 
 2341000   0.88346065   -8.1407792    479.70089  0.017076068  0.016814701            4 
 2342000   0.88006708   -8.1480894    481.69346  0.017139676  0.016809008            2 
 2343000   0.87734903   -8.1320418    481.16346   0.01711351  0.016803297            2 
 2344000   0.88146775   -8.1242529    481.72117  0.017126037  0.016797642            4 
 2345000   0.87210348    -8.112752    481.28099  0.017103091   0.01679199            4 
 2346000    0.8776136   -8.1439183    482.14912  0.017126638  0.016786326            8 
 2347000   0.89015379   -8.1062365    480.76839  0.017070316  0.016780674            4 
 2348000   0.87564794   -8.1211276     480.4939  0.017053304  0.016775036            5 
 2349000   0.87839418   -8.1164334    482.77217  0.017126869  0.016769401            3 
 2350000   0.86837991   -8.1082343    482.52886  0.017110952  0.016763764            6 
 2351000   0.88302038   -8.1268682    480.34071  0.017026113  0.016758103            2 
 2352000   0.84486299   -8.1328377    481.84404  0.017072139  0.016752419            6 
 2353000   0.88411372   -8.1242805    482.55155   0.01708994  0.016746806            8 
 2354000   0.84830451   -8.1025345    483.65952  0.017121903  0.016741185            6 
 2355000   0.88288827    -8.134967    481.80135   0.01704888  0.016735545            7 
 2356000   0.88965872   -8.1499468    481.74091  0.017039506  0.016729895            3 
 2357000   0.86102109   -8.1156629    482.25491  0.017050449   0.01672423            5 
 2358000   0.88641157   -8.1183348    482.32303  0.017045626  0.016718568            4 
 2359000   0.87120328   -8.1252283    481.81994  0.017020628  0.016712945            6 
 2360000   0.86408906   -8.1050604    482.29527    0.0170302  0.016707324            3 
 2361000   0.86432744   -8.0784143    482.46046  0.017028817  0.016701693            3 
 2362000   0.86333593   -8.1253987    481.73135  0.016995885  0.016696038            2 
 2363000    0.8560979   -8.1204994    483.05777  0.017035469  0.016690399            5 
 2364000   0.89412583   -8.1405679    482.43104   0.01700617  0.016684735            5 
 2365000   0.87295836    -8.148066    481.97391  0.016982872  0.016679067            5 
 2366000   0.85298982   -8.1296719     482.8633  0.017007019  0.016673459           10 
 2367000   0.86144058   -8.1227858    483.58883  0.017025378  0.016667845           11 
 2368000    0.8744986   -8.1253845    481.89972  0.016958746  0.016662272            7 
 2369000   0.88493108   -8.1186011    482.82754  0.016984225  0.016656643            5 
 2370000   0.86815504    -8.117749    483.02593  0.016984034  0.016651055           17 
 2371000   0.88470778   -8.1434436     482.3411  0.016952801  0.016645448           11 
 2372000   0.86301101   -8.1263833    484.15055  0.017009224  0.016639889            6 
 2373000   0.88253968   -8.1543704    483.22395  0.016969517  0.016634311            6 
 2374000   0.89320241   -8.1396192    483.80698  0.016982834  0.016628728            5 
 2375000    0.8783897   -8.1321096    484.29929  0.016992958  0.016623154            3 
 2376000   0.88117513   -8.1588256    483.40043   0.01695428  0.016617559            2 
 2377000   0.88469653   -8.1612369    482.78836  0.016925689  0.016611906            5 
 2378000   0.84023906   -8.1496419      483.685  0.016949993  0.016606276            6 
 2379000   0.84236369   -8.1651209    483.41341  0.016933355  0.016600662            3 
 2380000   0.86576689   -8.1440324    483.25858  0.016920819  0.016595047            7 
 2381000   0.89381227   -8.1913908    482.75981  0.016896256  0.016589475           15 
 2382000   0.86924485   -8.1439969    483.82875  0.016926559  0.016583881            9 
 2383000   0.86908824   -8.1495594    483.33459  0.016902175  0.016578259            6 
 2384000   0.88007327   -8.1589396    483.21826  0.016891019  0.016572644            3 
 2385000   0.85910449   -8.1643204    485.09489  0.016949507  0.016567041            5 
 2386000   0.88425897   -8.1470951    482.98449  0.016868696  0.016561455            5 
 2387000   0.89211881   -8.1592394    485.23578  0.016940224  0.016555889           14 
 2388000   0.87232849   -8.1341655    484.15429   0.01689539  0.016550302            3 
 2389000   0.88360824   -8.1428137    485.35469   0.01693019  0.016544757            3 
 2390000   0.86967608   -8.1555737    482.57267  0.016826104  0.016539178            3 
 2391000   0.88339743   -8.1636748    484.57368  0.016888808  0.016533557            2 
 2392000   0.89192737   -8.1737404    483.12171  0.016831163  0.016527962            5 
 2393000   0.86971829   -8.1541582      482.341  0.016796942  0.016522375            8 
 2394000   0.85333176   -8.1570196    484.96352  0.016881214  0.016516784            2 
 2395000    0.8637584    -8.172861    483.50705  0.016823488  0.016511184            4 
 2396000   0.86977895   -8.1545028    484.37371  0.016846609  0.016505575            1 
 2397000   0.86286631   -8.1794572    484.51726  0.016844572  0.016500015           12 
 2398000   0.88182281   -8.1617237    485.46392  0.016870445  0.016494446            7 
 2399000   0.88293524   -8.1381367    487.12596  0.016921146  0.016488904            3 
 2400000   0.86867884   -8.1802156    483.82976  0.016799644  0.016483379            3 
 2401000   0.88380758   -8.1672353    485.01872  0.016833914  0.016477843            5 
 2402000   0.87595456   -8.1782506    483.97349  0.016790643  0.016472277            6 
 2403000   0.85548846   -8.1801747    484.97905  0.016818527  0.016466671            4 
 2404000   0.87598275   -8.1684466    485.18602  0.016818706  0.016461063            3 
 2405000   0.87252661   -8.1609701    485.47376  0.016821683   0.01645551            3 
 2406000   0.85218879   -8.1619966    484.96092  0.016796929   0.01644996            3 
 2407000    0.8652586   -8.1748749    484.65764   0.01677945   0.01644443            2 
 2408000   0.86611053   -8.1679037    485.34814  0.016796378  0.016438881           11 
 2409000    0.8691214   -8.1380131    484.51292  0.016760513  0.016433364            2 
 2410000   0.89085358   -8.1509824    484.23594  0.016743981  0.016427824            2 
 2411000   0.86617442   -8.1628313    485.14592  0.016768489  0.016422258            4 
 2412000   0.84903773   -8.1628575    485.16138  0.016762071  0.016416686            9 
 2413000   0.86010091   -8.1492419    485.81446  0.016777679  0.016411118           15 
 2414000    0.8767754   -8.1257873    485.30256  0.016753057  0.016405567            4 
 2415000   0.87853008   -8.1303891    486.36557  0.016782801  0.016400045            5 
 2416000   0.82591821   -8.1714256    485.71831  0.016753529  0.016394489            3 
 2417000   0.88737106   -8.1505573    487.08402  0.016793684   0.01638891            4 
 2418000   0.88166347   -8.1802098    485.49602  0.016732011   0.01638337            5 
 2419000   0.86615435   -8.1752149    484.58279  0.016693633  0.016377842            4 
 2420000   0.87224179   -8.1739144    484.63634  0.016688579  0.016372314            5 
 2421000   0.87362667   -8.1435603    484.95985  0.016692821   0.01636677            5 
 2422000   0.84154558   -8.1516593    485.69717  0.016711298  0.016361227            5 
 2423000    0.8508158   -8.1513395    485.43884  0.016695517  0.016355673            5 
 2424000   0.87669615    -8.166539    485.15969  0.016679032  0.016350134            5 
 2425000    0.8726943    -8.162493    485.42722  0.016681348  0.016344601            7 
 2426000   0.87317035    -8.178565    486.03348  0.016695297  0.016339043            8 
 2427000   0.87326324   -8.1498124    486.28679  0.016697115  0.016333527            5 
 2428000   0.87088342   -8.1789252    485.92916  0.016677964  0.016328015            5 
 2429000   0.88071404   -8.2061166     484.9814  0.016638582  0.016322463            4 
 2430000   0.84754389   -8.1618076    486.35431  0.016678817  0.016316946           12 
 2431000   0.84801864     -8.20002    484.68402    0.0166147  0.016311404            2 
 2432000   0.85522831   -8.1812271    485.36736  0.016631283  0.016305849            5 
 2433000   0.84753849     -8.20739    485.87136   0.01664171  0.016300283            3 
 2434000   0.85369145   -8.1664985    486.55241   0.01665819  0.016294709            5 
 2435000   0.85019613   -8.1304884    487.66034  0.016689266  0.016289152            3 
 2436000   0.84969248   -8.1774906    486.59796  0.016646071  0.016283597            6 
 2437000   0.86495209   -8.1789342    486.28934  0.016628688  0.016278046            5 
 2438000   0.82445098   -8.1737104    486.65732  0.016634445  0.016272534            5 
 2439000   0.86891133   -8.1847113    486.87255  0.016634978  0.016267006            3 
 2440000   0.87619642    -8.172013    486.86091  0.016627763   0.01626148            8 
 2441000   0.85500525   -8.2070316    485.84127  0.016586142  0.016255941            5 
 2442000   0.85956017   -8.1560551    486.58939  0.016604879  0.016250428            2 
 2443000   0.86580405    -8.178109    486.62796  0.016599398  0.016244918            3 
 2444000    0.8661683   -8.1869844    485.88995  0.016567442  0.016239366            2 
 2445000   0.86462628   -8.1929209    486.57389  0.016583977  0.016233838            4 
 2446000   0.86043106   -8.1802737    486.88188   0.01658769  0.016228327            2 
 2447000   0.84386578   -8.2392539     486.6347  0.016572494  0.016222777            4 
 2448000   0.84784188   -8.1860343    486.53048  0.016562176  0.016217205            1 
 2449000   0.87785855   -8.1703775    487.28944  0.016581239   0.01621169           10 
 2450000   0.85168177   -8.2215216    485.88182  0.016526593  0.016206175           10 
 2451000   0.84334903   -8.1861454    487.19205  0.016564397  0.016200651            4 
 2452000   0.86569413   -8.1974988    486.74145  0.016542328  0.016195158            8 
 2453000   0.86955808   -8.1932403    487.36768  0.016556858  0.016189663            8 
 2454000   0.86186911   -8.1902597    486.38776  0.016516835  0.016184163            7 
 2455000   0.85609382    -8.169172    487.43419  0.016545628  0.016178675            3 
 2456000   0.84801104   -8.2139297    486.50307  0.016507298  0.016173163           11 
 2457000   0.85038045   -8.1783047    486.13171  0.016487984   0.01616763            8 
 2458000   0.86602692   -8.2051029    487.48202  0.016527055  0.016162128            4 
 2459000   0.88808412   -8.1970221    487.26038  0.016512823  0.016156592            4 
 2460000   0.85185878   -8.2060157    487.32363  0.016508253  0.016151059            2 
 2461000   0.86805726   -8.2195265    485.92636  0.016454231  0.016145489            2 
 2462000   0.84075871   -8.2251367    486.98962  0.016483537  0.016139936            2 
 2463000    0.8656033   -8.1947762     487.7933  0.016504036  0.016134396            5 
 2464000   0.85742601   -8.1856525    487.30211  0.016480726  0.016128871            6 
 2465000   0.85713822   -8.1915129    488.16779  0.016503306  0.016123363            3 
 2466000   0.84058591   -8.1754364    488.24645  0.016499272  0.016117901            1 
 2467000    0.8630393   -8.1829239    487.46774  0.016466279  0.016112428            5 
 2468000    0.8520045   -8.1528357    487.52643  0.016461589  0.016106947            5 
 2469000   0.83996261   -8.1698741    488.47322  0.016486878  0.016101464            3 
 2470000    0.8558577   -8.1638419    488.24214  0.016472407  0.016095994            6 
 2471000   0.85925739   -8.1585455    488.58127  0.016477177   0.01609053            4 
 2472000   0.86878383   -8.1472195    488.42897  0.016465378  0.016085038            5 
 2473000   0.85135579   -8.1447823    488.17732   0.01645024  0.016079569            5 
 2474000   0.84397826   -8.1475428    488.57432  0.016456963   0.01607409            3 
 2475000   0.85931122   -8.1441471    489.53207  0.016482561  0.016068606            9 
 2476000   0.83929423   -8.1909715    488.44372  0.016439274  0.016063122            6 
 2477000   0.86743837   -8.1690876    489.26932  0.016460413  0.016057641            4 
 2478000   0.87082551   -8.2249238    486.88153  0.016373471  0.016052166            4 
 2479000   0.85591039   -8.1797945    488.57803  0.016423895  0.016046665            4 
 2480000   0.84249813   -8.1673401       489.05  0.016433132  0.016041181            7 
 2481000   0.85181293   -8.2053777    487.98374  0.016390694  0.016035702            4 
 2482000   0.86034501   -8.1542136    489.43825  0.016432925  0.016030217            2 
 2483000   0.85536199   -8.2104528    487.41632  0.016358448  0.016024731            2 
 2484000   0.86041754    -8.158122    489.00121  0.016405033  0.016019261            3 
 2485000    0.8694189   -8.1732661     487.8877   0.01636109  0.016013786            5 
 2486000   0.84917602   -8.1875556    488.34347  0.016369786  0.016008261            5 
 2487000   0.85371024   -8.2114592    488.80781  0.016378763  0.016002755            4 
 2488000   0.85150382   -8.1933584    488.38836  0.016358131  0.015997219            7 
 2489000   0.83981513   -8.2074067    488.31837  0.016349216  0.015991671            4 
 2490000   0.84551318   -8.2058115    488.00775  0.016332254  0.015986172            6 
 2491000   0.84941791   -8.1831998    487.29561  0.016301874  0.015980649            3 
 2492000   0.85089397   -8.2040691    488.10769  0.016322488  0.015975149            7 
 2493000   0.84885319   -8.2329551    487.88707  0.016308566  0.015969638            3 
 2494000    0.8487339   -8.2672195    488.90462  0.016336027  0.015964103            3 
 2495000   0.86681626   -8.2102283     488.3212  0.016309993  0.015958581            9 
 2496000   0.85494567   -8.2202136    489.02953  0.016327108  0.015953098            5 
 2497000   0.84991867   -8.2359336    487.19074  0.016259202    0.0159476           13 
 2498000   0.84985241   -8.2205468    489.39367  0.016326183  0.015942115            4 
 2499000   0.84691611   -8.2107084    489.46216  0.016321934  0.015936625            5 
 2500000   0.84484534   -8.1940213    489.03199  0.016301066  0.015931132            6 
 2501000   0.85483049   -8.1924837    488.95402  0.016291951   0.01592564           14 
 2502000   0.85604129   -8.2396572    488.90259  0.016283726  0.015920162           11 
 2503000   0.85218506    -8.208407    487.88773  0.016243432  0.015914647            4 
 2504000   0.86120375   -8.1773368    489.12304  0.016278057  0.015909179           10 
 2505000    0.8522508   -8.2125766    488.81512  0.016261315   0.01590369            5 
 2506000   0.84674054   -8.2023382    488.06682  0.016229942   0.01589819           11 
 2507000   0.84363143   -8.1973778    488.28514  0.016230725  0.015892671            3 
 2508000   0.86174843   -8.2026241    489.08225  0.016250739  0.015887182            8 
 2509000    0.8437128    -8.224284    489.26979  0.016250491  0.015881688            9 
 2510000   0.83972776   -8.2020515    489.25609  0.016243562  0.015876186            7 
 2511000    0.8360233   -8.2137498    489.59091  0.016248205  0.015870696            3 
 2512000   0.85222816   -8.2026816     489.6781  0.016244629   0.01586523            3 
 2513000   0.85985721   -8.1893531     489.6938  0.016238686  0.015859735            4 
 2514000   0.85615998    -8.216832    489.25238  0.016217594  0.015854222            3 
 2515000   0.84397565    -8.200889     488.6151   0.01619003  0.015848695            4 
 2516000   0.84824529   -8.1861746    488.77564  0.016188912  0.015843187            4 
 2517000   0.84502561   -8.2096111    488.32251  0.016167478  0.015837678            5 
 2518000     0.867671   -8.1927295    489.80453  0.016210105  0.015832206            3 
 2519000   0.85537981   -8.1899173    490.20019  0.016216759  0.015826737            3 
 2520000   0.86363698   -8.1804204    489.30194   0.01618062  0.015821264            5 
 2521000   0.84621657   -8.2037942    490.17726  0.016203136  0.015815796            5 
 2522000   0.86198049   -8.1978063    489.61336  0.016178078  0.015810336            4 
 2523000   0.85331828    -8.224369    488.78897  0.016144437  0.015804856            3 
 2524000   0.85059228   -8.2270274    488.13406  0.016116418  0.015799338            8 
 2525000   0.85113566   -8.1924478    490.13832  0.016176182   0.01579383            4 
 2526000   0.84455932   -8.1786931    490.15305  0.016170264  0.015788336            2 
 2527000   0.85179265   -8.1973422    490.79458  0.016185021  0.015782845            3 
 2528000   0.83817606   -8.2028077    489.76898  0.016144811  0.015777373            4 
 2529000   0.85047683   -8.2165144    490.24505  0.016154114  0.015771889           10 
 2530000   0.84561952    -8.232262    489.25206  0.016115022  0.015766408            5 
 2531000    0.8459088   -8.2228467    489.09338   0.01610343  0.015760885           21 
 2532000   0.83372679   -8.2567757    488.67114  0.016083174  0.015755365            3 
 2533000   0.84639512   -8.2201308    489.29433  0.016097326   0.01574984            9 
 2534000    0.8444318   -8.2484092    488.79581  0.016074579  0.015744302            7 
 2535000   0.81665871   -8.2122083    490.49719  0.016124168  0.015738793           10 
 2536000   0.83371064   -8.1992509    491.10515  0.016137788  0.015733322           16 
 2537000   0.83680657    -8.172914     490.3809  0.016107637  0.015727858           13 
 2538000   0.85111511   -8.2579333    489.12346  0.016060003  0.015722391            9 
 2539000    0.8435801   -8.2300507    490.62498   0.01610296  0.015716909            4 
 2540000   0.84674374   -8.2547338    489.47457  0.016058877  0.015711411            7 
 2541000   0.82506939    -8.228935    489.38418  0.016049593  0.015705925            4 
 2542000   0.85203698   -8.2404384    490.34891  0.016074905  0.015700453            7 
 2543000   0.85047722   -8.2200725    490.54847  0.016075124  0.015694994            9 
 2544000   0.85066089   -8.2166165     489.8165  0.016044828  0.015689528            4 
 2545000   0.85832748   -8.2092497    491.37041  0.016089404   0.01568407            3 
 2546000   0.84904858   -8.2112539    490.85767  0.016066302   0.01567862            6 
 2547000   0.83653345   -8.2416181    490.19083  0.016038177  0.015673185            7 
 2548000   0.84507865   -8.2624848    488.28059  0.015969407  0.015667694            7 
 2549000   0.85669636   -8.1977243    491.52119  0.016069085  0.015662276           12 
 2550000   0.82756556    -8.229794    490.81547  0.016039721  0.015656862            6 
 2551000   0.84221629   -8.2138124    492.28235  0.016081352  0.015651454           12 
 2552000   0.83347571   -8.2264618    490.65444  0.016021893  0.015646032            3 
 2553000   0.84749146   -8.2115201    491.83011  0.016053992  0.015640613            7 
 2554000   0.83114769   -8.2272736    490.40124  0.016001085  0.015635192            6 
 2555000   0.82001223   -8.2211621    489.89896   0.01597844  0.015629771            5 
 2556000   0.85184436   -8.2332416    490.07292   0.01597786  0.015624348            5 
 2557000   0.84941729    -8.242791    491.28645  0.016011161  0.015618906            8 
 2558000   0.83861432   -8.2369512    491.58827  0.016014734  0.015613491            4 
 2559000   0.83987072   -8.2209144    491.86962  0.016017638  0.015608083            8 
 2560000    0.8661399   -8.2216782     492.7636  0.016040482  0.015602714            4 
 2561000   0.83037403   -8.2376555    492.50849  0.016025917  0.015597343            4 
 2562000   0.85389834   -8.2361529    491.59816  0.015990052  0.015591951            4 
 2563000   0.83660431    -8.193718    492.46612  0.016012034   0.01558658            4 
 2564000   0.82196297   -8.1961304    491.15428  0.015963153  0.015581204            6 
 2565000   0.83090924   -8.2126541    493.12569  0.016020978  0.015575824            4 
 2566000   0.81271364   -8.1925973    491.86917  0.015973927  0.015570459            4 
 2567000   0.84990468   -8.2056201    491.99042  0.015971641  0.015565086            3 
 2568000   0.82955848   -8.2533614    491.58183  0.015952162  0.015559719            2 
 2569000   0.85506465   -8.1799494    491.88882  0.015955911  0.015554339            6 
 2570000   0.85835993   -8.2102609    492.83162  0.015980273  0.015548966            5 
 2571000   0.83462696   -8.2206364    491.69897  0.015937345  0.015543579            5 
 2572000   0.82422956   -8.2356874    492.13417  0.015945249  0.015538201            6 
 2573000   0.84543619   -8.2394822    492.09996  0.015937944  0.015532827            5 
 2574000   0.84914038   -8.2017123    491.55701  0.015914174  0.015527469            4 
 2575000   0.82562677   -8.2351011    491.50904  0.015906442   0.01552208            7 
 2576000   0.84865073   -8.2213088    490.99412  0.015883609  0.015516699            3 
 2577000   0.83332501   -8.2265218    491.65146  0.015898702  0.015511315            7 
 2578000   0.84197251   -8.2321729    492.09336  0.015906819  0.015505907           11 
 2579000   0.87289018   -8.2246973    492.10426  0.015901003  0.015500531            5 
 2580000   0.85498007   -8.2143057    492.53663  0.015908806  0.015495136           10 
 2581000   0.84458379   -8.2581471    491.31577  0.015863224  0.015489708            8 
 2582000   0.84130395   -8.2389854    491.45948  0.015861718  0.015484286            6 
 2583000   0.84029642   -8.2439743    491.11132  0.015844345  0.015478855            2 
 2584000   0.82645963   -8.2337393    493.28901  0.015908443  0.015473472            3 
 2585000   0.82212658   -8.2685214    490.60466  0.015815753  0.015468054            6 
 2586000   0.82613118   -8.2489535    491.22866  0.015829745  0.015462636            5 
 2587000   0.83036274   -8.2475072    492.79613  0.015874118  0.015457241            6 
 2588000   0.85154239   -8.2743638    490.98556  0.015809684  0.015451825            6 
 2589000   0.82879422   -8.2535878    491.80609  0.015829989  0.015446384            5 
 2590000   0.83593811   -8.2124771    493.35098  0.015873584  0.015441002           12 
 2591000   0.83307008   -8.2492549    492.09772  0.015827149  0.015435602            3 
 2592000   0.85356222   -8.2259562    492.52457  0.015834766  0.015430229            5 
 2593000   0.84245731   -8.2245567    492.63407  0.015832179  0.015424874            9 
 2594000   0.83368105   -8.2226615    491.86106  0.015801242  0.015419526            7 
 2595000   0.81332053   -8.2041641     493.3295  0.015842309  0.015414173           11 
 2596000    0.8412421   -8.2355237    493.01666  0.015826164   0.01540882            4 
 2597000   0.82493557    -8.201498     493.5294  0.015836523  0.015403461            4 
 2598000   0.82076689   -8.2109176    493.73316  0.015836963  0.015398117           14 
 2599000   0.84343414   -8.1867322    493.79502  0.015832853  0.015392786            4 
 2600000   0.82520403   -8.2302504    492.97189  0.015800381  0.015387436            5 
 2601000   0.86089917   -8.2092435    491.89143  0.015759689  0.015382063            3 
 2602000   0.82943236   -8.2412726    492.93156  0.015786945  0.015376702            3 
 2603000   0.82067852   -8.2655659    492.43577  0.015765007  0.015371297            8 
 2604000    0.8288228   -8.2684106    491.90379  0.015741929  0.015365904            3 
 2605000   0.84344303   -8.2606189    492.86468  0.015766624  0.015360524            5 
 2606000   0.84693086   -8.2525176    492.61103  0.015752463  0.015355121            6 
 2607000   0.84244855   -8.2461523    493.34472  0.015769873  0.015349724           11 
 2608000   0.83578816   -8.2642666     492.4568  0.015735455  0.015344333            8 
 2609000   0.83745656   -8.2275458    493.05344  0.015748481  0.015338918           14 
 2610000   0.83486367   -8.2725754    491.61386  0.015696483  0.015333517           10 
 2611000   0.82869686   -8.2634112    492.24448  0.015710599  0.015328099           22 
 2612000   0.82599262   -8.2191136    492.68896  0.015718765  0.015322728           13 
 2613000    0.8266142   -8.2332749    492.54949  0.015708301  0.015317362            3 
 2614000   0.83682191   -8.2362823    494.34724  0.015759603  0.015312023            6 
 2615000   0.82698767   -8.2549678    493.23856  0.015718246  0.015306688           13 
 2616000   0.83093568   -8.2120952     494.3212  0.015746725  0.015301348            7 
 2617000   0.84729805   -8.2757283    492.76838  0.015691262  0.015296022            4 
 2618000   0.81806635   -8.2144715    493.90302  0.015721385  0.015290652            4 
 2619000   0.83172977    -8.248191    493.66741  0.015707885  0.015285269            3 
 2620000   0.81971426   -8.2612197    492.80951  0.015674603  0.015279908           11 
 2621000   0.82187304   -8.2920481    492.27391  0.015651593  0.015274509            2 
 2622000   0.82995847   -8.3000112    491.13445  0.015609409  0.015269101            5 
 2623000   0.83320464   -8.2669453    492.54071  0.015648135  0.015263703            6 
 2624000   0.83411035   -8.2352618    493.99011  0.015688202  0.015258304            4 
 2625000   0.82613288   -8.2837803     492.5086  0.015635194  0.015252899            8 
 2626000   0.83761973   -8.2487548    494.26572     0.015685  0.015247506            6 
 2627000   0.82611182   -8.2691242    493.76216  0.015663056  0.015242109            7 
 2628000   0.82227994   -8.2669513    493.57793  0.015651253  0.015236749            5 
 2629000   0.84402586   -8.2351461    492.85599  0.015622416  0.015231401            6 
 2630000    0.8170549   -8.2691918    492.81219  0.015615088  0.015226042            3 
 2631000   0.84408135   -8.2458058    492.97504  0.015614312   0.01522068            6 
 2632000   0.82746351   -8.2454598    494.21601   0.01564767  0.015215312            6 
 2633000   0.83082991   -8.2467353    493.51649  0.015619588  0.015209961            2 
 2634000   0.80857604    -8.224494    493.59382  0.015616104  0.015204598            4 
 2635000   0.83342937    -8.251536     493.7885  0.015616335  0.015199239            4 
 2636000   0.81429356   -8.2520519    493.83827  0.015611984  0.015193893            5 
 2637000   0.83248574   -8.2512036    493.20669  0.015586104  0.015188527            4 
 2638000   0.83190012   -8.2396787    493.81518  0.015599418  0.015183197            5 
 2639000   0.84508145    -8.260718    494.05042  0.015600935  0.015177865            5 
 2640000   0.85003053   -8.2661881    494.27169   0.01560201  0.015172526            8 
 2641000   0.82476738   -8.2705881     494.3005  0.015597012    0.0151672            7 
 2642000   0.82948914   -8.2492606    494.46164  0.015596191  0.015161889            6 
 2643000    0.8226457   -8.2145173    494.04898  0.015577279  0.015156566            5 
 2644000   0.81894818    -8.283899    493.01741  0.015538875  0.015151238            7 
 2645000    0.8444326   -8.2502306    494.93089  0.015593286   0.01514588           11 
 2646000   0.83810965   -8.2556063    493.28765   0.01553564  0.015140517            6 
 2647000   0.82442621   -8.2501435    494.67308  0.015573388  0.015135186            5 
 2648000   0.82449144   -8.2630263    493.81438  0.015540483  0.015129851            4 
 2649000   0.81561679   -8.2947526    493.65855  0.015529714  0.015124501            6 
 2650000   0.82809654   -8.2808203    494.20411   0.01554101  0.015119182            9 
 2651000   0.83229222   -8.2512467    494.10747   0.01553211  0.015113859           10 
 2652000   0.84895412   -8.2649292    492.60502  0.015479042  0.015108536           10 
 2653000   0.81955707   -8.2513564    493.30514  0.015495198  0.015103224           11 
 2654000   0.82595912   -8.2439985    494.16586  0.015516386  0.015097925            6 
 2655000    0.8123777   -8.2565995    494.77046  0.015529518  0.015092625            2 
 2656000   0.82945532   -8.2452287    493.88435  0.015495869  0.015087322            4 
 2657000   0.82639065   -8.2627212    495.45743  0.015539375  0.015082019            4 
 2658000   0.83103298   -8.2859583    493.96925  0.015486871  0.015076715            7 
 2659000   0.82054298   -8.2800731     493.2295  0.015457863  0.015071371           11 
 2660000   0.84483154   -8.2644678     493.5851  0.015463192  0.015066024           13 
 2661000   0.83178866   -8.2492766    494.00064  0.015470395  0.015060707            2 
 2662000   0.82360414   -8.2501679     494.2355  0.015471935  0.015055359            7 
 2663000   0.82792944   -8.2730332    493.41906  0.015440576  0.015050007            4 
 2664000   0.80720653   -8.2720705    493.16985  0.015426985  0.015044634            7 
 2665000    0.8273813   -8.2625146    493.75521    0.0154395  0.015039268            6 
 2666000   0.83241863   -8.2721826    493.67403  0.015431171  0.015033911           10 
 2667000   0.81917566   -8.2766601    494.85032   0.01546214  0.015028526            9 
 2668000   0.84321229   -8.2793201    493.96106  0.015428569  0.015023205            9 
 2669000   0.81241559   -8.3071628    493.39624  0.015405153   0.01501789           16 
 2670000   0.81869379   -8.2747596    494.42358  0.015431447  0.015012539           12 
 2671000   0.83923584   -8.2889268    493.01515  0.015381728  0.015007186            3 
 2672000   0.82297176   -8.2663788    495.01534  0.015438353  0.015001814            3 
 2673000   0.79314884   -8.2624466    494.53876  0.015417719  0.014996456            3 
 2674000   0.82301245    -8.286964    493.95285  0.015393694  0.014991086            6 
 2675000   0.81137285   -8.3120509    493.45548  0.015372445  0.014985743            6 
 2676000   0.82384897   -8.2820481    493.61231  0.015371584  0.014980384            6 
 2677000   0.83602381   -8.2655131     495.0269  0.015409877  0.014975054            3 
 2678000   0.82969455   -8.2624719    494.51375  0.015388155  0.014969725            8 
 2679000   0.81831517   -8.2870558    494.56665  0.015384057  0.014964386            6 
 2680000   0.83031393   -8.2899362    494.61014  0.015379669   0.01495904            6 
 2681000   0.82215632   -8.2746795    494.07906  0.015357424   0.01495372            3 
 2682000   0.83682562   -8.2483105    494.56197  0.015366703  0.014948386            3 
 2683000   0.81437742   -8.2641485    494.32298  0.015353553  0.014943059            5 
 2684000   0.83024552   -8.2917545    494.16935  0.015343062  0.014937724            6 
 2685000   0.80487771   -8.2605022    493.82703  0.015326724  0.014932359            5 
 2686000   0.81666176   -8.3035356     494.1773  0.015331885  0.014927007            4 
 2687000   0.82636934   -8.2809725    494.97678  0.015350973  0.014921654           10 
 2688000   0.82013505   -8.2770088    494.06303  0.015316934  0.014916263           14 
 2689000   0.82555009   -8.2934576      492.601  0.015265929  0.014910871           17 
 2690000   0.83471627   -8.2864687    493.85313  0.015299044  0.014905492            5 
 2691000   0.81683518   -8.3069274    493.44462  0.015280708  0.014900127           25 
 2692000   0.82378289   -8.3149372    493.43055  0.015274596  0.014894757           13 
 2693000   0.83155601   -8.2839426    494.32351  0.015296556  0.014889396            4 
 2694000   0.81685353   -8.3166481    493.61336  0.015268911  0.014884013            9 
 2695000   0.80171592   -8.3368184    493.51073  0.015260072  0.014878618            5 
 2696000   0.83431841    -8.305157    493.94196  0.015267741  0.014873234           12 
 2697000   0.81712058   -8.2973524    494.13113  0.015267925  0.014867868            6 
 2698000   0.81055989    -8.298299    493.74434  0.015250319  0.014862496            7 
 2699000    0.8085328   -8.3153964    494.20464  0.015258881  0.014857116            2 
 2700000   0.83023598   -8.3012094    494.11859  0.015250574  0.014851728            5 
 2701000   0.81864275   -8.3086418     494.1106  0.015244681  0.014846342            4 
 2702000   0.80016754   -8.3163051    492.23073  0.015181061  0.014840948            6 
 2703000   0.82049644   -8.3402774    494.13113  0.015234034  0.014835571           10 
 2704000   0.80664237   -8.3186445    494.65883  0.015244663  0.014830171           11 
 2705000   0.83417703   -8.3021506    494.82168  0.015244044   0.01482483            3 
 2706000   0.81305818   -8.3207556    494.52317  0.015229218  0.014819462            3 
 2707000   0.80961347   -8.3019103    494.27095  0.015215828   0.01481409            7 
 2708000   0.81028174   -8.3190115    494.01637  0.015202375  0.014808732            3 
 2709000   0.82368748   -8.3455501    495.31903  0.015236835  0.014803379            5 
 2710000   0.81438084   -8.3060066    494.60054  0.015209119  0.014798034            6 
 2711000   0.83936961   -8.3152241    493.82144   0.01517956  0.014792686           10 
 2712000   0.82773058   -8.3196053    494.56092  0.015196685  0.014787361            4 
 2713000   0.81727028   -8.2872826    494.00611  0.015174042  0.014782038            3 
 2714000   0.80794428   -8.2963754    494.18888  0.015174063  0.014776733            4 
 2715000   0.81218978   -8.3154421    495.42147  0.015206307  0.014771437            3 
 2716000   0.81458821    -8.333377    494.40365  0.015169479  0.014766128            7 
 2717000   0.80807354   -8.3018205    494.84475  0.015177424  0.014760827           11 
 2718000   0.82382922   -8.3362161    494.96089  0.015175401  0.014755548           16 
 2719000   0.81710634   -8.2807636    496.89678  0.015229152  0.014750293            5 
 2720000   0.80646223   -8.3316961    495.73249  0.015187883  0.014745021            3 
 2721000      0.82686   -8.2971488    494.86691  0.015155792   0.01473977            7 
 2722000   0.81968195   -8.2989546    495.43227  0.015167532  0.014734531           10 
 2723000   0.81297162   -8.2934998    496.04988  0.015180863  0.014729257           11 
 2724000   0.81099801    -8.324814    496.77716  0.015197539  0.014723997           11 
 2725000   0.80670795   -8.3161715    495.45031  0.015151386  0.014718721           15 
 2726000   0.80305994   -8.3302321    496.10311  0.015165783  0.014713436           14 
 2727000   0.81795978   -8.3119006    494.66814  0.015116371  0.014708167           14 
 2728000   0.81320681   -8.3211923     494.7952  0.015114712  0.014702926           14 
 2729000   0.81190606   -8.3152576    495.66999  0.015135886  0.014697655            9 
 2730000    0.8089111   -8.3064758     497.3083  0.015180351  0.014692375           15 
 2731000   0.80164272   -8.3099616    495.23205  0.015111438  0.014687123           10 
 2732000   0.80594862   -8.3066022    495.77346  0.015122421   0.01468188           11 
 2733000   0.81884708   -8.3255048     495.3639    0.0151044   0.01467665           11 
 2734000   0.81211145   -8.2960107    497.41385  0.015161358  0.014671432           15 
 2735000   0.80718635   -8.3052977    495.53612  0.015098602  0.014666209            9 
 2736000   0.78224877   -8.3513579     495.5265   0.01509279  0.014660951           26 
 2737000   0.79591723   -8.2870158    496.27892  0.015110185  0.014655699           18 
 2738000   0.83110682   -8.3034377    496.58181  0.015113885  0.014650462           13 
 2739000   0.80759661   -8.2938723     496.9962  0.015120975  0.014645242           19 
 2740000   0.81191552    -8.317664    496.05685  0.015086887  0.014640036            5 
 2741000   0.81296041   -8.3408279    495.05532  0.015050934  0.014634821            2 
 2742000   0.83790708   -8.3171199    496.19726   0.01508015  0.014629593           14 
 2743000   0.82493542   -8.3502216    496.30347  0.015077879   0.01462436            3 
 2744000   0.80369219   -8.2908954    495.91188  0.015060492  0.014619118           14 
 2745000    0.8100667    -8.327752    496.54453  0.015074212  0.014613894            9 
 2746000   0.82353118   -8.3212747    496.43487  0.015065394  0.014608667           10 
 2747000   0.80322566   -8.3519522    496.24189  0.015054056  0.014603463           19 
 2748000   0.81572367   -8.3267996     496.8826  0.015068007  0.014598236           28 
 2749000   0.80603751   -8.3311661    496.72796  0.015057838  0.014593013           14 
 2750000   0.82525264   -8.3333202    496.50865  0.015045717  0.014587776           35 
 2751000   0.80822535   -8.3139051    496.25236  0.015032484  0.014582539           23 
 2752000   0.80726683   -8.3305994    496.31341   0.01502887  0.014577309           29 
 2753000   0.80381476   -8.3172748    496.34642   0.01502441  0.014572094           35 
 2754000   0.80851313   -8.3480189    497.60324  0.015056985  0.014566875           18 
 2755000    0.8089434   -8.3332697    496.73865  0.015025367   0.01456165            8 
 2756000   0.81203237   -8.3329507    496.71582  0.015019225   0.01455642           18 
 2757000   0.82220683   -8.3377552    496.75789  0.015015049   0.01455124           19 
 2758000   0.80087809   -8.2992272    496.22123   0.01499339  0.014546066           15 
 2759000   0.81234653   -8.3335711    496.90566  0.015008628  0.014540898           30 
 2760000   0.79729126   -8.2866072    498.48018   0.01505073  0.014535727           15 
 2761000    0.8019722   -8.3377001    495.96758  0.014969443  0.014530566           24 
 2762000   0.82403595   -8.3040624    497.22692  0.015002019   0.01452539           29 
 2763000   0.80290015   -8.3238992    497.63548  0.015008912   0.01452023           28 
 2764000   0.81187979   -8.3312181    497.23961  0.014991546  0.014515049           21 
 2765000   0.80302731   -8.3441138    496.60183  0.014966903  0.014509881           12 
 2766000    0.8168136   -8.3505826    497.44215  0.014986809  0.014504696           21 
 2767000   0.79191377   -8.3085863     497.1298  0.014971985  0.014499527           17 
 2768000   0.80294631   -8.3290792    497.30968  0.014971992   0.01449434           23 
 2769000   0.80698627   -8.3194987    497.97076   0.01498648  0.014489148           24 
 2770000    0.8087949   -8.3432087    496.56988  0.014938925  0.014483943           26 
 2771000   0.81899786   -8.3518508    496.76434  0.014939382  0.014478733           33 
 2772000   0.80724275   -8.3407122    496.46674  0.014925046   0.01447352           59 
 2773000   0.80361094   -8.3357671    497.23663  0.014942801  0.014468324           61 
 2774000   0.78598736   -8.3411448    496.35943  0.014911062  0.014463126           73 
 2775000   0.82534537   -8.3341863    497.01723  0.014925442  0.014457931           60 
 2776000   0.80358721   -8.3469248    497.45162  0.014933106  0.014452775           72 
 2777000    0.8058136   -8.3469598    496.22344  0.014890873  0.014447579           41 
 2778000   0.81988636   -8.3508353    497.44498  0.014922156  0.014442397           48 
 2779000     0.821082   -8.2946469    497.28698  0.014912048  0.014437227           42 
 2780000   0.78694011   -8.3294243    497.26296  0.014905964  0.014432084           33 
 2781000   0.79486713   -8.3202418    498.63811  0.014941811  0.014426949            9 
 2782000   0.80151597   -8.3193382    497.43414  0.014900376  0.014421827           30 
 2783000   0.80865811   -8.3383503    496.83385  0.014877047  0.014416664           37 
 2784000   0.80006558   -8.3432154    496.74664  0.014869093  0.014411507           50 
 2785000   0.80563122   -8.3504171    497.36282  0.014882191  0.014406373           55 
 2786000   0.82198435   -8.3178401    498.15749  0.014900619  0.014401235           45 
 2787000   0.81362546    -8.327633    497.97128  0.014889705  0.014396116           56 
 2788000   0.81180023   -8.3283921    497.71553  0.014876719  0.014390987           58 
 2789000   0.82736634   -8.2817806    497.51911  0.014865517  0.014385872           74 
 2790000   0.80186848   -8.3412896    498.18211  0.014879991  0.014380747           69 
 2791000   0.79179485   -8.3645869    497.47547  0.014853561  0.014375587           90 
 2792000   0.79721536   -8.3512649    496.60478  0.014822254  0.014370398           88 
 2793000   0.80868529   -8.3296752    497.81507  0.014853057  0.014365225           91 
 2794000   0.80284584   -8.3705434     496.3656   0.01480451  0.014360035          103 
 2795000     0.799326   -8.3596966    497.34234  0.014828334  0.014354845           87 
 2796000   0.80666268   -8.3699155    497.35784  0.014823493   0.01434968           99 
 2797000   0.81427516   -8.3329693    497.12846  0.014811359   0.01434451           94 
 2798000   0.79950737   -8.3668694    496.49114  0.014787084  0.014339332           87 
 2799000   0.79576731    -8.369662    496.95421  0.014795588  0.014334181           82 
 2800000   0.78547544   -8.3718172    497.94709  0.014819854  0.014329009           95 
 2801000   0.79724858   -8.3489867    499.38248  0.014857267  0.014323843           84 
 2802000   0.80671574   -8.3606918    496.56839  0.014768272  0.014318701          114 
 2803000   0.79708827    -8.329241    496.69587  0.014766793  0.014313575           94 
 2804000   0.80876979   -8.3503729     496.5915  0.014758425  0.014308419           89 
 2805000   0.80688966   -8.3278806    498.03198  0.014795959  0.014303274          104 
 2806000   0.80120764   -8.3774262    498.32737  0.014799459  0.014298129          131 
 2807000   0.80671909   -8.3744791    497.18061  0.014760142  0.014292943          120 
 2808000   0.80651036   -8.3689604    496.43256  0.014732685  0.014287753          122 
 2809000   0.80319991   -8.4003866    496.21884    0.0147211  0.014282553          133 
 2810000    0.7928783   -8.3867487    496.57984  0.014726567  0.014277344          115 
 2811000   0.79566234   -8.3950968    496.89847  0.014730774  0.014272138          121 
 2812000    0.8011899   -8.3704841    496.36725  0.014709793  0.014266947          119 
 2813000   0.79169971   -8.3845691     496.8293  0.014718252  0.014261748          115 
 2814000   0.81512778   -8.3362664    497.10239  0.014721109  0.014256568          125 
 2815000   0.81301863   -8.3836007    497.19907  0.014718741  0.014251382          145 
 2816000    0.8004508   -8.4234242    496.77109  0.014700849  0.014246177          166 
 2817000   0.79998384   -8.4186283    496.35174  0.014683225  0.014240953          173 
 2818000   0.79887068   -8.3999466    496.30909  0.014676753  0.014235732          175 
 2819000   0.79394434   -8.4087132    496.51455  0.014677621  0.014230524          178 
 2820000   0.79208564   -8.4095599    496.43513  0.014670069  0.014225333          188 
 2821000   0.79614142   -8.3884019    496.57164  0.014668901  0.014220157          169 
 2822000   0.79887119   -8.3604019    497.20985  0.014682549  0.014214999          194 
 2823000   0.80952597   -8.4098382    497.33868  0.014681151  0.014209845          215 
 2824000   0.80104369   -8.3789072    497.09796  0.014668849  0.014204695          215 
 2825000   0.79139316   -8.3852379    497.53619  0.014676584  0.014199524          194 
 2826000   0.81513119   -8.3876597    496.11563  0.014629501  0.014194361          222 
 2827000   0.78794991   -8.3825217    497.14805  0.014654759  0.014189205          209 
 2828000   0.81668392   -8.4106464    495.80067  0.014609874  0.014184057          223 
 2829000   0.80814652   -8.3935491    496.91666  0.014637583  0.014178889          249 
 2830000   0.81080783   -8.3831684    496.93441  0.014632933  0.014173724          222 
 2831000   0.78253709     -8.38416    496.37019  0.014611156  0.014168535          256 
 2832000   0.78917985   -8.4027484    496.14452  0.014599356  0.014163331          228 
 2833000   0.78776609    -8.411571    496.57161  0.014606766  0.014158123          244 
 2834000   0.80140846   -8.4344847    495.40518  0.014567313  0.014152913          245 
 2835000   0.78320034    -8.418117    495.27553  0.014558364   0.01414768          249 
 2836000   0.81568578   -8.4087181    497.06046  0.014605679  0.014142458          265 
 2837000   0.80340417   -8.4250665     496.9442  0.014597116  0.014137243          261 
 2838000   0.80431569   -8.4137391    496.67812  0.014584159  0.014132043          268 
 2839000   0.81943905   -8.4188171    496.37075      0.01457  0.014126852          272 
 2840000   0.80326997   -8.4263728    495.70077   0.01454521  0.014121662          270 
 2841000   0.80302822   -8.4025167    497.09342   0.01458094  0.014116475          287 
 2842000   0.79387529   -8.3960203    496.14131  0.014547892  0.014111305          316 
 2843000   0.79892588   -8.3921177    497.58799   0.01458518  0.014106167          315 
 2844000   0.78833348   -8.4258111    497.13642   0.01456682  0.014100999          325 
 2845000   0.79418225   -8.4543743    496.21317  0.014534657  0.014095814          371 
 2846000   0.81144167   -8.4343904    496.09613  0.014526122  0.014090627          371 
 2847000   0.80465298   -8.4126104    496.70703  0.014538902  0.014085447          350 
 2848000   0.79942839   -8.4373131    496.91309  0.014539826  0.014080256          357 
 2849000   0.78737366   -8.4283769    496.38896  0.014519391  0.014075074          361 
 2850000    0.7828005   -8.4101005    497.78178  0.014555023  0.014069894          438 
 2851000   0.78964762   -8.3948664    496.50071  0.014512473  0.014064693          405 
 2852000   0.79015478   -8.4226383    497.39606  0.014533545   0.01405951          411 
 2853000   0.79884385   -8.4042426     497.1423  0.014521039   0.01405432          467 
 2854000   0.80200865    -8.441605    496.39462   0.01449412  0.014049133          457 
 2855000    0.7887745   -8.4527705    496.31833  0.014486816  0.014043908          494 
 2856000   0.79468778   -8.4454783     495.8216   0.01446725  0.014038709          497 
 2857000   0.81022964   -8.4351741    496.04616  0.014468737  0.014033506          506 
 2858000   0.79539631   -8.4583618    495.59817  0.014450612  0.014028285          502 
 2859000   0.77692197   -8.4448009     495.9982  0.014457217   0.01402308          560 
 2860000   0.78389423   -8.4684768     496.1613  0.014456914  0.014017853          528 
 2861000   0.78854621   -8.4533414    495.55329  0.014434152  0.014012634          542 
 2862000   0.79449187   -8.4843269    495.91644  0.014439682  0.014007424          574 
 2863000    0.7952418   -8.4696013    495.85359  0.014432809  0.014002214          628 
 2864000   0.78602083   -8.4548107    496.14023   0.01443611  0.013996998          633 
 2865000   0.79335174   -8.4616877    495.08888  0.014400491  0.013991761          651 
 2866000   0.80002251   -8.4945354    495.79538  0.014416009  0.013986519          682 
 2867000   0.80802292   -8.4704317    495.89083  0.014413755  0.013981275          655 
 2868000   0.80673867   -8.4891644    496.27175  0.014419797  0.013976028          735 
 2869000   0.80416973   -8.5188675    495.00509   0.01437798  0.013970746          699 
 2870000   0.78341864   -8.5336327    493.90724  0.014341093   0.01396544          715 
 2871000   0.79870988   -8.5253514    495.69367   0.01438795  0.013960133          771 
 2872000   0.79601842   -8.5398018    493.16385  0.014309536  0.013954821          776 
 2873000   0.76999632   -8.5343444    494.33251  0.014338453  0.013949503          805 
 2874000   0.80523509   -8.5199856    495.01766   0.01435333  0.013944186          769 
 2875000   0.78733097   -8.5371398     495.0204  0.014348417  0.013938876          861 
 2876000   0.78359524   -8.5266509    494.41947  0.014326016  0.013933574          854 
 2877000   0.79881129   -8.5086626     495.1817  0.014343115   0.01392827          836 
 2878000   0.79145013   -8.5325075    494.81987  0.014327654  0.013922956          876 
 2879000   0.78721373   -8.5269427    494.01152   0.01429928   0.01391764          895 
 2880000   0.78233326   -8.5340628    493.69997    0.0142853  0.013912313          936 
 2881000   0.78999976   -8.5767039    493.88143   0.01428559  0.013907001          925 
 2882000   0.79099809    -8.569075    493.70324  0.014275481   0.01390168          944 
 2883000   0.81787749   -8.5822608    493.44163  0.014262968   0.01389636          982 
 2884000    0.7791507   -8.5732871    493.16602  0.014250058  0.013891029         1014 
 2885000   0.79165474   -8.5839899    493.48966  0.014254467  0.013885693         1000 
 2886000   0.80697211   -8.5853009    493.59023  0.014252432  0.013880353         1026 
 2887000   0.78161241    -8.579778    493.98794  0.014258975  0.013875008         1026 
 2888000    0.7867322   -8.5566431     492.7102  0.014217169  0.013869654         1034 
 2889000   0.79082286   -8.6196803    491.70711  0.014183314  0.013864312         1093 
 2890000   0.78889914   -8.6164805    493.14404   0.01421984  0.013858957         1184 
 2891000   0.80547347   -8.6227354    493.96979  0.014238723  0.013853603         1197 
 2892000    0.7798584   -8.6321965    492.56248  0.014193248  0.013848223         1281 
 2893000   0.77506397   -8.6024423    493.73954  0.014222247  0.013842859         1325 
 2894000    0.7747696   -8.5975909    494.13808  0.014228809  0.013837501         1362 
 2895000   0.79726298   -8.6685858    491.95232  0.014160976  0.013832119         1375 
 2896000   0.78128377   -8.6431882    491.95092  0.014156046   0.01382672         1353 
 2897000    0.7983458   -8.6514307    492.66954  0.014171831  0.013821332         1419 
 2898000   0.78543208    -8.667387    492.58143  0.014164407   0.01381595         1432 
 2899000   0.78378924   -8.6513684    491.77298  0.014136282  0.013810547         1493 
 2900000   0.78866752   -8.6696093    491.25959  0.014116655  0.013805137         1509 
 2901000   0.79229504   -8.6738386    491.52785  0.014119495  0.013799711         1470 
 2902000   0.80356026   -8.6791307    491.70341  0.014119671  0.013794285         1535 
 2903000   0.76369413   -8.6995441    490.85867  0.014090558  0.013788838         1560 
 2904000   0.78976438   -8.6535014    492.01532  0.014118897   0.01378337         1622 
 2905000   0.77115495   -8.6966992    491.18457  0.014090206  0.013777913         1708 
 2906000   0.75428755   -8.7006938    491.20919  0.014086063  0.013772445         1707 
 2907000   0.77542953   -8.7331943     489.9004  0.014043699  0.013766974         1813 
 2908000   0.78933544   -8.7598571      490.187  0.014047083   0.01376148         1834 
 2909000   0.76972402   -8.7234388     491.2038  0.014071382   0.01375599         1851 
 2910000   0.79991475    -8.741853    490.03686  0.014033129  0.013750491         1880 
 2911000   0.77931784   -8.7543059    490.00771  0.014027474   0.01374498         1897 
 2912000   0.77511435   -8.7358361    489.97326  0.014021671  0.013739469         1888 
 2913000   0.78077768   -8.7443891    490.21691  0.014023827  0.013733961         1959 
 2914000    0.7961518   -8.7860024    489.74673  0.014005569   0.01372842         1974 
 2915000   0.78655576   -8.7663114    489.55972  0.013995418  0.013722876         2056 
 2916000   0.77951778   -8.7745044    490.00298  0.014003286  0.013717336         1997 
 2917000   0.78867604   -8.7877654    489.48303  0.013983631  0.013711786         2025 
 2918000   0.77910377   -8.7757387     491.0584  0.014023829  0.013706236         2075 
 2919000   0.77638726    -8.830813    489.31425  0.013969232  0.013700692         2176 
 2920000   0.76873262   -8.7868733    489.64741  0.013973956  0.013695131         2108 
 2921000   0.77083339   -8.7920907    489.73006   0.01397153   0.01368957         2118 
 2922000   0.78190666   -8.8226251    488.57353  0.013933765  0.013684001         2172 
 2923000   0.79040535   -8.8044565    489.09749  0.013943936  0.013678437         2182 
 2924000   0.77780602   -8.8266069    488.45983  0.013920994  0.013672858         2238 
 2925000   0.77209043     -8.83359    489.41608  0.013943478  0.013667264         2259 
 2926000   0.78364368   -8.8813494    487.17599  0.013874914  0.013661667         2302 
 2927000   0.78507784   -8.8222509    488.20874  0.013899577  0.013656079         2282 
 2928000   0.78154803   -8.8570043    488.47009  0.013902268   0.01365049         2309 
 2929000   0.77569836   -8.8419699    487.86947  0.013880433  0.013644876         2366 
 2930000   0.77816178   -8.8793836    486.72078  0.013843026  0.013639255         2433 
 2931000   0.77675436   -8.8777281     487.2284  0.013852735  0.013633621         2382 
 2932000   0.77526426   -8.8930163    487.21566  0.013847648  0.013627982         2457 
 2933000     0.774054   -8.9166916    487.25611  0.013844076   0.01362232         2523 
 2934000   0.79429924   -8.8860184    487.71494   0.01385239  0.013616667         2462 
 2935000   0.77005304   -8.8743484    486.91691  0.013825012  0.013611007         2507 
 2936000   0.77207829    -8.893025    487.04997  0.013824079  0.013605341         2555 
 2937000   0.78843584   -8.9197712    486.71111  0.013809758  0.013599663         2644 
 2938000   0.77362056   -8.9383282    485.96325  0.013783845  0.013593977         2618 
 2939000   0.77785606    -8.919991    486.81769  0.013803382  0.013588302         2624 
 2940000   0.76499053   -8.9284738    486.98673  0.013803479  0.013582623         2684 
 2941000   0.76774541   -8.9277172     486.1911  0.013776241  0.013576943         2686 
 2942000   0.77347622   -8.9474845    486.30406  0.013774758  0.013571269         2683 
 2943000   0.79121065   -8.9475494    485.68633  0.013752586  0.013565589         2799 
 2944000   0.79507349   -8.9328416    486.54528  0.013772228  0.013559899         2690 
 2945000   0.78922393   -8.9577288    485.95246  0.013750777  0.013554202         2788 
 2946000   0.77494558   -8.9806187    485.79323  0.013741605   0.01354849         2832 
 2947000   0.75296769   -8.9850466    485.72644  0.013735054  0.013542771         2845 
 2948000   0.77665395   -8.9575556    486.36475  0.013748438  0.013537044         2847 
 2949000   0.76471008   -8.9929028      485.518  0.013719848  0.013531308         2913 
 2950000   0.78357125   -9.0054755    484.37118  0.013682802  0.013525567         2979 
 2951000   0.78549085   -8.9851576     485.2385  0.013702657  0.013519819         2972 
 2952000   0.77618443   -9.0112238    485.75342  0.013712551  0.013514075         2974 
 2953000   0.78533279     -8.99635    485.23309  0.013693224  0.013508328         3002 
 2954000    0.7792336   -8.9934907    484.26442  0.013661262   0.01350258         3000 
 2955000   0.78239498   -9.0037085    483.82005  0.013644107  0.013496827         3037 
 2956000   0.78916088   -8.9977989     484.6721  0.013663512  0.013491087         3074 
 2957000   0.78121661   -9.0202832    483.82454  0.013635006  0.013485327         3092 
 2958000   0.77694356   -9.0064433    483.94496  0.013633788  0.013479561         3129 
 2959000   0.79580753   -9.0252297    484.80397  0.013653373  0.013473801         3092 
 2960000   0.76832078   -9.0242483     483.8509  0.013621928  0.013468038         3062 
 2961000    0.7781653    -9.041732    484.28446   0.01362953  0.013462282         3114 
 2962000   0.77339526   -9.0123694    484.75305  0.013638112  0.013456521         3048 
 2963000   0.78766684   -9.0545654    483.07541  0.013586326  0.013450756         3131 
 2964000   0.77272218   -9.0131576    484.99369  0.013635675  0.013444997         3090 
 2965000    0.7688322   -9.0518853      483.823  0.013598173  0.013439234         3130 
 2966000   0.79684276    -9.028313    484.16383  0.013603164  0.013433475         3178 
 2967000   0.79014972   -9.0246305     485.0447   0.01362332  0.013427717         3068 
 2968000   0.77956109   -9.0456484    483.89552  0.013586465  0.013421954         3150 
 2969000   0.77601116    -9.047812    484.01661  0.013585287    0.0134162         3125 
 2970000    0.7603336   -9.0644483    484.29104  0.013588413  0.013410439         3183 
 2971000   0.77155964   -9.0413691    484.75021  0.013596719  0.013404673         3219 
 2972000   0.78824907   -9.0630826    483.54628  0.013558386  0.013398909         3271 
 2973000   0.77801755   -9.0798394    483.08071  0.013540776  0.013393147         3266 
 2974000   0.77466402   -9.0784886    483.65947   0.01355244  0.013387381         3290 
 2975000   0.78250207   -9.0433906      484.432  0.013569524  0.013381619         3319 
 2976000   0.77248076   -9.0968084    482.77062  0.013518443  0.013375843         3291 
 2977000   0.75739693   -9.0898591    483.71861  0.013540438  0.013370074         3354 
 2978000   0.78442093   -9.0454367    483.29437   0.01352402    0.0133643         3318 
 2979000   0.78684649   -9.0627978    483.93814  0.013537488  0.013358543         3271 
 2980000   0.78465296   -9.0848327    483.68256  0.013525799  0.013352789         3360 
 2981000   0.77033573   -9.0771531    483.06896  0.013504108  0.013347016         3317 
 2982000   0.79160319   -9.0928848    483.83321  0.013520937   0.01334126         3338 
 2983000   0.76606529   -9.1072268    482.89001  0.013490055  0.013335501         3326 
 2984000   0.78165194   -9.0887385    482.90246  0.013485882  0.013329728         3404 
 2985000   0.77133749   -9.0974647    482.84458  0.013479748  0.013323966         3404 
 2986000   0.78317253   -9.0958761    483.03705  0.013480605  0.013318196         3416 
 2987000    0.7775783   -9.1124966    483.56698  0.013490877  0.013312416         3413 
 2988000   0.77740696    -9.103688    482.94653  0.013469058  0.013306635         3373 
 2989000   0.76885755   -9.1149932     482.9542  0.013464765  0.013300855         3417 
 2990000   0.77481258   -9.1092792    482.74874  0.013454536  0.013295079         3407 
 2991000   0.76873187   -9.0991263    482.64274  0.013447084  0.013289304         3403 
 2992000   0.77320931   -9.1199525    481.92531  0.013422608  0.013283527         3461 
 2993000   0.78441077   -9.1150085    482.76432  0.013441483  0.013277755         3493 
 2994000   0.76564637   -9.1445802    482.21489  0.013421701  0.013271984         3475 
 2995000   0.77370778   -9.1465786    482.19406   0.01341664  0.013266205         3523 
 2996000   0.76583937   -9.1432547    482.20168  0.013412374  0.013260419         3501 
 2997000   0.78700864   -9.1436538    482.79931  0.013424516  0.013254624         3539 
 2998000   0.77758595   -9.1105691    482.34836  0.013407504  0.013248847         3522 
 2999000   0.77077722   -9.1277851    482.26086  0.013400602  0.013243063         3518 
 3000000   0.76909731   -9.1329685    483.13578  0.013420438  0.013237282         3575 
 3001000   0.75870408   -9.1122328    483.80859  0.013434649    0.0132315         3548 
 3002000   0.76334384   -9.1641264    481.22972  0.013358587  0.013225718         3579 
 3003000   0.79146237    -9.147231    481.51685  0.013362106  0.013219929         3598 
 3004000   0.75925608   -9.1592379    481.61145  0.013360282  0.013214151         3583 
 3005000   0.76973867   -9.1644503    481.65948  0.013357168  0.013208374         3610 
 3006000   0.78540034   -9.1323472    482.01408  0.013362555  0.013202597         3616 
 3007000   0.78639194    -9.153359    482.00595  0.013357886  0.013196826         3594 
 3008000   0.76171498   -9.1800127    480.45122  0.013310373  0.013191055         3590 
 3009000   0.77900556   -9.1489729    481.58886  0.013337456  0.013185275         3633 
 3010000   0.76068541   -9.1515912    481.95292  0.013343104  0.013179511         3660 
 3011000   0.77955616   -9.1630856    481.19681  0.013317746  0.013173744         3652 
 3012000   0.77683228   -9.1515705    481.99751  0.013335478  0.013167971         3651 
 3013000   0.76565928   -9.1422236     482.1007  0.013333906  0.013162207         3619 
 3014000    0.7655229   -9.1763334    481.82665  0.013321905  0.013156443         3622 
 3015000   0.77474688   -9.1315257    482.25024  0.013329194  0.013150678         3638 
 3016000   0.77193673   -9.1477484    482.39961  0.013328902  0.013144913         3636 
 3017000   0.75886283   -9.1788904    480.55718  0.013273594  0.013139141         3689 
 3018000   0.74331647   -9.1758594    481.60654   0.01329817  0.013133368         3687 
 3019000   0.77749348   -9.1960704     481.3274  0.013286061  0.013127593         3722 
 3020000     0.767107   -9.1929322    481.54385  0.013287634  0.013121818         3696 
 3021000   0.76396701   -9.1695506    480.42395  0.013252343  0.013116053         3701 
 3022000   0.76282234   -9.1911599    480.72603  0.013256288  0.013110282         3732 
 3023000   0.76605111   -9.1916947    481.93471  0.013285222  0.013104503         3675 
 3024000   0.76199279   -9.1911772    481.58291  0.013271134  0.013098718         3757 
 3025000    0.7740651   -9.2031751    480.54618  0.013238187  0.013092938         3741 
 3026000   0.77676382   -9.1806507    481.45155  0.013258745  0.013087162         3784 
 3027000   0.76518609   -9.1775835    480.33858  0.013223725  0.013081374         3786 
 3028000   0.77496631   -9.1929656     480.4975  0.013223731   0.01307558         3788 
 3029000   0.77221353   -9.2092088    480.07797  0.013207823  0.013069795         3768 
 3030000   0.76514565   -9.2090563    480.00763   0.01320153  0.013064007         3754 
 3031000   0.75022138   -9.2096614    479.81202  0.013191797  0.013058219         3745 
 3032000   0.77627685   -9.2019922    480.43194  0.013204484  0.013052436         3734 
 3033000   0.77099638   -9.2112586    479.66348  0.013179016   0.01304665         3783 
 3034000   0.76794417   -9.2104592    479.69685  0.013175589  0.013040867         3788 
 3035000   0.74856661    -9.201486    480.10062  0.013182335  0.013035083         3825 
 3036000   0.77176165   -9.2418029    479.71206  0.013167327  0.013029301         3803 
 3037000   0.77605554   -9.2153138    479.41397  0.013154812  0.013023515         3849 
 3038000   0.75526671   -9.2028548    479.75625  0.013159871  0.013017745         3793 
 3039000   0.77876571    -9.225977    480.05339  0.013163689  0.013011963         3806 
 3040000   0.76533396   -9.2274022    479.67035  0.013148858  0.013006178         3808 
 3041000   0.77841716   -9.2284338    479.98831  0.013153247  0.013000403         3799 
 3042000   0.74817466   -9.2153661     480.1395  0.013153065  0.012994628         3793 
 3043000   0.77004685   -9.2199604    480.17948  0.013149838  0.012988866         3804 
 3044000   0.77180723   -9.2234097    479.96459  0.013139635  0.012983096         3807 
 3045000   0.75673438   -9.2212791    479.62532  0.013126035  0.012977328         3802 
 3046000   0.75832485   -9.2131583    480.31486  0.013140591  0.012971562         3790 
 3047000   0.76793934   -9.2167491    481.00796  0.013155234  0.012965805         3807 
 3048000   0.76696435   -9.2326082    480.05136  0.013124764  0.012960042         3840 
 3049000   0.76313108   -9.2344791    481.03463  0.013147333  0.012954286         3827 
 3050000   0.75515415   -9.2556913    479.54156  0.013102229  0.012948524         3829 
 3051000   0.76808579   -9.2341522    480.67311   0.01312884  0.012942762         3824 
 3052000   0.73882118   -9.2301423     480.2443   0.01311283  0.012937012         3822 
 3053000    0.7574304   -9.2157666    479.48997  0.013087945  0.012931253         3863 
 3054000   0.74940818   -9.2328923    479.19282  0.013075552  0.012925504         3852 
 3055000   0.77472661   -9.2542208    479.15651  0.013070281  0.012919751         3843 
 3056000   0.76102343   -9.2336607    479.64174  0.013079236  0.012914012         3847 
 3057000   0.74945298   -9.2177726    479.37671  0.013067733  0.012908263         3831 
 3058000   0.76374814   -9.2163196    479.33535  0.013062332  0.012902523         3796 
 3059000    0.7477134   -9.2369572    479.74122  0.013069119  0.012896778         3840 
 3060000   0.76647729   -9.2315263    479.06784   0.01304651  0.012891033         3818 
 3061000   0.75523147   -9.2380298    480.51072  0.013081529  0.012885307         3793 
 3062000   0.76049342   -9.2289521    481.01262  0.013090916  0.012879576         3807 
 3063000   0.76380307   -9.2370111    479.32742  0.013040794  0.012873844         3826 
 3064000   0.76531285   -9.2322788    480.01826  0.013055327  0.012868108         3829 
 3065000   0.76370724   -9.2453685    480.29593  0.013058617  0.012862376         3810 
 3066000   0.75427595   -9.2251524    480.49567  0.013059787  0.012856656         3827 
 3067000   0.76365691   -9.2357958    479.73059  0.013034741  0.012850929         3833 
 3068000   0.75979625   -9.2193665    480.81665  0.013059992  0.012845206         3809 
 3069000   0.76263882   -9.2563413    479.74354  0.013026598  0.012839489         3830 
 3070000   0.75750432   -9.2421623    480.09643  0.013031934  0.012833771         3843 
 3071000   0.75268992   -9.2284911    479.77828  0.013019057  0.012828056         3825 
 3072000   0.76526335   -9.2247732    480.52527  0.013035082  0.012822347         3809 
 3073000   0.76831164   -9.2364383    479.68819  0.013008141  0.012816642         3851 
 3074000   0.74230902   -9.2386556    480.01311  0.013012717  0.012810939         3844 
 3075000    0.7726729   -9.2425548    480.09481  0.013010699  0.012805232         3800 
 3076000   0.76642818   -9.2536134    479.36723  0.012986758  0.012799528         3831 
 3077000   0.75731635   -9.2236469    480.46848  0.013012363  0.012793825         3850 
 3078000   0.74743717   -9.2288355    480.05169  0.012996851  0.012788134         3818 
 3079000   0.75570847    -9.238877    479.72469   0.01298378  0.012782435         3832 
 3080000   0.78533006   -9.2489964    478.60643  0.012949308   0.01277675         3834 
 3081000   0.76194024   -9.2348344     479.5661  0.012971062  0.012771062         3815 
 3082000   0.77291827   -9.2250179     480.5924  0.012994603  0.012765388         3821 
 3083000   0.75381412   -9.2370395    478.52005  0.012934373  0.012759711         3802 
 3084000   0.77371623   -9.2398962    479.96224  0.012969148  0.012754036         3801 
 3085000   0.75337496   -9.2444089    480.64879   0.01298349  0.012748367         3812 
 3086000   0.75465435   -9.2372824     479.4566  0.012947089  0.012742701         3817 
 3087000   0.75013758    -9.268071    478.72863  0.012923244  0.012737034         3841 
 3088000   0.77136034   -9.2628904    479.66298  0.012944273  0.012731363         3840 
 3089000   0.76551142   -9.2824078    479.75826  0.012942653  0.012725699         3832 
 3090000   0.77179169   -9.2699896    479.82613  0.012940295  0.012720042         3834 
 3091000   0.75445751   -9.2576011    479.64662  0.012931269  0.012714388         3847 
 3092000   0.73847883   -9.2620902    479.42029  0.012920987  0.012708732         3842 
 3093000   0.76746866   -9.2582258    480.14867  0.012936434   0.01270307         3826 
 3094000   0.74580309   -9.2597978    478.31645  0.012882904  0.012697415         3873 
 3095000   0.74716456   -9.2754176    478.68272  0.012888603  0.012691765         3843 
 3096000   0.75967851   -9.2633707    479.59754  0.012909064  0.012686111         3827 
 3097000   0.74764982   -9.2558881    479.28398  0.012896458  0.012680459         3843 
 3098000   0.75798046   -9.2785945    477.70919  0.012849935   0.01267481         3862 
 3099000   0.75554097    -9.264441    479.15826  0.012884755  0.012669164         3847 
 3100000   0.74629129   -9.2664714    479.27395  0.012883708  0.012663515         3845 
 3101000    0.7666031   -9.2634591    479.07765  0.012874279  0.012657876         3855 
 3102000   0.74409537   -9.2860659    479.33382   0.01287701  0.012652242         3848 
 3103000   0.75300447   -9.2622016    479.73087  0.012883523  0.012646614         3818 
 3104000   0.74732482   -9.2374581    479.28266   0.01286734  0.012640979         3845 
 3105000   0.76427628   -9.2589546    479.73306  0.012875283  0.012635354         3824 
 3106000   0.73559408    -9.282549    479.05921  0.012853059  0.012629725         3849 
 3107000   0.75062574   -9.2905739    478.84178   0.01284309  0.012624095         3804 
 3108000   0.75807776    -9.257627    479.31404  0.012851621  0.012618473         3815 
 3109000   0.75488621   -9.2810095    479.17254  0.012843694  0.012612853         3836 
 3110000   0.72991065   -9.2752555    478.54247  0.012822681  0.012607231         3834 
 3111000   0.74928622   -9.2783977    479.28194  0.012838368  0.012601607         3862 
 3112000   0.75811258   -9.2727136    479.88819  0.012850476  0.012595997         3836 
 3113000   0.77065399   -9.2687787    478.86255  0.012818893  0.012590386         3826 
 3114000   0.76194661   -9.2858086    477.60528   0.01278113  0.012584781         3816 
 3115000   0.76220406   -9.2647155    479.13044  0.012817829  0.012579176         3844 
 3116000   0.75141027   -9.2669264    478.29321  0.012791325  0.012573575         3811 
 3117000    0.7513804   -9.2586483    479.42991  0.012817611  0.012567974         3826 
 3118000   0.75700978   -9.2866509    478.14827  0.012779246  0.012562376         3840 
 3119000   0.75277757   -9.2912214    478.28101  0.012778695  0.012556784         3827 
 3120000   0.76017467   -9.2874696    478.64831   0.01278441  0.012551191         3835 
 3121000   0.74249675   -9.2517803    479.12113  0.012792938  0.012545605         3797 
 3122000   0.75733452   -9.2635891     478.5992  0.012774909  0.012540022         3825 
 3123000   0.75145216   -9.2502164    478.99203  0.012781301  0.012534431         3833 
 3124000   0.76162618   -9.2821451    478.83935  0.012773137  0.012528843         3822 
 3125000   0.75313176   -9.2655727    479.14061  0.012777083  0.012523262         3823 
 3126000   0.76762025   -9.2677713    478.64132  0.012759685  0.012517683         3850 
 3127000   0.74745997   -9.2811521    479.15025  0.012769168  0.012512109         3846 
 3128000   0.76016153   -9.2961139    479.41673  0.012772185  0.012506537         3857 
 3129000   0.72164879   -9.2609986    478.71037  0.012749291  0.012500964         3840 
 3130000   0.74120514   -9.2625607    479.33789  0.012761925  0.012495393         3865 
 3131000   0.74527109   -9.2808572    479.78795  0.012769827  0.012489822         3815 
 3132000   0.76065471   -9.2710213    478.42352  0.012729447  0.012484254         3841 
 3133000   0.75603192   -9.2693073    478.87321  0.012737345  0.012478695         3853 
 3134000   0.75130259   -9.2732459    478.74986  0.012730001  0.012473137         3855 
 3135000   0.74023689   -9.2545805    479.72287  0.012751804  0.012467589         3857 
 3136000   0.75318045   -9.2814896    479.97481  0.012754433  0.012462035         3866 
 3137000   0.74864631   -9.2889924    479.59203  0.012740198  0.012456486         3843 
 3138000   0.73621055   -9.2951519    478.54301   0.01270828  0.012450938         3877 
 3139000   0.75022148   -9.2621494    478.80258  0.012711123  0.012445395         3871 
 3140000   0.75129848   -9.2934184    478.72436  0.012704999  0.012439858         3902 
 3141000   0.74869689   -9.2862908    479.12311  0.012711533  0.012434316         3863 
 3142000   0.73864334   -9.2860347    479.03888  0.012705254  0.012428782         3887 
 3143000   0.73860902   -9.3064426    478.38878  0.012683975  0.012423247         3880 
 3144000   0.76250373   -9.2946643     479.3788  0.012706181  0.012417712         3860 
 3145000   0.73366445   -9.2770912    477.94311  0.012664099  0.012412178         3840 
 3146000   0.74767738   -9.2844506    478.95278  0.012686819   0.01240665         3836 
 3147000   0.72244954   -9.3066746    478.23296  0.012663726  0.012401116         3863 
 3148000   0.76052855   -9.3004999    478.17635  0.012658205  0.012395591         3871 
 3149000   0.76667103   -9.2405494    479.48905  0.012688924  0.012390071         3881 
 3150000   0.75861257   -9.2776002    478.57355  0.012660676  0.012384551         3875 
 3151000   0.73723822   -9.2886614    479.40935  0.012678762  0.012379028         3870 
 3152000   0.74944314   -9.2947481    478.56698  0.012652469  0.012373502         3888 
 3153000   0.73556348   -9.3149551    477.94598  0.012632043  0.012367983         3893 
 3154000   0.74920985   -9.2877375    477.91411  0.012627196  0.012362471         3868 
 3155000   0.74494901   -9.3001354    479.31522  0.012660201  0.012356956         3875 
 3156000   0.75868793   -9.2947845     478.6836  0.012639512  0.012351452         3869 
 3157000   0.74369122   -9.3077097    478.41211  0.012628342  0.012345944         3840 
 3158000   0.76647337   -9.3019803    478.49577  0.012626551   0.01234044         3871 
 3159000   0.74108734    -9.281014    479.11262  0.012638826  0.012334934         3883 
 3160000   0.73584928   -9.3138232    478.59419  0.012621155  0.012329437         3882 
 3161000   0.74751865   -9.3034298    478.30407  0.012609514  0.012323942         3875 
 3162000    0.7533871   -9.2911081    478.43881  0.012609077  0.012318445         3892 
 3163000   0.75847723   -9.3046235    477.94884  0.012592181  0.012312963         3857 
 3164000   0.74399289   -9.3004822    479.03939  0.012616925  0.012307478         3882 
 3165000   0.74833959   -9.2929867    478.44674  0.012597334  0.012301991         3871 
 3166000   0.74913006   -9.2820151    479.19568  0.012613068  0.012296502         3853 
 3167000   0.74662269   -9.3060581    478.32043  0.012586055   0.01229102         3852 
 3168000    0.7656997   -9.2842992    478.74495  0.012593249  0.012285534         3862 
 3169000   0.76434653   -9.3008895    477.03045   0.01254419  0.012280061         3848 
 3170000   0.73856519   -9.2962923    477.84213   0.01256157   0.01227458         3866 
 3171000   0.74987689   -9.2922406    479.00336  0.012588126  0.012269105         3845 
 3172000   0.75748114   -9.3020373    479.05926  0.012585626  0.012263634         3889 
 3173000   0.74751678   -9.3085288    477.94584  0.012552417  0.012258164         3880 
 3174000   0.73975238   -9.3216683    478.63682  0.012566604  0.012252696         3866 
 3175000   0.75701085   -9.3079171    478.08107  0.012548059  0.012247235         3860 
 3176000   0.73141658   -9.3070564    477.91922  0.012539862  0.012241774         3853 
 3177000   0.76970437   -9.3041337    479.71031  0.012582895   0.01223632         3885 
 3178000   0.74322238   -9.3056754    478.54879  0.012548479  0.012230867         3880 
 3179000   0.75455939   -9.3016794    478.25528  0.012536838  0.012225416         3862 
 3180000   0.74694739   -9.3008079    478.57982    0.0125414  0.012219963         3876 
 3181000   0.73298979   -9.3103967    478.16464  0.012526581  0.012214515         3888 
 3182000   0.73234634   -9.2988094    478.77236   0.01253856  0.012209074         3900 
 3183000   0.72339722   -9.2984282    477.60231  0.012503988  0.012203632         3880 
 3184000   0.72697694   -9.2980849    478.80924  0.012531649  0.012198191         3852 
 3185000    0.7496737    -9.297468    478.13965  0.012510195  0.012192748         3869 
 3186000   0.75157671   -9.3088631    477.72132  0.012495326   0.01218732         3849 
 3187000   0.74920039   -9.3081656    478.44822  0.012510413  0.012181883         3859 
 3188000   0.73469613   -9.3182345    478.29911  0.012502591  0.012176449         3875 
 3189000   0.74747024   -9.3068186    478.79741  0.012511691   0.01217102         3893 
 3190000   0.71894409   -9.3060464    478.94388  0.012511596   0.01216559         3885 
 3191000   0.73405918   -9.2795472     478.5738   0.01249801  0.012160165         3899 
 3192000    0.7470487   -9.2757383    478.38434  0.012489148  0.012154748         3876 
 3193000   0.72950702   -9.3205414    478.72699   0.01249418  0.012149331         3865 
 3194000   0.71696515   -9.2974956    477.59012  0.012460606  0.012143921         3849 
 3195000    0.7468192   -9.2919538    478.41841   0.01247831  0.012138506         3862 
 3196000    0.7356166   -9.3374214    477.97748  0.012462909  0.012133101         3862 
 3197000   0.73502715   -9.3025031     477.9376  0.012457971   0.01212768         3867 
 3198000   0.74436389   -9.2957189    478.07908  0.012457762   0.01212227         3855 
 3199000   0.73127306   -9.3022078    478.71707  0.012470487  0.012116866         3896 
 3200000   0.74324942   -9.3186089    477.90787  0.012445518  0.012111464         3875 
 3201000   0.73444399   -9.3038323    477.78957   0.01243855  0.012106064         3867 
 3202000   0.73182774   -9.3155882    478.17028  0.012444573  0.012100668         3882 
 3203000   0.73243002   -9.3022376    478.87465  0.012459014  0.012095273         3867 
 3204000   0.73309167   -9.3129155    477.75241  0.012425937  0.012089883         3846 
 3205000   0.73425425   -9.3161839    477.45591   0.01241435  0.012084491         3878 
 3206000   0.74283568   -9.2920057    478.19023  0.012429565  0.012079108         3892 
 3207000   0.73275995   -9.3237078    478.69414  0.012438783  0.012073728         3865 
 3208000   0.72776773    -9.325389    477.44057  0.012402342  0.012068343         3873 
 3209000   0.73136789   -9.3051158    477.72761  0.012405932  0.012062958         3875 
 3210000   0.73346983   -9.3097443    478.51108  0.012422406  0.012057578         3880 
 3211000   0.74018546   -9.3108607    478.35737  0.012414548  0.012052205         3876 
 3212000   0.74249379   -9.3192722    477.85753  0.012397715  0.012046839         3890 
 3213000   0.74361811   -9.3060005    478.58304  0.012412673  0.012041471         3901 
 3214000   0.73086203   -9.3158049     478.3804  0.012403557   0.01203611         3883 
 3215000   0.74447155   -9.3185854    478.16754  0.012394182  0.012030744         3894 
 3216000   0.71901391   -9.3094949    478.48115  0.012398454  0.012025379         3868 
 3217000   0.75265416   -9.2936087    478.17783  0.012386743  0.012020027         3890 
 3218000   0.72299537   -9.3271265    476.96964  0.012351607  0.012014672         3879 
 3219000   0.75753832   -9.3229886    478.38169  0.012384324  0.012009322         3900 
 3220000   0.73989071   -9.3254869    478.33867  0.012379365  0.012003974         3898 
 3221000   0.74341762   -9.3351255    477.65696  0.012357885  0.011998634         3893 
 3222000   0.73984695   -9.3145562    477.01437  0.012337429  0.011993286         3879 
 3223000   0.73722533   -9.3057085     477.5697   0.01234796  0.011987944         3886 
 3224000    0.7412194   -9.3352296    477.98016  0.012354739  0.011982605         3892 
 3225000   0.73273289   -9.3363349    477.57035  0.012340319  0.011977266         3901 
 3226000   0.74338991   -9.3071599    477.63731  0.012338224  0.011971933         3903 
 3227000   0.73918941   -9.3273594    477.87126  0.012340442  0.011966602         3906 
 3228000   0.73925227   -9.3111743    478.43793  0.012351248  0.011961279         3882 
 3229000   0.74805959   -9.3403907     478.1462  0.012339894  0.011955941         3907 
 3230000   0.72899766    -9.316746    478.42886  0.012343366  0.011950611         3902 
 3231000   0.73603106   -9.3221361    478.06265    0.0123301  0.011945283         3881 
 3232000   0.73627219   -9.3327138    477.22922  0.012304796  0.011939959         3897 
 3233000   0.74017533   -9.3249103    478.20625  0.012326174  0.011934639         3890 
 3234000   0.72855247   -9.3236573    477.73615  0.012310249  0.011929323         3888 
 3235000   0.72640946   -9.3283889    477.18498  0.012292246  0.011924004         3904 
 3236000   0.72166516   -9.3583765    477.07331  0.012285571  0.011918688         3899 
 3237000   0.74587967   -9.3174216    476.96874  0.012279084  0.011913378         3893 
 3238000   0.75514586   -9.3596693    477.04107  0.012277153  0.011908067         3876 
 3239000   0.73346284   -9.3348932    477.77893  0.012292347  0.011902761         3890 
 3240000   0.72505617   -9.3258122    477.63112  0.012284751  0.011897454         3871 
 3241000   0.74279648   -9.3256708    478.21541  0.012295984  0.011892154         3889 
 3242000   0.73727974   -9.3490384    477.66868  0.012278138   0.01188685         3883 
 3243000   0.71808783   -9.3428356    477.53643  0.012270954  0.011881555         3872 
 3244000   0.73837483   -9.3363134    476.76425  0.012247335   0.01187626         3881 
 3245000   0.72787134    -9.349403    477.10156  0.012252223  0.011870966         3863 
 3246000   0.72005681   -9.3612427    478.20736  0.012276837  0.011865666         3898 
 3247000   0.73006085   -9.3358021    477.12064  0.012245166  0.011860369         3864 
 3248000   0.73325661    -9.338074    478.40378  0.012274317  0.011855083         3870 
 3249000   0.72631885   -9.3580311    477.42172   0.01224535  0.011849797         3889 
 3250000   0.74017717   -9.3243324    477.56476   0.01224525  0.011844515         3882 
 3251000   0.72069546   -9.3319795    478.65798  0.012269506  0.011839235         3870 
 3252000   0.75065151   -9.3506128    476.64933  0.012214261  0.011833958         3876 
 3253000   0.72587287   -9.3516155    477.07576  0.012221431  0.011828685         3868 
 3254000   0.72469731   -9.3540913    478.02205  0.012241909  0.011823417         3858 
 3255000   0.72550282   -9.3174632    477.84249  0.012233551  0.011818142         3890 
 3256000   0.73024211   -9.3679632    476.83405  0.012203984  0.011812877         3867 
 3257000   0.71662864   -9.3491975    477.93985  0.012228529  0.011807613         3890 
 3258000   0.72152819   -9.3135492    478.21899  0.012231916  0.011802355         3893 
 3259000   0.73645837   -9.3324432    477.56211  0.012211366  0.011797096         3877 
 3260000   0.73422799   -9.3477845    477.60385  0.012208687  0.011791835         3896 
 3261000   0.72607084   -9.3474558    476.77397  0.012183736  0.011786586         3872 
 3262000   0.74108752   -9.3479267    477.52954  0.012199304  0.011781333         3903 
 3263000   0.74684985   -9.3556645    476.63023  0.012172597  0.011776079         3890 
 3264000   0.73690101   -9.3663228     477.3636  0.012187592   0.01177083         3882 
 3265000    0.7284295   -9.3572695    476.80103    0.0121695  0.011765592         3892 
 3266000     0.730329   -9.3635779     476.9316  0.012169106  0.011760351         3899 
 3267000     0.712382   -9.3656021    477.66676  0.012184133  0.011755103         3883 
 3268000   0.72918803   -9.3349921    476.83371  0.012159162  0.011749863         3877 
 3269000   0.74095753    -9.327383    478.08665  0.012187383  0.011744628         3884 
 3270000   0.72863395   -9.3476612    476.92825  0.012154135    0.0117394         3869 
 3271000   0.74837729    -9.317558    477.18016  0.012156837  0.011734172         3886 
 3272000   0.73093437   -9.3370819     477.4228  0.012159301  0.011728947         3890 
 3273000   0.74223117   -9.3462016    477.78136  0.012164715  0.011723721         3897 
 3274000   0.72106096   -9.3487484    477.43932  0.012152294  0.011718502         3860 
 3275000   0.72590621   -9.3503763    476.18618  0.012116697  0.011713278         3902 
 3276000   0.72270139   -9.3541128    477.31511  0.012141715  0.011708064         3892 
 3277000    0.7399991   -9.3605209    477.00191  0.012130046  0.011702857         3868 
 3278000   0.74951295   -9.3446151    477.22648  0.012132054  0.011697653         3845 
 3279000    0.7370158   -9.3435538    477.59034  0.012137601   0.01169245         3851 
 3280000   0.70727056    -9.366061    477.25982  0.012125503  0.011687247         3884 
 3281000   0.71915198   -9.3566073    477.05736  0.012116666  0.011682043         3863 
 3282000   0.73066848   -9.3517252    477.18869  0.012116308  0.011676844         3843 
 3283000   0.72542882   -9.3554113    477.39443   0.01211784  0.011671654         3846 
 3284000    0.7355892   -9.3504046    477.04672  0.012105327  0.011666463         3829 
 3285000   0.72808954    -9.345712    476.38031  0.012084736  0.011661279         3861 
 3286000   0.73340606   -9.3230536    477.15339  0.012100664  0.011656094         3859 
 3287000   0.74120175   -9.3400265    477.28468  0.012100311  0.011650915         3870 
 3288000   0.71081097   -9.3598972    476.29587   0.01207157  0.011645737         3875 
 3289000   0.72209334   -9.3354647    477.42671  0.012096552   0.01164056         3847 
 3290000   0.71993885   -9.3444423    477.42795  0.012092907  0.011635391         3871 
 3291000   0.73061386   -9.3442839    476.79488  0.012073202  0.011630222         3852 
 3292000   0.72827733   -9.3593264    476.43245   0.01206036  0.011625055         3869 
 3293000   0.74087518   -9.3539611    477.21652  0.012076539  0.011619897         3856 
 3294000   0.72565412   -9.3469328    476.88415  0.012064465  0.011614732         3864 
 3295000    0.7257657   -9.3329112    477.70366  0.012081529  0.011609572         3846 
 3296000   0.72373071   -9.3364587    477.57082  0.012074505  0.011604413         3860 
 3297000   0.71212753   -9.3516502    477.69111  0.012073883  0.011599259         3869 
 3298000   0.73074514   -9.3516549     477.6033  0.012068003  0.011594102         3862 
 3299000   0.71657916   -9.3554908    477.05858  0.012050585  0.011588948         3863 
 3300000   0.71946149   -9.3600675    477.00847  0.012045669  0.011583801         3860 
 3301000   0.72223242   -9.3590702    477.14388  0.012045438  0.011578656         3876 
 3302000   0.72049039   -9.3552438    477.11396  0.012041035  0.011573515         3861 
 3303000   0.72251307   -9.3482898     478.6349  0.012075762   0.01156838         3874 
 3304000   0.72724729   -9.3585815    477.05334  0.012032217  0.011563241         3871 
 3305000   0.72684223   -9.3618289    475.89174  0.011999288  0.011558103         3862 
 3306000   0.72670822   -9.3752271    477.46282   0.01203526  0.011552969         3867 
 3307000   0.72854532    -9.344196    476.61008  0.012010132  0.011547831         3873 
 3308000   0.73136245   -9.3527887    477.09663  0.012018758  0.011542703         3858 
 3309000   0.70556702   -9.3718553    477.73436  0.012031187  0.011537573         3882 
 3310000   0.72895039   -9.3497467    477.04844  0.012010283  0.011532445         3862 
 3311000   0.71670626   -9.3600226    477.27678  0.012012403  0.011527324         3885 
 3312000   0.70362351   -9.3598165    476.96889  0.012001029  0.011522198         3882 
 3313000   0.72921444   -9.3488705    477.75872  0.012017273  0.011517079         3885 
 3314000   0.72120132   -9.3814657    476.81786  0.011989989  0.011511958         3875 
 3315000   0.72677455   -9.3555661       476.64    0.0119819  0.011506847         3885 
 3316000   0.72994959   -9.3947081    476.49689  0.011974691  0.011501738         3889 
 3317000   0.72568905   -9.3749504    475.78155  0.011953109  0.011496626         3874 
 3318000   0.70894955   -9.3404862    476.74582  0.011973725  0.011491514         3888 
 3319000   0.71990384   -9.3624516    477.06518  0.011978136  0.011486412         3891 
 3320000   0.70411223   -9.3644137    476.43465  0.011958701  0.011481306         3891 
 3321000    0.7232647   -9.3612435    476.46784  0.011955933  0.011476203         3883 
 3322000   0.74661832   -9.3506834    476.79081  0.011960436  0.011471108         3869 
 3323000   0.71853535   -9.3491752    475.73308  0.011930311  0.011466014         3861 
 3324000   0.73200514   -9.3410742     477.1504  0.011962254   0.01146092         3853 
 3325000   0.71452737   -9.3618582    476.43408  0.011940704  0.011455828         3896 
 3326000   0.71459902   -9.3657969    477.18307   0.01195588  0.011450741         3867 
 3327000   0.71983876   -9.3624427    476.23348  0.011928501  0.011445657         3878 
 3328000   0.71813723   -9.3641773    476.37264  0.011928401   0.01144057         3872 
 3329000   0.72426339   -9.3638517    476.31494  0.011923374  0.011435487         3873 
 3330000   0.71082632    -9.362409    476.48458  0.011924038   0.01143041         3874 
 3331000   0.72061061   -9.3671817    476.47999  0.011920344  0.011425333         3890 
 3332000   0.72206376   -9.3794081    475.93502  0.011903137  0.011420259         3866 
 3333000   0.72521111   -9.3696607    476.82672   0.01192186  0.011415188         3881 
 3334000   0.72404426   -9.3582394    476.03927  0.011898602  0.011410122         3876 
 3335000   0.70901516   -9.3708518    477.88007  0.011941031  0.011405058         3874 
 3336000   0.71734283   -9.3559857    476.41626  0.011900886  0.011399992         3854 
 3337000   0.71114311   -9.3778854    476.23714  0.011892846  0.011394926         3884 
 3338000   0.72012721   -9.3778119    476.89349  0.011905669  0.011389864         3864 
 3339000   0.71404329   -9.3766028    475.99593  0.011879703  0.011384809         3870 
 3340000   0.72488846    -9.356005    476.65156  0.011892504  0.011379751         3855 
 3341000   0.72730585   -9.3712278    477.16577   0.01190177  0.011374697         3850 
 3342000   0.72074188   -9.3735166    476.57359  0.011883443  0.011369649         3871 
 3343000   0.71971752   -9.3848831    477.04355  0.011891603  0.011364604         3872 
 3344000     0.704511   -9.3914741    476.89029  0.011884228  0.011359563         3872 
 3345000   0.71068353   -9.3710335    476.71185   0.01187623  0.011354521         3873 
 3346000   0.71085675   -9.3680835    478.24909  0.011910966  0.011349487         3869 
 3347000   0.69188076   -9.3767044    476.62043  0.011866857  0.011344455         3861 
 3348000   0.72147175   -9.3515526    476.91853  0.011870732  0.011339426         3885 
 3349000   0.71540926   -9.3571922    476.96595  0.011868367    0.0113344         3866 
 3350000   0.71127862   -9.3549029    476.32103  0.011848782  0.011329375         3854 
 3351000    0.7247049   -9.3800592     476.4945   0.01184956   0.01132435         3871 
 3352000   0.72470652   -9.3700822    476.92408  0.011856705  0.011319334         3873 
 3353000   0.69643766   -9.3562402    476.49101  0.011842405  0.011314315         3892 
 3354000   0.71447078   -9.3653159    476.83547  0.011847433  0.011309298         3846 
 3355000   0.69559236   -9.3736801    477.22232   0.01185351  0.011304285         3867 
 3356000    0.7214023   -9.3942199    476.34227  0.011828126  0.011299269         3873 
 3357000   0.71198799   -9.3819403    475.41933  0.011801691  0.011294261         3861 
 3358000   0.72552927   -9.3508852    477.25523  0.011843737  0.011289254         3850 
 3359000   0.72033964    -9.375526    476.87358  0.011830743  0.011284248         3872 
 3360000    0.7294023   -9.3706318    477.36709  0.011839462  0.011279248         3898 
 3361000   0.69206452   -9.3734734    475.92414  0.011800162  0.011274253         3884 
 3362000   0.69793148   -9.3716232    476.17625  0.011802901  0.011269265         3894 
 3363000   0.71077696   -9.3775041    476.69234   0.01181218  0.011264273         3871 
 3364000   0.71225862   -9.3773622    476.55112   0.01180517  0.011259287         3894 
 3365000   0.71267564   -9.3830365    476.81176  0.011808117  0.011254303         3874 
 3366000   0.71177471    -9.417915    475.89371   0.01178188  0.011249319         3898 
 3367000   0.72205463   -9.3603025    477.32638   0.01181384  0.011244337         3864 
 3368000   0.71543961   -9.3853356    476.37587  0.011786814  0.011239366         3863 
 3369000   0.71116138   -9.3702096     476.4658   0.01178554  0.011234393         3879 
 3370000   0.70943406    -9.368979    477.36395  0.011804252  0.011229425         3879 
 3371000   0.70575718   -9.3717816    476.69313  0.011784167  0.011224451         3865 
 3372000     0.703999    -9.372951    476.56356   0.01177747  0.011219489         3869 
 3373000   0.71888677   -9.3757015    476.66434  0.011776469  0.011214523         3879 
 3374000   0.71705875   -9.3594492    476.46897  0.011768153  0.011209561         3865 
 3375000    0.7194641   -9.3671419    476.62495  0.011768517  0.011204606         3875 
 3376000   0.71490376   -9.3765084      476.357  0.011758417  0.011199647         3889 
 3377000   0.72177912   -9.3705246    476.12466  0.011749202  0.011194694         3876 
 3378000   0.72519696   -9.3883283     475.8993  0.011740164  0.011189748         3874 
 3379000   0.71163363   -9.3799801     476.5854  0.011753611  0.011184799         3875 
 3380000   0.69801047   -9.3904261    476.33206  0.011743887  0.011179854         3879 
 3381000   0.72752254    -9.396382    477.32111  0.011764791  0.011174916         3873 
 3382000   0.71034025   -9.3865149    476.25208  0.011734971  0.011169974         3862 
 3383000    0.7146695   -9.3651061    476.24515  0.011731332  0.011165039         3848 
 3384000   0.68516315   -9.3882155    476.12419  0.011724886  0.011160102         3870 
 3385000   0.70617608   -9.4019999    475.41192  0.011703888  0.011155164         3866 
 3386000   0.71083972   -9.3992519    475.40811  0.011700337  0.011150233         3881 
 3387000    0.7251676   -9.3795457    475.65235  0.011702892    0.0111453         3886 
 3388000   0.70908541   -9.3854143    475.97104  0.011707277  0.011140373         3873 
 3389000   0.71648898   -9.4067895    475.72864  0.011697862  0.011135446         3863 
 3390000   0.68421567   -9.3876687    476.27881  0.011707935  0.011130526         3879 
 3391000   0.70758089   -9.3990462    475.98847  0.011697348  0.011125612         3867 
 3392000   0.69612354   -9.3875082     476.1411  0.011697649  0.011120693         3893 
 3393000   0.71627995   -9.3796696    476.17268  0.011694977   0.01111578         3895 
 3394000   0.71333104   -9.3902046    476.47826  0.011699034   0.01111087         3905 
 3395000   0.72601363   -9.3802974    476.76081  0.011702524  0.011105966         3879 
 3396000   0.71017919   -9.3938976    475.77636   0.01167492  0.011101059         3910 
 3397000   0.71331723   -9.3941207    476.70115   0.01169417  0.011096163         3896 
 3398000   0.72224074   -9.3942424    475.99771  0.011673477  0.011091261         3897 
 3399000   0.69895353   -9.3941578    475.60327  0.011660372  0.011086374         3889 
 3400000   0.71581199   -9.4034583    475.13189   0.01164539  0.011081477         3888 
 3401000   0.71431378   -9.4055725     475.5701  0.011652703  0.011076585         3877 
 3402000   0.72128084   -9.3823111    476.43294  0.011670413    0.0110717         3892 
 3403000     0.705519   -9.3885774    477.28412  0.011687827  0.011066812         3871 
 3404000   0.68501705    -9.364539    476.46586  0.011664362  0.011061928         3860 
 3405000   0.70824099   -9.3913492    476.25518   0.01165578  0.011057051         3870 
 3406000   0.70472632   -9.3677973    476.05408  0.011647438  0.011052173         3891 
 3407000   0.69753537    -9.380886    476.75303  0.011661115  0.011047294         3883 
 3408000   0.70875093   -9.3745853    476.41893  0.011649524  0.011042421         3874 
 3409000   0.71535185   -9.3997376    475.52614  0.011624282  0.011037543         3892 
 3410000   0.71181502    -9.382594    476.11953  0.011635375   0.01103267         3878 
 3411000   0.70076384   -9.3921012    476.19011  0.011633688    0.0110278         3894 
 3412000   0.71217739   -9.3903152    475.33108  0.011609298  0.011022934         3892 
 3413000   0.70039873   -9.3924586    475.95635  0.011621163   0.01101807         3873 
 3414000   0.70082136    -9.398392    475.40683  0.011604345  0.011013206         3890 
 3415000   0.71456892   -9.3891931    475.95696  0.011614372  0.011008349         3889 
 3416000   0.69864315   -9.4124381     475.8913   0.01160937  0.011003488         3886 
 3417000    0.7051419   -9.3950453    476.25582  0.011614862  0.010998631         3887 
 3418000   0.69390933   -9.3734083    476.60783  0.011620047  0.010993783         3894 
 3419000   0.70568798   -9.3745496    476.21451  0.011607061   0.01098893         3862 
 3420000   0.69904699   -9.3921893    476.12236  0.011601422  0.010984079         3878 
 3421000   0.70737063   -9.3904638    476.07848  0.011596962  0.010979235         3884 
 3422000   0.70457256   -9.4140924    474.93064   0.01156562   0.01097439         3895 
 3423000   0.70561109   -9.4050033    476.09938  0.011590695  0.010969546         3881 
 3424000   0.71720567   -9.3951213    475.04797   0.01156172  0.010964703         3884 
 3425000   0.71479673   -9.4058605     476.3309   0.01158956   0.01095987         3875 
 3426000   0.71493734   -9.3991067    476.40683  0.011588024  0.010955037         3901 
 3427000   0.70889673   -9.3887338    475.57572  0.011564432  0.010950204         3891 
 3428000    0.7053028   -9.4032532     476.4833  0.011583122  0.010945373         3878 
 3429000   0.69905084   -9.4120088    474.63997  0.011534946  0.010940541         3892 
 3430000   0.70972679   -9.3907989    475.70609  0.011557485  0.010935721         3873 
 3431000    0.7007642   -9.3965145    475.71099  0.011554236  0.010930899         3877 
 3432000   0.69844367   -9.4028029    474.87572  0.011530588  0.010926079         3887 
 3433000   0.70825409   -9.3964362    475.21878  0.011535556  0.010921266         3869 
 3434000   0.67971217   -9.3965246    475.35379  0.011535473  0.010916452         3883 
 3435000   0.69713164   -9.4226046    475.03363  0.011524348  0.010911643         3892 
 3436000   0.70398904   -9.4093571    475.93118  0.011542762  0.010906832         3883 
 3437000    0.6939789   -9.4133207    475.77217  0.011535549  0.010902025         3885 
 3438000   0.68244595   -9.4141661    475.11283  0.011516212  0.010897222         3881 
 3439000   0.68945649    -9.421345    476.30541  0.011541762  0.010892417         3916 
 3440000   0.70189551    -9.398014    476.32375   0.01153885  0.010887616         3874 
 3441000    0.6917127   -9.4303498    475.10457  0.011505971  0.010882819         3903 
 3442000   0.68773167   -9.3878702    476.65955  0.011540276  0.010878021         3893 
 3443000   0.69776057   -9.3761637    476.86073  0.011541793  0.010873237         3875 
 3444000   0.70039255   -9.3972907     476.4597  0.011528738  0.010868448         3864 
 3445000   0.70587155   -9.3910652    475.72933  0.011507724  0.010863662         3880 
 3446000   0.70278597   -9.4064231    476.05689  0.011512306  0.010858877         3880 
 3447000     0.701064   -9.4182705    475.69868  0.011500306  0.010854103         3894 
 3448000   0.70562763    -9.413107     476.0291  0.011504957  0.010849323         3897 
 3449000   0.69978302   -9.4067208    476.62542  0.011516029   0.01084455         3895 
 3450000   0.71684238   -9.4037765    475.80172  0.011492795  0.010839783         3894 
 3451000   0.70112952   -9.3990684    475.87182  0.011491158  0.010835013         3882 
 3452000   0.71013363   -9.4062613    477.30643  0.011522461  0.010830251         3889 
 3453000   0.70095221   -9.4103246    475.21098  0.011468554  0.010825488         3895 
 3454000   0.70854068   -9.4180713    475.45108  0.011471026  0.010820719         3872 
 3455000   0.68819086   -9.4004245    476.09195  0.011483163  0.010815957         3898 
 3456000   0.70898207   -9.4157188    475.85748  0.011474187  0.010811203         3903 
 3457000   0.70278289   -9.4214278    475.14196   0.01145362  0.010806448         3897 
 3458000    0.6995108   -9.4101217    476.06507  0.011472553    0.0108017         3890 
 3459000   0.69782283    -9.417299    476.52637   0.01148035  0.010796954         3885 
 3460000   0.70881275   -9.4168393    475.29884  0.011447467  0.010792209         3883 
 3461000   0.69787089   -9.3963112    476.08364  0.011463056  0.010787463         3884 
 3462000   0.68185997   -9.3840639    476.07718  0.011459589  0.010782718         3886 
 3463000   0.70378764   -9.4087342    475.15492  0.011434087  0.010777983         3884 
 3464000    0.7039257   -9.4158524    475.15719  0.011430841  0.010773248         3904 
 3465000   0.68463695   -9.4286325    475.37566  0.011432796  0.010768517         3871 
 3466000   0.69411969   -9.4067141    476.79963  0.011463734  0.010763789         3894 
 3467000   0.68556563   -9.4135604    476.55791  0.011454618  0.010759059         3882 
 3468000   0.70373961   -9.4207655    474.93367  0.011412285  0.010754334         3883 
 3469000   0.70549248   -9.4159803    475.42715   0.01142085   0.01074961         3891 
 3470000   0.68579718   -9.4130199     475.7191   0.01142457  0.010744893         3897 
 3471000   0.69181151   -9.4009584    475.01495  0.011404373  0.010740177         3867 
 3472000   0.69327054   -9.3930778    476.25141  0.011430766  0.010735466         3871 
 3473000   0.69257311   -9.3914207    475.11338  0.011400167  0.010730752         3883 
 3474000   0.69210938   -9.3944533    475.73894  0.011411892   0.01072604         3883 
 3475000   0.69466296   -9.4067954    476.36978  0.011423736  0.010721329         3894 
 3476000   0.70313773   -9.4109374    475.31141  0.011395076   0.01071662         3891 
 3477000    0.7057139   -9.4256204    475.37507  0.011393324  0.010711919         3884 
 3478000   0.69110191    -9.423298    474.90555  0.011378799  0.010707221         3880 
 3479000   0.70097677   -9.4163485     475.4862  0.011389437  0.010702524         3882 
 3480000   0.68588091   -9.4496685    474.72464  0.011367927  0.010697826         3898 
 3481000   0.69656911   -9.3963971    475.28818  0.011378152   0.01069313         3884 
 3482000   0.69234971   -9.4044555    474.93882  0.011366524  0.010688441         3909 
 3483000   0.68352814   -9.3986772    475.87262  0.011385602  0.010683754         3877 
 3484000   0.69970913   -9.4428067    475.44188  0.011372031  0.010679069         3891 
 3485000   0.67351278   -9.4126744    475.70561  0.011375074  0.010674391         3891 
 3486000   0.67770416   -9.4453053    475.33535   0.01136296  0.010669709         3891 
 3487000   0.68691848   -9.4051616    475.45627  0.011362591   0.01066503         3883 
 3488000    0.7049607   -9.4282143    475.22256   0.01135375  0.010660349         3888 
 3489000   0.66967267   -9.4078778    475.75621  0.011363242  0.010655677         3879 
 3490000   0.69364568   -9.4030052    475.88713  0.011363112  0.010651005         3881 
 3491000   0.69470636   -9.4119382    475.99893  0.011362526  0.010646339         3899 
 3492000   0.69162863   -9.3984878    476.84084  0.011379363  0.010641673         3894 
 3493000   0.69052056   -9.4025308    476.46062  0.011367035  0.010637011         3897 
 3494000   0.68673902   -9.4206183    475.26347  0.011335229  0.010632352         3886 
 3495000   0.69925261   -9.4349124     476.2749  0.011356102    0.0106277         3894 
 3496000   0.69454148   -9.3923238    475.67732  0.011338609   0.01062305         3876 
 3497000   0.69997917   -9.4272976    475.00937  0.011319449  0.010618396         3898 
 3498000    0.6770977   -9.4294408     475.4706  0.011327201  0.010613749         3893 
 3499000   0.69269393   -9.4259897    475.54818  0.011325812  0.010609103         3881 
 3500000   0.68667708   -9.4116352    476.46038  0.011344295  0.010604457         3902 
 3501000   0.68560508   -9.4037478    475.07715   0.01130813  0.010599814         3892 
 3502000   0.70704698   -9.4166349    474.74702  0.011297045  0.010595177         3898 
 3503000   0.69744513   -9.4234903    475.41052  0.011309604  0.010590538         3889 
 3504000   0.69407435    -9.405326    475.64389  0.011311927  0.010585903         3900 
 3505000   0.69285641   -9.4193382    475.26194  0.011299618  0.010581265         3888 
 3506000   0.67623715   -9.4286221    474.94704   0.01128891  0.010576633         3887 
 3507000   0.69552041   -9.4379515    475.96264  0.011309824  0.010572009         3891 
 3508000   0.68609039   -9.4169179    475.74653  0.011301466  0.010567386         3890 
 3509000   0.69566092   -9.4191195    475.62547  0.011295371  0.010562762         3886 
 3510000   0.68172417   -9.4253972    475.63382  0.011292351  0.010558137         3882 
 3511000   0.69642054   -9.4168507    475.36599  0.011282778  0.010553515         3890 
 3512000   0.69024139   -9.4165999    475.40539    0.0112805  0.010548893         3899 
 3513000   0.69131193   -9.4202115    475.09207  0.011269856  0.010544276         3892 
 3514000   0.69142469   -9.4469463    475.10363  0.011266924  0.010539659         3890 
 3515000   0.67976043   -9.4192611    476.30164   0.01129212  0.010535043         3891 
 3516000   0.68767852   -9.4043422     475.6078  0.011272464   0.01053043         3882 
 3517000   0.69848191   -9.4388539    475.30019   0.01126197  0.010525821         3900 
 3518000   0.67853244   -9.4195616    475.50882  0.011263711  0.010521209         3887 
 3519000   0.68584033   -9.4289381    475.08328  0.011250433  0.010516599         3911 
 3520000   0.69211664   -9.4428619    474.42296  0.011231604  0.010511994         3925 
 3521000   0.67698556   -9.4288517     474.8546   0.01123863  0.010507389         3902 
 3522000   0.68433721   -9.4364926    474.53137  0.011227791  0.010502787         3909 
 3523000   0.68028133   -9.3938606    474.86568  0.011232512  0.010498187         3887 
 3524000   0.68981974   -9.4121584     475.1144  0.011235206  0.010493591         3905 
 3525000   0.70005651   -9.4296236    474.83328  0.011225373  0.010488998         3902 
 3526000   0.67279879   -9.4445921    475.60762   0.01124049  0.010484406         3899 
 3527000   0.68919502   -9.4433399    475.69799  0.011239438  0.010479819         3892 
 3528000   0.69769581   -9.4183793    474.77371  0.011214421  0.010475238         3911 
 3529000   0.69070972   -9.4209576    475.20867  0.011221514  0.010470656         3909 
 3530000   0.68902599   -9.4478888      475.568  0.011226818  0.010466077         3912 
 3531000   0.67488248   -9.4101887    475.34553  0.011218388  0.010461502         3902 
 3532000   0.70031647   -9.4217396    474.71314  0.011200291   0.01045693         3905 
 3533000   0.68812856   -9.4258783    475.62774  0.011218694  0.010452359         3906 
 3534000   0.70101908   -9.4179034    475.02781  0.011201373  0.010447786         3909 
 3535000    0.7054127   -9.4534151    474.96336  0.011196685  0.010443215         3915 
 3536000   0.68306876   -9.4466069    475.84759  0.011214357   0.01043864         3926 
 3537000    0.6835641   -9.4398538    474.36935  0.011176358  0.010434072         3904 
 3538000   0.69211694   -9.4380341    475.15011  0.011191589  0.010429505         3897 
 3539000   0.68744235   -9.4480932    475.08971  0.011187005  0.010424945         3911 
 3540000    0.6738383   -9.4518215    474.43418  0.011168413  0.010420386         3912 
 3541000   0.68016403   -9.4331409    474.50071  0.011166825  0.010415828         3915 
 3542000   0.68222113   -9.4302127    475.50431  0.011187284  0.010411274         3908 
 3543000    0.6701518   -9.4476866    474.47502  0.011159917  0.010406718         3919 
 3544000   0.67954912   -9.4134373    475.75208  0.011186797  0.010402172         3901 
 3545000   0.68306859   -9.4233372    475.23658  0.011171523  0.010397629         3902 
 3546000   0.68128628   -9.4426322    474.09011   0.01114143  0.010393086         3913 
 3547000   0.67990795   -9.4388988    474.38756  0.011145277  0.010388543         3910 
 3548000   0.67323253   -9.4214744    474.35184  0.011141297     0.010384         3895 
 3549000    0.6753277   -9.4538235    474.17039  0.011133897  0.010379462         3907 
 3550000   0.66970758   -9.4318243    474.22793  0.011132111  0.010374923         3913 
 3551000   0.68824314   -9.4438306    474.57656  0.011137158  0.010370389         3891 
 3552000   0.67716652   -9.4330332    474.14384   0.01112387  0.010365863         3908 
 3553000   0.68809294   -9.4140359     474.7146  0.011134126  0.010361335         3889 
 3554000   0.69170663   -9.4315052     474.1264  0.011117201  0.010356806         3899 
 3555000   0.67840778   -9.4339346    474.55076  0.011124022  0.010352283         3908 
 3556000   0.67637033   -9.4404118    474.47506  0.011119119  0.010347762         3917 
 3557000   0.69527977   -9.4370613     475.0419  0.011129273  0.010343244         3907 
 3558000   0.67586138   -9.4294784    475.12203  0.011128022  0.010338726         3902 
 3559000   0.68522163   -9.4558499     474.3504  0.011106828  0.010334212         3897 
 3560000   0.68187114   -9.4536312    475.81338  0.011137954  0.010329706         3915 
 3561000   0.69328869   -9.4689028     475.8436  0.011135533  0.010325195         3909 
 3562000    0.6916059   -9.4491711    474.41676  0.011099026   0.01032069         3918 
 3563000   0.69693024   -9.4617797    474.33154  0.011093918  0.010316189         3916 
 3564000   0.69172356   -9.4267933    474.82875   0.01110243  0.010311688         3901 
 3565000   0.67722695   -9.4413161    474.48448  0.011091269  0.010307191         3919 
 3566000    0.6858343   -9.4435451    474.94059  0.011098817  0.010302694         3909 
 3567000   0.67387064   -9.4542657    474.77491  0.011091835  0.010298201         3899 
 3568000   0.69050982   -9.4301933    475.26351  0.011100138  0.010293707         3910 
 3569000    0.6913187   -9.4580603    474.01317  0.011067833  0.010289221         3905 
 3570000    0.6779022   -9.4341926    474.75587   0.01108207  0.010284736         3903 
 3571000   0.68596351   -9.4601147    473.79115  0.011056454  0.010280251         3899 
 3572000    0.6837828   -9.4454232    474.71519  0.011074916  0.010275766         3904 
 3573000   0.68659277   -9.4674802    474.59821  0.011069088  0.010271289         3910 
 3574000   0.68943695    -9.482978    474.42401  0.011061929  0.010266813         3908 
 3575000   0.69070904   -9.4474934    474.30332  0.011056021  0.010262337         3922 
 3576000   0.67277585   -9.4590632    474.95724  0.011068168  0.010257861         3913 
 3577000   0.68054618   -9.4719376    474.94914  0.011064885  0.010253392         3906 
 3578000   0.67293732   -9.4535801    475.06872  0.011064578  0.010248922         3901 
 3579000    0.6852736   -9.4454706    474.76573  0.011054432  0.010244459         3903 
 3580000   0.67987573   -9.4489834    475.29886  0.011063754  0.010239994         3904 
 3581000   0.68352364   -9.4568924    474.16668  0.011034317  0.010235529         3904 
 3582000   0.69190892   -9.4644509    474.11327  0.011029994  0.010231075         3900 
 3583000   0.66439054   -9.4521333     474.6816  0.011040134  0.010226623         3921 
 3584000   0.67879963   -9.4674562    474.42988  0.011031201   0.01022217         3904 
 3585000   0.68512263   -9.4458823    475.09031  0.011043475   0.01021772         3911 
 3586000   0.69115369   -9.4599427    474.37857  0.011023856  0.010213271         3908 
 3587000   0.69968191   -9.4476519    474.30426  0.011019056  0.010208826         3908 
 3588000   0.68006601   -9.4760067    474.12885  0.011011911  0.010204381         3896 
 3589000   0.67427873   -9.4619758    475.01928  0.011029518  0.010199946         3898 
 3590000   0.67716078   -9.4555687     475.3535  0.011034204  0.010195507         3899 
 3591000    0.6705669   -9.4620124    475.39908  0.011032189  0.010191074         3904 
 3592000   0.65939594   -9.4525485    475.04695  0.011020948  0.010186641         3887 
 3593000   0.65283277   -9.4312965    473.83522  0.010989777  0.010182211         3920 
 3594000   0.66844418   -9.4451039    474.72012  0.011007237  0.010177788         3912 
 3595000   0.67317793    -9.445746    474.80531   0.01100615  0.010173359         3908 
 3596000   0.68403633   -9.4302935    474.96278  0.011006739  0.010168939         3894 
 3597000   0.69356673   -9.4405302    475.57914  0.011017958  0.010164523         3896 
 3598000   0.68630707   -9.4686573    474.87431  0.010998571  0.010160102         3908 
 3599000    0.6733586     -9.46873    474.00198  0.010975317  0.010155686         3908 
 3600000   0.66417088   -9.4703113    474.82436  0.010991305  0.010151272         3908 
 3601000   0.66760565   -9.4545777    474.41046  0.010978674   0.01014686         3922 
 3602000   0.67288867   -9.4549095    474.10457  0.010968549  0.010142448         3887 
 3603000   0.67871896   -9.4460305    474.14145  0.010966358  0.010138045         3897 
 3604000   0.67822478   -9.4648382    474.88972  0.010980617  0.010133645         3909 
 3605000   0.67974686   -9.4379317     474.8608  0.010976902  0.010129244         3904 
 3606000    0.6878346   -9.4342213    474.26437  0.010960075   0.01012485         3918 
 3607000   0.67568856    -9.471878     474.4659  0.010961693  0.010120454         3899 
 3608000    0.6757102   -9.4670827    474.27542  0.010954255  0.010116066         3903 
 3609000   0.65997523   -9.4641203    474.85823  0.010964677  0.010111679         3906 
 3610000   0.67511231   -9.4802979    474.09727  0.010944074  0.010107287         3918 
 3611000   0.65636473   -9.4442452    474.64855  0.010953765  0.010102899         3921 
 3612000   0.67792204   -9.4560727    474.96343  0.010957997  0.010098515         3902 
 3613000   0.66603764     -9.44403    474.60742  0.010946753  0.010094128         3921 
 3614000   0.67404223   -9.4456638    474.05252  0.010930929   0.01008975         3916 
 3615000    0.6696011   -9.4447464    474.83675  0.010945983  0.010085372         3911 
 3616000   0.67613805   -9.4476122    474.14592  0.010927036  0.010080994         3907 
 3617000   0.68279943   -9.4772836    474.27095  0.010926895  0.010076622         3919 
 3618000   0.66993786   -9.4514661    474.49494  0.010929034  0.010072252         3895 
 3619000   0.67823099   -9.4515692    474.57284  0.010927808  0.010067882         3927 
 3620000     0.682011   -9.4502598    474.63584  0.010926239  0.010063515         3915 
 3621000   0.67960575   -9.4523306    475.02608  0.010932203  0.010059155         3917 
 3622000   0.67734997   -9.4539421    475.52365  0.010940632    0.0100548         3922 
 3623000   0.67001886   -9.4681164    474.46229    0.0109132  0.010050445         3906 
 3624000   0.66419855   -9.4615104    474.20911  0.010904367  0.010046089         3906 
 3625000   0.66206944   -9.4615597    474.49953  0.010908035  0.010041736         3913 
 3626000    0.6669052   -9.4760264    473.79732  0.010888889  0.010037382         3897 
 3627000   0.67292073   -9.4566456     474.0854  0.010892505  0.010033032         3904 
 3628000   0.67054242   -9.4440327    475.13936  0.010913712  0.010028686         3914 
 3629000   0.68960411   -9.4760514    473.81798  0.010880361  0.010024342         3919 
 3630000   0.65849217   -9.4572949    474.48269  0.010892624      0.01002         3910 
 3631000   0.66592857   -9.4557135    475.07647  0.010903251   0.01001566         3904 
 3632000   0.67895851   -9.4570907    473.95444  0.010874505  0.010011319         3921 
 3633000   0.66714464   -9.4575404    473.81412  0.010868294  0.010006984         3912 
 3634000   0.68296477   -9.4433017    473.88888  0.010867017  0.010002648         3912 
 3635000   0.67463679   -9.4593963    474.38493    0.0108754  0.009998316         3917 
 3636000   0.66168061   -9.4472396     473.7232  0.010857242 0.0099939873         3931 
 3637000   0.66913539   -9.4623813    474.73873  0.010877526 0.0099896632         3922 
 3638000   0.68473027   -9.4693539    474.05718  0.010858924 0.0099853405         3908 
 3639000   0.66190338   -9.4691372    474.01323  0.010854933 0.0099810217         3919 
 3640000   0.66072042   -9.4631143    474.91916  0.010872691 0.0099767027         3904 
 3641000   0.68737487   -9.4592708    475.08169  0.010873425  0.009972388         3906 
 3642000   0.66559413   -9.4656409     475.3109  0.010875684 0.0099680724         3910 
 3643000   0.66444667   -9.4763489    474.24931  0.010848415 0.0099637657         3924 
 3644000    0.6674822   -9.4585297    473.73935  0.010833776 0.0099594556         3925 
 3645000   0.66533176   -9.4814747    474.37389  0.010845311 0.0099551504         3901 
 3646000    0.6616689   -9.4533767    473.75645  0.010828224 0.0099508472         3915 
 3647000   0.66992645   -9.4438978    474.69928  0.010846798 0.0099465505         3916 
 3648000    0.6728597   -9.4674298    474.70106  0.010843866 0.0099422541         3900 
 3649000   0.66879774   -9.4716309     474.3249  0.010832303 0.0099379603         3911 
 3650000    0.6686213   -9.4644597    473.54332  0.010811491 0.0099336679         3922 
 3651000   0.66709289   -9.4799919    473.66291   0.01081126 0.0099293824         3918 
 3652000   0.67418429   -9.4543256    474.35214  0.010824027 0.0099250945         3920 
 3653000   0.67509541   -9.4541996    474.58008  0.010826263 0.0099208086         3929 
 3654000   0.66718285   -9.4688841    474.38258  0.010818796  0.009916525         3913 
 3655000   0.66321854   -9.4690599    474.54603  0.010819563 0.0099122365         3920 
 3656000   0.69075466   -9.4637043    473.77183  0.010798957  0.009907957         3912 
 3657000    0.6544321   -9.4752094    473.70405  0.010794459   0.00990368         3915 
 3658000   0.68024768   -9.4828469    474.18152  0.010802386 0.0098994003         3906 
 3659000    0.6747303   -9.4738763    473.92661  0.010793628 0.0098951283         3910 
 3660000   0.67854308   -9.4506519    473.67612  0.010784976 0.0098908554         3906 
 3661000   0.67506244   -9.4757113    473.58129  0.010779871 0.0098865868         3897 
 3662000   0.67782193   -9.4612671    474.25437  0.010792244 0.0098823256         3909 
 3663000   0.66132611   -9.4555519    475.12557  0.010809118 0.0098780633         3914 
 3664000   0.66258894   -9.4757804    474.29491  0.010787275 0.0098738023         3917 
 3665000   0.65662418   -9.4759256      473.955  0.010776603  0.009869544         3922 
 3666000   0.67012852   -9.4762626    474.70906  0.010790804 0.0098652878         3909 
 3667000   0.66109578   -9.4696661    473.76645  0.010766441 0.0098610363         3909 
 3668000   0.66420293   -9.4887211    474.67793  0.010784213  0.009856786         3913 
 3669000   0.66666097   -9.4721243    474.35161  0.010773862 0.0098525332         3920 
 3670000   0.66914136   -9.4566677    474.26813  0.010769031 0.0098482888         3919 
 3671000   0.64164086   -9.4584042    474.86931  0.010779745 0.0098440489         3916 
 3672000   0.65702188   -9.4609336    474.34172  0.010764836 0.0098398058         3908 
 3673000   0.64670255   -9.4540531      473.825  0.010750181 0.0098355627         3921 
 3674000   0.68779149   -9.4600013    473.72801  0.010745056  0.009831327         3903 
 3675000   0.66284239   -9.4808115    474.03769  0.010749154 0.0098270948         3910 
 3676000   0.66627379   -9.4951927    473.78194  0.010740432 0.0098228636         3913 
 3677000   0.64484868   -9.4630687    473.55514  0.010732371  0.009818635         3907 
 3678000   0.65655297   -9.4921428    472.98575  0.010716552 0.0098144055         3925 
 3679000   0.67181371   -9.4768413    473.96727  0.010735872 0.0098101809         3924 
 3680000   0.65974677   -9.4793348    473.71488  0.010727239 0.0098059559         3918 
 3681000    0.6742087     -9.49922    474.14036  0.010733957 0.0098017342         3922 
 3682000   0.65171705   -9.4730077    474.54585  0.010740219 0.0097975171         3917 
 3683000   0.65614076   -9.4964217    473.76881  0.010719721 0.0097932982         3922 
 3684000   0.65193667   -9.4753926    473.86631  0.010719017  0.009789087         3902 
 3685000   0.66560975   -9.4869023    474.34842  0.010727011 0.0097848734         3917 
 3686000   0.66291174   -9.4955895    473.67253   0.01070882 0.0097806654         3916 
 3687000   0.65934463   -9.4701054    474.63079  0.010727574 0.0097764584         3930 
 3688000   0.65628454   -9.4454535    474.04174  0.010711355 0.0097722579         3913 
 3689000   0.65835559   -9.4697395    474.35453  0.010715518 0.0097680571         3908 
 3690000   0.66048121   -9.4673145    474.81145  0.010722933 0.0097638588         3926 
 3691000   0.65248003   -9.4782891    474.03791  0.010702563  0.009759666         3934 
 3692000   0.66667319   -9.4787321    474.39197  0.010707656 0.0097554698         3911 
 3693000   0.65728649   -9.5009569    474.70637  0.010711851 0.0097512762         3905 
 3694000   0.65811912   -9.4642836    474.14565  0.010696301 0.0097470877         3922 
 3695000   0.65420497   -9.4705212    474.02531  0.010690693 0.0097429001         3919 
 3696000   0.66461489   -9.4719347    474.47607  0.010697963 0.0097387171         3920 
 3697000   0.66327578   -9.4892732    473.97998  0.010683887 0.0097345334         3894 
 3698000   0.65245079   -9.4681511    474.11652  0.010684075 0.0097303533         3921 
 3699000   0.65996062   -9.4830966    473.86453   0.01067551  0.009726173         3916 
 3700000   0.65018901   -9.4444506    473.68981  0.010668689 0.0097219925         3914 
 3701000   0.66596176   -9.4877342    473.31719  0.010657417 0.0097178179         3913 
 3702000   0.64637226   -9.4647804    474.29962  0.010676653 0.0097136466         3916 
 3703000   0.65792337   -9.4927399    474.62609  0.010681117 0.0097094758         3921 
 3704000   0.66582461   -9.4855501    473.58505  0.010654811 0.0097053095         3923 
 3705000   0.66243576   -9.4912856      473.982  0.010660864 0.0097011417         3923 
 3706000   0.65878267   -9.4733046    474.03825  0.010659252 0.0096969752         3920 
 3707000   0.66053252   -9.4804587    473.78641  0.010650715  0.009692818         3929 
 3708000   0.64543257   -9.4803812    473.59981  0.010643649 0.0096886572         3909 
 3709000   0.65622669   -9.4852513    474.15941  0.010653352 0.0096845001         3921 
 3710000   0.66315359    -9.474486    473.60598   0.01063805 0.0096803451         3927 
 3711000   0.64262657   -9.4752149    474.81181  0.010662261  0.009676191         3912 
 3712000   0.67093778   -9.4731394    472.93927  0.010617351 0.0096720408         3905 
 3713000   0.65719074   -9.4805574    474.50997  0.010649743 0.0096678915         3911 
 3714000    0.6527551   -9.4598926     473.8653  0.010632411  0.009663748         3918 
 3715000   0.64637748   -9.4876751    474.11115  0.010635064 0.0096596093         3918 
 3716000   0.67743852   -9.4827358    473.73018  0.010623658 0.0096554676         3928 
 3717000   0.65160808   -9.4947927    473.39353  0.010613253 0.0096513277         3925 
 3718000    0.6702529     -9.47344    474.30868   0.01063091 0.0096471912         3909 
 3719000   0.65636085   -9.4946247    474.17514  0.010625059 0.0096430563         3900 
 3720000   0.66051856   -9.4858925    473.95701  0.010617317 0.0096389263         3915 
 3721000   0.65845081   -9.4798273    473.23541  0.010598303 0.0096347943         3911 
 3722000   0.66060408   -9.4860801    474.01249  0.010612854 0.0096306735         3916 
 3723000    0.6453206   -9.4918573    473.45417  0.010597506 0.0096265518         3911 
 3724000   0.64815564    -9.472638    474.13122  0.010609811 0.0096224328         3911 
 3725000   0.63714487    -9.494106    473.92689  0.010602391 0.0096183146         3919 
 3726000   0.66303051   -9.4842762    473.30618  0.010585663 0.0096141976         3911 
 3727000   0.65715306    -9.500722    473.67573  0.010591086 0.0096100835         3916 
 3728000   0.63794792   -9.4731941    474.14979  0.010598842 0.0096059718         3915 
 3729000   0.64797885   -9.4801359    473.80947  0.010588394 0.0096018574         3897 
 3730000   0.65172436   -9.4814902    473.33524  0.010574961  0.009597747         3920 
 3731000   0.65831452   -9.4743606    473.69219  0.010580099 0.0095936398         3928 
 3732000   0.65506757   -9.4815999    473.88402  0.010581547 0.0095895347         3909 
 3733000   0.65128094   -9.4616943    474.99508  0.010603515 0.0095854346         3910 
 3734000   0.66193609   -9.4648539    474.15739  0.010581981 0.0095813392         3917 
 3735000   0.65705551   -9.4812172    473.95494   0.01057463 0.0095772465         3897 
 3736000   0.67637961   -9.4715729    473.38793  0.010559153 0.0095731506         3918 
 3737000   0.65850065   -9.5019806    473.70319  0.010563357 0.0095690572         3909 
 3738000   0.63513125    -9.500328    473.00559  0.010544979 0.0095649635         3921 
 3739000   0.66078229   -9.4655926    474.25401  0.010569983 0.0095608783         3926 
 3740000   0.65160688   -9.5029206    473.34069  0.010546807 0.0095567933         3911 
 3741000    0.6598012   -9.5078831    473.31965  0.010543519 0.0095527053         3922 
 3742000   0.66628318   -9.4883458    474.09907  0.010558059 0.0095486216         3919 
 3743000   0.64996044   -9.4844611    473.52808  0.010542526 0.0095445434         3909 
 3744000   0.64869179    -9.481721    473.83596  0.010546563 0.0095404666         3920 
 3745000   0.64626795   -9.4930244    473.75338  0.010541909 0.0095363911         3920 
 3746000    0.6559575   -9.5086917    473.77295   0.01053953 0.0095323192         3913 
 3747000   0.64761177   -9.5043902    472.96597   0.01051877  0.009528249         3921 
 3748000   0.63175245   -9.5182613    473.58759  0.010529785 0.0095241785         3917 
 3749000   0.65410999   -9.4871168    473.53232  0.010525747  0.009520113         3905 
 3750000   0.65322836   -9.4817254    473.47107  0.010521579  0.009516048         3908 
 3751000    0.6486491    -9.500819    473.85997  0.010527414 0.0095119882         3920 
 3752000   0.65615292   -9.5020702    472.94875   0.01050437 0.0095079311         3920 
 3753000   0.65117195   -9.5055142    472.82465  0.010498815  0.009503873         3917 
 3754000   0.65280457   -9.4965151    473.28921  0.010506331  0.009499821         3919 
 3755000   0.65556767    -9.512113    473.41353  0.010506292 0.0094957675         3919 
 3756000   0.65989471   -9.4945411    473.31337  0.010501273 0.0094917161         3922 
 3757000   0.65939352    -9.496328    473.98455  0.010513365 0.0094876686         3919 
 3758000   0.65647012   -9.5035114    474.25864  0.010516645 0.0094836193         3919 
 3759000   0.65096992   -9.4906242    472.87274  0.010483124 0.0094795822         3910 
 3760000   0.65999838   -9.4782653    473.45444  0.010493228  0.009475541         3917 
 3761000   0.65173956     -9.49217    473.73268  0.010496603 0.0094715041         3924 
 3762000   0.66762814   -9.4868647     473.2464  0.010483041 0.0094674675         3915 
 3763000   0.66849275   -9.5029859     473.0831  0.010476639 0.0094634326         3914 
 3764000   0.65370007   -9.4908452    473.73488  0.010488286 0.0094593987         3915 
 3765000   0.65798988   -9.4953989    473.40699  0.010478242 0.0094553693         3922 
 3766000   0.65762189   -9.4869704      473.126  0.010469242 0.0094513455         3923 
 3767000    0.6525177   -9.4869844     473.9425  0.010484526 0.0094473182         3915 
 3768000   0.64767538   -9.5122805     473.9346  0.010481568 0.0094432965         3907 
 3769000   0.63722761   -9.4916028    473.59269  0.010471228 0.0094392755         3905 
 3770000   0.65805929   -9.4978114    473.44562  0.010465199 0.0094352532         3920 
 3771000   0.63086107   -9.4877936    474.07288  0.010476286 0.0094312365         3925 
 3772000   0.64171912   -9.5214408    473.77721  0.010466976  0.009427223         3904 
 3773000   0.65116877   -9.5058437    473.67463  0.010461936 0.0094232083         3915 
 3774000    0.6404902   -9.5087772    473.75474  0.010460933 0.0094191998         3914 
 3775000    0.6385925   -9.4850836    473.72283  0.010457458 0.0094151879         3906 
 3776000   0.65746649   -9.4991192    473.36224   0.01044673 0.0094111782         3925 
 3777000    0.6458208   -9.5145899    473.96433  0.010457248 0.0094071774         3922 
 3778000   0.64742431    -9.501236    474.08994  0.010457251 0.0094031726         3923 
 3779000     0.650042   -9.5078814    473.19257  0.010434695 0.0093991713         3910 
 3780000   0.66485683   -9.4854534    474.42278  0.010459056 0.0093951766         3920 
 3781000   0.64606231   -9.4951124    474.15353  0.010450356 0.0093911799         3911 
 3782000   0.64257668   -9.5156086    473.13094   0.01042506 0.0093871838         3921 
 3783000   0.63536176   -9.4932526     473.6504  0.010433747 0.0093831896         3909 
 3784000   0.63962747   -9.4852389    473.62287  0.010430384 0.0093792009         3907 
 3785000   0.63543958   -9.4894576    473.99011  0.010435714 0.0093752089         3916 
 3786000   0.63655655   -9.4871721    473.76638  0.010428033 0.0093712249         3907 
 3787000   0.65777444   -9.4882207    474.00789  0.010430593 0.0093672402         3910 
 3788000   0.64851517   -9.5132505    473.67717  0.010420564 0.0093632595         3911 
 3789000   0.65983729   -9.4910768    473.23886  0.010408174 0.0093592829         3919 
 3790000   0.63069749   -9.5321982    473.15493  0.010403582 0.0093553088         3917 
 3791000   0.63916486   -9.5091956    474.51601  0.010430757 0.0093513321         3924 
 3792000   0.64560055   -9.5058145    473.46422  0.010404892 0.0093473612         3925 
 3793000    0.6351386   -9.4993095    474.47473   0.01042435 0.0093433949         3921 
 3794000   0.63807208   -9.5067813    473.33077  0.010396476 0.0093394254         3916 
 3795000   0.62912739   -9.4929587    473.68251  0.010401461  0.009335462         3916 
 3796000   0.63582347   -9.5049751    472.89657  0.010381467 0.0093314984         3924 
 3797000   0.64169902   -9.5023063    473.19253  0.010385228 0.0093275367         3903 
 3798000   0.62650294   -9.5237142    473.99938  0.010400197 0.0093235803         3909 
 3799000   0.64968756   -9.5058511    473.29385  0.010381983 0.0093196226         3931 
 3800000   0.64121926   -9.5107302    473.71117  0.010388403 0.0093156745         3910 
 3801000   0.65160891   -9.5085618     473.3419  0.010377574 0.0093117237         3924 
 3802000   0.64049457    -9.494809    473.71672   0.01038306 0.0093077711         3912 
 3803000   0.65425727   -9.5058159    473.96571  0.010385785 0.0093038226         3907 
 3804000   0.62638976   -9.5040596    474.27834  0.010389904  0.009299876         3917 
 3805000   0.64266901   -9.5196047     472.7943  0.010354672 0.0092959346         3924 
 3806000   0.65198814   -9.4861736    473.57052  0.010368946 0.0092919956         3917 
 3807000   0.64783036   -9.4868665    473.32081  0.010360757 0.0092880588         3913 
 3808000   0.64752168   -9.5246133     473.5449   0.01036294  0.009284123         3923 
 3809000   0.64904809   -9.5378843    473.12844  0.010351108 0.0092801936         3915 
 3810000   0.63171199   -9.4881721    473.79407   0.01036295 0.0092762602         3910 
 3811000   0.64688553   -9.5120148    473.57618  0.010355466 0.0092723251         3910 
 3812000    0.6331469   -9.5069992    472.95516  0.010339174 0.0092684024         3914 
 3813000   0.63750676   -9.5012681    473.63028  0.010351217 0.0092644765         3911 
 3814000   0.63550842   -9.5043515    474.01126  0.010356827 0.0092605514         3905 
 3815000   0.63683468    -9.504693    473.48998  0.010342726 0.0092566284         3922 
 3816000   0.63168404   -9.4840338    473.82766  0.010347389 0.0092527037         3936 
 3817000   0.63659617   -9.5154287    474.03619  0.010349231  0.009248781         3919 
 3818000   0.65432559   -9.4797622    473.14426  0.010327053 0.0092448683         3912 
 3819000   0.63150528   -9.5082101    472.55675  0.010311529 0.0092409556         3919 
 3820000    0.6381587   -9.5036069    472.91179  0.010316575 0.0092370462         3909 
 3821000   0.64530817    -9.519621    473.49364  0.010326565 0.0092331414         3909 
 3822000   0.66488194   -9.5010718    472.79014  0.010308524 0.0092292372         3890 
 3823000   0.65586237   -9.5336284    473.18142  0.010314356 0.0092253323         3920 
 3824000   0.64496857    -9.518937    473.40751  0.010316586 0.0092214264         3916 
 3825000   0.63736576   -9.5080131    473.55299  0.010317059 0.0092175255         3923 
 3826000   0.64065431   -9.4993735    473.18716  0.010306394 0.0092136266         3916 
 3827000   0.62789251   -9.4982237    473.54997  0.010311601 0.0092097282         3926 
 3828000    0.6469278   -9.5157292    473.32426  0.010303994 0.0092058331         3911 
 3829000   0.63313353   -9.5157868    473.54326  0.010306069 0.0092019414         3926 
 3830000   0.64244907   -9.5305651    472.42164  0.010278974 0.0091980505         3905 
 3831000   0.63851006   -9.5144874    473.09945  0.010291035 0.0091941632         3903 
 3832000   0.64902336   -9.5082647    472.33003  0.010271617 0.0091902808         3913 
 3833000   0.62999682    -9.522403    472.64555  0.010275797  0.009186398         3905 
 3834000   0.64831135   -9.5086634    472.94259  0.010279573  0.009182514         3919 
 3835000   0.64159136   -9.5266331    473.35599  0.010285875 0.0091786362         3920 
 3836000   0.63712787   -9.5266572    472.61535  0.010267104 0.0091747589         3910 
 3837000   0.64369836   -9.5199285     473.8724   0.01029173 0.0091708809         3912 
 3838000    0.6444496   -9.5242194    472.14558  0.010251554 0.0091670082         3917 
 3839000    0.6412303   -9.5024919    473.28598  0.010273638 0.0091631399         3916 
 3840000   0.62826425   -9.5174816    474.03838  0.010287291 0.0091592685         3905 
 3841000   0.63785707   -9.5413909    473.19797   0.01026638 0.0091554032         3917 
 3842000   0.63283737   -9.4932229    473.23299  0.010264467 0.0091515391         3911 
 3843000   0.63593061   -9.5050347    473.71281  0.010272201 0.0091476744         3908 
 3844000   0.63587606   -9.5158417    472.96573  0.010253333 0.0091438177         3910 
 3845000   0.65385854   -9.5254149    472.55223  0.010241704 0.0091399601         3906 
 3846000   0.63012691   -9.4985751    473.72455  0.010264443  0.009136105         3915 
 3847000   0.63924006   -9.5112232    473.37075   0.01025411  0.009132254         3909 
 3848000   0.62806383   -9.5082307    473.43846  0.010252912 0.0091284027         3922 
 3849000   0.62820809   -9.5125113      472.856  0.010237638  0.009124554         3916 
 3850000   0.62787991     -9.49981    473.34183  0.010245494 0.0091207078         3905 
 3851000   0.64181503   -9.5145004    472.66606   0.01022821 0.0091168633         3916 
 3852000   0.65640983   -9.5058654     472.9054  0.010230733 0.0091130228         3907 
 3853000   0.63726197   -9.5311596    472.77071  0.010225165 0.0091091833         3906 
 3854000    0.6256688   -9.5030694    473.28489  0.010233629 0.0091053436         3916 
 3855000   0.63925544   -9.5069688     472.8266  0.010221068 0.0091015036         3905 
 3856000   0.62814941   -9.4962974    472.98272  0.010221791  0.009097667         3901 
 3857000   0.63161603   -9.4935887     473.2251  0.010224378 0.0090938352         3925 
 3858000   0.63151808    -9.519675    473.64955  0.010230896 0.0090900038         3922 
 3859000   0.63559479   -9.4954982     472.8114  0.010210145 0.0090861771         3910 
 3860000   0.63109103   -9.5166845    473.24537  0.010216869 0.0090823481         3916 
 3861000   0.62020697   -9.5343431     473.4433  0.010218495 0.0090785218         3908 
 3862000   0.63948853   -9.5258548     473.4066  0.010215057 0.0090747014         3936 
 3863000   0.64412578   -9.4914734    473.51804  0.010214817 0.0090708814         3911 
 3864000   0.62921177   -9.5328336    472.92509  0.010199385 0.0090670637         3910 
 3865000   0.62285711   -9.5271594     472.9755  0.010197833 0.0090632493         3911 
 3866000   0.64193434   -9.5321457    472.90705   0.01019372 0.0090594374         3908 
 3867000   0.63243117   -9.5371521    473.84497  0.010211296  0.009055622         3911 
 3868000     0.615938   -9.5249472    473.03213  0.010191144 0.0090518114         3916 
 3869000   0.63778209   -9.5274147    472.47201  0.010176445  0.009048003         3928 
 3870000   0.64417024   -9.5146553    472.22885   0.01016858 0.0090441955         3906 
 3871000   0.64403326   -9.5226476    473.43659  0.010191953 0.0090403911         3922 
 3872000   0.64504367   -9.5104383     473.5892  0.010192605 0.0090365898         3916 
 3873000   0.63821756   -9.5341477    472.82902  0.010173617 0.0090327922         3923 
 3874000   0.62499931   -9.5377276    473.00865  0.010174855 0.0090289977         3919 
 3875000   0.63475031   -9.5342826    472.78072  0.010167327 0.0090252036         3928 
 3876000   0.63633363   -9.5086615    473.46347  0.010179383  0.009021414         3894 
 3877000    0.6386569   -9.5161917    472.49346  0.010155908 0.0090176229         3902 
 3878000   0.63167644    -9.530287    473.29609  0.010170537 0.0090138374         3910 
 3879000   0.63226639   -9.5392152    472.60861  0.010153145 0.0090100495         3919 
 3880000   0.64213964   -9.5245775    472.97506  0.010158399 0.0090062619         3905 
 3881000    0.6407549   -9.5282101    473.55902  0.010168321 0.0090024764         3914 
 3882000   0.63316245    -9.523345    473.18883  0.010157754 0.0089986945         3901 
 3883000   0.62327403    -9.518271    472.86102  0.010148103   0.00899492         3897 
 3884000   0.62933872   -9.5224041    473.58623   0.01016105  0.008991148         3894 
 3885000   0.63430163   -9.5237805    473.50773  0.010156751 0.0089873734         3907 
 3886000   0.62073008   -9.5304411    473.02947  0.010143881 0.0089836051         3916 
 3887000   0.63073898   -9.5332496    473.41899  0.010149623 0.0089798375         3907 
 3888000   0.64520777   -9.5062874     473.7113  0.010153277 0.0089760751         3920 
 3889000   0.64195238   -9.5266628     473.0318  0.010136106 0.0089723099         3916 
 3890000   0.63430321   -9.5036096    472.46695    0.0101214 0.0089685461         3914 
 3891000   0.62688339   -9.5047773    473.53344   0.01014164 0.0089647843         3914 
 3892000   0.62411124   -9.5468469    473.12104  0.010130204 0.0089610254         3918 
 3893000    0.6219132   -9.5449686    472.94796  0.010123897  0.008957265         3905 
 3894000   0.62498527    -9.524866    472.19198  0.010105119 0.0089535099         3898 
 3895000   0.63410895   -9.5341006      472.593  0.010111104 0.0089497575         3909 
 3896000   0.63442663   -9.5185673    473.97042  0.010137971 0.0089460066         3905 
 3897000   0.62737846   -9.5236893    472.84122  0.010111223 0.0089422578         3914 
 3898000   0.62931164   -9.5185741    472.62361  0.010103977 0.0089385162         3924 
 3899000   0.62323193    -9.522694      473.316  0.010116184 0.0089347732         3913 
 3900000   0.60970458    -9.530066    472.89598  0.010104615 0.0089310324         3919 
 3901000   0.63346095   -9.5249522    473.36631  0.010112072 0.0089272916         3918 
 3902000   0.62120773   -9.5236986    473.14389   0.01010473 0.0089235567         3906 
 3903000   0.61751636   -9.5208591    473.43719  0.010108404 0.0089198246         3901 
 3904000   0.61489426   -9.5228912     472.7825   0.01009184 0.0089160928         3910 
 3905000   0.63451912   -9.5406436    473.08508  0.010095712 0.0089123623         3909 
 3906000   0.62838344   -9.5269522    473.76246  0.010107579 0.0089086305         3914 
 3907000   0.62803462   -9.5414146    472.91798   0.01008698 0.0089049029         3897 
 3908000   0.62362345   -9.5396483    472.41796  0.010073737 0.0089011776         3904 
 3909000   0.63842039   -9.5310909    472.54752  0.010073922 0.0088974523         3903 
 3910000   0.61721339     -9.53848    472.96958  0.010080341 0.0088937313         3917 
 3911000   0.61464768   -9.5271326    472.46267  0.010066962 0.0088900113         3911 
 3912000   0.61924629   -9.5441182    472.80809  0.010071747 0.0088862918         3915 
 3913000   0.63466416   -9.5394444    472.74157  0.010067756 0.0088825771         3931 
 3914000   0.62601805   -9.5190918    472.75358   0.01006544  0.008878865         3912 
 3915000    0.6123262   -9.5451244    473.02023  0.010068545 0.0088751528         3927 
 3916000   0.62533948   -9.5335753    473.81433  0.010082872 0.0088714416         3916 
 3917000   0.62550006   -9.5264957    472.61253   0.01005473 0.0088677322         3908 
 3918000   0.61462196    -9.537652    472.70204  0.010054068 0.0088640269         3918 
 3919000   0.60883891   -9.5327838     472.7656  0.010052854 0.0088603225         3910 
 3920000   0.62698814   -9.5355379    472.39431  0.010042396 0.0088566233         3908 
 3921000   0.63926718   -9.5344888    473.22049  0.010057394 0.0088529232         3916 
 3922000   0.62985547   -9.5237969    472.53718  0.010040311 0.0088492238         3924 
 3923000   0.62089917   -9.5242868    472.52931  0.010037584 0.0088455248         3929 
 3924000   0.62795609   -9.5249558    471.87911  0.010021218  0.008841828         3930 
 3925000   0.61717388   -9.5357169    473.36353  0.010050181 0.0088381394         3936 
 3926000   0.62459992   -9.5451427    471.92156  0.010017014 0.0088344477         3913 
 3927000   0.62932468   -9.5260056    472.12648  0.010018812 0.0088307594         3921 
 3928000   0.62733749   -9.5278649    472.41019   0.01002228 0.0088270742         3917 
 3929000   0.63418597   -9.5038688    472.29599  0.010017307  0.008823391         3904 
 3930000   0.62625382   -9.5339039    472.59544  0.010021108 0.0088197084         3924 
 3931000   0.63060331   -9.5399497     472.8645  0.010024262 0.0088160272         3912 
 3932000   0.62078629   -9.5470387    472.89151  0.010022285   0.00881235         3930 
 3933000   0.62863346   -9.5538155    472.25955  0.010006347 0.0088086727         3923 
 3934000   0.62418143   -9.5324954     471.6044 0.0099899255 0.0088049973         3900 
 3935000   0.63104203   -9.5514178    472.74729   0.01001159 0.0088013263         3924 
 3936000   0.64442919   -9.5414836    472.34679  0.010000567 0.0087976566         3906 
 3937000   0.62491598   -9.5253073    472.52007  0.010001695  0.008793991         3924 
 3938000   0.61439499   -9.5517775    472.04247 0.0099890485 0.0087903235         3927 
 3939000   0.61236307   -9.5304847    472.21744  0.009990214 0.0087866578         3921 
 3940000   0.61277531   -9.5357848    473.07186   0.01000575 0.0087829972         3928 
 3941000   0.63398164   -9.5437038    473.40939  0.010010348 0.0087793416         3943 
 3942000   0.62681806   -9.5458941    472.50954 0.0099887862 0.0087756852         3923 
 3943000    0.6157535   -9.5306796    472.28352  0.009981476 0.0087720306         3915 
 3944000   0.62518312   -9.5551281    472.17557 0.0099766643  0.008768377         3910 
 3945000   0.61214355   -9.5419538    472.54503 0.0099819397 0.0087647241         3917 
 3946000   0.60997677    -9.565151    472.61715 0.0099809332 0.0087610744         3917 
 3947000   0.63159631   -9.5532634     472.6417 0.0099789228 0.0087574244         3915 
 3948000   0.61087043    -9.545312    472.54725 0.0099744017 0.0087537778         3907 
 3949000   0.63753499    -9.535867    473.09622 0.0099834605 0.0087501352         3920 
 3950000   0.63219189    -9.533169    472.80817  0.009974856 0.0087464956         3918 
 3951000   0.60375164   -9.5268966     472.5678 0.0099672614 0.0087428562         3921 
 3952000   0.61960518   -9.5312181    472.30754 0.0099592515   0.00873922         3913 
 3953000   0.62008637   -9.5555873    472.62811 0.0099634901 0.0087355856         3917 
 3954000   0.62271144   -9.5254389    472.96243 0.0099680161 0.0087319551         3908 
 3955000    0.6259519   -9.5394122    472.54614 0.0099567243 0.0087283224         3918 
 3956000   0.61961468   -9.5364016     473.0469 0.0099647561 0.0087246915         3912 
 3957000   0.61663836   -9.5471534    472.01706 0.0099405497 0.0087210622         3911 
 3958000   0.61346261   -9.5456514    471.97614 0.0099371765  0.008717436         3929 
 3959000   0.61139126   -9.5323221    472.56639 0.0099470909 0.0087138091         3918 
 3960000   0.62484047   -9.5631718     471.9007 0.0099305704 0.0087101871         3929 
 3961000   0.62072999   -9.5324459    472.31298 0.0099367369 0.0087065643         3912 
 3962000   0.61413932   -9.5403007    472.44082 0.0099369177 0.0087029468         3912 
 3963000   0.61696158   -9.5551285    472.75351 0.0099409856 0.0086993324         3917 
 3964000   0.62124488   -9.5369652    471.30403 0.0099080059 0.0086957184         3912 
 3965000   0.62060107   -9.5493068    472.38372 0.0099281993 0.0086921084         3938 
 3966000   0.59717668   -9.5465392    472.74155 0.0099332146 0.0086884983         3934 
 3967000   0.62991024   -9.5386194    472.14095 0.0099180941 0.0086848902         3915 
 3968000   0.59690663   -9.5458549    472.81307 0.0099297099  0.008681283         3914 
 3969000   0.62299523   -9.5377705    472.54162 0.0099215087 0.0086776786         3908 
 3970000   0.60998653   -9.5416379    472.60695 0.0099203809 0.0086740782         3926 
 3971000   0.60741182   -9.5758628    472.02129 0.0099055925 0.0086704777         3913 
 3972000   0.61231657   -9.5393892    472.82136 0.0099198843 0.0086668776         3922 
 3973000   0.61590474   -9.5429631    473.78588 0.0099376181 0.0086632833         3910 
 3974000    0.6060747   -9.5393742     472.0626 0.0098989809 0.0086596886         3914 
 3975000    0.6247923   -9.5464192    472.60677 0.0099078988 0.0086560978         3914 
 3976000   0.61920029   -9.5461436    472.91808 0.0099119316 0.0086525063         3912 
 3977000   0.62340353   -9.5487094     472.2349 0.0098951239 0.0086489183         3903 
 3978000    0.6066158   -9.5604931    472.67668 0.0099018912 0.0086453288         3922 
 3979000   0.62153248   -9.5589411    472.39977 0.0098936032 0.0086417451         3920 
 3980000   0.61251754   -9.5547927     473.0887 0.0099055422 0.0086381615         3913 
 3981000   0.61883548   -9.5435624     472.6878 0.0098946622 0.0086345819         3923 
 3982000   0.61193616   -9.5468395    472.94049 0.0098974654 0.0086310021         3928 
 3983000   0.60308643   -9.5363753    472.36176 0.0098828722 0.0086274241         3927 
 3984000   0.61603323   -9.5418674    473.06911 0.0098951871  0.008623851         3920 
 3985000   0.61565813   -9.5675059    471.92291  0.009868735 0.0086202771         3913 
 3986000   0.60441836   -9.5299878    472.58156 0.0098800292 0.0086167076         3910 
 3987000   0.61397303   -9.5483662    472.24431 0.0098705023 0.0086131383         3915 
 3988000   0.63049173   -9.5543406    472.29838 0.0098691571 0.0086095698         3914 
 3989000   0.61216497   -9.5597818    472.62335 0.0098734718 0.0086060069         3914 
 3990000   0.61632338   -9.5439305      472.994 0.0098787386 0.0086024427         3930 
 3991000    0.6205117   -9.5406196    472.82195 0.0098726709 0.0085988847         3925 
 3992000   0.61531658   -9.5452449    472.79302 0.0098695938  0.008595328         3918 
 3993000   0.60066265   -9.5730467    472.33753 0.0098576161 0.0085917706         3909 
 3994000   0.60740317   -9.5580848    473.48021 0.0098789895 0.0085882135         3906 
 3995000   0.61055106   -9.5549338    471.93149 0.0098442112 0.0085846588         3909 
 3996000   0.59870883    -9.540359    472.72113 0.0098582151 0.0085811105         3917 
 3997000   0.60341439   -9.5670097    472.74036 0.0098561497 0.0085775605         3908 
 3998000   0.62025146   -9.5271869     471.8861 0.0098358784 0.0085740149         3928 
 3999000   0.62257474   -9.5507579      472.635 0.0098490248 0.0085704689         3903 
 4000000   0.60453929   -9.5516807    472.57317 0.0098452743 0.0085669239         3896 
 4001000   0.60072721     -9.55913    472.12936 0.0098335699 0.0085633802         3906 
 4002000   0.60864525   -9.5549202    472.64879 0.0098419289 0.0085598397         3915 
 4003000   0.61612232   -9.5397204    472.04186 0.0098268352 0.0085563038         3919 
 4004000   0.60196563   -9.5535953    472.12743  0.009826162 0.0085527671         3919 
 4005000   0.60291763   -9.5394891    472.75319 0.0098367289 0.0085492332         3906 
 4006000   0.60043465   -9.5711372    471.66518 0.0098116404 0.0085457006         3922 
 4007000   0.60763185   -9.5203477    472.45214 0.0098255582   0.00854217         3907 
 4008000   0.61876996   -9.5346026     472.1305 0.0098164192 0.0085386447         3919 
 4009000   0.61476657   -9.5466674    472.38071 0.0098191717 0.0085351198         3909 
 4010000   0.61624669   -9.5606961    472.13711 0.0098116606 0.0085315966         3916 
 4011000   0.60531048   -9.5590121    471.83574 0.0098029532  0.008528074         3920 
 4012000    0.6207836    -9.586528     472.0646 0.0098052633 0.0085245537         3920 
 4013000   0.61668057    -9.539481    472.10885  0.009803739 0.0085210323         3909 
 4014000   0.60368077   -9.5495972    472.56189 0.0098107018 0.0085175143         3925 
 4015000   0.60274607   -9.5432865    472.53461 0.0098076922 0.0085139967         3914 
 4016000   0.60741941   -9.5573186    472.35281 0.0098014776 0.0085104848         3908 
 4017000    0.6135871   -9.5602797     472.2805 0.0097975376 0.0085069762         3903 
 4018000   0.61785444   -9.5621099    472.43076 0.0097982155 0.0085034665         3918 
 4019000   0.61195904   -9.5601274     472.2351 0.0097917205 0.0084999584         3909 
 4020000   0.61034492   -9.5656566    473.02372 0.0098056327 0.0084964535         3916 
 4021000   0.61504271   -9.5590809     472.2159 0.0097864525 0.0084929534         3908 
 4022000   0.62462829   -9.5548579    472.10515 0.0097817245 0.0084894526         3923 
 4023000    0.6157947   -9.5285603    472.17631  0.009780767 0.0084859529         3918 
 4024000   0.60625291   -9.5624951    471.81569 0.0097708682 0.0084824575         3922 
 4025000   0.60389117   -9.5490523    472.59542 0.0097845842 0.0084789604         3922 
 4026000   0.60378435   -9.5423892    472.93154 0.0097891112 0.0084754652         3910 
 4027000   0.60568954   -9.5429191    471.80846 0.0097634397 0.0084719742         3926 
 4028000   0.61045436   -9.5407607    472.31723 0.0097715415 0.0084684846         3907 
 4029000   0.61166747    -9.557722    472.37002  0.009770208 0.0084649947         3924 
 4030000   0.61580575   -9.5674752    471.61766 0.0097522262 0.0084615085         3894 
 4031000   0.59645544   -9.5722114    471.75706 0.0097526887  0.008458025         3921 
 4032000    0.6054267    -9.541738    471.94079 0.0097540672 0.0084545432         3922 
 4033000     0.618259   -9.5519128    472.98151 0.0097731529 0.0084510677         3922 
 4034000   0.61085248   -9.5248583    472.62481 0.0097633616   0.00844759         3929 
 4035000    0.6169004   -9.5680038    472.64291 0.0097613157 0.0084441163         3930 
 4036000   0.61413942   -9.5776599    472.13184 0.0097483448 0.0084406436         3919 
 4037000   0.61460365   -9.5977978    471.53382 0.0097335856  0.008437171         3923 
 4038000   0.61703903   -9.5665799     471.7363 0.0097353537 0.0084337019         3920 
 4039000   0.60671947   -9.5608032    472.00405 0.0097384677  0.008430234         3902 
 4040000   0.61660239    -9.569131    472.86402 0.0097537958 0.0084267673         3923 
 4041000    0.5989621   -9.5667406    471.94678 0.0097324667 0.0084232996         3922 
 4042000   0.59646458   -9.5542203     472.4693 0.0097408316 0.0084198375         3907 
 4043000   0.61205895   -9.5495843    472.58879 0.0097408853 0.0084163759         3912 
 4044000   0.59907982   -9.5872809    472.10226 0.0097284509 0.0084129161         3914 
 4045000    0.6101258   -9.5503911    471.98587 0.0097236479 0.0084094555         3909 
 4046000   0.61052358   -9.5538983    472.53948  0.009732647 0.0084059975         3918 
 4047000   0.60096232   -9.5517188    472.37022 0.0097267569 0.0084025445         3922 
 4048000   0.59829482   -9.5626909    471.76647 0.0097119251 0.0083990928         3923 
 4049000   0.60361207   -9.5634576    471.54073 0.0097048804 0.0083956413         3921 
 4050000   0.60813123   -9.5645858    471.40608 0.0096997136 0.0083921956         3913 
 4051000   0.60537435   -9.5439731    471.96781 0.0097088746 0.0083887468         3913 
 4052000   0.59813287   -9.5673932    472.26646 0.0097126205 0.0083853036         3926 
 4053000    0.5994814   -9.5613912    472.16106 0.0097080571 0.0083818603         3916 
 4054000   0.60242864   -9.5627968    471.90712 0.0097004423 0.0083784199         3931 
 4055000   0.61017806   -9.5737164    471.63048 0.0096923649 0.0083749818         3920 
 4056000   0.60003318   -9.5664782    472.08658 0.0096993462 0.0083715453         3927 
 4057000   0.59983863   -9.5751197    472.15303 0.0096983204  0.008368111         3916 
 4058000   0.59850593   -9.5691003    472.13783 0.0096956183 0.0083646796         3922 
 4059000   0.61182993   -9.5603712    471.73489  0.009684957 0.0083612466         3921 
 4060000   0.60325053   -9.5690574    471.45576 0.0096768423 0.0083578115         3930 
 4061000    0.6150873   -9.5499622    472.09787 0.0096876358 0.0083543841         3921 
 4062000   0.59411941   -9.5471292    472.07669 0.0096848163 0.0083509603         3918 
 4063000   0.60658712   -9.5699983    471.78486 0.0096764473 0.0083475346         3913 
 4064000    0.5978985   -9.5555565    472.59199 0.0096906166 0.0083441136         3912 
 4065000   0.60442517   -9.5709767    471.43442 0.0096645022 0.0083406924         3915 
 4066000   0.59966166   -9.5923868    471.88516 0.0096713633 0.0083372722         3912 
 4067000    0.5927144   -9.5491238    471.94103 0.0096701301 0.0083338543         3910 
 4068000   0.59732154   -9.5582149    472.01964 0.0096693633 0.0083304352         3922 
 4069000    0.6152663   -9.5693334    472.21693 0.0096710275 0.0083270211         3913 
 4070000   0.60196541   -9.5560402    471.40556 0.0096520386 0.0083236106         3914 
 4071000   0.60007732   -9.5768298    472.24522 0.0096668555 0.0083202002         3915 
 4072000   0.58714474   -9.5785467    472.33358 0.0096662896 0.0083167921         3900 
 4073000   0.61248509   -9.5643101    472.33157 0.0096638754 0.0083133846         3922 
 4074000   0.59631989   -9.5384439    471.08856 0.0096360775 0.0083099776         3921 
 4075000   0.60450266   -9.5710044    471.96387 0.0096516128 0.0083065749         3919 
 4076000   0.59219111   -9.5659307    472.47151 0.0096596235 0.0083031701         3911 
 4077000   0.60788434   -9.5553338    471.22013 0.0096316762 0.0082997689         3911 
 4078000   0.59372842   -9.5729356    471.57445 0.0096365548 0.0082963732         3915 
 4079000   0.60557472   -9.5747181     472.8351 0.0096599472 0.0082929799         3930 
 4080000   0.59062972   -9.5643622     472.6838 0.0096544894 0.0082895879         3918 
 4081000   0.59422639   -9.5578732    472.27351 0.0096437457 0.0082861956         3920 
 4082000   0.59997387   -9.5609178    472.77462 0.0096516131 0.0082828053         3921 
 4083000   0.59836294   -9.5714034    471.96423 0.0096327094  0.008279417         3914 
 4084000   0.60721546    -9.570129    471.66253 0.0096241947 0.0082760317         3916 
 4085000    0.6058457    -9.585997    472.15138 0.0096318111 0.0082726488         3924 
 4086000   0.60033869   -9.5611313    472.17084 0.0096298507 0.0082692672         3908 
 4087000   0.59474709   -9.5788069    472.27036 0.0096295236 0.0082658882         3914 
 4088000   0.58944918   -9.5756874    471.94852 0.0096206075 0.0082625126         3921 
 4089000   0.60114021    -9.587403    472.03392  0.009619995 0.0082591366         3922 
 4090000   0.59478806   -9.5846713    471.43496 0.0096054392 0.0082557612         3900 
 4091000   0.59880109   -9.5775204    471.29919 0.0096003258 0.0082523886         3917 
 4092000   0.59893258   -9.5665262    471.88349 0.0096098789 0.0082490171         3919 
 4093000   0.58476246   -9.5678317    472.96568 0.0096295642 0.0082456481         3931 
 4094000   0.59242135   -9.5627523    471.57762 0.0095989582  0.008242281         3907 
 4095000   0.58402553   -9.5792993    471.51628  0.009595366 0.0082389146         3922 
 4096000   0.60286791   -9.5607329    472.33452 0.0096096704 0.0082355484         3917 
 4097000   0.59369395    -9.553596    471.59866 0.0095923574 0.0082321875         3922 
 4098000   0.59400205   -9.5480772    471.96316 0.0095974288  0.008228828         3931 
 4099000   0.60187032   -9.5716845     472.3183 0.0096023075 0.0082254721         3922 
 4100000   0.59557057   -9.5673776    471.70227 0.0095874444 0.0082221142         3909 
 4101000   0.59930872   -9.5728452    471.67751 0.0095846035 0.0082187595         3929 
 4102000   0.59560628   -9.5902914    471.52132 0.0095790939  0.008215405         3921 
 4103000    0.6052195   -9.5694269    471.40559 0.0095744088 0.0082120543         3922 
 4104000   0.60231142   -9.5858152    471.10976 0.0095660689 0.0082087001         3927 
 4105000   0.58598125   -9.5749925    472.05981 0.0095830251 0.0082053532         3904 
 4106000   0.59315026   -9.5977014    471.51438 0.0095696213 0.0082020039         3910 
 4107000   0.60009759   -9.5768742    471.91153 0.0095753496 0.0081986533         3913 
 4108000   0.59331284   -9.5823114     472.3702 0.0095823231  0.008195312         3908 
 4109000   0.58306622   -9.5787255    471.50209 0.0095623852 0.0081919698         3917 
 4110000   0.59654383   -9.5810546    471.52263  0.009560475  0.008188633         3909 
 4111000   0.59151604   -9.5871288     471.5085 0.0095578631 0.0081852935         3908 
 4112000   0.60181605   -9.5677306     471.2099 0.0095494873 0.0081819553         3929 
 4113000   0.58447398   -9.5924406    471.74493 0.0095580056 0.0081786211         3925 
 4114000   0.59279844   -9.5580351    471.76579  0.009556105 0.0081752905         3912 
 4115000   0.58921342   -9.5902459    472.03178 0.0095591693 0.0081719592         3917 
 4116000   0.59915177   -9.5726205    471.72932 0.0095507231 0.0081686285         3914 
 4117000   0.58793352   -9.5746588    471.99338 0.0095537484 0.0081653019         3907 
 4118000   0.60858401   -9.5806327    472.21024 0.0095558168 0.0081619776         3927 
 4119000    0.5884614   -9.5640345    471.99191 0.0095490797 0.0081586576         3914 
 4120000   0.59247413   -9.5746289    471.82673 0.0095434208 0.0081553342         3914 
 4121000   0.59474655    -9.590381    471.88994 0.0095423834 0.0081520147         3909 
 4122000    0.5915542   -9.5571622    471.78181 0.0095378823 0.0081486985         3919 
 4123000   0.58522087   -9.5755764    471.99904 0.0095399595  0.008145384         3911 
 4124000   0.58756951   -9.5950737     472.2923 0.0095435721 0.0081420667         3930 
 4125000   0.58623678   -9.5912581    471.01574 0.0095154695 0.0081387531         3924 
 4126000   0.59642233   -9.5819255    470.88922  0.009510608 0.0081354411         3913 
 4127000   0.59189571   -9.5812007    472.18644 0.0095344972 0.0081321302         3918 
 4128000   0.60049412    -9.591332    470.99865 0.0095082091 0.0081288262         3906 
 4129000   0.59358725    -9.605948    471.13836 0.0095087261 0.0081255227         3907 
 4130000   0.59665448   -9.5825308    471.54889 0.0095147072 0.0081222186         3921 
 4131000   0.59117543   -9.5705758    471.13277 0.0095040097 0.0081189137         3917 
 4132000   0.59119152   -9.5815098    472.12084 0.0095216368 0.0081156124         3918 
 4133000   0.59306306   -9.5931377    471.59649 0.0095087606 0.0081123157         3912 
 4134000   0.59335545   -9.5711857    471.45302 0.0095035684 0.0081090205         3924 
 4135000   0.58554066   -9.5671247    472.10456 0.0095144006 0.0081057273         3920 
 4136000   0.59364047   -9.5581703    471.03198 0.0094904896 0.0081024342         3904 
 4137000    0.5920501   -9.5861298     471.4612 0.0094968416 0.0080991411         3910 
 4138000    0.6003907   -9.6066893    471.11802 0.0094876354 0.0080958519         3920 
 4139000   0.58830757   -9.5706864    471.06716  0.009484319  0.008092564         3924 
 4140000   0.60220826   -9.5956574    471.38004  0.009488326  0.008089277         3917 
 4141000   0.59902435   -9.5862757    471.29551 0.0094843337 0.0080859916         3911 
 4142000   0.59735083   -9.5865172    471.51301 0.0094864198  0.008082712         3932 
 4143000   0.57959082    -9.587219    471.87944 0.0094915005  0.008079432         3928 
 4144000   0.59195324   -9.5810928    471.90973 0.0094898192 0.0080761557         3911 
 4145000   0.58463805    -9.591001    471.78777 0.0094850779 0.0080728796         3916 
 4146000   0.59076637   -9.6131646    471.03178  0.009467595 0.0080696058         3910 
 4147000   0.57487394   -9.5850332    471.81496 0.0094810497 0.0080663308         3925 
 4148000   0.59714596    -9.572218    471.45342 0.0094715007   0.00806306         3920 
 4149000   0.58941124   -9.5895072    471.05871 0.0094612901 0.0080597917         3913 
 4150000   0.57271197   -9.5993043    471.74766 0.0094728446 0.0080565254         3922 
 4151000   0.58616737   -9.5909845    471.80314 0.0094716764 0.0080532601         3918 
 4152000   0.57628332   -9.5983162    471.31891 0.0094596763  0.008049994         3907 
 4153000   0.58652964   -9.5906911    471.27183 0.0094564538 0.0080467293         3920 
 4154000   0.58076358   -9.5812388    471.69371 0.0094626405  0.008043467         3912 
 4155000   0.59688777    -9.576566    471.32941 0.0094530568 0.0080402074         3917 
 4156000   0.58454154   -9.5906661    471.71842 0.0094585823  0.008036953         3905 
 4157000    0.5832432   -9.5921057    471.42916 0.0094505084 0.0080336964         3919 
 4158000   0.59130026   -9.5875786    471.26219 0.0094448892 0.0080304428         3907 
 4159000   0.58254956   -9.5777816    472.10587 0.0094595228 0.0080271904         3911 
 4160000   0.59349846   -9.5958664    471.41395 0.0094433885 0.0080239413         3913 
 4161000   0.58055304   -9.6003268    471.98494 0.0094525544 0.0080206938         3907 
 4162000   0.59062897   -9.5912229    470.91252 0.0094288107 0.0080174471         3917 
 4163000   0.58218345    -9.599799    471.24236 0.0094331483  0.008014199         3927 
 4164000   0.59291906   -9.5946652    471.44323 0.0094349029 0.0080109536         3916 
 4165000   0.57236489   -9.5964649    471.27863 0.0094293443 0.0080077113         3918 
 4166000   0.57084612   -9.5976046    471.82663 0.0094380426 0.0080044693         3918 
 4167000   0.57874157   -9.5876592    471.11099 0.0094214661 0.0080012311         3923 
 4168000   0.58687893   -9.6139451    471.42565 0.0094254969  0.007997993         3918 
 4169000   0.57778614   -9.6075776    471.17965 0.0094183187 0.0079947575         3918 
 4170000   0.58414337   -9.6036814    471.42223 0.0094209078 0.0079915238         3910 
 4171000   0.57490803   -9.5956173    471.17782  0.009413766 0.0079882912         3919 
 4172000   0.56716667   -9.5862166    471.70426 0.0094220251 0.0079850613         3910 
 4173000   0.58275803   -9.5994253    471.37289 0.0094131499 0.0079818352         3919 
 4174000   0.58442172   -9.5804622    471.62717 0.0094159714 0.0079786102         3898 
 4175000   0.57952178   -9.6013855    471.91144   0.00941939 0.0079753857         3888 
 4176000   0.56806089   -9.5856792    470.92714 0.0093974924 0.0079721657         3907 
 4177000   0.60056408    -9.614565    471.65364 0.0094097366 0.0079689433         3918 
 4178000   0.57814589   -9.5644763    472.19057 0.0094181939 0.0079657238         3924 
 4179000   0.57940405   -9.5993261     471.4396 0.0094009651  0.007962507         3902 
 4180000   0.58153255   -9.5853927    471.30084 0.0093959497 0.0079592917         3918 
 4181000   0.59152606   -9.5997063    472.13397 0.0094103079 0.0079560772         3930 
 4182000   0.58922147   -9.5849635    471.09414 0.0093873374 0.0079528668         3920 
 4183000   0.57982972   -9.6034553    470.80802 0.0093793933 0.0079496537         3923 
 4184000   0.58388597   -9.5809141    471.55311 0.0093919915 0.0079464458         3927 
 4185000   0.58175998   -9.6025134    472.24859 0.0094035959 0.0079432383         3926 
 4186000   0.58084074   -9.6061355    471.23976 0.0093812661 0.0079400306         3922 
 4187000   0.57772368    -9.584083     471.7934 0.0093900446 0.0079368272         3924 
 4188000   0.58870149    -9.597187    471.94731 0.0093908649 0.0079336232         3920 
 4189000    0.5744773   -9.5896896    471.61626 0.0093820374 0.0079304217         3921 
 4190000   0.57712294   -9.6051154     470.8311 0.0093641826 0.0079272239         3926 
 4191000   0.57127613   -9.5800442     471.9919 0.0093850294 0.0079240263         3911 
 4192000   0.59401647   -9.5889606     470.8601 0.0093602915 0.0079208324         3916 
 4193000   0.59234626   -9.6013998    470.78073 0.0093564816 0.0079176403         3917 
 4194000   0.57656816   -9.5670267    471.00112 0.0093586297  0.007914449         3924 
 4195000   0.59661873   -9.5949189    470.81725 0.0093527463 0.0079112575         3918 
 4196000   0.58764565   -9.5971286    471.35756 0.0093612479 0.0079080674         3916 
 4197000   0.57622685    -9.592903    471.37955 0.0093594541 0.0079048791         3924 
 4198000   0.59204331   -9.5967561    471.95099 0.0093685682  0.007901695         3900 
 4199000   0.59228661   -9.5869942     470.7059 0.0093416269 0.0078985125         3908 
 4200000   0.58554555   -9.5854194    471.62645 0.0093576677 0.0078953306         3914 
 4201000   0.58396107   -9.5776273     470.9381 0.0093417856 0.0078921499         3908 
 4202000   0.57988145   -9.5956011    471.30491 0.0093468371 0.0078889715         3901 
 4203000   0.59251886   -9.5913182    471.02357 0.0093390349 0.0078857951         3916 
 4204000    0.5829283   -9.6035234    471.08124 0.0093379568 0.0078826204         3920 
 4205000   0.57972325   -9.6029726    471.97684 0.0093534848 0.0078794472         3909 
 4206000   0.59244629   -9.6011065    471.18897 0.0093356509 0.0078762772         3912 
 4207000   0.58666601   -9.5838191    471.40134 0.0093376385 0.0078731089         3918 
 4208000   0.59800964   -9.6133613    471.73392 0.0093420057 0.0078699397         3916 
 4209000   0.57877887   -9.5959006    471.25906 0.0093303845 0.0078667717         3925 
 4210000   0.59143966    -9.569777    471.62976  0.009335506 0.0078636085         3914 
 4211000   0.58500926   -9.6194934     471.4717 0.0093301611 0.0078604462         3918 
 4212000   0.58447232    -9.613296    471.10144 0.0093206204 0.0078572858         3915 
 4213000   0.57925036   -9.5889822    471.93679 0.0093349314 0.0078541271         3928 
 4214000   0.57797938   -9.5919633    471.41205 0.0093223392 0.0078509696         3919 
 4215000   0.57833805   -9.5913632    470.61192 0.0093043084 0.0078478153         3916 
 4216000   0.57812146   -9.6041281    470.76105 0.0093050491 0.0078446611         3918 
 4217000   0.57011755   -9.6176306    470.52569 0.0092981917  0.007841507         3922 
 4218000   0.57826747   -9.6149901    470.67758 0.0092989881 0.0078383531         3927 
 4219000   0.58389164   -9.6060449    470.91965 0.0093015653 0.0078352044         3922 
 4220000   0.57838813   -9.6187226    471.53913 0.0093115942 0.0078320575         3927 
 4221000   0.58143172   -9.5971153     471.3283 0.0093052258 0.0078289111         3927 
 4222000   0.57794905   -9.5928965    471.55912 0.0093075777 0.0078257663         3921 
 4223000   0.58185988   -9.5983988    470.51033 0.0092846777 0.0078226241         3913 
 4224000   0.58447396    -9.594426    471.31847  0.009298423  0.007819481         3923 
 4225000   0.57386321    -9.607299    470.95553 0.0092890637 0.0078163418         3917 
 4226000    0.5848684   -9.5982413    470.13887 0.0092707618 0.0078132058         3916 
 4227000   0.56839214   -9.6078831    470.77655 0.0092811401 0.0078100695         3911 
 4228000   0.57307427   -9.6030151    470.98605 0.0092830741 0.0078069348         3922 
 4229000   0.57158914   -9.6258251    471.25724 0.0092862229 0.0078037998         3922 
 4230000   0.56986454    -9.606116    471.68613  0.009292477  0.007800668         3922 
 4231000   0.57184233   -9.6072435    471.26863 0.0092820577 0.0077975368         3912 
 4232000    0.5694396   -9.5949741    471.09482 0.0092764417 0.0077944081         3912 
 4233000   0.57287284   -9.6143806    470.42745  0.009261112  0.007791281         3916 
 4234000   0.57107888   -9.5839426    470.91126 0.0092684471  0.007788156         3919 
 4235000   0.56284225    -9.600522    470.60628 0.0092602574 0.0077850344         3909 
 4236000   0.56631941    -9.610398    470.91072 0.0092640604 0.0077819106         3916 
 4237000   0.58110754   -9.6106968    470.67479 0.0092572338 0.0077787918         3911 
 4238000   0.56082772   -9.6087147    470.92727 0.0092600139 0.0077756734         3917 
 4239000   0.56744582   -9.6139458    471.84786  0.009275927 0.0077725559         3906 
 4240000    0.5577763   -9.5986056    471.07174 0.0092584855 0.0077694431         3922 
 4241000    0.5734443   -9.6142759    471.63902  0.009267449 0.0077663306         3914 
 4242000   0.57534844   -9.6078859    470.16777 0.0092363619 0.0077632148         3923 
 4243000   0.57286883   -9.6133566    471.15246 0.0092535246 0.0077601051         3923 
 4244000    0.5664202   -9.6053881    470.62239 0.0092409361 0.0077569985         3913 
 4245000   0.57548132   -9.6149405    469.77782 0.0092221793 0.0077538917         3914 
 4246000   0.57627615   -9.6144045    471.29004 0.0092496868 0.0077507892         3930 
 4247000   0.55935825     -9.62113    470.65988  0.009235144 0.0077476862         3921 
 4248000   0.57758855   -9.6435191    470.56523 0.0092311133 0.0077445829         3909 
 4249000   0.58771845   -9.6236459    471.08345 0.0092391043 0.0077414824         3919 
 4250000   0.58436325   -9.6154807    472.47125 0.0092641421 0.0077383855         3915 
 4251000   0.57829286   -9.6129588    471.08767 0.0092348403 0.0077352897         3923 
 4252000   0.57021759   -9.6201696    470.75044  0.009226059 0.0077321958         3920 
 4253000   0.57608967   -9.5994741    471.25208  0.009233719 0.0077291023         3919 
 4254000   0.56992633   -9.6151102    470.87029 0.0092240692  0.007726013         3914 
 4255000   0.56947975   -9.6284396    471.28157 0.0092299563 0.0077229254         3925 
 4256000   0.57005985   -9.6168173    471.07533 0.0092237495 0.0077198352         3910 
 4257000   0.57634502   -9.6018058    471.10658 0.0092221945 0.0077167498         3925 
 4258000   0.57063058   -9.6239682    471.25317 0.0092228975 0.0077136659         3915 
 4259000    0.5632145   -9.6255094    471.99572  0.009235261  0.007710581         3927 
 4260000   0.56252682   -9.6221897    470.45397 0.0092029337 0.0077074987         3922 
 4261000   0.56372717    -9.610575    471.52507 0.0092217217 0.0077044174         3924 
 4262000   0.56846563   -9.6160918    469.80518 0.0091859295 0.0077013381         3926 
 4263000   0.56718581   -9.6085169    470.75055 0.0092022548 0.0076982606         3931 
 4264000   0.56296407   -9.6158913    471.13018  0.009207516  0.007695186         3927 
 4265000   0.57117933   -9.6206765    470.82703  0.009199434  0.007692113         3933 
 4266000   0.57622039   -9.6250192    470.85046 0.0091977353 0.0076890421         3912 
 4267000   0.57237319   -9.6105057    470.75918 0.0091937969 0.0076859719         3913 
 4268000   0.56172438   -9.6004463    471.77405 0.0092114584 0.0076829025         3921 
 4269000   0.55707172   -9.6120893    470.16693 0.0091779286 0.0076798352         3920 
 4270000   0.56159165   -9.6128661    470.95992 0.0091912553 0.0076767698         3930 
 4271000   0.57090821   -9.6256712    470.42983 0.0091787604 0.0076737071         3922 
 4272000   0.55280525   -9.6015291    469.37336 0.0091560034 0.0076706441         3922 
 4273000   0.56530062   -9.6173316     470.5775 0.0091773442 0.0076675829         3923 
 4274000   0.58278043    -9.620991    469.31329 0.0091505476 0.0076645221         3914 
 4275000   0.56905497   -9.6304303    470.55916 0.0091726933 0.0076614655         3922 
 4276000   0.56903323   -9.6312871    470.92079 0.0091775956 0.0076584106         3917 
 4277000   0.56311987   -9.6303538    470.18823 0.0091611766 0.0076553549         3931 
 4278000   0.55969664   -9.6214078    470.83187  0.009171573 0.0076523011         3918 
 4279000   0.56140122   -9.6127333    470.92761 0.0091712941 0.0076492501         3934 
 4280000   0.56834117   -9.5815575     471.0183  0.009170917 0.0076462032         3936 
 4281000   0.56834686   -9.6276869    470.56481 0.0091599473 0.0076431576         3917 
 4282000   0.55458968   -9.6202324     470.7187  0.009160803 0.0076401107         3918 
 4283000   0.55944789    -9.616031    471.02333 0.0091645912  0.007637069         3933 
 4284000   0.55648232   -9.6248832    470.12445 0.0091449668 0.0076340266         3927 
 4285000   0.55454527   -9.5969753    471.03373  0.009160516 0.0076309852         3935 
 4286000   0.56047774   -9.6291507    470.40254 0.0091461063 0.0076279488         3928 
 4287000   0.56806817    -9.624422    470.51913 0.0091462392 0.0076249118         3930 
 4288000   0.56135553   -9.6250139    470.34844 0.0091407889 0.0076218737         3918 
 4289000   0.56392778   -9.6226412    470.65981 0.0091447075 0.0076188397         3921 
 4290000   0.56472437   -9.6078508     470.5662 0.0091407575 0.0076158058         3918 
 4291000    0.5621882   -9.6185827    470.79466 0.0091430642 0.0076127753         3935 
 4292000    0.5698821   -9.6345053    470.92221 0.0091434104 0.0076097459         3930 
 4293000   0.56485894   -9.6083828    470.37359  0.009130631 0.0076067172         3915 
 4294000   0.56909316   -9.6118274    470.17703 0.0091246901 0.0076036923         3909 
 4295000    0.5739496    -9.605436    470.77306 0.0091341299 0.0076006683         3919 
 4296000   0.56137499   -9.6148015    470.52858 0.0091272615 0.0075976457         3919 
 4297000   0.57266672   -9.6185279    470.43942 0.0091234081 0.0075946236         3917 
 4298000   0.56730928   -9.6148944     470.3626 0.0091197961 0.0075916035         3918 
 4299000   0.56733585    -9.620676    470.82351 0.0091266092 0.0075885841         3933 
 4300000   0.54617699   -9.6103589    470.81617 0.0091243444 0.0075855675         3930 
 4301000    0.5597737   -9.6344154    470.04881 0.0091073551 0.0075825538         3920 
 4302000   0.56972953   -9.6158593     470.6944 0.0091177437  0.007579538         3925 
 4303000   0.57615721   -9.6244704    470.63044 0.0091143861  0.007576527         3929 
 4304000    0.5596662   -9.6290761    470.58654 0.0091114185 0.0075735155         3928 
 4305000   0.55020198    -9.633437    471.21765 0.0091215185 0.0075705054         3920 
 4306000   0.56720105   -9.6392634     469.7225 0.0090904648 0.0075674961         3917 
 4307000   0.55462527     -9.61258    471.06386 0.0091143074 0.0075644906         3920 
 4308000   0.55836779    -9.634847    471.05274 0.0091119765 0.0075614845         3936 
 4309000   0.55942161   -9.6343782    471.01643 0.0091091597 0.0075584819         3935 
 4310000    0.5694659    -9.620976    470.88648 0.0091045336 0.0075554819         3919 
 4311000    0.5691459   -9.6421362    471.13805 0.0091072846 0.0075524808         3914 
 4312000   0.55759027   -9.6393555    470.62036 0.0090951678 0.0075494831         3925 
 4313000   0.56792731   -9.6189015    470.60325 0.0090927284  0.007546488         3923 
 4314000   0.56029235   -9.6216323    471.24575 0.0091030318 0.0075434923         3913 
 4315000   0.56046985   -9.6120113    471.22415  0.009100505 0.0075404999         3925 
 4316000   0.55777595   -9.6224434    470.55882 0.0090855503 0.0075375096         3935 
 4317000   0.55494663   -9.6260247     470.8098 0.0090882904 0.0075345215         3925 
 4318000   0.55637373   -9.6158519    470.44272 0.0090791014 0.0075315346         3919 
 4319000   0.56486037   -9.6352559    469.92049  0.009066923 0.0075285475         3919 
 4320000   0.57597697   -9.6219259    471.98883 0.0091047228 0.0075255647         3928 
 4321000   0.55426303    -9.622434    470.27004 0.0090694678 0.0075225817         3928 
 4322000   0.55788736   -9.6334192    470.57431  0.009073236 0.0075195987         3900 
 4323000   0.55640508   -9.6228546     470.6171  0.009071962 0.0075166186         3926 
 4324000   0.56952366   -9.6355704    470.46785 0.0090669876 0.0075136407         3918 
 4325000   0.56165768    -9.636181    470.13946 0.0090585638 0.0075106637         3920 
 4326000   0.55306418    -9.611641    470.40781  0.009061639 0.0075076886         3915 
 4327000   0.56426472     -9.64214    470.14643  0.009054511 0.0075047145         3918 
 4328000   0.56629698   -9.6165004    470.46041 0.0090584645 0.0075017431         3909 
 4329000   0.56568625   -9.6215263    470.56714 0.0090584264 0.0074987728         3914 
 4330000    0.5587168   -9.6325445    470.67738 0.0090584562  0.007495804         3919 
 4331000   0.54903402   -9.6085339    470.22425 0.0090476458 0.0074928347         3927 
 4332000   0.56501493   -9.6212339    470.59569 0.0090527026 0.0074898704         3913 
 4333000   0.55972565   -9.6144275    470.21375 0.0090432678 0.0074869063         3923 
 4334000   0.56203218   -9.6253091    471.05051 0.0090572702 0.0074839427         3921 
 4335000    0.5564763   -9.6528981    471.11001 0.0090563246 0.0074809823         3935 
 4336000   0.56275519   -9.6307976    470.75579 0.0090474284 0.0074780224         3929 
 4337000   0.55977117   -9.6233201    470.89189 0.0090479573 0.0074750638         3914 
 4338000    0.5512502   -9.6300848    470.18062  0.009032208 0.0074721086         3924 
 4339000   0.56241268   -9.6246192     470.6977 0.0090400573 0.0074691548         3917 
 4340000   0.55851632   -9.6410879    470.07912 0.0090260968 0.0074662015         3911 
 4341000   0.56439522   -9.6494146    470.88712 0.0090395284 0.0074632499         3924 
 4342000    0.5617546   -9.6320771    470.98655 0.0090393549 0.0074602991         3920 
 4343000   0.55427256   -9.6298633    470.06225 0.0090195381 0.0074573509         3923 
 4344000   0.54451668   -9.6299722    470.66351 0.0090289961 0.0074544035         3921 
 4345000   0.56773909   -9.6328132     469.9598 0.0090134215  0.007451461         3919 
 4346000   0.55977436   -9.6311844    470.13742 0.0090147534 0.0074485186         3932 
 4347000   0.54647922   -9.6347044    470.80577 0.0090254921 0.0074455774         3927 
 4348000   0.55605547    -9.635871    470.85396   0.00902434 0.0074426402         3930 
 4349000   0.55885349    -9.645135    470.93565 0.0090238302 0.0074397005         3922 
 4350000   0.56517749   -9.6255136    470.97821 0.0090225711 0.0074367633         3941 
 4351000   0.56079432   -9.6308839    470.00233 0.0090018066 0.0074338271         3928 
 4352000   0.55293604   -9.6558119    470.35144 0.0090064231 0.0074308928         3940 
 4353000   0.56528745   -9.6396009    470.05836 0.0089987433 0.0074279597         3941 
 4354000   0.55139872   -9.6293365    470.58695 0.0090067936 0.0074250284         3928 
 4355000   0.54349791   -9.6400019    470.23835 0.0089980549 0.0074220965         3930 
 4356000   0.55470511   -9.6459889    470.15742  0.008994441 0.0074191681         3925 
 4357000   0.54547423   -9.6208441     470.2632 0.0089943999 0.0074162443         3918 
 4358000   0.55654047   -9.6108448    470.63017 0.0089993532  0.007413319         3924 
 4359000   0.53945688   -9.6444359    471.24215 0.0090089882 0.0074103955         3915 
 4360000   0.55241938   -9.6438811    470.74972 0.0089975099  0.007407474         3921 
 4361000   0.55038692    -9.642687    470.44135 0.0089895542 0.0074045544         3928 
 4362000   0.55174961   -9.6276159    470.31969 0.0089851691  0.007401637         3913 
 4363000   0.54885024   -9.6389815     470.4773   0.00898612 0.0073987206         3932 
 4364000   0.55320097   -9.6455872     471.0654  0.008995291 0.0073958052         3926 
 4365000   0.54571065   -9.6238462    470.56836  0.008983741 0.0073928894         3917 
 4366000   0.56443173   -9.6454788    470.54185 0.0089811774 0.0073899795         3921 
 4367000   0.54194729    -9.644964     470.2777 0.0089740802 0.0073870673         3931 
 4368000   0.55619968   -9.6404048    469.67194  0.008960469  0.007384157         3924 
 4369000   0.55133173   -9.6365593    470.67139 0.0089774814 0.0073812486         3919 
 4370000   0.55725313   -9.6343443    470.22139 0.0089668457 0.0073783411         3929 
 4371000   0.55283967   -9.6266447    470.53297 0.0089707346 0.0073754366         3928 
 4372000   0.55159746   -9.6500396    470.98351 0.0089772703 0.0073725346         3912 
 4373000   0.54958456   -9.6333028    469.92566 0.0089550587 0.0073696335         3928 
 4374000   0.55984117   -9.6419626    469.89193 0.0089523688 0.0073667322         3922 
 4375000   0.56075311   -9.6352351    471.04019  0.008972194 0.0073638347         3907 
 4376000   0.55635353   -9.6454408    469.71141 0.0089448396 0.0073609365         3912 
 4377000   0.55434669   -9.6475794    470.51914 0.0089581741 0.0073580413         3920 
 4378000    0.5570967   -9.6336746    470.15255 0.0089491502 0.0073551443         3934 
 4379000   0.54549136    -9.656539    470.99143 0.0089630706 0.0073522505         3920 
 4380000   0.53983809   -9.6381745    470.12456 0.0089445313  0.007349361         3919 
 4381000   0.55385849   -9.6465058    469.60077 0.0089325262 0.0073464699         3928 
 4382000   0.54931771    -9.649642    470.77726 0.0089528613 0.0073435835         3916 
 4383000   0.55033526    -9.652838    470.16227  0.008939126 0.0073406976         3917 
 4384000   0.55428887   -9.6383242     469.9879 0.0089337725 0.0073378103         3921 
 4385000   0.55346156   -9.6538409    470.36066 0.0089388191 0.0073349258         3914 
 4386000   0.56172836   -9.6393101    470.68764 0.0089429937 0.0073320446         3928 
 4387000   0.53810305   -9.6444429    470.65077 0.0089402547 0.0073291636         3920 
 4388000   0.56406549   -9.6525243    469.88569 0.0089236875 0.0073262835         3922 
 4389000   0.55359112    -9.628115    470.66292 0.0089364116 0.0073234069         3909 
 4390000   0.55764057   -9.6436907    470.23943 0.0089263369 0.0073205299         3919 
 4391000   0.54099503   -9.6687857    469.68069 0.0089137001 0.0073176535         3913 
 4392000   0.54757099   -9.6538223    469.86638 0.0089151939 0.0073147798         3914 
 4393000   0.54482711   -9.6607704    470.19572  0.008919412 0.0073119074         3915 
 4394000   0.55701029   -9.6296136    469.81148 0.0089100949 0.0073090362         3910 
 4395000   0.55138612   -9.6509318     471.2685  0.008935694 0.0073061675         3919 
 4396000   0.55503539   -9.6495191    470.23141 0.0089140016  0.007303299         3917 
 4397000   0.54343989   -9.6551194    470.36206 0.0089144504 0.0073004332         3941 
 4398000   0.56126224   -9.6512149    470.09127 0.0089072925 0.0072975696         3928 
 4399000   0.56050106   -9.6419122     470.8272  0.008919209 0.0072947076         3930 
 4400000   0.54722133    -9.640078     470.2389 0.0089060397 0.0072918477         3916 
 4401000   0.55114871   -9.6450426    469.73187 0.0088944155 0.0072889869         3908 
 4402000   0.54016935   -9.6479211    470.35382 0.0089041689 0.0072861286         3917 
 4403000   0.57088066   -9.6528219    470.68505 0.0089084157 0.0072832725         3910 
 4404000   0.54653587   -9.6513209    469.81036 0.0088898419 0.0072804161         3934 
 4405000   0.54708671   -9.6564378    470.09806 0.0088932664 0.0072775614         3909 
 4406000   0.55628321   -9.6459151    470.04061 0.0088901613 0.0072747082         3924 
 4407000   0.55919207   -9.6529513    469.95366 0.0088864998 0.0072718572         3914 
 4408000   0.54749208   -9.6579463    470.24156 0.0088899266 0.0072690088         3913 
 4409000   0.53250228   -9.6619213     470.2026  0.008887174 0.0072661603         3919 
 4410000   0.55446097   -9.6533368    469.90819 0.0088795954 0.0072633138         3922 
 4411000   0.55460575   -9.6464151    469.78858 0.0088753228 0.0072604696         3922 
 4412000   0.53691834   -9.6387282    470.10249 0.0088792402 0.0072576271         3917 
 4413000   0.55511061   -9.6525428    470.02489 0.0088757627 0.0072547851         3930 
 4414000    0.5477648    -9.649233    469.46198 0.0088631245 0.0072519462         3904 
 4415000   0.54391178   -9.6637921    469.96805  0.008870669 0.0072491077         3918 
 4416000   0.54961268   -9.6509548    470.33531 0.0088755909 0.0072462711         3908 
 4417000   0.53841251    -9.660003    469.57662 0.0088592676 0.0072434351         3915 
 4418000   0.55035288   -9.6684136    468.93208 0.0088451049 0.0072405987         3917 
 4419000   0.53728455   -9.6702078    469.84702 0.0088603572 0.0072377633         3919 
 4420000   0.52904697   -9.6617561    470.67921 0.0088740424 0.0072349311         3920 
 4421000   0.54745786   -9.6482481    470.03763 0.0088599418 0.0072321009         3931 
 4422000   0.53421506   -9.6595477    469.65819 0.0088507875 0.0072292714         3921 
 4423000   0.54670701   -9.6611665    470.02587 0.0088557138 0.0072264436         3925 
 4424000   0.54183924    -9.654277    469.57255 0.0088451731  0.007223619         3916 
 4425000   0.55038189   -9.6523261    469.29039 0.0088378605 0.0072207962         3919 
 4426000   0.54073286   -9.6402303    470.16615 0.0088523525 0.0072179748         3919 
 4427000   0.53527606   -9.6390412    470.24575 0.0088518514 0.0072151533         3924 
 4428000   0.54337451   -9.6348167    470.68277 0.0088580769 0.0072123341         3899 
 4429000   0.54229271   -9.6515691    470.53572   0.00885331 0.0072095141         3920 
 4430000   0.54105016   -9.6576803    470.42215 0.0088491751 0.0072066973         3929 
 4431000   0.53973926   -9.6702013    469.11917  0.008822673 0.0072038836         3921 
 4432000   0.54794765   -9.6593537    469.97251 0.0088367274 0.0072010696         3932 
 4433000    0.5440423   -9.6610939    470.02896 0.0088357951 0.0071982571         3916 
 4434000   0.55128765   -9.6481783      469.859 0.0088306081 0.0071954465         3914 
 4435000   0.54981656   -9.6492788    469.78246 0.0088271789 0.0071926349         3928 
 4436000   0.54080779   -9.6651782    470.30397 0.0088349859 0.0071898266         3914 
 4437000   0.53310288   -9.6572209    469.08945 0.0088101842 0.0071870208         3925 
 4438000   0.54565847   -9.6452031    469.45241 0.0088150145 0.0071842144         3924 
 4439000   0.54722954   -9.6526516    470.25726 0.0088281381 0.0071814088         3923 
 4440000   0.54923358   -9.6638894    470.09763 0.0088231536 0.0071786045         3919 
 4441000   0.52846697   -9.6426999    469.49791 0.0088099134 0.0071758023         3917 
 4442000   0.54038212   -9.6677059    469.36692 0.0088054728  0.007173004         3921 
 4443000   0.54055226   -9.6576669    469.17128 0.0087998215 0.0071702074         3919 
 4444000   0.53820918    -9.667544    469.46253 0.0088033028 0.0071674103         3922 
 4445000   0.54252073   -9.6455985    469.79375 0.0088075318 0.0071646167         3918 
 4446000   0.53998251    -9.648807    470.19769  0.008813122 0.0071618219         3923 
 4447000    0.5300503   -9.6617475    470.10066 0.0088093221 0.0071590296         3925 
 4448000   0.54173526   -9.6485467    469.12291 0.0087890234 0.0071562389         3922 
 4449000   0.54954679   -9.6781367    469.96129 0.0088027513 0.0071534492         3924 
 4450000   0.54041953   -9.6474518    470.36644 0.0088083602 0.0071506603         3937 
 4451000   0.54367949   -9.6761646    469.54216 0.0087909488 0.0071478725         3931 
 4452000   0.54720932   -9.6493774    469.49995 0.0087881842 0.0071450886         3912 
 4453000   0.53961598   -9.6549444    469.60298 0.0087881387 0.0071423048         3923 
 4454000   0.54021608   -9.6623158    469.49934 0.0087842265 0.0071395231         3923 
 4455000   0.54578679   -9.6579075    470.38855  0.008798888 0.0071367424         3907 
 4456000   0.54324083   -9.6654444    469.69996 0.0087840358 0.0071339651         3925 
 4457000   0.53569767   -9.6444336    470.17068 0.0087908661 0.0071311881         3909 
 4458000   0.54009654   -9.6568199    469.50946  0.008776534 0.0071284119         3925 
 4459000   0.53832579   -9.6791749    469.84899 0.0087809111 0.0071256361         3920 
 4460000   0.53010507   -9.6646549    469.85838 0.0087791177 0.0071228636         3931 
 4461000   0.54962393   -9.6613244    469.79067 0.0087758848 0.0071200918         3916 
 4462000   0.54006397   -9.6599748    470.02799 0.0087783503 0.0071173206         3906 
 4463000   0.53387301   -9.6567217    470.02174 0.0087762667 0.0071145512         3930 
 4464000    0.5345674   -9.6654918    470.44104 0.0087821282 0.0071117836         3930 
 4465000   0.54094066   -9.6709408    469.46166 0.0087618823 0.0071090178         3928 
 4466000   0.53471169   -9.6469774    470.74243 0.0087838191  0.007106254         3921 
 4467000   0.54959133   -9.6450613    470.32227 0.0087740144 0.0071034926         3924 
 4468000    0.5335249   -9.6586975       469.99 0.0087658535 0.0071007326         3928 
 4469000   0.54309174    -9.665362    469.72221 0.0087588985 0.0070979749         3937 
 4470000   0.53600021   -9.6487994    470.05936 0.0087632244 0.0070952177         3938 
 4471000    0.5402193   -9.6628001    469.11414 0.0087436468 0.0070924582         3922 
 4472000   0.54815267   -9.6623303    469.47627 0.0087484397 0.0070897024         3923 
 4473000   0.53108825    -9.670844    469.62768 0.0087493047 0.0070869469         3926 
 4474000   0.53850571   -9.6521787     469.9195 0.0087527847 0.0070841938         3912 
 4475000   0.53443644   -9.6662497    469.49803 0.0087429802 0.0070814423         3929 
 4476000   0.53386694   -9.6772246    469.70593 0.0087448974 0.0070786927         3929 
 4477000   0.53622164   -9.6610592    468.96985  0.008729243 0.0070759433         3919 
 4478000   0.53595757   -9.6544556    469.72755  0.008741394 0.0070731959         3926 
 4479000   0.53105961   -9.6672038    470.24208 0.0087490154 0.0070704518         3921 
 4480000    0.5147628   -9.6749838    469.46226 0.0087325569 0.0070677066         3918 
 4481000   0.53301604   -9.6638167    470.06359 0.0087417911 0.0070649658         3922 
 4482000   0.52258623   -9.6619163    469.26042 0.0087249074 0.0070622221         3919 
 4483000   0.52352686   -9.6767859    469.24669 0.0087227059 0.0070594819         3923 
 4484000   0.53982959   -9.6614853    470.35833   0.00874142 0.0070567428         3918 
 4485000    0.5458228   -9.6850103    469.95215  0.008731924  0.007054007         3911 
 4486000   0.53632266   -9.6643482    469.91146 0.0087292217 0.0070512732         3935 
 4487000   0.53480891     -9.66756    470.30051 0.0087345017 0.0070485381         3922 
 4488000   0.53621147   -9.6630979    469.61413 0.0087198108 0.0070458051         3919 
 4489000   0.52365422    -9.671683    469.38909 0.0087136907 0.0070430744         3915 
 4490000   0.53654866   -9.6578175    470.42607  0.008730996 0.0070403434         3918 
 4491000   0.53841037   -9.6734748    469.62705 0.0087142257 0.0070376171         3918 
 4492000   0.53755011   -9.6700432    468.78705 0.0086967024 0.0070348888         3900 
 4493000   0.53455283   -9.6553355    469.89055 0.0087152339 0.0070321643         3922 
 4494000   0.52263757   -9.6692621    470.13931 0.0087179073 0.0070294405         3920 
 4495000   0.53090021   -9.6471671    469.54927 0.0087050292 0.0070267164         3931 
 4496000   0.53573667   -9.6644052    469.42855 0.0087008555 0.0070239951         3921 
 4497000   0.53468278   -9.6598844    470.00159 0.0087095394 0.0070212759         3914 
 4498000      0.52398   -9.6658993      470.181 0.0087109271 0.0070185587         3928 
 4499000   0.52839752   -9.6647848    469.91329 0.0087040321 0.0070158422         3928 
 4500000   0.53203951   -9.6842479    469.81679  0.008700311 0.0070131294         3929 
 4501000   0.53119576   -9.6618392    469.70502 0.0086963085 0.0070104164         3937 
 4502000   0.54193854   -9.6513976    469.81042 0.0086963279 0.0070077047         3935 
 4503000   0.53810614   -9.6461512    469.49082  0.008688482 0.0070049937         3928 
 4504000   0.52937426   -9.6867035    469.71366 0.0086906762 0.0070022835         3912 
 4505000   0.52751176   -9.6738242    469.56599 0.0086860154 0.0069995756         3935 
 4506000   0.52697061   -9.6726946    469.33814 0.0086798738 0.0069968678         3921 
 4507000   0.52533097   -9.6544844    470.09379 0.0086919198 0.0069941622         3926 
 4508000   0.52981876   -9.6616672    469.94888  0.008687313 0.0069914594         3932 
 4509000   0.52992945   -9.6587613    469.74557 0.0086816287 0.0069887561         3928 
 4510000   0.54307403   -9.6798346    470.05334 0.0086853906 0.0069860555         3928 
 4511000   0.53542683   -9.6623589    469.85509 0.0086798029 0.0069833562         3933 
 4512000   0.53412236   -9.6627944    469.84096 0.0086776182 0.0069806589         3919 
 4513000   0.54144724   -9.6805074    470.25735 0.0086833841 0.0069779619         3915 
 4514000   0.52305271   -9.6501893     469.1932 0.0086618151 0.0069752646         3923 
 4515000   0.52323487    -9.669945     469.5339  0.008666185 0.0069725682         3924 
 4516000   0.52962283   -9.6765355    469.35054 0.0086608825 0.0069698751         3930 
 4517000   0.52461047   -9.6524278    469.45386 0.0086608711 0.0069671848         3923 
 4518000   0.53830226    -9.684508    469.35471 0.0086571253 0.0069644941         3924 
 4519000   0.53453062   -9.6723931    470.10008 0.0086689548 0.0069618071         3923 
 4520000    0.5220839   -9.6672056    469.01223 0.0086469807 0.0069591204         3931 
 4521000   0.52240758   -9.6826364     469.5351 0.0086547058 0.0069564346         3927 
 4522000   0.53893648    -9.685691    468.85402 0.0086402407 0.0069537506         3923 
 4523000   0.51766137   -9.6578337    469.20806 0.0086448534 0.0069510659         3931 
 4524000   0.53645596   -9.6638747    469.48237 0.0086479954 0.0069483842         3923 
 4525000   0.52507302   -9.6612617     469.0672 0.0086384384 0.0069457056         3926 
 4526000   0.53246799   -9.6773493     469.4797 0.0086441248  0.006943028         3914 
 4527000   0.53980707    -9.675843    469.21972 0.0086374296 0.0069403522         3923 
 4528000   0.52532496   -9.6670257    469.69898 0.0086443423 0.0069376758         3922 
 4529000   0.51783088   -9.6629351    470.45928  0.008656423 0.0069349993         3924 
 4530000   0.52076746   -9.6829279    469.52456 0.0086373171 0.0069323258         3931 
 4531000   0.53809264   -9.6705293    470.36315 0.0086508341  0.006929653         3922 
 4532000   0.52870851   -9.6953109    469.75848 0.0086378068 0.0069269842         3926 
 4533000     0.519423   -9.6901574    469.24601   0.00862648 0.0069243137         3922 
 4534000   0.53832026   -9.6872679    470.06629 0.0086396538 0.0069216465         3922 
 4535000   0.53389192   -9.6687226    470.01797  0.008636861 0.0069189804         3926 
 4536000   0.52883147   -9.6784399    469.85407 0.0086319457 0.0069163144         3926 
 4537000   0.52437017   -9.6682599     469.5654  0.008624741 0.0069136506         3931 
 4538000   0.53414135   -9.6475907    468.32895  0.008600135  0.006910988         3924 
 4539000   0.53237971   -9.6820158    469.55123 0.0086206807 0.0069083265         3930 
 4540000   0.52948743    -9.688891    469.39774 0.0086159644 0.0069056658         3931 
 4541000   0.53172439   -9.6821088    469.75799 0.0086206781 0.0069030072         3927 
 4542000   0.53317848   -9.6795171     468.1224 0.0085887714 0.0069003513         3926 
 4543000   0.52312656   -9.6791413    469.51117 0.0086123555 0.0068976975         3929 
 4544000   0.52706187   -9.6596658    469.48499   0.00860998 0.0068950425         3920 
 4545000   0.53394246   -9.6644887     469.3816   0.00860619 0.0068923915         3920 
 4546000   0.52417044   -9.6846994    469.84504 0.0086127923 0.0068897407         3925 
 4547000   0.52995561   -9.6726916    469.84054 0.0086108156  0.006887088         3924 
 4548000   0.53866212   -9.6639403    469.31811 0.0085993497 0.0068844416         3919 
 4549000   0.51376394   -9.6767989    469.75961 0.0086055472 0.0068817971         3923 
 4550000   0.51913264   -9.6994252    469.08845 0.0085913635 0.0068791509         3930 
 4551000   0.52781355   -9.6675831    469.60103 0.0085988617 0.0068765079         3926 
 4552000   0.52086507   -9.6647017    469.25194 0.0085905818 0.0068738644         3939 
 4553000   0.52583889   -9.6790901    469.64471 0.0085958838 0.0068712228         3923 
 4554000   0.53105627   -9.6773337    469.69352 0.0085948895 0.0068685826         3917 
 4555000   0.52474513   -9.6853623    469.53359 0.0085900766 0.0068659438         3925 
 4556000   0.52000553   -9.6886192    470.02785 0.0085972316 0.0068633081         3928 
 4557000   0.53614726   -9.6901782    469.64125 0.0085882754 0.0068606739         3913 
 4558000    0.5106826   -9.6863185    468.95171 0.0085737844  0.006858039         3924 
 4559000   0.51833015   -9.6928425    469.10465 0.0085746992 0.0068554052         3926 
 4560000   0.51488088   -9.6832629     469.2526 0.0085755227 0.0068527723         3929 
 4561000   0.51834032   -9.6910407    469.44212 0.0085771052 0.0068501409         3920 
 4562000    0.5161266   -9.6948855    469.01861 0.0085674888 0.0068475112         3926 
 4563000   0.51804125   -9.6742854    468.95098 0.0085643762 0.0068448821         3940 
 4564000   0.52471444   -9.6696545    469.46649 0.0085719123 0.0068422579         3934 
 4565000   0.51958808    -9.671881     469.2552 0.0085661774 0.0068396337         3916 
 4566000   0.52548176   -9.6924518    468.83897 0.0085567048 0.0068370089         3925 
 4567000   0.51352032   -9.6904375    469.28975 0.0085630566 0.0068343864         3924 
 4568000   0.51200199   -9.6914279    469.24565 0.0085603774 0.0068317641         3920 
 4569000   0.52271835   -9.6934374    469.97085 0.0085717307 0.0068291434         3919 
 4570000    0.5165746   -9.6939796    469.95288 0.0085695273 0.0068265245         3907 
 4571000   0.52454453   -9.6863465    469.51425 0.0085596561  0.006823908         3917 
 4572000   0.52192793   -9.6929036    469.69986 0.0085611669 0.0068212935         3930 
 4573000   0.52303234   -9.6952619    468.50831 0.0085375812 0.0068186803         3924 
 4574000    0.5298317   -9.6904212    469.83036  0.008559801 0.0068160662         3939 
 4575000     0.530624   -9.6795501    469.13489  0.008545262 0.0068134562         3925 
 4576000   0.52170057   -9.6963431    469.06617 0.0085421432 0.0068108471         3922 
 4577000     0.522819   -9.6914076    470.16939 0.0085603633 0.0068082368         3928 
 4578000   0.52504317    -9.686321    468.96133 0.0085365031 0.0068056291         3921 
 4579000   0.50689672   -9.6867168    470.21577 0.0085574684 0.0068030204         3924 
 4580000   0.53899741   -9.6796079    469.37749 0.0085403474 0.0068004154         3925 
 4581000     0.513675   -9.6832681    469.03699  0.008532289  0.006797813         3926 
 4582000    0.5280767   -9.6859787      469.702 0.0085425214 0.0067952123         3931 
 4583000   0.52344223   -9.6940376    468.87767 0.0085256686 0.0067926104         3930 
 4584000   0.52315667   -9.6948433    469.78694 0.0085403386 0.0067900098         3912 
 4585000   0.52126276    -9.692891    469.41725 0.0085317566 0.0067874118         3926 
 4586000   0.52986323   -9.6870597    468.97508 0.0085218615 0.0067848152         3923 
 4587000   0.52184253   -9.6787213    468.39374 0.0085094422 0.0067822197         3923 
 4588000   0.51925858   -9.6778602     469.2668 0.0085234451 0.0067796266         3924 
 4589000    0.5215133   -9.6882877    469.13523 0.0085191986 0.0067770339         3934 
 4590000   0.52308885   -9.6920142    469.19455 0.0085184196 0.0067744412         3931 
 4591000   0.50936761   -9.6865862    469.17905 0.0085162827 0.0067718516         3927 
 4592000   0.52491854   -9.6949431    468.93447 0.0085099897 0.0067692616         3909 
 4593000   0.52185133   -9.6982461    469.86621 0.0085250418 0.0067666729         3929 
 4594000   0.51542456   -9.7101484    468.94873 0.0085065436 0.0067640851         3925 
 4595000   0.50973703   -9.7010105    469.48048 0.0085143359 0.0067615012         3935 
 4596000   0.52467862    -9.688822    468.52562   0.00849517 0.0067589167         3932 
 4597000   0.52396084   -9.6873558    469.51667 0.0085112877 0.0067563343         3929 
 4598000   0.52495893   -9.6904192    468.85063 0.0084973653 0.0067537538         3920 
 4599000   0.52352764   -9.7006395    469.08915 0.0084998397 0.0067511737         3931 
 4600000   0.50562359   -9.6986461     469.0968 0.0084981305 0.0067485943         3933 
 4601000   0.51954354   -9.7053191     469.2641 0.0084993136 0.0067460187         3936 
 4602000   0.51492807   -9.6868414    469.40146  0.008499954 0.0067434436         3934 
 4603000   0.52586354   -9.7020841    468.55204 0.0084827293 0.0067408687         3932 
 4604000   0.51641301   -9.6969554    468.79867 0.0084853509 0.0067382945         3929 
 4605000   0.52732492   -9.6902758    469.47321  0.008495715 0.0067357224         3920 
 4606000   0.51214878   -9.7019986    469.26947 0.0084901843 0.0067331521         3933 
 4607000   0.51481643   -9.6888519     468.8987 0.0084816348 0.0067305821         3925 
 4608000   0.50683447   -9.7036513    468.93605 0.0084804696 0.0067280135         3914 
 4609000   0.52332208     -9.70612    469.42325 0.0084874384 0.0067254464         3923 
 4610000   0.50690889   -9.6950872     468.7028 0.0084725741 0.0067228802         3925 
 4611000   0.51093369   -9.7005641     469.4518 0.0084842732 0.0067203177         3912 
 4612000   0.51123618   -9.7025212    469.25929  0.008478955 0.0067177562         3916 
 4613000   0.51655551   -9.6853982    469.39154 0.0084795061 0.0067151951         3934 
 4614000   0.51668564   -9.7057298    469.21965 0.0084745639 0.0067126356         3933 
 4615000   0.51108388   -9.6962562    469.79367 0.0084830927 0.0067100756         3930 
 4616000   0.51920553   -9.6991365    469.58564 0.0084774993 0.0067075179         3939 
 4617000   0.51047177    -9.696753    469.19205 0.0084685591 0.0067049597         3932 
 4618000   0.50855923   -9.6835149    469.50017 0.0084722854 0.0067024023         3932 
 4619000   0.52229089   -9.6983087    469.28183 0.0084665121 0.0066998479         3922 
 4620000   0.49880274   -9.6859298    469.34388 0.0084657987 0.0066972946         3921 
 4621000   0.51609866   -9.7016831    469.42639 0.0084654546 0.0066947444         3915 
 4622000   0.51989599   -9.6907093    469.01199 0.0084561516 0.0066921958         3931 
 4623000   0.51189877   -9.6805328    468.58191 0.0084465699 0.0066896471         3932 
 4624000   0.51553183   -9.7217793    469.04559 0.0084530996 0.0066870996         3935 
 4625000    0.5034031   -9.7133106     468.7601  0.008446128 0.0066845532         3927 
 4626000   0.51030121   -9.7071352    468.54386 0.0084404068 0.0066820083         3922 
 4627000   0.51143929   -9.7035838    468.81322 0.0084434338 0.0066794641         3921 
 4628000   0.50723052   -9.7125175    469.42414 0.0084526097 0.0066769223         3927 
 4629000   0.50748256   -9.6998209    468.41233 0.0084325687  0.006674382         3931 
 4630000    0.5132847   -9.6866159    469.43405 0.0084491369 0.0066718426         3923 
 4631000   0.51517808   -9.6830366    468.75073 0.0084350163 0.0066693065         3921 
 4632000   0.50714339    -9.690736    469.14778 0.0084403386 0.0066667693         3930 
 4633000    0.5074424   -9.6878325    468.84234 0.0084330228 0.0066642332         3911 
 4634000   0.51702803   -9.6992538    469.39433 0.0084411295    0.0066617         3924 
 4635000   0.51021739   -9.6943387    469.34122 0.0084383536  0.006659167         3912 
 4636000   0.49996535   -9.6855742    468.81373 0.0084270515 0.0066566364         3924 
 4637000   0.50844115    -9.693872    469.08109  0.008430039 0.0066541047         3928 
 4638000    0.5062865   -9.7004106    468.94452 0.0084257677 0.0066515756         3913 
 4639000   0.52086395    -9.699794    469.29099 0.0084301752 0.0066490496         3921 
 4640000   0.50808381   -9.6847406    468.66673 0.0084171466  0.006646524         3925 
 4641000   0.52445436   -9.7066403    468.87996 0.0084191619 0.0066439994         3933 
 4642000   0.50469957   -9.7085491    468.93213 0.0084182848 0.0066414737         3933 
 4643000   0.50891705    -9.702164    468.49198 0.0084085717 0.0066389512         3929 
 4644000   0.51120301   -9.7028389    469.36286 0.0084223884 0.0066364315         3929 
 4645000   0.50551942   -9.7074023    468.40954 0.0084034721 0.0066339121         3921 
 4646000   0.50589771   -9.7040911    468.99241 0.0084121181 0.0066313941         3935 
 4647000   0.51118463   -9.7042547      468.499 0.0084014597 0.0066288777         3924 
 4648000   0.50568966   -9.7136424    468.60378 0.0084015307 0.0066263617         3928 
 4649000   0.50622407    -9.692263    469.14365 0.0084094008 0.0066238465         3930 
 4650000   0.50297307   -9.6736319    469.38521 0.0084119213 0.0066213328         3935 
 4651000   0.50563651   -9.7189455     468.8924 0.0084012828 0.0066188212         3935 
 4652000   0.50730951   -9.7203815    469.17544 0.0084045472  0.006616311         3930 
 4653000   0.50637924   -9.7032501    469.36091 0.0084060626 0.0066137994         3935 
 4654000   0.49917279   -9.6912606    469.35137 0.0084040855  0.006611289         3938 
 4655000   0.51513337   -9.7192032    468.50875 0.0083871957 0.0066087811         3926 
 4656000    0.5005007     -9.70188    468.54749 0.0083860877 0.0066062744         3931 
 4657000   0.50206994   -9.7177583    468.76409 0.0083881629 0.0066037705         3927 
 4658000   0.49762928   -9.7020455     468.5816 0.0083830972 0.0066012678         3932 
 4659000   0.52366886   -9.7085596    468.39936 0.0083780382 0.0065987671         3929 
 4660000   0.51111019    -9.697525    468.93357 0.0083857934 0.0065962677         3924 
 4661000   0.50829282   -9.7172767    468.87607 0.0083829663 0.0065937685         3925 
 4662000   0.50788636   -9.7013715    469.15153  0.008386092 0.0065912705         3925 
 4663000   0.52148483   -9.6874302    468.36719 0.0083702764  0.006588774         3929 
 4664000   0.49090503   -9.7107598    468.73672 0.0083750843 0.0065862789         3931 
 4665000   0.50338154   -9.7124571    468.78985  0.008374238 0.0065837857         3930 
 4666000   0.49580225   -9.7089825    469.25044 0.0083806693 0.0065812941         3929 
 4667000   0.51627086     -9.71348    468.45347 0.0083646431 0.0065788022         3933 
 4668000   0.52205297   -9.7030158    468.31145 0.0083603159 0.0065763128         3933 
 4669000   0.50538194   -9.7064279    469.31306 0.0083764021 0.0065738257         3926 
 4670000   0.50394723   -9.7021226    468.49059 0.0083599321 0.0065713386         3924 
 4671000   0.50235749   -9.7331345    468.51904 0.0083586499 0.0065688505         3932 
 4672000   0.50376716   -9.6904551    468.82604 0.0083623366 0.0065663646         3919 
 4673000   0.51643597    -9.708592    468.74287  0.008359064 0.0065638801         3927 
 4674000   0.51535777   -9.7086858    468.30945  0.008349548  0.006561397         3921 
 4675000   0.50509302   -9.6944962    468.79204 0.0083563643 0.0065589168         3932 
 4676000   0.50906833    -9.710414    468.99777 0.0083582437 0.0065564362         3931 
 4677000   0.50079148   -9.7145943    468.74165 0.0083518932 0.0065539557         3936 
 4678000   0.49751503   -9.7230409    468.58111  0.008347248  0.006551478         3923 
 4679000   0.49882478   -9.7049803    468.99849 0.0083528975 0.0065490012         3934 
 4680000   0.49762603   -9.7062215    468.02319 0.0083337463 0.0065465258         3925 
 4681000   0.50462681   -9.7247946    468.78833 0.0083455874 0.0065440517         3923 
 4682000   0.50235493   -9.7113578    468.86213 0.0083451184 0.0065415806         3925 
 4683000   0.50393506   -9.7067745    468.74251 0.0083412077 0.0065391092         3926 
 4684000    0.4986109   -9.7219201    468.36967 0.0083327938 0.0065366386         3915 
 4685000   0.49740796   -9.7131864    467.69217 0.0083189642 0.0065341683         3920 
 4686000   0.51191196   -9.7075298    469.08024 0.0083418737 0.0065317007         3927 
 4687000   0.49905618   -9.7219541    469.57685 0.0083489234 0.0065292347         3931 
 4688000   0.50165268   -9.7125945    468.29956 0.0083244376 0.0065267692         3924 
 4689000    0.5021283   -9.7276977    468.09635 0.0083190508 0.0065243065         3925 
 4690000   0.50256363   -9.7160072    469.00542 0.0083334296 0.0065218439         3926 
 4691000   0.49209806    -9.721268     468.8281 0.0083285032 0.0065193818         3924 
 4692000   0.50334495   -9.7220767    468.78761 0.0083260091 0.0065169208         3926 
 4693000   0.50873368   -9.7178284    468.80823  0.008324601 0.0065144617         3932 
 4694000   0.50598542   -9.7275988    468.47661 0.0083169403 0.0065120035         3928 
 4695000   0.50492669   -9.7250624    468.23681 0.0083109125 0.0065095473         3920 
 4696000   0.50029653   -9.7338914    468.70634 0.0083174747 0.0065070925         3940 
 4697000   0.49389036   -9.7137073    468.78036 0.0083170173 0.0065046392         3927 
 4698000   0.48929882   -9.7301552    468.56705 0.0083114632 0.0065021853         3930 
 4699000   0.49942416   -9.7150374    468.22775 0.0083036773 0.0064997339         3926 
 4700000   0.50889361   -9.7012558    468.78438 0.0083117798 0.0064972832         3930 
 4701000   0.50207039   -9.7083385    469.62744 0.0083249564 0.0064948348         3921 
 4702000   0.49909272   -9.7117972    469.01295 0.0083122952 0.0064923884         3926 
 4703000   0.50211989   -9.6994613    468.64972 0.0083040917  0.006489943         3930 
 4704000   0.50981645   -9.7157607    469.13692 0.0083109573 0.0064874994         3920 
 4705000   0.49207864   -9.7175883    468.86555 0.0083043846 0.0064850551         3936 
 4706000   0.49510136   -9.7055008    468.82193 0.0083018474 0.0064826111         3926 
 4707000   0.49716454   -9.7060583        468.4 0.0082926138 0.0064801697         3924 
 4708000   0.49494582   -9.7166098    468.69867 0.0082961391 0.0064777291         3926 
 4709000   0.49597379   -9.7133648    469.30352 0.0083050811 0.0064752886         3928 
 4710000   0.49701673      -9.7167    469.38737 0.0083048013   0.00647285         3929 
 4711000   0.49450259   -9.7170649    468.21885 0.0082823685 0.0064704125         3925 
 4712000   0.50004481   -9.7181444    468.81157 0.0082910932 0.0064679753         3919 
 4713000   0.49877919   -9.7120993    468.82328 0.0082895411 0.0064655417         3928 
 4714000   0.49871127   -9.7239494    468.53732 0.0082827274  0.006463106         3924 
 4715000   0.50087714   -9.7291627    469.12335 0.0082913283 0.0064606757         3920 
 4716000   0.50325571   -9.6958147     468.3556 0.0082760036  0.006458246         3930 
 4717000   0.49148162   -9.7214077    468.35783 0.0082742886  0.006455817         3924 
 4718000   0.50423495   -9.7258851    467.73486 0.0082615315 0.0064533904         3922 
 4719000   0.49524353   -9.7340372    468.79646 0.0082785276 0.0064509624         3926 
 4720000   0.49533395    -9.733622    468.48953 0.0082713547  0.006448537         3933 
 4721000   0.49357733   -9.7044797    468.26939 0.0082657168 0.0064461117         3922 
 4722000   0.50075097   -9.7172828    468.79635 0.0082732661 0.0064436887         3927 
 4723000   0.50249562   -9.7253544    468.22907 0.0082615051 0.0064412673         3928 
 4724000    0.4942672   -9.7239945    468.63125 0.0082668509 0.0064388463         3922 
 4725000   0.49372746   -9.7208973    468.37117 0.0082605144 0.0064364271         3924 
 4726000   0.49029192   -9.7132769    467.86098 0.0082497705 0.0064340084         3925 
 4727000   0.48244205   -9.7215736    469.15063 0.0082707606 0.0064315915         3931 
 4728000   0.49881216   -9.7195825    468.72942 0.0082615874 0.0064291765         3934 
 4729000   0.49002258   -9.7202362    468.61815 0.0082578795 0.0064267613         3917 
 4730000   0.49403989   -9.7190452    467.96174 0.0082445691 0.0064243469         3919 
 4731000   0.48875702   -9.7347099    468.30341 0.0082488447 0.0064219331         3932 
 4732000   0.49561872   -9.7134314    467.90282 0.0082400468 0.0064195228         3925 
 4733000   0.49869337   -9.7248089    468.33271 0.0082458748  0.006417113         3933 
 4734000   0.50331584   -9.7152711    468.74699 0.0082514257 0.0064147059         3934 
 4735000    0.4996503   -9.7180242    468.27038  0.008241295 0.0064122993         3928 
 4736000   0.49204564   -9.7016715     466.9332 0.0082160262 0.0064098936         3926 
 4737000   0.49917841   -9.7367569    468.66814 0.0082448128 0.0064074889         3919 
 4738000   0.49859336   -9.7238179     468.3949 0.0082382668 0.0064050857         3933 
 4739000    0.5043112   -9.7354791    468.02263 0.0082299823 0.0064026841         3932 
 4740000   0.49117044   -9.7409921    468.57857 0.0082380198 0.0064002823         3932 
 4741000   0.49656126   -9.7162708    468.61359 0.0082368977 0.0063978818         3933 
 4742000   0.49821446   -9.7223375    468.13632 0.0082267735 0.0063954839         3935 
 4743000   0.50354445   -9.7240888    468.36557  0.008229067 0.0063930868         3927 
 4744000     0.495082   -9.7071801    468.39072  0.008227774 0.0063906925         3928 
 4745000    0.4873061   -9.7330933    468.17205 0.0082221998 0.0063882985         3924 
 4746000   0.49885279   -9.7413774    467.93529 0.0082163101 0.0063859041         3916 
 4747000   0.49350654   -9.7379632    468.37385 0.0082222781 0.0063835142         3935 
 4748000   0.49739531   -9.7539627    467.64055  0.008207676 0.0063811231         3921 
 4749000   0.48121167   -9.7364734     468.3015 0.0082175457 0.0063787314         3919 
 4750000   0.49621391   -9.7332839    468.72542 0.0082232529 0.0063763417         3933 
 4751000   0.48274732   -9.7293727     467.8775 0.0082066495 0.0063739523         3934 
 4752000   0.48527498   -9.7383855     468.2232 0.0082109848 0.0063715646         3937 
 4753000   0.48557975   -9.7298773    468.28701 0.0082103761 0.0063691788         3930 
 4754000   0.48711509   -9.7380956    467.92491 0.0082023017 0.0063667943         3928 
 4755000   0.48546134   -9.7181948    468.89538 0.0082175847 0.0063644119         3934 
 4756000    0.4967507   -9.7314475    468.80996 0.0082143602 0.0063620298         3926 
 4757000   0.48692288   -9.7361066    468.68541 0.0082104514 0.0063596487         3933 
 4758000   0.48460437   -9.7210325     468.4233 0.0082041351 0.0063572685         3905 
 4759000   0.49757915   -9.7490002    468.37718 0.0082016036 0.0063548922         3926 
 4760000   0.47238751   -9.7244739    467.54771  0.008185359  0.006352515         3925 
 4761000   0.49168895   -9.7363708     468.5561 0.0082012899 0.0063501393         3924 
 4762000    0.4927013   -9.7289114     468.7986 0.0082038114 0.0063477668         3929 
 4763000   0.48600701   -9.7108794    468.28127 0.0081930379 0.0063453951         3935 
 4764000   0.48826387   -9.7315042    468.42752 0.0081938763 0.0063430243         3933 
 4765000    0.4908664   -9.7344734     468.4655 0.0081928209 0.0063406541         3935 
 4766000   0.49180162   -9.7375495    467.64409 0.0081767396 0.0063382832         3925 
 4767000    0.4952994   -9.7418372    468.33285 0.0081870648 0.0063359138         3926 
 4768000   0.49220031   -9.7364111     467.9527 0.0081787035 0.0063335485         3914 
 4769000   0.49509517   -9.7274364    468.81044 0.0081919767 0.0063311812         3927 
 4770000   0.49637057   -9.7230023    467.79153 0.0081724586 0.0063288163         3928 
 4771000   0.48534131   -9.7413592    467.90203 0.0081726757  0.006326453         3924 
 4772000   0.48100636   -9.7207896    468.04994  0.008173546 0.0063240908         3926 
 4773000   0.48769913   -9.7423129    468.58062 0.0081810989  0.006321731         3930 
 4774000   0.48990116   -9.7478019    468.18774 0.0081725271 0.0063193708         3933 
 4775000   0.49009254   -9.7403701    467.61244 0.0081607755  0.006317013         3937 
 4776000   0.48866625   -9.7436376    467.60392 0.0081589183 0.0063146539         3926 
 4777000   0.48228958   -9.7308273    468.35129 0.0081702479 0.0063122977         3910 
 4778000   0.50241274   -9.7226341      468.728 0.0081751081 0.0063099434         3935 
 4779000    0.4951871    -9.738047    467.89043 0.0081587924 0.0063075901         3937 
 4780000   0.48764447   -9.7320355    468.25457  0.008163434 0.0063052373         3928 
 4781000   0.48800244   -9.7346656    468.87464 0.0081725343 0.0063028843         3906 
 4782000    0.4836461   -9.7256386    468.20143 0.0081590937 0.0063005319         3937 
 4783000   0.48871567   -9.7293282    468.33306 0.0081596811 0.0062981825         3923 
 4784000   0.48347748   -9.7383331    468.20491 0.0081557433 0.0062958351         3927 
 4785000   0.48479647   -9.7407216    467.58468 0.0081432371 0.0062934883         3930 
 4786000   0.48726737    -9.746348    468.30629 0.0081541003  0.006291141         3940 
 4787000   0.49074086   -9.7514572    468.53093 0.0081563076 0.0062887959         3932 
 4788000    0.4750695   -9.7426493     467.3984 0.0081348927 0.0062864523         3927 
 4789000   0.48922855     -9.73281    468.02495 0.0081440968 0.0062841093         3929 
 4790000   0.48021781   -9.7441244    467.58644 0.0081347676 0.0062817672         3931 
 4791000   0.48033828   -9.7297929    468.02543 0.0081407052 0.0062794267         3927 
 4792000   0.48245284   -9.7360616    468.56395 0.0081483714  0.006277087         3933 
 4793000   0.48300075   -9.7320693    468.91276 0.0081527358 0.0062747493         3928 
 4794000   0.47588454   -9.7368651    467.99744 0.0081351244 0.0062724116         3930 
 4795000   0.48836579   -9.7414738    467.63047 0.0081270502 0.0062700769         3919 
 4796000   0.48035177   -9.7331549    467.48072 0.0081227536 0.0062677416         3929 
 4797000   0.48280268   -9.7585918    468.05699 0.0081310713 0.0062654077         3925 
 4798000   0.47949686   -9.7307479    468.18345  0.008131573 0.0062630749         3936 
 4799000   0.48296977   -9.7543309     468.0315   0.00812724 0.0062607444         3930 
 4800000   0.48011027   -9.7321137    467.95512 0.0081242208 0.0062584134         3927 
 4801000   0.48185693   -9.7537706    468.68503  0.008135198 0.0062560849         3929 
 4802000   0.48235055   -9.7384886    468.31717 0.0081271201 0.0062537586         3935 
 4803000   0.48691549   -9.7447573    468.37925 0.0081265051  0.006251433         3927 
 4804000   0.48290614   -9.7251911    468.39337 0.0081250585 0.0062491087         3922 
 4805000   0.47633374   -9.7532086    468.43673 0.0081241195 0.0062467857         3933 
 4806000   0.47865782   -9.7364162    467.96893 0.0081143176 0.0062444631         3927 
 4807000   0.47682531    -9.745257     467.4863 0.0081042629 0.0062421405         3918 
 4808000   0.48057821   -9.7378048    467.97857 0.0081111094 0.0062398215         3928 
 4809000   0.47323834    -9.750882    469.01452 0.0081273743 0.0062375027         3931 
 4810000   0.48416412   -9.7268641    467.58495 0.0081009173 0.0062351847         3928 
 4811000   0.48199393   -9.7327423    467.66616 0.0081006403  0.006232867         3930 
 4812000   0.47834825   -9.7379716    467.60399 0.0080978801  0.006230551         3935 
 4813000   0.48738187   -9.7484779    467.96552 0.0081024572 0.0062282387         3933 
 4814000   0.48898483   -9.7475629    468.73442 0.0081140843 0.0062259244         3931 
 4815000   0.47690844   -9.7288255     468.0649 0.0081008116 0.0062236126         3922 
 4816000   0.47915039   -9.7331263    468.07515  0.008099307 0.0062213002         3917 
 4817000   0.47335616   -9.7355368    468.54086 0.0081056822 0.0062189903         3932 
 4818000   0.48441861   -9.7506786    468.39189 0.0081014233 0.0062166822         3931 
 4819000   0.48271954   -9.7494165    467.43925 0.0080832686  0.006214375         3928 
 4820000   0.48112639   -9.7514861    467.30424 0.0080792572 0.0062120694         3924 
 4821000   0.47475059   -9.7464942    468.30143 0.0080948183 0.0062097644         3935 
 4822000   0.48179327   -9.7464419    467.94016 0.0080868962 0.0062074604         3930 
 4823000   0.49044816    -9.738338    467.64738 0.0080801606  0.006205157         3928 
 4824000   0.47570788   -9.7528713    468.08868  0.008086109 0.0062028564         3924 
 4825000   0.48414205   -9.7333366    467.99597  0.008082832 0.0062005563         3926 
 4826000   0.48700794   -9.7315934    467.76958 0.0080772479 0.0061982584         3925 
 4827000   0.47339943   -9.7329088    467.87829 0.0080774513   0.00619596         3922 
 4828000   0.47768183    -9.752554    468.03953 0.0080785613 0.0061936639         3934 
 4829000   0.47008062   -9.7466574    467.58694 0.0080690782 0.0061913675         3931 
 4830000   0.47132832   -9.7622654    467.66227 0.0080687072 0.0061890729         3935 
 4831000   0.47998055   -9.7420219    468.14558  0.008075374 0.0061867792         3927 
 4832000   0.48137906   -9.7567905    467.84187 0.0080684649 0.0061844876         3926 
 4833000   0.47663115   -9.7542507       467.89 0.0080676254 0.0061821953         3931 
 4834000   0.48357686   -9.7548957    467.98582 0.0080676082 0.0061799045         3926 
 4835000   0.47615824   -9.7265767    468.02452 0.0080666067 0.0061776155         3927 
 4836000   0.47802074   -9.7525472     468.0688 0.0080657017 0.0061753279         3934 
 4837000   0.47600946   -9.7543629    467.80278 0.0080594511 0.0061730416         3933 
 4838000   0.47430402     -9.73419    467.53902  0.008053242  0.006170755         3919 
 4839000   0.47424834   -9.7426622    467.78846 0.0080558735 0.0061684712         3924 
 4840000   0.47520399   -9.7603326    468.30673 0.0080631324 0.0061661872         3926 
 4841000    0.4849296   -9.7556796     468.2832 0.0080610618 0.0061639056         3932 
 4842000   0.47814234   -9.7204885     468.0986 0.0080562199 0.0061616244         3918 
 4843000   0.47627501   -9.7455124     467.5002 0.0080442598 0.0061593445         3930 
 4844000   0.47855819   -9.7677671    468.21633 0.0080549191 0.0061570652         3935 
 4845000   0.47376084   -9.7583141    468.19293  0.008052854 0.0061547864         3917 
 4846000   0.47978902   -9.7491395    467.64444 0.0080417602 0.0061525107         3934 
 4847000   0.47359388   -9.7477922    467.78524 0.0080425218 0.0061502335         3915 
 4848000   0.47310825   -9.7526395    468.14903 0.0080471161 0.0061479589         3927 
 4849000   0.47144925   -9.7619202    467.39625 0.0080325196 0.0061456854         3926 
 4850000   0.49075073   -9.7485552    468.81232 0.0080551945  0.006143414         3915 
 4851000   0.47996403   -9.7531425    467.59729 0.0080326615 0.0061411439         3929 
 4852000   0.47555554   -9.7432713    467.75936 0.0080337895 0.0061388736         3928 
 4853000   0.47703981   -9.7529708     468.2935  0.008041306 0.0061366052         3936 
 4854000   0.48290087   -9.7534458    468.71967 0.0080469659 0.0061343383         3925 
 4855000   0.47706596   -9.7549153    467.86957  0.008030717 0.0061320735         3925 
 4856000   0.47084501   -9.7356187    468.17409  0.008034289  0.006129809         3921 
 4857000   0.47786342   -9.7395367    468.70167 0.0080416867 0.0061275458         3931 
 4858000   0.46832846   -9.7350797    467.54048 0.0080201125 0.0061252837         3930 
 4859000   0.48193593   -9.7633289    468.08727 0.0080278396 0.0061230218         3922 
 4860000   0.46796219   -9.7524014    467.35473 0.0080136271 0.0061207622         3934 
 4861000   0.46840753   -9.7503406    467.83322 0.0080201814 0.0061185024         3914 
 4862000   0.46886008   -9.7636932    467.12247 0.0080063498 0.0061162442         3930 
 4863000   0.46873983   -9.7496378    467.76352 0.0080156884 0.0061139856         3933 
 4864000   0.47068387   -9.7466801    468.14435 0.0080205652 0.0061117284         3940 
 4865000    0.4794219   -9.7632515    467.83092 0.0080135479 0.0061094724         3924 
 4866000   0.47469047   -9.7445316    467.99892  0.008014778 0.0061072191         3926 
 4867000   0.47947352    -9.751149    467.76978  0.008009208  0.006104967         3931 
 4868000   0.47515384   -9.7600141    467.64402 0.0080054098 0.0061027151         3922 
 4869000   0.46596032   -9.7549895    467.04477 0.0079935095 0.0061004628         3927 
 4870000   0.46528773   -9.7595484    467.27405 0.0079957914 0.0060982128         3935 
 4871000   0.47786941   -9.7573334    467.62363 0.0080001305 0.0060959658         3924 
 4872000   0.48513491    -9.739808    467.53755 0.0079970161 0.0060937184         3923 
 4873000    0.4694025   -9.7529384    467.13602 0.0079885084 0.0060914721         3930 
 4874000   0.46896185   -9.7528951     467.9809 0.0080013147 0.0060892273         3939 
 4875000   0.46498611   -9.7625371    467.31504 0.0079882913 0.0060869831         3930 
 4876000   0.45771553    -9.774576    468.55418 0.0080078306 0.0060847391         3925 
 4877000   0.46996035    -9.744088    467.47364 0.0079877253  0.006082499         3931 
 4878000   0.46108893   -9.7605101    467.68271 0.0079896595 0.0060802577         3921 
 4879000   0.47133783   -9.7376756    467.58068 0.0079862793 0.0060780183         3928 
 4880000    0.4663627    -9.753633    467.91421 0.0079903383 0.0060757803         3934 
 4881000   0.46915447   -9.7616106    467.72266  0.007985431  0.006073543         3933 
 4882000   0.46133198   -9.7466659    467.78902  0.007984928 0.0060713097         3931 
 4883000   0.46512981   -9.7674182    467.80707 0.0079836008 0.0060690751         3913 
 4884000   0.46833561   -9.7681706    467.29025 0.0079731479 0.0060668409         3928 
 4885000   0.46681545    -9.760587    467.78156 0.0079798969 0.0060646087         3930 
 4886000    0.4694969   -9.7616613    466.86844 0.0079626901 0.0060623765         3935 
 4887000   0.46557942   -9.7457024    467.87616 0.0079782443 0.0060601454         3917 
 4888000   0.47009199   -9.7649524    467.67351 0.0079731573 0.0060579174         3929 
 4889000   0.47184548    -9.765149    467.54803 0.0079693875 0.0060556902         3928 
 4890000   0.47131928   -9.7646689    466.49577 0.0079498257 0.0060534636         3925 
 4891000   0.47109735    -9.767158    467.76596 0.0079698419 0.0060512366         3924 
 4892000   0.47977552   -9.7635177    467.41221 0.0079621868 0.0060490105         3918 
 4893000   0.46555532   -9.7563952    467.55919 0.0079630627 0.0060467865         3921 
 4894000     0.462303    -9.762318    466.64509 0.0079458707  0.006044563         3926 
 4895000     0.460233   -9.7592483    467.78318 0.0079636223 0.0060423425         3931 
 4896000   0.47503041   -9.7521297    467.33405 0.0079543513 0.0060401206         3934 
 4897000   0.45886107    -9.760043     467.8189 0.0079609778 0.0060379016         3935 
 4898000   0.47794853   -9.7682653    467.52072 0.0079542794 0.0060356828         3931 
 4899000   0.47704842   -9.7562291    467.44889 0.0079514339 0.0060334644         3931 
 4900000   0.46019126   -9.7506722     467.9161 0.0079577568 0.0060312484         3936 
 4901000   0.46227034   -9.7572419    468.18809 0.0079607578 0.0060290335         3926 
 4902000   0.48521694   -9.7752656    467.79959 0.0079525295 0.0060268203         3927 
 4903000   0.46267812   -9.7622582    467.74677 0.0079500096 0.0060246085         3912 
 4904000   0.46625418   -9.7583344    467.57956 0.0079455472  0.006022397         3922 
 4905000    0.4628553   -9.7723792    467.49464 0.0079424845 0.0060201847         3932 
 4906000   0.47134237   -9.7592199    467.35632 0.0079385162 0.0060179749         3924 
 4907000   0.46763938    -9.768748    467.27777 0.0079355644 0.0060157673         3935 
 4908000   0.45647066   -9.7537025    467.81032 0.0079429898 0.0060135606         3928 
 4909000   0.47230452   -9.7526189    467.61673 0.0079380853 0.0060113538         3922 
 4910000   0.47096617   -9.7543908    468.62068 0.0079535079 0.0060091488         3929 
 4911000   0.47096212   -9.7652392    468.10134 0.0079430758 0.0060069464         3919 
 4912000   0.47112593   -9.7667148    466.94376 0.0079218201 0.0060047435         3925 
 4913000   0.46321748   -9.7554965    467.85834 0.0079357206 0.0060025406         3926 
 4914000   0.47608976   -9.7667909    466.39122 0.0079092257 0.0060003402         3935 
 4915000   0.46190474   -9.7635102    467.70598 0.0079299081 0.0059981399         3921 
 4916000   0.46200243   -9.7619221    467.86997 0.0079310749 0.0059959418         3936 
 4917000   0.45926837   -9.7538643    467.39449 0.0079214035 0.0059937428         3935 
 4918000    0.4620546   -9.7573884    467.63719 0.0079239052 0.0059915476         3931 
 4919000   0.46512539   -9.7542444    467.52726  0.007920432 0.0059893516         3929 
 4920000   0.46363917   -9.7682217     467.6752 0.0079213279 0.0059871562         3917 
 4921000   0.46440632   -9.7672044    467.06322 0.0079093547 0.0059849627         3936 
 4922000   0.45562737   -9.7802121    467.42355 0.0079138486  0.005982771         3922 
 4923000   0.46563622   -9.7683283    467.33005 0.0079106582 0.0059805794         3923 
 4924000   0.45833514   -9.7660253    467.01958 0.0079037974   0.00597839         3931 
 4925000   0.45619191   -9.7577015    467.40295 0.0079086794 0.0059762008         3929 
 4926000   0.45465445   -9.7649186     468.0355 0.0079177748 0.0059740136         3929 
 4927000   0.45463989   -9.7769645    467.45736 0.0079063893  0.005971828         3924 
 4928000   0.46312175   -9.7741203    467.90709 0.0079123899 0.0059696433         3934 
 4929000   0.45340309   -9.7734839    467.24227 0.0078995447 0.0059674576         3922 
 4930000   0.47184107   -9.7594378     467.3772  0.007900223 0.0059652749         3930 
 4931000   0.45492676   -9.7616472    466.99073 0.0078920897 0.0059630928         3937 
 4932000   0.46032601   -9.7617349    467.01429 0.0078908876 0.0059609103         3942 
 4933000   0.46612707   -9.7626241    467.53343 0.0078980577 0.0059587299         3926 
 4934000   0.45937379   -9.7821102    467.73284 0.0078998251 0.0059565497         3936 
 4935000   0.47550237    -9.759577    467.47317 0.0078938394 0.0059543709         3924 
 4936000   0.46139296   -9.7478916    467.86876 0.0078989189 0.0059521955         3931 
 4937000   0.46584031   -9.7569654    467.41866 0.0078897215 0.0059500192         3940 
 4938000   0.46786728   -9.7705171    467.48931 0.0078893161 0.0059478446         3931 
 4939000   0.46156916   -9.7689296    467.37037 0.0078857118 0.0059456708         3930 
 4940000   0.46439827   -9.7602432    467.68963 0.0078895011 0.0059434979         3934 
 4941000   0.45688931   -9.7705114    467.65266  0.007887281 0.0059413263         3935 
 4942000   0.46230934   -9.7696611    467.82626 0.0078886123 0.0059391562         3925 
 4943000   0.45694868    -9.769508    467.05698 0.0078740472 0.0059369855         3929 
 4944000   0.46319224   -9.7649512    466.70783 0.0078665694 0.0059348172         3932 
 4945000   0.45778974   -9.7809362    467.62165 0.0078803783 0.0059326492         3932 
 4946000   0.46875044   -9.7703529    468.02888 0.0078856463 0.0059304818         3938 
 4947000   0.45953818   -9.7568142     467.1608 0.0078694292 0.0059283169         3931 
 4948000   0.46978923   -9.7739707    467.63931 0.0078758979 0.0059261526         3937 
 4949000   0.45624866   -9.7737636    467.10696 0.0078653425 0.0059239898         3936 
 4950000   0.45601365   -9.7804249    467.52065  0.007870718 0.0059218279         3942 
 4951000   0.46606003   -9.7826721    467.18356 0.0078634546 0.0059196661         3928 
 4952000   0.46322936   -9.7742568    468.02073 0.0078759547 0.0059175047         3938 
 4953000   0.45826538   -9.7714781    467.74522 0.0078697291 0.0059153439         3930 
 4954000   0.46264765   -9.7815745    467.16367 0.0078583581 0.0059131856         3935 
 4955000   0.45628421   -9.7717618    466.81747 0.0078509496 0.0059110297         3928 
 4956000   0.46083691   -9.7836935    467.38284 0.0078588721  0.005908873         3928 
 4957000   0.45683144   -9.7723035    467.28513  0.007855644 0.0059067177         3928 
 4958000   0.45820535   -9.7574835    467.23006  0.007853134 0.0059045654         3933 
 4959000   0.46343444   -9.7874351    467.17749  0.007850667 0.0059024118         3937 
 4960000   0.45235973   -9.7775361    467.27624 0.0078507433 0.0059002612         3921 
 4961000   0.45274835   -9.7642634    466.75928  0.007840477 0.0058981111         3924 
 4962000   0.45285989   -9.7672878    466.71865 0.0078382146 0.0058959609         3933 
 4963000   0.44167927   -9.7720527    467.05711 0.0078423183 0.0058938115         3916 
 4964000   0.44659788   -9.7613094    467.17415 0.0078427032 0.0058916643         3920 
 4965000   0.46218618   -9.7746999    467.34146 0.0078439319 0.0058895178         3923 
 4966000    0.4553053    -9.772606    467.20001 0.0078399787  0.005887372         3925 
 4967000   0.46511172   -9.7774959    466.93728 0.0078339923 0.0058852273         3932 
 4968000   0.45707114   -9.7759027    467.03837 0.0078341112 0.0058830834         3930 
 4969000   0.45371513   -9.7777442    466.84359 0.0078292679 0.0058809412         3934 
 4970000   0.46834078   -9.7854384    467.14952 0.0078328222 0.0058787997         3935 
 4971000   0.45937846   -9.7838074    467.82013 0.0078424886 0.0058766598         3926 
 4972000   0.45606018   -9.7703841    466.85958  0.007824812 0.0058745202         3931 
 4973000   0.44767804   -9.7783148    467.24022  0.007829617 0.0058723834         3931 
 4974000   0.45455241   -9.7783493    467.39166   0.00783058 0.0058702457         3932 
 4975000   0.45537709    -9.773047    467.19628 0.0078257334 0.0058681086         3919 
 4976000   0.45546417   -9.7869716    466.81956 0.0078178517 0.0058659741         3933 
 4977000   0.45151644    -9.763384    467.57305 0.0078288971  0.005863839         3935 
 4978000   0.45591913   -9.7836606    467.29696 0.0078227026 0.0058617047         3940 
 4979000   0.45873193   -9.7722344    466.82438 0.0078132219 0.0058595717         3936 
 4980000   0.46060792   -9.7833704    466.88008  0.007812585 0.0058574413         3931 
 4981000   0.45884676   -9.7874158    467.24366 0.0078170994 0.0058553118         3931 
 4982000   0.45100029   -9.7684195    467.50223 0.0078198553 0.0058531831         3942 
 4983000   0.45240224    -9.781057    467.13457 0.0078121374 0.0058510569         3932 
 4984000   0.46263091   -9.7916237    466.81311 0.0078051952 0.0058489311         3929 
 4985000   0.45933391     -9.77075     467.6012 0.0078168038 0.0058468062         3925 
 4986000    0.4666795   -9.7721578    466.91512 0.0078037692  0.005844682         3924 
 4987000   0.44666361   -9.7830245    466.89757 0.0078019111 0.0058425574         3933 
 4988000   0.45438775   -9.7892037    467.02663 0.0078025031 0.0058404358         3924 
 4989000   0.45455143   -9.7771734    466.78428 0.0077968912 0.0058383142         3940 
 4990000     0.462162   -9.7763189    467.86928 0.0078134483 0.0058361947         3929 
 4991000    0.4606075   -9.7698887    466.91823 0.0077960033 0.0058340761         3935 
 4992000   0.45003953   -9.7929241    467.08894 0.0077972914 0.0058319591         3939 
 4993000   0.45122744   -9.7728426    466.97672 0.0077938568  0.005829842         3940 
 4994000   0.45665906   -9.7756231    466.67481 0.0077872583 0.0058277258         3938 
 4995000   0.44899034   -9.7921252    466.74883 0.0077869341 0.0058256098         3948 
 4996000   0.45422111   -9.7904535    466.33561  0.007778483 0.0058234961         3918 
 4997000   0.46237036    -9.795906    466.56272 0.0077807138 0.0058213834         3933 
 4998000   0.45809642   -9.7877884    467.61763 0.0077967458  0.005819272         3930 
 4999000   0.44806271    -9.784914     467.3974  0.007791515 0.0058171594         3940 
 5000000    0.4454973   -9.7864899    467.03729 0.0077839549 0.0058150503         3941 
 5001000    0.4489039   -9.7822154    467.78531 0.0077948628  0.005812942         3935 
 5002000    0.4446986   -9.7748026    466.70407  0.007775291 0.0058108349         3928 
 5003000   0.45827651   -9.7739354    466.72699 0.0077741186 0.0058087271         3931 
 5004000   0.45227514   -9.7844555    467.18455 0.0077801851  0.005806622         3929 
 5005000   0.44877949   -9.7635108    466.96425 0.0077749625 0.0058045169         3933 
 5006000   0.44068759   -9.7806161    467.23179 0.0077778631 0.0058024137         3934 
 5007000   0.43934526    -9.788222    467.29607 0.0077773795 0.0058003117         3925 
 5008000   0.44779191   -9.7943024    466.00141 0.0077542833 0.0057982101         3939 
 5009000   0.44829372   -9.7944314    466.53893 0.0077616778   0.00579611         3936 
 5010000   0.44318353   -9.7860816    467.15466 0.0077703703 0.0057940092         3930 
 5011000   0.44703777   -9.7961759    466.77169 0.0077624508 0.0057919104         3932 
 5012000   0.45096716   -9.7744867    467.54578 0.0077737727 0.0057898127         3941 
Loop time of 12795.3 on 48 procs for 5000000 steps with 4000 atoms

Performance: 67524.709 tau/day, 390.768 timesteps/s
99.4% CPU use with 48 MPI tasks x no OpenMP threads

MPI task timing breakdown:
Section |  min time  |  avg time  |  max time  |%varavg| %total
---------------------------------------------------------------
Pair    | 913.61     | 993.81     | 1093.4     | 148.0 |  7.77
Neigh   | 84.905     | 89.496     | 94.507     |  27.2 |  0.70
Comm    | 796.8      | 912.54     | 1016       | 187.4 |  7.13
Output  | 17.326     | 17.332     | 17.445     |   0.4 |  0.14
Modify  | 10618      | 10665      | 10709      |  22.1 | 83.35
Other   |            | 117.6      |            |       |  0.92

Nlocal:        83.3333 ave          91 max          75 min
Histogram: 1 6 1 8 2 10 12 2 3 3
Nghost:        2364.96 ave        2406 max        2331 min
Histogram: 2 6 1 13 6 9 3 4 3 1
Neighs:        16094.1 ave       19613 max       13561 min
Histogram: 4 3 8 8 8 9 4 1 1 2
FullNghs:      32187.0 ave       35700 max       28446 min
Histogram: 3 3 5 3 7 10 7 4 2 4

Total # of neighbors = 1544976
Ave neighs/atom = 386.24400
Neighbor list builds = 266340
Dangerous builds = 0

#clear
#
#next RN
#
#jump SELF
Total wall time: 3:33:18
