
units lj                  # Use reduced LJ style units
atom_style atomic         # Uncharged point particles
atom_modify map hash      # Needed for indexing of clusters etc
                          # Used to be able to find where atoms are in relation to each other.

lattice fcc 1.0 spacing 1 1 1
Lattice spacing in x,y,z = 1.5874011 1.5874011 1.5874011
region box block 0 10 0 10 0 10 units lattice
create_box 2 box
Created orthogonal box = (0.0000000 0.0000000 0.0000000) to (15.874011 15.874011 15.874011)
  3 by 4 by 4 MPI processor grid
create_atoms 1 box
Created 4000 atoms
  using lattice units in orthogonal box = (0.0000000 0.0000000 0.0000000) to (15.874011 15.874011 15.874011)
  create_atoms CPU = 0.006 seconds
set type 1 type/fraction 2 0.02 78393
Setting atom values ...
  77 settings made for type/fraction
mass 1 1.0
mass 2 1.0
pair_style lj/cut  3.5
pair_modify tail  yes
pair_coeff 1  1  1.0  1.0   # Intearaction between 1 and 1 set with epsilon = 1 and sigma = 1
pair_coeff 1  2  1.5  0.8
pair_coeff 2  2  0.5  0.88

write_data data.0
System init for write_data ...
Neighbor list info ...
  update every 1 steps, delay 10 steps, check yes
  max neighbors/atom: 2000, page size: 100000
  master list distance cutoff = 3.8
  ghost atom cutoff = 3.8
  binsize = 1.9, bins = 9 9 9
  1 neighbor lists, perpetual/occasional/extra = 1 0 0
  (1) pair lj/cut, perpetual
      attributes: half, newton on
      pair build: half/bin/atomonly/newton
      stencil: half/bin/3d
      bin: standard
WARNING: Not all mixed pair coeffs generated from mixing. Use write_data with 'pair ij' option to store all pair coeffs. (../write_data.cpp:312)


#############################
#   M E L T   S Y S T E M   #
#############################

velocity all create 2.4 8172548 mom yes dist gaussian # Assign velocities
                                                    # Temperature 2.4, random number seed, zero linear momentum
                                                                                # Gaussian distribution

timestep 0.002   # simulation timestep
thermo 1000       # output thermodynamic data every 1000 steps bf 100

# Define a fix  in this case with index 1 applied to all
# particles in the simulation. This fix is for simulations
# in the anisotropic NPT ensemble. Note that we use the MTK
# correction.
fix 1 all npt temp 2.4 2.4 0.1 iso 5.68 5.68 0.5 mtk yes tchain 5 pchain 5 # Use NPT ensemble
                                                                         # Set temperature and pressure and damping
                                                                         # Numbers of thermostats in chain and in barostat
run 10000          # run for 10000 steps
Per MPI rank memory allocation (min/avg/max) = 3.642 | 3.644 | 3.648 Mbytes
Step Temp E_pair E_mol TotEng Press Volume 
       0          2.4   -8.2581388            0   -4.6590388   -2.3989133         4000 
    1000    2.3638646   -4.4686638            0  -0.92375335    5.6238473    5123.2541 
    2000      2.40162   -4.4467823            0  -0.84525291    5.5266877    5157.5712 
    3000    2.4236861   -4.3479794            0  -0.71335919     5.754954    5190.2973 
    4000    2.4587979   -4.4057568            0  -0.71848197    5.7721116    5150.6294 
    5000    2.3724807   -4.3953024            0  -0.83747106    5.9208685    5112.9486 
    6000    2.3897447   -4.4068117            0  -0.82309085    5.9669372    5126.0065 
    7000    2.3791937   -4.4413189            0  -0.87342063    5.7882467    5118.7479 
    8000    2.3899758    -4.405263            0  -0.82119561    5.7355428    5154.2496 
    9000    2.4025435   -4.3985342            0  -0.79561981    5.9370724    5134.7034 
   10000    2.3883257   -4.3459335            0  -0.76434056    5.8577379     5162.786 
Loop time of 2.09873 on 48 procs for 10000 steps with 4000 atoms

Performance: 823356.347 tau/day, 4764.794 timesteps/s
99.5% CPU use with 48 MPI tasks x no OpenMP threads

MPI task timing breakdown:
Section |  min time  |  avg time  |  max time  |%varavg| %total
---------------------------------------------------------------
Pair    | 0.84782    | 0.91377    | 0.96699    |   2.8 | 43.54
Neigh   | 0.16743    | 0.17376    | 0.18706    |   0.9 |  8.28
Comm    | 0.65647    | 0.73778    | 0.80847    |   4.3 | 35.15
Output  | 0.00024349 | 0.00025003 | 0.00040205 |   0.0 |  0.01
Modify  | 0.22582    | 0.25927    | 0.29921    |   4.2 | 12.35
Other   |            | 0.01389    |            |       |  0.66

Nlocal:        83.3333 ave          95 max          75 min
Histogram: 1 2 9 10 6 14 3 1 0 2
Nghost:        1387.35 ave        1429 max        1368 min
Histogram: 7 7 14 8 4 4 0 2 0 2
Neighs:        7366.94 ave        8645 max        6383 min
Histogram: 1 3 4 14 15 4 2 3 1 1

Total # of neighbors = 353613
Ave neighs/atom = 88.403250
Neighbor list builds = 909
Dangerous builds = 242

# Equilibrate just above the melting temperature to avoid step fn in T

fix 1 all npt temp 1.25 1.25 0.1 iso 5.68 5.68 0.5 mtk yes tchain 5 pchain 5
run 2000
Per MPI rank memory allocation (min/avg/max) = 3.643 | 3.644 | 3.648 Mbytes
Step Temp E_pair E_mol TotEng Press Volume 
   10000    2.3883257   -4.3459335            0  -0.76434056    5.8577379     5162.786 
   11000    1.2540736    -5.925051            0   -4.0444109    5.8058387    4260.7498 
   12000    1.2676793   -5.9049375            0    -4.003894     5.750997    4274.1841 
Loop time of 0.44595 on 48 procs for 2000 steps with 4000 atoms

Performance: 774974.003 tau/day, 4484.803 timesteps/s
99.6% CPU use with 48 MPI tasks x no OpenMP threads

MPI task timing breakdown:
Section |  min time  |  avg time  |  max time  |%varavg| %total
---------------------------------------------------------------
Pair    | 0.19805    | 0.20953    | 0.22223    |   1.2 | 46.98
Neigh   | 0.030207   | 0.031513   | 0.03255    |   0.3 |  7.07
Comm    | 0.1339     | 0.15289    | 0.16519    |   1.7 | 34.28
Output  | 4.9477e-05 | 5.1033e-05 | 7.411e-05  |   0.0 |  0.01
Modify  | 0.04179    | 0.047634   | 0.05612    |   1.6 | 10.68
Other   |            | 0.004333   |            |       |  0.97

Nlocal:        83.3333 ave          89 max          76 min
Histogram: 4 0 1 9 4 7 9 5 4 5
Nghost:        1579.17 ave        1615 max        1558 min
Histogram: 4 3 11 12 7 4 4 2 0 1
Neighs:        8910.81 ave        9652 max        8071 min
Histogram: 3 2 1 9 6 6 10 3 5 3

Total # of neighbors = 427719
Ave neighs/atom = 106.92975
Neighbor list builds = 141
Dangerous builds = 13

#############################
# L I N E A R  Q U E N C H  #
#############################

# Define solid atoms. This closely follows ten Wolde  Ruiz-Montero and Frenkel  Faraday Discuss  1996  104  93-110
# Compute components of the per-atom q6 vector
compute q6 all orientorder/atom degrees 1 6 components 6 nnn NULL cutoff 1.3 # compute the Q6 parameter.
                                                                             # Use all neighbours within 1.3 unit cell.

# get number of connections
compute coord_number all coord/atom orientorder q6 0.5

# An atom is solid if it has 8 or more connections (of a possible 14)
variable is_solid atom c_coord_number>=8
group solid dynamic all var is_solid    # Must be dynamic to update
dynamic group solid defined

# do clustering
compute cluster solid cluster/atom 1.3 # Create a cluster where all atoms within are solid and max 1.3 units from another member

# define chunks one chunk per cluster
compute clus_chunks solid chunk/atom c_cluster nchunk every compress yes  # Says which atoms are in which chunk

# count the size of each chunk
compute size_chunks solid property/chunk clus_chunks count


# Find the maximum entry in the vector of chunk sizes
variable max_n equal max(c_size_chunks)


# Thermo style which includes this variable
# thermo_style custom step temp pe vol v_max_n

thermo ${N}  # Print the thermo information every 100 steps
thermo 1000  

# Reset the npt fix at a lower temperature (below freezing)
fix 1  all npt temp  ${temp} ${temp}  0.1  iso  5.68  5.68  0.5  mtk yes tchain  5  pchain  5
fix 1  all npt temp  0.45 ${temp}  0.1  iso  5.68  5.68  0.5  mtk yes tchain  5  pchain  5
fix 1  all npt temp  0.45 0.45  0.1  iso  5.68  5.68  0.5  mtk yes tchain  5  pchain  5

dump dmp2 all dcd ${N} traj.dcd
dump dmp2 all dcd 1000 traj.dcd


compute msd all msd com yes
variable twopoint equal c_msd[4]/6/(step*dt+1.0e-6)
fix 9 all vector 10 c_msd[4]
variable fit equal slope(f_9)/6/(10*dt)
thermo_style custom step temp pe c_msd[4] v_twopoint v_fit v_max_n

fix 1 all npt temp 1.25 ${temp} 0.1 iso 5.68 5.68 0.5 mtk yes tchain 5 pchain 5
fix 1 all npt temp 1.25 0.45 0.1 iso 5.68 5.68 0.5 mtk yes tchain 5 pchain 5
run 5000000 # 5000000  # Run for this many steps
Neighbor list info ...
  update every 1 steps, delay 10 steps, check yes
  max neighbors/atom: 2000, page size: 100000
  master list distance cutoff = 3.8
  ghost atom cutoff = 3.8
  binsize = 1.9, bins = 9 9 9
  4 neighbor lists, perpetual/occasional/extra = 1 3 0
  (1) pair lj/cut, perpetual
      attributes: half, newton on
      pair build: half/bin/atomonly/newton
      stencil: half/bin/3d
      bin: standard
  (2) compute orientorder/atom, occasional
      attributes: full, newton on
      pair build: full/bin/atomonly
      stencil: full/bin/3d
      bin: standard
  (3) compute coord/atom, occasional
      attributes: full, newton on
      pair build: full/bin/atomonly
      stencil: full/bin/3d
      bin: standard
  (4) compute cluster/atom, occasional
      attributes: full, newton on
      pair build: full/bin/atomonly
      stencil: full/bin/3d
      bin: standard
Per MPI rank memory allocation (min/avg/max) = 9.732 | 9.738 | 9.744 Mbytes
Step Temp PotEng c_msd[4] v_twopoint v_fit v_max_n 
   12000    1.2676793   -5.9049375 8.7090244e-31 6.0479334e-33 8.3333333e+20            4 
   13000     1.245253   -5.9052504   0.53931043  0.003457118  0.043917504            2 
   14000    1.2438645   -5.9062169    1.0994394 0.0065442819  0.045493441            2 
   15000    1.2455972   -5.8826267    1.6553019 0.0091961214  0.045810102            2 
   16000    1.2485559   -5.8722003    2.1976111  0.011445891   0.04625617            3 
   17000     1.251162   -5.9089818    2.7010342  0.013240363  0.045679666            2 
   18000    1.2425876   -5.9391244     3.261732  0.015100611  0.045300287            3 
   19000    1.2326803   -5.9037512    3.8391917   0.01683856  0.045441894            2 
   20000    1.2584584   -5.8936329    4.3915482  0.018298117  0.045470209            5 
   21000    1.2902443   -5.9067703    4.9912834   0.01980668  0.045697112            4 
   22000    1.2176915   -5.9342127     5.613223  0.021262208  0.046152045            3 
   23000    1.2695002   -5.9106213    6.3323472  0.022943287  0.046837328            6 
   24000    1.2557175   -5.9148303     6.871679  0.023859996  0.047406931            3 
   25000    1.2257529   -5.9419958      7.32879  0.024429299  0.047569985            2 
   26000    1.2605502   -5.8918905    7.7623735  0.024879402  0.047370908            3 
   27000    1.2773546   -5.8951341    8.2931254  0.025596066  0.047072389            7 
   28000    1.2482617   -5.9115791    8.8199043  0.026249715  0.046775225            1 
   29000    1.2558002   -5.9116426    9.4679673  0.027206802    0.0466184            2 
   30000    1.2314577   -5.9079578    10.034642  0.027874005  0.046645015            3 
   31000    1.2627713   -5.9206355    10.675317  0.028697087  0.046659791            2 
   32000    1.2371249   -5.8933708    11.265021  0.029335991  0.046753753            2 
   33000    1.2376268   -5.9479246     11.86631   0.02996543  0.046836719            2 
   34000     1.276007   -5.8909532    12.486505  0.030604179  0.046966068            4 
   35000    1.2338673   -5.8521451    12.922315  0.030767416  0.047017986            3 
   36000    1.2405135   -5.9126219    13.439097   0.03110902  0.047009312            6 
   37000    1.2439239    -5.890835    13.864052  0.031225343  0.046935535            2 
   38000    1.2739543    -5.912102    14.334709  0.031435766  0.046801409            6 
   39000    1.2334463   -5.9422048    14.944757  0.031933242  0.046656662            5 
   40000    1.2405742   -5.9365884    15.602048  0.032504267  0.046591212            2 
   41000    1.2164275    -5.888585    16.212971  0.032953193  0.046604135            3 
   42000    1.2714855   -5.9445153    16.528973  0.032795582  0.046518128            3 
   43000    1.2157876   -5.9246029    17.199243  0.033331865  0.046420804            2 
   44000    1.2450084   -5.9175445    17.629803  0.033389778  0.046343469            2 
   45000    1.2326366   -5.8959279    18.228828  0.033757089  0.046274225            2 
   46000    1.2792587   -5.9215553    18.876314  0.034196221  0.046243743            3 
   47000    1.2478099   -5.9009431    19.628905  0.034803023  0.046277275            2 
   48000    1.2636268    -5.923147    20.242709  0.035143591  0.046345357            2 
   49000    1.2219141   -5.9226562    20.777813  0.035336416  0.046418567            2 
   50000    1.2131885   -5.8947454    21.489463  0.035815772  0.046513493            5 
   51000    1.2364784   -5.8655315     21.96146  0.035884739  0.046597731            4 
   52000    1.2436358   -5.9163389    22.639417  0.036281117  0.046685145            4 
   53000    1.2692178   -5.9559223    23.170408  0.036431459  0.046765135            2 
   54000    1.2501448   -5.9362991    23.766554   0.03667678  0.046837021            2 
   55000    1.2289287   -5.9316197    24.470638  0.037076724  0.046912366            2 
   56000    1.2252563   -5.8752254    25.376275  0.037762313  0.047039979            2 
   57000    1.2250135   -5.9088171    25.844165  0.037783866  0.047168812            3 
   58000    1.2335074   -5.9491367    26.368354  0.037885566  0.047286338            2 
   59000    1.2313412   -5.8945302    26.975939  0.038101609  0.047374026            2 
   60000    1.2104609   -5.9729572    27.372386  0.038017203  0.047442665            3 
   61000    1.2143168   -5.9290896    27.966696  0.038205868  0.047495619            4 
   62000     1.261581   -5.9260196    28.732301  0.038618684  0.047560095            3 
   63000    1.2515275   -5.9293995    29.196047   0.03861911  0.047617893            5 
   64000    1.2704487   -5.9422362    29.577309  0.038512121  0.047645772            6 
   65000    1.2394345   -5.8850782    30.094105  0.038582185  0.047663201           10 
   66000     1.253999    -5.941589    30.545376  0.038567394  0.047656263            3 
   67000    1.2288485   -5.9314877    31.067396   0.03864104  0.047630953            2 
   68000     1.224209   -5.8955121    31.691848  0.038838049  0.047615386            3 
   69000    1.2016109    -5.896559    32.615772  0.039391028   0.04762161            3 
   70000    1.2354334   -5.9431433    33.163145  0.039479935   0.04765426            3 
   71000    1.2470934   -5.9473109    33.769273  0.039635297  0.047688488            5 
   72000    1.2282259   -5.8970429    34.124301  0.039495719  0.047701631            3 
   73000    1.2422597   -5.9093519    34.804841  0.039731554  0.047704499            2 
   74000     1.217933   -5.9400139    35.238684  0.039683203  0.047703574            2 
   75000    1.2790627   -5.9303293    35.699692  0.039666324  0.047698978            5 
   76000    1.2594145   -5.8884654    36.216162  0.039710704  0.047677393            5 
   77000    1.2429205   -5.9420311    36.758655  0.039782094  0.047653338            4 
   78000    1.2498245   -5.9501029    37.087731  0.039623644  0.047619032            2 
   79000    1.2234446   -5.9174439    37.528384  0.039586902  0.047564005            3 
   80000    1.2422891   -5.9252243    37.902903  0.039482191   0.04748979            3 
   81000    1.2342569   -5.9589249    38.480632  0.039589127  0.047421747            3 
   82000    1.2233015   -5.9137256    39.118628  0.039754703   0.04736725            2 
   83000    1.2190064   -5.9551516    39.644964   0.03980418  0.047316923            4 
   84000    1.2496694   -5.9689798    40.260743  0.039941213  0.047265147            3 
   85000    1.2537863   -5.9238204    40.867414  0.040066092   0.04721898            4 
   86000    1.2502157    -5.888402    41.504548  0.040217585   0.04717881            5 
   87000    1.2255656   -5.9466266    41.764164  0.040003988  0.047136515            6 
   88000    1.2332455   -5.9374038    42.465857  0.040213879  0.047084724            5 
   89000    1.2404673    -5.933497    43.035763  0.040295658  0.047039984            8 
   90000    1.2351899   -5.9433306    43.413285  0.040197486  0.046998275            3 
   91000    1.2522697   -5.9014075    43.996777  0.040290089  0.046955821            3 
   92000    1.2270962   -5.9448592    44.561705  0.040363863  0.046919132            3 
   93000    1.2603398   -5.9388951    45.110053  0.040421194  0.046889477            2 
   94000     1.249631   -5.9440617    45.593351  0.040419638  0.046858357            3 
   95000    1.2462792   -5.8987949    46.246221   0.04056686  0.046824562            2 
   96000    1.2439882   -5.9364204    46.809668  0.040633392  0.046788096            5 
   97000    1.2494871    -5.952261    47.404275  0.040725322  0.046754388            3 
   98000    1.2417733   -5.9346868    47.768925  0.040619834  0.046725028            4 
   99000     1.236813   -5.9288874    48.093307  0.040482582  0.046689392            7 
  100000    1.2454573   -5.9345949     48.70311  0.040585925  0.046646321            4 
  101000    1.2381078   -5.9444048    49.140938  0.040545328  0.046601486            2 
  102000    1.2572356   -5.9154914    49.826116  0.040707611   0.04656174            4 
  103000    1.2415822   -5.9288379    50.125712  0.040554783  0.046515181            4 
  104000    1.2215393   -5.9160716     50.72244  0.040642981  0.046476659            5 
  105000    1.2538256   -5.9097741    51.318499  0.040728968  0.046439408            3 
  106000    1.2384266   -5.9908997    51.712783  0.040654704  0.046398745            3 
  107000    1.2477193   -5.9579673    52.513961  0.040898724  0.046360889            1 
  108000    1.2695361   -5.9477244    52.910967  0.040826363  0.046324793            5 
  109000    1.2294485   -5.9295783    53.539734  0.040932518  0.046297118            4 
  110000    1.2433398   -5.9305829    54.102418   0.04098668  0.046271497            6 
  111000    1.2581225   -5.9389393    54.347509  0.040801433  0.046243215            3 
  112000    1.2179088   -5.9153297    55.067143  0.040972576  0.046206638            3 
  113000    1.2388918    -5.931955    55.594818  0.040999128  0.046175164            4 
  114000    1.2254642   -5.9266487    56.337189  0.041182156  0.046146117            2 
  115000    1.2808855   -5.8831537     56.82115  0.041174746  0.046123171            4 
  116000    1.2496824    -5.914042    57.164746  0.041066628  0.046098724            3 
  117000    1.1993425   -5.9539679    57.631402  0.041048007  0.046065345            3 
  118000    1.2191279   -5.9134941    58.547806  0.041347321  0.046039004            3 
  119000    1.2277777   -5.9515037    59.166948  0.041433437  0.046018145            2 
  120000    1.2121348   -5.9252728    59.410075  0.041256996  0.046000553            2 
  121000    1.2231901   -5.9337258    59.974768  0.041304937  0.045985631            4 
  122000    1.2382311   -5.9660979    60.606577  0.041397935  0.045969573            1 
  123000    1.2701166   -5.9038593    61.241049  0.041491226  0.045953088            3 
  124000    1.2182543   -5.9448334    61.798628  0.041531336  0.045936311            4 
  125000    1.2274253   -5.9467921    62.009469  0.041339646  0.045919455            2 
  126000    1.2143562   -5.9229511    62.843482  0.041563149  0.045906793            3 
  127000      1.22044   -5.9556832    63.253923  0.041505199  0.045893497            4 
  128000    1.2603599   -5.9458571    63.958423  0.041639598   0.04588022            2 
  129000    1.2428362   -5.9554641    64.527398  0.041684365  0.045868844            2 
  130000    1.2261866   -5.9251012    64.825012  0.041554495  0.045850345            7 
  131000    1.2444428   -5.9182095    65.508195   0.04167188  0.045832094            2 
  132000    1.2217145   -5.9705322    65.906713  0.041607773  0.045814824            2 
  133000     1.247328   -5.9714448    66.293429  0.041537236  0.045796937            5 
  134000     1.205572   -5.9370336     66.82646  0.041558744  0.045780811            3 
  135000     1.216769   -5.9502657    67.522906  0.041680806   0.04576194            6 
  136000    1.2382377   -5.9825064    67.759989  0.041519601  0.045740764            2 
  137000     1.217843     -5.96723    67.934534  0.041322709  0.045714749            4 
  138000    1.2339066   -5.9547025    68.587286  0.041417443  0.045687256            3 
  139000    1.2427442   -5.9816481    69.090472  0.041421146  0.045657548            6 
  140000    1.2124467   -5.9780183    69.788465  0.041540753  0.045631659            3 
  141000    1.2114152   -5.9470044    70.584111  0.041716378  0.045609147            5 
  142000    1.2408938   -5.9152407    71.194657  0.041780902  0.045590933            3 
  143000    1.2425387   -5.9576939    71.624708   0.04173934  0.045574326            3 
  144000    1.2181824   -5.9288282    72.230659   0.04180015  0.045560152            2 
  145000    1.2171005   -5.9232259    72.939001  0.041918966  0.045547574            3 
  146000     1.219801   -5.9062997    73.536648  0.041972973  0.045536861            5 
  147000    1.2446542   -5.9538889    73.944368  0.041918576  0.045529564            8 
  148000      1.22184   -5.9207746    74.833699  0.042136092  0.045524751            4 
  149000     1.246759   -5.9268101    75.229403   0.04207461  0.045521743            4 
  150000    1.2008053   -5.9610936    75.800745  0.042111525  0.045521179            4 
  151000    1.2476826   -5.9470474     76.56785  0.042255988  0.045520388            2 
  152000    1.2151119   -5.9546855    76.940916   0.04218252   0.04552144            2 
  153000    1.2477598   -5.9717152    77.256341  0.042078617  0.045518984            5 
  154000    1.2366753   -5.9609332    77.777094  0.042087172  0.045511585            3 
  155000    1.2099778   -5.9300617    78.053117  0.041964041  0.045499037            2 
  156000    1.2549069   -5.9306994    78.575363  0.041974019  0.045483605            4 
  157000    1.2045702   -5.9303217    79.195022  0.042035574  0.045468761            2 
  158000     1.237172    -5.988695    79.532059  0.041947288  0.045453256            7 
  159000     1.254481   -5.9536569    80.323415  0.042098226  0.045440959            3 
  160000    1.2418405   -5.9393151    80.392667   0.04187118  0.045428008            5 
  161000    1.2408751   -5.9159014     81.37718  0.042120693  0.045414082            1 
  162000    1.2495687   -5.9506518    81.725554  0.042039894  0.045399039            6 
  163000    1.2112742   -5.9451538    82.240082  0.042045032  0.045386257            2 
  164000    1.2144774   -5.9368066    82.867406  0.042107421  0.045370279            4 
  165000     1.195311   -5.9265302       83.286  0.042063636  0.045357625            3 
  166000    1.2196876   -5.9692318    83.720979  0.042028604  0.045342301            4 
  167000    1.2271725   -5.9736535     83.73092  0.041781896  0.045320393            5 
  168000    1.2166662   -5.9365009    84.494112  0.041911762  0.045296251            3 
  169000    1.2374887   -5.9079332    85.246642  0.042034833  0.045275192            3 
  170000    1.2375562   -5.9615659     85.24862  0.041788539  0.045251734            3 
  171000    1.2617396   -5.9376079    85.828313  0.041826663  0.045227158            3 
  172000    1.2419736   -5.9459952    86.276026    0.0418004  0.045204307            4 
  173000    1.2363528   -5.9501112     86.97329  0.041894648  0.045182052            3 
  174000    1.2216761   -5.9282946     87.74885  0.042025311  0.045161681            9 
  175000     1.207937   -5.9079058    88.601954  0.042191407  0.045145397            3 
  176000    1.2451627   -5.9131985    89.014917  0.042147214  0.045133546            4 
  177000    1.2263223   -5.9584143    89.689096  0.042226504  0.045122759            6 
  178000    1.2262171   -5.9895857    90.472007  0.042355808   0.04511628            1 
  179000    1.2188113   -5.9305301    90.779696  0.042262428  0.045110693            7 
  180000    1.2147404   -5.9859779      91.5377  0.042378565  0.045107973           12 
  181000    1.2361662   -5.9921181    92.089185  0.042398335  0.045108007            2 
  182000    1.2371868   -5.9452929    92.961918  0.042564981  0.045110675            4 
  183000     1.230897   -5.9408774    93.437487  0.042548946  0.045116569            3 
  184000    1.2327035   -5.9731866     94.16556  0.042647446  0.045123756            3 
  185000    1.2449566    -5.983347     94.74361  0.042677302  0.045129975            5 
  186000    1.2175305   -5.9324369     95.59803  0.042830659  0.045136707            3 
  187000    1.2293723   -5.9473257    95.893726  0.042733389  0.045143023            2 
  188000    1.2335404   -5.9349875    96.364693  0.042714846  0.045147238            5 
  189000    1.2093326   -5.9065818    96.687577  0.042631207    0.0451479            3 
  190000    1.2184799   -5.9325774    97.575313   0.04279619  0.045150883            3 
  191000    1.2019075   -5.9361596    98.212504  0.042850132  0.045155322            3 
  192000    1.2115167   -5.9878453    98.261264  0.042648118  0.045158957            4 
  193000    1.1950766   -5.9790846    99.044098  0.042765154  0.045158313            3 
  194000    1.2096618   -5.9299463    99.709999  0.042830755  0.045159742            3 
  195000    1.2349686   -5.9531541    99.882629  0.042684884  0.045163018            9 
  196000    1.2282574   -5.9159967    100.78711  0.042851662  0.045164613            3 
  197000    1.2058933   -5.9687888    101.05191  0.042746154  0.045163445            3 
  198000    1.2410757     -5.96697    101.36785  0.042663239  0.045161877            5 
  199000    1.2034274   -5.9679831    102.42377  0.042891027  0.045161224            1 
  200000    1.2392462   -5.9982122    102.93846  0.042891024  0.045161721            4 
  201000    1.2358772   -5.9709183    103.16341    0.0427709  0.045160552            3 
  202000    1.2508152   -5.9457639    103.14248  0.042550527   0.04515908            3 
  203000    1.2175826   -5.9903183    103.89659  0.042650488  0.045155749            2 
  204000    1.2328314   -5.9563003    104.71919  0.042777448  0.045151047            3 
  205000    1.2377604   -6.0012348    105.27325  0.042794002  0.045147357            4 
  206000     1.236524   -5.9473929    105.77418  0.042788907  0.045145575            5 
  207000    1.2285644   -5.9288661    106.51642  0.042881006  0.045145385            2 
  208000    1.2171185   -5.9336457     107.5275  0.043079929  0.045148552            2 
  209000    1.2017883   -5.9560723    107.77602  0.042972894  0.045153721            3 
  210000    1.2297643   -5.9829073    108.63119  0.043107615  0.045157778            2 
  211000    1.2367262   -5.9709392    108.69898  0.042930087  0.045160655            5 
  212000    1.2294571   -5.9819191    109.14073  0.042901229  0.045159341            2 
  213000    1.2168334   -5.9730411     109.1694  0.042711031  0.045156274            5 
  214000    1.2223732   -5.9472073    110.33224  0.042964267  0.045154009            4 
  215000    1.2321617   -5.9533124    110.68582  0.042901479  0.045153866            2 
  216000    1.2003141   -5.9423325    111.24525  0.042918691  0.045151446            8 
  217000    1.1989363   -5.9926818     111.3373   0.04275626  0.045147871            2 
  218000    1.2082516   -5.9621464    111.83529  0.042750492  0.045143684            4 
  219000    1.2413771   -5.9462757    113.15152  0.043056135  0.045138044            3 
  220000    1.2183698   -5.9681185    113.34939  0.042935373  0.045135722            2 
  221000    1.2046944   -5.9955747    113.26814  0.042710458  0.045131304            9 
  222000    1.2096194   -5.9517425    114.48606  0.042975249  0.045126879            3 
  223000    1.2050187   -5.9575345    114.77557  0.042890723  0.045122137            4 
  224000    1.2111964   -5.9465114    114.93607  0.042758954  0.045117688            3 
  225000    1.2152427   -5.9833161    115.79706  0.042887801  0.045114383            3 
  226000    1.2252659   -5.9210371     116.7563  0.043051734  0.045113219            2 
  227000    1.2013304   -5.9417795     117.6251  0.043181022  0.045112632            3 
  228000    1.1856032   -5.9588519    118.23088  0.043213039  0.045115175            5 
  229000    1.2100217   -5.9699526    118.53022  0.043133267  0.045116841            3 
  230000    1.2174727   -5.9458022    118.95641   0.04310015  0.045117713            6 
  231000    1.2126257   -5.9655458    119.71063  0.043185651  0.045117991            4 
  232000    1.2070034   -5.9692687    119.84246  0.043046862  0.045117699            3 
  233000    1.2187649   -5.9341771    120.55796  0.043118011    0.0451189            3 
  234000    1.2005751   -5.9600678    121.06238  0.043113385  0.045120421            2 
  235000    1.2294602   -5.9783771    121.42095  0.043057074   0.04512042            8 
  236000    1.2262673   -5.9594156    121.82765  0.043018238  0.045119044            5 
  237000     1.221948   -5.9448724    122.59838  0.043107729  0.045116207            2 
  238000    1.2147351   -5.9372639    123.04939   0.04308452  0.045114943            5 
  239000    1.2074803   -5.9755268    123.11774  0.042928083  0.045111265            4 
  240000    1.1993205   -5.9660119    123.70067  0.042951623  0.045105961            2 
  241000    1.2001196   -5.9182577    124.65272  0.043102601  0.045103556            8 
  242000    1.2030655   -5.9849959    124.81619  0.042980783  0.045099334            6 
  243000    1.2140661   -5.9497905    125.42086  0.043011269  0.045095777            3 
  244000    1.2089688   -5.9413491    126.05875  0.043052853  0.045092416            4 
  245000    1.1977777    -5.934193    127.07604  0.043223143  0.045088431            4 
  246000    1.2003346   -5.9543658    126.82311  0.042961758  0.045082706            5 
  247000    1.2266582   -5.9342067    127.80207  0.043118106  0.045077192            6 
  248000    1.1990998   -5.9881548    127.65057  0.042893335  0.045070629            5 
  249000    1.2102595   -5.9848221    128.00668  0.042840254  0.045062972            4 
  250000    1.2246928   -5.9562382    128.49233  0.042830775  0.045054619            3 
  251000    1.1973392   -5.9468031    128.92837  0.042804905  0.045044225            2 
  252000    1.1984785    -5.965855    129.59917  0.042856869  0.045034945            3 
  253000    1.2006002   -5.9885959    130.27037  0.042908555  0.045027515            4 
  254000    1.2305048   -5.9747214    131.40926  0.043113274  0.045021292            3 
  255000    1.1992081   -5.9894524    131.12738  0.042852086  0.045014513            3 
  256000    1.2552005   -5.9906566    131.32542  0.042749161  0.045005055            3 
  257000    1.2156886   -5.9857915    132.53005  0.042973427  0.044996065            2 
  258000    1.2284669   -5.9487811    132.82646  0.042902605  0.044989141            3 
  259000    1.2016104   -5.9580113    133.09355  0.042822893  0.044982544            5 
  260000    1.2441838   -5.9675615    134.62599  0.043149355  0.044975881            5 
  261000    1.2014514   -5.9706086    135.02292  0.043110767  0.044971589            8 
  262000    1.1928238   -5.9751924    135.47347  0.043089526  0.044967124            6 
  263000    1.2287945   -5.9626846    135.85691  0.043047182  0.044963499            3 
  264000    1.2542113   -6.0064743    136.56561   0.04310783  0.044962061            4 
  265000    1.2281514   -5.9526885    136.94568  0.043064679   0.04495833            3 
  266000    1.1944032   -5.9741892    137.54515  0.043090585  0.044953336            4 
  267000    1.1970946   -5.9799961      137.825  0.043016543  0.044948539            4 
  268000    1.2246551   -5.9894308    138.58873  0.043093512  0.044941743            3 
  269000    1.1950063   -5.9967347    138.84672  0.043013235  0.044935556            3 
  270000    1.2557521   -5.9542701    139.31029  0.042997002  0.044930703            3 
  271000    1.2051777   -5.9893697    139.97494  0.043042725  0.044925556            3 
  272000    1.2090545   -5.9833068    140.17577  0.042946009  0.044920349            5 
  273000    1.2006727   -5.9800277     140.7464  0.042962883  0.044914312            7 
  274000     1.217863   -5.9756986    141.37732  0.042997967  0.044909119            5 
  275000    1.1833851   -5.9898293    142.29716   0.04312035  0.044903904            5 
  276000    1.2040616   -6.0000166    142.44838  0.043009777   0.04489926            7 
  277000    1.1975861   -6.0040479    142.96902  0.043011136  0.044893774            3 
  278000    1.2161675   -5.9978863     143.8529  0.043121372  0.044886319            4 
  279000    1.2128272   -5.9481199    143.93365  0.042990934  0.044878871            3 
  280000    1.2379278   -5.9487848    144.54764  0.043020131  0.044870842            2 
  281000    1.2043393   -5.9811981    144.94837  0.042985874   0.04486417            2 
  282000    1.2133975     -5.98884    144.85141  0.042804791   0.04485774            2 
  283000    1.1939597   -5.9968558    145.71779  0.042908654  0.044850311            3 
  284000    1.2212232   -5.9868922    146.06406  0.042859174  0.044841117            3 
  285000    1.1950878   -5.9508372    146.83416  0.042933966  0.044832246            2 
  286000    1.1959253   -5.9581843    146.76222  0.042762883  0.044821686            5 
  287000    1.1939304   -5.9943674    147.00922  0.042685605  0.044809988            7 
  288000     1.206392   -5.9497858    148.10259   0.04285376  0.044798001            3 
  289000    1.1701407   -5.9696669    148.55571  0.042836133  0.044787431            6 
  290000    1.2263238   -5.9941228    149.02798  0.042824133  0.044776793            5 
  291000    1.2218321   -6.0134308    148.55733  0.042542191  0.044764846            7 
  292000    1.1941771   -5.9976178    149.64934  0.042708146  0.044753955            3 
  293000    1.1898521   -5.9943678    150.62477   0.04283981  0.044743366            5 
  294000     1.208258   -5.9522081    150.69433  0.042713813  0.044732327            3 
  295000    1.2054709   -5.9713653    150.94926  0.042641034  0.044719759            3 
  296000    1.2079216   -5.9845325    151.57164  0.042672195  0.044707251            3 
  297000    1.1881804     -5.96549    152.59405  0.042815389  0.044696363            3 
  298000    1.2001541   -5.9706112    153.31064  0.042872102  0.044687298            3 
  299000    1.2199903   -5.9763408    153.47862  0.042775535  0.044678154            4 
  300000    1.2071169   -5.9852923     154.1448     0.042818  0.044669141            5 
  301000    1.2080436   -5.9891161     154.7198  0.042834939  0.044660538            2 
  302000    1.2011056   -6.0252748    155.36396  0.042870851   0.04465343            2 
  303000    1.1892184   -5.9823214     156.1083  0.042934077  0.044646103            2 
  304000    1.1998345   -5.9801636    156.22558  0.042824993  0.044636835            5 
  305000    1.1787616   -5.9844317    156.72867   0.04282204  0.044628258            4 
  306000    1.2119426   -5.9856611    156.67065  0.042666298  0.044619033            6 
  307000    1.1776245   -6.0150148     157.3135  0.042701817   0.04460972            5 
  308000    1.1906089   -5.9978868    158.48249  0.042879462  0.044600655            6 
  309000    1.2111363    -6.037837     157.9058  0.042585167  0.044590186            3 
  310000    1.1818019   -6.0015391    158.68835  0.042658157  0.044578851            2 
  311000    1.1876455    -5.968651    159.49236  0.042736432  0.044567527            4 
  312000    1.2203945   -5.9872524    160.08368  0.042757393  0.044556661            2 
  313000    1.2100946   -5.9749636    160.61033  0.042761004  0.044546482            2 
  314000    1.1817768   -6.0012281    160.91628  0.042706019  0.044534217            4 
  315000    1.2251727   -6.0044768    161.34314   0.04268337  0.044523083            4 
  316000    1.1876208    -6.006243     161.5859  0.042612316  0.044509898            4 
  317000    1.1848659     -5.98505    161.82005  0.042539446  0.044497838            3 
  318000    1.2054479   -5.9882925    163.20135  0.042767649  0.044486119            5 
  319000    1.2033446   -5.9414678    164.16304  0.042884807  0.044476855            3 
  320000    1.1988872   -6.0031996     164.4346   0.04282151  0.044467787            2 
  321000     1.216547   -5.9809265    164.72254  0.042762862  0.044459351            4 
  322000    1.2080747   -5.9947257    164.92618  0.042682759  0.044451078            3 
  323000     1.183838   -6.0091695     165.4022  0.042673427  0.044442376            7 
  324000    1.2371742   -5.9878962    166.71052  0.042878219  0.044433622            3 
  325000    1.1937147   -5.9646214      167.383  0.042918717  0.044424853            6 
  326000    1.1893249   -5.9808662    167.25036   0.04275316  0.044417252            4 
  327000    1.2145707   -6.0490045    167.86167  0.042778203  0.044408949            5 
  328000    1.1959913   -5.9997826    168.49374  0.042808368  0.044400818            2 
  329000    1.2138432   -6.0153112    168.64837   0.04271742  0.044392569            4 
  330000    1.1975604   -5.9895531    170.07752   0.04294887  0.044384728            5 
  331000    1.2075861    -5.990284    170.09002  0.042822262  0.044377425            5 
  332000    1.1932629   -5.9912024    170.45537  0.042784981  0.044369526            6 
  333000    1.1950274   -6.0186447    171.00274  0.042793478   0.04436159            3 
  334000    1.2113024   -6.0316215    171.89949  0.042889094  0.044356063            3 
  335000    1.2101524   -5.9835778    172.49476  0.042909144  0.044350797            4 
  336000    1.1888501   -5.9702012    173.18174   0.04295182  0.044345365            7 
  337000    1.2080786   -5.9882859    173.36864  0.042870584  0.044339763            3 
  338000    1.2147224   -5.9651164    173.09495   0.04267627  0.044332616            4 
  339000    1.2015565   -5.9843817    174.01626  0.042776858  0.044324433            2 
  340000    1.2010112    -5.969954    174.30713  0.042722336  0.044314431            4 
  341000     1.211156   -6.0126145    173.90279  0.042498238  0.044302793            9 
  342000    1.1833162   -6.0240214    174.35705  0.042484662  0.044291664            2 
  343000     1.178829   -5.9752422    174.64913   0.04243176  0.044279124            2 
  344000     1.198568   -5.9862176    175.73108  0.042570512  0.044266447            3 
  345000    1.2009555   -6.0391245    176.01917  0.042516707  0.044254586            3 
  346000    1.1884465   -5.9815092    176.68267  0.042553629  0.044242812            4 
  347000    1.1780874   -5.9872093    177.56018  0.042641735  0.044230356            5 
  348000    1.2065002    -5.997747    177.85595  0.042590027   0.04421893            5 
  349000    1.1905443    -5.988012     178.1595  0.042540473  0.044208184            5 
  350000    1.1904474   -5.9805509    178.24582  0.042439481  0.044196806            4 
  351000    1.1948522   -5.9752337    179.79288  0.042685869  0.044187267            5 
  352000    1.1620545   -6.0063286     179.6991    0.0425424  0.044176394            3 
  353000    1.1753703   -5.9706473    179.92693  0.042475669  0.044165098            5 
  354000    1.2136448   -6.0155378    180.49753  0.042490003  0.044154513            5 
  355000     1.179851   -5.9742065    181.36342  0.042573573  0.044144089            5 
  356000    1.2035529   -5.9823059    181.69459  0.042531505  0.044134609            4 
  357000    1.1802401   -6.0144338    182.18104   0.04252592  0.044124361            4 
  358000    1.1933074   -6.0055738    182.74443  0.042538275  0.044113889            3 
  359000    1.1567769   -5.9932663    183.15362  0.042514768  0.044104077            4 
  360000    1.1763265   -5.9587021    184.58431   0.04272785  0.044094277            2 
  361000    1.1804567   -6.0345746    184.34628  0.042554543  0.044084949            5 
  362000    1.1944355   -5.9751964     185.3343  0.042664434  0.044075388            5 
  363000    1.1938417   -5.9613954    185.15617  0.042506007  0.044065784            3 
  364000    1.1963084     -6.00093    185.98185  0.042578261  0.044056516            5 
  365000    1.2044711   -5.9706978    186.47908  0.042575132  0.044046593            2 
  366000    1.2035154   -6.0003682    186.73298  0.042516618  0.044037317            4 
  367000    1.1995805   -6.0087677    187.68442  0.042616806  0.044028482            2 
  368000     1.180809   -6.0340616    188.13752  0.042603604  0.044020135            3 
  369000    1.2159265    -6.010787    188.42761  0.042553661  0.044011712            2 
  370000    1.1989961    -5.999082    188.66685  0.042492534  0.044001609            3 
  371000     1.176242   -6.0370974    189.10043   0.04247539  0.043990873            2 
  372000    1.2050734   -5.9793888    189.27187  0.042399612  0.043980315            3 
  373000    1.1671808     -5.98058    190.33401  0.042523237   0.04397001            3 
  374000    1.2178935    -6.017871     190.7781  0.042508489  0.043960221            7 
  375000    1.1983422    -5.991442     190.9313  0.042429178  0.043949766            2 
  376000    1.1767548    -5.982926    191.50398  0.042443259  0.043939678            3 
  377000        1.184   -6.0143319    191.20873  0.042265413  0.043928691            5 
  378000    1.1873105   -6.0204675    191.77831  0.042279168  0.043917554            7 
  379000    1.1668361   -6.0271122    191.82961  0.042178893  0.043905397            3 
  380000    1.2051534   -6.0057696    192.76645  0.042273345  0.043893627            4 
  381000     1.158622   -6.0448203    193.73298  0.042373793  0.043881955           13 
  382000    1.1931475   -6.0590518     193.2842  0.042164966  0.043869733            6 
  383000    1.1690007   -5.9639603    195.05782  0.042440778  0.043857772            2 
  384000    1.2046011    -6.011562    195.17959  0.042356682  0.043847455            9 
  385000    1.1664622   -6.0200222    196.04996  0.042435057  0.043836828            2 
  386000    1.2262146   -6.0490567    196.53138  0.042429054  0.043827047            3 
  387000    1.1882695   -6.0014699    196.95161  0.042409906   0.04381853            3 
  388000    1.1545082   -6.0404839    197.18448  0.042350617  0.043809965            6 
  389000     1.217585   -5.9879456    198.99819  0.042630289  0.043801639            3 
  390000    1.1945073    -6.054826    198.43629  0.042400916  0.043793819            2 
  391000     1.199051   -6.0043686    199.25506  0.042466977  0.043785778            3 
  392000    1.1863061   -6.0140813    199.53966  0.042419145  0.043777977            2 
  393000    1.2098158   -6.0110576    200.77376  0.042572893  0.043770908            4 
  394000    1.1902484   -5.9934353    201.49225  0.042616805  0.043764432            3 
  395000    1.1895393   -5.9967381    201.11712  0.042429772  0.043756758            2 
  396000    1.2010028   -6.0133438    201.89867  0.042487094  0.043748994            3 
  397000    1.2260688   -6.0073444     202.8935  0.042588897  0.043742392            4 
  398000    1.1958695   -6.0038915    203.60035  0.042629889  0.043736269            1 
  399000    1.1956767   -6.0162839    203.84006  0.042573111  0.043730578            2 
  400000    1.1941796   -5.9981637    204.90878   0.04268933  0.043725024            5 
  401000    1.1840355   -6.0204168    204.69547  0.042538543  0.043719616            7 
  402000    1.1802579    -6.038046    205.19668  0.042536625  0.043714267            7 
  403000    1.1891054   -6.0107445    205.92626  0.042581939  0.043708404            5 
  404000    1.1909165   -5.9877397    206.31672  0.042557078  0.043702276            3 
  405000     1.193271    -6.017346    207.05198  0.042603288  0.043696229            4 
  406000    1.1773618   -5.9966169    207.17766   0.04252415  0.043690041            4 
  407000    1.1615838   -6.0107135    207.21622  0.042427563  0.043683458            5 
  408000    1.2178969   -6.0093549    207.61901  0.042405844  0.043676229            2 
  409000    1.1772946   -6.0190579    208.57037     0.042496  0.043668034            2 
  410000    1.1672297   -6.0146284    209.08782  0.042497524  0.043661015            6 
  411000    1.1787742   -6.0117134    209.52779  0.042483332  0.043653745            4 
  412000    1.1745403   -5.9957598    209.41435  0.042357272  0.043645622            2 
  413000    1.2222091   -5.9670498    210.23441   0.04242018  0.043637708            4 
  414000    1.1691867   -5.9964435    210.97502  0.042466792  0.043629708            4 
  415000    1.2010902   -5.9874792    210.74417  0.042318106  0.043621197            9 
  416000    1.1971015   -6.0259877    211.23214  0.042314131  0.043610858            3 
  417000    1.1914155   -6.0476966    210.90951  0.042148183  0.043600803            6 
  418000    1.1835333   -5.9677948     212.4259  0.042349661  0.043591502            1 
  419000    1.1838211   -6.0375785    212.90078  0.042343036  0.043583053            4 
  420000    1.2126113    -5.994046    212.99199  0.042260315  0.043573724            7 
  421000    1.1873373   -5.9858268    213.93276  0.042346151  0.043564654            2 
  422000    1.2105174   -6.0156466    214.80395  0.042417842  0.043555984            4 
  423000     1.173438   -6.0164434    213.87654  0.042134857  0.043546047            2 
  424000    1.1817027   -6.0443971    214.26267  0.042111373   0.04353561            3 
  425000    1.1992736   -6.0232889    214.55213  0.042069044  0.043525021            3 
  426000    1.1815908   -6.0339015    215.25139  0.042107079  0.043514762            6 
  427000    1.1571956   -6.0033494    216.76858  0.042304562  0.043504732            2 
  428000    1.1704229   -6.0300048    216.38537  0.042131109  0.043494564            7 
  429000    1.2059346   -6.0025539    217.19482  0.042190135  0.043485451            2 
  430000    1.1897648   -6.0231701     217.9562  0.042239574  0.043476244            3 
  431000    1.1852419   -5.9854193     219.2473  0.042391203  0.043468018            2 
  432000    1.1979783   -6.0798799    219.27264  0.042297962  0.043459608            3 
  433000    1.1896211   -6.0459201    219.35874  0.042216848  0.043450948            4 
  434000    1.1721082   -5.9942011    219.58389  0.042162806  0.043441605            3 
  435000    1.1771975   -6.0385905     220.3699  0.042216456  0.043431971            3 
  436000    1.1712403   -5.9821817    221.15511  0.042269707   0.04342275            3 
  437000    1.2026081    -6.015304    221.28148  0.042197078  0.043413748            6 
  438000    1.1772306   -6.0153775    221.85352  0.042209574  0.043404626            4 
  439000     1.155953   -6.0112248    222.10418  0.042161006  0.043394839            4 
  440000    1.1873308   -6.0086939    221.83929  0.042015017   0.04338548            5 
  441000    1.1852772   -6.0431752    222.78991  0.042099379  0.043375251            2 
  442000    1.1802701   -6.0348514    222.71174  0.041989392    0.0433651            4 
  443000     1.162631   -6.0309746    223.26413   0.04199852  0.043353981            4 
  444000     1.200993   -6.0237565      223.812  0.042006757  0.043342993            4 
  445000    1.2090859   -6.0540506    224.37609  0.042017995  0.043332949            5 
  446000    1.2013725   -6.0488217    225.10178  0.042059376  0.043322498            3 
  447000    1.1606814   -6.0300477    226.00029  0.042132792    0.0433125            4 
  448000    1.1901188   -6.0156714    225.42554  0.041931833  0.043301837            2 
  449000    1.1662139   -6.0286188    226.15207  0.041973286   0.04329066            2 
  450000    1.1688001   -6.0295456    227.97379  0.042217369  0.043280932            2 
  451000    1.2118201   -6.0097976    227.74626  0.042081718  0.043271019            3 
  452000    1.1762397     -6.07537     227.9683  0.042029554  0.043261749            2 
  453000     1.191094   -6.0505959    227.81477   0.04190853  0.043252784            5 
  454000    1.1896405   -6.0410739    229.74357  0.042170259  0.043244019            3 
  455000    1.1788419   -6.0124504    229.17705  0.041973819   0.04323538            9 
  456000    1.1861262   -6.0391214    229.58878  0.041957014  0.043225711            4 
  457000    1.1755539   -6.0415912    230.56177  0.042042628  0.043216232            8 
  458000    1.1970042   -6.0463696    230.62315  0.041961999  0.043206714            3 
  459000     1.191515   -6.0119703    230.99436  0.041937974  0.043196894            4 
  460000    1.1948517    -6.022374    231.75868  0.041985269  0.043187293            2 
  461000    1.1785623   -6.0277698    232.64279  0.042054012  0.043178394            2 
  462000    1.1770832   -6.0325872    232.62654  0.041960054  0.043169641            5 
  463000     1.180413   -6.0240528    234.27018  0.042165258  0.043160981            4 
  464000    1.1926503   -6.0412251     233.9731   0.04202103  0.043151606            5 
  465000    1.1772431   -6.0078261    233.77417  0.041895012  0.043142466            6 
  466000    1.1668813   -6.0479227    233.25809  0.041712821  0.043132152            3 
  467000    1.2033705   -6.0191914    233.92332  0.041742205  0.043121136            6 
  468000    1.1531679   -6.0221196    235.29156  0.041896646  0.043110082            2 
  469000    1.1669095   -6.0470086    235.47568  0.041840028  0.043098191            3 
  470000    1.1777311   -6.0319186    235.25138  0.041711237  0.043086322            5 
  471000    1.1621671   -6.0479577    235.89334  0.041736259  0.043075292            3 
  472000    1.1884368   -6.0494248    236.15632  0.041694266  0.043063488            4 
  473000    1.1964847   -6.0298969     236.9059  0.041738179  0.043051846            3 
  474000    1.1889423   -6.0259569    237.45247  0.041746214  0.043040014            5 
  475000    1.1724396   -6.0216079    236.75616  0.041536168  0.043027347            3 
  476000    1.1905224   -6.0240669    236.92473  0.041478418  0.043012655            1 
  477000    1.1698285   -6.0391729     238.0523  0.041588452  0.042998061            2 
  478000    1.1671139   -6.0292273    237.82635  0.041462055  0.042983265            2 
  479000    1.1929709   -6.0408372    237.77669  0.041366856  0.042968894            5 
  480000    1.1769708    -6.048964    239.89389  0.041648244  0.042955202            4 
  481000    1.1703857   -6.0133138    240.03181  0.041585553   0.04294156            3 
  482000    1.1678794   -6.0279939    240.08235  0.041508013  0.042928283            4 
  483000    1.1915332   -6.0113978    241.06282  0.041591239  0.042915355            3 
  484000    1.1813003   -6.0376259    241.22963  0.041534028  0.042901799            3 
  485000     1.170354   -6.0305914    242.11105  0.041599837  0.042888342            6 
  486000    1.1271422   -6.0277927    242.27779  0.041542831  0.042874954            2 
  487000    1.1883217   -6.0668697    241.89401  0.041391857  0.042861359            5 
  488000    1.1817968   -6.0559021     242.2129  0.041361492  0.042847999           11 
  489000    1.2016998   -6.0186987    243.02969  0.041416103   0.04283345            5 
  490000    1.1837989   -6.0254555    242.90495  0.041310366  0.042819192            2 
  491000    1.1611646   -6.0633277    243.68249  0.041358196   0.04280485            5 
  492000    1.1884849    -6.082392    244.01842  0.041331034    0.0427904            4 
  493000    1.1882886   -6.0508628    244.51658  0.041331403  0.042776766            2 
  494000    1.1617933   -6.0768921    245.12923  0.041351085  0.042763278            3 
  495000    1.2007992   -6.0782799    246.19728  0.041447354  0.042750049            4 
  496000    1.2002308   -6.0189612    245.94868  0.041322023  0.042736487            2 
  497000    1.1774899   -6.0194563    246.47333   0.04132685  0.042723196            3 
  498000    1.1623562   -6.0132292    246.89366  0.041314201  0.042709344            4 
  499000    1.1799825   -6.0431659    246.31692   0.04113509  0.042695251            4 
  500000    1.1605874   -6.0160878    247.18451  0.041197418  0.042681358            6 
  501000    1.1803902   -6.0483633    248.23419  0.041289786  0.042665593            2 
  502000    1.1900735   -6.0724043    247.91932  0.041155265  0.042649679            2 
  503000     1.190258   -6.0472145    247.72903   0.04104192  0.042634904            4 
  504000    1.1772437    -6.054703    248.70284  0.041121501  0.042619646            3 
  505000     1.195752   -6.0462635    248.93033  0.041077613  0.042603946            4 
  506000    1.1699392   -6.0657075    248.29881  0.040892425  0.042587008            6 
  507000    1.1718526    -6.062103    248.77342   0.04088978  0.042570452            4 
  508000    1.1687763   -6.0244838    250.10878  0.041028344  0.042553789            9 
  509000    1.1667057   -6.0641476    250.54482  0.041019125  0.042537933            2 
  510000    1.1632284   -6.0559502    251.61523  0.041113599   0.04252229            3 
  511000    1.2007814   -6.0370186    252.13923  0.041118596  0.042507689            2 
  512000    1.1720174    -6.037559    251.61076  0.040952272  0.042492451            7 
  513000    1.1769372   -6.0130715    252.66182  0.041043181  0.042477419            3 
  514000    1.1896927   -6.0142493    253.46779  0.041093999  0.042462641            3 
  515000    1.2020382   -6.0481257    253.57101  0.041030908  0.042447136            2 
  516000    1.1820784   -6.0638896    253.55313  0.040948504  0.042431693            4 
  517000    1.1774392   -5.9932899    253.71097   0.04089474  0.042416899            2 
  518000    1.1743492   -6.0231574    255.01098  0.041024932  0.042401787            7 
  519000    1.1679036    -6.056414    255.54511  0.041031648  0.042386867            2 
  520000     1.157603   -6.0156369    256.45795  0.041099031  0.042372221            4 
  521000    1.1980638   -6.0376574    257.02083  0.041110177  0.042358598            4 
  522000    1.1578451    -6.046742    256.69923  0.040980082  0.042344975            5 
  523000    1.1646499   -6.0351417    256.79703  0.040917309  0.042331402            6 
  524000    1.1681015   -6.0052317    259.23899  0.041227574  0.042318023            3 
  525000    1.1698789   -6.0584548    257.71687  0.040907439  0.042304144            2 
  526000    1.1495309   -6.0540769    258.16846  0.040901213  0.042290228            4 
  527000    1.1869319    -6.046759    259.52863  0.041038683  0.042276181            2 
  528000    1.1728467   -6.0633451    260.08334  0.041048507  0.042261671            3 
  529000    1.1716202   -6.0134045    259.70422  0.040911188  0.042247187            2 
  530000    1.1799467   -6.0310413    260.18729  0.040909952  0.042232887            4 
  531000    1.1502583   -6.0145493    260.42616  0.040870395  0.042217617            3 
  532000    1.1649525   -6.0494635    261.21843  0.040917674  0.042202634            6 
  533000    1.1638133   -6.0177777    261.48203  0.040882119  0.042187585            2 
  534000    1.1753108   -6.0246798    261.89746   0.04087039  0.042173166            7 
  535000    1.1735801   -6.0693441    261.77101    0.0407743  0.042158035            2 
  536000    1.1882749   -6.0251788    261.53107  0.040660925   0.04214352            2 
  537000    1.1994959   -6.0328688     263.0554  0.040821757  0.042128564            5 
  538000    1.1454666   -6.0056259    263.23108  0.040773092  0.042113616            6 
  539000    1.1452631    -6.041661    264.11504  0.040834113  0.042098134            3 
  540000    1.1787099   -6.0125804    264.47357  0.040813823  0.042083196            4 
  541000    1.1598835   -6.0204317    264.46679  0.040737336   0.04206858            4 
  542000    1.1427706   -6.0350377    264.85188  0.040721384  0.042053812            3 
  543000    1.1637273   -6.0211711    265.05452   0.04067749  0.042038666            2 
  544000    1.1423716   -6.0302749    266.14273  0.040769414  0.042024193            4 
  545000    1.1578023   -6.0378846    265.29557  0.040565072   0.04201004            2 
  546000    1.1724348   -6.0847516     266.4554  0.040667797  0.041995168            4 
  547000    1.1679311   -6.0498349    266.41835  0.040587805  0.041980415            5 
  548000     1.148672   -6.0146647    267.82199  0.040727188  0.041965263            4 
  549000    1.1789365   -6.0525673    267.66267   0.04062882  0.041950421            4 
  550000    1.1615517   -6.0647645    267.36594  0.040509991   0.04193443            3 
  551000     1.131482    -6.048902    268.73063  0.040642866  0.041919288            2 
  552000    1.1446197    -6.050269    269.88756  0.040743895  0.041904815            2 
  553000    1.1644859   -6.0511293    269.75554  0.040650322  0.041890466            4 
  554000    1.1559689    -6.056467    269.40348  0.040523989  0.041875706            3 
  555000    1.1671692     -6.06952    269.59621  0.040479911  0.041860901            3 
  556000    1.1365996   -6.0111039    271.05173  0.040625259  0.041846084            9 
  557000    1.1651078   -6.0039102    271.48244  0.040616763  0.041831524            3 
  558000    1.1844923   -6.0323944     271.7401  0.040582452  0.041817061           11 
  559000    1.1717346   -6.0918698    272.35563  0.040601614  0.041802833            6 
  560000    1.1716405   -6.0430374      272.937  0.040615625  0.041788681            4 
  561000    1.1754845   -6.0641503    273.00545  0.040553395   0.04177552            5 
  562000    1.1775837   -6.0885364    273.94862  0.040621088  0.041762514            3 
  563000    1.1622804   -5.9974841    274.27527  0.040597286  0.041749705            6 
  564000    1.1655035   -6.0454809    274.15174  0.040507054  0.041736905            4 
  565000    1.1539456   -6.0285392    275.69285  0.040662662  0.041724242            3 
  566000    1.1644784    -6.042735    275.82538  0.040610333  0.041711449            3 
  567000    1.1630108   -6.0526985    277.07427  0.040722262  0.041698433            2 
  568000    1.1677228   -6.0495101    276.50416  0.040566925  0.041685766            4 
  569000    1.1642539   -6.0817431    276.59276  0.040508606  0.041672716            4 
  570000    1.1809713   -6.0782605    276.88852  0.040480778   0.04165926            3 
  571000    1.1643087   -6.0520604    277.61561  0.040515997  0.041645624            2 
  572000    1.1830864    -6.060212    278.64257   0.04059478  0.041632261            1 
  573000    1.1697527   -6.0633272    278.36845  0.040484067  0.041619382            8 
  574000    1.1653697    -6.066469    279.74164  0.040612898  0.041606556            2 
  575000    1.1577965   -6.0489969    280.17797  0.040605502  0.041593864            3 
  576000    1.1476622   -6.0371936    279.51311  0.040438817  0.041581307            6 
  577000    1.1615753    -6.056074     280.3062  0.040483276  0.041569035            5 
  578000    1.1639852   -6.0441321    281.36198  0.040565453  0.041556099            2 
  579000    1.1542732   -6.0761906    281.71788  0.040546614  0.041543809           11 
  580000    1.1671679   -6.0882137    281.44687  0.040437769  0.041530883            3 
  581000    1.1214516   -6.0742147    281.71652  0.040406845  0.041517487            2 
  582000    1.1498469   -6.0894103    281.73093  0.040339481  0.041504584            3 
  583000      1.16157   -6.0414839    282.04958  0.040315835  0.041491128            5 
  584000     1.140538    -6.068664    282.72934  0.040343798  0.041478168            2 
  585000    1.1332983   -6.0709675    283.33048  0.040360468  0.041464736            6 
  586000    1.1775709    -6.066363    284.04788  0.040393612  0.041451617            4 
  587000    1.1615158   -6.1005694    283.55157   0.04025434  0.041438373            6 
  588000    1.1326129   -6.0990429    284.42549  0.040309735  0.041424624            4 
  589000    1.1589101   -6.0573709    284.41951  0.040240452  0.041410793           19 
  590000    1.1826373   -6.0215103    286.29995  0.040437846  0.041397122            4 
  591000    1.1804603    -6.048017    286.94133   0.04045986  0.041384331            5 
  592000    1.1486448   -6.0409916     286.3289  0.040305307  0.041371144            4 
  593000    1.1491161   -6.0616951    286.41513  0.040249456  0.041357247            5 
  594000    1.1628835   -6.0382726    287.32454   0.04030928  0.041343465            3 
  595000    1.1683931   -6.0362828    288.48307  0.040403792   0.04133066            4 
  596000    1.1491106   -6.0870924    288.27779  0.040307297  0.041317842            3 
  597000    1.1593937   -6.0683277    288.00626  0.040201879   0.04130385            3 
  598000    1.1888013    -6.013417    289.09965  0.040287019  0.041290246            2 
  599000    1.1736721   -6.0752701    289.29844  0.040247418  0.041277108           12 
  600000    1.1672001   -6.0514008    290.00901  0.040279029  0.041264092            4 
  601000    1.1559184   -6.0551642    289.05441  0.040079646  0.041250794           12 
  602000    1.1574652   -6.0703692    290.10912  0.040159069   0.04123699            4 
  603000    1.1857478   -6.0532857    290.14566   0.04009752  0.041223406            2 
  604000    1.1538988   -6.0672083    291.06794  0.040158381  0.041210155            5 
  605000    1.1588171   -6.0696513    290.87179  0.040064985  0.041196258            2 
  606000    1.1708754   -6.0705317    290.90795  0.040003844  0.041181335            2 
  607000    1.1686426   -6.0615865      291.693  0.040045717   0.04116684            3 
  608000    1.1471945   -6.0545879    291.94838  0.040014855  0.041152216            2 
  609000    1.1440597   -6.0528698    291.76496   0.03992405  0.041137707            3 
  610000    1.1783187   -6.0792357    292.58581   0.03997074   0.04112371            4 
  611000    1.1700139   -6.0774653    292.60216   0.03990755  0.041109354            6 
  612000    1.1802944   -6.0759956    293.27076  0.039933383  0.041095523            4 
  613000    1.1651427   -6.0774577     293.9505  0.039960644  0.041081772            6 
  614000    1.1296552   -6.0835894    294.63635  0.039988646  0.041067588            3 
  615000    1.1470766   -6.0719464    294.19473  0.039863785  0.041053886            2 
  616000    1.1615301     -6.05716    295.81238  0.040017908  0.041040181            3 
  617000    1.1468922   -6.0782935    296.01899  0.039980955  0.041026434            2 
  618000    1.1626192   -6.0766561    295.90677  0.039901129  0.041011982            4 
  619000    1.1692522   -6.1144736    295.63806  0.039800493  0.040997776            4 
  620000    1.1343923   -6.0770002    297.20477  0.039946877  0.040983925            3 
  621000    1.1610114   -6.0505676    297.42376  0.039911938  0.040969919            4 
  622000    1.1611844   -6.1066236    297.61744   0.03987372  0.040955813            5 
  623000    1.1525355   -6.0859654    297.79026  0.039832833  0.040941574            6 
  624000    1.1533734   -6.1124389    297.65726  0.039751237  0.040927512            3 
  625000    1.1606358   -6.0807612    299.09532  0.039879376  0.040913808            2 
  626000    1.1464277   -6.0473853    299.48351  0.039867347  0.040900009            3 
  627000    1.1450772   -6.1051294    298.84676  0.039719134  0.040886339            6 
  628000    1.1534354   -6.0611093    300.55792  0.039882951  0.040872741            2 
  629000    1.1432246   -6.0997371    300.57759  0.039822151   0.04085943            3 
  630000    1.1480457   -6.0838536    301.55447  0.039888158   0.04084647            7 
  631000    1.1651329   -6.0694825    302.62932  0.039966894  0.040832896            3 
  632000    1.1520563   -6.0936097    301.93582  0.039812212  0.040819728            5 
  633000    1.1329109   -6.0676698    302.92391  0.039879398  0.040806555            4 
  634000    1.1620536   -6.0619741    303.65536  0.039912639  0.040794004            3 
  635000     1.150157   -6.0715505    303.14835  0.039783248  0.040780647            4 
  636000    1.1390352   -6.1008633    304.00305  0.039832685  0.040767535            4 
  637000    1.1424375   -6.0622517    304.13101  0.039786892  0.040754201            3 
  638000    1.1613731   -6.0991706    304.24895  0.039739936  0.040741666            3 
  639000    1.1452599   -6.0991774    304.37825  0.039694608  0.040728455            6 
  640000    1.1098638   -6.0937558    304.28112  0.039619937  0.040715261            3 
  641000    1.1463371    -6.114983    305.37639  0.039700519  0.040702223            4 
  642000    1.1262002   -6.1086613    305.39213  0.039640723  0.040689405            3 
  643000     1.160546       -6.053    307.54307  0.039857837  0.040676383            3 
  644000    1.1563701   -6.0590704    306.82711  0.039703301  0.040664017            8 
  645000     1.151829   -6.0940568    306.56902  0.039608401  0.040651616            8 
  646000    1.1488612   -6.1059511    307.96656  0.039727369  0.040639056            4 
  647000    1.1657392    -6.103442    307.78256  0.039642267  0.040626312            4 
  648000    1.1524472   -6.0789858     308.5505  0.039679848  0.040613081            2 
  649000     1.141809   -6.0595605    309.01182  0.039677943  0.040599805            3 
  650000    1.1372873   -6.0816292    310.08818  0.039754895  0.040586675            2 
  651000    1.1377037   -6.0487703    310.09895  0.039695206  0.040573478            3 
  652000    1.1584805   -6.0966888    310.00835  0.039622744  0.040560189            5 
  653000    1.1428765   -6.0829429     311.2342  0.039718505   0.04054732            7 
  654000    1.1581261   -6.0875736    310.97171  0.039624326  0.040534144            4 
  655000    1.1496715   -6.0623707    310.98252  0.039565206  0.040521004            3 
  656000    1.1385867   -6.1011485    311.07532  0.039516681  0.040507893            3 
  657000    1.1425767   -6.0616533    312.06412  0.039581953  0.040494705            2 
  658000     1.144383   -6.0683516    312.39805   0.03956409  0.040481452            2 
  659000    1.1457078   -6.0843411    312.81714  0.039557049  0.040468279            6 
  660000    1.1542671   -6.0900012    312.99294  0.039519311  0.040454953            4 
  661000    1.1736945   -6.1089137     313.7158  0.039550656  0.040441553            5 
  662000     1.159962   -6.1006003    314.00651  0.039527506  0.040428769            7 
  663000    1.1611738   -6.0607585    314.88863  0.039578762  0.040416206            2 
  664000    1.1523842   -6.1100933    314.04765  0.039413611  0.040403814            4 
  665000    1.1427879    -6.100645    315.09983  0.039486195   0.04039115            3 
  666000    1.1409668    -6.101711    315.75349  0.039508695  0.040378482            7 
  667000    1.1323636   -6.1145097      315.786  0.039453523  0.040365812            4 
  668000    1.1542234   -6.0955762    317.02656  0.039549222  0.040352971            3 
  669000    1.1282112   -6.0928428    316.73555  0.039453855  0.040340558            5 
  670000    1.1389395   -6.0993983    317.86529  0.039535484  0.040327997            4 
  671000    1.1654097   -6.0846927    317.88416  0.039478907  0.040315633            8 
  672000    1.1336265   -6.0586604    318.90508  0.039546761   0.04030319           10 
  673000    1.1437889   -6.0965339    318.10438  0.039388853  0.040290572            4 
  674000     1.115057   -6.0747277    318.97595  0.039438174  0.040277838            4 
  675000    1.1388445   -6.0898012    318.40368  0.039309096  0.040264828            2 
  676000    1.1538198    -6.073725    319.44139  0.039378869  0.040252245            3 
  677000    1.1204113   -6.1132366    320.23775  0.039418728  0.040239996            7 
  678000    1.1357651   -6.1273785    320.95088   0.03944824  0.040227561            3 
  679000    1.1417469   -6.1055901    321.52578  0.039460699  0.040215351            3 
  680000    1.1467265   -6.0859101    320.99264  0.039337333  0.040203139            5 
  681000    1.1228906    -6.110855    322.67838  0.039485852  0.040191171            4 
  682000      1.13447    -6.101199    321.75177  0.039314732  0.040178875            2 
  683000    1.1435443   -6.0791615    323.53107  0.039474265    0.0401667            3 
  684000    1.1309919    -6.090976    322.52303  0.039293742  0.040154286            2 
  685000    1.1351412    -6.100336    322.65518  0.039252455  0.040141767            6 
  686000    1.1439651   -6.1191247    323.33625   0.03927797  0.040129116            3 
  687000    1.1406209   -6.0636101    323.97253  0.039297977  0.040116883            2 
  688000    1.1256381   -6.1246469    323.78635  0.039218308  0.040104552            3 
  689000    1.1201916   -6.0866751    326.15109  0.039447399  0.040092187            8 
  690000    1.1458882   -6.1193339     325.9537  0.039366389  0.040079902            9 
  691000    1.1319174   -6.1159971    326.11135  0.039328431   0.04006783            6 
  692000    1.1551059   -6.1182949    326.36712  0.039302399   0.04005574            4 
  693000    1.1236236   -6.0872279    327.64108  0.039398879   0.04004424            4 
  694000    1.1346703   -6.0905922    327.77777  0.039358521  0.040033363           12 
  695000    1.1620902   -6.0464905    329.61435  0.039522104   0.04002281            4 
  696000    1.1495323   -6.1085508     329.9272  0.039502778  0.040012591            4 
  697000    1.1475693   -6.0914164    330.79447  0.039549793  0.040002337            3 
  698000    1.1568211   -6.0521908    331.25719  0.039548376  0.039992935            7 
  699000    1.1237501   -6.1011092     331.9546   0.03957494  0.039983345            6 
  700000    1.1301893   -6.0684496    331.65219  0.039482404  0.039973539            3 
  701000    1.1155415   -6.0924811    331.43393  0.039400135  0.039963904            3 
  702000    1.1143227   -6.0951613    332.74522   0.03949967  0.039954234            4 
  703000    1.1146354   -6.0982892    332.25543  0.039385423  0.039944516            6 
  704000    1.1270624   -6.1258141    331.51752   0.03924213  0.039934022            6 
  705000    1.1557868    -6.103316    334.32835  0.039518718  0.039923861            5 
  706000    1.1448684   -6.1095468     333.3787   0.03935065  0.039914356            3 
  707000    1.1305266   -6.0863861    333.48355  0.039307349   0.03990417            4 
  708000    1.1449509   -6.1207363    334.50925  0.039372558  0.039894505            2 
  709000    1.1191417   -6.1068762    333.91917  0.039247669  0.039884369            9 
  710000    1.1260552   -6.1178238    334.57893  0.039269828  0.039874212            4 
  711000    1.1637206   -6.0907717    336.54368  0.039444875  0.039864318            5 
  712000    1.1664184   -6.1074349    336.93244  0.039434976   0.03985504            4 
  713000    1.1245742    -6.092864    337.76881  0.039477421  0.039846024            4 
  714000    1.1245604    -6.109206    338.57596  0.039516335  0.039837432            4 
  715000    1.1487992   -6.0741995    337.77465  0.039367675  0.039828759            5 
  716000    1.1168122   -6.0890286    338.95682  0.039450281  0.039819777            2 
  717000    1.1261351   -6.0741232    340.43123  0.039566624  0.039811182            7 
  718000    1.1368899    -6.137347    338.87746  0.039331182  0.039802426            5 
  719000    1.1096941   -6.0852466    340.01151  0.039407918  0.039793599            3 
  720000    1.1474496   -6.1199056    339.94047  0.039344962  0.039784929            4 
  721000    1.1414104   -6.0511904    340.28909  0.039330685  0.039776886            2 
  722000    1.1496889   -6.0939314    342.59061  0.039541853  0.039768944            3 
  723000    1.1198904    -6.096121    343.74556  0.039620281  0.039761266            5 
  724000    1.1160387   -6.0994219    344.03126  0.039598442  0.039753637            3 
  725000     1.164759   -6.0777634    344.47222  0.039594508  0.039746223            4 
  726000    1.1267272   -6.1016449    344.40723   0.03953251  0.039738928            6 
  727000    1.1405112   -6.1106188    344.38764  0.039475887  0.039731605            6 
  728000     1.149713   -6.0593527    345.82887  0.039586638  0.039723889            3 
  729000    1.1292657   -6.0726499    344.63076  0.039395377  0.039715998            2 
  730000    1.1147853    -6.065879    345.64323   0.03945699  0.039708091            4 
  731000    1.1280463   -6.1254958    345.25733   0.03935902  0.039700149            6 
  732000    1.1359273   -6.0996414     345.9957  0.039389311  0.039691902            5 
  733000    1.1474736   -6.1228946    345.78669  0.039311811  0.039683192            4 
  734000    1.1453341   -6.1037889    346.25331  0.039311229  0.039674869            5 
  735000    1.1394211   -6.1016016    347.75756  0.039428295  0.039667411            4 
  736000    1.1441397   -6.1201624     348.1683   0.03942123   0.03965954            3 
  737000    1.1513269   -6.1307221    349.77884  0.039549846  0.039651764           13 
  738000     1.143165   -6.0925357    349.17366   0.03942792  0.039644046            2 
  739000    1.1171507     -6.12726    350.29051  0.039500508  0.039636679           11 
  740000    1.1365534   -6.0868798     349.0103  0.039302961  0.039628766            5 
  741000    1.1368321   -6.1333223    350.47111  0.039414205  0.039621114            3 
  742000    1.1341621   -6.0947295    351.62811  0.039491028  0.039613639            4 
  743000    1.1521558   -6.1022641    351.12641  0.039381607  0.039606366            2 
  744000    1.1289378   -6.0848689    352.74355  0.039509806  0.039599271            3 
  745000     1.158228   -6.1382648    352.47815  0.039427086  0.039592631            6 
  746000    1.1248679   -6.0904063    353.39747  0.039476929  0.039585685            4 
  747000    1.1536486   -6.1170212    353.93604  0.039484164  0.039578806            3 
  748000    1.1325455   -6.1270093    353.83686  0.039420328  0.039571634            4 
  749000    1.1071665   -6.1375647    352.89294  0.039262677  0.039563877            3 
  750000    1.1217279   -6.0926803    354.32725  0.039369694  0.039556822            3 
  751000    1.1461458   -6.0956099    355.52368  0.039450031  0.039550088            1 
  752000    1.1444047   -6.1263632    356.61569  0.039518583  0.039543408            2 
  753000     1.130783   -6.0839111     356.0607  0.039404682  0.039536963            3 
  754000     1.147709   -6.1097499     356.1958  0.039367352   0.03953087            7 
  755000    1.1277478   -6.1168018     357.5161  0.039460938  0.039524666            3 
  756000    1.1204024   -6.0964136    359.10007  0.039583341  0.039518666            5 
  757000    1.1313253    -6.124772    358.84611  0.039503094  0.039512473            4 
  758000    1.1270009   -6.0687748    359.28235  0.039498939  0.039505899            3 
  759000    1.1253224   -6.0969197    358.90375   0.03940533   0.03949935            3 
  760000    1.1297866   -6.1024081    358.98727  0.039362639   0.03949284            4 
  761000    1.1183771   -6.1022671    358.09864  0.039213604  0.039486226            3 
  762000    1.1517606    -6.112851    359.67345  0.039334367  0.039479578            4 
  763000    1.1311694   -6.0874571    360.69988  0.039394919  0.039472536            3 
  764000    1.1231964   -6.1041428    358.84192  0.039140698  0.039465104            4 
  765000    1.1432744   -6.1146888     360.7993  0.039302756  0.039457669            4 
  766000     1.134108   -6.1130402    360.88545   0.03926082  0.039449849            3 
  767000    1.1360501   -6.0859896    362.11206  0.039342901  0.039442164            6 
  768000    1.1080611     -6.12881    361.37044  0.039211202  0.039434183            3 
  769000    1.1469472   -6.1219442     361.5737  0.039182238  0.039426261            3 
  770000    1.1083295   -6.0900625     362.4131  0.039222197  0.039418427            6 
  771000    1.1390256   -6.1379321    362.33098  0.039162449  0.039410654            3 
  772000    1.1252102   -6.1452102    362.49372  0.039129288  0.039402361            4 
  773000      1.13214   -6.1401588    362.72981  0.039104119  0.039394425            5 
  774000     1.122266   -6.1365587    363.52174  0.039138861  0.039386495            4 
  775000    1.1167619   -6.1064907    363.83993  0.039122574   0.03937832            5 
  776000    1.1262793   -6.1078688    364.63932  0.039158002   0.03937055            3 
  777000    1.1439496   -6.1017317    365.71711    0.0392232  0.039362911            4 
  778000    1.1091049   -6.1153308    364.81957  0.039076646  0.039355507            5 
  779000    1.1429156   -6.0991929    366.21374  0.039175625  0.039348076            4 
  780000    1.1304011   -6.0965074    366.39507  0.039144772  0.039340811            4 
  781000    1.1208777   -6.0822023    367.01048  0.039160315  0.039333712            4 
  782000    1.0988131   -6.1181995    368.35863  0.039253903  0.039326562            6 
  783000    1.1286441   -6.1335937    369.44372  0.039319255  0.039319814            3 
  784000    1.1085169   -6.1369134    369.14175  0.039237006    0.0393132            6 
  785000    1.1119798   -6.1210456    370.01386  0.039279603  0.039306308            5 
  786000    1.1167159   -6.1372223    367.83218  0.038998323   0.03929938            4 
  787000    1.1212428   -6.0796942    370.10939  0.039189897  0.039292305            3 
  788000    1.1115328   -6.1599235    369.40868  0.039066062  0.039285435            3 
  789000    1.1628788   -6.1203182    369.43471  0.039019298  0.039278342           15 
  790000    1.1106517    -6.092324    371.35332  0.039172291  0.039271118            2 
  791000    1.1269064   -6.0932547    372.38966  0.039231948  0.039264061            5 
  792000    1.1258381   -6.1215636    371.34177  0.039072156  0.039257184            5 
  793000    1.1495644   -6.1278458    371.99995   0.03909205   0.03924985            4 
  794000    1.1261973   -6.1176097    372.63164  0.039109115  0.039242914            3 
  795000    1.1059167   -6.1536382    373.76834  0.039179072  0.039236216            4 
  796000    1.1079064   -6.1073367    373.65134  0.039117602  0.039229716            4 
  797000    1.1208394   -6.1686115    374.10967  0.039116444    0.0392231            3 
  798000    1.1131072   -6.1128015    374.55256  0.039113676  0.039216758            5 
  799000    1.1149161   -6.1135475    376.22639  0.039239298  0.039210495            4 
  800000    1.1346153   -6.0929602     375.2895  0.039092656   0.03920383            5 
  801000    1.0996399   -6.1248775    375.63321   0.03907961   0.03919725            4 
  802000    1.1196595   -6.1397447    376.19558  0.039089316  0.039190397            4 
  803000    1.1120111   -6.1135304    376.67839  0.039090742  0.039183419            4 
  804000    1.1172806   -6.1091721    377.12665  0.039088583  0.039177062            4 
  805000    1.1303799   -6.1497108    375.54694  0.038876494  0.039169952            7 
  806000    1.1103169   -6.1336675    377.67364  0.039048143  0.039162981            4 
  807000    1.1188036   -6.1323289    378.06489  0.039040158  0.039156559            5 
  808000    1.1188904   -6.1556616    379.06012  0.039094484  0.039149747            4 
  809000    1.1156524   -6.1106812    380.47163  0.039191556  0.039143202            3 
  810000     1.122409   -6.1220044    379.61602  0.039055146  0.039136697            4 
  811000    1.1142241   -6.1164294    380.58123  0.039106168  0.039129869            6 
  812000     1.118464   -6.1071743    380.58198  0.039058085  0.039123546            8 
  813000    1.1092802   -6.1302728    380.69476  0.039021603  0.039116734            5 
  814000     1.131039   -6.1061146    382.45559   0.03915393  0.039110344            5 
  815000    1.1137469   -6.1427894    381.17257    0.0389747  0.039103843            3 
  816000    1.1237086   -6.1255654    383.67512  0.039182508  0.039097539            4 
  817000    1.1411722   -6.1152377    384.18242  0.039186294  0.039091713            4 
  818000    1.1289084   -6.1323815    383.35572  0.039054168  0.039085831            3 
  819000    1.1348262   -6.1273668    383.55047  0.039026299  0.039079505            4 
  820000    1.1224763   -6.1117776    384.42356  0.039067435  0.039073828            6 
  821000    1.1309377   -6.1421131    383.65098  0.038941431  0.039067673            5 
  822000    1.1098332   -6.0998812    386.20059  0.039152533  0.039061789            5 
  823000    1.1236286   -6.1180327    386.69499  0.039155021  0.039055668            3 
  824000    1.1051763   -6.1032964     387.0027  0.039138622  0.039049655            3 
  825000    1.1369333   -6.1200149    386.46188  0.039036553  0.039043358            2 
  826000    1.1261614   -6.1423308     385.3828  0.038880428   0.03903685           13 
  827000    1.1381488     -6.13411     386.8285  0.038979091  0.039030769            3 
  828000    1.1228429   -6.0744352    388.25232  0.039075314  0.039024471            3 
  829000    1.1143729   -6.1163933    387.99329  0.039002141  0.039018575            5 
  830000    1.1082614   -6.1210493    388.10933    0.0389668  0.039012405            2 
  831000    1.1263526   -6.1316506     389.1376  0.039023024     0.039006            3 
  832000    1.1148932   -6.1186904    389.20991  0.038983364  0.038999684            5 
  833000    1.0881647   -6.0970536    389.26076  0.038941652  0.038993226            6 
  834000     1.126502   -6.1295911    389.70335  0.038939183  0.038986679            9 
  835000    1.1291583   -6.1129307    390.19751  0.038941867  0.038980379            4 
  836000    1.1323924   -6.1293791    391.27728  0.039002919   0.03897401            3 
  837000    1.0994809   -6.1350383    391.93984  0.039022286  0.038967311            3 
  838000    1.1070921   -6.1125973    390.70927  0.038853348  0.038960524            1 
  839000    1.1315344   -6.0857739    390.78613  0.038814673  0.038953853            4 
  840000    1.1010559   -6.1564811    390.09414  0.038699816   0.03894695            4 
  841000    1.1135577   -6.1189014    390.51459  0.038695461   0.03893975            3 
  842000    1.1141697   -6.1205108    391.16323    0.0387137  0.038932517            3 
  843000    1.1145196   -6.0693415     392.6822  0.038817932  0.038925274            3 
  844000    1.1230801   -6.0871659    393.77141  0.038879483   0.03891842            2 
  845000    1.1319259   -6.1530423    392.69763  0.038727577  0.038911309            4 
  846000    1.1093829   -6.1269108    392.68313  0.038680371  0.038904288            5 
  847000    1.1259818   -6.1340249    392.68954  0.038635334  0.038897199            5 
  848000    1.1083837   -6.1479754    394.02947  0.038721449   0.03889017            3 
  849000    1.1263717   -6.1713948     395.1868  0.038789438  0.038883186            5 
  850000    1.1076763   -6.1533137    395.76577  0.038800566  0.038876088            4 
  851000    1.1010902   -6.1294243    396.23047  0.038800477  0.038869206            4 
  852000    1.1298214    -6.132921    396.91766   0.03882215  0.038862566            2 
  853000    1.1073849   -6.1262603    397.42566  0.038826266  0.038856105            4 
  854000    1.0988599   -6.1089414    396.95439  0.038734815  0.038849821            9 
  855000    1.1152066    -6.145059    397.66137  0.038758418  0.038843417           11 
  856000    1.1079984   -6.1049921    398.75088  0.038819206  0.038837014            6 
  857000    1.0852854    -6.110039    398.54706   0.03875409  0.038830743            4 
  858000    1.0930948   -6.1433147    399.59575  0.038810776  0.038824525            5 
  859000    1.0931046   -6.1379266    399.61354   0.03876732  0.038818374            9 
  860000    1.1076888   -6.1722804      400.014  0.038761047  0.038811696            3 
  861000    1.1051609   -6.1731575    399.38996  0.038655629  0.038805182            5 
  862000    1.0973174   -6.1322975    400.46789  0.038714993  0.038798212            9 
  863000    1.1125013   -6.1176837     401.2837  0.038748909  0.038791705            4 
  864000    1.1134163   -6.1326497    400.74439  0.038652044  0.038785109            3 
  865000    1.1037031   -6.1477266    400.72929  0.038605905  0.038778341            9 
  866000    1.1359657   -6.1574128    401.01715  0.038589025  0.038771521            2 
  867000    1.1106013   -6.1313299    403.34093  0.038767871  0.038764791            4 
  868000    1.0995583   -6.1676181    401.95694  0.038590336  0.038757864            5 
  869000    1.0985544   -6.1344973    402.43565  0.038591835  0.038750741            3 
  870000    1.1094417   -6.1413333    402.05723  0.038511229  0.038743758           13 
  871000    1.1347191   -6.1348968    403.30973  0.038586847  0.038736872            4 
  872000    1.1392653   -6.1162479    406.32672  0.038830917  0.038730109            5 
  873000    1.1005087   -6.1000222    404.70802  0.038631923  0.038723564            4 
  874000    1.1240024    -6.162439    405.16653  0.038631439  0.038716731            5 
  875000    1.0990675   -6.1524014    404.19987  0.038495225  0.038709539            4 
  876000    1.1287999   -6.1446218    405.15964  0.038542584  0.038702282            5 
  877000    1.1180207   -6.1469537    404.94411  0.038478156  0.038694568            4 
  878000    1.1359178    -6.130962    405.73609    0.0385095  0.038686891           12 
  879000    1.1289888   -6.1432475     405.8183  0.038473483  0.038679503            4 
  880000    1.0955453    -6.158449    406.79438  0.038522195  0.038672341            4 
  881000    1.0938605   -6.1013391    406.51438  0.038451984  0.038665057            3 
  882000    1.0823437   -6.1663708    406.54564  0.038411341  0.038657628            5 
  883000    1.1401884   -6.1042035    408.34891  0.038538025  0.038650059            8 
  884000    1.1141775   -6.1617549    408.44103  0.038503114  0.038642484            4 
  885000    1.1163855    -6.146322    407.96213  0.038414513  0.038634749            6 
  886000     1.110072    -6.138984    407.07647  0.038287855  0.038627038            5 
  887000    1.1100192   -6.1713445    408.92688  0.038418534  0.038619539            4 
  888000    1.1214539   -6.1518512    407.99151  0.038287492  0.038611702            4 
  889000    1.1057891   -6.1487126    409.24938  0.038362334  0.038603884            3 
  890000     1.116104   -6.1167489    410.68604  0.038453749  0.038595931            6 
  891000    1.0903424    -6.147262    410.18102  0.038363358  0.038588208            2 
  892000     1.107923   -6.1347603     409.8833  0.038292535  0.038580596            6 
  893000    1.1060577   -6.1766998    410.90092  0.038344617  0.038572761            4 
  894000    1.1073855   -6.1603554    411.37636  0.038346044  0.038565063            4 
  895000    1.1304095   -6.1602405    412.52021  0.038409703  0.038557501            4 
  896000     1.106368   -6.1650035    412.25657  0.038342315  0.038549899            2 
  897000    1.0993528   -6.1701327    411.68035  0.038246038   0.03854221            5 
  898000    1.0699417   -6.1354056    411.53642  0.038190091  0.038533923            9 
  899000    1.0852719   -6.1358655    412.15145  0.038204621  0.038525575            3 
  900000    1.1172918   -6.1699984    412.62008  0.038205563  0.038517413            3 
  901000    1.1135792   -6.1546772    413.17537  0.038214518  0.038509248            3 
  902000    1.0908994   -6.1649548    413.19932  0.038174365   0.03850124            4 
  903000    1.1022318   -6.0898369    414.08409   0.03821374  0.038493061            5 
  904000    1.1122552   -6.1655023    414.70106  0.038228343  0.038484923            2 
  905000    1.1022823   -6.1790693    414.30765  0.038149876  0.038476817            5 
  906000    1.1340258     -6.18332    414.34963  0.038111629  0.038468618            7 
  907000    1.1093139   -6.1199847     417.5872  0.038367071    0.0384605            8 
  908000    1.0961321   -6.1579046    415.15619  0.038101706  0.038452103            3 
  909000    1.0983807   -6.1847186    416.39098  0.038172991  0.038443625            3 
  910000    1.1037204   -6.1440755    417.10432  0.038196366  0.038435358            5 
  911000    1.1053382   -6.1599065     417.1753  0.038160931  0.038427345            4 
  912000    1.0882946   -6.0963122    416.81425  0.038086098  0.038419102           11 
  913000    1.0793508   -6.1424627    417.35811  0.038094022  0.038410631            8 
  914000    1.0844791   -6.1969463    416.75599  0.037997446  0.038402038            6 
  915000    1.0957253    -6.173173    418.05536  0.038074259  0.038393691            4 
  916000    1.1105944   -6.1885695    418.17808  0.038043857  0.038385477            3 
  917000    1.1245956   -6.1488257    419.01132  0.038078092  0.038377264           10 
  918000    1.1137144   -6.1700525    419.66034  0.038095528  0.038369392            3 
  919000    1.0911285   -6.1679265    420.80092    0.0381575  0.038361551            3 
  920000    1.1084763   -6.1720929    419.79255  0.038024687  0.038353505            4 
  921000    1.0916086   -6.1613979    420.12214  0.038013223  0.038345277            4 
  922000    1.1102466   -6.1479058    421.78292    0.0381221   0.03833752            3 
  923000    1.1100175   -6.1414301    421.59666  0.038063981  0.038329465            3 
  924000    1.1125587   -6.1569043    420.86689  0.037956971  0.038321225           11 
  925000    1.1067739   -6.1665173    421.20717  0.037946591  0.038312832            3 
  926000    1.1257142   -6.1586098    422.56796  0.038028075  0.038304621            7 
  927000    1.0910483   -6.1572792    422.47449  0.037978649  0.038296235            3 
  928000    1.0991003   -6.1552888    423.67265  0.038045317  0.038287922            4 
  929000    1.0958838   -6.1275067    422.39218  0.037889503  0.038279911            6 
  930000    1.0863678   -6.1279443    423.91477  0.037985195  0.038271506            3 
  931000     1.085548   -6.1537918    423.05537   0.03786747  0.038262696            3 
  932000    1.1015932   -6.1617127    422.48572  0.037775905  0.038254009           10 
  933000    1.0992488   -6.1449585    423.41849  0.037818729  0.038245282            3 
  934000    1.0940818   -6.1746766    424.60703  0.037884282  0.038236561            4 
  935000    1.1094677   -6.1547061    424.51663  0.037835707  0.038227769            3 
  936000    1.0868885   -6.1666227    424.12411  0.037760338  0.038218985            5 
  937000    1.1110746   -6.1496187    425.66435  0.037857021  0.038209929            4 
  938000    1.0789929   -6.1409532    425.60638  0.037811512   0.03820104            6 
  939000    1.0786291   -6.1529949    424.06269  0.037634247  0.038191665            9 
  940000    1.0982313   -6.1049769    426.67133  0.037825473  0.038182682            4 
  941000    1.1054251   -6.1422956    426.32725  0.037754804  0.038173681            5 
  942000    1.0834371   -6.1511934    428.31916  0.037890938  0.038164607            4 
  943000     1.080487   -6.1394714    429.08381  0.037918329  0.038155583            4 
  944000    1.1045298    -6.134725    426.61829  0.037660513  0.038146538            5 
  945000    1.1012467   -6.1729666    426.54089  0.037613835  0.038137142            4 
  946000    1.1123348   -6.1762464    427.03028  0.037617185  0.038127682            4 
  947000    1.0941527   -6.1226275      427.327  0.037603572  0.038118352            5 
  948000    1.0700157   -6.1846056    428.01362  0.037624263    0.0381088            7 
  949000    1.1228517   -6.1439078       427.25  0.037517562  0.038098847            6 
  950000    1.1196435   -6.1608249    427.91701   0.03753658  0.038088941           11 
  951000    1.0857676   -6.1678899     429.8947  0.037670408  0.038079196            5 
  952000    1.0892208   -6.1460907    428.62065  0.037519314  0.038069018            6 
  953000    1.0824076   -6.1778198    428.66489  0.037483813  0.038059045            6 
  954000    1.1046884   -6.1564167    428.65006  0.037443226  0.038049315            9 
  955000    1.0733022   -6.1761961    429.00197  0.037434727  0.038039244            4 
  956000     1.093555   -6.1594734    430.81025  0.037553195  0.038029495            4 
  957000    1.1228415   -6.1840299    430.11257  0.037453202  0.038019812            2 
  958000    1.0980721   -6.1795922     431.5385  0.037538144  0.038010054            6 
  959000    1.0809898   -6.1748133    430.13159  0.037376746  0.037999777            5 
  960000    1.1020466   -6.1871073     431.8736  0.037489027  0.037989661            4 
  961000    1.0806144   -6.1730922    430.52366  0.037332957  0.037979238            7 
  962000    1.0888591   -6.1547694    432.50879  0.037466111  0.037968636            6 
  963000    1.0762756   -6.1584187    432.49953  0.037426405  0.037958097            4 
  964000    1.1023157   -6.1703205    431.24217  0.037278888  0.037947679            6 
  965000    1.0994344   -6.1430356    432.66218  0.037362883  0.037936999            3 
  966000    1.1025978   -6.1943294     431.0643  0.037186361  0.037926198           11 
  967000    1.0881039   -6.1526755    432.12043   0.03723892  0.037915321            5 
  968000    1.0598424   -6.1861287    432.81602  0.037260332  0.037904354            3 
  969000    1.1113306   -6.1738879    431.83418  0.037137443   0.03789305            3 
  970000    1.0829294   -6.1612607    433.32986  0.037227651   0.03788191            3 
  971000    1.0941731   -6.1763651     431.6185  0.037042439  0.037870596            5 
  972000    1.0990547   -6.2168835     432.8427  0.037109285  0.037858931            4 
  973000    1.1067419   -6.1676796     433.1152  0.037094484  0.037847443            3 
  974000    1.0895541   -6.1258242    434.33911  0.037161115  0.037836138            7 
  975000    1.0886002   -6.1636021    435.68577    0.0372381  0.037824953            2 
  976000    1.0965331   -6.1669413    433.58617  0.037020677  0.037813647            4 
  977000    1.0992616   -6.1748469    436.13005  0.037199765  0.037802738            3 
  978000     1.094848   -6.1483617    435.78132  0.037132014  0.037791644            5 
  979000    1.1198161   -6.1700998    436.13071  0.037123826  0.037780528            3 
  980000    1.0591099   -6.1560482    435.99532  0.037074432  0.037769475            2 
  981000    1.1145017   -6.1944964    436.17338  0.037051766  0.037758202            2 
  982000    1.1216762   -6.1686149    437.26599  0.037106754  0.037747171            8 
  983000    1.0985383   -6.1760296    437.94136   0.03712626  0.037736229            3 
  984000    1.0818931   -6.2392938    437.37025  0.037040163  0.037724943            4 
  985000    1.1007585   -6.2099252     436.4325  0.036923223   0.03771375           12 
  986000    1.0738189   -6.1766453    438.22443  0.037037224  0.037702468            8 
  987000    1.0967866   -6.2126133    437.77578  0.036961818  0.037691128           10 
  988000    1.0924257     -6.15279    439.02436   0.03702972  0.037679912            4 
  989000    1.0939338   -6.1461622    438.48389  0.036946739  0.037668741            5 
  990000    1.0805746   -6.1564249    440.01546  0.037038339   0.03765774            6 
  991000    1.0971907   -6.1584741    439.73241  0.036977162  0.037646675            6 
  992000    1.0945185   -6.2197601    438.92955  0.036872442  0.037635628            3 
  993000    1.0866269   -6.1914135    440.89825  0.037000524  0.037624296            4 
  994000    1.0951713   -6.1843951    440.00689  0.036888572  0.037613181            3 
  995000    1.0819662   -6.1515326    440.15841  0.036864188  0.037601765            5 
  996000      1.09976   -6.1724366    440.88089  0.036887625   0.03759031            3 
  997000    1.0988913   -6.1614889    440.76505  0.036840944   0.03757895            6 
  998000    1.0992823   -6.1597879    440.00019  0.036740163  0.037567399            4 
  999000    1.0981598   -6.1939056    441.28062  0.036810195  0.037556004            5 
 1000000    1.1080777   -6.1496235     442.9519  0.036912658  0.037544614            6 
 1001000    1.1139899   -6.1879553    441.94531  0.036791984  0.037533444            7 
 1002000    1.0842338   -6.1526504    442.07583   0.03676612  0.037522236            5 
 1003000     1.090665   -6.1502838    443.31428   0.03683236  0.037510828            3 
 1004000    1.1172537   -6.1736242    442.77469  0.036750887   0.03749932            4 
 1005000     1.084511   -6.1680137    444.95946  0.036895477  0.037488086            4 
 1006000    1.0700274   -6.2239628    443.11152  0.036705725  0.037476929            2 
 1007000    1.0802141   -6.1498663    443.79266  0.036725642  0.037465711            7 
 1008000    1.0919717   -6.1666648     445.1052  0.036797718  0.037454622            5 
 1009000    1.0983357   -6.1463671    444.09643  0.036677934  0.037443413            4 
 1010000    1.0951944    -6.166921    445.88052  0.036788822  0.037432282            4 
 1011000    1.0798719   -6.1812164    445.49818  0.036720918  0.037421496            6 
 1012000     1.068574   -6.1930538    445.73798  0.036704379  0.037410459            2 
 1013000    1.1077397   -6.1553957    448.96502  0.036933615  0.037399473            6 
 1014000      1.09319   -6.1836786     448.5369  0.036862007  0.037388738            5 
 1015000    1.1045433   -6.1825403    448.38907  0.036813553  0.037378215            9 
 1016000    1.0974132   -6.2154474    447.73311  0.036723516  0.037367335            4 
 1017000    1.0679952   -6.1964753    446.68944  0.036601888  0.037356207            4 
 1018000    1.0702444   -6.1639537    448.23643   0.03669257  0.037344935            3 
 1019000    1.0827409   -6.1576576    449.14107  0.036730542  0.037333542            3 
 1020000    1.1044166   -6.1716677    449.89931  0.036756479  0.037322497            4 
 1021000    1.0943119   -6.2367515    450.13856  0.036740007  0.037311181            3 
 1022000    1.0700351   -6.1839961    449.54084  0.036655319  0.037299727            5 
 1023000     1.074798   -6.1670746    448.33274  0.036521077  0.037288383            4 
 1024000    1.0952805    -6.198868    449.26491  0.036561272  0.037276946            6 
 1025000    1.0803653   -6.1584935    451.41648  0.036700527  0.037265547            4 
 1026000    1.0893635   -6.1945636    450.42111  0.036583911  0.037254132            4 
 1027000    1.0871292    -6.177854    449.73863   0.03649291  0.037242641           10 
 1028000    1.0860839   -6.1623272    451.02272  0.036561504  0.037231203            6 
 1029000    1.0916826   -6.1845307      451.108   0.03653288  0.037220052            8 
 1030000    1.0886998   -6.1700168    451.22245  0.036506671  0.037208759            3 
 1031000    1.0866534   -6.1934334    451.91698  0.036527399  0.037197401            4 
 1032000    1.0841467   -6.2228981     452.5689  0.036544647  0.037185764            5 
 1033000    1.0717822   -6.1761401    452.19208  0.036478871  0.037174383            5 
 1034000    1.0957091   -6.2088336    452.54995  0.036472433  0.037163439            6 
 1035000    1.1075699   -6.2395935     453.1839  0.036488236  0.037152255            6 
 1036000    1.0852513   -6.1816365    453.75587  0.036499025  0.037141208            5 
 1037000    1.0755279   -6.2081045    453.80133  0.036467481  0.037130102            3 
 1038000     1.066682   -6.1937991     453.6257  0.036418248  0.037119033            7 
 1039000    1.1029324   -6.1846317    455.79469  0.036557162  0.037107913            6 
 1040000    1.0927559   -6.2008945    456.01936  0.036540013  0.037097012            4 
 1041000    1.0844505   -6.1971818    455.40802  0.036455974  0.037086241            7 
 1042000    1.1009859   -6.1684573    456.05809  0.036472976  0.037075318            7 
 1043000    1.1035566   -6.2021037    457.29653  0.036536955  0.037064851           12 
 1044000    1.0793917   -6.1896077    458.48131  0.036596528  0.037054439            8 
 1045000      1.07189   -6.2114452    458.24241  0.036542457  0.037043698            4 
 1046000    1.1163651   -6.1924294    458.15234  0.036500346  0.037033173            3 
 1047000    1.0883755   -6.1871565    458.32394  0.036479142  0.037022555            4 
 1048000    1.0846298   -6.1735198    458.94376  0.036493619  0.037011718            7 
 1049000    1.0755184   -6.1680372    459.68106  0.036517402  0.037001114            4 
 1050000    1.0969713   -6.2065859    458.84424  0.036416209  0.036990706            3 
 1051000     1.089166   -6.2047589    460.83089  0.036539081  0.036980494            4 
 1052000    1.0705653   -6.1964467    458.06488  0.036285241  0.036969822            7 
 1053000    1.0740612   -6.1703004    461.11874  0.036492462  0.036959169            4 
 1054000    1.0884174   -6.2122254    459.11515  0.036299426  0.036948291            4 
 1055000     1.101743   -6.1924496    460.16175  0.036347689  0.036937127            4 
 1056000    1.0807727   -6.1727623    461.47827  0.036417161  0.036926409            5 
 1057000    1.0796415   -6.1967353    460.87216  0.036334923  0.036915555            2 
 1058000    1.0688398   -6.2208145    459.86987  0.036221634   0.03690455            3 
 1059000    1.0850987   -6.1925516    460.66975  0.036250374  0.036893405            4 
 1060000    1.0909114   -6.2075155    462.16979  0.036334103  0.036882413            2 
 1061000    1.0660818   -6.1780708    460.14665  0.036140956  0.036871296            4 
 1062000    1.0816223   -6.1606238    461.15168  0.036185788  0.036860252           13 
 1063000    1.0773834   -6.2170714    461.09153  0.036147031  0.036849183           12 
 1064000     1.077114   -6.1578362    461.11849   0.03611517  0.036837861            4 
 1065000     1.071012   -6.2075258    462.61206  0.036198127  0.036826524            4 
 1066000    1.0885758   -6.2020028    463.03191  0.036196991  0.036815215            7 
 1067000    1.0742805   -6.1954275      464.468  0.036275227   0.03680388            4 
 1068000    1.0853453   -6.2396793    461.50194  0.036009827  0.036792631            5 
 1069000    1.0840718   -6.1630552    463.74016   0.03615062   0.03678116            9 
 1070000    1.0620369   -6.2296358    463.34482  0.036086045  0.036769558            4 
 1071000     1.096459   -6.2110466    462.66244  0.035999256  0.036757844            9 
 1072000    1.1002936   -6.2124279    463.35622  0.036019607  0.036746175            4 
 1073000    1.0887553    -6.160861    464.77107   0.03609592   0.03673465            3 
 1074000    1.0720958   -6.2214211    465.22413  0.036097465  0.036723297            8 
 1075000    1.0552574   -6.2015998    465.77897  0.036106897  0.036712252            5 
 1076000    1.0653659   -6.2228784      465.723  0.036069005  0.036701273            4 
 1077000    1.0709654   -6.1631237    469.06189  0.036293863   0.03669034            4 
 1078000    1.0646928   -6.1826043    467.33558  0.036126745  0.036679772            7 
 1079000    1.0522304   -6.2100481    468.61701  0.036192232  0.036669106            6 
 1080000    1.0573489   -6.2014036    466.18152  0.035970797  0.036658337            3 
 1081000    1.0953496    -6.182443    468.40343  0.036108806  0.036647787            4 
 1082000    1.0559931    -6.236526    468.46873  0.036080463  0.036637158            5 
 1083000    1.0724499   -6.2256612    467.92378  0.036005215  0.036626248            3 
 1084000    1.0795107    -6.180389    469.43312  0.036088032  0.036615364            6 
 1085000     1.094665   -6.1626238    469.01381  0.036022566  0.036604627            7 
 1086000    1.0926064   -6.1726813     469.5199   0.03602823  0.036593673            2 
 1087000    1.0918158   -6.1828355     470.7552  0.036089788  0.036582809            4 
 1088000    1.0779627   -6.1782491    470.32774  0.036023877   0.03657217            4 
 1089000    1.0604478   -6.1699873    471.45633   0.03607716  0.036561459            6 
 1090000    1.0852222   -6.1949277    471.24226  0.036027696  0.036550952            3 
 1091000    1.0596946   -6.2088396    470.88092  0.035967073  0.036540313            2 
 1092000    1.0873712   -6.1936932    472.93927  0.036091214  0.036529754            3 
 1093000    1.0759936   -6.1649135    472.19108   0.03600115   0.03651924            4 
 1094000    1.0690503   -6.2026604    471.90801  0.035946679  0.036508855            4 
 1095000    1.0783724   -6.2071181    472.82521  0.035983654  0.036498493            4 
 1096000    1.0701664   -6.2373286     473.2111  0.035980163  0.036487834            6 
 1097000    1.0641875   -6.1986573    473.82493  0.035993993  0.036477302            3 
 1098000     1.063239   -6.2167028    474.33438  0.035999877  0.036466832            3 
 1099000    1.0846775   -6.2116963    474.67662  0.035993071  0.036456373           15 
 1100000    1.0579996   -6.2119723    473.14026  0.035843959  0.036445716            2 
 1101000    1.0734242   -6.2177096    474.12926  0.035886259  0.036435083            8 
 1102000    1.0720275   -6.1854743    474.89221  0.035911389  0.036424645            4 
 1103000    1.0991613   -6.1570751     475.3591  0.035914105   0.03641435            5 
 1104000    1.0806565   -6.1908231     474.3057  0.035802061  0.036403977            8 
 1105000    1.0666519   -6.1963412    477.45724  0.036007333  0.036393523            6 
 1106000     1.068451   -6.2102202    475.37432  0.035817836  0.036382798            4 
 1107000    1.0652245    -6.209569    476.70519  0.035885666  0.036371976            6 
 1108000    1.0840835   -6.2154765    475.55227  0.035766567  0.036361164            8 
 1109000    1.0450669   -6.2029865    478.20597  0.035933722  0.036350545            3 
 1110000    1.0752557   -6.2401462    477.86064  0.035875424  0.036340008            6 
 1111000    1.0770418   -6.1757225    478.62124  0.035900183  0.036329635            7 
 1112000    1.0771836   -6.1813184    478.07734  0.035827139  0.036319075            3 
 1113000    1.0821975   -6.1862369    478.99288  0.035863498  0.036308706            4 
 1114000    1.0716419   -6.2229063    477.74256  0.035737774  0.036298101            9 
 1115000    1.0612808   -6.1793003    477.65502  0.035699179  0.036287526            7 
 1116000    1.0765039   -6.2450966    477.27542  0.035638846  0.036276802            4 
 1117000    1.0841161   -6.1968125     478.0408  0.035664041  0.036265819            5 
 1118000    1.0898453   -6.2224491    478.65953  0.035678259  0.036254894            8 
 1119000    1.0810392   -6.2064259     479.0552  0.035675841  0.036243906            6 
 1120000    1.0731712   -6.2259276    479.08307  0.035646062  0.036232907            7 
 1121000    1.0827335   -6.1761052    478.37132  0.035561353  0.036221872            5 
 1122000    1.0553411   -6.2170919    479.65677  0.035625131  0.036210687            4 
 1123000    1.0865613   -6.2052226    477.64599  0.035444196  0.036199461            6 
 1124000    1.0731872   -6.2242781    479.52327  0.035551844  0.036188328            2 
 1125000     1.079937   -6.1864415    481.05376  0.035633612  0.036177157            3 
 1126000    1.0695462   -6.2349022    480.52131   0.03556256  0.036166018            6 
 1127000    1.0864097   -6.2153106    481.79258  0.035625006  0.036155026            2 
 1128000    1.0727864   -6.2127062    481.82908   0.03559612  0.036143884            8 
 1129000    1.0699937   -6.2082471    482.16637  0.035589487  0.036132704            3 
 1130000    1.0763957   -6.2053844    482.00327  0.035545964  0.036121602            7 
 1131000    1.0697277   -6.2130777    483.02913  0.035590121  0.036110755            3 
 1132000    1.0776215   -6.2101519    481.82255  0.035469858  0.036099812            7 
 1133000    1.0794033   -6.2464941    482.40955  0.035481726  0.036088705            6 
 1134000    1.0473234   -6.2529805    481.99989  0.035420333  0.036077535            5 
 1135000    1.0658936    -6.205645    483.27471  0.035482725  0.036066693            8 
 1136000    1.0863631   -6.2038848    484.77827  0.035561786  0.036055876            8 
 1137000    1.0987214   -6.2151517    483.71364   0.03545248  0.036044918            9 
 1138000    1.0866374   -6.2406634    485.00752  0.035516075  0.036033788            9 
 1139000    1.0546954   -6.2352003     484.7664  0.035467252  0.036022752            3 
 1140000    1.0691625   -6.2246418    483.64085  0.035353863  0.036012053            5 
 1141000    1.0499277   -6.2174054    485.91953  0.035489302   0.03600135            3 
 1142000    1.0803395   -6.2262772    485.58466   0.03543379  0.035990693            5 
 1143000    1.0761738   -6.1977793    486.66025  0.035481208  0.035979977            3 
 1144000    1.0709308   -6.2143235    487.01125  0.035475761  0.035969397            5 
 1145000    1.0698252   -6.2443209    486.46577  0.035405078  0.035958756            3 
 1146000    1.0827571   -6.2380161    486.90888  0.035406405  0.035948279            4 
 1147000     1.079332   -6.2384736    489.00811  0.035528052  0.035937962            2 
 1148000    1.0769966   -6.2224004    490.61537  0.035613775  0.035927783            4 
 1149000     1.077614   -6.2349088    489.01954  0.035467039  0.035917632            7 
 1150000    1.0587681   -6.2345722    489.47543  0.035469234  0.035907195            6 
 1151000    1.0533916   -6.2412304    489.62532   0.03544927  0.035896946            4 
 1152000    1.0871876   -6.1971339    490.93273  0.035513074  0.035886723            3 
 1153000    1.0762507   -6.2109097    489.97734  0.035413222  0.035876388            4 
 1154000    1.0752258    -6.242132    490.06877  0.035389137  0.035865893            7 
 1155000    1.0671505   -6.2412294    490.49248  0.035389068  0.035855339            4 
 1156000    1.0763755    -6.187585    491.44639  0.035427219  0.035845048            4 
 1157000    1.0860382   -6.1986315    492.37251  0.035463304  0.035834613            3 
 1158000     1.065488   -6.2018608    492.06592  0.035410616   0.03582443            2 
 1159000    1.0680439   -6.2381344    491.93223  0.035370451  0.035814248            3 
 1160000    1.0667772   -6.2104401    493.57428  0.035457923  0.035804034            7 
 1161000    1.0585916   -6.2075011    494.34714  0.035482855  0.035793849            5 
 1162000    1.0464256   -6.2342199    493.01405  0.035356716  0.035783563            4 
 1163000    1.0769032    -6.203465    493.37794  0.035352389  0.035773508            6 
 1164000     1.082914   -6.1927558    495.69729  0.035488065  0.035763653            3 
 1165000    1.0796189   -6.2043375    494.35583  0.035361647   0.03575373            4 
 1166000    1.0782008   -6.2477992     493.7407  0.035287357  0.035743769            5 
 1167000    1.0464073   -6.2291613    496.54995  0.035457723  0.035733589            4 
 1168000    1.0618263   -6.2320056    496.21001  0.035403112  0.035723736            3 
 1169000     1.075582   -6.2338367    494.74881  0.035268664  0.035714058           13 
 1170000    1.0714067   -6.2031494     496.0407  0.035330534  0.035704134            8 
 1171000    1.1017799   -6.2288286    497.24136  0.035385807  0.035694294           11 
 1172000    1.0661237   -6.2209265    497.50544  0.035374392  0.035684563            5 
 1173000     1.069686   -6.2438244    497.71743  0.035359295  0.035674811            4 
 1174000    1.0445993   -6.2094026    497.86112  0.035339375  0.035665141            3 
 1175000    1.0535984    -6.245126     497.8624   0.03530939  0.035655142            5 
 1176000    1.0754845   -6.2182809    498.59239  0.035331093  0.035645306            5 
 1177000    1.0502997   -6.2634893    499.21091  0.035344867  0.035635509            5 
 1178000    1.0301223   -6.2517495      498.102  0.035236417  0.035625605            5 
 1179000    1.0583365    -6.229662    499.24088  0.035287028  0.035615864            4 
 1180000    1.0739758    -6.208809     501.0846   0.03538733  0.035606303            7 
 1181000    1.0680275   -6.1956918    500.05961  0.035285042  0.035596778            4 
 1182000     1.049031   -6.2150929    498.68184  0.035158054  0.035587126            7 
 1183000    1.0757095   -6.2266487    501.43063  0.035321966  0.035577656            4 
 1184000    1.0576797    -6.226679    502.68491  0.035380413  0.035568186            6 
 1185000    1.0668121   -6.2396925    501.68994  0.035280586  0.035558831            6 
 1186000    1.0563203   -6.2638141    503.00313  0.035343109   0.03554933            6 
 1187000    1.0772908    -6.221353     501.5584  0.035211907  0.035539895            3 
 1188000     1.080373   -6.2314387    503.49698   0.03531825  0.035530489            3 
 1189000    1.0905182   -6.2517413    503.01171  0.035254535  0.035520949            4 
 1190000    1.0605616   -6.2095845    503.24472  0.035241227  0.035511638            2 
 1191000    1.0385417    -6.255212      503.855  0.035254338  0.035502311            3 
 1192000    1.0578534   -6.2132245    504.26431  0.035253377  0.035493023            4 
 1193000    1.0414973   -6.2070204    504.38807  0.035232472   0.03548403            5 
 1194000    1.0395772   -6.2489993    505.63402  0.035289923  0.035474867            3 
 1195000    1.0654094    -6.204171    506.04873  0.035289312  0.035465863            4 
 1196000    1.0761817   -6.2121676    506.49128  0.035290641  0.035457008            3 
 1197000    1.0691055   -6.2217196    507.04791   0.03529991  0.035448217            4 
 1198000    1.0501756   -6.2700728    506.81706  0.035254387  0.035439498            6 
 1199000    1.0788434   -6.2556385    507.38438  0.035264413  0.035430458            5 
 1200000    1.0376003   -6.2332373    507.81003  0.035264585  0.035421753            4 
 1201000    1.0637874    -6.233194    508.64562  0.035293202  0.035412784            6 
 1202000    1.0570956   -6.1997946     508.8069  0.035275021  0.035403811            6 
 1203000    1.0790381   -6.2226974    509.08122  0.035264701  0.035394712            9 
 1204000    1.0370983   -6.2407564    509.35099  0.035254083  0.035385722            3 
 1205000    1.0432403   -6.2211428     509.5832  0.035240885  0.035376446            2 
 1206000    1.0469265   -6.2228735    508.77063  0.035155516  0.035367399            5 
 1207000    1.0609334   -6.2681396    509.72587  0.035192341  0.035358268            4 
 1208000    1.0734049   -6.2798578    509.38197  0.035139485  0.035349161            5 
 1209000    1.0744093   -6.2496276    510.22623  0.035168613  0.035340034            7 
 1210000    1.0644844   -6.2283828    508.94849  0.035051549  0.035330827            3 
 1211000    1.0607212   -6.2280614    510.88009  0.035155525  0.035321545            6 
 1212000    1.0579626   -6.2235857    511.93853  0.035199294  0.035312388            5 
 1213000    1.0733389   -6.2043904     512.2748  0.035193377    0.0353033            1 
 1214000    1.0283888   -6.2563373    511.15368   0.03508743  0.035294171            2 
 1215000    1.0548838   -6.2455946    511.00978  0.035048682  0.035285029            3 
 1216000    1.0500709    -6.241101    512.69953  0.035135658  0.035275899           12 
 1217000    1.0580574   -6.2427805    513.14365  0.035137199   0.03526685            2 
 1218000    1.0580025   -6.2317513    512.56196  0.035068552   0.03525787            8 
 1219000    1.0336673   -6.2514848    513.09183  0.035076007   0.03524878            4 
 1220000     1.051613   -6.2351327    513.09968  0.035047792   0.03523964            8 
 1221000    1.0470052   -6.2415782    514.34559  0.035104122  0.035230515            4 
 1222000    1.0553208   -6.2380973    515.76744  0.035172357   0.03522155            3 
 1223000    1.0500872   -6.2344614    514.54266  0.035060143   0.03521283            3 
 1224000    1.0609687   -6.2183417    515.29779   0.03508291  0.035204008            4 
 1225000     1.049246   -6.2470128    515.01802  0.035035239  0.035195224            6 
 1226000    1.0480466   -6.2686054    516.15548  0.035083978  0.035186184            2 
 1227000    1.0387696   -6.2369421    515.51928  0.035012176  0.035177199            4 
 1228000    1.0478908   -6.2390055    515.96685  0.035014037  0.035168233            3 
 1229000     1.057851   -6.2136126    517.68168  0.035101823  0.035159492            9 
 1230000    1.0421401   -6.2609634    516.59299  0.034999525  0.035150571            8 
 1231000    1.0456828   -6.2224211    518.61568  0.035108021  0.035141788            5 
 1232000    1.0329876   -6.2816482    516.60411   0.03494346   0.03513301            7 
 1233000     1.068479   -6.2372092    518.69197   0.03505623  0.035124138            3 
 1234000    1.0732516   -6.2558293    517.61287  0.034954948  0.035115325            5 
 1235000    1.0375346   -6.2456957    516.21947  0.034832623  0.035106188            5 
 1236000    1.0456573     -6.24789    518.05783  0.034928387  0.035097046           18 
 1237000    1.0594003   -6.2496018    517.93438  0.034891834  0.035087896            7 
 1238000    1.0516258     -6.23238    518.28268  0.034887094  0.035078699            6 
 1239000     1.046059   -6.2710522    519.36507  0.034931737  0.035069649            4 
 1240000    1.0526165   -6.2640606    518.53864  0.034848027  0.035060683            5 
 1241000    1.0461441   -6.2812833    519.40294  0.034877984   0.03505171            4 
 1242000    1.0682839   -6.2626358    521.22279  0.034972007  0.035042901            3 
 1243000    1.0512852   -6.2352563    520.99111  0.034928339  0.035033793            5 
 1244000    1.0457746   -6.2472676    520.50223  0.034867513  0.035024938            6 
 1245000     1.060284   -6.2460449    522.75535  0.034990318  0.035016265            3 
 1246000    1.0296389   -6.2498256    521.17318  0.034856419  0.035007531            4 
 1247000     1.084452   -6.2599234    522.30711  0.034904244  0.034998879            7 
 1248000    1.0383805   -6.2636823    522.89828   0.03491575  0.034990084            4 
 1249000      1.06424   -6.2716924    523.42743    0.0349231  0.034981325            7 
 1250000    1.0522803   -6.2427779    523.15261   0.03487684  0.034972517            6 
 1251000    1.0506309   -6.2606661    523.55658  0.034875871  0.034963912            6 
 1252000    1.0315019   -6.2387804    523.92058  0.034872243  0.034955329            5 
 1253000    1.0527203    -6.260219    525.63036  0.034958125  0.034946731            5 
 1254000    1.0671096   -6.2359697    526.22204  0.034969567  0.034938327            5 
 1255000    1.0438742   -6.2490534    525.75032   0.03491038  0.034929775            2 
 1256000    1.0460547   -6.2529479    524.94161  0.034828928  0.034921177            5 
 1257000     1.048135   -6.2210423    525.21087  0.034819071  0.034912475            5 
 1258000    1.0550185   -6.2453534    525.91995  0.034838364  0.034903916            2 
 1259000     1.071344   -6.2568023     526.7967  0.034868725  0.034895226            4 
 1260000     1.034043     -6.24603    525.89179  0.034781203  0.034886621            5 
 1261000    1.0422912   -6.2643177    524.91975  0.034689383  0.034877869            3 
 1262000    1.0474205   -6.2668537    526.44216  0.034762425  0.034869064            9 
 1263000    1.0393025    -6.253593    525.75839  0.034689786  0.034860302            4 
 1264000    1.0495361   -6.2267709    528.29524  0.034829591  0.034851827            4 
 1265000    1.0358073   -6.2510843    527.68793  0.034762051  0.034843256            6 
 1266000    1.0659721   -6.2684799    528.55306  0.034791539  0.034834811            3 
 1267000    1.0569106   -6.2283408    528.06376  0.034731897  0.034826242            4 
 1268000    1.0484742   -6.2450237    529.86258  0.034822725  0.034817849            4 
 1269000     1.046238    -6.236513    529.71696  0.034785721  0.034809509            4 
 1270000    1.0526606   -6.2113976    531.89467  0.034901225  0.034801413            8 
 1271000     1.047778   -6.2441518    530.32306  0.034770723  0.034793058            5 
 1272000    1.0430587   -6.2626869    529.58913  0.034695305  0.034784454            4 
 1273000    1.0482537   -6.2594712    529.61721  0.034669888  0.034776012            3 
 1274000    1.0537811   -6.2367098    531.04441  0.034736029  0.034767733            5 
 1275000    1.0240737   -6.2558312    531.71315  0.034752494  0.034759544            7 
 1276000    1.0595863   -6.2482459    531.35147  0.034701637  0.034751281            7 
 1277000    1.0424183   -6.2540948    530.96276  0.034649097  0.034742684            4 
 1278000    1.0481675   -6.2637464     533.1197   0.03476263  0.034734238            6 
 1279000    1.0611592   -6.2568543    533.43452  0.034755963  0.034725972            7 
 1280000     1.052594   -6.2408666    532.97856  0.034699125  0.034717571            9 
 1281000    1.0241313   -6.3068835    534.73186  0.034786096  0.034709374            4 
 1282000    1.0487613   -6.2618682    533.48404   0.03467785   0.03470108            6 
 1283000    1.0357506   -6.2608149    535.56664   0.03478609  0.034692978            4 
 1284000    1.0405878    -6.277558    535.62629  0.034762869   0.03468503            4 
 1285000    1.0517551   -6.2489593    535.44003  0.034723737  0.034676948           10 
 1286000    1.0655377    -6.229371    536.05954   0.03473688  0.034668804            2 
 1287000    1.0404097   -6.2132448    536.83801  0.034760296  0.034660783            4 
 1288000    1.0570962   -6.2383016    537.18557  0.034755795  0.034652737            8 
 1289000    1.0421042   -6.2691886    536.11887   0.03465987  0.034644742           10 
 1290000    1.0516989   -6.2526965    536.19821  0.034638127  0.034636651            3 
 1291000    1.0388817   -6.2626101    536.72597  0.034645363  0.034628518            3 
 1292000    1.0402841   -6.2888303    537.27028  0.034653656  0.034620463            4 
 1293000    1.0601624    -6.262479    538.82941   0.03472734   0.03461231            7 
 1294000    1.0505822   -6.2332742    538.50983  0.034679922  0.034604332            7 
 1295000    1.0375764   -6.2546191    539.14135  0.034693781  0.034596482            3 
 1296000     1.050045   -6.2609288     539.6202  0.034697801  0.034588561            5 
 1297000    1.0393255   -6.2160378    539.03813   0.03463365  0.034580467            7 
 1298000     1.052757   -6.2665787    539.88705  0.034661469  0.034572512            5 
 1299000    1.0438707   -6.2475151    539.83856  0.034631676  0.034564577            6 
 1300000    1.0529029   -6.2657661    539.56419  0.034587448  0.034556733            5 
 1301000    1.0515222   -6.2735424    541.00978  0.034653458  0.034548812            7 
 1302000    1.0377939   -6.2273914     541.6291  0.034666481  0.034541088            9 
 1303000    1.0165305   -6.2867186    540.69731  0.034580283  0.034533172            8 
 1304000    1.0465924    -6.258558    541.63415  0.034613634  0.034525484            5 
 1305000    1.0346242   -6.2657105    541.07784  0.034551586  0.034517661           11 
 1306000    1.0505163   -6.2675779    540.93333  0.034515909  0.034509871           11 
 1307000    1.0554788   -6.2400624    542.99506  0.034620955  0.034502107            8 
 1308000    1.0407979   -6.2312355    543.18385  0.034606514  0.034494326            7 
 1309000    1.0347769   -6.2588942    544.25357  0.034648177  0.034486623            4 
 1310000    1.0219316   -6.2903473    543.93223  0.034601287  0.034478907            5 
 1311000    1.0376391   -6.2588704    544.32846   0.03460008  0.034471073            7 
 1312000    1.0300823   -6.2826186    543.96199  0.034550431  0.034463306            6 
 1313000    1.0604515   -6.2434754    544.80177  0.034577416  0.034455412            5 
 1314000    1.0674941   -6.3094356    545.14521  0.034572882  0.034447574            2 
 1315000    1.0349241   -6.2838656    544.19391  0.034486306  0.034439564            4 
 1316000     1.051103   -6.2919352    544.96931  0.034509201   0.03443173            4 
 1317000    1.0160681   -6.2655232    543.55848  0.034393728   0.03442381            4 
 1318000    1.0441277   -6.2790117    544.96774  0.034456736  0.034415833            9 
 1319000    1.0248794   -6.2422636    545.06274  0.034436615  0.034407823            7 
 1320000    1.0436305   -6.2484596    545.58585  0.034443551   0.03439965            3 
 1321000    1.0339099   -6.2562955     546.4841  0.034474142  0.034391549           10 
 1322000    1.0538444   -6.2695777    546.09815  0.034423736  0.034383645            5 
 1323000    1.0386818     -6.27384     545.7146  0.034373558  0.034375683            3 
 1324000     1.049911   -6.2531839    547.03684  0.034430818  0.034367514            8 
 1325000    1.0309446   -6.2660992    546.09257  0.034345445  0.034359441            6 
 1326000    1.0215423   -6.2606929    548.72285  0.034484845  0.034351325            3 
 1327000    1.0606834   -6.2860847    548.15174  0.034422993   0.03434297            3 
 1328000    1.0426561   -6.2647292    547.85379  0.034378376  0.034334655            3 
 1329000    1.0316782   -6.2936008    549.08506  0.034429713  0.034326405            7 
 1330000    1.0484137   -6.2308138     549.1169  0.034405821  0.034318376            6 
 1331000    1.0393976   -6.2606397    548.61415  0.034348494  0.034310316            5 
 1332000    1.0342209   -6.2543231    547.53575  0.034255239   0.03430225            3 
 1333000    1.0248935   -6.2767816    550.77293  0.034431916  0.034294307            7 
 1334000    1.0165188   -6.2677108    548.20893  0.034245935  0.034286196            3 
 1335000    1.0315165   -6.2631018    550.13844  0.034340727  0.034278146            6 
 1336000    1.0525249   -6.2517704    550.36629  0.034329235  0.034270215            3 
 1337000    1.0565097   -6.2552489    551.19055  0.034354933  0.034262278            7 
 1338000    1.0455796    -6.272261    550.07541  0.034259804   0.03425419            3 
 1339000    1.0319859   -6.2709151    550.16855  0.034240014   0.03424604            6 
 1340000    1.0375463   -6.2809958    550.94043  0.034262464  0.034237972           21 
 1341000    1.0533022   -6.2522664    552.54596  0.034336686   0.03422979            3 
 1342000    1.0390193   -6.2923627    550.50185  0.034184169  0.034221628            4 
 1343000    1.0412061   -6.2549479    552.25174  0.034267296  0.034213462            5 
 1344000     1.012253   -6.2545592    552.29671  0.034244587  0.034205389            8 
 1345000     1.039025   -6.2719939    552.22597  0.034214744  0.034197365            8 
 1346000    1.0223705   -6.2607529    554.43954  0.034326371  0.034189381           12 
 1347000    1.0305587    -6.261492    552.89495   0.03420533  0.034181196            5 
 1348000    1.0178026   -6.2480089    552.18017  0.034135767  0.034172898            5 
 1349000    1.0351053   -6.2927766    552.71119  0.034143266   0.03416474            7 
 1350000    1.0540339   -6.2637408    553.57177  0.034171097  0.034156459            3 
 1351000    1.0280134   -6.2948846    555.44794  0.034261531  0.034148367            5 
 1352000    1.0408849   -6.2692335    555.05174  0.034211769  0.034140379            5 
 1353000    1.0402971    -6.277375    554.19649  0.034133807  0.034132159            6 
 1354000    1.0260228   -6.2616668    554.64961  0.034136485  0.034123992           12 
 1355000    1.0116579   -6.2843504    554.70297  0.034114574  0.034115804            5 
 1356000     1.043545   -6.2839229    555.22504  0.034121499  0.034107561            6 
 1357000    1.0330977   -6.3072865    555.18084  0.034093641  0.034099101            3 
 1358000     1.056524   -6.3134905    555.40238  0.034082129   0.03409072           18 
 1359000    1.0309016   -6.2309902    555.13522  0.034040668  0.034082406            9 
 1360000     1.030737   -6.3151954    556.75126   0.03411466  0.034074202            3 
 1361000    1.0161566   -6.3038097    555.45823  0.034010423  0.034065914            8 
 1362000    1.0612781   -6.2877715    556.19809   0.03403072  0.034057711            7 
 1363000     1.065093   -6.2879426    556.29749   0.03401183  0.034049496            8 
 1364000    1.0447223   -6.2788997    556.97605  0.034028351  0.034041136            3 
 1365000    1.0485395   -6.2666281    556.24386  0.033958721  0.034032749            8 
 1366000    1.0388966   -6.3243245     556.5434  0.033952135  0.034024415            5 
 1367000    1.0436724   -6.2919779    557.42029  0.033980754  0.034015993            5 
 1368000    1.0389088   -6.2795109    557.89567  0.033984873  0.034007581            6 
 1369000    1.0544946   -6.2614196    557.21684  0.033918726  0.033999376            5 
 1370000    1.0314686   -6.2910306    556.31533  0.033839132  0.033991025            4 
 1371000    1.0385783   -6.2996861    558.27176  0.033933367   0.03398264            6 
 1372000    1.0181251   -6.2653498    558.96364  0.033950659  0.033974414            4 
 1373000    1.0377371   -6.2683719    559.45655  0.033955848  0.033966199            4 
 1374000    1.0294965   -6.2905388    559.53505  0.033935896  0.033957941            2 
 1375000    1.0323204   -6.3029469    560.17101  0.033949758  0.033949671            6 
 1376000     1.054829   -6.3200477    561.00106  0.033975355  0.033941342            4 
 1377000     1.018827   -6.2596262     560.6285  0.033928135  0.033933169            3 
 1378000    1.0212871   -6.2874759    561.01405   0.03392683  0.033924834            3 
 1379000    1.0466901   -6.2996324    560.86079  0.033892965  0.033916582            6 
 1380000    1.0216147   -6.2742323    562.57705  0.033972044  0.033908229            3 
 1381000    1.0241268   -6.2859981    560.52631  0.033823697  0.033899961            2 
 1382000    1.0207163   -6.2626164    563.01639  0.033949372   0.03389171            6 
 1383000    1.0268385   -6.3081912    561.11925  0.033810512  0.033883531            5 
 1384000    1.0086649    -6.300359    563.33815  0.033919686    0.0338752            4 
 1385000    1.0247073   -6.2960876    561.76989  0.033800836  0.033866781            7 
 1386000    1.0185336    -6.325304    561.36356  0.033752018  0.033858285           10 
 1387000    1.0160407   -6.2732114    562.92805   0.03382168  0.033849834            5 
 1388000     1.024542   -6.2999884     563.3595  0.033823217  0.033841415            5 
 1389000    1.0286931   -6.3053418    562.57794  0.033751976  0.033833153            3 
 1390000    1.0324279   -6.2906146    562.24664  0.033707832  0.033824709            3 
 1391000     1.053527    -6.296475    562.30288  0.033686969  0.033816197            3 
 1392000     1.059884   -6.2868848    564.76344  0.033810072  0.033807876            8 
 1393000    1.0562539     -6.25276     564.2957  0.033757819  0.033799591            8 
 1394000    1.0247925   -6.2902911    566.02163  0.033836778  0.033791306            6 
 1395000     1.019636   -6.2526983    565.23772  0.033765694  0.033782963            4 
 1396000    1.0492065   -6.2724765    564.42082  0.033692742  0.033774635            4 
 1397000    1.0251161   -6.2788875    565.45391   0.03373025  0.033766149           11 
 1398000    1.0415219   -6.2721001    566.84446  0.033789012  0.033757563            6 
 1399000    1.0213997   -6.2939939    567.51939  0.033805062  0.033749081            6 
 1400000    1.0348177   -6.3383059    565.76767  0.033676647    0.0337406            6 
 1401000    1.0267109   -6.2960908    566.91904  0.033721094  0.033731971            6 
 1402000     1.047202   -6.3047276    565.80729  0.033630961  0.033723399            3 
 1403000    1.0096523   -6.3018228    566.89554  0.033671629  0.033714877           11 
 1404000    1.0229554   -6.3003629    567.44845  0.033680464  0.033706299            4 
 1405000    1.0236384   -6.2943715    565.04074  0.033513686  0.033697603            3 
 1406000    1.0329817   -6.2777638    566.45259   0.03357353  0.033688895            5 
 1407000    1.0285595   -6.3104751    567.68879  0.033622885  0.033680301            5 
 1408000    1.0352356   -6.3051448    566.88439  0.033551396  0.033671718            9 
 1409000    1.0252967    -6.301422    567.75935  0.033579332  0.033663202            8 
 1410000    1.0302419   -6.2720254    567.92671  0.033565409  0.033654676            4 
 1411000    1.0274214     -6.29357    568.04289  0.033548482  0.033645992            6 
 1412000    1.0149797   -6.2987643    569.17093  0.033591297  0.033637279            5 
 1413000    1.0359016   -6.2753371    570.06681  0.033620359  0.033628647           10 
 1414000    1.0355602   -6.2943086     570.4068   0.03361662  0.033619998            7 
 1415000    1.0200856   -6.2834502    568.01652  0.033452092   0.03361131            5 
 1416000   0.99729791   -6.3152932    570.77753  0.033590956  0.033602618            5 
 1417000     1.010707   -6.3192011    569.87885    0.0335144  0.033593847            5 
 1418000    1.0407534   -6.3304939    570.54443  0.033529879  0.033585054            7 
 1419000    1.0174569    -6.281116    571.52784  0.033564003   0.03357644            4 
 1420000    1.0361587   -6.2647698    570.70522   0.03349209  0.033567812            8 
 1421000    1.0396884   -6.3052471     570.8346  0.033476109  0.033559008            6 
 1422000    1.0302919   -6.3400003    571.57347  0.033495867  0.033550384            8 
 1423000    1.0147459   -6.3154626    572.27771   0.03351357  0.033541944            5 
 1424000     1.013471   -6.3057531    572.27485  0.033489867  0.033533457            6 
 1425000    1.0138841   -6.2829626    573.16281  0.033518293  0.033524954            3 
 1426000    1.0025644   -6.2966466    573.62093   0.03352156  0.033516396            6 
 1427000    1.0248844   -6.3369165    572.51373  0.033433411  0.033507828            8 
 1428000    1.0286645   -6.2957209    573.22509  0.033451511  0.033499238            4 
 1429000    1.0043546   -6.3066091    573.44529  0.033440943  0.033490643            2 
 1430000     1.029201    -6.320801    574.08545  0.033454863   0.03348203            5 
 1431000    1.0266425   -6.3185261    572.10153  0.033315952  0.033473368           12 
 1432000    1.0167706   -6.2741058    572.16829  0.033296572  0.033464619            8 
 1433000    1.0238535   -6.3255968    574.12686  0.033387233  0.033455895            4 
 1434000     1.008967   -6.2941404    574.15762  0.033365738  0.033447065            3 
 1435000    1.0152079   -6.2964007    575.16198  0.033400812  0.033438432            5 
 1436000    1.0109107   -6.2988022    573.41064  0.033275919  0.033429633            4 
 1437000    1.0238425    -6.304545    573.70084  0.033269592  0.033420768            3 
 1438000    1.0443379   -6.2813033    573.18836  0.033216757  0.033411818            4 
 1439000    1.0264356   -6.3112535    573.70034  0.033223323  0.033402859            4 
 1440000    1.0216397   -6.3376583    573.61863  0.033195523  0.033393877            5 
 1441000    1.0360243   -6.2947882    575.80412  0.033298873  0.033384858            3 
 1442000   0.99912817    -6.312058    574.35005   0.03319175  0.033375823            6 
 1443000    1.0036479   -6.3141047     575.5271  0.033236723  0.033366839            7 
 1444000    1.0243391    -6.282371    576.53236   0.03327172  0.033357874            3 
 1445000    1.0412237   -6.3220416    575.40445  0.033183648  0.033348933            7 
 1446000    1.0215833   -6.2988829    577.42495  0.033277141  0.033340085            3 
 1447000    1.0356915   -6.3081308    575.91834  0.033167377  0.033331229            7 
 1448000    1.0231362   -6.3146483    576.16863  0.033158876   0.03332218           11 
 1449000    1.0001007    -6.315916    577.17366  0.033193792  0.033313355            6 
 1450000    1.0135735   -6.3052649    576.96833    0.0331591  0.033304597            4 
 1451000    1.0283847   -6.3379969    577.95983   0.03319319  0.033295859           15 
 1452000    1.0138104    -6.294783    579.71415  0.033271014  0.033287026            9 
 1453000    1.0015433   -6.2808006    579.83124  0.033254832  0.033278509            2 
 1454000   0.99998564   -6.3161113    579.15129   0.03319299  0.033269899            9 
 1455000    1.0273201   -6.2798507    577.96199  0.033102061  0.033261204            3 
 1456000    1.0280731   -6.2893048    581.08675   0.03325817  0.033252462            8 
 1457000    1.0276723   -6.3465532    579.93692  0.033169579  0.033243729            4 
 1458000    1.0355108   -6.3169671    578.60276  0.033070574   0.03323494            4 
 1459000    1.0292851   -6.3257348    578.32056  0.033031789  0.033226087            4 
 1460000    1.0283264   -6.3030471    581.26667  0.033177321  0.033217388            2 
 1461000      1.02164   -6.3115938    577.89148  0.032962097  0.033208634            6 
 1462000    1.0207771   -6.2901636    581.26588   0.03313189  0.033199882            7 
 1463000    1.0244406   -6.3038114    580.20164  0.033048624  0.033191152            9 
 1464000    1.0066882    -6.308809    580.46616  0.033041107  0.033182312            5 
 1465000    1.0357839   -6.3423552    579.84395   0.03298316  0.033173298            6 
 1466000    1.0345656   -6.3074083    581.61063  0.033061086  0.033164336            7 
 1467000    1.0357385   -6.3111522    580.28935  0.032963494  0.033155607            9 
 1468000    1.0258391   -6.3266246    583.20884  0.033106769  0.033146863           11 
 1469000    1.0329469   -6.2786772    582.09986  0.033021322  0.033138141            4 
 1470000   0.99188133   -6.3274473    581.27335  0.032952004  0.033129326            4 
 1471000    1.0236757   -6.3136788    580.13354  0.032865032  0.033120322            5 
 1472000    1.0371857   -6.2930824    582.73603  0.032990038  0.033111371            6 
 1473000    1.0364686   -6.3175612    581.40711  0.032892459  0.033102452           10 
 1474000    1.0247925   -6.3141665    584.22658  0.033029545  0.033093614            4 
 1475000    1.0203037    -6.357702     584.6251  0.033029667  0.033084863            4 
 1476000    1.0214618   -6.3536066    582.68892  0.032897974  0.033075952           10 
 1477000    1.0044477   -6.2757172    586.50997  0.033091287  0.033067273            4 
 1478000    1.0224877   -6.3225732     585.5799  0.033016458   0.03305873            5 
 1479000    1.0189779   -6.3323428     585.3267  0.032979868  0.033050256            4 
 1480000    1.0247349   -6.2812796    586.38263   0.03301704  0.033041809            7 
 1481000    1.0137984   -6.3146224    587.19995  0.033040736  0.033033276            9 
 1482000    1.0106414   -6.3110724     587.3924  0.033029262   0.03302487            6 
 1483000    1.0285491   -6.3208847    588.54334  0.033071665  0.033016446            3 
 1484000    1.0197963   -6.3289905    586.41187  0.032929687  0.033008124            6 
 1485000     1.000418   -6.3156328    587.61768  0.032975179  0.032999767            4 
 1486000   0.99100453   -6.3437714    588.05573  0.032977553  0.032991236            6 
 1487000   0.99835083   -6.3301441    586.91663  0.032891539  0.032982759            5 
 1488000    1.0054894   -6.3198576    588.34624  0.032949498  0.032974304            4 
 1489000    1.0177043   -6.3785286    587.05375  0.032855034  0.032965825           12 
 1490000    1.0092314   -6.3411677    588.28829   0.03290203  0.032957251            6 
 1491000    1.0173873   -6.3221545    588.24598  0.032877598  0.032948818            7 
 1492000    1.0288183   -6.3310617    589.46692  0.032923755  0.032940367            7 
 1493000    1.0325616   -6.3278763    591.65786  0.033023993  0.032931913            4 
 1494000    1.0236404    -6.300972    591.00295  0.032965359  0.032923525            4 
 1495000    1.0005704   -6.3432554    589.48642  0.032858775  0.032915039            4 
 1496000    1.0224129   -6.3248382    590.41395  0.032888477  0.032906449            5 
 1497000   0.98562802   -6.3131476    590.98741  0.032898431  0.032898072           12 
 1498000   0.99167991   -6.3043673     591.8058  0.032921996  0.032889806            5 
 1499000    1.0110076   -6.3172493    592.39697  0.032932898  0.032881452            7 
 1500000     1.005339    -6.314076    594.02448   0.03300136  0.032873249            5 
 1501000    1.0096226   -6.3033694    592.31793  0.032884629  0.032865143            4 
 1502000   0.99814029   -6.3368122    592.15503  0.032853697  0.032857036            5 
 1503000    1.0421783   -6.3316344    594.47904  0.032960692  0.032849116            5 
 1504000    1.0016898   -6.2774199    596.30111  0.033039733  0.032841072            5 
 1505000   0.99490714   -6.3318973    594.33935  0.032909156  0.032833241            3 
 1506000    0.9967994    -6.309126    596.04546   0.03298171  0.032825372            4 
 1507000    1.0246553   -6.3327172    594.75013  0.032888196  0.032817505            6 
 1508000    1.0061207   -6.3746897    596.10418  0.032941213  0.032809589           11 
 1509000    1.0062147   -6.3523048    596.22297  0.032925943  0.032801668            8 
 1510000    1.0127553   -6.3194744    597.30465  0.032963833  0.032793902            8 
 1511000     1.014486   -6.2871419    597.51488  0.032953611  0.032786177            6 
 1512000   0.99894157    -6.303756    597.37514  0.032924115  0.032778325            5 
 1513000   0.99347946   -6.3213207    597.34235  0.032900548  0.032770532            8 
 1514000    1.0186972      -6.2973    597.54119  0.032889761  0.032762753            5 
 1515000    1.0141056   -6.3651545    596.93006  0.032834436  0.032754788            5 
 1516000    1.0043527    -6.305605    598.17724  0.032881335  0.032746789            7 
 1517000    1.0200767    -6.323327    596.93729  0.032791545  0.032738843            6 
 1518000    1.0218487   -6.3759961     597.4588  0.032798573  0.032730863           10 
 1519000    1.0166342   -6.3195103    597.50451  0.032779488  0.032723073            4 
 1520000    1.0192221   -6.3488876    598.20296  0.032796215  0.032715056            4 
 1521000    1.0044072   -6.3644701    599.12042  0.032824919   0.03270702            7 
 1522000    1.0296295   -6.3063483    600.50173  0.032878982  0.032699057            4 
 1523000    1.0030575   -6.3137424    599.51043  0.032803153  0.032691122            9 
 1524000    1.0012223    -6.307729    600.62823  0.032842751  0.032683253            9 
 1525000   0.99617618   -6.3147486    601.12839  0.032848546  0.032675278            3 
 1526000    1.0124328   -6.3160872    598.70426  0.032694641  0.032667256            5 
 1527000     1.026322   -6.3310268    599.61928  0.032723165  0.032659283            7 
 1528000    0.9915831   -6.3175348    602.32046  0.032849065  0.032651293            5 
 1529000    1.0255992   -6.3054437    602.12745  0.032817062  0.032643294            5 
 1530000      1.00356    -6.329872    600.87259  0.032727265  0.032635314            4 
 1531000    1.0010611   -6.3067611    600.94185  0.032709659  0.032627382            3 
 1532000    1.0137628   -6.3226684    603.25157  0.032813945  0.032619494            8 
 1533000   0.99916385   -6.3574901    599.65896  0.032597247  0.032611435           11 
 1534000   0.99687771   -6.3229898    602.03605  0.032705131  0.032603301            9 
 1535000    1.0041276   -6.3411651    601.40068  0.032649331  0.032595209            8 
 1536000    1.0124793   -6.3517962    600.87934   0.03259979  0.032587089            4 
 1537000     1.012038   -6.3428159    602.71254  0.032677974  0.032578997            7 
 1538000   0.99859023   -6.3093898     603.6442  0.032707207  0.032570942           12 
 1539000    1.0182859   -6.3325669    603.12793  0.032657999  0.032562936            6 
 1540000   0.97569319   -6.3525955    602.73537  0.032615551  0.032554854            8 
 1541000    1.0007207   -6.3292587    602.34787   0.03257343  0.032546772            4 
 1542000    1.0028759   -6.3341877    602.20179  0.032544411  0.032538769            8 
 1543000    1.0015624   -6.3661352     604.3648  0.032640138  0.032530724            9 
 1544000    1.0123337   -6.3115752    604.21332  0.032610823  0.032522784            4 
 1545000    1.0032797    -6.316777    603.99677  0.032578035  0.032514854            3 
 1546000    1.0056934   -6.2983461    605.01407  0.032611798  0.032506964            3 
 1547000    1.0039166   -6.3138462    606.08206  0.032648247  0.032499104            6 
 1548000    1.0097913   -6.3516104    607.05637  0.032679606  0.032491336            3 
 1549000   0.99607403   -6.3345081    606.02085    0.0326028  0.032483258            8 
 1550000   0.95959455   -6.3452765    604.86661   0.03251971  0.032475194            6 
 1551000    1.0179868   -6.3301605    606.41566  0.032581972  0.032467167            5 
 1552000    0.9894637   -6.3228556    606.02037  0.032539753  0.032459187            4 
 1553000   0.99400857   -6.3059284    605.24086  0.032476972  0.032451193            9 
 1554000    1.0122357   -6.3147271    606.21241  0.032508173  0.032443326           19 
 1555000    1.0059819    -6.336712    607.42334  0.032552162  0.032435403            5 
 1556000   0.97833794   -6.3624774    606.14996  0.032463044  0.032427342           15 
 1557000    1.0055418   -6.3843913    605.79426  0.032423157  0.032419241            7 
 1558000    1.0096147   -6.3620288    608.37358  0.032540307  0.032411181           17 
 1559000    1.0140973    -6.329123    606.08591  0.032397151  0.032403177            7 
 1560000   0.98983702   -6.3627038    608.12924  0.032485537  0.032395078            7 
 1561000    1.0113463    -6.358955    608.59858  0.032489781  0.032387147           16 
 1562000    1.0102819    -6.345004    609.52115  0.032518201   0.03237917            6 
 1563000   0.99684373   -6.3356011     610.3594  0.032542088  0.032371183            5 
 1564000     1.024909   -6.3398456    609.14915  0.032456796  0.032363078            8 
 1565000    1.0057656   -6.3221773    607.60961   0.03235408  0.032354903           15 
 1566000   0.98745831   -6.3444654    606.89053  0.032295154  0.032346682            5 
 1567000   0.99621875   -6.3543945    609.59001  0.032418103  0.032338542           10 
 1568000     1.008694    -6.341655    610.67628  0.032455159  0.032330498            6 
 1569000   0.98178658   -6.3529906    610.81893   0.03244205  0.032322404            8 
 1570000   0.98659348    -6.340025    612.63531  0.032517798  0.032314355            7 
 1571000   0.97493175   -6.3295516    608.78103   0.03229265  0.032306246            5 
 1572000    1.0097746    -6.340746     611.2113  0.032400939  0.032298135            5 
 1573000   0.98983638   -6.3169285    612.11622   0.03242828  0.032290146            5 
 1574000    1.0057318   -6.3533331    609.44422  0.032266212  0.032282113            5 
 1575000   0.98768227   -6.3240032    609.40746  0.032243781  0.032273919            4 
 1576000    0.9895945   -6.3202542    611.61984  0.032340304  0.032265807            7 
 1577000    0.9665062   -6.3480143    612.12342  0.032346408  0.032257734            5 
 1578000    1.0126024   -6.3437237     612.0191  0.032320401  0.032249626            6 
 1579000   0.97381388   -6.3244209    612.52652  0.032326711  0.032241536            4 
 1580000    1.0072346   -6.3449777    610.58406  0.032203801  0.032233376           10 
 1581000    1.0093385   -6.3576625    612.00743  0.032258456  0.032225269            9 
 1582000    1.0109893    -6.304509    612.36509  0.032256905  0.032217117            2 
 1583000    1.0148276   -6.3136118    612.25292  0.032230623  0.032208934            4 
 1584000   0.99609358   -6.3342437    612.74706  0.032236272  0.032200771            5 
 1585000   0.98352141   -6.3546182     612.4338  0.032199464  0.032192501           11 
 1586000    1.0080014   -6.3568651    612.90213  0.032203769  0.032184233            5 
 1587000    1.0203831   -6.3364327    613.24636  0.032201552  0.032176176            7 
 1588000   0.99895191   -6.3327151    614.33949  0.032238638  0.032167937            9 
 1589000    1.0123322     -6.34562    614.29727  0.032216135  0.032159792            9 
 1590000    1.0009629   -6.3668217    615.06404  0.032236061   0.03215162            4 
 1591000    1.0007474   -6.3297625     616.6076  0.032296648   0.03214363            7 
 1592000   0.98084254   -6.3671211    616.53373  0.032272494  0.032135575            5 
 1593000   0.97400195   -6.3423064    615.39072  0.032192442  0.032127465           10 
 1594000   0.99564423   -6.3607929    616.01669  0.032204971  0.032119477            6 
 1595000   0.98434766   -6.3458681    617.50468  0.032262522  0.032111599           20 
 1596000    1.0048849   -6.3266679    616.85563  0.032208418  0.032103654            6 
 1597000    1.0154111   -6.3591926    617.71872  0.032233287  0.032095637            8 
 1598000   0.98833056   -6.3604066    616.74306  0.032162237  0.032087602            7 
 1599000   0.99445781   -6.3650682    619.13575   0.03226682  0.032079715            7 
 1600000    1.0008721   -6.3643301     618.0515  0.032190182  0.032071764            5 
 1601000   0.99607194   -6.3499532    618.39139  0.032187768  0.032063832            5 
 1602000   0.99267537   -6.3470762    617.53839  0.032123304   0.03205576            9 
 1603000    1.0198718   -6.3588182    618.14894  0.032135004  0.032047763            8 
 1604000   0.96951789   -6.3469885    618.42009  0.032129057  0.032039698            6 
 1605000   0.99183162   -6.3656051    616.96778  0.032033634  0.032031644            4 
 1606000   0.98587636   -6.4076184    617.17935  0.032024665  0.032023589            5 
 1607000    1.0088696   -6.3577775    618.86112  0.032091948  0.032015489            5 
 1608000   0.99574202   -6.3290454    618.83777   0.03207078  0.032007554            4 
 1609000   0.99682006   -6.3519877    621.06169  0.032166029  0.031999611           14 
 1610000   0.99634595   -6.3325312    619.03284  0.032041037  0.031991759            9 
 1611000    1.0004489   -6.3639181    621.21686  0.032134123  0.031983936           14 
 1612000   0.98342652   -6.3443246    619.93396  0.032047868   0.03197601            6 
 1613000   0.99122904   -6.3665427    620.14509  0.032038907  0.031968071            5 
 1614000   0.97680309   -6.3729852     621.3255  0.032080003  0.031960105            9 
 1615000    1.0036754    -6.342509     622.4935  0.032120408  0.031952207            6 
 1616000   0.98640174   -6.3496166    623.91705   0.03217394  0.031944355            6 
 1617000   0.97577516   -6.3594651    622.28376   0.03206987  0.031936605            6 
 1618000    1.0190106    -6.324011    622.99165  0.032086509  0.031928733            4 
 1619000   0.97568461   -6.3568516    622.70689  0.032052033  0.031920895            6 
 1620000    0.9999859    -6.353307    622.74832  0.032034379  0.031913029            5 
 1621000    1.0003001   -6.3950044    622.78388  0.032016444  0.031905161            3 
 1622000   0.98668844   -6.3491309     622.2318  0.031968342  0.031897227            7 
 1623000   0.99060467   -6.3694093    624.04064   0.03204152  0.031889245            6 
 1624000   0.99604153   -6.3763258     622.3936  0.031937274  0.031881307            5 
 1625000   0.98156425   -6.3773594    620.58059  0.031824646  0.031873261            4 
 1626000   0.99777221   -6.3660451     623.1812  0.031938356  0.031865219           14 
 1627000   0.96967406   -6.3123409    624.93774  0.032008694   0.03185719            9 
 1628000   0.98411894   -6.3540552    624.46889  0.031965033  0.031849223            7 
 1629000   0.96773905   -6.3537599    624.04008  0.031923474  0.031841365            6 
 1630000   0.99430196   -6.3568118    625.22931  0.031964689  0.031833394            7 
 1631000   0.99316686   -6.3630755    625.42129  0.031954899  0.031825524            9 
 1632000   0.99844894   -6.3832224    624.73566  0.031900309  0.031817474            4 
 1633000   0.98598327   -6.3396238    625.90863  0.031940632  0.031809443            7 
 1634000    1.0135275   -6.3728832    625.36178  0.031893196  0.031801473            7 
 1635000   0.99862692   -6.3429168    625.94907  0.031903622  0.031793535            4 
 1636000   0.99136042   -6.3477913    627.84177   0.03198053  0.031785602            5 
 1637000   0.99508701   -6.3793854      624.367  0.031784107  0.031777548            8 
 1638000   0.98762543    -6.378423    626.30283  0.031863188    0.0317695            7 
 1639000    1.0203646   -6.3862904    625.86775  0.031821627  0.031761458            5 
 1640000    1.0069796   -6.3739012      626.297  0.031824035  0.031753418            5 
 1641000    1.0035976   -6.3769431    626.23171  0.031801326  0.031745257            3 
 1642000   0.99752921   -6.3694722    628.60624  0.031902469  0.031737226            4 
 1643000   0.99099629   -6.3712173    627.20417  0.031811938  0.031729169            5 
 1644000   0.98255323   -6.3631098    627.06796  0.031785683  0.031721112            4 
 1645000    1.0038999   -6.3657109    627.25152   0.03177566   0.03171289            4 
 1646000   0.97952736   -6.3536959    626.44329  0.031715436  0.031704727           11 
 1647000   0.99399119   -6.3813757    627.60492  0.031754955  0.031696544            5 
 1648000   0.98709715   -6.3391123    629.61003  0.031837077  0.031688404            6 
 1649000   0.96611788   -6.3791796    628.96582  0.031785214   0.03168036           10 
 1650000   0.99145394   -6.4017182    628.23733  0.031729158  0.031672355            9 
 1651000   0.97378079   -6.3584712    629.32894  0.031765038  0.031664356            6 
 1652000   0.98763363   -6.3870947    627.70164  0.031663723  0.031656333           13 
 1653000   0.99098176    -6.344948    627.73716  0.031646358  0.031648292           11 
 1654000   0.96382478   -6.3464488    628.53309  0.031667326  0.031640267            7 
 1655000   0.98585107   -6.3390351    629.06503  0.031674976   0.03163226            8 
 1656000     1.007375   -6.3932826    630.06141  0.031705989  0.031624203            4 
 1657000    1.0000011   -6.3717292    629.37155   0.03165216  0.031616054            6 
 1658000    1.0083908   -6.3762955    629.86902  0.031658073  0.031607981            6 
 1659000   0.99343976   -6.3736682    629.40567  0.031615716   0.03159985           12 
 1660000   0.97766189   -6.3738706    630.69996  0.031661644  0.031591697            6 
 1661000   0.99230281   -6.3506466    631.19012  0.031667174  0.031583533           15 
 1662000    0.9814926   -6.3636029    630.46095   0.03161156  0.031575399            8 
 1663000    1.0030949   -6.3527794    631.40552  0.031639884  0.031567339            8 
 1664000   0.99676565   -6.3659395    632.33843   0.03166759   0.03155941            9 
 1665000   0.99807059   -6.3542532    631.82142  0.031622694  0.031551508            9 
 1666000   0.98441564   -6.3843308    631.49742  0.031587506  0.031543634           12 
 1667000   0.97398457   -6.3774884    632.89739  0.031638542  0.031535623            3 
 1668000   0.97874193   -6.3986837    634.79017  0.031714137  0.031527663            4 
 1669000   0.98182317   -6.3809813    633.75086  0.031643242  0.031519774            4 
 1670000   0.97058774   -6.3686983    634.13413   0.03164342  0.031512028            4 
 1671000   0.99342001   -6.3906347    632.51795  0.031543883  0.031504138           10 
 1672000   0.98472509   -6.3806206    634.30127  0.031613899  0.031496272            2 
 1673000    0.9822263   -6.4065891    635.79218  0.031669266  0.031488422            3 
 1674000   0.98806331   -6.3900784    636.73765  0.031697414   0.03148071            6 
 1675000   0.97831553    -6.346579    636.71865  0.031677545  0.031473043            4 
 1676000   0.99854596   -6.3537773    636.22154  0.031633927  0.031465457           10 
 1677000   0.98675303   -6.3908704    637.34776  0.031671028  0.031457773            6 
 1678000    0.9776644   -6.3943879    635.69497  0.031570072  0.031449981           10 
 1679000   0.99899492   -6.3675358    635.76365  0.031554678  0.031442159            4 
 1680000   0.99929959   -6.3452817    638.07922  0.031650755  0.031434497            6 
 1681000   0.96318692   -6.3898987    636.98543  0.031577703  0.031426827           10 
 1682000   0.97724412   -6.3801767    637.52696  0.031585759  0.031419078            3 
 1683000   0.96151855   -6.4031208    637.23479  0.031552525  0.031411349            6 
 1684000    0.9684392   -6.3590371    636.89145  0.031516798  0.031403547            6 
 1685000   0.99004432   -6.3921034    638.16578  0.031561116  0.031395895            4 
 1686000    0.9973613   -6.3570685     636.8452  0.031477125  0.031388218            7 
 1687000   0.96808634   -6.3757845    639.14943  0.031572289  0.031380518            9 
 1688000   0.99529509   -6.3639492    639.09804  0.031551049  0.031372774            4 
 1689000   0.96478459   -6.3707043    638.93658  0.031524402  0.031365164           10 
 1690000   0.97077817   -6.3712788    639.48657  0.031532868  0.031357496           16 
 1691000   0.98605483   -6.3736232    640.92497  0.031585106  0.031349875            3 
 1692000   0.99452326   -6.3730637    640.62673   0.03155175  0.031342279            4 
 1693000   0.97690063   -6.3829811      640.775  0.031540412  0.031334729            9 
 1694000   0.96877561   -6.3771811    640.64037   0.03151517  0.031327178            8 
 1695000   0.98451429   -6.3907586    640.57421  0.031493324  0.031319628            5 
 1696000   0.98670619   -6.3722168    642.11693  0.031550557  0.031312089            5 
 1697000   0.98915363   -6.3661213    641.78126  0.031515481  0.031304486            6 
 1698000   0.98629468   -6.4209046    640.22363  0.031420477  0.031296739            4 
 1699000   0.98959304     -6.38458     642.3157  0.031504596   0.03128903           11 
 1700000   0.97205332   -6.3407884    642.84083  0.031511805  0.031281518            6 
 1701000   0.98934264   -6.3579405    641.90547  0.031447456  0.031273883            4 
 1702000   0.97744853   -6.3976585     641.7816  0.031422914  0.031266284            7 
 1703000   0.97205787   -6.3894863    642.69184  0.031449004  0.031258735           10 
 1704000   0.97235604   -6.3872161    642.83164  0.031437385  0.031251217            5 
 1705000   0.97034216   -6.3775083    644.49576  0.031500282  0.031243767            3 
 1706000   0.96985378   -6.3633961    644.76728   0.03149508  0.031236315            8 
 1707000   0.97178345   -6.3705531    646.71738  0.031571831  0.031228972           10 
 1708000    0.9875778   -6.4179246    646.12481  0.031524434  0.031221659            5 
 1709000   0.99904663   -6.3508622    644.75293  0.031439093  0.031214313           13 
 1710000   0.97217907   -6.4154132    644.59371  0.031412949  0.031206895            8 
 1711000   0.97881697   -6.3746734    645.88823  0.031457638  0.031199356           13 
 1712000    0.9682908   -6.3608282    646.58372  0.031473117  0.031191957            5 
 1713000    0.9722812   -6.4073552    646.78165  0.031464373  0.031184412            5 
 1714000   0.96092402   -6.3832602    645.97683  0.031406886  0.031176928            6 
 1715000   0.99959837   -6.3903727    647.40136  0.031457792  0.031169524            5 
 1716000   0.98618105   -6.3956465    647.32583  0.031435792  0.031162144           22 
 1717000    0.9658338    -6.387556    649.05921  0.031501612  0.031154822            6 
 1718000   0.98758902   -6.3760217    649.97046  0.031527477  0.031147535           12 
 1719000    0.9662644   -6.3979298     647.8374   0.03140573  0.031140406            4 
 1720000    0.9815983   -6.3812693    648.04388  0.031397475  0.031133261            9 
 1721000     1.002212   -6.4071484    648.99008  0.031425047  0.031126067            3 
 1722000   0.98061546   -6.3408812    651.21199  0.031514324  0.031118959           12 
 1723000   0.97007071   -6.4344635     648.8028  0.031379512  0.031111756            6 
 1724000   0.97950343   -6.3975513    651.55705  0.031494444  0.031104438            6 
 1725000   0.99115987   -6.4081705    649.91607  0.031396912  0.031097259            5 
 1726000   0.99469984   -6.3911912    651.67952  0.031463863  0.031089965            5 
 1727000   0.97611127   -6.3870458    649.59785  0.031345196  0.031082762            3 
 1728000   0.96421788   -6.4416918    650.93952  0.031391759  0.031075625           10 
 1729000   0.98916164   -6.3809978    649.95791  0.031326292  0.031068402            6 
 1730000   0.96956184   -6.4026049    650.05785  0.031312998  0.031061163            7 
 1731000   0.97011593   -6.4072232    650.48037   0.03131525   0.03105385            6 
 1732000   0.96636303   -6.3895198    651.56141  0.031349183  0.031046628            4 
 1733000   0.96531108   -6.4228739     650.6897  0.031289176  0.031039293           16 
 1734000    1.0007275   -6.4042889    650.00455  0.031238204  0.031031915            7 
 1735000   0.97186818   -6.4179759    652.01294  0.031316664  0.031024624           10 
 1736000   0.95999233   -6.4195413    651.14851  0.031257129  0.031017238            7 
 1737000   0.95325494   -6.3938812    650.90722  0.031227558  0.031009852           14 
 1738000   0.95727064   -6.3816031    652.19838  0.031271499  0.031002521            8 
 1739000   0.96600367   -6.4113158     652.2207  0.031254586  0.030995102            8 
 1740000   0.96407235   -6.3755188    652.68156  0.031258695  0.030987684           10 
 1741000   0.99599226   -6.3736981     652.9271  0.031252494  0.030980436           14 
 1742000   0.97800793   -6.4028215    651.81712  0.031181454  0.030973109            6 
 1743000   0.96566635   -6.3894813    654.07961  0.031271735  0.030965741            7 
 1744000   0.99281152   -6.3837234    653.85336  0.031242993  0.030958377            6 
 1745000   0.97220413   -6.3864693    654.39645  0.031251024  0.030951095           10 
 1746000   0.97379888   -6.4237814    653.21593  0.031176782  0.030943695            8 
 1747000   0.98649829   -6.4202393    652.79774  0.031138988  0.030936311            7 
 1748000   0.96868863   -6.3733754    654.61339  0.031207732  0.030928877            5 
 1749000   0.96915079   -6.3882859    655.24033   0.03121976   0.03092155            3 
 1750000   0.96559501    -6.380537    656.49667  0.031261746  0.030914344            7 
 1751000   0.97841572   -6.3785462    655.64817  0.031203511  0.030907091            5 
 1752000   0.98746996   -6.3685593    657.48694  0.031273161  0.030899833            5 
 1753000   0.96983543    -6.403236    656.52068  0.031209388  0.030892548            6 
 1754000   0.96199155   -6.3893129    655.08796  0.031123525  0.030885247            5 
 1755000   0.99923802   -6.3839715    656.70069  0.031182369  0.030878001           13 
 1756000   0.96694867   -6.3713138    657.23038  0.031189748  0.030870666            9 
 1757000   0.97459229   -6.3948809    656.20103  0.031123176  0.030863305            7 
 1758000   0.96229516    -6.384861    657.33805  0.031159369  0.030855906            4 
 1759000    0.9882732    -6.425438    655.67451  0.031062844  0.030848492            5 
 1760000   0.98337584    -6.387228    657.77317  0.031144563  0.030841153            4 
 1761000   0.96221479   -6.3789615    657.21768   0.03110059  0.030833818            7 
 1762000   0.98766456   -6.3580554    658.43401  0.031140466  0.030826548            4 
 1763000   0.98355488   -6.3960189    657.78837  0.031092285   0.03081926           13 
 1764000   0.95117865   -6.3874352    658.86558  0.031125547  0.030811993            8 
 1765000   0.97781688   -6.4025941    660.21263  0.031171512  0.030804743           10 
 1766000   0.96692991   -6.4151646    658.27245  0.031062309  0.030797441            4 
 1767000   0.95264492   -6.4433854    659.49145  0.031102219  0.030789993            3 
 1768000   0.98644429    -6.391723    658.44068    0.0310351  0.030782582            8 
 1769000    0.9641586   -6.3957654    657.77207   0.03098606  0.030775174           14 
 1770000   0.96261947   -6.4193309    657.50602  0.030956027  0.030767687            7 
 1771000   0.96741515   -6.4331427    657.46641  0.030936684  0.030760188            8 
 1772000   0.97266869   -6.4271224    659.14241  0.030998044  0.030752601            6 
 1773000    0.9628274   -6.4116169    658.15634  0.030934214  0.030745097           15 
 1774000   0.95643788   -6.3960994     659.6991  0.030989247  0.030737622           14 
 1775000   0.96378302   -6.4187671    659.79664  0.030976368  0.030730189           19 
 1776000   0.95459828   -6.3956637    659.71621  0.030955152  0.030722729            4 
 1777000   0.96686272   -6.4040937     660.4419  0.030971764  0.030715243            3 
 1778000   0.97835776   -6.4216013    661.68495  0.031012606  0.030707844            4 
 1779000    0.9907202   -6.4164239    659.34369  0.030885502  0.030700278            8 
 1780000   0.96465309   -6.4290259    660.16909  0.030906793   0.03069276            5 
 1781000   0.97662103   -6.4258838    661.17259  0.030936393  0.030685368            3 
 1782000   0.98149066    -6.412538     660.8836  0.030905518  0.030678047            4 
 1783000   0.93910317   -6.4052859    662.19361  0.030949412  0.030670707            3 
 1784000   0.96907953   -6.4219436    662.08246  0.030926871  0.030663483            4 
 1785000   0.95141047   -6.4246287    664.23214  0.031009904  0.030656231            7 
 1786000   0.96948483   -6.3901857    662.86345  0.030928679  0.030648937            6 
 1787000   0.97115828   -6.3853176    662.70273  0.030903877  0.030641638            8 
 1788000   0.99015105   -6.3952461    664.94599  0.030991144  0.030634386            5 
 1789000   0.96902133   -6.4104172    664.06173  0.030932631  0.030627046            4 
 1790000   0.96080629   -6.4105975    662.60058  0.030847327  0.030619786            5 
 1791000   0.97322066   -6.4003978    663.40021  0.030867309  0.030612473            9 
 1792000   0.94904213   -6.3798497    663.60928  0.030859807  0.030605191            4 
 1793000   0.96449027   -6.4277764    662.41957  0.030787301    0.0305979            6 
 1794000   0.95266419   -6.3960437    664.46703  0.030865247  0.030590627           12 
 1795000   0.97295036   -6.4160499    663.54839  0.030805403  0.030583475            4 
 1796000   0.95697178   -6.3893119    664.63311  0.030838581  0.030576273            4 
 1797000   0.95298568   -6.3945504    666.11835  0.030890296  0.030569071           15 
 1798000   0.96346806   -6.4272799    664.08792   0.03077901  0.030561771            9 
 1799000   0.95306437   -6.4358248     664.2403   0.03076896  0.030554504            9 
 1800000   0.93370213   -6.4184892    665.64794  0.030817034  0.030547237            5 
 1801000   0.95753449   -6.3993294    667.17503  0.030870583  0.030540021           10 
 1802000   0.95427085   -6.4176689    665.92181  0.030795496  0.030532779            8 
 1803000   0.96101066   -6.4063871    666.61508  0.030810458   0.03052558            9 
 1804000   0.95401616   -6.4088534    666.33116  0.030780264  0.030518508            8 
 1805000   0.96928161   -6.4331254    666.33362  0.030763325  0.030511441            8 
 1806000   0.97355542   -6.4018165    667.43213  0.030796979  0.030504205           10 
 1807000   0.98962882   -6.4212431    667.72062   0.03079324  0.030496974            9 
 1808000   0.97272917   -6.4584089    666.64206  0.030726496  0.030489789            4 
 1809000   0.95350795    -6.429201    668.32475  0.030787025  0.030482508            3 
 1810000   0.95421403   -6.4311109    669.56562  0.030827146   0.03047533            7 
 1811000   0.94908383   -6.4249504    668.05887  0.030740791  0.030468155            5 
 1812000   0.98085472   -6.4109787    667.58988  0.030702257  0.030461038           17 
 1813000   0.96796906   -6.4216496    670.25956  0.030808033  0.030453826            5 
 1814000   0.92647091   -6.4347153     669.9436  0.030776534   0.03044661            9 
 1815000   0.96357177   -6.4109291    672.22833  0.030864478  0.030439442            5 
 1816000   0.97097941   -6.3966701    671.27754  0.030803852  0.030432459            6 
 1817000   0.94389525   -6.4241983    668.91316  0.030678461  0.030425418            7 
 1818000   0.95147974   -6.4073378    670.70066  0.030743521  0.030418367            9 
 1819000   0.96432146   -6.4096752    671.48915  0.030762743  0.030411406            5 
 1820000   0.97902775   -6.4005469    672.13639  0.030775476  0.030404472            7 
 1821000   0.97625255   -6.4430505     670.5308    0.0306851  0.030397588            4 
 1822000   0.95912405   -6.4193204    672.90131  0.030776679  0.030390647            4 
 1823000   0.97062278   -6.4163446    671.85543  0.030711987  0.030383653            6 
 1824000   0.94956883   -6.4003645    672.47918  0.030723647  0.030376699            8 
 1825000   0.95504837   -6.4466669    673.91637  0.030772437  0.030369612           13 
 1826000   0.95502072   -6.4099692    674.15859  0.030766639  0.030362516            7 
 1827000    0.9673051   -6.3937101    673.77724  0.030732405   0.03035552            6 
 1828000   0.97577988    -6.418958    671.91465  0.030630683  0.030348416            9 
 1829000   0.94657419   -6.4455595    672.00659  0.030618124  0.030341268            5 
 1830000   0.95405377   -6.4098252    674.51187  0.030715477  0.030334091           10 
 1831000     0.961462   -6.3805084    674.93713  0.030718056  0.030327097           11 
 1832000   0.96118627   -6.4221211     674.7346  0.030692076  0.030320128           15 
 1833000   0.96636131   -6.4317687     674.6735  0.030672554  0.030313085            8 
 1834000   0.92448992   -6.3970986    674.38499   0.03064272  0.030306156            5 
 1835000   0.98280671   -6.4201076    676.23259  0.030709927  0.030299204            5 
 1836000   0.96595557   -6.3999921    675.55612  0.030662496  0.030292143            5 
 1837000   0.96525033   -6.4292573    676.85313  0.030704642  0.030285096            6 
 1838000   0.94758721   -6.4070605    675.96197  0.030647532  0.030278058            7 
 1839000   0.96072618   -6.4671974    675.79909  0.030623486  0.030271106           13 
 1840000   0.96260608    -6.404564     676.4413  0.030635928  0.030264127            7 
 1841000   0.96067133   -6.4232404    676.25847  0.030611012  0.030257065           11 
 1842000   0.97115242   -6.4300706    676.59871  0.030609786  0.030250127            4 
 1843000   0.97693932   -6.4224379    679.12914  0.030707594  0.030243261           11 
 1844000   0.92327525    -6.394865    675.73525  0.030537565  0.030236281           10 
 1845000   0.94906367   -6.4104451    676.96931  0.030576753  0.030229348            8 
 1846000   0.95913273   -6.4100227    677.80104  0.030597736  0.030222411            7 
 1847000   0.94670078   -6.4336434     676.7739  0.030534827  0.030215484           11 
 1848000   0.96607447   -6.4131566    678.44669  0.030593736  0.030208519            5 
 1849000   0.96320913   -6.4253633    676.18693  0.030475344  0.030201539            5 
 1850000   0.96146402    -6.438596    677.94282  0.030537965  0.030194547            6 
 1851000   0.97448204   -6.4762698    676.65614   0.03046354  0.030187455            3 
 1852000   0.94949948   -6.4080617    676.99043  0.030462132  0.030180367            6 
 1853000   0.94775537   -6.4522064    677.33473  0.030461177  0.030173409            6 
 1854000   0.94217313   -6.4063614    678.80609  0.030510882  0.030166343            6 
 1855000   0.94407278   -6.4482359    678.94028  0.030500462  0.030159289            8 
 1856000    0.9634573   -6.4471351    678.66443  0.030471643  0.030152246            4 
 1857000   0.94141893   -6.4210665    680.19112  0.030523744  0.030145202            4 
 1858000   0.96945495   -6.4250688     679.6435  0.030482755  0.030138202            8 
 1859000   0.97091036   -6.3873017    681.41205  0.030545636  0.030131219            7 
 1860000   0.96057522   -6.4101022    680.62972  0.030494163  0.030124207           15 
 1861000   0.94607541   -6.4087591    679.62758  0.030432902  0.030117156           24 
 1862000   0.97309074   -6.4040622    681.71004  0.030509758   0.03011006            6 
 1863000   0.95629887   -6.4269398    679.52172  0.030395497  0.030102932            6 
 1864000   0.95799618   -6.4312314     681.7695  0.030479681  0.030095814           10 
 1865000   0.96239351   -6.4349472    681.07768  0.030432425  0.030088715           12 
 1866000   0.95523911   -6.4419173    680.16531  0.030375371  0.030081613           10 
 1867000   0.95555007   -6.4274873    681.84201  0.030433941  0.030074548            8 
 1868000   0.96627948   -6.4413509    682.26592   0.03043656  0.030067487            5 
 1869000   0.97058773   -6.4104521    680.11314  0.030324288  0.030060434           11 
 1870000   0.96739955   -6.4240072    680.27966  0.030315493    0.0300534            8 
 1871000   0.94526651   -6.4268226    681.75484  0.030364994  0.030046332            8 
 1872000   0.96505541   -6.3910622    683.66656  0.030433875  0.030039346            4 
 1873000   0.92994199   -6.4607179    683.73521   0.03042068  0.030032418            6 
 1874000   0.94501187   -6.4388766    683.51401  0.030394611  0.030025459            3 
 1875000   0.96226744   -6.4170098    685.16105  0.030451602  0.030018591            8 
 1876000   0.94771477    -6.447177    684.04371  0.030385737  0.030011702            8 
 1877000    0.9613599   -6.4231875    684.53848  0.030391515  0.030004837            4 
 1878000   0.94855609   -6.4402041    685.02859   0.03039708   0.02999789            6 
 1879000   0.95379245   -6.3978276    685.52602  0.030402963  0.029990967            5 
 1880000   0.95783427   -6.4393433    685.59567  0.030389879  0.029984067            8 
 1881000    0.9406637   -6.4591585    686.08934  0.030395594  0.029977089           16 
 1882000   0.97230892   -6.4363973    683.59183  0.030268856  0.029969969            5 
 1883000   0.96172042   -6.4260376    683.51337  0.030249308  0.029962901            8 
 1884000    0.9620404   -6.4510606    684.16078  0.030261889  0.029955871            9 
 1885000   0.93332791   -6.4354641    684.46566  0.030259313    0.0299488            6 
 1886000   0.97022104   -6.4412453    685.69053   0.03029739  0.029941688           11 
 1887000   0.95340352   -6.4272643    687.36803  0.030355415  0.029934639            9 
 1888000   0.94161507   -6.4281137    685.51375  0.030257492  0.029927626           11 
 1889000   0.94379674   -6.4426823     687.6032  0.030333651  0.029920659           14 
 1890000   0.95703688   -6.4578107    687.80865   0.03032666  0.029913656            9 
 1891000   0.95119825    -6.480895    685.60735  0.030213615  0.029906567           13 
 1892000   0.94814735   -6.4173898    686.24284  0.030225636  0.029899428            7 
 1893000    0.9311063   -6.4381866    686.19001  0.030207343  0.029892325            5 
 1894000   0.94872877   -6.4578856    688.88373  0.030309914  0.029885307           11 
 1895000   0.94805415   -6.4512546    688.74771  0.030287938  0.029878293            5 
 1896000   0.94544859   -6.4465926    687.89276  0.030234386  0.029871305            4 
 1897000   0.95522661   -6.4495063      686.265  0.030146942  0.029864401           12 
 1898000   0.95570444   -6.4418111    688.06807  0.030210224  0.029857438           29 
 1899000   0.96549354   -6.4144684     687.4302  0.030166324  0.029850531           13 
 1900000   0.95042509   -6.4263135     690.4214   0.03028164  0.029843608           12 
 1901000   0.93768163    -6.400667    691.74725  0.030323832  0.029836718            9 
 1902000   0.97151208   -6.4424661    689.08196  0.030191113  0.029829883            5 
 1903000   0.95051279   -6.4160981    689.31515  0.030185459  0.029823011            7 
 1904000   0.95241167     -6.45867    690.22468  0.030209414  0.029816113            6 
 1905000     0.954878   -6.4416699    691.93564  0.030268401  0.029809242           12 
 1906000   0.95062922   -6.4038345     692.2171  0.030264826  0.029802444           16 
 1907000   0.93818375   -6.4334331    690.46643  0.030172454  0.029795622            7 
 1908000   0.93318235   -6.4402922    692.49565  0.030245268  0.029788718            6 
 1909000   0.94428228   -6.4350443    690.45258  0.030140238  0.029781941            9 
 1910000   0.94598472   -6.4260552    691.97791  0.030191008  0.029775054           15 
 1911000   0.94555559   -6.4415953    692.79031  0.030210636  0.029768234            3 
 1912000   0.92882734   -6.4427517     689.9916  0.030072856  0.029761345            9 
 1913000   0.94671092   -6.4002973    692.68979  0.030174673  0.029754542            5 
 1914000   0.94287818   -6.4325121    693.97354    0.0302148  0.029747719            5 
 1915000   0.95130424   -6.4531301    691.56709  0.030094303  0.029740837           11 
 1916000    0.9503612   -6.4641328    692.42004  0.030115694  0.029733949            8 
 1917000   0.93618299   -6.4555713    692.44138  0.030100912  0.029726994           23 
 1918000   0.93994016   -6.4218449    693.41112  0.030127352  0.029720101            5 
 1919000    0.9505917   -6.4638485    693.48985  0.030115071  0.029713189            9 
 1920000   0.94248408   -6.4474853    693.91212  0.030117713   0.02970628            5 
 1921000   0.92706159   -6.4502716    693.31157  0.030075983  0.029699381            6 
 1922000   0.93348959   -6.4581932    693.26904  0.030058491  0.029692426           10 
 1923000   0.96684029   -6.3982272    695.14281   0.03012406  0.029685466            5 
 1924000   0.94184338   -6.4515784    694.52404  0.030081602  0.029678596            4 
 1925000   0.95272573   -6.4832551    693.51188  0.030022159  0.029671697            5 
 1926000   0.94358886   -6.4333625    693.36965  0.030000418  0.029664741            9 
 1927000   0.93085094   -6.4261932    694.54214  0.030035554  0.029657933            3 
 1928000   0.93708955   -6.4345665    694.58934  0.030022015  0.029651018           10 
 1929000   0.92787142   -6.4352275    696.91797  0.030107049  0.029644151            5 
 1930000   0.94593708   -6.4540702    693.39815  0.029939471  0.029637244           14 
 1931000   0.92821681   -6.4456843    694.73743  0.029981764  0.029630184            7 
 1932000   0.94063187   -6.4819867    693.39488  0.029908337  0.029623151           11 
 1933000   0.95386338   -6.4366162     695.7981  0.029996469  0.029616128            4 
 1934000   0.93330981   -6.4776534    695.03779  0.029948199  0.029609127            5 
 1935000   0.92256104   -6.4711443    694.88712  0.029926232  0.029602035            8 
 1936000   0.96622202   -6.4641603    697.82369  0.030037177  0.029595022            6 
 1937000   0.91837902   -6.4513667     693.9312  0.029854207  0.029587965            4 
 1938000    0.9152702   -6.4304865    695.05484  0.029887119  0.029580891            7 
 1939000   0.93775294   -6.4684727    694.56052  0.029850461   0.02957385            4 
 1940000   0.94693563   -6.4540777    695.14484  0.029860173  0.029566724            5 
 1941000   0.94224581    -6.454614    695.21801  0.029847931  0.029559567            3 
 1942000   0.93206307   -6.4494478    694.36862  0.029796113    0.0295524            5 
 1943000   0.93242145   -6.4569584    695.71396  0.029838478  0.029545158            9 
 1944000   0.95349872   -6.4596325    695.52432     0.029815  0.029538047           22 
 1945000   0.95262871   -6.4464529    695.20203  0.029785862   0.02953083            9 
 1946000   0.92870129   -6.4466414    695.36971  0.029777737  0.029523557            7 
 1947000    0.9417949   -6.4425088    697.12842  0.029837717  0.029516371            8 
 1948000    0.9197683   -6.4669361    694.75149  0.029720717  0.029509178           12 
 1949000   0.93561603   -6.4427828     696.4491  0.029778053  0.029501989            9 
 1950000   0.92656483   -6.4534624    695.57086  0.029725251  0.029494852           11 
 1951000   0.89860258   -6.4627441    696.25053  0.029739045  0.029487686            4 
 1952000   0.95459883   -6.4366917    698.57405  0.029823004  0.029480627           15 
 1953000   0.89273825   -6.4639618    698.07293  0.029786351  0.029473471            7 
 1954000   0.94796265   -6.4619379    696.95064  0.029723245  0.029466261            4 
 1955000   0.93307399   -6.4419166    696.16528  0.029674564  0.029459096           13 
 1956000   0.92628243   -6.4514078    699.34233  0.029794748  0.029451935           10 
 1957000   0.94366777   -6.4600701     698.7868  0.029755868  0.029444823            7 
 1958000   0.94130029   -6.4708034    698.04063  0.029708914  0.029437761            6 
 1959000   0.93606735   -6.4770498    697.56024  0.029673313  0.029430596           11 
 1960000    0.9314203   -6.4671539    699.30214  0.029732234  0.029423525            3 
 1961000   0.93294979   -6.4176764    700.25458  0.029757546  0.029416518            5 
 1962000   0.95434822   -6.4207516     702.1646  0.029823505  0.029409579            6 
 1963000   0.94250792   -6.4730757    698.75938  0.029663754  0.029402518           12 
 1964000   0.91628711   -6.4625629    699.38635  0.029675253  0.029395343           19 
 1965000   0.93495468   -6.4642993    699.45626  0.029663115  0.029388157            6 
 1966000   0.91829907   -6.4699895    700.13631  0.029676853  0.029381035            8 
 1967000   0.94641288   -6.4628385    700.21458  0.029665081  0.029373886            8 
 1968000   0.93663525   -6.4477269    701.13441  0.029688957  0.029366739           10 
 1969000   0.95812642   -6.4856089     700.2973   0.02963845   0.02935964           17 
 1970000   0.95316972   -6.4645087    702.34276  0.029709931  0.029352623            9 
 1971000   0.92218612   -6.4313976    701.36123  0.029653358  0.029345588           14 
 1972000   0.93510645   -6.4480043     702.6242  0.029691692  0.029338604            5 
 1973000    0.9369716   -6.4440631    702.57371  0.029674511   0.02933165           16 
 1974000   0.94670142   -6.4411139    703.01795  0.029678232  0.029324637            8 
 1975000   0.92887314   -6.4817706    700.90121  0.029573891  0.029317541           10 
 1976000   0.92433768   -6.4638686     703.7321   0.02967831  0.029310467            8 
 1977000   0.91675516   -6.5045857    703.30012   0.02964509   0.02930343           10 
 1978000   0.94456973   -6.4790892    703.35349  0.029632351  0.029296418           13 
 1979000   0.95568811   -6.4672356    705.25159  0.029697305  0.029289516           16 
 1980000   0.94027017   -6.4495375    704.21034  0.029638482  0.029282592            9 
 1981000    0.9371706   -6.4882403    702.85589  0.029566544  0.029275659            7 
 1982000   0.94055007    -6.473221    703.60473  0.029583112  0.029268636            9 
 1983000   0.92223253   -6.4546776    704.68808   0.02961372  0.029261669           11 
 1984000   0.91907812   -6.4427945    704.99951  0.029611874  0.029254752            3 
 1985000   0.93717831    -6.490036    704.17301  0.029562259   0.02924773            8 
 1986000   0.94547388   -6.4724479    704.93919  0.029579523  0.029240671            7 
 1987000   0.91371988   -6.4638542    704.65772  0.029552832  0.029233688           12 
 1988000   0.94134297   -6.4741727    703.78668  0.029501454   0.02922663            9 
 1989000   0.94429783    -6.470848    705.61511  0.029563227  0.029219662            8 
 1990000   0.92945665   -6.4975947    705.19671  0.029530851  0.029212699            8 
 1991000   0.91711682   -6.5173118    704.32954  0.029479723  0.029205644            9 
 1992000   0.91688482   -6.4489905    707.44652   0.02959532  0.029198671            6 
 1993000   0.94282853   -6.4462772    706.99855  0.029561739  0.029191748           13 
 1994000   0.92058512   -6.4431582    708.83115  0.029623502  0.029184778            7 
 1995000   0.93604195   -6.4540371    707.56614  0.029555812  0.029177773            5 
 1996000   0.91009798   -6.4859737     707.2729  0.029528762  0.029170803           17 
 1997000   0.93722946    -6.481865    707.04501  0.029504465  0.029163835           10 
 1998000    0.9463804   -6.4390897    706.62903  0.029472349  0.029156903            6 
 1999000   0.92309266   -6.4726591    707.54395  0.029495746  0.029149956            5 
 2000000   0.92783139   -6.4571597    709.22173  0.029550905  0.029143026            8 
 2001000   0.94290934    -6.466942    707.87803  0.029480178  0.029136141           11 
 2002000   0.92131134   -6.4604408    708.62727   0.02949664  0.029129259            5 
 2003000   0.93793101   -6.4899802    707.33152  0.029428005  0.029122316            6 
 2004000   0.92059769   -6.4745197    707.42864  0.029417359  0.029115367           16 
 2005000   0.89744491   -6.4689508     708.4908  0.029446833  0.029108279           15 
 2006000   0.95892849   -6.4854371    708.27066  0.029423008  0.029101232           15 
 2007000   0.93673512   -6.5053703     707.7523  0.029386825  0.029094095            7 
 2008000   0.92555665   -6.4822242     708.2419  0.029392509  0.029087145            5 
 2009000   0.92412806   -6.4749784    709.12706  0.029414595  0.029080134           10 
 2010000   0.94085588   -6.4941777    709.05963  0.029397165  0.029073098           22 
 2011000    0.9097627   -6.4798424    708.19404  0.029346678  0.029066045           16 
 2012000   0.92089166   -6.4918629     708.2214  0.029333225  0.029059032            5 
 2013000   0.92054976   -6.4656036    709.87676  0.029387182  0.029052018            8 
 2014000   0.92274969   -6.4784748    708.91578  0.029332828  0.029044939            9 
 2015000   0.93272826   -6.5129042    709.45933   0.02934075  0.029037826            4 
 2016000   0.91125048   -6.4943311    710.19141  0.029356457  0.029030886            8 
 2017000   0.92742315   -6.4783269     710.6654  0.029361486  0.029024002            8 
 2018000   0.91576542   -6.4458916    711.99499  0.029401841  0.029017138           10 
 2019000     0.928465   -6.4809267    712.24978  0.029397795   0.02901027            5 
 2020000   0.92886519   -6.4928836    710.00298  0.029290552  0.029003286            7 
 2021000   0.93221343   -6.4586595    712.62202  0.029384052  0.028996329            5 
 2022000   0.92588533   -6.4692564    712.78594  0.029376275   0.02898936            4 
 2023000   0.91796178   -6.4692004    712.71155   0.02935869  0.028982485            4 
 2024000   0.93113154     -6.45309    711.94059  0.029312442  0.028975618            5 
 2025000   0.91958014    -6.466739    712.33321  0.029314124   0.02896873            8 
 2026000   0.91759578   -6.4971351    712.24078  0.029295853  0.028961836           13 
 2027000   0.89895076   -6.5168826    711.54748  0.029252898  0.028954828            7 
 2028000   0.92822929   -6.5071371    712.69186  0.029285497  0.028947731           13 
 2029000   0.93666819   -6.4804282    713.76392  0.029315094  0.028940715            6 
 2030000   0.91335728   -6.4732437    713.86766  0.029304912  0.028933721           13 
 2031000    0.9233885   -6.4838681    712.84453  0.029248504  0.028926777            6 
 2032000   0.92609405   -6.4440065    713.47359  0.029259908  0.028919876            7 
 2033000   0.93255826    -6.490486    713.46152  0.029245021  0.028912995            9 
 2034000   0.91103882   -6.4940813    715.13511   0.02929921  0.028906033            7 
 2035000   0.93223167   -6.4847265    715.54296  0.029301513  0.028899069            8 
 2036000   0.94019453   -6.4743479    715.58402  0.029288802   0.02889216           12 
 2037000   0.93324412   -6.4899812    715.45581  0.029269179  0.028885212            6 
 2038000   0.92976218   -6.4761481     715.4181  0.029253275  0.028878252            4 
 2039000   0.91675912   -6.4939391    714.18904  0.029188697  0.028871403            4 
 2040000   0.91933551     -6.45697    717.96394  0.029328592  0.028864568            7 
 2041000   0.92896834   -6.4911572    716.81237  0.029267205  0.028857858            7 
 2042000   0.95820929   -6.4758802    715.87892  0.029214778  0.028851092           10 
 2043000   0.91587538   -6.4697403    717.75562  0.029277028   0.02884426            5 
 2044000    0.9231573   -6.5011191    717.03444  0.029233302  0.028837396           15 
 2045000   0.93265782   -6.5030984     717.9302  0.029255509  0.028830543           14 
 2046000   0.92234772   -6.4688116    718.95684  0.029283025  0.028823711            8 
 2047000   0.91141777   -6.4633224    716.87083  0.029183799  0.028816882            8 
 2048000   0.91517346   -6.4790132    717.12702  0.029179973  0.028810024           12 
 2049000   0.93546099   -6.4715125     716.4863  0.029139674   0.02880311            7 
 2050000   0.93060057   -6.4538858    715.85531  0.029099809  0.028796237           10 
 2051000   0.92973387    -6.472417    718.75744  0.029203537  0.028789352            6 
 2052000   0.92284284   -6.5012467    717.96807  0.029157248  0.028782473            5 
 2053000   0.93104872   -6.5272701    716.32186  0.029076224  0.028775541            7 
 2054000   0.92859528   -6.5270633    716.70194  0.029077489  0.028768591            9 
 2055000   0.91764013   -6.5145791    716.59404  0.029058964  0.028761576           10 
 2056000    0.9128064   -6.5149547    716.61863  0.029045827  0.028754559           12 
 2057000   0.93412025    -6.509692    716.37662  0.029021902  0.028747621            6 
 2058000   0.92490243   -6.4401024    719.08077  0.029117297  0.028740713            7 
 2059000   0.95160814   -6.5261452    717.67354  0.029046201  0.028733782            8 
 2060000   0.92540749   -6.4892814    719.91652  0.029122837  0.028726875            8 
 2061000   0.93768505   -6.4781745     718.8945  0.029067382  0.028719959            7 
 2062000   0.91307181   -6.4739069     720.4777  0.029117269  0.028713032           13 
 2063000   0.90825967   -6.4675706    719.89314  0.029079542  0.028706102            6 
 2064000   0.92717241   -6.5071317    718.66936  0.029016043  0.028699204           10 
 2065000   0.92429417     -6.48181    718.64782  0.029001122  0.028692231            7 
 2066000   0.91609917   -6.4991905    719.54207  0.029023155  0.028685328           10 
 2067000   0.92361687    -6.439413    723.17675   0.02915565  0.028678434            7 
 2068000   0.90884788   -6.4650035    721.50021  0.029073993   0.02867166            5 
 2069000    0.9201965   -6.5119865    721.27719  0.029050958  0.028664817            8 
 2070000    0.9333291   -6.4837677    723.01113  0.029106728  0.028657865            8 
 2071000    0.9046873   -6.4882122    722.29172  0.029063726  0.028650967            7 
 2072000   0.92259471   -6.5017796    719.93151  0.028954774  0.028644063            6 
 2073000   0.93699658   -6.4920619    721.63227  0.029009176  0.028637184            8 
 2074000   0.92250865   -6.4848651    723.95953  0.029088699  0.028630267           14 
 2075000   0.93073159   -6.5192723    721.13707  0.028961328  0.028623315            7 
 2076000   0.92145421   -6.5063476    723.45495   0.02904042  0.028616347           15 
 2077000   0.89656279   -6.5125742    720.32459  0.028900842   0.02860947            8 
 2078000   0.91892893   -6.5103254    722.25991  0.028964546  0.028602524           15 
 2079000    0.9070699   -6.5192314    721.03607  0.028901558  0.028595678            5 
 2080000   0.93135019   -6.4611102    723.85183  0.029000474  0.028588777           12 
 2081000   0.91360239     -6.51217     723.0062  0.028952675  0.028581871           14 
 2082000   0.91125238   -6.4724557    724.60403  0.029002723  0.028574975           10 
 2083000   0.91946058    -6.473483    722.95191  0.028922704  0.028568125           11 
 2084000   0.90574972   -6.4872466    723.70095  0.028938778  0.028561233           11 
 2085000   0.90531227   -6.5060217     722.7684  0.028887626  0.028554335            4 
 2086000   0.92478616   -6.5107149    723.49599  0.028902844  0.028547482            8 
 2087000   0.89374967   -6.4599183    726.05419  0.028991143   0.02854069           10 
 2088000   0.91856442   -6.4931918    723.12346  0.028860291  0.028533897            9 
 2089000    0.9260542   -6.4782091    724.90535  0.028917558  0.028527097            4 
 2090000   0.89878974   -6.4834416    726.36082  0.028961755  0.028520342            8 
 2091000   0.91322718   -6.4998398    724.95291  0.028891795  0.028513675            9 
 2092000   0.89885099   -6.4707788    727.97174  0.028998237  0.028506987            7 
 2093000   0.91376681   -6.5176143    726.50478  0.028925975  0.028500257           17 
 2094000   0.91449303   -6.4693883    726.62774  0.028917054  0.028493576            7 
 2095000    0.9315605   -6.4916817    729.03658  0.028999069  0.028486928            7 
 2096000   0.90136339   -6.5095764    727.50403  0.028924301  0.028480281            5 
 2097000   0.92353689   -6.5210706    727.28648  0.028901863  0.028473644            6 
 2098000   0.91228919    -6.524469    727.14998  0.028882665  0.028466926           10 
 2099000   0.89334029   -6.5023879    728.39932  0.028918505  0.028460308           11 
 2100000   0.90284149   -6.5032223     728.0729  0.028891782  0.028453631            6 
 2101000   0.92736268   -6.4857169    728.14696  0.028880968  0.028446953           29 
 2102000   0.92231185   -6.5060072    729.20647  0.028909232  0.028440279            5 
 2103000   0.90734835   -6.5106301    729.00697   0.02888758  0.028433673           12 
 2104000    0.9096076   -6.4804713    728.29913  0.028845815  0.028427051           16 
 2105000   0.89697251   -6.5071999    728.36193  0.028834597  0.028420367            3 
 2106000   0.91356732   -6.4876641    731.50699  0.028945354   0.02841368            7 
 2107000     0.894773   -6.4945488     729.3857  0.028847718  0.028407135            9 
 2108000   0.90643676   -6.5056376    729.95284  0.028856453  0.028400489            4 
 2109000   0.88918557   -6.4739695    731.12896  0.028889243  0.028393853            6 
 2110000    0.9170017   -6.5183686    730.51522  0.028851312  0.028387298            7 
 2111000   0.91529484   -6.5028876    729.95332  0.028815463  0.028380711           10 
 2112000   0.90678352   -6.4771508     732.7914  0.028913802  0.028374127            7 
 2113000   0.88905588   -6.5099052    731.67581  0.028856121  0.028367499            7 
 2114000   0.90280682    -6.498753    731.78114  0.028846623   0.02836084           11 
 2115000   0.91947468   -6.4913082     731.8138  0.028834271  0.028354185            9 
 2116000    0.9010244   -6.5193336    729.33617  0.028723069  0.028347538           12 
 2117000   0.91936459   -6.5313895     730.8329  0.028768418  0.028340784            4 
 2118000   0.89916347   -6.5195078     731.0242  0.028762362  0.028334023           11 
 2119000   0.91842676   -6.4824962    731.48757  0.028767012  0.028327339            7 
 2120000   0.92980751   -6.5016273     732.8537  0.028807142  0.028320731            9 
 2121000   0.92748268    -6.484551    732.52856  0.028780786  0.028314058            6 
 2122000   0.92016001   -6.4498591    733.04368  0.028787452  0.028307416            3 
 2123000   0.92197125   -6.5052899    733.69525  0.028799468  0.028300749            6 
 2124000   0.91528614   -6.4836733    730.24273  0.028650452  0.028294038            6 
 2125000   0.90971284   -6.5041714    732.73381  0.028734659  0.028287321            6 
 2126000   0.89568764   -6.5041844    732.07232  0.028695215  0.028280572            7 
 2127000   0.92352831   -6.5147241    732.03802   0.02868038  0.028273865            8 
 2128000   0.90072522   -6.4962244    734.58238  0.028766541  0.028267162            5 
 2129000   0.89545342   -6.5251436    732.47748  0.028670639  0.028260457           16 
 2130000   0.90774297   -6.4926686    732.30323  0.028650361  0.028253794            7 
 2131000   0.90562302   -6.5344288    732.42593  0.028641715  0.028247102            7 
 2132000   0.91108499   -6.5203586    733.19512  0.028658346  0.028240382            7 
 2133000   0.89530799   -6.5418403    734.15089  0.028682251  0.028233628           23 
 2134000   0.91462976   -6.4966988    737.09172   0.02878365  0.028227021           10 
 2135000   0.93157117   -6.5262335    734.18167  0.028656583  0.028220469           14 
 2136000   0.92912282   -6.5365645    737.14325   0.02875871  0.028213891            8 
 2137000   0.90093715   -6.5133468    734.87402  0.028656763  0.028207234           33 
 2138000   0.90906905   -6.4999332    733.61471  0.028594274  0.028200595           11 
 2139000   0.88872892   -6.4915891    735.33715  0.028648011   0.02819397            5 
 2140000   0.90781978   -6.4896716    736.61654  0.028684445  0.028187315            4 
 2141000   0.91788457   -6.5491255    734.88476  0.028603642  0.028180716            9 
 2142000   0.90416527   -6.5009229    734.00625   0.02855611  0.028173985            7 
 2143000    0.9154849   -6.4873276    736.23976  0.028629637  0.028167398           15 
 2144000   0.90217651   -6.5081452    736.05631  0.028609154  0.028160754            5 
 2145000   0.91016783   -6.5129284     736.2151  0.028601985    0.0281542            6 
 2146000   0.91457085   -6.5046082    736.32973  0.028593108  0.028147637            9 
 2147000   0.90385066   -6.5280252    736.41407  0.028583064  0.028140956           10 
 2148000   0.90549956   -6.4970397    739.07368  0.028672939  0.028134318            6 
 2149000    0.9255112   -6.5092802    736.58819  0.028563215  0.028127708           10 
 2150000   0.90748513   -6.5358471    736.57942   0.02854959  0.028121049            6 
 2151000   0.91596856   -6.4885529    735.89575  0.028509831  0.028114435            8 
 2152000   0.90377412   -6.5236303    737.12315  0.028544112  0.028107792           11 
 2153000   0.90364131   -6.4821766    737.33294  0.028538974  0.028101229            6 
 2154000   0.90918658   -6.5216793    737.83742  0.028545242  0.028094606            9 
 2155000    0.9188677   -6.5337053    737.65532  0.028524954  0.028087964           24 
 2156000    0.8960537   -6.5189671    737.63209  0.028510826   0.02808132           12 
 2157000   0.91669122   -6.5240549    738.45768  0.028529504  0.028074675           17 
 2158000   0.91819022   -6.5298344    737.73945  0.028488549  0.028068002            7 
 2159000    0.9262648   -6.5224031    739.26187  0.028534116  0.028061395           11 
 2160000   0.90579577   -6.5083858    739.29567  0.028522209  0.028054736            5 
 2161000   0.89443259   -6.5458787    738.47834  0.028477493  0.028048112            7 
 2162000   0.91058707   -6.5144536     739.7576  0.028513629  0.028041454            6 
 2163000   0.89295407   -6.4954127     740.2739  0.028520338  0.028034782           11 
 2164000   0.90451976   -6.5248308    738.86916  0.028453064  0.028028088           13 
 2165000   0.90798341   -6.5147433    739.42764  0.028461418  0.028021477            4 
 2166000   0.91371664   -6.5268345    738.29361  0.028404648   0.02801486           10 
 2167000   0.92019837   -6.5170757    738.46706   0.02839821  0.028008177            7 
 2168000   0.90400992   -6.4896128    739.65366  0.028430722  0.028001501            5 
 2169000   0.89598911   -6.5337078    739.28096  0.028403295  0.027994841            9 
 2170000   0.89260824   -6.5215258    740.80392  0.028448691  0.027988114           11 
 2171000    0.8952322   -6.5033941     740.2488  0.028414279  0.027981365            6 
 2172000   0.91887594   -6.5285726    740.60686  0.028414935  0.027974688           12 
 2173000   0.90200713   -6.5241847    738.67734  0.028327862  0.027967971           11 
 2174000   0.90555066   -6.5442465    739.56228  0.028348753  0.027961224            6 
 2175000   0.91164613   -6.5144389    739.11634  0.028318634  0.027954461            4 
 2176000   0.90322715   -6.5070255    738.00819  0.028263181  0.027947709           13 
 2177000    0.9181027   -6.5457793    740.46815  0.028344363  0.027940886            4 
 2178000   0.90639125    -6.517729    739.43258  0.028291727  0.027934067           10 
 2179000   0.90741781   -6.5059057    738.71993  0.028251489  0.027927261            5 
 2180000   0.90562765   -6.5090823    741.98633  0.028363392  0.027920496            4 
 2181000   0.91620535   -6.5519136    741.95065  0.028349024  0.027913697            7 
 2182000   0.90158982   -6.5307904    740.39241   0.02827652  0.027906855            7 
 2183000   0.90558972   -6.5186699    739.12198   0.02821507  0.027899996            6 
 2184000   0.92162721   -6.5497405    739.29508  0.028208756  0.027893045            9 
 2185000   0.91239218   -6.5460961    738.04271  0.028148082  0.027886063           13 
 2186000    0.9262559   -6.5109216    740.05003  0.028211727  0.027879044           10 
 2187000   0.90771776   -6.5033472    741.60462  0.028258064  0.027872143            9 
 2188000   0.91149168     -6.53412    740.30453  0.028195633   0.02786527           15 
 2189000    0.8918025   -6.5501577    739.37143   0.02814723  0.027858388           15 
 2190000   0.89380294   -6.5210232    740.34693  0.028171496   0.02785153           11 
 2191000   0.88694174   -6.5538329    741.14537  0.028189007  0.027844744           12 
 2192000   0.92413952   -6.5470938    741.68315  0.028196592  0.027837897            9 
 2193000   0.90899027   -6.5279087     742.1687  0.028202185  0.027831036           12 
 2194000   0.90668775   -6.5288873    742.78174  0.028212615   0.02782407           15 
 2195000    0.8885832    -6.548283    743.15401  0.028213895    0.0278172            6 
 2196000   0.89525298    -6.524485    743.98358  0.028232528  0.027810393           12 
 2197000   0.90000438   -6.5322234    742.29896  0.028155779  0.027803498           15 
 2198000   0.89673147   -6.5157883    742.11185  0.028135875  0.027796688           25 
 2199000   0.90272957   -6.5463815    741.58804   0.02810323  0.027789918            6 
 2200000    0.8862123   -6.5366046    743.79694  0.028174126  0.027783057           11 
 2201000   0.89309104   -6.5429214    745.08941  0.028210261  0.027776268            7 
 2202000   0.89950793   -6.5110131    745.15299  0.028199856  0.027769536            4 
 2203000   0.90647669   -6.5165391    745.86978  0.028214169  0.027762798            6 
 2204000   0.91065831    -6.541371     745.4322  0.028184823  0.027756143           14 
 2205000    0.8879747   -6.5453102    746.53931  0.028213882  0.027749473           34 
 2206000   0.91976336   -6.5704884    742.31932  0.028041679  0.027742721            9 
 2207000   0.90682921   -6.5680755    742.89561  0.028050733  0.027735951           13 
 2208000    0.8859809   -6.5451715    745.28055   0.02812804  0.027729196            8 
 2209000   0.88859956   -6.5087803    746.82643  0.028173624  0.027722516           28 
 2210000   0.91179482   -6.5224506    747.94204  0.028202943  0.027715825            9 
 2211000    0.9019581   -6.5407923    746.03182   0.02811819  0.027709239            9 
 2212000    0.8996826   -6.5424108    748.89554  0.028213364  0.027702597            9 
 2213000    0.9141721     -6.54713     746.6315   0.02811536  0.027695954            9 
 2214000   0.91043497   -6.5297415    746.44733  0.028095729  0.027689353            5 
 2215000   0.90158169   -6.5278018    745.65152  0.028053104   0.02768271           11 
 2216000    0.8941821   -6.5524269     748.4437  0.028145446  0.027676026            7 
 2217000   0.89479917   -6.5451749    747.52893  0.028098366  0.027669346           10 
 2218000   0.89038327   -6.5324567    746.87968  0.028061304  0.027662681            6 
 2219000   0.88060515   -6.5078933    748.99595  0.028128134  0.027656064           16 
 2220000   0.89306573   -6.5454574    747.62324  0.028063935  0.027649407           11 
 2221000   0.89468194   -6.5329796    748.33861  0.028078141  0.027642763            5 
 2222000   0.89894413   -6.5323705    747.86691  0.028047814  0.027636056           11 
 2223000   0.91057427   -6.5413399    749.78683  0.028107169  0.027629385           15 
 2224000   0.89833169    -6.571583    747.80058  0.028020106  0.027622739           12 
 2225000   0.89932664   -6.5359323    748.66367  0.028039838  0.027616061           10 
 2226000   0.91480543   -6.5397538    749.78278  0.028069137  0.027609384           12 
 2227000    0.8804306   -6.5327634    747.88794  0.027985628  0.027602696           11 
 2228000   0.89489676   -6.5284887    747.22964  0.027948445  0.027596063            4 
 2229000   0.89649121   -6.5421282    748.33777  0.027977336  0.027589414            7 
 2230000   0.87932078   -6.5317398    748.84619  0.027983789  0.027582832           11 
 2231000   0.88518621   -6.5373383    749.43308  0.027993168  0.027576183           17 
 2232000   0.88650923   -6.5191206    751.47348  0.028056805  0.027569616            4 
 2233000   0.87918741   -6.5138286    750.88309  0.028022208  0.027563034            7 
 2234000   0.87912205   -6.5339037    750.74756  0.028004609  0.027556369            8 
 2235000   0.89978436   -6.5478923    750.14711  0.027969691  0.027549737            4 
 2236000   0.88535314   -6.5532991    751.83348  0.028020031  0.027543145           10 
 2237000   0.89371445   -6.5335174    751.62982  0.027999919  0.027536466            9 
 2238000   0.89372438   -6.5452077    749.62489  0.027912753  0.027529752            7 
 2239000   0.88684337   -6.5463561     751.9943  0.027988473  0.027523074           28 
 2240000   0.90794247   -6.5423557    749.91772  0.027898725  0.027516428            9 
 2241000   0.88997069   -6.5444415    751.29882  0.027937633   0.02750979           10 
 2242000   0.89898268   -6.5499179    750.71036  0.027903299  0.027503131            6 
 2243000   0.90945082   -6.5545176    752.43105  0.027954787   0.02749648            6 
 2244000   0.90052804   -6.5574243    750.78129  0.027881064  0.027489804           13 
 2245000   0.88688003   -6.5758269    750.19488  0.027846877  0.027483056           12 
 2246000   0.88828955   -6.5254684    751.90497  0.027897929  0.027476377           15 
 2247000   0.89010485   -6.5625597     752.0214  0.027889831  0.027469737           13 
 2248000    0.8998887   -6.5668255    752.83216  0.027907479  0.027463106           10 
 2249000    0.8957274   -6.5557437    752.08567   0.02786741  0.027456425           14 
 2250000   0.87263906   -6.5226027     751.7444  0.027842385   0.02744967           12 
 2251000   0.91185723   -6.5589699    751.57284  0.027823665  0.027442989            7 
 2252000   0.88055224   -6.5450832    751.74672  0.027817744  0.027436278           14 
 2253000   0.86798716   -6.5624265    753.20079   0.02785918  0.027429634           13 
 2254000   0.90841481   -6.5419424    753.23601  0.027848122  0.027422976           16 
 2255000   0.91235738   -6.5581498    753.35878   0.02784031  0.027416318            8 
 2256000   0.88946134   -6.5666132    753.96119  0.027850221  0.027409637            9 
 2257000   0.89297088    -6.542382    753.11795  0.027806747  0.027402977           17 
 2258000   0.86568453   -6.5640193    753.06262  0.027792391  0.027396317           16 
 2259000   0.87839106   -6.5564045    756.12167  0.027892935  0.027389603            9 
 2260000   0.86998878   -6.5165328     755.9932  0.027875855  0.027383005            8 
 2261000   0.90823613   -6.5706514    754.79588  0.027819397  0.027376403           11 
 2262000    0.9033733   -6.5558282    754.95593  0.027812995  0.027369773           10 
 2263000   0.88151155   -6.5594604    753.65863  0.027752932  0.027363109           18 
 2264000   0.89093252   -6.5774236    755.28887   0.02780068   0.02735639           19 
 2265000   0.87154551   -6.5496647     756.0407  0.027816067  0.027349751            7 
 2266000   0.87389375   -6.5449639    755.68385  0.027790668   0.02734315           17 
 2267000    0.8783834   -6.5707856    756.23448   0.02779865  0.027336503           10 
 2268000   0.88275373   -6.5600107    756.25759  0.027787243  0.027329901            5 
 2269000   0.87202163   -6.5518063     755.1408   0.02773398  0.027323315            9 
 2270000   0.86835072   -6.5564491    756.22009  0.027761384  0.027316715            9 
 2271000   0.89120687    -6.590994    753.54019  0.027650822  0.027310017           11 
 2272000   0.89123213   -6.5668801    756.50319   0.02774733  0.027303288            7 
 2273000    0.8899199   -6.5381444     757.7263  0.027779964  0.027296558            7 
 2274000    0.8822791   -6.5765279    755.14883  0.027673293  0.027289836            6 
 2275000   0.87975275   -6.5590079    755.58422  0.027677078  0.027283212           15 
 2276000    0.8896812   -6.5706042    756.85291  0.027711369  0.027276541           19 
 2277000   0.88840058   -6.5433285      757.465    0.0277216  0.027269839           24 
 2278000   0.88269535   -6.5598645    755.19465  0.027626377  0.027263154            8 
 2279000   0.89888092   -6.5309716    756.82734  0.027673955  0.027256517           10 
 2280000   0.88938272   -6.5140171    757.03825  0.027669527   0.02724984            9 
 2281000   0.87330531   -6.5545109    756.32139  0.027631207   0.02724319           11 
 2282000   0.86662725   -6.5695139    755.66271  0.027595045  0.027236545           17 
 2283000   0.86002586   -6.5462383    756.44412   0.02761148    0.0272299           10 
 2284000   0.87086689   -6.5283583    756.61969  0.027605797  0.027223205            6 
 2285000   0.87901355   -6.5447691    756.14691  0.027576474  0.027216501           10 
 2286000   0.85780896   -6.5656303    756.26477  0.027568707  0.027209727            4 
 2287000    0.8834253    -6.507938    758.02213  0.027620687  0.027202987            5 
 2288000   0.88278067   -6.5731843    755.93051  0.027532434  0.027196188           12 
 2289000   0.89298751   -6.5913307    755.16982  0.027492712  0.027189383           11 
 2290000   0.89114111   -6.5471935    755.93828  0.027508671  0.027182576           17 
 2291000    0.8866766   -6.5518194    758.21162  0.027579355  0.027175869            7 
 2292000    0.8776818   -6.5601155    757.16701  0.027529342  0.027169113            9 
 2293000    0.9062207   -6.5870656    756.35886  0.027487966  0.027162323           14 
 2294000   0.87777991   -6.5498258    758.13305  0.027540434  0.027155548            8 
 2295000   0.85818268   -6.5800121    756.89254  0.027483389  0.027148812           13 
 2296000    0.8702213   -6.5617526    757.40984  0.027490194  0.027142079            4 
 2297000   0.88445772   -6.5656948    758.01412  0.027500149   0.02713539            9 
 2298000   0.86582222    -6.517503    759.51049  0.027542446  0.027128605            8 
 2299000   0.88633645   -6.5732221    756.65405  0.027426926  0.027121826            7 
 2300000   0.89290832   -6.5725825    758.65682  0.027487566  0.027115044           13 
 2301000   0.87475802   -6.5795258     757.5616  0.027435955  0.027108294           13 
 2302000   0.86775037   -6.5615576     758.7007  0.027465273  0.027101573            9 
 2303000   0.88428579   -6.5742192    758.19262  0.027434962   0.02709483           13 
 2304000   0.88423276   -6.5803346    759.34848  0.027464861  0.027088054           22 
 2305000   0.87861952   -6.5579013    757.61009  0.027390097  0.027081283           44 
 2306000    0.8778229   -6.5844419    760.26529  0.027474172  0.027074446            9 
 2307000   0.90001986   -6.5534941    759.79124  0.027445139    0.0270677            8 
 2308000    0.8760396   -6.5719447    759.89242  0.027436901   0.02706092            7 
 2309000   0.88478511   -6.5314688    760.11827   0.02743317  0.027054145            6 
 2310000     0.891354   -6.5669336    759.66492   0.02740494  0.027047391            4 
 2311000   0.87503434   -6.5606286    759.60924  0.027391073  0.027040561            6 
 2312000   0.87600542    -6.574549    758.83657  0.027351376  0.027033735           14 
 2313000   0.87034309   -6.5576715    760.15504  0.027387053  0.027026924            7 
 2314000    0.8912164   -6.5573611    761.69998  0.027430855   0.02702015            5 
 2315000   0.86388184   -6.5877995    760.98825  0.027393385  0.027013399           11 
 2316000   0.89976639   -6.5578847    761.44455  0.027397976  0.027006679           13 
 2317000   0.89555676   -6.5626532    763.01401  0.027442598  0.026999976            6 
 2318000   0.87657026   -6.5609762    761.74042  0.027384973  0.026993249           12 
 2319000   0.87739257   -6.5715103     761.5813  0.027367446  0.026986527            6 
 2320000   0.88989257    -6.570025    761.00474   0.02733494  0.026979788           10 
 2321000    0.8898381   -6.5584902    762.41404  0.027373763  0.026973068           20 
 2322000   0.87649665   -6.5795241    762.49376  0.027364835  0.026966345            6 
 2323000   0.88727058   -6.5561324    761.10898  0.027303379  0.026959672           11 
 2324000   0.86623719   -6.5593719     762.0148  0.027324111  0.026953083            9 
 2325000   0.87756752   -6.5701346    762.98236  0.027347038   0.02694641            8 
 2326000   0.87482132    -6.562711    763.72641  0.027361938  0.026939771           16 
 2327000   0.88381569   -6.5660499    764.97008  0.027394717  0.026933057           14 
 2328000   0.85948825   -6.5829458    763.09733  0.027315913  0.026926415           19 
 2329000      0.89054     -6.56725     762.1423  0.027270012  0.026919692           12 
 2330000   0.89123326   -6.5891259    763.86806  0.027320031  0.026912976           13 
 2331000    0.8739733   -6.5657851    765.09814  0.027352286  0.026906319           11 
 2332000   0.88658308   -6.5773169    763.79501   0.02729399  0.026899646            7 
 2333000   0.86002614   -6.6097755    763.90252  0.027286131  0.026892925           10 
 2334000   0.88178542   -6.5759361    765.35201  0.027326193  0.026886261           17 
 2335000   0.86362465   -6.5770934    764.72487  0.027292108  0.026879655            8 
 2336000    0.8820044   -6.5809224    766.98281  0.027360974  0.026873037            7 
 2337000   0.88073925   -6.5940195    764.74413  0.027269438  0.026866441            7 
 2338000   0.87244419   -6.5697552    766.45633  0.027318803  0.026859826           18 
 2339000   0.89109559   -6.5861358    763.44187  0.027199725  0.026853165           15 
 2340000   0.89217694   -6.5702032    765.25424  0.027252644   0.02684648           13 
 2341000    0.8616833   -6.5588467    766.00174  0.027267611  0.026839867           14 
 2342000   0.86851242    -6.584017    765.68236  0.027244604  0.026833194           10 
 2343000   0.89199075   -6.5756107    765.96509  0.027243032  0.026826552            7 
 2344000   0.86826301   -6.5887623    765.26558  0.027206541  0.026819882            5 
 2345000   0.86707451   -6.5525771    764.40371  0.027164311  0.026813197            9 
 2346000    0.8906503   -6.5852032    765.96677  0.027208254  0.026806516            4 
 2347000   0.86901212   -6.6028147    764.39363  0.027140805    0.0267998           13 
 2348000   0.87569761   -6.5961084    766.69407  0.027210891  0.026793065           12 
 2349000   0.87616804     -6.60947    765.93497  0.027172377  0.026786329           10 
 2350000   0.88481059   -6.5972452     766.5258  0.027181766  0.026779578           15 
 2351000   0.86470085   -6.5730771    764.99117  0.027115808  0.026772852           18 
 2352000   0.88483168   -6.5900251    763.83123  0.027063181  0.026766115           16 
 2353000   0.88200049   -6.6023398    766.11108  0.027132422  0.026759397           15 
 2354000     0.844305   -6.5818343    765.70441    0.0271065  0.026752684            9 
 2355000   0.87883644   -6.5712272    765.83056  0.027099454   0.02674597           11 
 2356000   0.85984941   -6.5559356    767.72318  0.027154895  0.026739286           10 
 2357000   0.87995787   -6.5546267    767.97959  0.027152439  0.026732555           13 
 2358000   0.88391854   -6.5802502    766.95923  0.027104864  0.026725777           11 
 2359000   0.87807871   -6.5956446    765.74851  0.027050605   0.02671904            6 
 2360000   0.88021812   -6.5822003    766.59929  0.027069184  0.026712284           17 
 2361000   0.87709507   -6.5872672    767.49369  0.027089287  0.026705513           10 
 2362000   0.88486386   -6.5872128    768.91225  0.027127867  0.026698847            5 
 2363000   0.86998241   -6.5903965     767.3315   0.02706064  0.026692145            7 
 2364000   0.88026744   -6.6256225     765.9548  0.027000663  0.026685377           15 
 2365000    0.8742321   -6.5634977    766.97656  0.027025249  0.026678603            7 
 2366000   0.87453545   -6.6077839    767.51555   0.02703281  0.026671848            6 
 2367000   0.86977372   -6.5973784    766.78745  0.026995756  0.026665103            7 
 2368000   0.87532279   -6.5797136    769.70322  0.027086966  0.026658395            7 
 2369000   0.86976182   -6.5789594    766.82404  0.026974252  0.026651644           16 
 2370000   0.87537222   -6.6065963    768.81666  0.027032935  0.026644905           21 
 2371000   0.86862746   -6.5821239    767.96428  0.026991575  0.026638139            8 
 2372000   0.87492233    -6.583561    766.51254  0.026929193  0.026631387            5 
 2373000   0.87252728   -6.5686438    767.92065  0.026967293  0.026624601           12 
 2374000   0.85496602   -6.5949696    769.25076  0.027002624  0.026617863            8 
 2375000   0.86879952   -6.6137544    768.90647  0.026979174  0.026611124            8 
 2376000   0.87120845   -6.6014453    767.78671  0.026928546  0.026604342           18 
 2377000   0.87728589   -6.5981677    768.15473  0.026930119  0.026597542           15 
 2378000   0.85261019   -6.5666471     768.9671  0.026947263  0.026590792           15 
 2379000   0.88124543    -6.583133    767.28198  0.026876908  0.026583987           25 
 2380000   0.85829584   -6.5974816    768.77778   0.02691799  0.026577204           17 
 2381000   0.87041716    -6.587372    769.74671  0.026940596   0.02657044            7 
 2382000   0.85396581   -6.6152304     767.1327  0.026837836   0.02656368           43 
 2383000    0.8734864   -6.5641064    769.13002   0.02689642  0.026556895           12 
 2384000   0.85799342   -6.5993779    769.13016  0.026885142   0.02655014            8 
 2385000    0.8657886   -6.6117689    769.59212  0.026890011  0.026543314           10 
 2386000    0.8606099   -6.5450956    771.24615   0.02693651  0.026536591           10 
 2387000    0.8638524   -6.5838369    772.48036  0.026968313  0.026529875            9 
 2388000   0.88263151   -6.5758956    768.39482  0.026814448  0.026523032            8 
 2389000   0.86546951   -6.5523629    770.72798  0.026884609   0.02651626           16 
 2390000    0.8779196   -6.5605487    772.19933  0.026924663  0.026509493            8 
 2391000   0.85800682   -6.5701518    770.71997  0.026861842  0.026502644           22 
 2392000   0.87621231   -6.5910629    770.78838  0.026852996  0.026495752            9 
 2393000   0.84872468    -6.598408    771.32792  0.026860563  0.026488914            8 
 2394000   0.87638452   -6.5905185    770.39769  0.026816962   0.02648208            4 
 2395000   0.88754534   -6.6010209    771.62964  0.026848631  0.026475216           12 
 2396000   0.87439835   -6.5800752    769.84163  0.026775237  0.026468355            5 
 2397000   0.85747877   -6.5891097    770.60285  0.026790531  0.026461486            9 
 2398000   0.84654701   -6.5787094    770.11988  0.026762576  0.026454591           10 
 2399000   0.87444111   -6.6205804    768.81248  0.026706005  0.026447694            8 
 2400000   0.84866369   -6.6244739    768.90653  0.026698143  0.026440766           15 
 2401000   0.87089845   -6.5798116    769.53294  0.026708765  0.026433873           17 
 2402000   0.89280497   -6.6080393    769.21309  0.026686549  0.026426998            6 
 2403000   0.86652645   -6.5786656    770.82134  0.026731216  0.026420125           15 
 2404000   0.87300942   -6.5878169    772.56839  0.026780657  0.026413224            7 
 2405000   0.87148511    -6.606735       770.39   0.02669404  0.026406367            9 
 2406000   0.87486877   -6.6059606     772.1378  0.026743482  0.026399538            7 
 2407000   0.87657898   -6.5999549    772.05114   0.02672937   0.02639273            6 
 2408000   0.86216525   -6.5848066    771.82209  0.026710344   0.02638593           13 
 2409000   0.86387764   -6.5957987    773.54107   0.02675872    0.0263791           18 
 2410000   0.87404933   -6.5616258    770.52478  0.026643319  0.026372281           20 
 2411000   0.86440532   -6.6060317    772.16792  0.026689061  0.026365396           17 
 2412000   0.86635633   -6.6108905    772.83435  0.026701021  0.026358548           42 
 2413000   0.86863735   -6.5976229    773.12387  0.026699954  0.026351689           17 
 2414000   0.85464311   -6.5854849    773.67584  0.026707948  0.026344879            9 
 2415000   0.84010513   -6.5708296    773.89431  0.026704427  0.026338046           12 
 2416000   0.86274475   -6.5975865    773.31641  0.026673441  0.026331247            9 
 2417000   0.85349219   -6.6081421    770.78666  0.026575185  0.026324416           20 
 2418000   0.85689238   -6.6187029    773.45904  0.026656294  0.026317558           16 
 2419000   0.87424606   -6.6270044    772.62493   0.02661654   0.02631067           10 
 2420000   0.86384999   -6.5972392    773.60934   0.02663944  0.026303853           14 
 2421000   0.86490812   -6.5733921    772.23443  0.026581111  0.026297014           15 
 2422000   0.86348871   -6.5997534    774.52041  0.026648789  0.026290161            8 
 2423000   0.86861093   -6.6273221     773.2685  0.026594735  0.026283292            5 
 2424000   0.88395899   -6.6262966    773.49204  0.026591448  0.026276432           37 
 2425000   0.85932314   -6.5909113      773.366  0.026576151  0.026269582           29 
 2426000    0.8692302   -6.5912594    774.73752  0.026612308  0.026262788           39 
 2427000   0.83299191   -6.5849354    776.31107  0.026655373   0.02625602           20 
 2428000   0.86286805   -6.5727962    775.52642  0.026617464  0.026249233            7 
 2429000   0.85433848   -6.6178709    775.21611  0.026595859   0.02624244           11 
 2430000    0.8629646   -6.6108759    775.00152  0.026577555  0.026235665           10 
 2431000   0.85204949   -6.5632552    777.35632  0.026647344  0.026228917            8 
 2432000   0.85015869   -6.5903514    777.35986  0.026636508  0.026222188            8 
 2433000   0.87344629   -6.6075431    775.39188  0.026558155  0.026215443            6 
 2434000   0.87572689    -6.611966    776.00479  0.026568228  0.026208693           15 
 2435000   0.85975719    -6.599256    775.91916  0.026554386  0.026201961           12 
 2436000   0.84933494   -6.5702797    778.77807  0.026641286  0.026195233           14 
 2437000   0.86985021   -6.5688892    776.35847  0.026547616  0.026188531           13 
 2438000   0.86972834   -6.6192476    775.29113  0.026500244  0.026181845            8 
 2439000    0.8329696   -6.6139979    775.64642  0.026501518  0.026175049           34 
 2440000   0.85729272   -6.6135257     774.6394  0.026456264  0.026168209           15 
 2441000   0.84301635   -6.6128009    775.03062  0.026458781  0.026161382           11 
 2442000   0.84624631   -6.6062545    774.37344   0.02642552  0.026154519            8 
 2443000   0.87134685   -6.5785252    777.22578     0.026512  0.026147689            7 
 2444000   0.85090511   -6.6069132    775.24302  0.026433546  0.026140908           10 
 2445000   0.85558214   -6.6207057    775.96388  0.026447303  0.026134111           11 
 2446000   0.87599426   -6.5925061    777.84828  0.026500691  0.026127292            9 
 2447000   0.85517039    -6.610593    776.75418  0.026452601   0.02612053           12 
 2448000   0.86424243   -6.6175436    776.36242  0.026428459  0.026113715           16 
 2449000   0.87936218   -6.6240678    778.08281  0.026476208  0.026106932           12 
 2450000    0.8665143   -6.6070751    776.91533  0.026425692  0.026100134            5 
 2451000   0.86734634   -6.6178057    777.54988  0.026436484  0.026093289           24 
 2452000   0.86842311   -6.6135154     776.1938  0.026379615  0.026086394           24 
 2453000   0.87032851    -6.617683    775.10813  0.026331979  0.026079485           17 
 2454000   0.86281768   -6.5879536    776.53111  0.026369571  0.026072579           12 
 2455000   0.84047212   -6.6025005    775.76344  0.026332771  0.026065691           30 
 2456000   0.88091743   -6.5827381    776.63448  0.026351604  0.026058837           24 
 2457000   0.88111567   -6.6024501    778.45785  0.026402722  0.026052006           11 
 2458000   0.86732255   -6.6120448    776.30574  0.026319018  0.026045191            7 
 2459000   0.85980479   -6.6188679    779.10273  0.026403102  0.026038409            8 
 2460000   0.87051455   -6.5764888    778.44713   0.02637016  0.026031619            9 
 2461000   0.85313698   -6.6140561    778.56551  0.026363454  0.026024839            8 
 2462000   0.86162192   -6.6051013    779.43754  0.026382262  0.026018032           12 
 2463000    0.8616951   -6.5879499    778.31896  0.026333704  0.026011235           19 
 2464000   0.85392053   -6.6030748    778.18929  0.026318631  0.026004405           21 
 2465000   0.87113484   -6.6039693     778.0209  0.026302262  0.025997539           32 
 2466000     0.859448   -6.6101668    779.02291  0.026325456  0.025990701           19 
 2467000   0.86127322   -6.6109713    778.95652  0.026312543  0.025983873           15 
 2468000   0.85818973   -6.5940962    779.22207  0.026310848  0.025977111           12 
 2469000   0.85970332   -6.6086087    779.12504  0.026296916  0.025970345            7 
 2470000   0.87399666    -6.628033    779.12227  0.026286176    0.0259636            8 
 2471000   0.86444227   -6.6350363    780.97523  0.026338029  0.025956807            8 
 2472000   0.86743801   -6.6218667    780.39943  0.026307964  0.025949978           24 
 2473000   0.85110852   -6.6249141    778.57584  0.026235876  0.025943153            9 
 2474000    0.8690942   -6.5998723    781.03133  0.026307981  0.025936337           15 
 2475000    0.8442083   -6.6233002    781.81581  0.026323765  0.025929532           14 
 2476000   0.88000542   -6.6435861    778.51606  0.026202075  0.025922709           12 
 2477000   0.85426192   -6.6019056    781.41752  0.026289111  0.025915908           12 
 2478000   0.85700603   -6.6231225    778.84568  0.026192013  0.025909137           17 
 2479000   0.86675285   -6.5872982     781.1688   0.02625954  0.025902378           21 
 2480000    0.8659108   -6.6136199    780.95047  0.026241615  0.025895622            9 
 2481000   0.85321147    -6.575086    781.12161  0.026236787  0.025888854           11 
 2482000   0.85024001   -6.6287882    781.88385  0.026251808  0.025882064           10 
 2483000   0.84004851   -6.6268387    780.09418  0.026181171   0.02587522           11 
 2484000   0.84963729   -6.6331434    781.86519  0.026230045  0.025868395           15 
 2485000   0.86701675   -6.5727611    782.13237   0.02622845  0.025861639           10 
 2486000   0.84922949   -6.6160264    781.30992   0.02619033  0.025854885           12 
 2487000   0.86166586   -6.6240594    781.43316  0.026183929  0.025848093            4 
 2488000   0.85122719   -6.5933314    782.62756   0.02621341  0.025841365            8 
 2489000   0.84343335   -6.6387106    782.53735  0.026199858  0.025834594            9 
 2490000   0.84469999   -6.5978367    783.81251  0.026232012   0.02582777           10 
 2491000   0.86426997   -6.6168974    780.33207  0.026105047   0.02582096           15 
 2492000   0.85507202   -6.6141224    780.76634  0.026109094  0.025814152           11 
 2493000   0.84901211   -6.6443454    779.75114  0.026064686  0.025807269           12 
 2494000   0.86085188   -6.5986843    781.96231  0.026128118   0.02580037           27 
 2495000   0.86593985   -6.6337234    783.08162  0.026155031  0.025793482           14 
 2496000   0.87278785   -6.6349357    781.45077  0.026090103  0.025786613           10 
 2497000   0.85298936   -6.6249854    782.09512  0.026101159  0.025779758           17 
 2498000   0.86517443   -6.6048244    781.30448  0.026064334  0.025772881            9 
 2499000   0.85382066   -6.6224284      780.301  0.026020442     0.025766           13 
 2500000   0.86236826   -6.6457968    781.98905  0.026066302   0.02575909           10 
 2501000   0.84712255   -6.6379168    782.11423   0.02606005  0.025752215           10 
 2502000   0.85045622   -6.6033898    782.38615  0.026058691  0.025745365           14 
 2503000   0.85342475   -6.6144147    782.18588  0.026041613  0.025738526            7 
 2504000   0.84162351   -6.6389064    780.69962   0.02598175  0.025731576            9 
 2505000   0.84105923   -6.6349461    780.28568  0.025957607  0.025724685            8 
 2506000   0.85600195   -6.6178527    780.59263  0.025957457   0.02571778            6 
 2507000   0.86050287   -6.6064683    783.12076  0.026031138  0.025710851            8 
 2508000   0.84736691   -6.6061044    780.96689  0.025949192   0.02570396           13 
 2509000    0.8547337   -6.6167634    781.89157  0.025969562  0.025696999           18 
 2510000   0.85871773   -6.6345072     782.8849  0.025992195  0.025690002           15 
 2511000   0.84878605   -6.6295886    781.71871   0.02594314  0.025683069           11 
 2512000   0.84313398   -6.6398081    782.26221  0.025950843   0.02567613           12 
 2513000   0.83905594   -6.6451292    781.74683  0.025923426   0.02566919           27 
 2514000   0.84673724   -6.6256969    782.23571   0.02592932  0.025662266           23 
 2515000   0.84245158   -6.6435813    781.68589  0.025900792  0.025655338            9 
 2516000   0.86060157    -6.616528    782.13749  0.025905455  0.025648409           14 
 2517000   0.85237202    -6.613965    784.47537  0.025972566  0.025641546           16 
 2518000    0.8526886   -6.6384357    783.62368  0.025934064  0.025634629            7 
 2519000   0.86887868   -6.6463023    781.81981  0.025864093  0.025627651            9 
 2520000   0.85231836   -6.6413009    783.55907  0.025911345    0.0256207            4 
 2521000   0.83998729   -6.6046973    782.63078  0.025870381  0.025613736           12 
 2522000    0.8555293   -6.6451532    782.24574  0.025847401  0.025606776            8 
 2523000   0.84560761   -6.6269442    782.30175  0.025839006   0.02559984           14 
 2524000    0.8705659   -6.6583806    783.09134  0.025854838  0.025592898           10 
 2525000    0.8560711   -6.6231647     784.1536  0.025879657   0.02558596           10 
 2526000   0.83627951   -6.6298586    784.11303  0.025868073  0.025579056           12 
 2527000   0.86830343   -6.6066317    785.19675  0.025893574  0.025572144            9 
 2528000   0.83995497    -6.643757    783.62441  0.025831501   0.02556526           12 
 2529000   0.84247787    -6.649575    785.44471  0.025881268  0.025558296           13 
 2530000    0.8607045    -6.650612    783.49327  0.025806761  0.025551331           10 
 2531000   0.83828935   -6.6293585    783.72991  0.025804356  0.025544353           15 
 2532000   0.84651113   -6.6240497    785.49991  0.025852419   0.02553733            9 
 2533000   0.84041515   -6.6818373    782.88285  0.025756114  0.025530305           20 
 2534000    0.8560886   -6.6526279    783.15291  0.025754831   0.02552323           26 
 2535000   0.85788527    -6.636242    782.13954  0.025711359  0.025516214           34 
 2536000   0.83686072   -6.6209175    784.40213  0.025775569  0.025509229           19 
 2537000   0.84239869    -6.639777    784.25366  0.025760533  0.025502308           17 
 2538000    0.8376074    -6.633705    782.97518  0.025708405  0.025495403           12 
 2539000    0.8521588   -6.6441566    785.06044   0.02576672  0.025488475           12 
 2540000    0.8374624   -6.6377638    785.22441  0.025761956  0.025481582           10 
 2541000   0.85881719   -6.6570789    784.44995  0.025726419  0.025474662           14 
 2542000   0.83959686    -6.654628    785.45915  0.025749382  0.025467761           22 
 2543000   0.86470649   -6.6066294    784.30204  0.025701338  0.025460843            5 
 2544000   0.85880418   -6.6176318    786.55163  0.025764925  0.025453911           12 
 2545000   0.83836802   -6.6337097    787.55438  0.025787635  0.025447036            7 
 2546000   0.84055195   -6.6532233      785.604  0.025713669  0.025440105           12 
 2547000   0.82151495    -6.629786    786.01099  0.025716889   0.02543319           12 
 2548000   0.83449482   -6.6597715    786.38257  0.025718949  0.025426256           15 
 2549000   0.83096108   -6.6484322    785.69098  0.025686249  0.025419348           17 
 2550000   0.84183908   -6.6253371    786.15617  0.025691378  0.025412448            9 
 2551000    0.8538459   -6.6373114    787.32575  0.025719514  0.025405546            7 
 2552000   0.83432164   -6.6501752    786.45962  0.025681153  0.025398641            7 
 2553000    0.8607157   -6.6713989    787.13475  0.025693131  0.025391787           14 
 2554000   0.82863712   -6.6466382    786.55254  0.025664074  0.025384903           14 
 2555000   0.83162122   -6.6085419    787.54752  0.025686481   0.02537807            8 
 2556000   0.83710717   -6.6201534     787.8162  0.025685192   0.02537127           10 
 2557000   0.83214631   -6.6376002    787.08009  0.025651157  0.025364414            7 
 2558000   0.83704465   -6.6526363    787.97867  0.025670402  0.025357547            4 
 2559000    0.8364999   -6.6592163    785.75839  0.025588068  0.025350711           15 
 2560000   0.82682742   -6.6380625    787.78412  0.025644014  0.025343867            6 
 2561000    0.8615028   -6.6552131    788.64164  0.025661904  0.025337067            8 
 2562000   0.83272886    -6.637715    788.10584   0.02563446  0.025330254           22 
 2563000   0.82346857    -6.663129    788.54511  0.025638741  0.025323405           12 
 2564000   0.82473453   -6.6536374     787.4007  0.025591546  0.025316591           10 
 2565000   0.87106472   -6.6548037    786.78296    0.0255615  0.025309747           13 
 2566000   0.82932329   -6.6405871    789.23961   0.02563132    0.0253029           18 
 2567000   0.83492562    -6.624047    791.06779  0.025680684  0.025296071            8 
 2568000   0.84325967   -6.6469378     788.8488  0.025598676  0.025289268           11 
 2569000   0.84336481   -6.6299693    790.57299  0.025644641  0.025282507           20 
 2570000   0.84240789   -6.6285305    789.04713  0.025585186  0.025275716           18 
 2571000   0.82260774   -6.6155781    790.85858  0.025633948  0.025268989           10 
 2572000   0.84657296   -6.6458445    791.82255  0.025655215  0.025262225           11 
 2573000   0.83406988   -6.6621441    790.55977  0.025604346  0.025255466           10 
 2574000   0.81498078   -6.6338366     789.7584  0.025568454  0.025248709           13 
 2575000   0.82342534   -6.6475056    791.39024  0.025611335  0.025241987            9 
 2576000   0.84310726   -6.6721542    791.05059  0.025590405  0.025235249           20 
 2577000   0.84945262   -6.6644769    791.63676   0.02559943  0.025228513           13 
 2578000    0.8421607   -6.6883664    790.86761  0.025564637   0.02522177           11 
 2579000   0.82067691   -6.6016609    791.93666  0.025589268  0.025215058           14 
 2580000   0.81589751   -6.6413285    792.77026  0.025606275  0.025208382           11 
 2581000   0.83092096   -6.6771811    792.16391  0.025576776  0.025201664           14 
 2582000   0.84035679   -6.6312184    791.62282  0.025549407  0.025194939           40 
 2583000   0.82060876   -6.6842845    793.00393  0.025584073  0.025188245           34 
 2584000   0.83819103   -6.6388719     793.2725  0.025582834  0.025181566           13 
 2585000    0.8157579   -6.6402876    791.88104   0.02552808  0.025174922            8 
 2586000   0.83295013    -6.614625    794.45349  0.025601105  0.025168267           10 
 2587000   0.85853062   -6.6178682    795.27038  0.025617523  0.025161644           17 
 2588000   0.83612127   -6.6415256    794.41307  0.025580019  0.025155041           12 
 2589000    0.8420811   -6.6231858    794.41468  0.025570191  0.025148424            9 
 2590000   0.86185907   -6.6191738    794.23285  0.025554468  0.025141817           12 
 2591000   0.83505752   -6.6339277    792.47242  0.025487985   0.02513526            5 
 2592000   0.83475601   -6.6350354    792.88934  0.025491555  0.025128674           19 
 2593000   0.83687703   -6.6292211    793.33869  0.025496166  0.025122045           18 
 2594000   0.83299662   -6.6626421     793.0149  0.025475935  0.025115391           17 
 2595000   0.84607489   -6.6500213    794.42197  0.025511303  0.025108735            7 
 2596000   0.83865705    -6.649053    793.59998  0.025475089  0.025102102            9 
 2597000   0.84223337     -6.66443    794.02119  0.025478796  0.025095463           10 
 2598000   0.84055288    -6.641064    794.56532  0.025486442  0.025088889           10 
 2599000   0.84148513    -6.658227    794.50156  0.025474592   0.02508227            9 
 2600000   0.82993917   -6.6403865     794.0258  0.025449545  0.025075613           16 
 2601000   0.82945278   -6.6475207    794.52203  0.025455659  0.025069014           12 
 2602000   0.84595029   -6.6778454     795.2508  0.025469216  0.025062444           21 
 2603000    0.8248187    -6.638434    798.28895  0.025556696  0.025055883           12 
 2604000   0.85424662   -6.6418913    796.34696  0.025484734   0.02504931            8 
 2605000   0.83444165    -6.643297    796.18398  0.025469737  0.025042728           17 
 2606000   0.82961305   -6.6441635    796.10327  0.025457383  0.025036124           16 
 2607000   0.81447544   -6.6799729    796.95399  0.025474811  0.025029532           14 
 2608000   0.82004033   -6.6609797    796.24454  0.025442374  0.025022931            8 
 2609000   0.83577264   -6.6422158    795.55984  0.025410752  0.025016344           13 
 2610000    0.8345846   -6.6299273    795.15406  0.025388061  0.025009752            8 
 2611000   0.82935137   -6.6629969     795.9485  0.025403693  0.025003139           14 
 2612000    0.8175501   -6.6788448    795.96694  0.025394555  0.024996544           20 
 2613000   0.83474768   -6.6766449    798.22854  0.025456963   0.02498991           16 
 2614000   0.83347943   -6.6858403    797.74092  0.025431679  0.024983287           14 
 2615000   0.84018205   -6.6336542    796.29651  0.025375925   0.02497667            8 
 2616000   0.83901046    -6.665721    797.00043  0.025388648  0.024970067            7 
 2617000   0.82794636   -6.6550014    796.61996  0.025366831  0.024963444           15 
 2618000   0.83858498   -6.6380144    796.53275  0.025354366  0.024956816            6 
 2619000   0.82222168   -6.6113674    797.95852  0.025390051  0.024950218            5 
 2620000    0.8336762     -6.66115    795.83679  0.025312875  0.024943633           10 
 2621000   0.83924854   -6.6651915    793.71096  0.025235627  0.024936958            7 
 2622000   0.83103068   -6.6591601    797.21707  0.025337435  0.024930297           11 
 2623000    0.8278932   -6.6162531    797.33207  0.025331429  0.024923689            5 
 2624000   0.82678709   -6.6756024    797.03342  0.025312291  0.024917075           35 
 2625000    0.8402551   -6.6764686    796.38287  0.025281996  0.024910463           17 
 2626000   0.84219947   -6.6543079    797.31687  0.025302008  0.024903857            9 
 2627000   0.84867176   -6.6454826     796.0882  0.025253401  0.024897255           15 
 2628000     0.826536   -6.6721991    797.30113  0.025282253  0.024890675           10 
 2629000   0.83750247   -6.6620709    798.97892  0.025325818   0.02488403            8 
 2630000   0.83503286   -6.6712882    799.26426   0.02532523  0.024877387           12 
 2631000    0.8331761   -6.6381408    798.73489  0.025298837  0.024870769           22 
 2632000   0.82219784   -6.6872646    800.08503  0.025331973  0.024864147            7 
 2633000   0.85191673   -6.6437882    799.23306  0.025295387  0.024857507            8 
 2634000   0.81096494   -6.6576579    797.88769   0.02524322  0.024850871            9 
 2635000   0.82922708   -6.6551142    798.43118  0.025250828  0.024844229           15 
 2636000   0.81208655   -6.6642384    798.43399  0.025241338  0.024837594            6 
 2637000   0.82130222   -6.6659641    797.38803  0.025198712  0.024830912           16 
 2638000   0.83320251   -6.6584907    796.67324  0.025166579  0.024824235            9 
 2639000   0.83483029   -6.6587541     799.6805  0.025252005  0.024817608            7 
 2640000    0.8513468   -6.6658061    798.69633  0.025211374  0.024810997           10 
 2641000    0.8207637   -6.6616762     798.4726  0.025194768   0.02480437           13 
 2642000   0.84000342   -6.6690012    797.31504  0.025148721  0.024797724           13 
 2643000   0.82242277   -6.6481976    797.11949   0.02513304  0.024791051            7 
 2644000   0.83485966   -6.6682497    799.14269  0.025187301  0.024784355           24 
 2645000   0.83882989   -6.7031636    798.02005  0.025142409  0.024777602           15 
 2646000   0.83540065   -6.6884101    798.30667  0.025141933  0.024770821           12 
 2647000    0.8270242   -6.6682469    797.03541  0.025092413  0.024764066           33 
 2648000   0.82849655   -6.6571978    797.66441  0.025102732  0.024757372           13 
 2649000   0.82005598   -6.6911631    797.66709   0.02509334  0.024750677           34 
 2650000    0.8377825   -6.6409059     798.8476  0.025120994  0.024744007           17 
 2651000    0.8516387   -6.6651746    799.17047  0.025121667  0.024737336           18 
 2652000   0.83410223   -6.6777532    799.84956  0.025133533  0.024730654           16 
 2653000   0.83451651   -6.6594648    799.05763  0.025099184  0.024723981           16 
 2654000   0.82577263    -6.663335    797.77971  0.025049602  0.024717303            8 
 2655000   0.84130565   -6.6554629    799.84494  0.025104989  0.024710594           19 
 2656000   0.82763975   -6.6841978    797.51078  0.025022301  0.024703899           19 
 2657000   0.83131707   -6.6888348     800.6441  0.025111156  0.024697193            9 
 2658000    0.8242318    -6.671107    799.45345   0.02506438  0.024690527            9 
 2659000   0.83636603   -6.6607356    800.60852  0.025091153  0.024683865           20 
 2660000   0.82545974   -6.6747949    799.80677  0.025056603  0.024677141            8 
 2661000   0.81520342   -6.6827865    800.76851  0.025077305  0.024670418           18 
 2662000     0.839975   -6.6699733    800.46586   0.02505841  0.024663699           19 
 2663000   0.83399417   -6.6782426    799.36372  0.025014511  0.024657022           14 
 2664000   0.82284788   -6.6662324    799.75656   0.02501741  0.024650322           15 
 2665000   0.82089133   -6.6523661    800.41069  0.025028477  0.024643649           28 
 2666000   0.82145772   -6.6692484    800.88876  0.025034032  0.024636952           13 
 2667000   0.83863837   -6.6475736    801.19512  0.025034218  0.024630257           14 
 2668000   0.82455195   -6.6681243    801.09019  0.025021558  0.024623582           14 
 2669000   0.82359577   -6.6625522    800.44125  0.024991921  0.024616913           26 
 2670000    0.8398409   -6.6901688    801.55323  0.025017267  0.024610207           14 
 2671000   0.82371008   -6.6760145    798.52399   0.02491339   0.02460351           16 
 2672000   0.83166103   -6.6793467    800.43914  0.024963796  0.024596831           10 
 2673000     0.820197   -6.6642149    801.44135  0.024985701  0.024590105           11 
 2674000   0.82901548   -6.6850505    800.95967  0.024961346  0.024583404           14 
 2675000   0.83105789   -6.6554099    803.10145  0.025018737  0.024576783            8 
 2676000   0.82259169   -6.6787603    802.18028  0.024980701  0.024570157           20 
 2677000   0.82278192   -6.6396957    801.40355   0.02494719  0.024563509           21 
 2678000   0.82457275   -6.6548314    802.19483  0.024962498  0.024556844           10 
 2679000   0.82065993   -6.6458152    801.84296  0.024942235  0.024550182           15 
 2680000   0.83468421    -6.665405     801.8633   0.02493356  0.024543554           23 
 2681000   0.81636178   -6.6621579    801.99394  0.024928321   0.02453691           20 
 2682000   0.82637801   -6.6677177    803.27286  0.024958764  0.024530275           12 
 2683000   0.82898162   -6.6820502     801.3472  0.024889651  0.024523603           53 
 2684000   0.82151516   -6.6875525    802.03972  0.024901879  0.024516955           14 
 2685000   0.81867131   -6.6807451    801.70791  0.024882306  0.024510292           18 
 2686000   0.82233442   -6.6905746    801.48654  0.024866175  0.024503609           13 
 2687000     0.839732   -6.6815016     802.1541  0.024877624  0.024496918           15 
 2688000   0.82748412   -6.6918423     802.3962  0.024875874  0.024490282           13 
 2689000   0.80726147   -6.6748709    803.64308  0.024905265  0.024483655           18 
 2690000   0.81299778    -6.672909    804.13946  0.024911383   0.02447701            9 
 2691000   0.82977858   -6.6815692    800.59203  0.024792271  0.024470363           10 
 2692000   0.80907831   -6.6791097    804.69396  0.024910041  0.024463725           12 
 2693000   0.83396223   -6.6888823    802.93676  0.024846415  0.024457067           11 
 2694000   0.82842636    -6.673372    802.36415   0.02481948  0.024450419           31 
 2695000    0.8274348   -6.6705709    802.08747  0.024801715  0.024443787           12 
 2696000   0.82100884   -6.6694956    804.49258  0.024866858   0.02443715           11 
 2697000   0.82598211   -6.7007674    802.46781  0.024795075  0.024430551           16 
 2698000   0.81644469   -6.6621279    803.13913   0.02480662  0.024423912           11 
 2699000   0.83281054   -6.7033358    802.96953  0.024792192  0.024417296           13 
 2700000    0.8044878   -6.7009218    802.75167  0.024776286  0.024410679           13 
 2701000   0.82781529   -6.6901097    801.28172  0.024721761  0.024404036           20 
 2702000   0.83035895   -6.6643848    804.43052  0.024809725  0.024397405           16 
 2703000   0.82471129   -6.6727861    803.68983  0.024777711  0.024390823           17 
 2704000   0.79844739   -6.6852489    805.65508  0.024829114  0.024384206           15 
 2705000   0.81866008   -6.6877716    805.44858  0.024813573  0.024377631           24 
 2706000   0.82010088   -6.6743726    804.64587  0.024779683  0.024371076            7 
 2707000   0.82251836   -6.6750832     806.6836   0.02483326  0.024364513           12 
 2708000    0.8203859    -6.668553    805.35199  0.024783112  0.024357971           17 
 2709000   0.83059228   -6.6599478    806.14007  0.024798206  0.024351427           26 
 2710000   0.82936868   -6.7042974    804.99508  0.024753846  0.024344899           42 
 2711000    0.8097343   -6.6850019    805.52879  0.024761121  0.024338359           54 
 2712000   0.80982552   -6.6914682    805.88644   0.02476298   0.02433176           18 
 2713000   0.80993352    -6.692135    806.79814  0.024781857  0.024325225           19 
 2714000   0.80824531   -6.6799509    805.83647  0.024743198  0.024318689           26 
 2715000   0.79971662      -6.6878    806.28672  0.024747904   0.02431217            9 
 2716000   0.82397083   -6.7018661    805.49779  0.024714586  0.024305667           20 
 2717000   0.81939617    -6.669132    806.75728   0.02474412  0.024299182            7 
 2718000   0.81806433   -6.7094977    806.48839  0.024726772  0.024292682           14 
 2719000   0.82255812   -6.7029663    805.91938  0.024700238  0.024286152           22 
 2720000   0.81900077   -6.7188017    807.08714  0.024726934   0.02427963           41 
 2721000    0.8149241   -6.6964636    808.91297  0.024773765  0.024273097           11 
 2722000    0.8223976   -6.6967004    806.30367  0.024684781  0.024266587           18 
 2723000   0.82126716   -6.6947664     807.9765   0.02472691  0.024260075           24 
 2724000   0.80343867   -6.6942406    807.30914  0.024697416  0.024253588           10 
 2725000   0.81009585   -6.6650983    807.18891  0.024684676  0.024247103           19 
 2726000   0.82963303   -6.6914932    808.03391  0.024701453  0.024240616           13 
 2727000    0.8201941   -6.6623123    808.01397  0.024691785  0.024234169           12 
 2728000   0.82266866   -6.6884634    807.40162  0.024664028  0.024227714           33 
 2729000   0.82478781   -6.6738433    808.32526  0.024683195  0.024221258           21 
 2730000   0.83238368   -6.6794431    808.38604  0.024676008   0.02421477           10 
 2731000   0.80716764   -6.6854468    810.23936  0.024723525  0.024208287           14 
 2732000   0.82236289   -6.6920621    807.88181  0.024642564  0.024201844           24 
 2733000   0.79076155   -6.7132212    808.27709    0.0246456  0.024195403           13 
 2734000   0.82342286   -6.6708155    808.35988  0.024639109  0.024188977           18 
 2735000   0.80132145   -6.7366524    808.22365  0.024625949  0.024182539           28 
 2736000    0.7969071   -6.7259335    807.73165  0.024601963  0.024176087           41 
 2737000   0.81178082   -6.6842252    808.95711  0.024630286  0.024169629           12 
 2738000   0.81488873   -6.7046287     810.2946  0.024661998  0.024163227           19 
 2739000   0.79536864   -6.6943422    809.54664  0.024630237  0.024156818           12 
 2740000   0.81291974   -6.7136409    811.05022  0.024666977  0.024150415           11 
 2741000   0.78934737   -6.6955389    810.53403  0.024642285  0.024143985            9 
 2742000   0.81979086   -6.7098641    808.42818  0.024569298  0.024137544           11 
 2743000   0.82231209   -6.7096471    810.85398  0.024634037  0.024131089           14 
 2744000   0.80722521   -6.7044647    809.94363  0.024597414  0.024124632           11 
 2745000   0.81849122   -6.7279993    809.50666  0.024575187  0.024118169           14 
 2746000   0.82323596   -6.7114326    811.34407  0.024621998  0.024111742           14 
 2747000    0.8179067   -6.6885771    810.92411  0.024600295  0.024105335           14 
 2748000   0.81042262   -6.7212201    809.20635  0.024539251   0.02409893           17 
 2749000   0.80997065   -6.6746668    809.32812  0.024534016  0.024092512           16 
 2750000   0.81032088   -6.7002532    810.95561  0.024574412  0.024086153           19 
 2751000   0.81178415   -6.6808978    811.54823  0.024583431   0.02407979           13 
 2752000   0.80010785   -6.6630463    809.96135  0.024526446  0.024073415           33 
 2753000   0.81084234   -6.7147942    810.56134  0.024535699  0.024067022           17 
 2754000   0.80785074   -6.7005453    811.47193  0.024554343  0.024060616           10 
 2755000   0.81575448   -6.7003882    812.61946  0.024580141  0.024054208           15 
 2756000   0.79930297    -6.717601    811.88715  0.024549079   0.02404779           35 
 2757000   0.80432445   -6.6859298    810.94641   0.02451174  0.024041386           19 
 2758000    0.8076836   -6.6944443    810.14284  0.024478573  0.024034954            6 
 2759000   0.81706666   -6.7030212    812.03875  0.024526965  0.024028544            7 
 2760000   0.79434612   -6.7023628    812.70329  0.024538143  0.024022144           24 
 2761000   0.80921417   -6.7300054    810.27506  0.024455966   0.02401572            9 
 2762000   0.81346099   -6.7063112    809.71517  0.024430219   0.02400933           19 
 2763000   0.81393472     -6.71729    813.45997  0.024534322  0.024002969           10 
 2764000   0.80252741   -6.6762633     812.2401  0.024488667  0.023996612           15 
 2765000   0.81093856   -6.7091227    811.94558  0.024470934  0.023990257           28 
 2766000   0.82130136   -6.6924702    813.67994  0.024514339  0.023983888           32 
 2767000   0.81481993   -6.7014951    811.43711  0.024437932   0.02397754           26 
 2768000    0.8051168   -6.7053316    812.38576  0.024457664  0.023971193           30 
 2769000   0.81750066   -6.6930279    812.07839  0.024439581  0.023964822           15 
 2770000   0.81915874   -6.7040518    810.96828  0.024397361  0.023958421           14 
 2771000   0.79883346   -6.7057742    809.98916  0.024359111  0.023951988           16 
 2772000   0.79308286   -6.6910702    811.98789   0.02441041  0.023945603           44 
 2773000   0.80601222   -6.7141439    811.38093  0.024383367  0.023939239           45 
 2774000   0.80435342   -6.6902352    813.63293  0.024442229  0.023932856           41 
 2775000    0.7988604   -6.6945294    812.13357  0.024388396  0.023926478           40 
 2776000   0.81067512   -6.7072495    813.03466   0.02440666    0.0239201           12 
 2777000   0.83495208   -6.6880469     809.9662  0.024305792  0.023913717            9 
 2778000   0.82057518   -6.6986664    814.02697  0.024418856  0.023907335           28 
 2779000   0.79555645   -6.7095792    813.17639  0.024384562  0.023900959           12 
 2780000   0.81730478   -6.7325357    813.43045  0.024383407  0.023894592           11 
 2781000   0.79579704   -6.7115546    812.89301  0.024358534  0.023888208           18 
 2782000   0.81525432   -6.7233923    812.67206   0.02434316  0.023881775           21 
 2783000   0.80917318   -6.7414724    811.46369   0.02429823  0.023875315           30 
 2784000   0.82240155   -6.7253934    811.61337  0.024293983  0.023868897           28 
 2785000   0.77926317   -6.7038922    813.69822  0.024347643  0.023862486           24 
 2786000   0.83889205   -6.7144561    814.23566  0.024354979  0.023856104           29 
 2787000   0.81880208   -6.7107755    813.18262  0.024314754  0.023849726           12 
 2788000    0.7894969   -6.7178251    816.63859  0.024409331    0.0238434           14 
 2789000   0.79915136   -6.7291274     814.3775  0.024333019  0.023837091           37 
 2790000   0.81536839   -6.7026614    814.19407  0.024318819  0.023830781           31 
 2791000   0.80414875   -6.7156313     815.1516  0.024338696  0.023824432           24 
 2792000   0.80379852   -6.7168451    815.37556  0.024336663   0.02381812           14 
 2793000    0.8159431   -6.7363488     816.1859  0.024352127  0.023811816           29 
 2794000   0.81361834   -6.7215168    815.54586  0.024324322  0.023805494           35 
 2795000   0.80200237   -6.7232388    815.88336  0.024325682  0.023799183           38 
 2796000   0.80144092   -6.7312151     815.8539  0.024316104   0.02379288           21 
 2797000   0.80747012   -6.7403259    816.49741  0.024326582  0.023786571           19 
 2798000   0.79963401   -6.7241157    815.99214  0.024302839  0.023780304           13 
 2799000   0.81021261   -6.7066491    816.13298   0.02429835  0.023774037           12 
 2800000   0.82818548   -6.7224694      815.582  0.024273274  0.023767765           18 
 2801000   0.80999324   -6.7552278    815.20119  0.024253278  0.023761463           21 
 2802000   0.80537849   -6.7337797    818.25591  0.024335472  0.023755196           11 
 2803000   0.79358943   -6.7100316     817.2297  0.024296281  0.023748944           18 
 2804000   0.79776727   -6.6959045    817.87923  0.024306919  0.023742699           10 
 2805000   0.79771345    -6.703993    818.66854  0.024321704  0.023736469           14 
 2806000   0.76804945    -6.717906    816.24539  0.024241072  0.023730246           29 
 2807000   0.79566299   -6.7042636    818.00845  0.024284778  0.023724003           17 
 2808000   0.78846009   -6.7130307    815.82934  0.024211459  0.023717724           12 
 2809000   0.80012601   -6.7368798    818.03787   0.02426836  0.023711435           18 
 2810000   0.79500328   -6.7187338    817.49113  0.024243509   0.02370514           12 
 2811000   0.82452191   -6.7138576    818.81469  0.024274122  0.023698835           16 
 2812000   0.79328058   -6.7449865    816.55228  0.024198444  0.023692518           15 
 2813000   0.81052311   -6.7418958    817.14479  0.024207394  0.023686173           14 
 2814000   0.79570067   -6.7066206    817.09633  0.024197356  0.023679872           26 
 2815000   0.79436064    -6.716083    818.26591  0.024223384  0.023673597           31 
 2816000   0.80783604   -6.7365316    818.06809  0.024208928  0.023667301           27 
 2817000   0.79992552   -6.6971692     818.0868  0.024200888  0.023660972           18 
 2818000   0.78035468   -6.7023691    817.78358  0.024183333  0.023654673           14 
 2819000   0.80716995   -6.7095698    816.68617  0.024142313  0.023648385           14 
 2820000   0.81250646   -6.7292209    817.94756  0.024171027  0.023642103           10 
 2821000    0.7955899   -6.7040464     818.2286  0.024170761  0.023635822            9 
 2822000   0.80379539   -6.6838399     817.7686  0.024148612  0.023629533           13 
 2823000   0.80355145   -6.7175011    819.08688  0.024178973   0.02362325            7 
 2824000   0.80026216   -6.7418079    817.27134  0.024116836  0.023616945            9 
 2825000     0.793817   -6.7220121    815.96294  0.024069703  0.023610615            8 
 2826000    0.7914754   -6.7473369    818.71754  0.024142414  0.023604276           19 
 2827000   0.80445063    -6.755377    818.14952   0.02411713  0.023597923            9 
 2828000   0.79986825   -6.7291823    817.78482  0.024097855  0.023591577           10 
 2829000   0.81316058   -6.7118427    818.94308  0.024123456  0.023585239           10 
 2830000    0.7820151   -6.7135472    817.65884  0.024077115  0.023578911           17 
 2831000   0.79413758   -6.7253102    817.68449  0.024069366  0.023572593           35 
 2832000   0.78638448   -6.7435224    817.69223  0.024061094  0.023566269           28 
 2833000   0.79542892   -6.7241879    819.37883  0.024102213  0.023559941           25 
 2834000   0.79649608   -6.7202832    820.15072  0.024116406   0.02355359           19 
 2835000   0.80085824   -6.7268533    818.83139  0.024069118   0.02354727           15 
 2836000   0.79278623   -6.7422127    817.69504   0.02402724  0.023540978           12 
 2837000   0.81298773   -6.7357981    819.48761  0.024071425  0.023534707           18 
 2838000   0.80524835   -6.7419505    819.97718  0.024077319  0.023528434           33 
 2839000   0.78831192   -6.7179336    819.64918   0.02405921  0.023522146            8 
 2840000   0.78309619   -6.7177868    818.43741  0.024015182  0.023515859           15 
 2841000    0.8062637   -6.7171408    820.96166  0.024080771  0.023509595           21 
 2842000   0.80632223   -6.7316133    819.72083  0.024035914  0.023503336           13 
 2843000   0.79389756   -6.7590749    819.13874  0.024010398  0.023497057           32 
 2844000   0.77913627   -6.7561803     819.9729  0.024026398  0.023490785           66 
 2845000    0.8004904    -6.716749    820.62565  0.024037072  0.023484485            7 
 2846000   0.78366509   -6.7365509    819.85494  0.024006059  0.023478205           23 
 2847000   0.78683442   -6.7209493    820.54909  0.024017945  0.023471921           17 
 2848000   0.80429091   -6.7255097    819.74533  0.023985994  0.023465667           16 
 2849000   0.79691056    -6.728935    820.93135  0.024012266  0.023459387           13 
 2850000   0.79199095    -6.735954    819.35173  0.023957653  0.023453126           14 
 2851000   0.78354442   -6.7206705     819.9273  0.023966073  0.023446864           16 
 2852000    0.7999056   -6.7324208     820.6669  0.023979281    0.0234406           26 
 2853000   0.78480244   -6.7384916    819.82384  0.023946251  0.023434366           21 
 2854000   0.77997875   -6.7505483    819.39564  0.023925357  0.023428138           25 
 2855000   0.79085385    -6.764074    821.53131  0.023979314  0.023421887           17 
 2856000   0.77706733   -6.7502535    822.82879  0.024008777  0.023415645            9 
 2857000   0.80507706   -6.7601402    823.41981  0.024017612  0.023409486           14 
 2858000   0.81467377   -6.7320895    822.05811  0.023969504   0.02340331           16 
 2859000   0.79425833   -6.7339345    821.71011  0.023950977  0.023397093           12 
 2860000   0.79573692   -6.7536825    822.48272  0.023965114  0.023390901           14 
 2861000   0.80602772   -6.7224488    823.23161  0.023978551  0.023384719           18 
 2862000   0.80288324   -6.7572843    818.91777  0.023844566  0.023378507           18 
 2863000   0.78646945   -6.7140894    821.28238  0.023905064  0.023372298           16 
 2864000   0.81286052   -6.7227705    821.41697  0.023900633  0.023366114           14 
 2865000    0.8085732   -6.7465217    822.26541  0.023916969  0.023359918           27 
 2866000    0.7857252   -6.7410236    823.23173  0.023936722  0.023353709           19 
 2867000   0.79918913   -6.7250951    824.95913  0.023978582  0.023347553           28 
 2868000   0.78852922   -6.7295734    823.24123  0.023920305  0.023341429           18 
 2869000   0.78863747   -6.7045109    824.29621  0.023942611  0.023335276           32 
 2870000   0.77777324    -6.735269    820.71612  0.023830317  0.023329078            9 
 2871000   0.79494516   -6.7353273    823.05237  0.023889828  0.023322899           20 
 2872000   0.79052116   -6.7420024    822.42097   0.02386319  0.023316715           16 
 2873000   0.79354633   -6.7311453    823.32187  0.023881015  0.023310501           22 
 2874000   0.78462587   -6.7215429    824.07833  0.023894639  0.023304305           32 
 2875000   0.78963604   -6.7180357    823.53361  0.023870539  0.023298131            5 
 2876000   0.79670146   -6.7533626    822.01971  0.023818374  0.023291912            9 
 2877000   0.79427414   -6.7308748    823.17732  0.023843625  0.023285703           16 
 2878000   0.79024535   -6.7350577    820.85188  0.023768007  0.023279496           19 
 2879000   0.80222671   -6.7220098    823.95482  0.023849566  0.023273293           24 
 2880000   0.78657539   -6.7622514    821.79973  0.023778927  0.023267042           10 
 2881000   0.79226315   -6.7629427    822.69977  0.023796707  0.023260801           16 
 2882000   0.79872456   -6.7667181    822.72865  0.023789285  0.023254573           20 
 2883000   0.79982591   -6.7538304     822.3332  0.023769603  0.023248369           26 
 2884000   0.79339509   -6.7517521    820.77598  0.023716365  0.023242138           33 
 2885000   0.78149885   -6.7475589    823.66415   0.02379157   0.02323591           20 
 2886000   0.77843082   -6.7513848    823.81367  0.023787644  0.023229637            7 
 2887000   0.80489471   -6.7506651     822.3099  0.023735998  0.023223348           15 
 2888000    0.7881897   -6.7496081    824.38168   0.02378756  0.023217081           38 
 2889000   0.79505591   -6.7608738     823.5812  0.023756236  0.023210802           22 
 2890000   0.79078258   -6.7544137     822.6993  0.023722586  0.023204536           30 
 2891000   0.80202393   -6.7303891    823.19164  0.023728573  0.023198298           35 
 2892000   0.78990205   -6.7339114    824.44684  0.023756537   0.02319208           15 
 2893000   0.79635136   -6.7340484    823.67085  0.023725972  0.023185857           22 
 2894000   0.79898487   -6.7673179     823.2185  0.023704748   0.02317962           11 
 2895000   0.79133761   -6.7665293    824.57365  0.023735569  0.023173377           34 
 2896000   0.78909841   -6.7658866    824.25875  0.023718311  0.023167127           28 
 2897000   0.78123746   -6.7307718    823.17528  0.023678958  0.023160871           13 
 2898000   0.78377127    -6.768008      822.001   0.02363702  0.023154588           17 
 2899000   0.78267396    -6.752917     823.5926  0.023674618  0.023148327           29 
 2900000   0.78347262   -6.7540479     824.8912   0.02370377  0.023142115           25 
 2901000   0.78220787   -6.7617267    825.30183  0.023707395  0.023135927           16 
 2902000   0.78004678   -6.7702338      824.057  0.023663479  0.023129749           31 
 2903000   0.78200061   -6.7549503    823.16932  0.023629846  0.023123532           27 
 2904000   0.79755629   -6.7504724     823.5888  0.023633747  0.023117296           22 
 2905000   0.78524518   -6.7713124     824.2945  0.023645855  0.023111079           27 
 2906000   0.79513865   -6.7444708    825.30153  0.023666596  0.023104843           16 
 2907000   0.77463271   -6.7445191    824.12224  0.023624649    0.0230986           14 
 2908000   0.80448868   -6.7455003    824.79276  0.023635739  0.023092324            9 
 2909000   0.78464596   -6.7632805     824.1279  0.023608568  0.023086073           18 
 2910000   0.78601698    -6.754484    825.02681  0.023626197  0.023079853           18 
 2911000   0.78357453   -6.7568486    824.49788  0.023602939  0.023073641           11 
 2912000   0.79890925   -6.7386068    823.93324  0.023578676  0.023067418           20 
 2913000    0.7836118   -6.7432589    824.92924  0.023599074  0.023061182           16 
 2914000   0.78079109    -6.732704    824.62806  0.023582363   0.02305496           15 
 2915000   0.78642191   -6.7262749    826.01919  0.023614042  0.023048779           32 
 2916000   0.77874925   -6.7369415    824.36066  0.023558547  0.023042613           14 
 2917000   0.77833039   -6.7515045    826.70053  0.023617316  0.023036415           16 
 2918000   0.77139463   -6.7654754     826.7982  0.023612012  0.023030244           38 
 2919000   0.77202983   -6.7881447    826.03799   0.02358222  0.023024027           16 
 2920000   0.77821286   -6.7821314    824.68551  0.023535545   0.02301778           41 
 2921000   0.79117754   -6.7618935    824.77516  0.023530046  0.023011538           22 
 2922000    0.7823988   -6.7649973    825.36662  0.023538861   0.02300533           30 
 2923000   0.77197045   -6.7608036    823.63657  0.023481485   0.02299912           11 
 2924000   0.79036721   -6.7802208    826.41865  0.023552743  0.022992889           21 
 2925000   0.78535819   -6.7439713    826.73923  0.023553824  0.022986695           13 
 2926000   0.78594109   -6.7535668    827.19218  0.023558675  0.022980519           41 
 2927000    0.7844828   -6.7524236    826.39722  0.023527993  0.022974342           16 
 2928000   0.79574781   -6.7622574    826.01429  0.023509059  0.022968183           27 
 2929000   0.77655525   -6.7681749     827.4176  0.023540958  0.022962037           21 
 2930000   0.78050424   -6.7705606    828.17556  0.023554481   0.02295589           26 
 2931000   0.78183619   -6.7366898    826.82175  0.023507954  0.022949763           46 
 2932000   0.77388985   -6.7394138    828.50534  0.023547787  0.022943595           37 
 2933000   0.76793635   -6.7630056    827.79503  0.023519577   0.02293747           45 
 2934000   0.78810112   -6.7613553    826.66841  0.023479562  0.022931309           43 
 2935000   0.76701949   -6.7553043    828.37595  0.023520044  0.022925167           38 
 2936000   0.79169444   -6.7697951    826.87143   0.02346933  0.022919007           54 
 2937000   0.76841533   -6.7331702    828.70717  0.023513426  0.022912849           43 
 2938000   0.78149003   -6.7764468    827.43792  0.023469421  0.022906723           53 
 2939000   0.77163185   -6.7806034    829.34501   0.02351551  0.022900603           19 
 2940000   0.77810988   -6.7451926    827.70914  0.023461143  0.022894474           33 
 2941000   0.76585417   -6.7469742    828.47789  0.023474949  0.022888393           41 
 2942000   0.79464051   -6.7726527    827.44712  0.023437772   0.02288227           32 
 2943000   0.78821055   -6.7688535    826.74712  0.023409988  0.022876156           36 
 2944000   0.78484939   -6.7586002    828.89325  0.023462784  0.022870023           85 
 2945000    0.7920306   -6.7671148    827.69807  0.023420998   0.02286387           49 
 2946000   0.77628702   -6.7650408    828.53847   0.02343682  0.022857731           95 
 2947000   0.78453082   -6.7357226     828.8427   0.02343747  0.022851607           23 
 2948000   0.77772165   -6.7356395    828.89719   0.02343106  0.022845508           16 
 2949000   0.78776305   -6.7470719    830.99381  0.023482361  0.022839432           13 
 2950000   0.78715314    -6.770563    827.72812   0.02338215  0.022833317           13 
 2951000   0.77901924   -6.7413656    829.40905  0.023421695  0.022827203           15 
 2952000   0.77655821   -6.7855133    828.01689   0.02337446  0.022821062           33 
 2953000   0.76379884   -6.7794125    828.93094   0.02339234  0.022814885           26 
 2954000   0.76679137   -6.7540777    828.79328  0.023380537  0.022808737           14 
 2955000   0.78382599   -6.7661074     829.3026  0.023386988  0.022802582           21 
 2956000   0.76631714   -6.7716358    828.30327  0.023350904  0.022796432           14 
 2957000   0.77586205   -6.7670442    828.87775  0.023359197   0.02279029            9 
 2958000   0.77494615   -6.7630439    828.27362  0.023334281  0.022784153           17 
 2959000   0.78456657   -6.7559733    829.04037  0.023347988  0.022777996           16 
 2960000   0.77191432   -6.7878862    827.54119  0.023297894  0.022771855            7 
 2961000   0.80043626   -6.7823549    827.73969  0.023295612  0.022765707           10 
 2962000   0.77329882   -6.7720107    830.05764  0.023352961  0.022759571           24 
 2963000   0.76658152   -6.7594904    829.54048  0.023330534  0.022753455           46 
 2964000   0.77300151   -6.7530465     830.3511  0.023345454  0.022747386           23 
 2965000   0.78076129   -6.7510468    830.51511   0.02334219  0.022741295           12 
 2966000   0.76570554   -6.7447087    831.46888  0.023361117  0.022735234           30 
 2967000   0.77561672   -6.7608527    829.61711  0.023301233  0.022729146           19 
 2968000   0.76512422   -6.7396143    830.39447  0.023315209  0.022723055           14 
 2969000   0.78400297   -6.7629955    829.04469   0.02326947  0.022716951           44 
 2970000   0.76440687    -6.730565    830.39442  0.023299507  0.022710854           22 
 2971000   0.77784768   -6.7307096    830.56698  0.023296505  0.022704774           62 
 2972000   0.78515424   -6.7751852     830.4145   0.02328439   0.02269868           20 
 2973000    0.7747457    -6.777208    831.22186  0.023299189  0.022692564           53 
 2974000   0.76994478   -6.7612928    832.41955  0.023324915  0.022686478           36 
 2975000   0.77906137   -6.7828575    830.09128  0.023251856  0.022680406           37 
 2976000   0.79612044   -6.7914563    832.20953  0.023303358  0.022674314           40 
 2977000   0.76483515   -6.7872064    831.65852  0.023280106  0.022668201           35 
 2978000   0.76911355   -6.7969314    830.38271  0.023236588  0.022662085           51 
 2979000   0.77474833   -6.7805766    831.23646   0.02325267  0.022655994           27 
 2980000   0.75453301   -6.7835838    830.70788  0.023230086  0.022649898           21 
 2981000   0.77068588   -6.7968525    830.69118  0.023221826  0.022643814           22 
 2982000   0.78216335   -6.7964111    828.67886  0.023157804  0.022637714           14 
 2983000   0.76692476   -6.7960503    831.73721  0.023235479  0.022631611           18 
 2984000   0.79214416   -6.7642474    831.31541  0.023215913   0.02262552           17 
 2985000   0.76793335   -6.7850705    832.14862  0.023231396  0.022619442           30 
 2986000    0.7774586    -6.774623    830.93954  0.023189873  0.022613383           32 
 2987000   0.77744598   -6.7281493    834.98764  0.023295046  0.022607328           18 
 2988000   0.77433739   -6.7806403    830.24782   0.02315506  0.022601267           22 
 2989000   0.78471386   -6.7790803    830.54906  0.023155711  0.022595199           12 
 2990000   0.77179754   -6.7726242    831.33462  0.023169861  0.022589155           10 
 2991000   0.78192954   -6.7982629    829.95971  0.023123808  0.022583096           25 
 2992000   0.77521578   -6.7515199    831.87982  0.023169558  0.022577033           22 
 2993000   0.78424002   -6.7584974    832.83704  0.023188469  0.022570974            9 
 2994000   0.77339075   -6.7822098    833.71887  0.023205268  0.022564917           12 
 2995000    0.7745935   -6.7808697    832.62905  0.023167197  0.022558821           53 
 2996000   0.75920182   -6.7961663    832.56788  0.023157763  0.022552726           17 
 2997000   0.77401299    -6.776507    831.52687   0.02312109  0.022546618            9 
 2998000   0.78031348   -6.7688087    831.51693  0.023113101  0.022540522           43 
 2999000   0.78922301   -6.7643312    832.57434  0.023134776  0.022534431           63 
 3000000   0.78298795   -6.7731777    835.19507  0.023199863  0.022528347           14 
 3001000   0.74758865   -6.7869904    831.55067  0.023090933  0.022522283            8 
 3002000   0.76276546   -6.7971784     832.1631  0.023100241  0.022516177           13 
 3003000   0.77920057   -6.7782402    831.28895  0.023068291  0.022510091           13 
 3004000    0.7748532     -6.76698    832.69997  0.023099755  0.022504028           21 
 3005000   0.77119388   -6.7840172    833.29172  0.023108478  0.022497981           23 
 3006000   0.76252898   -6.7638716    832.35363  0.023074785  0.022491918           13 
 3007000   0.75391755   -6.7720779    832.02387  0.023057972  0.022485849           19 
 3008000   0.79082586   -6.8051714    833.98449  0.023104624   0.02247979           14 
 3009000   0.77397384   -6.8017235    834.07405  0.023099425   0.02247375           22 
 3010000   0.76752668   -6.8057339    832.12783  0.023037869  0.022467666           14 
 3011000   0.78729507   -6.7659581    832.47597  0.023039853  0.022461588           22 
 3012000    0.7745922    -6.788188    833.88818  0.023071275  0.022455523           34 
 3013000   0.76335693   -6.8110252     833.6648   0.02305744  0.022449457           35 
 3014000   0.77022221   -6.7680666    833.90741  0.023056498  0.022443412           24 
 3015000   0.77026905   -6.7755061    834.53685  0.023066248  0.022437369           20 
 3016000   0.77101892   -6.7542365    836.27361  0.023106587  0.022431369           18 
 3017000   0.75443007   -6.7889436    834.51046  0.023050228  0.022425358           29 
 3018000   0.77887268   -6.7750972    834.92009  0.023053901  0.022419333           26 
 3019000   0.75254871   -6.7839883    834.64441  0.023038655    0.0224133           27 
 3020000   0.77405951   -6.8108369    832.60741  0.022974818   0.02240726           22 
 3021000   0.77373284   -6.7846161    833.32633  0.022987044    0.0224012           33 
 3022000   0.78177072   -6.7554009     834.4628  0.023010777  0.022395124            9 
 3023000   0.75078019   -6.7782581     833.6322  0.022980268  0.022389046            8 
 3024000   0.76649775   -6.8036643    835.03093  0.023011214  0.022382971           20 
 3025000   0.75698445   -6.7940004    834.01222  0.022975543  0.022376926           10 
 3026000   0.76521626   -6.7694144    833.40528  0.022951236  0.022370845           24 
 3027000   0.76079911   -6.7574928    835.43565   0.02299955  0.022364773           30 
 3028000   0.76728864   -6.7942123    835.34012  0.022989325  0.022358709           35 
 3029000   0.75008055   -6.7990355    835.89419  0.022996979  0.022352628           19 
 3030000   0.77237322   -6.7924093    833.77474  0.022931099  0.022346543           52 
 3031000   0.75327405    -6.799385    834.05562  0.022931255  0.022340436           29 
 3032000   0.76080711   -6.7584725    833.53058  0.022909262  0.022334382           25 
 3033000   0.74270162   -6.7670216    834.61314  0.022931452  0.022328314           17 
 3034000   0.77816203   -6.8198516    834.09505  0.022909664  0.022322247           17 
 3035000   0.77357657   -6.7963835    834.48197  0.022912739  0.022316149           10 
 3036000     0.763786   -6.7739264    834.44176  0.022904089  0.022310066           14 
 3037000   0.76359982   -6.8023274    834.95514  0.022910634  0.022303975           51 
 3038000   0.77997729   -6.7824113    835.22129  0.022910393  0.022297925           18 
 3039000   0.76540197    -6.800169    833.99334  0.022869182  0.022291862           17 
 3040000   0.75900558   -6.7907008    834.82162  0.022884365  0.022285784           16 
 3041000   0.77416746   -6.8376844    835.35556  0.022891471  0.022279719           53 
 3042000   0.76733909   -6.8205761    835.30068  0.022882442  0.022273633           52 
 3043000    0.7681164   -6.8051452    834.33087  0.022848364  0.022267558           63 
 3044000   0.78868516   -6.8096057    835.30394  0.022867497  0.022261509           56 
 3045000   0.77168338   -6.8218676    834.61009  0.022840999  0.022255436           64 
 3046000   0.75014945   -6.8005456    834.53507  0.022831447   0.02224934           46 
 3047000   0.77183145   -6.7702397     834.2159  0.022815225  0.022243246           72 
 3048000   0.76648884   -6.8003106    835.20459  0.022834771  0.022237183           65 
 3049000   0.77372919   -6.8035451    835.72713  0.022841564  0.022231107           92 
 3050000   0.77867591   -6.8117623     834.3573  0.022796648  0.022225052           93 
 3051000   0.76338102   -6.8329206    835.24838  0.022813514  0.022218994           70 
 3052000   0.76764069    -6.796545    835.63755  0.022816665  0.022212974           80 
 3053000   0.75478914    -6.822356    832.90731  0.022734668   0.02220691           74 
 3054000   0.76642418   -6.8247335     836.1943  0.022816915  0.022200835           31 
 3055000   0.77454217   -6.7986288    836.85093  0.022827358  0.022194787           26 
 3056000    0.7878672   -6.8034282    835.44375  0.022781516   0.02218873           27 
 3057000    0.7529093   -6.8085522    834.17111  0.022739372  0.022182691           22 
 3058000   0.77651674   -6.7793053    833.88955  0.022724263  0.022176625           20 
 3059000   0.75070243   -6.8020065    835.95707  0.022773158  0.022170582           41 
 3060000   0.75721522   -6.8248224    836.23404  0.022773258  0.022164519           36 
 3061000   0.75420933   -6.7709189    836.21089  0.022765188  0.022158481           43 
 3062000   0.75633669   -6.8558014    837.49709  0.022792758  0.022152465           47 
 3063000   0.77119736   -6.8169471    837.15436  0.022775992   0.02214643           38 
 3064000   0.75241832   -6.8290092    836.00578   0.02273732  0.022140433           81 
 3065000   0.77413847   -6.8246425     836.8637  0.022753227  0.022134423           49 
 3066000   0.75687701   -6.7967018    837.24056  0.022756049  0.022128409          105 
 3067000   0.75424787   -6.7971382    837.28717  0.022749896  0.022122387           58 
 3068000   0.76403409   -6.7889923    836.71718  0.022726999  0.022116404           94 
 3069000   0.76600469   -6.7989443    837.36458  0.022737172  0.022110375           49 
 3070000   0.76747387   -6.8125667    837.15252   0.02272401  0.022104373          126 
 3071000   0.76393363   -6.7625255    837.95951  0.022738508   0.02209838           38 
 3072000   0.76119099   -6.8136771    837.29265  0.022713017   0.02209242           13 
 3073000    0.7539628   -6.8203547    837.98656  0.022724443  0.022086418           57 
 3074000   0.75298212    -6.828971    838.33816  0.022726582  0.022080419           34 
 3075000   0.74530213   -6.8274597    837.87648   0.02270668  0.022074419           37 
 3076000   0.76960108   -6.8424013    836.86526  0.022671902  0.022068371           48 
 3077000   0.77304017   -6.8126778    836.98874  0.022667878  0.022062362           45 
 3078000   0.75329014   -6.8375516    835.49939  0.022620191  0.022056334           34 
 3079000   0.77191624   -6.7867186    839.28557  0.022715318  0.022050349           26 
 3080000   0.76998332   -6.7972399    839.50925  0.022713995  0.022044401           15 
 3081000    0.7727352   -6.8090344    839.14543  0.022696782  0.022038472           39 
 3082000   0.76425935   -6.8006659    840.42471  0.022724008  0.022032547           11 
 3083000   0.76394162   -6.7790773     840.1035  0.022707955  0.022026651           13 
 3084000   0.76006741   -6.7891835    839.95495  0.022696578  0.022020737           13 
 3085000   0.77072193    -6.825258    839.25765  0.022670385  0.022014801           14 
 3086000   0.74752598    -6.816979     839.4921   0.02266937  0.022008869           10 
 3087000   0.76170015   -6.8274304    840.12577  0.022679132  0.022002914           25 
 3088000   0.73546773   -6.8071436    836.80895   0.02258228  0.021996944           19 
 3089000   0.76464989   -6.8245812      837.423  0.022591534  0.021991024           43 
 3090000   0.75464335   -6.8047065     839.4124  0.022637875  0.021985101           40 
 3091000   0.75740274    -6.780963    839.22538  0.022625509  0.021979202           35 
 3092000   0.74979581   -6.8104545    839.33071   0.02262103  0.021973272            8 
 3093000   0.75861779   -6.8094423     838.6202  0.022594574  0.021967339           31 
 3094000   0.75572209   -6.7709886    840.70604  0.022643451   0.02196143           33 
 3095000   0.75747268   -6.8219709    841.05431  0.022645512  0.021955525           20 
 3096000   0.73582887   -6.8173016    840.21086  0.022615495  0.021949607           11 
 3097000   0.75427677   -6.8052111    841.16897  0.022633973  0.021943698           13 
 3098000   0.76056905   -6.8437135    839.61267  0.022584804   0.02193774           16 
 3099000   0.76837398   -6.8117651    838.60822  0.022550506  0.021931769           17 
 3100000   0.76550159   -6.7972134    839.66458  0.022571628  0.021925823           32 
 3101000   0.75936666   -6.8115634    839.97707  0.022572747  0.021919881           41 
 3102000   0.72758202   -6.7867711    840.35752  0.022575691  0.021913937           14 
 3103000   0.74214279   -6.8129826    840.85233  0.022581704  0.021907999           22 
 3104000   0.76293181   -6.8296652    840.40534  0.022562429  0.021902095           53 
 3105000   0.76178875   -6.7919329    840.32798  0.022553086  0.021896177           23 
 3106000   0.76124919   -6.8160969    840.95888  0.022562752  0.021890274           11 
 3107000    0.7717035   -6.7934786    839.17627  0.022507678  0.021884349           50 
 3108000   0.74799646    -6.792437    840.64364   0.02253978  0.021878401           27 
 3109000     0.742913   -6.8309265     840.1109  0.022518251  0.021872458           49 
 3110000    0.7554046   -6.8179975    840.90827  0.022532376  0.021866517           22 
 3111000   0.75071555   -6.8121649    841.03864  0.022528625  0.021860581           24 
 3112000     0.755248   -6.8364645    839.58603  0.022482488  0.021854645           30 
 3113000   0.75501939   -6.8218116     841.1641   0.02251751  0.021848716           31 
 3114000   0.75074245   -6.8073672    841.69019  0.022524357  0.021842769          107 
 3115000   0.73579821   -6.8153241    840.13973  0.022475648  0.021836852           63 
 3116000   0.74977627   -6.8242519     839.8393  0.022460401  0.021830901           25 
 3117000   0.75119547   -6.8105304    840.72618  0.022476906  0.021824927           24 
 3118000   0.75225807   -6.8157856    840.98679  0.022476662  0.021819002           39 
 3119000   0.76524854    -6.818566    840.62792  0.022459867  0.021813057           36 
 3120000   0.75413695   -6.8158802    842.32439  0.022497981  0.021807128           35 
 3121000   0.74297797   -6.8131776    843.44799  0.022520773  0.021801238           22 
 3122000    0.7536473   -6.8312507    842.86065  0.022497882  0.021795358           11 
 3123000   0.75855196   -6.8252604    840.32064  0.022422901  0.021789448           13 
 3124000    0.7559172   -6.8249088    841.70288  0.022452595   0.02178354           21 
 3125000   0.75971102   -6.8509427    841.76238  0.022446997  0.021777672           21 
 3126000   0.74563533   -6.7994553    841.04791   0.02242077  0.021771756           14 
 3127000    0.7615866   -6.7952593    842.26697  0.022446087  0.021765896           25 
 3128000   0.75651158   -6.8173483    841.66441  0.022422858  0.021760043           39 
 3129000   0.75977699   -6.8060989    840.85022  0.022394008  0.021754178           42 
 3130000   0.74942177   -6.8500143    840.77819  0.022384936  0.021748281           60 
 3131000   0.74039787   -6.7950514    841.57507  0.022398996  0.021742405           41 
 3132000   0.75309403   -6.8244213    840.32272  0.022358523  0.021736547           27 
 3133000   0.75406308   -6.8128646    841.78576  0.022390301  0.021730691           43 
 3134000   0.75343917   -6.8002834    842.33996  0.022397893  0.021724858           33 
 3135000   0.76616694   -6.7749753    843.99505  0.022434743  0.021718992           30 
 3136000   0.74285072   -6.8167058    841.81899  0.022369765  0.021713136           28 
 3137000    0.7538502   -6.8372641    843.93241  0.022418776  0.021707259           34 
 3138000   0.73687311   -6.8177292    842.03437  0.022361227  0.021701359           39 
 3139000   0.74117443   -6.8083966    843.99541  0.022406165  0.021695475           18 
 3140000   0.75633745   -6.8769837     840.1459  0.022296866  0.021689552           45 
 3141000    0.7501093   -6.8218966    842.61455  0.022355262  0.021683625           61 
 3142000   0.74889477   -6.8314511     841.5948  0.022321101  0.021677686          115 
 3143000   0.75800802   -6.8346198    841.00427  0.022298342  0.021671762           76 
 3144000   0.73462723   -6.8029374    842.29113  0.022325359  0.021665827           71 
 3145000   0.73851275   -6.8470899     841.1865  0.022288991  0.021659894           33 
 3146000   0.72709077   -6.8174658    840.47319  0.022263011  0.021653963           53 
 3147000   0.74238488   -6.8266938    841.02533  0.022270558  0.021648017           81 
 3148000   0.74180651   -6.8491057    841.62183  0.022279273  0.021642105           28 
 3149000   0.74436199   -6.8283137    841.13336  0.022259272  0.021636178           35 
 3150000   0.74322649   -6.8131377    841.76806  0.022268996   0.02163027           60 
 3151000    0.7492226    -6.851548    843.06428   0.02229621  0.021624364           52 
 3152000   0.75057097   -6.8165009    842.35982  0.022270511  0.021618465           23 
 3153000    0.7439954   -6.8232408    843.56344  0.022295259  0.021612592           36 
 3154000    0.7426634   -6.8451349    843.09914  0.022275923  0.021606683           50 
 3155000   0.74678777   -6.8374372    842.40365  0.022250493  0.021600751           36 
 3156000   0.75051596   -6.8548194    841.96934  0.022231975   0.02159482           40 
 3157000   0.74683752    -6.834662    842.05951  0.022227313  0.021588911           38 
 3158000   0.76065821   -6.8298772    845.40698  0.022308607  0.021582992           44 
 3159000   0.73609946   -6.8410304    844.40233  0.022275043  0.021577057           36 
 3160000   0.74432391   -6.8552059    840.55658  0.022166576  0.021571136           43 
 3161000   0.74331154   -6.8400812    843.75095  0.022243777  0.021565231           35 
 3162000   0.75128687   -6.8322048    844.35907  0.022252769  0.021559343           39 
 3163000   0.74884638   -6.8288685    843.60591  0.022225891  0.021553477           19 
 3164000    0.7416557   -6.8390146    842.52721  0.022190455  0.021547593           10 
 3165000   0.76162659   -6.8285398    844.65484  0.022239464  0.021541724           12 
 3166000   0.75299267   -6.8327767     842.8909   0.02218601  0.021535849           24 
 3167000   0.73510027   -6.8420274    843.14922  0.022185802  0.021529963           22 
 3168000   0.73842113   -6.8609939    842.74958  0.022168286  0.021524076           13 
 3169000   0.74433835   -6.8476706    844.67941  0.022212039   0.02151822           36 
 3170000   0.75536825    -6.812855    844.69802  0.022205521  0.021512375           26 
 3171000   0.73154515   -6.8455299    844.45504  0.022192133  0.021506499           32 
 3172000   0.75059108   -6.8486316    844.10458   0.02217593  0.021500635            9 
 3173000   0.74828013    -6.834645    844.68697  0.022184236  0.021494805            8 
 3174000   0.74355797   -6.8244552    843.95704  0.022158082  0.021488976           18 
 3175000    0.7453673    -6.826745    846.34051  0.022213662  0.021483142           23 
 3176000   0.74957559   -6.8340581    846.22566  0.022203654  0.021477323           21 
 3177000   0.73452956   -6.8364811    844.83724  0.022160246  0.021471469           17 
 3178000   0.75011302   -6.8550604    844.05861  0.022132856  0.021465592           19 
 3179000   0.74798897   -6.8458939    846.65943  0.022194071  0.021459744           11 
 3180000   0.73075226   -6.8500748    844.13267  0.022120877  0.021453904           16 
 3181000   0.74189564   -6.8366929    843.05666  0.022085735  0.021448039           36 
 3182000   0.72758862   -6.8142123    844.66641  0.022120952   0.02144221           21 
 3183000   0.75105214   -6.8177459    846.80744  0.022170055  0.021436385           13 
 3184000   0.74533352   -6.8359422    845.38719  0.022125921  0.021430552           18 
 3185000   0.75067088   -6.8429304    843.93182  0.022080895  0.021424699           38 
 3186000   0.74580023   -6.8328567    843.17508  0.022054171  0.021418845           26 
 3187000   0.74362343    -6.825694    844.04361  0.022069961  0.021412998           18 
 3188000   0.73993132   -6.8379032    845.34412  0.022097034  0.021407159           34 
 3189000   0.73120616   -6.8257948    844.72181  0.022073843  0.021401324           26 
 3190000   0.74434449   -6.8454639    843.31722   0.02203023  0.021395478           19 
 3191000   0.74998462   -6.8283023    846.07239  0.022095278  0.021389631           26 
 3192000    0.7431022   -6.8445687    843.92692  0.022032344  0.021383808           16 
 3193000   0.74303785   -6.8474304    844.67918  0.022045077  0.021377954           23 
 3194000   0.72835232   -6.8408377    844.27713  0.022027685  0.021372095           18 
 3195000   0.72967192   -6.8336346    844.05879  0.022015096  0.021366235           26 
 3196000   0.75306679   -6.8432702      847.007   0.02208508  0.021360378           18 
 3197000   0.73827057   -6.8227435    846.46563  0.022064061  0.021354518           30 
 3198000    0.7379994   -6.8784783    846.28977  0.022052579  0.021348633           65 
 3199000   0.73619991   -6.8408644    844.78113  0.022006386  0.021342741           27 
 3200000   0.74921452   -6.8539243    845.93843  0.022029647  0.021336877           37 
 3201000   0.73452945   -6.8512439    847.73598  0.022069561  0.021331001           18 
 3202000   0.74418216   -6.8489834    845.55846  0.022005998  0.021325148           19 
 3203000   0.73894464   -6.8572266    844.17419  0.021963112  0.021319276           22 
 3204000   0.74296071   -6.8581938    844.60919  0.021967572  0.021313407           33 
 3205000   0.73748001   -6.8370358     845.4602  0.021982845  0.021307551           14 
 3206000   0.73177576   -6.8316467    844.89305  0.021961246  0.021301672           18 
 3207000   0.75611888   -6.8502526    846.04951  0.021984448  0.021295813           31 
 3208000   0.74246729   -6.8500576    846.10863  0.021979131  0.021289952           23 
 3209000   0.73019822   -6.8206974    844.11736  0.021920571  0.021284065           20 
 3210000   0.72846882   -6.8511644    843.31081  0.021892804  0.021278164           30 
 3211000   0.76036623    -6.871054    843.07522  0.021879872  0.021272235           41 
 3212000   0.74061633    -6.843512    843.47039  0.021883312  0.021266327           20 
 3213000   0.74231048    -6.854363    845.25717  0.021922844  0.021260399           40 
 3214000   0.73611851   -6.8474978     843.6919  0.021875438  0.021254441           19 
 3215000   0.73711818   -6.8737427    846.02113  0.021929008  0.021248514           13 
 3216000   0.73442699    -6.864087    843.81767  0.021865093  0.021242591           17 
 3217000   0.73328323   -6.8510995    843.89005  0.021860171  0.021236651           12 
 3218000   0.73793753    -6.855808    844.72686  0.021875048   0.02123074           62 
 3219000   0.73474917   -6.8090604     845.7833  0.021895602  0.021224836           85 
 3220000   0.73199219   -6.8351231    844.69319   0.02186059   0.02121894           49 
 3221000   0.74558926   -6.8642729    844.03124  0.021836677  0.021213025           35 
 3222000   0.72551214    -6.862267    842.21524  0.021782931  0.021207071           62 
 3223000   0.73233473    -6.868159    843.30304  0.021804298  0.021201123           81 
 3224000   0.72855228   -6.8514587    843.67999  0.021807278   0.02119518           72 
 3225000   0.73565678   -6.8595894    845.54699   0.02184876  0.021189269           40 
 3226000   0.74114993   -6.8628106    845.91412   0.02185147   0.02118335           51 
 3227000   0.74035807   -6.8586141    844.34116  0.021804079  0.021177415           97 
 3228000   0.74069393   -6.8731975    845.13934   0.02181793  0.021171479           86 
 3229000   0.72799289    -6.840227    843.18836  0.021760823  0.021165552           86 
 3230000    0.7329553   -6.8810973    843.51371   0.02176248  0.021159635          137 
 3231000   0.73332862   -6.8748927    843.77061   0.02176237  0.021153706           67 
 3232000   0.73120944    -6.849122    844.10885  0.021764358  0.021147775          262 
 3233000   0.74104114   -6.8521593    845.01219   0.02178091  0.021141854           87 
 3234000   0.72687046   -6.8630407    846.50723  0.021812699  0.021135936           50 
 3235000   0.73089557   -6.8655448    845.64529  0.021783753  0.021130003           46 
 3236000   0.73984505    -6.849915    843.78795  0.021729191  0.021124078           40 
 3237000   0.73730677   -6.8750974    845.45499  0.021765395  0.021118182           33 
 3238000    0.7385256   -6.8258222    844.17881  0.021725829  0.021112314           39 
 3239000   0.73570773   -6.8806012      844.003  0.021714598  0.021106441          118 
 3240000   0.72867397   -6.8592469    844.50188  0.021720727  0.021100545           66 
 3241000   0.74343061   -6.8670474    845.36949  0.021736334  0.021094634           67 
 3242000   0.74073165   -6.8734571    844.31868  0.021702619  0.021088716          163 
 3243000   0.73950043   -6.8529629    846.52634  0.021752655  0.021082804          132 
 3244000   0.73419789   -6.8415106    846.10205  0.021735051  0.021076933           90 
 3245000   0.75080974   -6.8662453    845.30214  0.021707811  0.021071054          115 
 3246000   0.72444708   -6.8739224    845.69471  0.021711201  0.021065162           80 
 3247000   0.72005628   -6.8628656    844.71128  0.021679275  0.021059279          121 
 3248000   0.72856355   -6.8590071    844.78756  0.021674558  0.021053395          155 
 3249000   0.73168477   -6.8594169    846.00431  0.021699095  0.021047501          173 
 3250000   0.72885433   -6.8712427     845.7644  0.021686267  0.021041589          284 
 3251000   0.72341117   -6.8655044    842.83483  0.021604502  0.021035676          157 
 3252000   0.74493406   -6.8656293    845.94519  0.021677562  0.021029777          148 
 3253000   0.73453606   -6.8870678    845.30451  0.021654486  0.021023857          145 
 3254000   0.71359971    -6.880731    846.22622  0.021671436  0.021017941          202 
 3255000   0.72393623   -6.8763305    842.62854  0.021572671  0.021012027          262 
 3256000   0.72259266   -6.8920194    844.73658  0.021619998  0.021006092          237 
 3257000   0.73651966   -6.8778502    844.97874  0.021619556  0.021000168          274 
 3258000   0.73031403   -6.8939912    848.26668   0.02169702  0.020994274          335 
 3259000   0.72149706   -6.8859386    843.35148  0.021564679  0.020988358          362 
 3260000   0.73709416   -6.8635643    846.63874  0.021642095  0.020982422          304 
 3261000   0.72930673   -6.8566517    845.31486  0.021601627  0.020976489          377 
 3262000   0.73459437   -6.8955293    844.80911  0.021582084   0.02097055          228 
 3263000   0.72811605   -6.8973234     846.4149   0.02161648  0.020964612          257 
 3264000   0.70857187   -6.8619089    844.12793  0.021551469  0.020958685          299 
 3265000   0.73515163   -6.8865393    843.24945  0.021522446  0.020952762          369 
 3266000   0.74417826   -6.8904702    845.41867  0.021571205  0.020946807          324 
 3267000   0.73053373   -6.9203392    843.47619  0.021515054   0.02094085          319 
 3268000   0.73046898   -6.9121846    843.76352  0.021515798   0.02093487          506 
 3269000   0.72243214   -6.8885579    844.71742  0.021533533  0.020928895          488 
 3270000   0.74374259   -6.9032317    844.94141  0.021532656  0.020922919          482 
 3271000   0.73797784   -6.9067648    845.27362  0.021534536  0.020916937          455 
 3272000   0.71731812     -6.89195    844.11841  0.021498533  0.020910951          512 
 3273000    0.7378494   -6.9083827     845.1708   0.02151876  0.020904966          628 
 3274000   0.72227553   -6.8892581    844.05182  0.021483705  0.020898994          589 
 3275000    0.7143974    -6.920793    844.47459  0.021487903  0.020893005          581 
 3276000   0.72798369   -6.9079741    843.75679  0.021463085  0.020887003          664 
 3277000   0.72554544   -6.9404114    844.50039  0.021475445   0.02088101          709 
 3278000   0.72572901   -6.9191294    844.36049  0.021465337  0.020875009          597 
 3279000   0.73362057   -6.8990155     845.2732  0.021481986  0.020869006          708 
 3280000   0.71872021   -6.9180385    845.14944  0.021472293  0.020863022          723 
 3281000    0.7290592   -6.9166344    844.17049  0.021440884  0.020857031          785 
 3282000   0.75248709   -6.9169261    843.89239   0.02142729  0.020851029          805 
 3283000   0.72801088   -6.9348592    842.57413  0.021387302  0.020845036          897 
 3284000   0.74519526   -6.9259481     843.3981  0.021401698  0.020839031          943 
 3285000     0.742416    -6.938091    843.57177  0.021399588  0.020833024          940 
 3286000   0.72696079    -6.966221    842.34306  0.021361916  0.020826981         1015 
 3287000   0.70988488   -6.9484808    843.88796  0.021394584   0.02082094         1000 
 3288000   0.72831624   -6.9680247    842.76378  0.021359585  0.020814891         1040 
 3289000   0.72629822   -6.9358345    842.25695  0.021340249  0.020808853         1120 
 3290000   0.72070871   -6.9757215    842.45892  0.021338878  0.020802773         1196 
 3291000   0.72502077   -6.9726246    841.74945  0.021314429  0.020796694         1218 
 3292000   0.72647237   -6.9891162    841.35847  0.021298058  0.020790598         1216 
 3293000   0.73547037   -6.9827742    841.50884  0.021295395  0.020784508         1215 
 3294000    0.7341677   -6.9926559    843.59883  0.021341804  0.020778421         1180 
 3295000   0.73546165    -6.986868    841.37943  0.021279197  0.020772317         1303 
 3296000   0.72481572   -7.0013343    841.05174  0.021264455  0.020766207         1412 
 3297000   0.72106804   -6.9832718    841.21262  0.021262072  0.020760098         1423 
 3298000   0.72645512   -7.0069289    841.06128  0.021251801  0.020753957         1434 
 3299000   0.72995471   -7.0044448    841.66096  0.021260507  0.020747827         1490 
 3300000   0.71658862   -6.9947111    841.56797  0.021251716  0.020741673         1498 
 3301000    0.7227292   -7.0200877    842.01502  0.021256564  0.020735524         1601 
 3302000   0.70905022   -7.0129659     840.2764  0.021206249   0.02072935         1694 
 3303000   0.74157938   -7.0447845    840.94357  0.021216661  0.020723184         1688 
 3304000   0.72780728    -7.019022    839.77152  0.021180678  0.020716976         1799 
 3305000   0.71031004   -7.0637046    839.09863  0.021157303  0.020710741         1872 
 3306000   0.73669118   -7.0571422    839.56016  0.021162537  0.020704497         1936 
 3307000   0.72383886   -7.0620407    838.07996  0.021118838  0.020698219         2061 
 3308000   0.72075944    -7.081028     839.2445   0.02114179  0.020691928         2148 
 3309000   0.71224569   -7.0959812    838.33414  0.021112475  0.020685626         2185 
 3310000   0.74225507   -7.1038418    837.82554  0.021093292  0.020679323         2214 
 3311000   0.70174621   -7.0971977    835.88535  0.021038089  0.020672993         2179 
 3312000   0.73333131    -7.103257    836.57035  0.021048972  0.020666661         2218 
 3313000   0.73323832   -7.1331366    835.63805  0.021019168   0.02066029         2374 
 3314000   0.71350742   -7.1291065    834.78743  0.020991436  0.020653889         2514 
 3315000    0.7125997   -7.1555347    833.72404  0.020958372  0.020647474         2637 
 3316000   0.71490176   -7.1704609    833.59745   0.02094887  0.020641046         2664 
 3317000   0.70935406   -7.1531149    834.89857  0.020975243  0.020634598         2737 
 3318000   0.70040598   -7.1748871    834.24666  0.020952548  0.020628121         2843 
 3319000   0.71735603   -7.1692491    833.99978  0.020940037  0.020621644         2876 
 3320000   0.71948306   -7.1751377    834.33323  0.020942099  0.020615152         2882 
 3321000   0.71853454    -7.221279    833.39048  0.020912137  0.020608659         2984 
 3322000   0.73754838   -7.1905618    831.53068  0.020859188  0.020602129         3108 
 3323000   0.72251229   -7.2086869     832.9911  0.020889535  0.020595589         3048 
 3324000   0.72613651   -7.2247377    830.82652  0.020828984  0.020589035         3055 
 3325000   0.72293523   -7.2418164    831.83234  0.020847928  0.020582478         3116 
 3326000    0.7232614   -7.2162066     831.0059  0.020820954  0.020575905         3182 
 3327000   0.72580036   -7.2431176    829.26759  0.020771155  0.020569334         3316 
 3328000   0.72534796   -7.2607557    830.07952  0.020785244  0.020562718         3416 
 3329000   0.72396139   -7.2679024    827.79995  0.020721937   0.02055607         3429 
 3330000   0.70173461   -7.3030374    829.70185   0.02076331  0.020549403         3526 
 3331000   0.71118439   -7.3054296    828.88081  0.020736536  0.020542721         3534 
 3332000   0.72483988   -7.3158657    828.93069   0.02073156  0.020536027         3618 
 3333000   0.72564763   -7.3076747    827.78137  0.020696604   0.02052932         3569 
 3334000   0.72065796   -7.3148085    829.22996  0.020726604  0.020522598         3544 
 3335000   0.71458118   -7.3166398    827.37547   0.02067405  0.020515874         3566 
 3336000   0.70765756   -7.3195986    827.56668  0.020672629  0.020509141         3559 
 3337000   0.70923478   -7.3239907     826.1134  0.020630142  0.020502402         3584 
 3338000   0.71337852   -7.3376631    826.66032  0.020637615  0.020495638         3611 
 3339000   0.72029418   -7.3438594    828.66471  0.020681459  0.020488865         3663 
 3340000   0.70863324   -7.3476662    827.58443  0.020648314  0.020482088         3694 
 3341000   0.72690139   -7.3497906    827.28263  0.020634606  0.020475314         3708 
 3342000   0.72330526   -7.3556612    826.76314  0.020615478  0.020468526         3715 
 3343000   0.70295968   -7.3351521    827.30349  0.020622781  0.020461727         3683 
 3344000   0.71465235   -7.3453589    825.51935  0.020572153  0.020454918         3723 
 3345000   0.71286423   -7.3558551     824.6837  0.020545184  0.020448096         3755 
 3346000   0.71537548   -7.3952049    824.81735  0.020542373  0.020441275         3777 
 3347000   0.70880515   -7.3963605    826.57033  0.020579881  0.020434441         3760 
 3348000   0.71081894   -7.4038272    823.97555  0.020509148  0.020427599         3770 
 3349000   0.72292074   -7.3768434    823.35555  0.020487597  0.020420742         3754 
 3350000   0.69801989   -7.3916832    825.94967  0.020546012  0.020413899         3769 
 3351000   0.71408606   -7.3811744    825.28657   0.02052339  0.020407046         3794 
 3352000   0.72624172   -7.4165355    824.74371  0.020503772   0.02040018         3775 
 3353000   0.73482854   -7.4027807    826.42837  0.020539526  0.020393323         3780 
 3354000   0.71408828   -7.3906265    824.41796  0.020483452  0.020386458         3802 
 3355000   0.71692799   -7.3990776    823.97929   0.02046645  0.020379588         3781 
 3356000   0.73193075    -7.434718    822.75544  0.020429962  0.020372718         3822 
 3357000   0.73417506   -7.4048514    824.48829  0.020466892   0.02036585         3789 
 3358000   0.71793595   -7.4269563    823.99123  0.020448462  0.020358972         3776 
 3359000   0.71546134   -7.4391777    824.07629  0.020444485  0.020352082         3793 
 3360000    0.7157296     -7.42588     823.3278  0.020419836  0.020345182         3790 
 3361000   0.69624402   -7.4313308    823.24058  0.020411598  0.020338262         3812 
 3362000   0.70303269   -7.4521174    823.21903  0.020404993  0.020331345         3797 
 3363000   0.71093391   -7.4413737    824.09357  0.020420596  0.020324428         3793 
 3364000   0.69853112   -7.4602487    823.33648  0.020395771  0.020317511         3810 
 3365000   0.72406251   -7.4514193    822.20609  0.020361716  0.020310583         3811 
 3366000   0.72011794   -7.4455599    824.61077    0.0204152  0.020303672         3797 
 3367000   0.72067478   -7.4582095    824.19045  0.020398734  0.020296745         3807 
 3368000   0.70776528   -7.4276353    823.90845    0.0203857  0.020289827         3787 
 3369000   0.70233641   -7.4610355    821.14114  0.020311199  0.020282908         3807 
 3370000   0.71507209   -7.4494734    822.69777  0.020343664  0.020275991         3786 
 3371000   0.70411542   -7.4672483    823.45166  0.020356266  0.020269076         3809 
 3372000   0.71050544   -7.4254098    824.00076  0.020363799  0.020262162         3781 
 3373000   0.72646188   -7.4784865    822.24367  0.020314351  0.020255249         3826 
 3374000   0.72415876   -7.4488977    822.82667  0.020322729  0.020248336         3787 
 3375000   0.70524397   -7.4608854    821.76483   0.02029049  0.020241419         3833 
 3376000   0.72108526   -7.4295958    824.20414  0.020344691  0.020234509         3781 
 3377000   0.70531671   -7.4744625    822.81492  0.020304386   0.02022761         3804 
 3378000   0.71060077   -7.4554543    822.35844  0.020287114  0.020220702         3826 
 3379000    0.7079707    -7.480297    824.00485  0.020321714  0.020213801         3799 
 3380000   0.71534667   -7.4526875    823.41943  0.020301268  0.020206894         3784 
 3381000   0.72815879   -7.4439455    823.50179  0.020297293  0.020199987         3803 
 3382000    0.7166288   -7.4796872    822.31474  0.020262043  0.020193081         3843 
 3383000   0.70122984    -7.451988     824.8481  0.020318458  0.020186181         3809 
 3384000   0.71003571     -7.44584    822.80143  0.020262053  0.020179269         3755 
 3385000   0.72112759   -7.4657932     821.0846  0.020213801  0.020172377         3838 
 3386000   0.71178958   -7.4504887    822.39357  0.020240047  0.020165466         3844 
 3387000   0.72575029   -7.4231069    823.31536   0.02025675   0.02015857         3824 
 3388000   0.71045263   -7.4805038    821.97673  0.020217845  0.020151672         3839 
 3389000   0.72109462   -7.4744151    824.20003  0.020266549   0.02014477         3815 
 3390000   0.71318678   -7.4888605    822.56018   0.02022026  0.020137865         3837 
 3391000   0.71945435   -7.4497495    822.08555  0.020202633  0.020130961         3834 
 3392000   0.70496974   -7.4467741    822.98345  0.020218736  0.020124059         3827 
 3393000   0.72021432   -7.4652508    822.23737  0.020194453  0.020117157         3882 
 3394000    0.7122333   -7.4611433     821.5231  0.020170966  0.020110248         3872 
 3395000    0.7006245   -7.4685521    822.47238  0.020188325  0.020103338         3846 
 3396000   0.70587889   -7.4644673    822.57228  0.020184832  0.020096431         3869 
 3397000   0.71917039   -7.4751546     822.6071  0.020179744  0.020089524         3884 
 3398000   0.70263243    -7.475728    824.55363  0.020221543   0.02008262         3869 
 3399000   0.72250698   -7.4470435    822.79258  0.020172418  0.020075714         3895 
 3400000   0.70193701   -7.4633402    821.93806  0.020145541   0.02006882         3856 
 3401000   0.71746959   -7.4651916    820.77385  0.020111091  0.020061921         3869 
 3402000   0.71402272   -7.4643037    822.22211  0.020140655  0.020055021         3875 
 3403000   0.71916271   -7.4587458    822.84577  0.020150009  0.020048131         3868 
 3404000   0.71391999   -7.4769947    821.18783  0.020103501  0.020041244         3902 
 3405000   0.71909225   -7.4603232    822.70083  0.020134626  0.020034356         3882 
 3406000   0.71509269   -7.4850616     822.4761  0.020123216  0.020027463         3893 
 3407000   0.70111453    -7.471871    822.60474  0.020120456  0.020020567         3864 
 3408000    0.7145393   -7.4738171    822.12708  0.020102873  0.020013666         3880 
 3409000   0.68010497   -7.4744923     823.8422  0.020138902  0.020006781         3867 
 3410000   0.71053908   -7.4634774    822.14332  0.020091479  0.019999894         3880 
 3411000   0.69743319   -7.4975666    821.52141  0.020070395  0.019993002         3884 
 3412000   0.69494871    -7.473285    821.30324  0.020059184  0.019986112         3875 
 3413000   0.70128383   -7.5044533    820.28522  0.020028451   0.01997921         3876 
 3414000   0.71692846   -7.4619036    821.23131  0.020045677   0.01997232         3890 
 3415000   0.71285109    -7.504876    821.36795  0.020043142  0.019965434         3876 
 3416000   0.70756134   -7.4811729    821.82689   0.02004847   0.01995855         3887 
 3417000   0.69905511   -7.4787843     820.6539  0.020013996   0.01995166         3900 
 3418000   0.69925064   -7.4825927    822.68191  0.020057585  0.019944783         3889 
 3419000   0.69775213   -7.4669269    820.24848  0.019992407  0.019937896         3894 
 3420000   0.73007863   -7.4876929    822.20058  0.020034127  0.019931015         3902 
 3421000   0.70070874   -7.4874087    821.45146  0.020010023  0.019924127         3894 
 3422000   0.71175605   -7.4683172    821.75939  0.020011674  0.019917246         3894 
 3423000   0.71188854    -7.497224    822.47482  0.020023245  0.019910364         3890 
 3424000   0.69462213   -7.4784335     822.1635   0.02000982  0.019903491         3901 
 3425000   0.71440396   -7.4810038    821.25299  0.019981825    0.0198966         3877 
 3426000   0.69803404   -7.4774964     821.9047  0.019991844  0.019889714         3881 
 3427000   0.71996372   -7.4733115    820.39105  0.019949204  0.019882839         3875 
 3428000   0.70337824   -7.4773538    821.91933  0.019980536  0.019875962         3883 
 3429000   0.70962329    -7.491163    822.45708  0.019987778   0.01986908         3901 
 3430000   0.70745778   -7.4647821    822.00984  0.019971085  0.019862213         3905 
 3431000   0.68986152   -7.4858146    822.24397   0.01997095  0.019855337         3895 
 3432000   0.71074072   -7.4735999    821.47762  0.019946523  0.019848467         3898 
 3433000   0.71006401   -7.4930328    820.40233  0.019914611  0.019841596         3878 
 3434000   0.69434112    -7.482999    820.90524  0.019921016  0.019834719         3896 
 3435000   0.71722224    -7.493713    820.93015  0.019915821  0.019827855         3885 
 3436000   0.70844705   -7.4642339    820.81412  0.019907211  0.019820985         3894 
 3437000   0.70348541   -7.4950071    821.61547  0.019920848   0.01981412         3900 
 3438000   0.70441666     -7.48359    819.99897  0.019875872  0.019807253         3912 
 3439000   0.69973829    -7.505619    822.98159  0.019942367  0.019800394         3893 
 3440000   0.67754344   -7.4776197    820.51571  0.019876834  0.019793527         3909 
 3441000   0.71428323   -7.4948277    820.51216  0.019870972  0.019786662         3903 
 3442000   0.69124769   -7.4835863    820.84511  0.019873259  0.019779796         3873 
 3443000   0.69392016    -7.493781    822.19297  0.019900111  0.019772941         3906 
 3444000   0.70116479   -7.4707584    819.91102  0.019839117  0.019766082         3894 
 3445000   0.70224873   -7.4960508    821.32013  0.019867444   0.01975923         3906 
 3446000   0.71347572   -7.4776769    821.08515  0.019855996  0.019752371         3901 
 3447000   0.68731697   -7.4955373    820.85058  0.019844565  0.019745525         3891 
 3448000   0.70068353   -7.4904432    820.42895  0.019828619   0.01973868         3893 
 3449000   0.69044664   -7.5154634    821.79803  0.019855949  0.019731826         3903 
 3450000   0.68934331   -7.4698382    820.86017   0.01982754   0.01972498         3906 
 3451000   0.70205881   -7.4658359    821.50315  0.019837321   0.01971813         3886 
 3452000   0.68389259   -7.5061222    822.02208  0.019844102  0.019711286         3903 
 3453000   0.70017882    -7.481241     820.2518  0.019795632  0.019704437         3907 
 3454000   0.70091988   -7.4839168     820.5895  0.019798048  0.019697592         3903 
 3455000   0.71305138   -7.4898804     821.4755  0.019813688  0.019690746         3901 
 3456000   0.70763354   -7.4911564    821.02083  0.019796991  0.019683907         3890 
 3457000   0.69300229   -7.5034516    820.54068  0.019779691  0.019677072         3885 
 3458000   0.71656833   -7.4747923    820.11342  0.019763674  0.019670236         3905 
 3459000   0.71544644   -7.4883964    822.23596  0.019809096  0.019663399         3896 
 3460000   0.68593512   -7.4779928     821.1944  0.019778285  0.019656564         3881 
 3461000   0.68345315   -7.5115309    821.34271  0.019776141  0.019649733         3890 
 3462000    0.6964637   -7.5103228    820.38828  0.019747455  0.019642895         3918 
 3463000   0.70068985   -7.4948212    820.33891  0.019740565  0.019636064         3900 
 3464000   0.69945292   -7.5039756    821.27273  0.019757331  0.019629237         3903 
 3465000   0.69605495   -7.5013951    821.63256  0.019760283  0.019622402         3914 
 3466000   0.70889984   -7.4781336    818.97047  0.019690577  0.019615582         3904 
 3467000   0.70750803   -7.4799489    820.22337  0.019715012  0.019608752         3893 
 3468000   0.71173723   -7.4917901    821.60031  0.019742414  0.019601934         3901 
 3469000     0.697999   -7.4971266    821.04423  0.019723365  0.019595114         3880 
 3470000   0.69147874   -7.5111833    820.28449  0.019699435  0.019588291         3906 
 3471000    0.6863489   -7.4924632    820.60541  0.019701465  0.019581465         3894 
 3472000   0.69533498   -7.4895509    819.07795  0.019659129  0.019574651         3895 
 3473000    0.7038001   -7.5003448    819.91092  0.019673455  0.019567829         3895 
 3474000   0.69456264   -7.4958744    821.62305  0.019708862  0.019561011         3892 
 3475000   0.71342798   -7.4992109     820.8531  0.019684727  0.019554199         3875 
 3476000   0.70883382   -7.4934756    821.46258  0.019693675  0.019547397         3902 
 3477000   0.69509993   -7.5313971    820.42329  0.019663103  0.019540587         3880 
 3478000   0.68735505   -7.4949326    821.23914  0.019676997  0.019533779         3913 
 3479000   0.72231875   -7.4913597    819.76224  0.019635964  0.019526967         3896 
 3480000   0.69573214   -7.4797485    819.84144  0.019632218  0.019520163         3885 
 3481000   0.70789813   -7.4967937    822.54743  0.019691359  0.019513364         3879 
 3482000   0.69581659   -7.4870818    821.99738  0.019672539  0.019506566         3900 
 3483000   0.67161819   -7.4858192    822.01185  0.019667237  0.019499768         3891 
 3484000   0.69310649   -7.5008208    818.97609   0.01958898  0.019492963         3897 
 3485000   0.68160841   -7.4933585    821.71852  0.019648936  0.019486175         3883 
 3486000   0.70217236   -7.5052048     820.3353  0.019610234  0.019479382         3899 
 3487000   0.68957311   -7.4964265    821.49171  0.019632246  0.019472579         3926 
 3488000   0.69150031   -7.5214853    820.86624  0.019611674  0.019465784         3893 
 3489000   0.69182062   -7.4892499    818.99235  0.019561296  0.019458997         3897 
 3490000   0.69796133   -7.5029938    820.45808   0.01959069    0.0194522         3914 
 3491000   0.69342748   -7.4852944    821.26931  0.019604443  0.019445408         3898 
 3492000   0.68100736   -7.5021671    821.87392  0.019613257   0.01943861         3904 
 3493000   0.68205585   -7.4995366    820.87147  0.019583726  0.019431824         3894 
 3494000   0.67375871    -7.501638    820.34452  0.019565553  0.019425041         3900 
 3495000   0.69356883   -7.4982662    820.99472  0.019575458  0.019418259         3889 
 3496000   0.69135925   -7.5011452    821.68494  0.019586311  0.019411486         3886 
 3497000   0.67980291   -7.4910112    820.28181  0.019547274  0.019404709         3889 
 3498000   0.68711022   -7.4971692    820.59237  0.019549084  0.019397935         3904 
 3499000   0.68453793   -7.5176242     819.1923  0.019510153  0.019391163         3907 
 3500000   0.69571394   -7.5019053    820.94184  0.019546234  0.019384385         3909 
 3501000   0.70417639   -7.4944999    820.57282  0.019531867  0.019377614         3916 
 3502000   0.68901549    -7.502598     819.5226  0.019501299   0.01937084         3907 
 3503000   0.68854159     -7.49617    821.19021  0.019535403  0.019364068         3916 
 3504000   0.69519891   -7.4876213    818.64864  0.019469384  0.019357299         3910 
 3505000   0.69532791   -7.5090193    821.21814   0.01952492  0.019350536         3889 
 3506000   0.68645197   -7.4808558    821.09581  0.019516443  0.019343775         3905 
 3507000   0.69558828   -7.5085751    821.77936  0.019527121  0.019337013         3907 
 3508000    0.7005375   -7.4979566    820.92013  0.019501143  0.019330255         3881 
 3509000   0.69752657   -7.5062279    821.32726  0.019505254  0.019323495         3902 
 3510000   0.69036609   -7.5103935     820.6862  0.019484478  0.019316733         3898 
 3511000   0.68741001   -7.5117746     820.9159   0.01948438  0.019309979         3905 
 3512000   0.68938028   -7.5165207     820.8333  0.019476872  0.019303226         3903 
 3513000   0.69178995   -7.5172584    820.40252  0.019461109  0.019296481         3911 
 3514000    0.6895027   -7.5183048    819.39057  0.019431573   0.01928972         3901 
 3515000   0.69243315   -7.5106617    819.48084  0.019428185  0.019282973         3907 
 3516000   0.69693305   -7.5055866    820.67519  0.019450967  0.019276221         3899 
 3517000    0.6821057   -7.5137889    819.70726  0.019422502  0.019269478         3890 
 3518000   0.69531888    -7.505574    818.72224  0.019393648  0.019262734         3900 
 3519000   0.69992212   -7.5018302    819.27029  0.019401115  0.019255995         3893 
 3520000   0.70180185   -7.5078921    819.32847  0.019396981  0.019249248         3914 
 3521000   0.67966288   -7.4923922    821.11979  0.019433868  0.019242515         3906 
 3522000   0.66841882    -7.475918    820.48592  0.019413352  0.019235777         3888 
 3523000   0.69214049   -7.4981984    818.44541  0.019359575   0.01922905         3899 
 3524000   0.69179516   -7.5041348    819.37876  0.019376153  0.019222314         3901 
 3525000   0.68683775   -7.5171397    822.15861  0.019436374   0.01921558         3895 
 3526000   0.68356637     -7.49349     821.0919  0.019405651  0.019208842         3907 
 3527000   0.68340158   -7.5247461    819.11036  0.019353331  0.019202115         3896 
 3528000    0.6971938   -7.5036925    820.72017   0.01938587  0.019195391         3893 
 3529000   0.67232387   -7.5389246      819.991  0.019363158  0.019188661         3896 
 3530000   0.69410062   -7.5159786    820.63394   0.01937285  0.019181942         3910 
 3531000   0.67308411   -7.5078152    821.61827  0.019390595  0.019175217         3891 
 3532000   0.67933329   -7.5067465    820.78785  0.019365512    0.0191685         3884 
 3533000   0.69379366   -7.5190361    820.99235  0.019364854  0.019161782         3906 
 3534000   0.68803418   -7.5023398    821.39552  0.019368881  0.019155072         3903 
 3535000   0.67815311   -7.5082028    820.15349  0.019334123  0.019148352         3889 
 3536000   0.68263631   -7.5095963     819.7898  0.019320084  0.019141643         3903 
 3537000   0.68262073   -7.5219462    820.64615  0.019334798   0.01913492         3896 
 3538000   0.69690328   -7.5355806    821.99024  0.019360991  0.019128216         3882 
 3539000   0.69251254   -7.4968026    820.36707  0.019317299   0.01912151         3912 
 3540000   0.68928403   -7.4972644    820.41975  0.019313083    0.0191148         3907 
 3541000    0.6887627   -7.5020815    819.95066  0.019296589  0.019108088         3892 
 3542000   0.69713301    -7.503113    820.40283  0.019301779  0.019101382         3900 
 3543000   0.68684931    -7.512395    821.19058   0.01931486  0.019094676         3899 
 3544000   0.67389567   -7.5200339    819.38047  0.019266847  0.019087976         3890 
 3545000    0.6782413   -7.5489896    820.18333  0.019280285  0.019081274         3899 
 3546000   0.67544758   -7.4991618    819.77275  0.019265199  0.019074568         3911 
 3547000   0.67803978   -7.5043076    820.72309  0.019282095  0.019067869         3894 
 3548000   0.68480646   -7.5273829     819.4598  0.019246989  0.019061175         3894 
 3549000   0.67948632   -7.5276559    821.17616  0.019281867  0.019054483         3895 
 3550000   0.68383255   -7.5129367     818.9529  0.019224246  0.019047793         3899 
 3551000   0.67421714   -7.5225122     819.4511  0.019230524  0.019041103         3886 
 3552000   0.68606217   -7.5338557    819.78127  0.019232856  0.019034421         3902 
 3553000   0.69436591   -7.5036112    820.21835  0.019237695   0.01902773         3895 
 3554000   0.68860949   -7.4900119    819.28763  0.019210458  0.019021046         3877 
 3555000   0.68372093   -7.5142518    820.12763  0.019224745  0.019014369         3904 
 3556000   0.69516827   -7.5219968     820.7309  0.019233476  0.019007694         3910 
 3557000   0.66674958   -7.5184157    818.97997  0.019187048  0.019001012         3898 
 3558000   0.65927276   -7.5289806    820.91536  0.019226985  0.018994341         3897 
 3559000   0.67592093   -7.5079677     819.6432  0.019191795  0.018987666         3898 
 3560000    0.6826522   -7.5220671    819.80753  0.019190251  0.018981002         3884 
 3561000   0.69106438   -7.5202639    820.54699  0.019202167  0.018974338         3881 
 3562000   0.67762437   -7.5238405    819.47076  0.019171597  0.018967665         3919 
 3563000   0.68503653    -7.502279    820.38075    0.0191875  0.018961001         3888 
 3564000   0.69721162     -7.54512    818.30275  0.019133528  0.018954346         3885 
 3565000   0.69261288   -7.5138057    818.41487  0.019130782  0.018947684         3887 
 3566000   0.67340232   -7.5057804    818.72766  0.019132727  0.018941025         3917 
 3567000    0.6818397   -7.5291451    818.89112  0.019131182  0.018934366         3892 
 3568000   0.69275604   -7.5322813    819.96567  0.019150917   0.01892771         3906 
 3569000   0.68653662   -7.5031983    818.89801  0.019120622  0.018921049         3912 
 3570000   0.68034828   -7.5123865    818.60378  0.019108398  0.018914401         3909 
 3571000   0.69018044   -7.5269797     820.8162  0.019154677  0.018907752         3886 
 3572000   0.69010024   -7.5084821    818.83287  0.019103044  0.018901101         3914 
 3573000   0.68318458    -7.536357    819.67145  0.019117256  0.018894451         3903 
 3574000   0.66919634   -7.5328674    819.83851  0.019115802  0.018887809         3896 
 3575000   0.67841443   -7.5342983    821.30354  0.019144605  0.018881172         3901 
 3576000   0.68154441   -7.5153242     818.6411  0.019077207  0.018874544         3901 
 3577000   0.69611702   -7.5245096    820.55307  0.019116417  0.018867906         3892 
 3578000   0.66617708   -7.5219099    820.45494  0.019108788  0.018861274         3904 
 3579000   0.67536907   -7.5203796    819.79092  0.019087988  0.018854643         3912 
 3580000   0.67771764   -7.4940916    819.49934  0.019075869  0.018848009         3893 
 3581000   0.67716791   -7.5232857    820.15159  0.019085721  0.018841378         3904 
 3582000   0.66817988   -7.5182701    820.00254  0.019076925  0.018834752         3906 
 3583000   0.68300654   -7.5115345     820.8588  0.019091516  0.018828125         3895 
 3584000   0.70005571   -7.5215024    819.50862  0.019054795  0.018821507         3901 
 3585000   0.66933074   -7.5161001    820.27274  0.019067242  0.018814884         3891 
 3586000   0.67567656    -7.524296    818.96405  0.019031513  0.018808257         3896 
 3587000    0.6787574   -7.5026355    819.19401  0.019031549  0.018801642         3903 
 3588000   0.68044513   -7.5084706    820.07733  0.019046761  0.018795023         3915 
 3589000   0.69810733    -7.520601    820.68974  0.019055673   0.01878841         3907 
 3590000   0.68402854    -7.516969    819.94662  0.019033116  0.018781803         3907 
 3591000   0.67954247   -7.5234054    819.96932  0.019028342  0.018775191         3918 
 3592000   0.67339904   -7.5506669     818.9613  0.018999659  0.018768576         3910 
 3593000   0.67465643    -7.530308     819.7207  0.019011984  0.018761969         3898 
 3594000   0.66914396   -7.5243587    820.32321  0.019020664  0.018755366         3891 
 3595000   0.67245104   -7.5292715    820.36911  0.019016437   0.01874876         3913 
 3596000   0.67322415   -7.5276044    819.62765  0.018993967  0.018742157         3891 
 3597000   0.66883627   -7.5221758    820.42832  0.019007236  0.018735572         3884 
 3598000   0.67777118   -7.5312904    819.11716  0.018971585  0.018728974         3914 
 3599000   0.68798624   -7.5432767    820.37762  0.018995499  0.018722379         3897 
 3600000   0.66072001   -7.5083898    820.55113  0.018994239   0.01871579         3890 
 3601000   0.67652137   -7.5325285    819.48745  0.018964349  0.018709201         3897 
 3602000   0.67730863   -7.5346699    818.75297  0.018942092  0.018702607         3896 
 3603000   0.68230818   -7.5307563    820.20437  0.018970403  0.018696019         3890 
 3604000   0.67106466   -7.5353643    819.10749  0.018939777  0.018689432         3907 
 3605000   0.66692535   -7.5212847    819.71069  0.018948467  0.018682847         3900 
 3606000   0.66991221   -7.5411491    819.24229  0.018932388  0.018676261         3907 
 3607000   0.67084995    -7.543869    819.65529  0.018936681  0.018669682         3894 
 3608000   0.66150407   -7.5441116     820.8309  0.018958585  0.018663102         3885 
 3609000   0.67536103   -7.5422288    820.36074  0.018942476  0.018656526         3904 
 3610000   0.66067448   -7.5368508    818.86199  0.018902631   0.01864995         3907 
 3611000   0.68114184   -7.5381438    820.24301  0.018929267  0.018643379         3907 
 3612000   0.68519612   -7.5315333    817.75907  0.018866719  0.018636801         3896 
 3613000   0.66163621   -7.5119835     820.0279  0.018913827  0.018630234         3899 
 3614000   0.66648482   -7.5428783    819.75707  0.018902349  0.018623658         3895 
 3615000    0.6753035   -7.5331272    818.77949  0.018874585  0.018617095         3900 
 3616000   0.65737671   -7.5385855    818.83982  0.018870755  0.018610532         3916 
 3617000   0.67494777   -7.5013211    818.62108  0.018860499  0.018603962         3902 
 3618000   0.66964874    -7.553648    819.71178  0.018880408    0.0185974         3908 
 3619000   0.66122714   -7.5327673     820.1184  0.018884554   0.01859084         3911 
 3620000   0.68496394   -7.5293446    819.38677  0.018862495   0.01858428         3906 
 3621000   0.66018339   -7.5050302    819.32445  0.018855851  0.018577718         3908 
 3622000   0.67504494   -7.5365836    820.60508   0.01888011  0.018571164         3903 
 3623000   0.66530277   -7.5451932    819.30531  0.018845002  0.018564607         3907 
 3624000   0.67066027   -7.5390144    821.05679  0.018880077   0.01855806         3908 
 3625000   0.67145975   -7.5314181    819.93386  0.018849054  0.018551515         3904 
 3626000   0.68565812   -7.5595662    820.59971  0.018859159  0.018544971         3898 
 3627000   0.64985104   -7.5503352    818.87923  0.018814429  0.018538425         3893 
 3628000   0.66798222   -7.5363651    818.78955  0.018807184  0.018531877         3909 
 3629000   0.66258952   -7.5059266    819.52584  0.018818909  0.018525332         3895 
 3630000   0.67422299   -7.5497681    818.45528  0.018789148  0.018518796         3901 
 3631000    0.6801131   -7.5440111    819.87798  0.018816625  0.018512263         3915 
 3632000   0.66087306   -7.5114239    820.32721  0.018821751  0.018505728         3902 
 3633000   0.66658848   -7.5267397    817.99833  0.018763151  0.018499193         3900 
 3634000   0.67511343   -7.5319573     819.1983  0.018785505  0.018492656         3904 
 3635000   0.66178453   -7.5351889    818.21541  0.018757804  0.018486126         3901 
 3636000    0.6659988   -7.5294743     817.5077  0.018736425  0.018479596         3909 
 3637000   0.65250141   -7.5312428    818.76265  0.018760028  0.018473068         3906 
 3638000   0.66717304    -7.544824    817.67979  0.018730067  0.018466537         3915 
 3639000   0.68768336   -7.5441846    819.76491  0.018772669   0.01846001         3921 
 3640000   0.65945967   -7.5423463    820.57074   0.01878596  0.018453485         3902 
 3641000   0.67482505   -7.5191228    819.30831  0.018751907   0.01844696         3902 
 3642000   0.67491432    -7.523269    818.75446  0.018734085  0.018440445         3911 
 3643000   0.67124343    -7.515584    817.45617  0.018699244  0.018433927         3912 
 3644000   0.67693004   -7.5512584    817.97841  0.018706056  0.018427411         3913 
 3645000   0.65592854   -7.5458277    818.77702  0.018719182  0.018420896         3913 
 3646000   0.66565968   -7.5470851    817.75395  0.018690665  0.018414376         3909 
 3647000   0.66982557   -7.5563884    818.78194  0.018709029  0.018407868         3911 
 3648000   0.67033583   -7.5603847    820.49319  0.018742991  0.018401363         3916 
 3649000   0.68670159   -7.5602055    818.64394  0.018695623   0.01839486         3892 
 3650000   0.66212139   -7.5325219    817.37067  0.018661431  0.018388359         3905 
 3651000   0.66923167   -7.5444437    818.62665  0.018684987  0.018381864         3916 
 3652000   0.67447055   -7.5398736    819.90308  0.018708997  0.018375376         3896 
 3653000   0.67299073   -7.5514936    818.93557  0.018681804   0.01836888         3913 
 3654000   0.66397668   -7.5457155    818.02455  0.018655915  0.018362389         3896 
 3655000   0.65131493   -7.5546824    819.27967  0.018679427  0.018355897         3920 
 3656000   0.68560525   -7.5369478    818.68407  0.018660742  0.018349399         3906 
 3657000   0.65611737   -7.5484671    818.38749  0.018648881  0.018342906         3896 
 3658000   0.66431679   -7.5309116    818.55972  0.018647706  0.018336413         3903 
 3659000   0.68000029   -7.5501976     818.1365  0.018632971  0.018329931         3894 
 3660000   0.67585638   -7.5451008    818.10958  0.018627267  0.018323446         3910 
 3661000   0.67151446   -7.5548217    817.47749  0.018607791  0.018316962         3907 
 3662000   0.66259552   -7.5375472    818.71908  0.018630964  0.018310483         3906 
 3663000   0.67054975   -7.5350013    818.64699  0.018624238  0.018304011         3888 
 3664000   0.66425507    -7.523736    818.97474  0.018626609  0.018297538         3909 
 3665000   0.65783654   -7.5501236    820.03021  0.018645525  0.018291066         3897 
 3666000   0.66955312   -7.5580426    818.40318  0.018603455  0.018284593         3924 
 3667000   0.67802344   -7.5413434    819.30407  0.018618854   0.01827812         3915 
 3668000   0.67773591   -7.5634467    819.09786  0.018609093  0.018271644         3911 
 3669000   0.66172053   -7.5523169    819.46771  0.018612422  0.018265173         3909 
 3670000   0.66088434   -7.5326702    819.79557  0.018614795  0.018258707         3903 
 3671000   0.66517307   -7.5492343    819.17222  0.018595574  0.018252247         3920 
 3672000   0.66480744   -7.5435164     818.8658  0.018583556  0.018245781         3910 
 3673000   0.66520949   -7.5479506    819.33655  0.018589177   0.01823932         3898 
 3674000   0.65871294   -7.5433364     819.0245  0.018577039  0.018232866         3925 
 3675000   0.66290966   -7.5766538    818.54442  0.018561098  0.018226404         3920 
 3676000   0.67653552   -7.5507356    818.66108  0.018558693  0.018219944         3925 
 3677000    0.6529114   -7.5344379     817.7135  0.018532171  0.018213496         3915 
 3678000   0.66496576     -7.53664    819.27959  0.018562615  0.018207052         3902 
 3679000    0.6563644   -7.5675149    818.26835  0.018534664  0.018200602         3911 
 3680000   0.66923246   -7.5482856    819.44147  0.018556193  0.018194155         3911 
 3681000   0.66927354   -7.5501691    820.78513   0.01858157  0.018187713         3915 
 3682000   0.65769213   -7.5557104    818.42013  0.018522998  0.018181271         3926 
 3683000   0.65697812   -7.5414287    818.60678  0.018522191  0.018174836         3899 
 3684000   0.66622155   -7.5432718    819.92393  0.018546958  0.018168397         3902 
 3685000   0.67315702   -7.5561643    818.03973  0.018499315  0.018161956         3920 
 3686000   0.68016219   -7.5461119    818.84028  0.018512396  0.018155521         3895 
 3687000   0.66057824   -7.5706595    819.14742  0.018514317  0.018149091         3914 
 3688000   0.64639086   -7.5455204     818.7258   0.01849977  0.018142669         3919 
 3689000   0.67337864   -7.5633833    819.01369  0.018501258  0.018136243         3909 
 3690000   0.66371461   -7.5310436    818.33429  0.018480901  0.018129815         3913 
 3691000   0.66374242   -7.5416713    818.47276   0.01847902   0.01812339         3908 
 3692000   0.66389301   -7.5609117    818.13128  0.018466307  0.018116964         3909 
 3693000   0.65639861   -7.5585796    818.88247  0.018478258  0.018110545         3904 
 3694000   0.65781702   -7.5495587    817.75512  0.018447824  0.018104131         3913 
 3695000   0.66251666    -7.544967     817.6978  0.018441538  0.018097715         3915 
 3696000   0.65280557   -7.5648274     819.3573  0.018473965  0.018091304         3921 
 3697000   0.66067345   -7.5453746    819.03579  0.018461721  0.018084892         3913 
 3698000   0.66125405   -7.5488734    817.33242  0.018418344  0.018078486         3909 
 3699000   0.66665276   -7.5680753    818.68002  0.018443724  0.018072081         3935 
 3700000   0.65316673   -7.5544419    817.48111  0.018411737  0.018065676         3921 
 3701000   0.65505522   -7.5729419    819.03596  0.018441772  0.018059278         3919 
 3702000   0.65898709   -7.5730313     819.0133   0.01843628  0.018052876         3917 
 3703000   0.65816653   -7.5504925    820.58897  0.018466761  0.018046476         3930 
 3704000   0.65338542   -7.5337366    818.57168   0.01841639  0.018040083         3915 
 3705000   0.65993502   -7.5497858     819.0353  0.018421847  0.018033689         3919 
 3706000   0.66932999   -7.5563509    817.71563  0.018387202    0.0180273         3908 
 3707000   0.66479621   -7.5712578     817.8675  0.018385656  0.018020907         3927 
 3708000   0.65564085   -7.5685889    818.32781  0.018391042  0.018014508         3912 
 3709000   0.66663198   -7.5637262    817.83769  0.018375072  0.018008118         3912 
 3710000   0.66112495   -7.5447015    818.19958  0.018378248  0.018001733         3923 
 3711000   0.65239309   -7.5689045    818.60486  0.018382396  0.017995344         3901 
 3712000   0.66730409     -7.55848    817.64856  0.018355975  0.017988965         3915 
 3713000   0.64207622   -7.5498034    817.12933  0.018339378  0.017982587         3913 
 3714000   0.64559774   -7.5702933    818.56293  0.018366607   0.01797621         3923 
 3715000   0.66253928   -7.5712749     817.7465  0.018343349  0.017969825         3918 
 3716000   0.66002626    -7.576724    815.83771  0.018295607  0.017963449         3930 
 3717000   0.64376526   -7.5576879    818.13362  0.018342158  0.017957072         3913 
 3718000    0.6643556   -7.5577315    819.06925  0.018358195  0.017950702         3917 
 3719000   0.65120102    -7.575068    818.81373  0.018347534  0.017944327         3920 
 3720000   0.65438592   -7.5422588    817.31312  0.018308986  0.017937963         3919 
 3721000   0.65557167   -7.5548976    819.21147   0.01834658  0.017931599         3903 
 3722000   0.65729172   -7.5638466     818.1399  0.018317659  0.017925238         3908 
 3723000   0.66208688   -7.5519438    817.42372  0.018296708  0.017918874         3903 
 3724000   0.66577715   -7.5616131    819.07487  0.018328743  0.017912516         3920 
 3725000   0.65199933   -7.5712687    817.35362  0.018285316  0.017906161         3915 
 3726000   0.66431888    -7.559345    817.19389  0.018276836  0.017899801         3908 
 3727000   0.66055468    -7.562807    818.18847   0.01829417  0.017893463         3917 
 3728000    0.6634073   -7.5522864    817.45173  0.018272794  0.017887117         3925 
 3729000   0.65375987   -7.5640799    817.80723  0.018275839  0.017880771         3905 
 3730000   0.66418543   -7.5518435     817.9472  0.018274066  0.017874423         3905 
 3731000   0.64432942    -7.548905    819.19548  0.018297049  0.017868082         3920 
 3732000   0.64436315   -7.5626131    818.82422  0.018283856  0.017861743         3918 
 3733000   0.65545491   -7.5603807    817.14446   0.01824146    0.0178554         3925 
 3734000   0.64843822   -7.5731872    816.67486  0.018226095  0.017849065         3919 
 3735000    0.6512372   -7.5428326    817.35839  0.018236466  0.017842734         3920 
 3736000   0.65472695   -7.5754167    819.85757   0.01828733  0.017836399         3912 
 3737000   0.65010157   -7.5610036     817.2543  0.018224385  0.017830061         3921 
 3738000   0.64327233   -7.5666976     818.3518  0.018243976  0.017823739         3926 
 3739000   0.65418124    -7.557872    816.96667  0.018208226  0.017817413         3927 
 3740000   0.65029027   -7.5532491    818.12275  0.018229117  0.017811084         3909 
 3741000   0.67032919   -7.5719002    819.20623  0.018248379  0.017804764         3902 
 3742000   0.65281453   -7.5844906    817.61833   0.01820814  0.017798443         3913 
 3743000   0.65492224   -7.5612473    818.30819  0.018218634  0.017792124         3920 
 3744000   0.66006765   -7.5652148    818.73438  0.018223254   0.01778581         3921 
 3745000    0.6681026   -7.5800898    816.58949  0.018170661  0.017779493         3913 
 3746000   0.64503812   -7.5622378    816.02469  0.018153245  0.017773183         3912 
 3747000   0.65192289   -7.5854188    817.13983  0.018173202  0.017766875         3914 
 3748000   0.65784678   -7.5635579    817.76134  0.018182171  0.017760565         3918 
 3749000   0.64406715   -7.5725628    817.00817   0.01816058  0.017754251         3910 
 3750000   0.64775732   -7.5691383    819.22588   0.01820502  0.017747952         3901 
 3751000   0.66139017   -7.5898787    818.56926  0.018185578  0.017741646         3918 
 3752000   0.64585616   -7.5847695    817.62271  0.018159708  0.017735346         3911 
 3753000   0.65612464   -7.5696975    818.13886   0.01816633  0.017729047         3914 
 3754000   0.65430383   -7.5712251    818.21142  0.018163102  0.017722745         3911 
 3755000   0.65788726   -7.5529021     816.0852  0.018111079  0.017716454         3923 
 3756000   0.65267876   -7.5656042    817.61238   0.01814014  0.017710167         3927 
 3757000   0.64362204   -7.5682585    816.88951  0.018119278  0.017703876         3912 
 3758000   0.66510194   -7.5799399    817.34885  0.018124642  0.017697585         3923 
 3759000      0.64989   -7.5521031    818.55801  0.018146626  0.017691296         3930 
 3760000     0.655275   -7.5696691    817.08779  0.018109215  0.017685017         3927 
 3761000   0.66486125   -7.5735772    816.44117  0.018090073  0.017678736         3923 
 3762000   0.65571883   -7.5633189    817.84291  0.018116315  0.017672457         3910 
 3763000   0.64903737   -7.5854102    817.71671  0.018108706  0.017666174         3930 
 3764000   0.63084451   -7.5629056    818.80526  0.018127994  0.017659898         3917 
 3765000   0.64151592   -7.5661439    817.71731  0.018099099  0.017653623         3912 
 3766000   0.65917753   -7.5743196    818.32728  0.018107791  0.017647353         3918 
 3767000   0.64997377   -7.5820271    817.39909   0.01808245  0.017641092         3915 
 3768000   0.65650877   -7.5521817     817.2606  0.018074589  0.017634819         3908 
 3769000   0.64347868    -7.560296    817.88486  0.018083596  0.017628556         3908 
 3770000   0.64944434   -7.5707583    817.01824  0.018059643   0.01762229         3898 
 3771000   0.63912051   -7.5760337    818.42945  0.018086039  0.017616038         3919 
 3772000   0.64299976   -7.5768416    818.56777    0.0180843  0.017609787         3913 
 3773000   0.64793469   -7.5748768    818.51106  0.018078255  0.017603535         3921 
 3774000   0.65127298   -7.5674179     816.7771  0.018035177  0.017597281         3935 
 3775000    0.6313715   -7.5774936    815.46292  0.018001389   0.01759103         3912 
 3776000   0.64226957   -7.5771307    816.59086  0.018021514  0.017584784         3927 
 3777000   0.65452194   -7.5703291    817.70057  0.018041227  0.017578537         3917 
 3778000   0.64968433   -7.5599515    818.02495  0.018043607    0.0175723         3904 
 3779000   0.64827344   -7.5648061    818.22306  0.018043201  0.017566057         3909 
 3780000   0.64134024   -7.5832093    818.01373  0.018033812  0.017559819         3920 
 3781000   0.65625684   -7.5679445    817.40423  0.018015609  0.017553582         3913 
 3782000   0.65272163   -7.5755193    815.87547  0.017977161  0.017547344         3920 
 3783000   0.65545178   -7.5719451     816.7032  0.017990642  0.017541113         3928 
 3784000   0.64123117   -7.5696452    817.38958  0.018001004  0.017534883         3927 
 3785000   0.64943336   -7.5863366     818.2755  0.018015753  0.017528651         3916 
 3786000   0.65447118   -7.5752263     818.2559  0.018010563  0.017522427         3917 
 3787000   0.65007466   -7.5800284    817.15682  0.017981622  0.017516199         3917 
 3788000   0.64259474    -7.577286     817.7958  0.017990932  0.017509972         3919 
 3789000   0.63899539   -7.5606834    817.55014  0.017980781  0.017503752         3910 
 3790000   0.64407748    -7.579126    817.16549  0.017967579  0.017497528         3904 
 3791000   0.65008316    -7.565997    818.26163  0.017986935   0.01749131         3922 
 3792000   0.63722171   -7.5722736    817.72301  0.017970354  0.017485095         3921 
 3793000   0.65416608   -7.5930003    815.02279  0.017906292   0.01747888         3917 
 3794000   0.65189706   -7.5826869    817.15496  0.017948404  0.017472669         3920 
 3795000   0.65016067   -7.5850774    817.37758  0.017948563   0.01746646         3926 
 3796000   0.63617061   -7.5734305    816.59207  0.017926591  0.017460255         3922 
 3797000   0.65871065   -7.5854231    816.47393  0.017919277  0.017454059         3912 
 3798000   0.64775057   -7.5700448     817.2656  0.017931929  0.017447862         3901 
 3799000   0.63399905   -7.5913041    817.32493   0.01792851  0.017441665         3915 
 3800000   0.63741147   -7.5982338    818.05614  0.017939828  0.017435473         3912 
 3801000   0.63905287   -7.5675305    816.70626  0.017905513   0.01742928         3921 
 3802000   0.63263245   -7.5988778    818.28414  0.017935388  0.017423089         3926 
 3803000   0.64781872   -7.5918471    817.42475   0.01791184  0.017416899         3902 
 3804000   0.65410717   -7.5942368    815.54423  0.017865936  0.017410711         3922 
 3805000    0.6425209   -7.5766498    817.09029  0.017895101  0.017404528         3908 
 3806000   0.64925257   -7.5923203    817.75741  0.017905005  0.017398343         3939 
 3807000   0.65662835   -7.5764165    816.27271  0.017867803   0.01739216         3929 
 3808000   0.63822834   -7.5720409    815.70794  0.017850752  0.017385975         3930 
 3809000   0.64699964   -7.5954134    816.93045  0.017872811  0.017379797         3921 
 3810000   0.62576046    -7.579678    818.14319  0.017894646  0.017373621         3926 
 3811000   0.62745171   -7.5861322    815.70549  0.017836646  0.017367443         3916 
 3812000   0.64966254   -7.5843943     816.3302  0.017845623  0.017361274         3912 
 3813000   0.64848392   -7.5899903     816.5746  0.017846285  0.017355109         3922 
 3814000   0.63817422   -7.5964804    817.50872  0.017862015  0.017348941         3905 
 3815000   0.62224349   -7.5799243    816.76544  0.017841097  0.017342774         3936 
 3816000   0.64184888   -7.5960113     816.4598  0.017829748  0.017336613         3895 
 3817000   0.65701253   -7.5859818    817.35824  0.017844691  0.017330449         3928 
 3818000    0.6359892   -7.5851175          817  0.017832198  0.017324291         3924 
 3819000    0.6503914    -7.600866    818.64835  0.017863497  0.017318134         3917 
 3820000   0.64004874   -7.5986365    817.94028  0.017843374  0.017311977         3926 
 3821000   0.65017183   -7.5920205     817.1658  0.017821814  0.017305826         3923 
 3822000   0.63867837   -7.5737365    818.64175  0.017849332  0.017299681         3912 
 3823000    0.6178671   -7.5779268     818.1095  0.017833061  0.017293535         3909 
 3824000   0.65996627   -7.5933401    817.43738   0.01781375  0.017287389         3922 
 3825000   0.65370985   -7.5973922    815.95843  0.017776872  0.017281245         3912 
 3826000   0.64858105   -7.5930463      817.276  0.017800924  0.017275101         3921 
 3827000    0.6417069   -7.5801483    817.56366  0.017802536  0.017268961         3919 
 3828000   0.64742096   -7.5734618     817.7862   0.01780273   0.01726283         3919 
 3829000   0.64097633   -7.5835773    817.86664  0.017799831  0.017256701         3922 
 3830000   0.64349112    -7.557899    817.69764  0.017791506   0.01725057         3914 
 3831000   0.64322301   -7.6127778    816.85089  0.017768444  0.017244445         3920 
 3832000   0.63672825   -7.5727485    816.55757  0.017757428  0.017238318         3920 
 3833000   0.64536255   -7.5917054    817.69969  0.017777626  0.017232195         3903 
 3834000    0.6534251   -7.5838741    817.11048  0.017760183  0.017226073         3920 
 3835000   0.63137124   -7.5984531    816.96516  0.017752394  0.017219949         3918 
 3836000   0.62790698   -7.5794199     817.6341  0.017762298  0.017213825         3916 
 3837000   0.64056601   -7.5755963    815.52498  0.017711862  0.017207718         3927 
 3838000   0.65797419     -7.58408    816.89468  0.017736987  0.017201611         3924 
 3839000   0.63895536   -7.5749018    817.66346  0.017749055  0.017195498         3921 
 3840000   0.62050293   -7.5819696    816.54386  0.017720136  0.017189387         3899 
 3841000   0.63951844   -7.5926408     816.9393  0.017724102   0.01718328         3914 
 3842000   0.64013614   -7.5946946    816.04349  0.017700058  0.017177181         3923 
 3843000   0.64519222   -7.5794405    815.72333   0.01768851  0.017171082         3929 
 3844000   0.64596912   -7.6006759    817.41447   0.01772057  0.017164985         3902 
 3845000    0.6527476   -7.5959527    818.15234  0.017731954   0.01715889         3929 
 3846000   0.63451887   -7.5773745    817.19427  0.017706584  0.017152795         3919 
 3847000   0.63939435    -7.586412    817.13635  0.017700727  0.017146702         3921 
 3848000   0.62366588   -7.5984152    818.05487  0.017716019  0.017140613         3897 
 3849000   0.64072723   -7.5896918    817.82724  0.017706487  0.017134528         3920 
 3850000   0.62376318   -7.5767172    817.13478    0.0176869  0.017128443         3910 
 3851000   0.64325122   -7.5848359    817.78812  0.017696445  0.017122356         3913 
 3852000    0.6284412   -7.5865533    816.56689  0.017665431  0.017116276         3922 
 3853000   0.63357541   -7.5797722    818.00133  0.017691871  0.017110187         3925 
 3854000   0.63218317   -7.5910955    816.56529  0.017656229  0.017104106         3925 
 3855000   0.63360127   -7.5727076    815.28949   0.01762407  0.017098031         3907 
 3856000   0.62810745   -7.5677035    816.90749  0.017654467  0.017091955         3903 
 3857000   0.64308202   -7.6010964    817.11462  0.017654365  0.017085881         3922 
 3858000   0.63458296   -7.5969322    816.76848  0.017642312   0.01707981         3910 
 3859000   0.63915584   -7.5975723    815.29427  0.017605905  0.017073739         3924 
 3860000   0.62958021   -7.5863974    815.56778  0.017607249  0.017067676         3922 
 3861000   0.62315682   -7.5909173    817.74419  0.017649663  0.017061608         3920 
 3862000   0.62939681   -7.5884194    816.87353  0.017626306   0.01705554         3910 
 3863000   0.63171907   -7.5624033    816.77222  0.017619558  0.017049483         3916 
 3864000   0.63885371   -7.5855286    816.13928  0.017601347  0.017043423         3926 
 3865000   0.62134186   -7.5883705    816.71518  0.017609211  0.017037367         3926 
 3866000   0.62019353     -7.58332    816.43999  0.017598724  0.017031315         3912 
 3867000   0.62971224   -7.5817362    815.49751  0.017573862  0.017025265         3919 
 3868000   0.62886605   -7.5978926    816.57235  0.017592476  0.017019222         3925 
 3869000     0.638054   -7.5707265    816.39846  0.017584183  0.017013181         3927 
 3870000   0.62139413   -7.5925692    817.06687  0.017594032  0.017007139         3923 
 3871000   0.63201426   -7.6143461    816.76198  0.017582924  0.017001103         3912 
 3872000   0.62876512    -7.582936    816.27572  0.017567918   0.01699507         3913 
 3873000   0.62406144   -7.5881655    817.05675  0.017580186  0.016989034         3930 
 3874000   0.63509631   -7.5954311    816.92124  0.017572734     0.016983         3909 
 3875000    0.6324323   -7.5915963     815.9634    0.0175476  0.016976969         3932 
 3876000   0.62460689   -7.6000866     815.1314  0.017525185  0.016970944         3929 
 3877000   0.61658887   -7.5777735    816.58094  0.017551821  0.016964917         3913 
 3878000   0.63445569   -7.5903706    817.42707  0.017565478  0.016958896         3911 
 3879000   0.62251899    -7.589828    816.47461  0.017540487  0.016952879         3921 
 3880000   0.63439043    -7.598522     816.3984   0.01753433  0.016946863         3914 
 3881000   0.62646723   -7.5994789    817.17784  0.017546548  0.016940847         3918 
 3882000    0.6278592   -7.5911111    816.64864  0.017530668   0.01693484         3911 
 3883000   0.63973101   -7.5905223    816.63305  0.017525819  0.016928826         3931 
 3884000   0.62518916    -7.597111    816.30383  0.017514243  0.016922811         3929 
 3885000   0.62255562   -7.6010768    816.00942   0.01750342  0.016916796         3921 
 3886000    0.6397201   -7.5868111    817.25666  0.017525662   0.01691079         3909 
 3887000   0.63421499   -7.6038748    816.58605  0.017506776  0.016904786         3923 
 3888000   0.63346806   -7.6129431    816.76937  0.017506202  0.016898784         3914 
 3889000   0.63086739   -7.5959551    816.91056  0.017504726  0.016892784         3918 
 3890000   0.62321332   -7.5967351    817.13981  0.017505137  0.016886783         3928 
 3891000   0.62854833   -7.5976108    814.86611  0.017451943  0.016880788         3908 
 3892000   0.63303169   -7.5872954    816.75708  0.017487947  0.016874797         3935 
 3893000   0.63008557   -7.5865939    816.10588  0.017469515   0.01686881         3929 
 3894000   0.63213869   -7.5926801    816.50849  0.017473645  0.016862819         3914 
 3895000   0.62869772   -7.5799535    815.46241  0.017446778   0.01685683         3929 
 3896000   0.61634609   -7.5960064    816.51907  0.017464901  0.016850849         3930 
 3897000    0.6174152   -7.5919407    816.79975  0.017466422  0.016844866         3923 
 3898000   0.63498581   -7.6130706    815.30717  0.017430032  0.016838883         3912 
 3899000   0.63648419   -7.5976869    816.47927  0.017450613  0.016832903         3915 
 3900000   0.64038267   -7.6049814    815.18381  0.017418457  0.016826927         3934 
 3901000   0.62057867    -7.610779    817.17017  0.017456425  0.016820952         3913 
 3902000   0.62952628    -7.602281    816.58601  0.017439476  0.016814984         3919 
 3903000   0.62739224   -7.5958864    815.85618  0.017419425   0.01680901         3928 
 3904000   0.62650819    -7.601282    814.63453  0.017388886  0.016803047         3920 
 3905000   0.62354514   -7.5925229    816.67673  0.017428014  0.016797085         3932 
 3906000   0.61753253   -7.5998927    817.50523  0.017441228  0.016791128         3907 
 3907000   0.62703587   -7.5902394    818.03889  0.017448146  0.016785171         3929 
 3908000   0.63756013   -7.6131096     815.6485  0.017392709  0.016779216         3911 
 3909000    0.6215868   -7.6023147     815.3074  0.017380988   0.01677327         3933 
 3910000   0.62627342    -7.617421    814.29925  0.017355057  0.016767318         3918 
 3911000   0.62778396    -7.603101    815.40103  0.017374095  0.016761366         3920 
 3912000    0.6136002    -7.603874    816.57986  0.017394765  0.016755419         3910 
 3913000   0.64029919   -7.5944517    817.21037  0.017403748  0.016749474         3915 
 3914000   0.62887778    -7.605127    816.31086  0.017380149  0.016743531         3919 
 3915000   0.63085543   -7.5995678    816.66761  0.017383304  0.016737591         3901 
 3916000   0.63019231   -7.6136781    816.61514  0.017377748  0.016731653         3915 
 3917000   0.63014247   -7.6154778    816.17472  0.017363942  0.016725716         3910 
 3918000   0.63142259    -7.584715    815.63339  0.017347996  0.016719783         3929 
 3919000   0.62099908   -7.6126415     816.5341  0.017362722  0.016713852         3929 
 3920000   0.63124205   -7.5871984    815.12367  0.017328309  0.016707924         3910 
 3921000   0.62518264   -7.5955316    817.32729  0.017370724  0.016701993         3927 
 3922000   0.62594582   -7.6128175    816.48955  0.017348495  0.016696073         3922 
 3923000   0.62142426   -7.6075362    816.20089  0.017337941  0.016690145         3919 
 3924000   0.63893286   -7.6029808    816.13459  0.017332114  0.016684231         3925 
 3925000   0.61486977   -7.6152118    817.67571  0.017360419  0.016678314         3909 
 3926000   0.64252137   -7.5975614    816.21654  0.017325024  0.016672397         3918 
 3927000    0.6263194   -7.6014676    817.00404  0.017337324  0.016666479         3925 
 3928000   0.62912893   -7.6177088    816.22294  0.017316339  0.016660565         3920 
 3929000    0.6339523   -7.6150406    816.08556  0.017309018  0.016654654         3920 
 3930000   0.61832521   -7.6006428    816.46817  0.017312726  0.016648745         3926 
 3931000   0.62540903   -7.6096755    816.64961  0.017312168  0.016642841         3937 
 3932000   0.62890699   -7.5983766    815.67499   0.01728711  0.016636934         3933 
 3933000   0.61998252   -7.5866365    816.10196  0.017291761  0.016631029         3929 
 3934000   0.62054805   -7.6044486     816.6097  0.017298121  0.016625129         3925 
 3935000   0.62336623   -7.6129598    815.22156  0.017264328  0.016619232         3923 
 3936000   0.63140148   -7.6172423    815.89569  0.017274214  0.016613343         3939 
 3937000   0.62170531   -7.6153598    815.99733  0.017271978  0.016607448         3920 
 3938000   0.62404351   -7.5878995    816.61884  0.017280744  0.016601565         3918 
 3939000    0.6237265   -7.6012398    815.29307  0.017248309  0.016595673         3928 
 3940000   0.62400924   -7.6071771    815.65646  0.017251617  0.016589783         3905 
 3941000   0.62022284   -7.6141565    816.10447  0.017256713  0.016583899         3934 
 3942000   0.62962332   -7.6264296    815.11669  0.017231454  0.016578017         3920 
 3943000   0.61993498   -7.6167072    814.73876  0.017219096  0.016572132         3926 
 3944000   0.63709173   -7.5818311    815.42973   0.01722933   0.01656625         3930 
 3945000   0.61687436   -7.6047079    815.56737   0.01722787  0.016560374         3914 
 3946000    0.6253241   -7.6327378    815.96826   0.01723197  0.016554494         3915 
 3947000   0.61542801   -7.6003527    815.04359  0.017208082  0.016548621         3921 
 3948000   0.62499068    -7.606928    815.62981  0.017216097  0.016542743         3921 
 3949000   0.61783047   -7.6014758    815.13119  0.017201215  0.016536872         3930 
 3950000   0.63543715   -7.6363007    815.82412  0.017211479  0.016531009         3917 
 3951000   0.61045056    -7.626123    815.95527  0.017209889  0.016525144         3915 
 3952000   0.62696919   -7.6157023     815.4542  0.017194969  0.016519284         3922 
 3953000   0.61797819    -7.616828    816.50348  0.017212739  0.016513421         3919 
 3954000   0.61337259   -7.5970687    816.75893  0.017213769  0.016507564         3907 
 3955000   0.61943288   -7.6095778    815.44046  0.017181636  0.016501709         3905 
 3956000   0.62902626   -7.6062136    815.73793  0.017183559  0.016495859         3927 
 3957000   0.61842444   -7.6126654    816.39389  0.017193031  0.016490004         3914 
 3958000   0.61506432   -7.6206675    814.45349  0.017147833  0.016484151         3916 
 3959000   0.60841528   -7.6096992    814.28989  0.017140058  0.016478307         3913 
 3960000   0.61905617   -7.6203894    816.41189  0.017180385  0.016472458         3909 
 3961000   0.63238067   -7.6236872    814.49014  0.017135617  0.016466616         3921 
 3962000    0.6022202   -7.6333795    815.42189   0.01715089  0.016460778         3929 
 3963000    0.6142702   -7.6093813    815.65267  0.017151414  0.016454943         3918 
 3964000   0.63492332   -7.5855371    814.31202  0.017118904  0.016449111         3914 
 3965000   0.61961613   -7.6124722    815.71781  0.017144132  0.016443278         3914 
 3966000   0.61486348   -7.6081994     817.7329   0.01718215  0.016437444         3912 
 3967000   0.61555528   -7.6214291    816.34401  0.017148643  0.016431614         3921 
 3968000   0.62397335   -7.6132202    816.31136  0.017143636  0.016425795         3912 
 3969000   0.61944902   -7.6267853    815.16254  0.017115196   0.01641997         3914 
 3970000   0.60984049   -7.6174485    815.47471  0.017117437  0.016414152         3920 
 3971000   0.60223689   -7.6015437     815.6208  0.017116192  0.016408332         3921 
 3972000   0.62710808   -7.6151418    815.26349  0.017104387  0.016402511         3919 
 3973000   0.61604468   -7.6206828    814.98727  0.017094288  0.016396701         3918 
 3974000   0.60299218   -7.6097444    815.64189  0.017103714  0.016390885         3914 
 3975000   0.61427847   -7.6255576    816.23093  0.017111759  0.016385068         3935 
 3976000   0.62706586   -7.6336931    814.28711  0.017066715  0.016379258         3921 
 3977000   0.61229297   -7.6048429    814.74938   0.01707211  0.016373449         3919 
 3978000   0.62256592   -7.5984618     816.3473  0.017101293  0.016367648         3915 
 3979000   0.61008013   -7.6263045    814.94646  0.017067656  0.016361845         3919 
 3980000   0.61950419   -7.6215332    813.25555  0.017027964  0.016356051         3930 
 3981000   0.61652862   -7.6231375    814.84502  0.017056958  0.016350254         3914 
 3982000   0.61965161   -7.5976915    817.01643  0.017098117  0.016344462         3927 
 3983000     0.615204    -7.631227    816.35944  0.017080079  0.016338668         3930 
 3984000   0.61781271   -7.5981695    814.14498  0.017029472  0.016332884         3916 
 3985000   0.61859346    -7.622018    816.14525  0.017067027  0.016327095         3910 
 3986000   0.61207046   -7.6233495     815.5416  0.017050125  0.016321308         3931 
 3987000   0.61163959   -7.6374498    815.12566  0.017037155  0.016315525         3925 
 3988000   0.63068984   -7.6353556    815.61309  0.017043069  0.016309746         3925 
 3989000   0.61867109   -7.6170003    815.38115  0.017033951   0.01630397         3921 
 3990000   0.61229382   -7.5982036     814.7518  0.017016537    0.0162982         3887 
 3991000   0.60824998   -7.6042485    815.38482  0.017025491  0.016292427         3919 
 3992000   0.61868407   -7.6369122    815.28772  0.017019199  0.016286657         3924 
 3993000   0.62040969   -7.6217412    815.82715  0.017026195  0.016280887         3917 
 3994000   0.60746594   -7.6061815    814.35688  0.016991255  0.016275128         3930 
 3995000   0.60884841    -7.618118    816.31629  0.017027874  0.016269362         3917 
 3996000   0.61288482   -7.6171011    814.67923  0.016989473  0.016263598         3920 
 3997000   0.59997561   -7.6332148    814.85011  0.016988786  0.016257837         3919 
 3998000   0.60946654   -7.6305047    815.95332  0.017007531  0.016252078         3919 
 3999000   0.61253173   -7.6346879    816.24453  0.017009347  0.016246322         3916 
 4000000   0.62315154   -7.6178323    815.41211  0.016987752  0.016240566         3921 
 4001000   0.61482065   -7.6448993    815.91971  0.016994079  0.016234807         3929 
 4002000   0.61010279   -7.6240237    814.12235  0.016952406  0.016229055         3916 
 4003000   0.61357597   -7.6213845    815.65772  0.016980134  0.016223308         3918 
 4004000   0.61382348   -7.6177648    815.63024  0.016975321  0.016217561         3929 
 4005000   0.60725986   -7.6107684    813.34976  0.016923632  0.016211817         3926 
 4006000   0.62316864   -7.6377299    814.74825  0.016948499  0.016206079         3924 
 4007000   0.59750724   -7.6165632    814.89247  0.016947269  0.016200343         3915 
 4008000   0.60871538   -7.6225719     815.2843  0.016951187  0.016194604         3919 
 4009000   0.61185231   -7.6307433    814.21258  0.016924681  0.016188876         3916 
 4010000   0.61778443   -7.6400695    814.91597  0.016935078   0.01618315         3917 
 4011000   0.61974412   -7.6244633    814.56944  0.016923657  0.016177429         3921 
 4012000   0.60161008   -7.6095955    812.72888  0.016881208  0.016171705         3910 
 4013000   0.61095404   -7.6327506    814.34669  0.016910597   0.01616598         3923 
 4014000   0.60537863   -7.6342822    815.13215   0.01692269  0.016160256         3924 
 4015000   0.61720771   -7.6382453    815.66653  0.016929567  0.016154539         3917 
 4016000      0.59871   -7.6324552    814.11154  0.016893085  0.016148816         3927 
 4017000   0.61589473    -7.630457    815.56185  0.016918966  0.016143102         3917 
 4018000   0.60342014   -7.6509553    817.20401  0.016948814  0.016137382         3907 
 4019000   0.61932248    -7.615323    815.22721  0.016903608  0.016131669         3912 
 4020000    0.6286217   -7.6196457    815.12772  0.016897341  0.016125961         3931 
 4021000   0.60356496   -7.6329006    816.21431  0.016915658  0.016120253         3904 
 4022000   0.59212399   -7.6275189    814.74156  0.016880937  0.016114551         3917 
 4023000   0.60726661   -7.6353704    814.80344  0.016878023  0.016108848         3924 
 4024000   0.61677839   -7.6328462    815.34399  0.016885023  0.016103146         3923 
 4025000   0.60220094   -7.6239405    815.08627  0.016875492  0.016097449         3917 
 4026000   0.61253894   -7.6469211    815.00414    0.0168696  0.016091754         3911 
 4027000   0.60065124    -7.630225    813.88325  0.016842216  0.016086061         3924 
 4028000   0.61703493   -7.6310746    815.29532  0.016867248  0.016080364         3912 
 4029000   0.59548313   -7.6267496    814.27115  0.016841879  0.016074669         3931 
 4030000   0.60018007    -7.633324    814.61978  0.016844909  0.016068982         3918 
 4031000   0.61299981   -7.6424053    815.38415  0.016856532  0.016063298         3929 
 4032000   0.60043822   -7.6280672    815.44375  0.016853583  0.016057613         3924 
 4033000   0.61233639   -7.6317568    815.85261  0.016857852  0.016051932         3913 
 4034000   0.61491682   -7.6249604    815.71409  0.016850812  0.016046255         3937 
 4035000   0.60988187   -7.6221819    813.80553  0.016807219  0.016040583         3912 
 4036000   0.60798101   -7.6322106    814.37635   0.01681484  0.016034906         3932 
 4037000   0.61225295    -7.635544    815.37474  0.016831284  0.016029233         3924 
 4038000   0.61085804   -7.6188887    815.73125  0.016834474  0.016023562         3915 
 4039000   0.61991868   -7.6464342    814.92763  0.016813725  0.016017893         3914 
 4040000   0.59984455   -7.6207641    815.21697  0.016815531  0.016012225         3917 
 4041000   0.60216875   -7.6337243    814.66404  0.016799968  0.016006563         3918 
 4042000   0.60596351   -7.6193589    815.20932  0.016807053    0.0160009         3922 
 4043000   0.61532415   -7.6205137    814.93325  0.016797206  0.015995243         3919 
 4044000   0.60947921   -7.6285494    815.12935  0.016797094  0.015989584         3920 
 4045000    0.6083617   -7.6509898    814.75204  0.016785168  0.015983927         3925 
 4046000   0.61134192   -7.6337612    814.10863  0.016767767  0.015978276         3923 
 4047000   0.61619165   -7.6195524    814.90705  0.016780064  0.015972624         3919 
 4048000   0.57928844   -7.6236443    814.86027  0.016774956  0.015966977         3913 
 4049000   0.61580711   -7.6273086    815.41039  0.016782135  0.015961332         3908 
 4050000   0.59426115   -7.6401782    815.16526  0.016772948  0.015955685         3915 
 4051000    0.6004329   -7.6350106    814.65156   0.01675824  0.015950043         3922 
 4052000   0.60351605   -7.6310568    813.09515  0.016722095  0.015944406         3926 
 4053000   0.59609393   -7.6341298    814.02961  0.016737183   0.01593877         3912 
 4054000   0.59723362   -7.6348328    815.26058  0.016758358  0.015933133         3908 
 4055000   0.60649117   -7.6139159    815.36679  0.016756408  0.015927501         3910 
 4056000   0.60504266   -7.6226918    815.11381  0.016747079   0.01592187         3924 
 4057000   0.61321802   -7.6270412    814.20351  0.016724253  0.015916239         3920 
 4058000   0.60630296   -7.6226789    813.45093  0.016704677  0.015910614         3918 
 4059000     0.599166   -7.6490458    815.04786  0.016733347  0.015904989         3932 
 4060000    0.6046625   -7.6328707    814.83537  0.016724864  0.015899365         3909 
 4061000   0.59844448   -7.6251025    814.07702  0.016705184  0.015893742         3914 
 4062000   0.61316607   -7.6240569    814.90985  0.016718157  0.015888125         3931 
 4063000    0.6109965   -7.6251484     814.7364  0.016710485  0.015882512         3915 
 4064000   0.60224897   -7.6416684    813.46335  0.016680269  0.015876894         3932 
 4065000    0.5951494   -7.6395418    813.51614  0.016677248  0.015871284         3914 
 4066000   0.60190437   -7.6333945    814.60526  0.016695468  0.015865679         3923 
 4067000   0.59818378   -7.6160534    814.21663  0.016683399  0.015860075         3919 
 4068000   0.59875722   -7.6284339     813.9079  0.016672974  0.015854473         3925 
 4069000   0.60444611   -7.6375423    814.03849  0.016671551  0.015848875         3916 
 4070000   0.59738644   -7.6304074    813.93562  0.016665349  0.015843278         3919 
 4071000   0.59987452   -7.6252357    813.85057  0.016659514  0.015837676         3897 
 4072000   0.60127261   -7.6616221    813.61879  0.016650679   0.01583208         3929 
 4073000   0.60189954   -7.6409513     814.8443  0.016671665  0.015826483         3923 
 4074000   0.61340087   -7.6484077    815.04223  0.016671621  0.015820888         3944 
 4075000   0.60284515   -7.6483454     814.8421  0.016663438  0.015815297         3911 
 4076000   0.59663632   -7.6314127    812.84485  0.016618516  0.015809709         3917 
 4077000   0.59645573   -7.6383782    814.25497  0.016643262  0.015804126         3922 
 4078000   0.60133283   -7.6550545    813.65006   0.01662682  0.015798545         3908 
 4079000   0.59400312   -7.6294207    816.04993  0.016671773   0.01579296         3929 
 4080000   0.59487082   -7.6394716    814.75499  0.016641238  0.015787385         3923 
 4081000   0.58919372   -7.6457728    813.92879  0.016620289  0.015781808         3915 
 4082000    0.6011301   -7.6615113    814.85659  0.016635158  0.015776233         3927 
 4083000   0.59319219   -7.6466045    813.91051  0.016611775  0.015770664         3922 
 4084000   0.59210278   -7.6396238    813.95944  0.016608706  0.015765094         3919 
 4085000   0.60008047   -7.6336501    814.76903  0.016621155  0.015759528         3926 
 4086000   0.61364254   -7.6287115    814.03268   0.01660207  0.015753961         3920 
 4087000   0.61000139   -7.6442379    812.82839  0.016573452  0.015748399         3927 
 4088000   0.58196419   -7.6394732    813.74699  0.016588124  0.015742838         3919 
 4089000   0.60196269   -7.6486083    814.97619  0.016609118  0.015737284         3909 
 4090000   0.60136737   -7.6229763    812.93477  0.016563463  0.015731726         3906 
 4091000   0.60493986   -7.6390426    814.36931  0.016588636  0.015726176         3938 
 4092000    0.6056906   -7.6561849     813.8783  0.016574582   0.01572062         3926 
 4093000   0.60547825   -7.6264233    813.50123  0.016562856  0.015715073         3916 
 4094000    0.5961961   -7.6490957    814.01397  0.016569247  0.015709524         3922 
 4095000   0.60385329   -7.6385187    813.45093  0.016553743  0.015703984         3916 
 4096000   0.59122503    -7.652111    815.01234  0.016581469  0.015698441         3928 
 4097000   0.60196708   -7.6659906    813.39253  0.016544474  0.015692897         3918 
 4098000   0.59437042   -7.6533018    814.29208  0.016558729  0.015687362         3914 
 4099000   0.59271333    -7.651428    814.11591  0.016551108  0.015681827         3930 
 4100000   0.59797401   -7.6433031     813.7359  0.016539348  0.015676297         3914 
 4101000    0.5935783   -7.6364693    814.10694  0.016542854  0.015670765         3916 
 4102000    0.5932473   -7.6426886    813.62367  0.016529004  0.015665238         3917 
 4103000   0.58960431   -7.6405227    814.66606  0.016546146  0.015659718         3924 
 4104000    0.5866246   -7.6283001    814.85052   0.01654586  0.015654196         3913 
 4105000   0.59029899   -7.6278487    814.21558   0.01652894  0.015648674         3933 
 4106000    0.5964134   -7.6509047    814.62167  0.016533156  0.015643145         3925 
 4107000   0.60790073   -7.6356035    813.32179  0.016502755  0.015637632         3919 
 4108000   0.59673496   -7.6450417    813.22499  0.016496774  0.015632115         3920 
 4109000   0.58378275    -7.654695    814.45639  0.016517733  0.015626602         3918 
 4110000   0.58521001   -7.6516774    813.93288    0.0165031  0.015621092         3932 
 4111000   0.58962157   -7.6382454     814.3755  0.016508058  0.015615579         3921 
 4112000   0.60691321   -7.6430827    814.08892  0.016498235   0.01561007         3929 
 4113000   0.59364141   -7.6297843     813.8431  0.016489243  0.015604565         3924 
 4114000   0.59287342   -7.6363224    814.98959  0.016508459  0.015599065         3926 
 4115000   0.60470146   -7.6381325    814.66219  0.016497817  0.015593565         3922 
 4116000   0.59414068   -7.6429322    814.51615  0.016490852  0.015588069         3919 
 4117000   0.60770039   -7.6318596    813.53189  0.016466924  0.015582571         3922 
 4118000   0.59146051   -7.6653161    813.62908  0.016464892  0.015577077         3932 
 4119000   0.58202943   -7.6521652    814.41042  0.016476702  0.015571587         3928 
 4120000   0.59396738   -7.6423153    814.94063  0.016483427    0.0155661         3927 
 4121000   0.58866084   -7.6531674    814.31859  0.016466848  0.015560612         3920 
 4122000   0.59265176   -7.6506421    814.05117  0.016457447  0.015555127         3905 
 4123000   0.59301048   -7.6866003    814.73261  0.016467229   0.01554965         3928 
 4124000   0.58446298   -7.6483048    814.67237  0.016462019  0.015544168         3918 
 4125000   0.59157941   -7.6588088    813.32702  0.016430849  0.015538691         3924 
 4126000   0.58750473   -7.6662302    813.37503  0.016427836  0.015533216         3920 
 4127000   0.58759913   -7.6467639    813.99526   0.01643638  0.015527744         3912 
 4128000   0.58305756    -7.662317    814.04437  0.016433389  0.015522275         3935 
 4129000   0.60088683   -7.6327407    814.47499    0.0164381  0.015516804         3933 
 4130000   0.58957274   -7.6611274    813.68725  0.016418225  0.015511337         3914 
 4131000   0.59035591     -7.65286    813.84783   0.01641749  0.015505868         3917 
 4132000   0.58216718   -7.6396576    812.92609  0.016394928  0.015500407         3922 
 4133000   0.59011937   -7.6504358    813.90341  0.016410666  0.015494946         3927 
 4134000   0.57714174    -7.646527    813.53117  0.016399193  0.015489488         3924 
 4135000   0.58519625   -7.6344768    813.89702    0.0164026  0.015484033         3921 
 4136000   0.59211568   -7.6431001    813.71415   0.01639495  0.015478578         3920 
 4137000   0.58136195   -7.6766971    814.60026  0.016408836  0.015473124         3922 
 4138000    0.5926388   -7.6432117    813.57889  0.016384302  0.015467674         3908 
 4139000   0.58742546   -7.6549147    814.17135  0.016392272   0.01546222         3919 
 4140000   0.59193898   -7.6344184     813.2002  0.016368764  0.015456776         3927 
 4141000   0.59442542   -7.6616228    813.05424  0.016361874  0.015451334         3903 
 4142000   0.59467647   -7.6545991    813.78227  0.016372571  0.015445892         3927 
 4143000   0.59686932     -7.64133    812.22569   0.01633731  0.015440457         3912 
 4144000    0.5774443   -7.6499072    812.06744  0.016330185  0.015435021         3918 
 4145000   0.58754923   -7.6572989    814.75529  0.016380283  0.015429588         3922 
 4146000   0.59402412   -7.6614446    813.79277  0.016356986  0.015424156         3918 
 4147000   0.57582169   -7.6533118    813.87091  0.016354612  0.015418733         3923 
 4148000   0.58999333   -7.6512139    814.22826  0.016357848  0.015413304         3921 
 4149000   0.59434879   -7.6590104    814.34085  0.016356167  0.015407873         3919 
 4150000   0.57631737   -7.6586346    814.21901  0.016349779  0.015402448         3921 
 4151000    0.5961052   -7.6607345    814.39972  0.016349468  0.015397025         3918 
 4152000   0.59013041   -7.6592396    813.45775  0.016326625  0.015391608         3925 
 4153000   0.58060846   -7.6757264    814.16639  0.016336913  0.015386191         3914 
 4154000   0.58556935   -7.6579675    814.66817  0.016343046  0.015380774         3932 
 4155000   0.58604563   -7.6531642    814.50923  0.016335925  0.015375364         3917 
 4156000   0.59093963   -7.6461469    813.76544  0.016317081  0.015369948         3921 
 4157000   0.57758558   -7.6533712    813.03843  0.016298581  0.015364546         3926 
 4158000   0.58583097   -7.6489197    813.72789  0.016308479  0.015359144         3925 
 4159000   0.58704408   -7.6501963    813.60959  0.016302188   0.01535374         3924 
 4160000   0.58778988   -7.6553729     813.6895   0.01629987  0.015348335         3930 
 4161000   0.58345928   -7.6526235     812.9844  0.016281831  0.015342932         3918 
 4162000   0.58815847   -7.6768916    813.72139  0.016292676  0.015337533         3919 
 4163000   0.58036042   -7.6537465     814.1556  0.016297454  0.015332142         3914 
 4164000   0.57414265   -7.6525165    814.58554  0.016302144  0.015326752         3928 
 4165000   0.58896677   -7.6624334    813.41948    0.0162749  0.015321365         3931 
 4166000   0.57417601   -7.6588176    814.36815  0.016289969  0.015315977         3916 
 4167000   0.56512536    -7.678978    813.31039  0.016264907  0.015310592         3919 
 4168000   0.58778072   -7.6489884    813.17217  0.016258241  0.015305209         3920 
 4169000    0.5711723   -7.6630816    813.43958  0.016259686  0.015299823         3933 
 4170000   0.57461511   -7.6584556    813.33328  0.016253663  0.015294443         3927 
 4171000   0.58083574   -7.6648329    812.85719  0.016240254  0.015289067         3932 
 4172000   0.58031572   -7.6651398    814.03202  0.016259828  0.015283689         3923 
 4173000   0.58631113   -7.6617024    812.22194  0.016219785  0.015278315         3920 
 4174000   0.58733405   -7.6590425    813.25565  0.016236537  0.015272944         3927 
 4175000   0.58020701   -7.6603597    813.68168  0.016241151  0.015267576         3924 
 4176000   0.58189075   -7.6726521    813.23959   0.01622844  0.015262215         3930 
 4177000   0.58410097    -7.645239    811.76159  0.016195068  0.015256847         3912 
 4178000   0.58656282    -7.661843    813.06415  0.016217172  0.015251484         3927 
 4179000   0.58514365   -7.6618415    812.66362  0.016205305   0.01524612         3927 
 4180000   0.57337897   -7.6625861    812.51538  0.016198472  0.015240763         3926 
 4181000   0.57717914   -7.6524108     812.5427  0.016195143  0.015235408         3926 
 4182000    0.5886259   -7.6630536    813.22671    0.0162049  0.015230057         3905 
 4183000   0.59828617   -7.6794913     813.7428  0.016211308  0.015224701         3930 
 4184000   0.58285671   -7.6677533    811.77014  0.016168143  0.015219352         3929 
 4185000   0.59319988   -7.6532999    813.85698  0.016205834  0.015214005         3922 
 4186000   0.57946063   -7.6575385    812.57529  0.016176447  0.015208658         3917 
 4187000   0.58295835   -7.6548673      813.603  0.016193038  0.015203317         3925 
 4188000   0.56765082   -7.6614964    814.78533  0.016212698  0.015197979         3922 
 4189000    0.5881756   -7.6655039    813.61853  0.016185616  0.015192639         3922 
 4190000   0.58910701   -7.6686423    812.10193   0.01615159  0.015187305         3925 
 4191000   0.57545217   -7.6676141    812.49805  0.016155612  0.015181968         3930 
 4192000   0.58375152   -7.6591545    812.93404  0.016160425  0.015176637         3930 
 4193000   0.57514954   -7.6571299    812.37808  0.016145522  0.015171309         3917 
 4194000   0.57989355   -7.6730383    813.07053  0.016155431  0.015165983         3917 
 4195000    0.5849042   -7.6470383    813.46508  0.016159418  0.015160659         3929 
 4196000   0.58230765   -7.6799531     814.6967  0.016180027  0.015155339         3922 
 4197000   0.58224085   -7.6473873    814.35196  0.016169327  0.015150019         3924 
 4198000   0.58153328   -7.6777108    813.68247  0.016152185  0.015144702         3912 
 4199000   0.56595846   -7.6460383    812.78747  0.016130576  0.015139386         3924 
 4200000   0.58185364   -7.6797982    812.93848  0.016129732  0.015134069         3925 
 4201000   0.57400895    -7.661486    813.66316  0.016140267  0.015128752         3933 
 4202000   0.57448651   -7.6715835    813.22929  0.016127822  0.015123443         3923 
 4203000   0.58342612   -7.6601677    812.70215  0.016113533  0.015118134         3929 
 4204000   0.56576463   -7.6652144    813.78844  0.016131233  0.015112828         3926 
 4205000   0.57824001   -7.6697125    812.76793  0.016107173  0.015107524         3914 
 4206000   0.58007699   -7.6498792    812.40135   0.01609608  0.015102223         3923 
 4207000   0.57738171   -7.6444916    812.60562    0.0160963  0.015096921         3917 
 4208000    0.5649588   -7.6600377    813.49935  0.016110174  0.015091626         3920 
 4209000   0.56760484   -7.6495236    813.77705  0.016111845  0.015086341         3906 
 4210000   0.57792353   -7.6702849    813.05132  0.016093652  0.015081046         3916 
 4211000   0.56828986   -7.6543728     812.8107  0.016085069  0.015075761         3930 
 4212000   0.56964124   -7.6783114    813.48392  0.016094569  0.015070477         3925 
 4213000   0.58327049   -7.6640329    813.59293  0.016092905  0.015065193         3920 
 4214000   0.57201183   -7.6631701    811.32462   0.01604423  0.015059908         3915 
 4215000    0.5634033   -7.6797905    811.89516  0.016051703  0.015054623         3931 
 4216000   0.56679441   -7.6593884    812.44494  0.016058763  0.015049342         3929 
 4217000   0.58309225   -7.6686142    813.62329  0.016078241  0.015044063         3929 
 4218000   0.58069171   -7.6434416     813.5748  0.016073471  0.015038793         3919 
 4219000    0.5862158   -7.6624863    812.26342  0.016043759  0.015033521         3933 
 4220000   0.57657789   -7.6641132     815.1192  0.016096351  0.015028252         3907 
 4221000   0.57156867   -7.6837957    813.02241  0.016051141  0.015022983         3943 
 4222000   0.58341188   -7.6745103     812.2109  0.016031322  0.015017717         3923 
 4223000   0.56618193   -7.6652132    813.98415  0.016062518  0.015012454         3911 
 4224000   0.57382863   -7.6704499    812.91665  0.016037655  0.015007197         3922 
 4225000   0.57038807   -7.6626865    813.78218  0.016050931  0.015001938         3929 
 4226000    0.5859078   -7.6528698    812.51414  0.016022128   0.01499668         3927 
 4227000    0.5795629   -7.6809616    813.72673  0.016042243  0.014991423         3922 
 4228000   0.56835427   -7.6792236    813.10023    0.0160261  0.014986173         3919 
 4229000    0.5614717   -7.6507298     813.3947  0.016028114  0.014980924         3919 
 4230000   0.58462797   -7.6759689    812.93984  0.016015363  0.014975671         3929 
 4231000   0.56762306   -7.6808272    812.19506  0.015996909  0.014970428         3916 
 4232000    0.5808756   -7.6813426    812.77466  0.016004542  0.014965184         3932 
 4233000   0.57316409   -7.6807994    812.86747  0.016002588  0.014959941         3923 
 4234000   0.57843689   -7.6469375    813.79907  0.016017144  0.014954699         3933 
 4235000   0.57323869   -7.6537836    813.74704  0.016012338   0.01494946         3924 
 4236000   0.57459794   -7.6767927     812.2929  0.015979952  0.014944223         3923 
 4237000   0.57840549   -7.6751136     812.1519  0.015973407  0.014938987         3924 
 4238000   0.57486255   -7.6694168    813.88884  0.016003792  0.014933757         3922 
 4239000   0.57367568   -7.6754379    813.06434  0.015983808  0.014928528         3919 
 4240000   0.57684623   -7.6688318    813.14553  0.015981634    0.0149233         3913 
 4241000   0.58539913   -7.6773278    813.73692  0.015989486  0.014918076         3927 
 4242000   0.56335482   -7.6928032    813.23138  0.015975785  0.014912854         3920 
 4243000   0.57926836   -7.6737791    812.53097  0.015958264  0.014907636         3918 
 4244000   0.58520296   -7.6909357    811.54228   0.01593509  0.014902418         3929 
 4245000   0.56395477   -7.6843085    812.05865  0.015941473  0.014897199         3916 
 4246000   0.57139241   -7.6665533    813.41985  0.015964434  0.014891986         3926 
 4247000   0.57860845   -7.6689892    812.25421  0.015937803  0.014886772         3932 
 4248000   0.57980062   -7.6834422    812.59571  0.015940751   0.01488156         3932 
 4249000   0.57317565   -7.6701053    813.71018  0.015958857  0.014876352         3911 
 4250000   0.57009324   -7.6521938    812.89803  0.015939177  0.014871145         3910 
 4251000   0.57967586   -7.6784988    812.92644  0.015935984  0.014865941         3929 
 4252000   0.56443568   -7.6835349    813.30495  0.015939655  0.014860739         3927 
 4253000   0.56645792   -7.6737225    812.33138  0.015916831  0.014855541         3916 
 4254000   0.56613755   -7.6645046    813.67969  0.015939502  0.014850344         3921 
 4255000   0.56568764   -7.6704472    814.03299  0.015942675  0.014845151         3926 
 4256000   0.58103994   -7.6840157    812.61499  0.015911164  0.014839959         3928 
 4257000   0.56932037   -7.6704842    812.59562  0.015907048  0.014834769         3925 
 4258000   0.57342147   -7.6630913    813.01692  0.015911557  0.014829579         3915 
 4259000   0.55994287   -7.6758995    813.20885  0.015911577  0.014824393         3930 
 4260000   0.57257794    -7.669853    812.91542  0.015902101   0.01481921         3918 
 4261000   0.56888237   -7.6842109    813.51953  0.015910184  0.014814024         3925 
 4262000   0.56553757   -7.6581201     812.8744  0.015893837  0.014808845         3922 
 4263000   0.57789016   -7.6680053    813.05959  0.015893729  0.014803669         3923 
 4264000   0.56648624   -7.6655218    812.99047   0.01588865  0.014798492         3923 
 4265000   0.56363855   -7.6730511    811.87799  0.015863188  0.014793318         3914 
 4266000   0.56095247   -7.6866112    813.13416  0.015884008  0.014788149         3917 
 4267000    0.5744923   -7.6751017    813.33099   0.01588413  0.014782983         3923 
 4268000   0.56815165   -7.6897484    813.11729  0.015876236  0.014777818         3918 
 4269000   0.57049751   -7.6768725    812.10455  0.015852748  0.014772652         3915 
 4270000   0.58004628   -7.6759836    812.73387  0.015861317  0.014767491         3925 
 4271000   0.57726467   -7.6832513    812.05927  0.015844441   0.01476233         3921 
 4272000   0.55080436    -7.692227    812.15891  0.015842675  0.014757169         3918 
 4273000   0.56992093   -7.6758306    812.26235  0.015840985  0.014752012         3918 
 4274000   0.56217195   -7.6794247    814.63155  0.015883473  0.014746856         3918 
 4275000   0.56474092   -7.6813163    809.73072  0.015784225  0.014741704         3920 
 4276000   0.57774787   -7.6727407    811.62441  0.015817439  0.014736556         3931 
 4277000   0.58132261   -7.6807981    812.95777   0.01583972  0.014731408         3931 
 4278000   0.57034103   -7.6702989    813.45761  0.015845754  0.014726264         3914 
 4279000   0.56918646   -7.6622051    812.20898  0.015817733  0.014721117         3927 
 4280000   0.55981974   -7.6808177    812.04884   0.01581092  0.014715972         3924 
 4281000   0.57244464   -7.6736648    812.10687  0.015808356  0.014710832         3922 
 4282000   0.55183889    -7.674123    812.91028    0.0158203  0.014705693         3917 
 4283000   0.55999224   -7.6868275    811.95764  0.015798071  0.014700557         3929 
 4284000   0.57999399    -7.679879    813.28013  0.015820108  0.014695422         3933 
 4285000   0.55646255   -7.6992444    811.89361  0.015789452  0.014690291         3923 
 4286000   0.57294113   -7.6888086    813.72686  0.015821412   0.01468516         3922 
 4287000   0.55694153   -7.6556321    811.70801  0.015778478  0.014680035         3919 
 4288000   0.58183793   -7.6726937    812.65888  0.015793277  0.014674908         3915 
 4289000   0.56490199   -7.6733969    812.51541  0.015786808  0.014669783         3924 
 4290000   0.56743724    -7.680716    811.70869  0.015767457  0.014664663         3925 
 4291000   0.55570017   -7.6835241    812.68525  0.015782748  0.014659544         3915 
 4292000   0.57421144    -7.686372    812.27457  0.015771097  0.014654426         3916 
 4293000   0.56616708   -7.6857757    813.56077   0.01579239  0.014649312         3920 
 4294000   0.55563518   -7.6863976    812.98488  0.015777536  0.014644198         3916 
 4295000   0.56326808   -7.6705275    812.75216  0.015769347   0.01463909         3927 
 4296000   0.55882367   -7.7029347      812.203  0.015755024  0.014633981         3914 
 4297000   0.56608335   -7.6817546    812.68119  0.015760631  0.014628877         3921 
 4298000   0.56276138   -7.6730455    812.04912  0.015744709  0.014623774         3926 
 4299000   0.55950211   -7.6978933    811.91543  0.015738455   0.01461867         3908 
 4300000   0.55896938   -7.6829877    812.09225  0.015738222  0.014613569         3923 
 4301000   0.56666652   -7.6910944    811.78866  0.015728681   0.01460847         3921 
 4302000   0.56622981    -7.694853    813.07298  0.015749903  0.014603375         3917 
 4303000   0.56168703   -7.6962826    812.48189  0.015734795  0.014598279         3906 
 4304000   0.55614038   -7.7076183    812.43897  0.015730308   0.01459319         3920 
 4305000    0.5722908   -7.6719269    811.08181  0.015700383    0.0145881         3921 
 4306000   0.58011073   -7.6909732    811.77625  0.015710177  0.014583013         3919 
 4307000   0.56490784   -7.6810197    813.84616  0.015746578  0.014577928         3921 
 4308000   0.57499568   -7.6749711    811.68244  0.015701069  0.014572845         3903 
 4309000   0.56307419   -7.6754015    811.66968  0.015697178  0.014567766         3933 
 4310000   0.55367144   -7.6908003     811.7699  0.015695474  0.014562687         3922 
 4311000   0.56943836   -7.6870911    811.54726  0.015687529   0.01455761         3922 
 4312000   0.56165874   -7.6911168    811.78964  0.015688575  0.014552534         3914 
 4313000   0.57407739   -7.6869891    812.71255   0.01570277  0.014547463         3917 
 4314000   0.57113035   -7.6782259    811.90259  0.015683484   0.01454239         3928 
 4315000   0.55249577   -7.6922082    811.98393   0.01568142  0.014537321         3921 
 4316000   0.55917134   -7.6671461    812.17188  0.015681416  0.014532252         3929 
 4317000   0.55925971    -7.697083    812.74331  0.015688814  0.014527188         3930 
 4318000   0.56205074   -7.6767988    812.10754  0.015672911  0.014522129         3917 
 4319000   0.56718884   -7.6816281    812.98409  0.015686195  0.014517069         3914 
 4320000   0.55995895   -7.6976205    813.00254  0.015682919  0.014512011         3912 
 4321000   0.55729681   -7.6942679    811.94456  0.015658886  0.014506954         3923 
 4322000   0.54620244   -7.7133621    812.13866  0.015659006  0.014501898         3929 
 4323000   0.56213798   -7.6868207    813.33224  0.015678392  0.014496844         3923 
 4324000    0.5632106   -7.6854755    813.07459    0.0156698  0.014491794         3930 
 4325000   0.56273976   -7.6964256    810.84663  0.015623249  0.014486747         3923 
 4326000   0.56044469    -7.709885    811.55749  0.015633331  0.014481701         3922 
 4327000   0.56746093   -7.6961905    810.61842  0.015611633  0.014476657         3921 
 4328000   0.54833852   -7.6971221    811.47741  0.015624565  0.014471611         3930 
 4329000   0.56290357   -7.7075676     812.1422  0.015633753  0.014466573         3936 
 4330000   0.55824249   -7.6865043    811.63104  0.015620305  0.014461532         3931 
 4331000   0.56740682   -7.6916166    812.48555   0.01563314  0.014456498         3931 
 4332000   0.56183932   -7.6883295    811.59976  0.015612492  0.014451466         3925 
 4333000   0.57271551   -7.6912798    813.35143  0.015642577  0.014446434         3935 
 4334000   0.55869206   -7.6992982    811.94117  0.015611852  0.014441407         3932 
 4335000   0.53978114    -7.685449    811.88711  0.015607211  0.014436378         3919 
 4336000   0.55614423   -7.7056736    812.50604  0.015615507  0.014431351         3924 
 4337000   0.55911171   -7.7050704    812.62073   0.01561411  0.014426328         3915 
 4338000   0.55308445    -7.697786    813.23632  0.015622336  0.014421304         3935 
 4339000   0.56693984   -7.6840688    811.60931  0.015587488  0.014416284         3912 
 4340000   0.56713707   -7.6688776    812.34561  0.015598034   0.01441127         3927 
 4341000   0.55013034   -7.7042341    811.69481  0.015581947  0.014406255         3930 
 4342000   0.55347922   -7.6851859    811.74664  0.015579354   0.01440124         3933 
 4343000   0.55828563   -7.6943045    811.46571  0.015570376  0.014396229         3930 
 4344000   0.54759482   -7.6833868    812.18465  0.015580583  0.014391221         3925 
 4345000    0.5584963    -7.694968    812.70429  0.015586964  0.014386211         3923 
 4346000   0.54986137   -7.7044465    811.34897  0.015557389  0.014381205         3930 
 4347000     0.577469   -7.7073188    811.25962  0.015552098    0.0143762         3920 
 4348000   0.55032672   -7.6936529    811.89586  0.015560715    0.0143712         3928 
 4349000   0.56737579   -7.6958367    812.59657  0.015570564  0.014366205         3934 
 4350000   0.56141263    -7.697227    812.05805  0.015556668  0.014361207         3924 
 4351000   0.55487675   -7.6858483    811.31673  0.015538894  0.014356215         3930 
 4352000   0.55466799   -7.6992534    813.06265  0.015568755  0.014351226         3930 
 4353000   0.56010938   -7.6979125    812.36691  0.015551859  0.014346238         3933 
 4354000   0.56166625   -7.6876669    811.47297  0.015531178  0.014341252         3931 
 4355000   0.54461557   -7.6993402    812.08561  0.015539334  0.014336268         3936 
 4356000   0.55702183   -7.7160398     810.7133  0.015509514  0.014331284         3926 
 4357000   0.55920685   -7.7057698      811.789  0.015526528  0.014326305         3921 
 4358000   0.56787108   -7.7130207    812.31634  0.015533049  0.014321326         3921 
 4359000   0.55406842    -7.711121    811.45659   0.01551305  0.014316351         3911 
 4360000   0.55926376   -7.6921745    810.66898  0.015494438  0.014311378         3930 
 4361000   0.56197884   -7.6917533    810.60854   0.01548973  0.014306403         3926 
 4362000   0.54761906   -7.6905955    811.80551  0.015509046  0.014301431         3937 
 4363000   0.56071905   -7.7091652     812.3093  0.015515114  0.014296462         3930 
 4364000   0.56504856   -7.7079383    811.46198  0.015495378  0.014291496         3932 
 4365000   0.54885369   -7.6944938    810.88938  0.015480897  0.014286534         3929 
 4366000   0.54935973   -7.6997776      810.782  0.015475302   0.01428157         3929 
 4367000   0.55804082   -7.6920682     810.8049  0.015472195   0.01427661         3926 
 4368000   0.55921284   -7.7020236    810.62326  0.015465187  0.014271651         3923 
 4369000   0.55271207   -7.6919511    811.09155   0.01547058  0.014266694         3936 
 4370000   0.56169273   -7.6858631    811.77349  0.015480044  0.014261737         3924 
 4371000   0.55713406   -7.6875665    811.17808  0.015465151  0.014256783         3932 
 4372000   0.54810104   -7.6951633    812.57404  0.015488221  0.014251832         3925 
 4373000   0.54569028   -7.7006264    812.45781  0.015482465  0.014246882         3917 
 4374000    0.5464382   -7.7191146     812.4085  0.015477986  0.014241936         3919 
 4375000   0.54548968   -7.7039878    812.08132  0.015468216  0.014236988         3909 
 4376000   0.55803455   -7.7183932    812.19616  0.015466868  0.014232048         3929 
 4377000    0.5589605   -7.6948484    810.45703  0.015430223  0.014227109         3910 
 4378000   0.55105939   -7.6999936    812.86831  0.015472596  0.014222175         3925 
 4379000   0.55651858    -7.708512    810.34886  0.015421117  0.014217239         3933 
 4380000   0.55228045    -7.704211    811.76285  0.015444499  0.014212309         3917 
 4381000   0.53952666   -7.6965147     811.5808   0.01543751  0.014207377         3924 
 4382000    0.5606659   -7.7153207    810.89621  0.015420969  0.014202447         3929 
 4383000   0.54027497   -7.7081085    811.62556  0.015431317   0.01419752         3928 
 4384000   0.55399787   -7.6953126    810.55681  0.015407482  0.014192595         3925 
 4385000   0.54678543   -7.7016371    811.98172  0.015431048  0.014187672         3920 
 4386000   0.56093248   -7.6949429    810.51683  0.015399697  0.014182749         3915 
 4387000    0.5497967   -7.6982981    811.89621  0.015422388  0.014177834         3920 
 4388000   0.56135299   -7.7085792     812.9183  0.015438284  0.014172918         3929 
 4389000   0.54235714   -7.6895573    811.11318  0.015400493  0.014168002         3919 
 4390000   0.55548201   -7.6973714    812.15835  0.015416825  0.014163091         3921 
 4391000   0.54658301   -7.7025052    810.16226  0.015375432  0.014158181         3923 
 4392000   0.55744226   -7.6875289    811.95441  0.015405935  0.014153276         3921 
 4393000   0.54470643   -7.6970176    812.28114  0.015408626  0.014148367         3921 
 4394000   0.55432518   -7.7082654    811.63218  0.015392812  0.014143462         3919 
 4395000   0.55693673   -7.6925882    810.06873  0.015359665  0.014138562         3931 
 4396000   0.54092961   -7.7043687    811.99052  0.015392602  0.014133666         3915 
 4397000   0.54333029   -7.6957766    811.38342  0.015377595   0.01412877         3933 
 4398000   0.55181248   -7.7097888    811.89467  0.015383786  0.014123874         3938 
 4399000   0.55092055    -7.713556    810.92432  0.015361906  0.014118978         3941 
 4400000   0.54437153   -7.7128488    811.15584    0.0153628  0.014114086         3931 
 4401000   0.53760061   -7.7172521    811.86185  0.015372678  0.014109201         3922 
 4402000   0.55312693   -7.7075276    812.21751  0.015375918  0.014104312         3928 
 4403000   0.54798339   -7.7250456    811.67283  0.015362117  0.014099425         3918 
 4404000   0.53981833   -7.7155333    810.78919  0.015341909  0.014094539         3931 
 4405000   0.54078737   -7.7108627    811.72848  0.015356195  0.014089656         3923 
 4406000   0.52300151    -7.695263    809.70465  0.015314432  0.014084776         3925 
 4407000   0.54744279   -7.7002828     811.8949  0.015352373  0.014079897         3925 
 4408000   0.55135884   -7.7082283    812.31711  0.015356872  0.014075022         3925 
 4409000   0.54503886    -7.693354    811.13318  0.015331012  0.014070149         3935 
 4410000   0.54703998   -7.7094147     811.6616  0.015337521  0.014065272         3926 
 4411000   0.54594941    -7.709114    810.45367  0.015311223  0.014060406         3929 
 4412000   0.54823435   -7.7023181    810.98252  0.015317742  0.014055541         3928 
 4413000   0.54183384   -7.7156966    812.50039  0.015342934  0.014050676         3936 
 4414000   0.54781767   -7.6990679     811.1937  0.015314788   0.01404581         3929 
 4415000   0.55060226   -7.6943352     811.9119  0.015324875  0.014040953         3927 
 4416000   0.55270745   -7.7168953    810.71688  0.015298854  0.014036098         3932 
 4417000   0.53246787   -7.7047995    811.88259  0.015317383   0.01403124         3937 
 4418000   0.53609405   -7.7120587    811.78846  0.015312141  0.014026382         3929 
 4419000   0.54674094    -7.708891    811.84656  0.015309771  0.014021534         3940 
 4420000   0.54935083   -7.7070646    810.40565  0.015279141  0.014016683         3915 
 4421000   0.53734339   -7.7073642    811.96936   0.01530516  0.014011834         3920 
 4422000   0.55560262   -7.7100379    812.63698  0.015314281   0.01400699         3923 
 4423000   0.53628985   -7.7059579     811.4598  0.015288639  0.014002147         3923 
 4424000   0.53303577   -7.7067468    811.76045  0.015290846  0.013997308         3933 
 4425000   0.56565298   -7.7169843    811.26597  0.015278079  0.013992468         3933 
 4426000   0.54278929   -7.6879091    810.64976  0.015263024   0.01398763         3918 
 4427000   0.54271136   -7.7044918    812.10182   0.01528691  0.013982797         3920 
 4428000    0.5340257   -7.7099805    813.23211   0.01530473  0.013977963         3926 
 4429000   0.53671099   -7.7204383     810.9574  0.015258475   0.01397313         3928 
 4430000   0.53298428   -7.7100507      808.714  0.015212829  0.013968298         3923 
 4431000   0.54697348   -7.7031651    810.79365  0.015248508  0.013963469         3931 
 4432000   0.53667842   -7.7310004    810.40672  0.015237792  0.013958646         3920 
 4433000   0.53460561   -7.7086018    810.62459   0.01523845   0.01395382         3934 
 4434000   0.54178359   -7.7027467    812.52477  0.015270726  0.013948999         3936 
 4435000   0.53961018   -7.7016835    811.50387    0.0152481  0.013944177         3929 
 4436000   0.53351082   -7.7158691    810.80821  0.015231594  0.013939357         3923 
 4437000   0.55219496   -7.7185329    810.08342  0.015214548   0.01393454         3935 
 4438000   0.54647461   -7.7121942    811.20164  0.015232117  0.013929726         3928 
 4439000    0.5464525   -7.7236657    809.53408  0.015197381  0.013924913         3931 
 4440000   0.53433492   -7.7199862    811.95969  0.015239484  0.013920101         3932 
 4441000    0.5402188   -7.7223249    811.94551  0.015235786  0.013915295         3927 
 4442000   0.55717779   -7.7179349    810.25612  0.015200663  0.013910489         3924 
 4443000   0.54396643   -7.7222252    810.25388  0.015197199  0.013905686         3918 
 4444000   0.54075737   -7.7114028    809.64011   0.01518227  0.013900879         3933 
 4445000    0.5260005   -7.7263544    811.53033  0.015214292  0.013896079         3918 
 4446000   0.52776719   -7.7205483     811.9992  0.015219658  0.013891279         3922 
 4447000   0.53044902    -7.709103     811.0064  0.015197631  0.013886479         3923 
 4448000   0.53598889   -7.7111825    810.05125   0.01517632  0.013881687         3926 
 4449000   0.54339143   -7.7253047    810.66657  0.015184434  0.013876895         3941 
 4450000   0.54622372   -7.7032518    810.40928  0.015176204  0.013872105         3924 
 4451000   0.54384306   -7.7215028    811.64929   0.01519601  0.013867313         3929 
 4452000   0.55418909   -7.7149615     811.7654   0.01519477  0.013862529         3919 
 4453000   0.54194604   -7.7294626    809.91665   0.01515676  0.013857747         3929 
 4454000   0.53759697   -7.7244358    811.50924  0.015183154  0.013852966         3913 
 4455000   0.53206952    -7.702078    811.96883  0.015188343   0.01384819         3933 
 4456000   0.53742229   -7.6981628    810.38256  0.015155269  0.013843414         3923 
 4457000   0.53901216   -7.7124681    810.30944  0.015150502  0.013838639         3925 
 4458000   0.53047939   -7.7068285    810.78128  0.015155923   0.01383387         3924 
 4459000   0.54546383    -7.704474     811.1017  0.015158513  0.013829103         3930 
 4460000   0.53932642   -7.7226797    810.97947   0.01515283  0.013824337         3913 
 4461000   0.54041682    -7.729308    810.91994  0.015148321  0.013819568         3925 
 4462000   0.54290781   -7.7168822    810.89472  0.015144455  0.013814805         3916 
 4463000   0.52817828   -7.7135012    809.87115   0.01512195  0.013810036         3927 
 4464000    0.5280249   -7.7245767    811.07311     0.015141  0.013805277         3929 
 4465000   0.54126393   -7.7188519    811.34854   0.01514275  0.013800519         3931 
 4466000   0.54415342    -7.720195    811.00142  0.015132882  0.013795762         3925 
 4467000   0.54136979   -7.7109357    810.78358  0.015125431  0.013791007         3923 
 4468000   0.54022539     -7.71647    810.12025  0.015109673  0.013786255         3928 
 4469000   0.53115284    -7.729092    811.00537  0.015122797  0.013781502         3937 
 4470000   0.52559405   -7.7247045    811.77623  0.015133785  0.013776752         3926 
 4471000   0.52934624   -7.7195458    810.70452  0.015110425  0.013772003         3927 
 4472000   0.53332743   -7.6937115    811.83345  0.015128083  0.013767259         3918 
 4473000    0.5464103   -7.7202528    810.58736  0.015101486  0.013762513         3927 
 4474000    0.5388303   -7.7243365    811.21302  0.015109764  0.013757771         3933 
 4475000   0.54996641   -7.7361066    810.56498   0.01509432  0.013753031         3934 
 4476000   0.54514304   -7.7051167    810.66555   0.01509282  0.013748299         3938 
 4477000   0.52542344   -7.7428719    810.33632  0.015083321  0.013743564         3921 
 4478000   0.52799169   -7.7156572    810.26017  0.015078535  0.013738827         3922 
 4479000   0.53429475   -7.7285131    809.75805  0.015065827  0.013734097         3939 
 4480000   0.53031059   -7.7250243    810.53763  0.015076965  0.013729364         3919 
 4481000   0.52800963   -7.7260483    810.83728  0.015079173  0.013724637         3925 
 4482000    0.5402523   -7.7221198    810.57544   0.01507094  0.013719916         3916 
 4483000   0.53523682    -7.729569      810.296  0.015062384  0.013715196         3931 
 4484000   0.52844835   -7.7184779    810.75431  0.015067542  0.013710474         3922 
 4485000   0.53380853   -7.7091439    810.65282  0.015062297  0.013705758         3921 
 4486000   0.53517171   -7.7089138    809.90811  0.015045105  0.013701042         3923 
 4487000   0.52476047   -7.7289925    809.98706  0.015043219  0.013696328         3922 
 4488000   0.54192805   -7.7236338    810.53495   0.01505004  0.013691615         3924 
 4489000   0.52186284   -7.7265312    811.32122  0.015061283  0.013686906         3914 
 4490000   0.53482987   -7.7249152    809.97662  0.015032974  0.013682195         3929 
 4491000   0.53054602   -7.7141037    811.22303  0.015052754  0.013677491         3926 
 4492000   0.53154197   -7.7068861     810.0706  0.015028024  0.013672786         3923 
 4493000   0.52646833   -7.7058321    810.68534  0.015036081  0.013668084         3924 
 4494000   0.53723756   -7.7107652     808.8571  0.014998834  0.013663386         3921 
 4495000   0.53717007   -7.7310953     810.3988  0.015024079  0.013658688         3930 
 4496000    0.5425726   -7.7315438    811.63216  0.015043597  0.013653992         3918 
 4497000   0.53313511   -7.7260104    810.52169  0.015019674    0.0136493         3938 
 4498000   0.51962029   -7.7152415    810.42786  0.015014597  0.013644609         3929 
 4499000   0.53757528    -7.734964    809.70686  0.014997904   0.01363992         3925 
 4500000   0.53449577   -7.7301229    811.75541  0.015032508  0.013635235         3928 
 4501000   0.52612389   -7.7339962    810.04241  0.014997453  0.013630548         3917 
 4502000   0.52965831   -7.7352851    811.31874  0.015017746  0.013625862         3932 
 4503000   0.53083263   -7.7150284    810.57062  0.015000567   0.01362118         3922 
 4504000   0.53295531   -7.7205459    810.74779  0.015000514  0.013616501         3918 
 4505000   0.53527373   -7.7333148    810.36594  0.014990121  0.013611828         3913 
 4506000   0.53697718   -7.7549224    811.00137  0.014998546  0.013607154         3915 
 4507000   0.53685566   -7.7357205    811.52032  0.015004813   0.01360248         3915 
 4508000    0.5327024    -7.726726    810.17184  0.014976557   0.01359781         3920 
 4509000   0.53412462   -7.7234739    807.98822  0.014932879  0.013593141         3928 
 4510000   0.52088791   -7.7350084    809.85979   0.01496415  0.013588472         3924 
 4511000   0.52798448   -7.7114339    811.68617  0.014994572  0.013583805         3924 
 4512000   0.53982181   -7.7346171    810.00305  0.014960163   0.01357914         3929 
 4513000   0.51880603   -7.7344793    810.60045  0.014967879  0.013574481         3924 
 4514000    0.5281707    -7.727974    810.67549  0.014965948   0.01356982         3932 
 4515000   0.52667966   -7.7460826    811.38529  0.014975734  0.013565158         3921 
 4516000    0.5415715   -7.7336755    811.01088  0.014965509  0.013560502         3911 
 4517000    0.5256797   -7.7362336    810.31364  0.014949333  0.013555847         3919 
 4518000   0.53113508   -7.7436113    810.37013  0.014947066  0.013551193         3922 
 4519000   0.53604092   -7.7471423    808.82077  0.014915187  0.013546541         3935 
 4520000   0.52805583   -7.7372404    810.80817  0.014948528  0.013541893         3919 
 4521000    0.5211323   -7.7302207    810.36839  0.014937116  0.013537244         3916 
 4522000   0.52193253   -7.7333664    809.63144  0.014920231  0.013532599         3902 
 4523000   0.53249687    -7.738677    811.35317  0.014948655  0.013527955         3910 
 4524000   0.53574003   -7.7431012    809.03541  0.014902656  0.013523317         3929 
 4525000   0.51779368   -7.7280591    810.38066  0.014924137  0.013518677         3935 
 4526000   0.52728043    -7.706964    810.31199  0.014919576  0.013514041         3922 
 4527000   0.52629257   -7.7286082    809.75025  0.014905939  0.013509406         3934 
 4528000   0.52649963   -7.7350785    810.09744  0.014909037  0.013504774         3921 
 4529000   0.53100991   -7.7427407    809.48704  0.014894514  0.013500144         3936 
 4530000   0.52259986   -7.7399867    810.85757  0.014916438  0.013495512         3931 
 4531000   0.53518424   -7.7238207    810.99305  0.014915638  0.013490887         3928 
 4532000   0.51936537   -7.7428101     812.0457  0.014931702  0.013486264         3917 
 4533000   0.52352424   -7.7287452    810.39912  0.014898138  0.013481637         3927 
 4534000   0.52212881   -7.7295942    809.66277  0.014881318  0.013477016         3934 
 4535000   0.53375764   -7.7175265    809.68863  0.014878512  0.013472395         3923 
 4536000   0.52937267   -7.7250609    809.59626  0.014873535  0.013467777         3922 
 4537000   0.52947857   -7.7359661    809.38607  0.014866396  0.013463165         3926 
 4538000   0.53176039   -7.7278879    809.90874  0.014872718  0.013458549         3919 
 4539000   0.52560601   -7.7496364    809.66466   0.01486496  0.013453938         3921 
 4540000   0.52195373    -7.739507    810.06354  0.014869008  0.013449328         3924 
 4541000   0.52379149   -7.7142107    810.68246  0.014877091   0.01344472         3919 
 4542000   0.53808735   -7.7300411     809.8916  0.014859306  0.013440115         3924 
 4543000   0.51359348   -7.7303142    809.76809  0.014853769   0.01343551         3911 
 4544000    0.5253504   -7.7280191    811.10261  0.014874974  0.013430908         3931 
 4545000   0.51598283   -7.7230704    809.81861  0.014848159  0.013426312         3920 
 4546000   0.52032195   -7.7266717    809.26134  0.014834678  0.013421718         3941 
 4547000   0.53805578   -7.7392553     809.7775  0.014840875  0.013417123         3926 
 4548000   0.52198547   -7.7274242    810.33358  0.014847801  0.013412526         3918 
 4549000   0.53140295   -7.7421656    809.63624  0.014831762  0.013407931         3933 
 4550000   0.51988586   -7.7302912    809.91899  0.014833681   0.01340334         3935 
 4551000   0.52522919   -7.7417092    810.87508  0.014847929   0.01339875         3922 
 4552000   0.51803859    -7.740675    810.45454  0.014836968  0.013394163         3932 
 4553000   0.51573696   -7.7373201    810.19939  0.014829039  0.013389578         3919 
 4554000   0.53096766   -7.7421568    810.17095  0.014825263  0.013384995         3927 
 4555000   0.52442816   -7.7466981    810.02808  0.014819394  0.013380416         3935 
 4556000   0.52949026   -7.7206765    809.91733  0.014814116  0.013375836         3927 
 4557000   0.52939094   -7.7423742    809.13981  0.014796646  0.013371258         3923 
 4558000   0.52671574   -7.7332596     811.0568  0.014828448  0.013366686         3918 
 4559000   0.52372751   -7.7446722    811.24629  0.014828659  0.013362116         3920 
 4560000   0.52682351   -7.7266566    810.55261  0.014812731  0.013357545         3926 
 4561000    0.5243113   -7.7497885    809.80802  0.014795878  0.013352978         3923 
 4562000   0.50053998   -7.7548932     810.4448  0.014804267  0.013348409         3929 
 4563000   0.52105238   -7.7423016    810.01021  0.014793086   0.01334384         3932 
 4564000    0.5212906    -7.743242    809.21962  0.014775409  0.013339277         3935 
 4565000   0.52625519   -7.7444314    808.42075  0.014757589  0.013334715         3920 
 4566000   0.51725648   -7.7512198    810.41424   0.01479074  0.013330156         3935 
 4567000   0.51847468   -7.7388001    808.58526  0.014754128  0.013325599         3925 
 4568000   0.51562206   -7.7325039    809.35037  0.014764856  0.013321041         3932 
 4569000   0.51367895   -7.7370127     809.9544  0.014772642  0.013316489         3920 
 4570000   0.51443752   -7.7447921    809.39395  0.014759189  0.013311936         3915 
 4571000   0.52786889   -7.7498335    808.99376  0.014748665  0.013307385         3926 
 4572000   0.52037227   -7.7476272    810.67102   0.01477601  0.013302841         3929 
 4573000    0.5231542    -7.748284    810.63098  0.014772049  0.013298293         3935 
 4574000   0.52502342    -7.751662    811.16252  0.014778504   0.01329375         3919 
 4575000   0.51279203   -7.7430832    808.85375   0.01473322  0.013289208         3934 
 4576000   0.51723883   -7.7505446    808.73235  0.014727789  0.013284664         3930 
 4577000   0.50871797   -7.7292513    809.45836   0.01473779  0.013280124         3938 
 4578000   0.52445617   -7.7353579     808.6002  0.014718949  0.013275588         3926 
 4579000   0.51900503    -7.740025    810.15194  0.014743975  0.013271055         3917 
 4580000   0.52057135   -7.7545772    809.13147  0.014722188  0.013266522         3917 
 4581000   0.52146407   -7.7205006    809.54563  0.014726509  0.013261992         3934 
 4582000   0.52504713   -7.7471966    809.02182  0.014713768  0.013257462         3923 
 4583000   0.51784997   -7.7512344     809.8221  0.014725109  0.013252934         3923 
 4584000   0.52429791   -7.7401634    809.42915  0.014714753  0.013248415         3926 
 4585000   0.51206991    -7.736457    810.00765  0.014722058   0.01324389         3914 
 4586000   0.51177295   -7.7446197     810.4887  0.014727589  0.013239372         3922 
 4587000   0.50428396   -7.7578626    809.88627  0.014713434  0.013234853         3927 
 4588000   0.51444355   -7.7429131    810.04275  0.014713069  0.013230335         3924 
 4589000   0.51726328   -7.7474892     809.8853  0.014707004  0.013225821         3913 
 4590000   0.51116733   -7.7405059    810.13291  0.014708295  0.013221305         3926 
 4591000   0.52115609   -7.7593416    810.61375   0.01471382  0.013216791         3919 
 4592000   0.51910245   -7.7501068    810.49646  0.014708487  0.013212284         3915 
 4593000   0.51657787   -7.7389618    809.37807  0.014684993  0.013207779         3912 
 4594000   0.51366698   -7.7531505    809.57805  0.014685424  0.013203272         3921 
 4595000   0.51647873    -7.741104     810.3965  0.014697071   0.01319877         3926 
 4596000   0.51292581   -7.7396587    809.90276  0.014684921  0.013194269         3915 
 4597000   0.50237454   -7.7478019    809.87707  0.014681261   0.01318977         3928 
 4598000   0.52119776    -7.750731     809.3267  0.014668093  0.013185271         3926 
 4599000   0.52355515   -7.7529727    810.19881  0.014680706  0.013180773         3935 
 4600000   0.51837511    -7.751709    809.61702  0.014666975  0.013176276         3912 
 4601000   0.51283457   -7.7237789     808.9391  0.014651509  0.013171783         3934 
 4602000   0.50776139   -7.7569171    809.00025  0.014649432   0.01316729         3927 
 4603000    0.5230055   -7.7398625    809.36563  0.014652865  0.013162798         3926 
 4604000   0.51663331    -7.757475    809.09439  0.014644772   0.01315831         3926 
 4605000   0.51231093   -7.7508188    809.43496  0.014647755  0.013153824         3948 
 4606000   0.50554932   -7.7335965    809.32831  0.014642646  0.013149342         3930 
 4607000   0.51884614   -7.7484039    810.38377  0.014658559  0.013144861         3932 
 4608000   0.51703439   -7.7312277    809.18896   0.01463377  0.013140379         3925 
 4609000   0.52183902   -7.7430848    809.37666  0.014633989    0.0131359         3918 
 4610000   0.52145972   -7.7416693    809.29948  0.014629419  0.013131424         3922 
 4611000   0.51662487    -7.745125    808.78429  0.014616936  0.013126949         3928 
 4612000   0.49794148    -7.750007    809.33056  0.014623637  0.013122474         3926 
 4613000   0.51851085   -7.7471616    810.26063  0.014637268  0.013118003         3932 
 4614000   0.51555062   -7.7500456    808.87391   0.01460905  0.013113534         3925 
 4615000   0.51700383   -7.7363546    809.86911  0.014623855  0.013109068         3921 
 4616000   0.51840616   -7.7361256    809.91086  0.014621441  0.013104605         3921 
 4617000   0.52296452   -7.7653675    810.62233  0.014631116  0.013100145         3936 
 4618000   0.51385757   -7.7541624    809.49833  0.014607664  0.013095684         3932 
 4619000    0.5023365   -7.7549297    810.28848  0.014618757  0.013091229         3930 
 4620000    0.5137624   -7.7530554    809.22625  0.014596433  0.013086769         3922 
 4621000   0.51794412   -7.7499218    809.77014  0.014603083  0.013082315         3929 
 4622000   0.50828142   -7.7552988    808.74958  0.014581523  0.013077861         3925 
 4623000   0.50267416   -7.7598121    809.19125   0.01458633  0.013073411         3924 
 4624000   0.51632818   -7.7452938    808.21182  0.014565524  0.013068964         3922 
 4625000   0.51328489   -7.7615858    809.54182  0.014586339  0.013064517         3941 
 4626000    0.5231489   -7.7508616    809.63714  0.014584903  0.013060074         3919 
 4627000    0.5030631   -7.7478223     808.6555  0.014564071  0.013055629         3945 
 4628000   0.51097394   -7.7412216    809.87471  0.014582878  0.013051187         3938 
 4629000   0.50282716   -7.7509028    809.34551  0.014570201  0.013046747         3930 
 4630000   0.52018351   -7.7512714     809.5926  0.014571501  0.013042311         3914 
 4631000   0.51172753   -7.7423917     808.9654  0.014557068  0.013037875         3931 
 4632000   0.50281207   -7.7527052    808.23754  0.014540831  0.013033439         3931 
 4633000   0.51496551   -7.7690281    810.35903  0.014575851  0.013029007         3934 
 4634000    0.5152556   -7.7481543    809.48665  0.014557018  0.013024578         3933 
 4635000   0.51764151   -7.7378958    808.87309  0.014542846  0.013020149         3919 
 4636000   0.51453143   -7.7422759    809.86581  0.014557553  0.013015724         3928 
 4637000   0.51338646   -7.7593451    810.58209  0.014567287  0.013011301         3914 
 4638000   0.50759616   -7.7557689    809.78162  0.014549763  0.013006877         3936 
 4639000   0.50906967   -7.7696734    809.61722  0.014543674  0.013002455         3918 
 4640000   0.51022324   -7.7490371    809.41456  0.014536899  0.012998036         3930 
 4641000   0.51058912   -7.7552111    809.65062  0.014538006   0.01299362         3933 
 4642000   0.51434338   -7.7477697    809.19608  0.014526714  0.012989207         3925 
 4643000    0.5107811     -7.75693     808.6298  0.014513422  0.012984793         3929 
 4644000   0.51140135   -7.7574576    810.55036  0.014544759  0.012980381         3919 
 4645000   0.49271817   -7.7662536    807.93123   0.01449464  0.012975968         3931 
 4646000    0.5149372    -7.753132    808.42178  0.014500319  0.012971562         3926 
 4647000   0.51446608   -7.7607366    808.90362  0.014505839  0.012967157         3922 
 4648000   0.52047763   -7.7520808    809.64896  0.014516082  0.012962754         3940 
 4649000    0.5183368   -7.7615978    809.29011  0.014506527  0.012958355         3919 
 4650000   0.50467825   -7.7617078    810.05046  0.014517033  0.012953955         3920 
 4651000   0.50286037   -7.7772493    808.69415  0.014489611  0.012949558         3933 
 4652000   0.50471514   -7.7452363    807.74328  0.014469463  0.012945162         3928 
 4653000   0.51092153   -7.7648036    808.75781  0.014484523  0.012940767         3934 
 4654000   0.50727347   -7.7565157    809.86908  0.014501309  0.012936378         3933 
 4655000   0.50593071   -7.7600961    809.80172  0.014496987  0.012931989         3920 
 4656000   0.50181297   -7.7518804    809.65256  0.014491204  0.012927601         3930 
 4657000   0.50399624   -7.7553636    809.68685  0.014488706  0.012923216         3930 
 4658000   0.50637195    -7.761005     809.4883  0.014482043  0.012918831         3931 
 4659000   0.49866524   -7.7638361    809.73674  0.014483379  0.012914449         3934 
 4660000   0.49659994   -7.7678686    809.20775  0.014470811  0.012910069         3931 
 4661000   0.51219386   -7.7412809    807.73041  0.014441293  0.012905691         3940 
 4662000   0.50398855    -7.752228     808.9802  0.014460536  0.012901311         3941 
 4663000   0.51407438   -7.7747579    809.57437  0.014468053  0.012896936         3935 
 4664000   0.50344229   -7.7537658    808.82951  0.014451642  0.012892562         3920 
 4665000   0.48650753   -7.7504531    809.94836  0.014468531  0.012888192         3939 
 4666000    0.5105853   -7.7517176    808.28075  0.014435647  0.012883821         3932 
 4667000   0.51021977   -7.7497428    809.83404  0.014460289  0.012879451         3932 
 4668000   0.51405368   -7.7681463    808.58603  0.014434912  0.012875084         3935 
 4669000   0.51100728   -7.7585182    808.38873  0.014428299   0.01287072         3937 
 4670000   0.50361668   -7.7568835    807.71571    0.0144132  0.012866357         3940 
 4671000   0.50882627   -7.7417867    810.31275  0.014456447  0.012861998         3930 
 4672000   0.51762391   -7.7587318    809.20105  0.014433523  0.012857641         3936 
 4673000   0.49875431   -7.7692432    809.50814  0.014435911  0.012853287         3937 
 4674000   0.50174031   -7.7476764    809.26197  0.014428433  0.012848933         3932 
 4675000   0.50800189   -7.7644452    808.32479  0.014408642  0.012844581         3926 
 4676000   0.51255604   -7.7544694    809.47804  0.014426113  0.012840231         3936 
 4677000   0.50883581   -7.7678931    808.55636  0.014406606  0.012835881         3933 
 4678000   0.50762748   -7.7649383    809.04819  0.014412288  0.012831533         3928 
 4679000   0.49790145   -7.7620295    810.01018  0.014426341  0.012827186         3933 
 4680000    0.5115321   -7.7521012     809.2026  0.014408878  0.012822844         3933 
 4681000   0.50684984   -7.7657769    809.87303  0.014417735  0.012818503         3929 
 4682000   0.51278154   -7.7742505    809.89305  0.014415012  0.012814162         3936 
 4683000   0.49890391   -7.7696771    808.53606  0.014387787  0.012809821         3933 
 4684000    0.5071582   -7.7582309    809.37242  0.014399595  0.012805485         3933 
 4685000   0.49883596    -7.752018    809.21124  0.014393654  0.012801149         3944 
 4686000   0.51666263   -7.7739026    808.83913  0.014383965  0.012796815         3930 
 4687000   0.50244759   -7.7378835    807.87408  0.014363738  0.012792484         3917 
 4688000   0.50429698   -7.7710712    809.57249  0.014390865  0.012788156         3911 
 4689000   0.49570576   -7.7691687    809.33325  0.014383544  0.012783831         3928 
 4690000   0.50152946   -7.7581539    809.20195  0.014378144  0.012779505         3936 
 4691000    0.5075452   -7.7535573    809.01116   0.01437169  0.012775182         3927 
 4692000   0.50779059   -7.7670017     809.3063  0.014373869  0.012770863         3934 
 4693000   0.49167805   -7.7620214    808.85736  0.014362834  0.012766541         3935 
 4694000   0.49719977   -7.7668311    807.39103  0.014333742  0.012762222         3933 
 4695000   0.49779522   -7.7735515     808.8272   0.01435618  0.012757904         3936 
 4696000   0.50381095   -7.7669103    808.86397  0.014353776  0.012753591         3934 
 4697000   0.50673713   -7.7714021    806.92137  0.014316255  0.012749279         3923 
 4698000   0.50602927   -7.7828352    808.86941  0.014347762  0.012744968         3936 
 4699000   0.51066655   -7.7699847    809.30342  0.014352405  0.012740662         3931 
 4700000   0.50498242    -7.758603    809.86188  0.014359253  0.012736356         3944 
 4701000   0.51207116   -7.7719521    807.79224  0.014319511  0.012732048         3933 
 4702000   0.50077437   -7.7702895    809.17033  0.014340889  0.012727743         3940 
 4703000   0.47577724   -7.7676006    807.66055  0.014311088  0.012723442         3927 
 4704000   0.49502157   -7.7751134    808.84282   0.01432899  0.012719139         3931 
 4705000   0.48735134   -7.7603935    809.14986  0.014331383  0.012714841         3932 
 4706000   0.50016769   -7.7578605    808.80136  0.014322166  0.012710544         3929 
 4707000   0.49651816   -7.7740534    809.21111  0.014326378  0.012706247         3919 
 4708000   0.50163435   -7.7717325    808.39021  0.014308804  0.012701956         3936 
 4709000   0.50247286   -7.7407288    809.05006  0.014317443  0.012697666         3938 
 4710000   0.49481029    -7.785394    807.40279  0.014285258  0.012693377         3929 
 4711000   0.49464485   -7.7705906    808.63322  0.014303991  0.012689089         3936 
 4712000   0.49239689   -7.7737574    808.16583  0.014292689  0.012684801         3932 
 4713000    0.4996842   -7.7662311    808.27191  0.014291533  0.012680516         3933 
 4714000   0.50624222   -7.7773651    808.94224  0.014300351  0.012676235         3919 
 4715000   0.49650704   -7.7576879     809.1738   0.01430141  0.012671957         3943 
 4716000   0.49300287   -7.7730359    808.45998  0.014285764  0.012667678         3916 
 4717000   0.49769884   -7.7554267    809.39734  0.014299296  0.012663403         3929 
 4718000   0.49375985   -7.7813892    809.57398  0.014299385  0.012659129         3929 
 4719000   0.48860468   -7.7659717    807.91316  0.014267026  0.012654856         3934 
 4720000    0.5004193   -7.7778912    808.96237  0.014282528  0.012650583         3936 
 4721000   0.48607862   -7.7762603    808.83762    0.0142773  0.012646313         3922 
 4722000   0.49544536   -7.7799949    808.68547  0.014271592  0.012642044         3920 
 4723000   0.48604091   -7.7642454    808.67762  0.014268431   0.01263778         3926 
 4724000   0.49923732   -7.7714063    808.60122  0.014264063  0.012633517         3933 
 4725000   0.50005035   -7.7741682    808.74248  0.014263536  0.012629253         3929 
 4726000    0.4997211    -7.776649    808.81236   0.01426175  0.012624995         3913 
 4727000   0.49984193   -7.7790987    808.82989  0.014259042  0.012620739         3917 
 4728000   0.49668571   -7.7599996    807.97928  0.014241034  0.012616482         3917 
 4729000   0.49279794   -7.7759082    808.89832  0.014254217  0.012612228         3930 
 4730000   0.49753757     -7.76863    808.14415  0.014237917  0.012607976         3938 
 4731000   0.50228237   -7.7583628     808.8035  0.014246521  0.012603728         3940 
 4732000   0.50055456   -7.7808692    808.40561  0.014236503  0.012599477         3917 
 4733000   0.48595493    -7.779313    809.16895  0.014246936  0.012595229         3929 
 4734000   0.50197429   -7.7605396    808.51025  0.014232331  0.012590983         3919 
 4735000   0.49707059   -7.7690748    807.54559  0.014212348   0.01258674         3924 
 4736000   0.48935454   -7.7643355    807.54966  0.014209418    0.0125825         3923 
 4737000   0.49254749   -7.7669673    809.39899  0.014238952  0.012578258         3926 
 4738000   0.49019274   -7.7751606    808.71199  0.014223864  0.012574017         3938 
 4739000     0.493796   -7.7805043    809.43993  0.014233663  0.012569778         3934 
 4740000    0.4899788   -7.7660193    808.69237  0.014217517  0.012565541         3930 
 4741000   0.48730241   -7.7787904    809.16599  0.014222843  0.012561308         3930 
 4742000   0.50237501   -7.7678755     808.7947  0.014213319  0.012557077         3923 
 4743000   0.49514186   -7.7724771    808.12114  0.014198488  0.012552848         3938 
 4744000   0.49145722   -7.7786781    807.98355  0.014193078   0.01254862         3932 
 4745000   0.49242644   -7.7820874    808.13823  0.014192804  0.012544395         3923 
 4746000   0.49285177   -7.7716629     808.2875  0.014192434  0.012540169         3930 
 4747000   0.48871516   -7.7730705    809.56802  0.014211924  0.012535945         3935 
 4748000   0.49419114   -7.7764333    808.20006  0.014184921  0.012531725         3927 
 4749000   0.49311516   -7.7782086    808.29337  0.014183572  0.012527508         3922 
 4750000   0.50242574   -7.7836612    809.48527  0.014201496  0.012523291         3930 
 4751000   0.48598558   -7.7624147    807.57974  0.014165083  0.012519078         3927 
 4752000   0.49110037    -7.772883    807.77968  0.014165609  0.012514863         3935 
 4753000   0.49094323   -7.7973884    808.39464  0.014173411  0.012510653         3932 
 4754000   0.48714374   -7.7733674    807.62051  0.014156859  0.012506444         3932 
 4755000   0.48556781   -7.7614893    808.17296  0.014163564  0.012502237         3930 
 4756000   0.47876631   -7.7790941    809.76217  0.014188432  0.012498028         3923 
 4757000   0.48699351   -7.7810048    807.97721   0.01415418  0.012493822         3935 
 4758000    0.4951311   -7.7737384    808.19767  0.014155066  0.012489618         3935 
 4759000   0.48232827   -7.7677131     807.9877  0.014148415  0.012485417         3938 
 4760000   0.48755707      -7.7735    808.55546  0.014155383  0.012481218         3934 
 4761000   0.47742946   -7.7824642    808.95666  0.014159432  0.012477021         3933 
 4762000   0.48918717   -7.7861915    808.54706  0.014149291  0.012472826         3926 
 4763000   0.50054693   -7.7834558    807.91393  0.014135243  0.012468631         3923 
 4764000    0.4941762    -7.768704    808.79683   0.01414772   0.01246444         3921 
 4765000   0.49070312   -7.7792464    808.75085  0.014143946  0.012460253         3926 
 4766000   0.49141459   -7.7738351    807.94752  0.014126932  0.012456064         3917 
 4767000   0.50158372   -7.7777149    808.84017  0.014139574  0.012451876         3931 
 4768000   0.48150776   -7.7773492    809.02315  0.014139806  0.012447692         3931 
 4769000   0.49518808   -7.7744524    808.67662  0.014130786   0.01244351         3931 
 4770000   0.47913116   -7.7708299    809.39175  0.014140317  0.012439333         3919 
 4771000   0.49894636   -7.7593512     807.9462  0.014112104  0.012435154         3931 
 4772000    0.4778667   -7.7718831    808.79973  0.014124052  0.012430978         3916 
 4773000   0.49141269   -7.7819382    807.54676  0.014099217  0.012426806         3922 
 4774000   0.49671536   -7.7819183    807.14993  0.014089337  0.012422632         3932 
 4775000   0.48487523   -7.7647272    807.53575   0.01409312  0.012418458         3932 
 4776000   0.48542361   -7.7648103    807.95075   0.01409741  0.012414286         3928 
 4777000   0.47596245   -7.7848785    807.76951  0.014091297  0.012410117         3922 
 4778000   0.48981019   -7.7798897    809.04887  0.014110661  0.012405949         3925 
 4779000    0.4880856    -7.788308    807.13274  0.014074296  0.012401781         3919 
 4780000   0.47551423   -7.7687265     808.1355  0.014088834  0.012397618         3933 
 4781000   0.48448562   -7.7786918    807.80453  0.014080118  0.012393457         3925 
 4782000   0.47093716   -7.7911363    809.27885  0.014102866  0.012389297         3943 
 4783000    0.4771403   -7.7739234    807.63936  0.014071353  0.012385138         3933 
 4784000   0.47793971   -7.7924848    808.09636  0.014076372  0.012380981         3923 
 4785000    0.4817073   -7.7930594    808.64384  0.014082965  0.012376827         3940 
 4786000   0.48960371    -7.777374    807.54759  0.014060935  0.012372672         3931 
 4787000     0.485956   -7.7660025    807.60621  0.014059018  0.012368519         3925 
 4788000   0.48341639   -7.7926352    808.75528   0.01407608  0.012364371         3935 
 4789000   0.48811735   -7.7872901    807.54969  0.014052163  0.012360226         3920 
 4790000   0.48675509   -7.7877131    807.74931  0.014052702  0.012356081         3926 
 4791000   0.49474431   -7.7823642    808.96329  0.014070885  0.012351933         3927 
 4792000   0.49083641    -7.777144    807.34332  0.014039777  0.012347792         3931 
 4793000   0.48996638   -7.7824786    808.12203  0.014050386   0.01234365         3932 
 4794000    0.4879603    -7.779102    807.20054  0.014031438  0.012339511         3929 
 4795000   0.47484705   -7.8046036    808.04094  0.014043117  0.012335373         3923 
 4796000   0.48936557   -7.7766582    808.27728  0.014044295  0.012331237         3936 
 4797000   0.49013254   -7.7874546    808.08529  0.014038032  0.012327103         3935 
 4798000   0.49010117   -7.7902244    807.59336  0.014026563  0.012322971         3933 
 4799000    0.4825133    -7.779859    807.12817  0.014015562  0.012318841         3937 
 4800000   0.49025504   -7.7971264    808.39917  0.014034708  0.012314711         3931 
 4801000   0.48014746   -7.7705443    808.81389  0.014038983  0.012310586         3934 
 4802000   0.48947095   -7.7798378    808.18636  0.014025169  0.012306463         3937 
 4803000   0.47798377   -7.7954166    807.95228  0.014018188  0.012302339         3935 
 4804000   0.47686564   -7.7817513    807.83538  0.014013242  0.012298218         3926 
 4805000   0.49239617   -7.7918936     808.3227  0.014018777  0.012294099         3935 
 4806000   0.48030236   -7.7832962    808.25662  0.014014715  0.012289981         3929 
 4807000   0.48785497   -7.7820306    807.64438  0.014001185  0.012285867         3926 
 4808000    0.4774957   -7.7886043    807.09818  0.013988806  0.012281754         3920 
 4809000   0.47400272   -7.7963389    808.18853  0.014004792  0.012277638         3938 
 4810000   0.49631596   -7.7774145    807.77452  0.013994707  0.012273526         3921 
 4811000   0.47409539   -7.7801087    808.09021  0.013997267  0.012269415         3932 
 4812000   0.48846423   -7.7994607    808.28957  0.013997811  0.012265309         3927 
 4813000    0.4799829   -7.7806994    808.04403  0.013990651  0.012261205         3929 
 4814000   0.48539445   -7.7731355    806.45895  0.013960306  0.012257101         3916 
 4815000   0.47353402   -7.7816875    807.78756  0.013980401  0.012253002         3923 
 4816000   0.49028081   -7.7817731    807.91719  0.013979741  0.012248904         3927 
 4817000   0.49276402   -7.7971833    808.01485  0.013978528  0.012244805         3935 
 4818000   0.48934373    -7.795771    806.68395  0.013952607  0.012240708         3938 
 4819000   0.48139559   -7.7936162    807.27837  0.013959991  0.012236612         3939 
 4820000   0.47328502   -7.7834686    806.80072  0.013948837  0.012232521         3928 
 4821000    0.4788536   -7.7911743    807.62175  0.013960135   0.01222843         3931 
 4822000   0.48449922   -7.7801218    806.66805  0.013940758  0.012224343         3930 
 4823000   0.48182705    -7.787238    807.48818  0.013952039  0.012220255         3917 
 4824000   0.47131456   -7.7765092     806.6538  0.013934733   0.01221617         3928 
 4825000   0.48489611    -7.794873    807.65339  0.013949109  0.012212088         3922 
 4826000   0.47444611   -7.7861744    806.95857   0.01393422  0.012208005         3940 
 4827000   0.47499648   -7.7876391    807.17609  0.013935089  0.012203922         3929 
 4828000   0.47686396   -7.7990188    807.21805  0.013932927  0.012199843         3930 
 4829000    0.4870588    -7.785369    807.71896  0.013938686  0.012195765         3921 
 4830000   0.48813163   -7.7960283    807.29566  0.013928497  0.012191688         3927 
 4831000   0.47595139    -7.801495    807.26288  0.013925048  0.012187612         3939 
 4832000   0.48117599   -7.8120821    807.89846  0.013933127  0.012183537         3924 
 4833000   0.46878747   -7.7889805    807.89896  0.013930253  0.012179468         3933 
 4834000   0.47052464   -7.7931774    807.96376  0.013928489    0.0121754         3930 
 4835000   0.47417152   -7.7842824    807.39997  0.013915891  0.012171333         3922 
 4836000   0.48193951   -7.7942112    806.84891  0.013903517  0.012167265         3934 
 4837000   0.47359683   -7.7939858    808.33741  0.013926287  0.012163198         3923 
 4838000   0.47295822   -7.7968945    806.85032  0.013897794  0.012159136         3922 
 4839000    0.4824949   -7.7916289     808.1596  0.013917469  0.012155078         3937 
 4840000   0.47609074   -7.8100719    807.02318  0.013895027  0.012151019         3931 
 4841000   0.48794647   -7.7920305    807.63301  0.013902655  0.012146961         3933 
 4842000   0.47808752   -7.8061027    808.63734  0.013917068  0.012142907         3933 
 4843000   0.47471716   -7.7884913    807.52009   0.01389497  0.012138855         3925 
 4844000   0.47514793   -7.7909694    806.94925  0.013882281  0.012134803         3936 
 4845000   0.47408191   -7.7866597    807.06286   0.01388137  0.012130752         3925 
 4846000    0.4774861   -7.7907149    807.41758  0.013884606  0.012126702         3926 
 4847000   0.48436976   -7.7926126    807.57745   0.01388449  0.012122658         3935 
 4848000   0.48026105   -7.8027108    808.14975  0.013891463  0.012118614         3933 
 4849000   0.45736856   -7.7967695      807.463  0.013876796  0.012114571         3929 
 4850000   0.47860857   -7.7993295    807.49681  0.013874516  0.012110532         3946 
 4851000    0.4789954   -7.8116523    808.68159  0.013892008  0.012106493         3932 
 4852000    0.4815477   -7.7926971    806.61341  0.013853624  0.012102454         3924 
 4853000   0.48113318   -7.8136783    807.42632  0.013864728  0.012098419         3929 
 4854000   0.47455982   -7.8027832    806.24719  0.013841629  0.012094384         3934 
 4855000   0.47493536    -7.791558    807.00934   0.01385186  0.012090352         3929 
 4856000   0.46661777   -7.8141112    806.88536   0.01384688  0.012086319         3929 
 4857000   0.48917259    -7.808707    808.20977  0.013866752  0.012082291         3935 
 4858000   0.47143317    -7.815767    807.06952  0.013844338  0.012078263         3920 
 4859000   0.47290649   -7.8010416    808.32654  0.013863047  0.012074238         3933 
 4860000   0.46915053   -7.7977031    807.26912  0.013842063  0.012070216         3938 
 4861000   0.47388736   -7.7943872    806.73856   0.01383012  0.012066193         3931 
 4862000   0.46380134   -7.7912225    807.47882  0.013839963  0.012062176         3933 
 4863000   0.46702005   -7.8020737    807.20242  0.013832381  0.012058158         3925 
 4864000   0.47113105   -7.8060325    806.88331   0.01382407  0.012054139         3929 
 4865000   0.47164032   -7.7867255    806.85393  0.013820725  0.012050123         3929 
 4866000   0.47977331   -7.8023524    807.30167  0.013825553  0.012046109         3930 
 4867000   0.46898398   -7.7943317    807.09233  0.013819128  0.012042097         3931 
 4868000   0.46588865    -7.813543    807.68956  0.013826513  0.012038085         3935 
 4869000   0.46844207   -7.7853071    806.92052  0.013810511  0.012034073         3933 
 4870000   0.47247858   -7.7778008    806.60189  0.013802223  0.012030064         3928 
 4871000     0.472642   -7.7957513    806.93088  0.013805017  0.012026058         3933 
 4872000   0.47852966   -7.7937655    807.46541  0.013811327  0.012022056         3930 
 4873000   0.47803314   -7.7781718    807.07586  0.013801831  0.012018057         3936 
 4874000   0.47062848   -7.7924128    807.10855  0.013799558  0.012014057         3924 
 4875000   0.47224319   -7.8126169    807.38746  0.013801495  0.012010058         3930 
 4876000   0.47200155   -7.8106279    807.10431  0.013793825  0.012006061         3928 
 4877000   0.46828245   -7.7869212    807.01796  0.013789522  0.012002063         3933 
 4878000   0.47058073    -7.794894      807.506  0.013795032  0.011998068         3940 
 4879000   0.46301478   -7.8144531    806.92154  0.013782222  0.011994077         3927 
 4880000   0.47684463    -7.806672    807.23182  0.013784696  0.011990086         3922 
 4881000   0.48076628     -7.80022    806.95145  0.013777085  0.011986098         3918 
 4882000    0.4687616   -7.8005327    808.42223  0.013799369  0.011982111         3925 
 4883000   0.47470766   -7.8099103     808.1921  0.013792616  0.011978126         3928 
 4884000     0.478699   -7.8092793    807.09377  0.013771051   0.01197414         3932 
 4885000   0.46659012   -7.8083493     807.8951  0.013781902  0.011970155         3927 
 4886000   0.47789887   -7.7929468    807.18895  0.013767038  0.011966177         3926 
 4887000   0.46414196   -7.7958845    806.86915  0.013758767  0.011962199         3926 
 4888000   0.48003028   -7.8010636    806.63109  0.013751894  0.011958223         3923 
 4889000   0.46680682   -7.8294313    807.74988  0.013768151  0.011954247         3934 
 4890000   0.47306031   -7.7984117    807.92779  0.013768367  0.011950275         3926 
 4891000   0.47812969   -7.8165526     807.0259  0.013750186  0.011946305         3934 
 4892000    0.4561603   -7.8206327    807.12402  0.013749046  0.011942334         3931 
 4893000   0.47710237   -7.8103863    806.79422   0.01374062  0.011938367         3930 
 4894000   0.46619059   -7.8007853    807.02193  0.013741689  0.011934402         3931 
 4895000   0.47689142    -7.804771    807.20227  0.013741952  0.011930436         3918 
 4896000   0.47343505   -7.8111979    807.21173  0.013739306  0.011926474         3931 
 4897000    0.4758759     -7.79647    807.03486  0.013733491  0.011922514         3932 
 4898000   0.46618278   -7.8275792    808.58534  0.013757066  0.011918554         3940 
 4899000   0.47164097   -7.8028044    807.27781  0.013732017  0.011914596         3927 
 4900000   0.46746762   -7.8149145     807.5501  0.013733845  0.011910638         3931 
 4901000   0.46359334    -7.797455    806.09882  0.013706366   0.01190668         3928 
 4902000   0.47176298   -7.8032845    807.28801  0.013723786  0.011902728         3935 
 4903000   0.47276348   -7.8106441    807.83085  0.013730214  0.011898775         3932 
 4904000   0.47201757   -7.8085674    805.71421  0.013691446  0.011894828         3923 
 4905000   0.46134444   -7.7832802    806.79001  0.013706932  0.011890878         3931 
 4906000   0.46074923   -7.7989715    807.59737  0.013717852  0.011886931         3931 
 4907000   0.46816785   -7.8332597    806.78423  0.013701247  0.011882985         3934 
 4908000   0.46966591   -7.8087579    807.02114  0.013702478  0.011879043         3933 
 4909000    0.4514062   -7.8048949     806.1316  0.013684586  0.011875099         3924 
 4910000   0.46523167   -7.7996735    806.61337  0.013689976  0.011871162         3932 
 4911000   0.46369963   -7.7938018    807.03781   0.01369439  0.011867224         3925 
 4912000   0.47147101   -7.8226736    806.90324  0.013689319  0.011863289         3926 
 4913000   0.46625561   -7.8026677    806.94992  0.013687325  0.011859356         3934 
 4914000   0.45825351   -7.7924674    807.44246  0.013692892  0.011855423         3929 
 4915000   0.46045206   -7.8049879     807.1096  0.013684463  0.011851493         3944 
 4916000   0.46002931   -7.8030239     805.8072  0.013659601  0.011847567         3929 
 4917000   0.46033465   -7.8085689       807.21  0.013680598  0.011843642         3928 
 4918000    0.4576244   -7.8128617    806.19299  0.013660583  0.011839716         3928 
 4919000   0.46779129   -7.8039362    807.45383  0.013679166  0.011835791         3943 
 4920000   0.47080888   -7.8047532    807.23499  0.013672679  0.011831869         3932 
 4921000   0.46449742   -7.8060057    806.79123  0.013662386  0.011827948         3933 
 4922000   0.46337673   -7.7943735    806.22178  0.013649969  0.011824025         3933 
 4923000   0.47238814   -7.8247668    807.00312  0.013660423  0.011820107         3932 
 4924000   0.46144648   -7.8153369    807.93186  0.013673366  0.011816189         3927 
 4925000   0.47005936   -7.8121181    806.47508   0.01364594  0.011812274         3918 
 4926000   0.46100587   -7.8189506    807.53692  0.013661133   0.01180836         3931 
 4927000   0.46014365   -7.8039181    806.70313  0.013644258   0.01180445         3930 
 4928000   0.46549973   -7.8116151    806.60944  0.013639905   0.01180054         3935 
 4929000   0.45770706   -7.8052926    805.56928  0.013619552   0.01179663         3933 
 4930000   0.45514384   -7.8092115    806.34633  0.013629924  0.011792722         3933 
 4931000     0.462085   -7.7965837    806.74216   0.01363385  0.011788817         3934 
 4932000   0.46173148   -7.8185791    806.95244  0.013634638  0.011784913         3924 
 4933000   0.45472911   -7.8088382    806.82806  0.013629773  0.011781012         3929 
 4934000   0.45557118    -7.827049    807.58292   0.01363976  0.011777112         3934 
 4935000   0.45914286    -7.813621    806.85715  0.013624741  0.011773212         3941 
 4936000   0.45465101   -7.8161057    806.79032  0.013620852  0.011769312         3933 
 4937000   0.46781574   -7.8097033    807.08267  0.013623028  0.011765415         3930 
 4938000   0.47778848   -7.8093673    807.17964  0.013621906  0.011761523         3942 
 4939000    0.4678759    -7.809142    806.67656  0.013610659  0.011757634         3941 
 4940000   0.46643754    -7.818366     806.7186  0.013608613  0.011753745         3937 
 4941000   0.46102962   -7.7949465     805.8968  0.013591999  0.011749854         3927 
 4942000   0.46145682   -7.8017307    805.88719  0.013589086  0.011745964         3936 
 4943000   0.45396819   -7.8257539    806.83028  0.013602237  0.011742078         3929 
 4944000   0.46636946    -7.810631    805.80289  0.013582168  0.011738193         3931 
 4945000   0.45821112   -7.7906429    806.01338  0.013582969  0.011734313         3930 
 4946000   0.45716397   -7.8251764    807.33148  0.013602431  0.011730432         3935 
 4947000   0.46074555   -7.8178683    806.32267  0.013582688  0.011726553         3934 
 4948000   0.45743382    -7.813504    807.14342  0.013593765  0.011722674         3937 
 4949000   0.46143538   -7.8104869    805.84533  0.013569161  0.011718798         3930 
 4950000   0.45364079    -7.826885      806.722  0.013581178  0.011714924         3927 
 4951000   0.45724426   -7.8110748    805.04125  0.013550146  0.011711051         3936 
 4952000   0.45571642   -7.8237444    806.73135  0.013575851  0.011707182         3932 
 4953000   0.46103666   -7.8155609    806.86493  0.013575357  0.011703314         3926 
 4954000   0.45670117   -7.8142536    806.38336  0.013564516  0.011699447         3933 
 4955000   0.44987958   -7.8132141    807.41051  0.013579053  0.011695582         3921 
 4956000   0.47033793   -7.8294455      806.927  0.013568183  0.011691718         3922 
 4957000   0.47011034   -7.8114859    806.48709  0.013558051  0.011687855         3933 
 4958000   0.45677961   -7.8111665    806.69582  0.013558824  0.011683995         3927 
 4959000   0.46532814   -7.8177242    805.95069  0.013543569  0.011680134         3925 
 4960000   0.45213381   -7.8027019    805.18941  0.013528048  0.011676278         3939 
 4961000   0.46371678   -7.8222344    805.06615   0.01352325  0.011672422         3934 
 4962000   0.45850422   -7.8213349    805.54251  0.013528525  0.011668569         3924 
 4963000   0.45178559   -7.8237602     806.8238  0.013547313  0.011664717         3923 
 4964000   0.46372889   -7.8209814    806.25815  0.013535088  0.011660868         3944 
 4965000   0.45873595   -7.8174818    805.02663  0.013511692  0.011657018         3935 
 4966000   0.45890412   -7.8158535    806.26914  0.013529822   0.01165317         3924 
 4967000   0.46346957   -7.8063232    805.00092   0.01350582  0.011649323         3933 
 4968000   0.46617142   -7.8172904    806.08319  0.013521256  0.011645479         3933 
 4969000   0.46458757   -7.8215148    806.73895  0.013529532  0.011641637         3925 
 4970000   0.45931602   -7.8202333    806.09436  0.013516002  0.011637795         3929 
 4971000   0.44614974   -7.8216634    806.28398  0.013516462  0.011633954         3944 
 4972000    0.4590177   -7.8200342    805.99141   0.01350884  0.011630116         3947 
 4973000   0.46198043   -7.8243564    806.37537  0.013512557  0.011626278         3932 
 4974000   0.45069327   -7.8288466    806.97516  0.013519889  0.011622444         3928 
 4975000   0.47032153   -7.8344999    805.86894  0.013498642  0.011618611         3942 
 4976000   0.45106727   -7.8158298    804.85137  0.013478888  0.011614779         3927 
 4977000   0.45604709   -7.8077587    807.23676   0.01351612  0.011610948         3927 
 4978000   0.46077756    -7.819002    805.90908  0.013491179  0.011607121         3921 
 4979000   0.45657841   -7.8125703    806.84676  0.013504164  0.011603291         3936 
 4980000   0.46002357    -7.804524    805.80853  0.013484079  0.011599468         3936 
 4981000   0.44717658   -7.8225036    805.83371  0.013481793  0.011595646         3931 
 4982000   0.46141033   -7.8246848    805.90924   0.01348035  0.011591826         3938 
 4983000   0.45902093   -7.8202575    805.50252  0.013470843  0.011588007         3928 
 4984000   0.45389218   -7.8359318    806.73402  0.013488731  0.011584189         3935 
 4985000   0.45312407   -7.8291637    805.76354  0.013469802  0.011580372         3936 
 4986000   0.46084734   -7.8287649     805.5469  0.013463479   0.01157656         3932 
 4987000   0.45157098   -7.8335135    806.24065  0.013472372  0.011572746         3931 
 4988000   0.44952253   -7.8318039    806.57665  0.013475285  0.011568935         3937 
 4989000   0.45688807   -7.8200788    806.15015   0.01346546  0.011565128         3929 
 4990000   0.44656462   -7.8205159    805.72355  0.013455637  0.011561319         3943 
 4991000   0.46910486   -7.8140762     806.3537  0.013463463  0.011557514         3929 
 4992000   0.45907251   -7.8165605    805.81667  0.013451801   0.01155371         3941 
 4993000   0.45647935   -7.8353028    807.08627  0.013470296  0.011549907         3946 
 4994000   0.45583481   -7.8312191    807.03909  0.013466812  0.011546108         3935 
 4995000   0.44836812    -7.832832    806.72383  0.013458856  0.011542308         3929 
 4996000   0.44592482   -7.8297861    805.19698  0.013430694  0.011538507         3937 
 4997000   0.44826877   -7.8263143    806.29126  0.013446255  0.011534709         3930 
 4998000   0.45030255    -7.837282    806.09966   0.01344037  0.011530915         3921 
 4999000   0.45652679   -7.8288911    805.80248  0.013432728   0.01152712         3937 
 5000000   0.45042562   -7.8169518    805.51479  0.013425246  0.011523329         3937 
 5001000   0.44836983   -7.8200366      804.787  0.013410435  0.011519539         3949 
 5002000   0.45143101   -7.8118232     804.4721  0.013402507  0.011515752         3935 
 5003000   0.44539849   -7.8279709    805.91743  0.013423903  0.011511964         3921 
 5004000   0.45029864   -7.8289616    806.07051   0.01342377   0.01150818         3933 
 5005000   0.44409539   -7.8358203    805.65657  0.013414195  0.011504395         3925 
 5006000   0.45294204   -7.8394697    806.27482  0.013421807  0.011500612         3935 
 5007000   0.45859086   -7.8251423    805.97958  0.013414213  0.011496827         3919 
 5008000   0.44801313   -7.8178336    806.51773  0.013420489  0.011493048         3931 
 5009000   0.45111527   -7.8271644    806.51312  0.013417733   0.01148927         3934 
 5010000   0.45001592   -7.8111617    805.90682   0.01340497  0.011485492         3928 
 5011000   0.45266683   -7.8242642    806.23318  0.013407723  0.011481717         3936 
 5012000   0.45452581   -7.8144757     806.1766  0.013404107  0.011477942         3935 
Loop time of 10652.9 on 48 procs for 5000000 steps with 4000 atoms

Performance: 81104.745 tau/day, 469.356 timesteps/s
99.4% CPU use with 48 MPI tasks x no OpenMP threads

MPI task timing breakdown:
Section |  min time  |  avg time  |  max time  |%varavg| %total
---------------------------------------------------------------
Pair    | 638.27     | 721.48     | 751.48     |  70.4 |  6.77
Neigh   | 66.134     | 67.612     | 69.894     |   9.0 |  0.63
Comm    | 560.95     | 607.94     | 691.56     |  87.5 |  5.71
Output  | 15.278     | 15.282     | 15.358     |   0.3 |  0.14
Modify  | 9088.6     | 9126.4     | 9162.9     |  22.7 | 85.67
Other   |            | 114.2      |            |       |  1.07

Nlocal:        83.3333 ave          87 max          79 min
Histogram: 1 0 6 8 0 12 7 11 1 2
Nghost:        1763.90 ave        1779 max        1749 min
Histogram: 4 2 3 8 6 5 6 9 2 3
Neighs:        10505.3 ave       11032 max        9890 min
Histogram: 4 2 4 6 7 4 4 6 7 4
FullNghs:      21047.0 ave       23080 max       19714 min
Histogram: 5 4 4 12 9 8 3 2 0 1

Total # of neighbors = 1010255
Ave neighs/atom = 252.56375
Neighbor list builds = 269976
Dangerous builds = 0

#clear
#
#next RN
#
#jump SELF
Total wall time: 2:57:35
