
units lj                  # Use reduced LJ style units
atom_style atomic         # Uncharged point particles
atom_modify map hash      # Needed for indexing of clusters etc
                          # Used to be able to find where atoms are in relation to each other.

lattice fcc 1.0 spacing 1 1 1
Lattice spacing in x,y,z = 1.5874011 1.5874011 1.5874011
region box block 0 10 0 10 0 10 units lattice
create_box 2 box
Created orthogonal box = (0.0000000 0.0000000 0.0000000) to (15.874011 15.874011 15.874011)
  3 by 4 by 4 MPI processor grid
create_atoms 1 box
Created 4000 atoms
  using lattice units in orthogonal box = (0.0000000 0.0000000 0.0000000) to (15.874011 15.874011 15.874011)
  create_atoms CPU = 0.003 seconds
set type 1 type/fraction 2 0.15 78393
Setting atom values ...
  634 settings made for type/fraction
mass 1 1.0
mass 2 1.0
pair_style lj/cut  3.5
pair_modify tail  yes
pair_coeff 1  1  1.0  1.0   # Intearaction between 1 and 1 set with epsilon = 1 and sigma = 1
pair_coeff 1  2  1.5  0.8
pair_coeff 2  2  0.5  0.88

write_data data.0
System init for write_data ...
Neighbor list info ...
  update every 1 steps, delay 10 steps, check yes
  max neighbors/atom: 2000, page size: 100000
  master list distance cutoff = 3.8
  ghost atom cutoff = 3.8
  binsize = 1.9, bins = 9 9 9
  1 neighbor lists, perpetual/occasional/extra = 1 0 0
  (1) pair lj/cut, perpetual
      attributes: half, newton on
      pair build: half/bin/atomonly/newton
      stencil: half/bin/3d
      bin: standard
WARNING: Not all mixed pair coeffs generated from mixing. Use write_data with 'pair ij' option to store all pair coeffs. (../write_data.cpp:312)


#############################
#   M E L T   S Y S T E M   #
#############################

velocity all create 2.4 5300450 mom yes dist gaussian # Assign velocities
                                                    # Temperature 2.4, random number seed, zero linear momentum
                                                                                # Gaussian distribution

timestep 0.002   # simulation timestep
thermo 1000       # output thermodynamic data every 1000 steps bf 100

# Define a fix  in this case with index 1 applied to all
# particles in the simulation. This fix is for simulations
# in the anisotropic NPT ensemble. Note that we use the MTK
# correction.
fix 1 all npt temp 2.4 2.4 0.1 iso 5.68 5.68 0.5 mtk yes tchain 5 pchain 5 # Use NPT ensemble
                                                                         # Set temperature and pressure and damping
                                                                         # Numbers of thermostats in chain and in barostat
run 10000          # run for 10000 steps
Per MPI rank memory allocation (min/avg/max) = 3.642 | 3.644 | 3.648 Mbytes
Step Temp E_pair E_mol TotEng Press Volume 
       0          2.4   -7.3553801            0   -3.7562801   -3.3553213         4000 
    1000    2.3911465   -4.6942863            0   -1.1084632    5.6674494    4670.9719 
    2000    2.4223237   -4.7815011            0   -1.1489239    5.5453784    4640.3188 
    3000    2.4036981   -4.7083799            0   -1.1037341    5.5707756     4664.975 
    4000    2.4038668   -4.7310589            0   -1.1261601    6.1379318    4595.3328 
    5000    2.3845415   -4.7717668            0   -1.1958487    5.8234929    4605.9191 
    6000    2.3905482    -4.717125            0   -1.1321991    5.6108921     4669.636 
    7000    2.4066731   -4.7209668            0   -1.1118596      5.98131    4626.6426 
    8000    2.3630775   -4.6522901            0     -1.10856    5.9952623    4650.0407 
    9000    2.4393288   -4.7879165            0   -1.1298381    5.5995365    4626.0157 
   10000    2.4096605   -4.7358703            0   -1.1222832    5.8963942    4624.4906 
Loop time of 2.29501 on 48 procs for 10000 steps with 4000 atoms

Performance: 752938.580 tau/day, 4357.283 timesteps/s
99.7% CPU use with 48 MPI tasks x no OpenMP threads

MPI task timing breakdown:
Section |  min time  |  avg time  |  max time  |%varavg| %total
---------------------------------------------------------------
Pair    | 0.94827    | 1.0023     | 1.1458     |   3.8 | 43.67
Neigh   | 0.18999    | 0.20069    | 0.23101    |   1.5 |  8.74
Comm    | 0.66777    | 0.82444    | 0.89524    |   5.4 | 35.92
Output  | 0.00024116 | 0.00024472 | 0.00030935 |   0.0 |  0.01
Modify  | 0.22597    | 0.25272    | 0.30951    |   4.7 | 11.01
Other   |            | 0.01462    |            |       |  0.64

Nlocal:        83.3333 ave          94 max          73 min
Histogram: 2 1 7 5 6 9 14 2 1 1
Nghost:        1489.29 ave        1522 max        1457 min
Histogram: 2 3 4 6 7 14 4 2 3 3
Neighs:        8247.96 ave        9536 max        6675 min
Histogram: 1 1 2 7 5 13 11 6 1 1

Total # of neighbors = 395902
Ave neighs/atom = 98.975500
Neighbor list builds = 902
Dangerous builds = 168

# Equilibrate just above the melting temperature to avoid step fn in T

fix 1 all npt temp 1.25 1.25 0.1 iso 5.68 5.68 0.5 mtk yes tchain 5 pchain 5
run 2000
Per MPI rank memory allocation (min/avg/max) = 3.642 | 3.644 | 3.648 Mbytes
Step Temp E_pair E_mol TotEng Press Volume 
   10000    2.4096605   -4.7358703            0   -1.1222832    5.8963942    4624.4906 
   11000    1.2234982   -6.3451822            0   -4.5103937    5.7770223    3814.4307 
   12000    1.2582939   -6.4055235            0   -4.5185545     5.546034    3810.2836 
Loop time of 0.483374 on 48 procs for 2000 steps with 4000 atoms

Performance: 714974.123 tau/day, 4137.582 timesteps/s
99.7% CPU use with 48 MPI tasks x no OpenMP threads

MPI task timing breakdown:
Section |  min time  |  avg time  |  max time  |%varavg| %total
---------------------------------------------------------------
Pair    | 0.21408    | 0.23538    | 0.25453    |   1.8 | 48.69
Neigh   | 0.031675   | 0.033956   | 0.036549   |   0.5 |  7.02
Comm    | 0.14437    | 0.1628     | 0.18922    |   2.4 | 33.68
Output  | 5.0778e-05 | 5.2036e-05 | 6.5519e-05 |   0.0 |  0.01
Modify  | 0.04126    | 0.046658   | 0.05262    |   1.4 |  9.65
Other   |            | 0.004536   |            |       |  0.94

Nlocal:        83.3333 ave          92 max          75 min
Histogram: 1 2 7 6 9 9 5 6 2 1
Nghost:        1695.62 ave        1716 max        1667 min
Histogram: 2 1 1 5 8 7 8 8 5 3
Neighs:        10016.7 ave       11064 max        8661 min
Histogram: 1 1 3 5 11 7 7 6 3 4

Total # of neighbors = 480800
Ave neighs/atom = 120.20000
Neighbor list builds = 143
Dangerous builds = 8

#############################
# L I N E A R  Q U E N C H  #
#############################

# Define solid atoms. This closely follows ten Wolde  Ruiz-Montero and Frenkel  Faraday Discuss  1996  104  93-110
# Compute components of the per-atom q6 vector
compute q6 all orientorder/atom degrees 1 6 components 6 nnn NULL cutoff 1.3 # compute the Q6 parameter.
                                                                             # Use all neighbours within 1.3 unit cell.

# get number of connections
compute coord_number all coord/atom orientorder q6 0.5

# An atom is solid if it has 8 or more connections (of a possible 14)
variable is_solid atom c_coord_number>=8
group solid dynamic all var is_solid    # Must be dynamic to update
dynamic group solid defined

# do clustering
compute cluster solid cluster/atom 1.3 # Create a cluster where all atoms within are solid and max 1.3 units from another member

# define chunks one chunk per cluster
compute clus_chunks solid chunk/atom c_cluster nchunk every compress yes  # Says which atoms are in which chunk

# count the size of each chunk
compute size_chunks solid property/chunk clus_chunks count


# Find the maximum entry in the vector of chunk sizes
variable max_n equal max(c_size_chunks)


# Thermo style which includes this variable
# thermo_style custom step temp pe vol v_max_n

thermo ${N}  # Print the thermo information every 100 steps
thermo 1000  

# Reset the npt fix at a lower temperature (below freezing)
fix 1  all npt temp  ${temp} ${temp}  0.1  iso  5.68  5.68  0.5  mtk yes tchain  5  pchain  5
fix 1  all npt temp  0.45 ${temp}  0.1  iso  5.68  5.68  0.5  mtk yes tchain  5  pchain  5
fix 1  all npt temp  0.45 0.45  0.1  iso  5.68  5.68  0.5  mtk yes tchain  5  pchain  5

dump dmp2 all dcd ${N} traj.dcd
dump dmp2 all dcd 1000 traj.dcd


compute msd all msd com yes
variable twopoint equal c_msd[4]/6/(step*dt+1.0e-6)
fix 9 all vector 10 c_msd[4]
variable fit equal slope(f_9)/6/(10*dt)
thermo_style custom step temp pe c_msd[4] v_twopoint v_fit v_max_n

fix 1 all npt temp 1.25 ${temp} 0.1 iso 5.68 5.68 0.5 mtk yes tchain 5 pchain 5
fix 1 all npt temp 1.25 0.45 0.1 iso 5.68 5.68 0.5 mtk yes tchain 5 pchain 5
run 2000000 # 5000000  # Run for this many steps
Neighbor list info ...
  update every 1 steps, delay 10 steps, check yes
  max neighbors/atom: 2000, page size: 100000
  master list distance cutoff = 3.8
  ghost atom cutoff = 3.8
  binsize = 1.9, bins = 9 9 9
  4 neighbor lists, perpetual/occasional/extra = 1 3 0
  (1) pair lj/cut, perpetual
      attributes: half, newton on
      pair build: half/bin/atomonly/newton
      stencil: half/bin/3d
      bin: standard
  (2) compute orientorder/atom, occasional
      attributes: full, newton on
      pair build: full/bin/atomonly
      stencil: full/bin/3d
      bin: standard
  (3) compute coord/atom, occasional
      attributes: full, newton on
      pair build: full/bin/atomonly
      stencil: full/bin/3d
      bin: standard
  (4) compute cluster/atom, occasional
      attributes: full, newton on
      pair build: full/bin/atomonly
      stencil: full/bin/3d
      bin: standard
Per MPI rank memory allocation (min/avg/max) = 9.760 | 9.768 | 9.774 Mbytes
Step Temp PotEng c_msd[4] v_twopoint v_fit v_max_n 
   12000    1.2582939   -6.4055235            0            0 8.3333333e+20            2 
   13000    1.2434789   -6.3831329   0.54479688 0.0034922876  0.044723712            3 
   14000      1.24154   -6.3791238    1.0959968   0.00652379  0.045181604            2 
   15000    1.2391644   -6.3871862    1.6489552  0.009160862  0.045297363            2 
   16000    1.2302559   -6.3866004    2.1729788  0.011317597  0.045219378            3 
   17000    1.2363077   -6.4028138    2.7331731  0.013397907  0.045125786            2 
   18000    1.2670427    -6.389988    3.2862926  0.015214317  0.045338105            5 
   19000    1.2131597   -6.3920723    3.8636772  0.016945952  0.045568209            2 
   20000    1.2557807   -6.4246798    4.4658668  0.018607778  0.045983155            2 
   21000    1.2272205   -6.3653651      5.02455   0.01993869  0.046374838            1 
   22000    1.2619648   -6.3970909    5.5273154    0.0209368   0.04639159            1 
   23000    1.2304011   -6.3882534    6.0775807   0.02202022  0.046256762            3 
   24000    1.2436081   -6.4119402     6.550351  0.022744274  0.046112594            2 
   25000    1.2232261   -6.3762101    7.0704671  0.023568223  0.045821344            4 
   26000    1.2344775   -6.3841939    7.5431408  0.024176733  0.045569473            3 
   27000    1.2348171   -6.3945839    8.0346928  0.024798434  0.045233967            1 
   28000    1.2198004   -6.4118632     8.648797  0.025740467  0.045032046            2 
   29000    1.2310105   -6.3895184    9.1647519  0.026335493   0.04493371            2 
   30000    1.2237103   -6.3660616    9.6642095  0.026845026  0.044839238            5 
   31000    1.2464778   -6.4237774    10.075423  0.027084471  0.044655603            2 
   32000    1.2340762   -6.3849001    10.639997  0.027708324   0.04443247            2 
   33000    1.2311649   -6.4351347     11.12851  0.028102299  0.044273856            5 
   34000    1.2217499   -6.4163442    11.702116  0.028681656  0.044140969            3 
   35000    1.2348406   -6.4024348    12.335052  0.029369171  0.044132346            1 
   36000    1.2376641   -6.3940712    12.923174  0.029914755  0.044168789            2 
   37000     1.235515   -6.4231928    13.336414  0.030036967  0.044155863            2 
   38000    1.2439926   -6.4112063    13.694731  0.030032305  0.044067975            2 
   39000    1.2672671   -6.4153081    14.157757  0.030251616  0.043928037            2 
   40000    1.2180249   -6.4112507    14.802158  0.030837829   0.04384229            2 
   41000    1.2413082    -6.442102    15.260869  0.031018026  0.043780055            2 
   42000    1.2638146    -6.412787    15.769887  0.031289458  0.043705541            2 
   43000     1.275078   -6.3926506    16.161924  0.031321558  0.043613104            2 
   44000    1.2528138   -6.4030107    16.798859  0.031816021  0.043506777            1 
   45000    1.2127217   -6.4296293    17.233443  0.031913784   0.04344075            2 
   46000    1.2610499   -6.3943514    17.789174  0.032226764  0.043369617            1 
   47000    1.2246192   -6.3965192    18.236213   0.03233371  0.043295917            3 
   48000    1.2299322   -6.4160948    18.702066  0.032468865  0.043216737            2 
   49000    1.2554235   -6.4185278    19.193081  0.032641293  0.043131319            1 
   50000    1.2143681   -6.4606285    19.666805  0.032778008  0.043066102            3 
   51000    1.2111685   -6.4166012    20.254412  0.033095444  0.043024688            2 
   52000    1.2283598   -6.4177318    20.770444  0.033285968  0.042989388            5 
   53000    1.2478739   -6.4378458    21.114858  0.033199462  0.042934496            2 
   54000    1.2086348   -6.4111333    21.586776  0.033312926  0.042854276            1 
   55000    1.2307061   -6.3767093    22.087416  0.033465782  0.042785865            1 
   56000    1.2371084   -6.4106848    22.655004  0.033712804  0.042731056            3 
   57000    1.2512098    -6.415197    23.286793  0.034045019  0.042690625            3 
   58000    1.2275705    -6.406735    23.819859  0.034223935  0.042682548       -1e+20 
   59000    1.2259172   -6.4383172    24.334566  0.034370856  0.042678684            4 
   60000    1.2342726   -6.4345131    24.894767  0.034576065   0.04268358            1 
   61000    1.2658658   -6.4146078     25.45929  0.034780451  0.042689059            3 
   62000    1.2216967   -6.4172047    26.028964  0.034985166  0.042704277            2 
   63000    1.2140292   -6.3745098     26.30762  0.034798439  0.042699928            1 
   64000     1.214089   -6.4197999    26.710735  0.034779603  0.042673492            2 
   65000    1.2539992   -6.4294798    27.279438  0.034973638  0.042639136            2 
   66000     1.234818   -6.4358273    27.851444  0.035165965  0.042613033            3 
   67000    1.2373656   -6.4347261    28.271138  0.035163106   0.04259238            5 
   68000    1.2349847   -6.4526512     28.84214   0.03534576  0.042580204            3 
   69000    1.2377195   -6.4476486    29.300504  0.035387082  0.042562568            2 
   70000    1.2119186   -6.4235902    29.675786  0.035328317  0.042521503            3 
   71000    1.2510191   -6.4603504     30.08175  0.035307218  0.042477895            1 
   72000    1.2167959   -6.4366908    30.679203  0.035508336  0.042440159            2 
   73000    1.2376229   -6.4486361    31.262571  0.035687866  0.042414728            3 
   74000    1.1911945   -6.4036311    31.858982  0.035877232  0.042401043            1 
   75000    1.2122519   -6.4565438     32.24217  0.035824633  0.042383865            2 
   76000     1.216765   -6.4768234    32.375654   0.03549962  0.042341549            1 
   77000    1.2046549   -6.4205369    32.800701  0.035498593  0.042277809            2 
   78000    1.2473722   -6.4370069    33.329847  0.035608811  0.042221776            4 
   79000    1.2209098   -6.4133848    33.720412  0.035570055  0.042165402            3 
   80000    1.2319428   -6.4402762    34.267731  0.035695553  0.042100285            2 
   81000    1.2045929   -6.4369862    34.469129  0.035462067  0.042030647            2 
   82000    1.2017312   -6.4766034    34.861877  0.035428737  0.041953664            2 
   83000    1.2139528   -6.4813849    35.238596  0.035380116  0.041865946            2 
   84000    1.2382773   -6.4178137    35.735794  0.035452176  0.041776894            2 
   85000    1.2046916   -6.4447267    36.171986  0.035462731   0.04170111            2 
   86000    1.2315644   -6.4273237    36.859817  0.035716877  0.041628702            1 
   87000    1.2167047   -6.4548316    37.353289  0.035779012  0.041562576            1 
   88000     1.221994   -6.4395683    37.923135  0.035912059  0.041506356            3 
   89000    1.1861927   -6.4529773    38.129034  0.035701342  0.041445488            1 
   90000    1.2149136   -6.4270308    38.841217  0.035964089  0.041391878            4 
   91000    1.2209989   -6.4623898    39.126241  0.035829891  0.041337011            2 
   92000    1.2303741   -6.3901302    39.843608  0.036090224  0.041290504            2 
   93000    1.2207231   -6.4691978    40.121247  0.035950938  0.041247609            3 
   94000    1.2080636   -6.4396398    40.782487  0.036154687  0.041205098            2 
   95000    1.2071597   -6.4048345    41.236832   0.03617266  0.041164002            4 
   96000    1.2335903   -6.4547355    41.728732  0.036222858  0.041132111            3 
   97000    1.2210151   -6.4368485     42.45231  0.036471056  0.041107386            3 
   98000    1.2170889    -6.440346    42.636347  0.036255397  0.041083984            1 
   99000    1.2198084   -6.4512438    43.177852  0.036344993  0.041052316            2 
  100000    1.2064909   -6.4801359    43.530306  0.036275255  0.041017871            1 
  101000    1.2107203   -6.4368442     44.12222  0.036404471  0.040986059            2 
  102000    1.2185743   -6.4512902    44.525163  0.036376767  0.040959448            2 
  103000    1.2061198   -6.4441277    45.064565  0.036460004  0.040934687            3 
  104000    1.2014155   -6.4224502    45.730618  0.036643123  0.040910975            1 
  105000     1.235155    -6.505371    46.032056  0.036533378  0.040893871            5 
  106000     1.206098   -6.4653966    46.814858  0.036804133  0.040880558            1 
  107000    1.2160582   -6.4569568    47.233458  0.036786182  0.040867396            4 
  108000     1.219298   -6.4628866    47.532237  0.036676108  0.040850635            3 
  109000    1.2233656   -6.4326328    47.879574  0.036605179  0.040822999            3 
  110000    1.1913926   -6.4909238     48.38261  0.036653493  0.040794262            1 
  111000    1.2043718   -6.4764782    48.854294  0.036677398  0.040774749            2 
  112000    1.2332588   -6.4581249     49.85087  0.037091421  0.040759956            2 
  113000     1.225104   -6.4395099    50.245159  0.037053952  0.040754622            1 
  114000    1.2047275   -6.4600451    50.813317  0.037144238  0.040750778            4 
  115000    1.1958784   -6.5287468    51.173363  0.037082147  0.040748083            4 
  116000    1.2297677   -6.4234358    51.912206  0.037293251  0.040749758            2 
  117000    1.1943537   -6.4757146    52.422076  0.037337661   0.04075897            2 
  118000    1.2071684   -6.4518269    52.910219  0.037365974  0.040768757            2 
  119000    1.2146771   -6.4727936    53.397364  0.037393112  0.040778055            4 
  120000    1.2062336   -6.4702824    53.940397  0.037458609   0.04079051            3 
  121000    1.2011935   -6.4521295    54.708549  0.037678064  0.040806484            4 
  122000    1.2193189   -6.4663262    55.131804  0.037658336  0.040826393            5 
  123000    1.2194612   -6.4451724    55.326167  0.037483853  0.040842757            1 
  124000    1.1970082   -6.4699853    56.008587  0.037640179  0.040851547            2 
  125000    1.2289386   -6.5081137    56.092411   0.03739494  0.040855988            2 
  126000    1.2246237   -6.4448482    56.539361  0.037393757  0.040850455            3 
  127000    1.2033146   -6.4868926    56.776545  0.037254951  0.040840423            2 
  128000    1.2141366   -6.4957635    57.116932  0.037185503  0.040829516            4 
  129000     1.197145   -6.4947599    57.865289  0.037380678  0.040816653            1 
  130000    1.2007313   -6.4929566    58.212371  0.037315622  0.040802981            5 
  131000    1.2068737    -6.467963    58.792961  0.037400102  0.040789577            2 
  132000    1.2036979   -6.4841059    58.878881  0.037171011  0.040768179            2 
  133000    1.1878476   -6.4462346    59.695433  0.037403153  0.040747122            2 
  134000    1.1936006    -6.484413     59.94556  0.037279577  0.040726907            3 
  135000    1.1839589   -6.5054058    60.521397  0.037358887  0.040710826            4 
  136000    1.1939755   -6.4834168    61.237138  0.037522756   0.04070001            2 
  137000    1.2038088   -6.4803762    61.508277  0.037413794  0.040688416            1 
  138000    1.2320042   -6.4911085    61.853571   0.03735119  0.040675786            1 
  139000    1.1889862     -6.46757    62.516614  0.037479984  0.040664091            4 
  140000    1.1712192   -6.5025713    62.911227  0.037447159  0.040650229            2 
  141000    1.1905859   -6.4967867    63.300644  0.037411728  0.040637062            1 
  142000    1.1989857   -6.5109976    63.884756  0.037491054  0.040625622            1 
  143000    1.2098017   -6.4873262    64.469237  0.037569485  0.040612685            2 
  144000    1.1953055   -6.4845811    64.872393  0.037541894  0.040602261            2 
  145000     1.214743   -6.4849627    65.402077    0.0375874  0.040592322            2 
  146000    1.1963821   -6.4819558     65.67765  0.037487243  0.040576566            2 
  147000     1.216618   -6.4857278     66.10486   0.03747441   0.04056158            2 
  148000    1.2089047   -6.4889404    66.649423  0.037527828  0.040549553            4 
  149000    1.2112629   -6.4934975    67.296299  0.037637751  0.040537056            1 
  150000    1.2034794   -6.5011429    67.491723  0.037495401  0.040524685            2 
  151000    1.1905517   -6.4835618    67.996332   0.03752557  0.040515408            3 
  152000     1.170791   -6.4389504    68.776986  0.037706681  0.040502082            4 
  153000    1.1925168   -6.5102535    68.952877  0.037556033    0.0404892            3 
  154000    1.1988349    -6.487961    69.291861  0.037495596  0.040471522            1 
  155000    1.1777271   -6.5000272    69.797306  0.037525433  0.040458823            2 
  156000    1.1913839   -6.5041257      70.4397  0.037628045  0.040442515            2 
  157000    1.1895786   -6.4718326    70.772383  0.037564959  0.040427372            2 
  158000    1.2209725   -6.4792517    71.421049   0.03766933  0.040412947            4 
  159000    1.1920502   -6.4995517    71.721561  0.037589916    0.0403985            1 
  160000      1.19834   -6.4788873    72.035261  0.037518365  0.040382575            1 
  161000    1.2055075   -6.5026873    72.531742  0.037542309  0.040366404            2 
  162000    1.2038449   -6.4684632    73.066185  0.037585486  0.040351871            2 
  163000    1.1780803   -6.5044524    73.479627  0.037566271  0.040337176            3 
  164000    1.1902238   -6.4773558    73.796226  0.037498082  0.040320013            1 
  165000    1.2231617   -6.4891398    74.572798  0.037663029  0.040305306            2 
  166000    1.1948526   -6.5050994    74.757518  0.037528874  0.040290992            3 
  167000    1.2002723   -6.5663207    75.406152   0.03762782  0.040277544            2 
  168000    1.1950315   -6.5145269    76.051643  0.037724029  0.040267246            4 
  169000    1.2005289   -6.5213141    76.023971  0.037487165   0.04025265            3 
  170000    1.2007699   -6.4823942    76.758334  0.037626634  0.040238427            3 
  171000    1.1916297   -6.4916975    77.343313  0.037691673  0.040223974            4 
  172000    1.1746912   -6.4997432    77.649945  0.037621097  0.040207608            1 
  173000    1.2038322   -6.5289903    77.883018  0.037515904  0.040187689            4 
  174000    1.1988862   -6.5202772     78.21888   0.03746115   0.04016839            1 
  175000    1.1756861   -6.5222578    78.819814  0.037533245  0.040148827            3 
  176000    1.1530739   -6.5280902    79.124933  0.037464457   0.04013005            2 
  177000    1.1775116   -6.5130708    79.497345  0.037428128  0.040111285            2 
  178000    1.1772197   -6.5261556     80.01178  0.037458698  0.040093628            2 
  179000    1.1936934   -6.5066899    80.147816  0.037312764  0.040074636            3 
  180000     1.189072   -6.5423734    80.738614  0.037378988  0.040052491            3 
  181000    1.1873873   -6.5439769    80.960433  0.037274601  0.040027539            4 
  182000    1.1829849    -6.500658    81.611551  0.037367926  0.040001034            2 
  183000     1.169076    -6.478894    81.972241  0.037327979  0.039975437            3 
  184000    1.1976029   -6.5417789     82.41069  0.037323682  0.039949908            3 
  185000    1.1870473   -6.5108787    82.309635  0.037076412  0.039920329            1 
  186000    1.1833813   -6.5377719    82.772324  0.037084374   0.03988937            3 
  187000    1.2121128   -6.5115476    83.118165  0.037040181  0.039857498            2 
  188000    1.1902042   -6.5468654    83.891961  0.037186153   0.03982733            4 
  189000    1.2037198    -6.509242    84.301244   0.03716986  0.039796695            3 
  190000    1.1576774   -6.5293977    84.436358   0.03703349  0.039766438            2 
  191000    1.1726869   -6.5434938    85.169634  0.037159526  0.039735896            4 
  192000    1.1784704   -6.5546588    85.513526  0.037115246  0.039707483            1 
  193000    1.1910883   -6.5571259    85.800273   0.03704675  0.039680016            3 
  194000    1.1494103   -6.5133729    86.532894  0.037170487  0.039652889            2 
  195000    1.1888868   -6.5276527    86.889821  0.037132402  0.039625873            4 
  196000    1.1787349   -6.4740275    87.299931  0.037117318  0.039598231            1 
  197000    1.1976275   -6.5104901    87.624906  0.037066373  0.039570072            4 
  198000    1.1530144   -6.5123908    88.516508  0.037254422  0.039544972            3 
  199000     1.199744   -6.5701951    88.540287  0.037077172  0.039521481            3 
  200000    1.1946526   -6.5041892    89.196158  0.037165066  0.039498627            2 
  201000    1.1683652    -6.489656    89.955965  0.037295176  0.039476793            2 
  202000    1.1506928   -6.5926966    89.742106  0.037022321  0.039454539            4 
  203000    1.1709598   -6.5406994    90.342903  0.037086578  0.039431401            2 
  204000    1.1765493    -6.517451    91.048018  0.037192818  0.039406922            2 
  205000    1.1740188   -6.5377024    90.936812  0.036966184  0.039381627            1 
  206000    1.1942219   -6.5182315    91.788299  0.037131189  0.039357337            5 
  207000    1.1500618   -6.5523987    91.795516  0.036954717  0.039332831            7 
  208000    1.1620207   -6.5849314    92.268757  0.036966649  0.039307204            3 
  209000    1.1803802   -6.5712162     92.60579  0.036924159  0.039283321            2 
  210000    1.1865873   -6.5283908    93.293777   0.03702134  0.039260791            2 
  211000    1.1714505   -6.5478025    93.876473  0.037076016  0.039236896            1 
  212000    1.1610488   -6.5835296    93.927211  0.036921073  0.039213793            3 
  213000    1.1748399   -6.5029518    94.687854  0.037045326  0.039188694            2 
  214000    1.1494435   -6.5228065    94.702089   0.03687776  0.039164002            3 
  215000    1.1709029   -6.5340186    95.534355   0.03702882  0.039139002            3 
  216000    1.1789365   -6.5641772    95.999175  0.037036719  0.039114588            1 
  217000    1.1641525   -6.5209676    96.364766  0.037006439  0.039092161            3 
  218000     1.153655   -6.5482313    96.821421  0.037011247  0.039069668            1 
  219000    1.1683333   -6.5576171    97.268652  0.037012425   0.03904993            4 
  220000    1.1518351   -6.5313405    97.746761  0.037025288  0.039030426            1 
  221000    1.1435899   -6.5582018    98.395791  0.037102485   0.03901168            3 
  222000    1.1803783   -6.4960013    99.095597  0.037198047  0.038993786            1 
  223000    1.1814871   -6.5845188    98.799288  0.036920511  0.038973984            4 
  224000     1.163286    -6.517484    99.696003  0.037089287  0.038953691            2 
  225000    1.1925512    -6.548481    99.969051  0.037025574  0.038935631            3 
  226000    1.1783276   -6.5517877    100.67281  0.037121243  0.038918875            3 
  227000     1.146238   -6.5471628    101.45839  0.037246106  0.038905021            3 
  228000     1.175597   -6.5558835    101.86206  0.037230287  0.038890949            2 
  229000    1.1454838    -6.551861    102.14376  0.037170217  0.038877804            3 
  230000    1.1524735   -6.5333939    102.06854  0.036981353  0.038863254            2 
  231000    1.1509796   -6.5693802    102.38489  0.036935386  0.038846031            2 
  232000    1.1571119   -6.5707902     102.9549  0.036980928  0.038828667            3 
  233000    1.1490787   -6.5144022    103.67715  0.037080526  0.038812209            2 
  234000    1.1579073   -6.5142911    104.02536  0.037046069  0.038795291            1 
  235000    1.1607918   -6.5361073    104.26084  0.036971929  0.038776042            3 
  236000    1.1380084     -6.56814     104.5776  0.036927118  0.038755111            4 
  237000    1.1651327   -6.5105305    104.84319  0.036864693  0.038734236            2 
  238000    1.1708656   -6.5955202    104.97196  0.036754889  0.038711915            2 
  239000    1.1381865   -6.5508503    105.50757  0.036787857  0.038689294            4 
  240000    1.1567892   -6.5726343    105.87325  0.036761546  0.038667814            3 
  241000    1.1615022   -6.6059828    106.18402  0.036716466  0.038645588            4 
  242000    1.1552464   -6.5754785    107.00253  0.036846601  0.038624119            4 
  243000    1.1580736   -6.5894761    107.14848  0.036745022  0.038604329            1 
  244000    1.1404108   -6.5623379      107.187  0.036607583  0.038582634            3 
  245000    1.1333277   -6.5702739     107.3714  0.036520883  0.038559778            2 
  246000    1.1459016   -6.5669052    108.01515    0.0365905  0.038535298            1 
  247000    1.1643953   -6.5680696    108.41972  0.036578852  0.038509853            1 
  248000    1.1473624   -6.5788843    108.45242  0.036442344  0.038485007            2 
  249000    1.1315226   -6.5497688    108.93428  0.036457255  0.038458048            4 
  250000    1.1579808   -6.5868852    109.64447  0.036548158  0.038433042            5 
  251000    1.1251288   -6.5992464    110.52673  0.036695462  0.038408244            2 
  252000    1.1564208   -6.5879562    110.48282  0.036535323  0.038384694            2 
  253000    1.1449525   -6.5467683    110.81856  0.036501501  0.038361795            1 
  254000    1.1525612   -6.5764665    111.38497  0.036543624   0.03834009            3 
  255000    1.1537192   -6.5561913    111.78588  0.036531333  0.038317795            3 
  256000    1.1310395   -6.5416299     112.6415  0.036667155  0.038294475            5 
  257000    1.1695165   -6.5802508    112.06707   0.03633822  0.038271223            1 
  258000    1.1345149   -6.5647097    112.74951  0.036417799  0.038245863            3 
  259000    1.1777376   -6.6073144    112.96115  0.036345287  0.038221858            2 
  260000    1.1575504   -6.5714604    113.56465  0.036398926  0.038198171            4 
  261000    1.1186566   -6.5719433    114.22437  0.036470104  0.038174859            5 
  262000    1.1313494   -6.5138402    114.72163  0.036489069  0.038152806            2 
  263000    1.1586175   -6.5627269    114.70491  0.036345027   0.03813106            5 
  264000    1.1095087   -6.5535088    115.54373  0.036472136  0.038108075            3 
  265000    1.1368822    -6.588279    115.78709  0.036411035  0.038087008            3 
  266000    1.1410885   -6.5763843    116.22001  0.036409778  0.038065252            2 
  267000    1.1298771   -6.5940271    115.93008  0.036182921  0.038041629            2 
  268000    1.1749516   -6.6264853    116.86846  0.036339694  0.038017263            2 
  269000    1.1520834   -6.6175147    116.56738  0.036111331  0.037992713            2 
  270000    1.1348674   -6.5514726    117.28932  0.036200406  0.037966927            2 
  271000    1.1512445   -6.5676019    117.37207  0.036092272  0.037941196            2 
  272000    1.1484001   -6.5381858    118.00789  0.036154379  0.037915659            1 
  273000    1.1320762   -6.5934168    118.35006  0.036126391  0.037890807            3 
  274000    1.1509733   -6.5519428    118.93754  0.036173218  0.037866511            3 
  275000    1.1203973   -6.5733829    119.49956  0.036211987    0.0378432            4 
  276000    1.1531337   -6.5747992    119.50602  0.036082734  0.037818155            2 
  277000    1.1461209   -6.5864673    120.22524  0.036168846  0.037794182            4 
  278000    1.1724656   -6.5538365    120.70532  0.036182649  0.037769337            3 
  279000    1.1169408   -6.6315746    120.57126  0.036012922  0.037744957            3 
  280000    1.1468144   -6.5943048    120.64434  0.035906052  0.037719756            3 
  281000    1.1590721   -6.5789573    121.01169  0.035887214  0.037693779            3 
  282000    1.1330387   -6.6074121      121.471  0.035895685  0.037667921            1 
  283000    1.1671587   -6.6090511    121.98844  0.035921213   0.03764204            2 
  284000    1.1337961   -6.6027488    122.10416  0.035828685  0.037615256            2 
  285000     1.139877   -6.6099622    122.43194  0.035798813   0.03758674            3 
  286000     1.143755   -6.5767311    123.03777  0.035850165  0.037559258           10 
  287000    1.1349885   -6.6111396    123.50623  0.035861273  0.037532814            2 
  288000    1.1523569   -6.6098607    123.66013  0.035781287  0.037505738            2 
  289000    1.1258844    -6.607961    124.38693   0.03586705   0.03747976            2 
  290000    1.1128654   -6.5462476    124.79581  0.035860865  0.037455276            2 
  291000    1.1392828   -6.5796836    124.78119  0.035733444  0.037430207            4 
  292000    1.1541102   -6.5950929    125.74071  0.035884904  0.037403783            1 
  293000    1.1533456    -6.612329    125.46558  0.035684181  0.037378099            5 
  294000    1.1193979   -6.6411618    125.77406  0.035650243  0.037352286            4 
  295000    1.1301919   -6.5946986    126.67305  0.035783348  0.037327718            3 
  296000     1.145989   -6.6028753    126.90102  0.035726638  0.037303448            5 
  297000    1.1191069   -6.6050276    127.28942  0.035715325  0.037279926            2 
  298000    1.1467602    -6.614989    127.80782  0.035740443  0.037256122            2 
  299000    1.1458687   -6.5809946    127.92123  0.035652516   0.03723093            8 
  300000    1.1220719   -6.6070122     127.9009  0.035528029  0.037204003            4 
  301000    1.1322423    -6.603805    128.57054  0.035595387  0.037177224            1 
  302000    1.1360729   -6.5501798    128.93226  0.035577334   0.03715169            8 
  303000    1.1201436   -6.6070705    129.42783  0.035596212  0.037126435            2 
  304000    1.1281824   -6.6066814    129.23006  0.035424907  0.037098639            2 
  305000    1.1404987   -6.5985504    129.71525  0.035441324  0.037070444            2 
  306000    1.1387808   -6.6328959    129.98728  0.035399587  0.037042895            3 
  307000    1.1064337   -6.6501449    129.70872  0.035208665  0.037014712            2 
  308000    1.1005111   -6.5799411    130.43862  0.035291833  0.036985462            2 
  309000    1.1215813   -6.6050266    130.39946   0.03516706  0.036956515            3 
  310000    1.1309277   -6.5995888    131.39585  0.035321465  0.036927167            3 
  311000    1.1142185   -6.6133345    131.44078  0.035219931  0.036898824            3 
  312000    1.1260043   -6.6083784    132.58168  0.035411774  0.036872397            1 
  313000    1.1024924   -6.6194727    132.87595  0.035376984  0.036846766            2 
  314000    1.1227738   -6.6131372    133.32729  0.035384101  0.036822912            4 
  315000    1.1241993   -6.6008281    133.77812  0.035391037   0.03679878            2 
  316000    1.1533274   -6.6376753    134.77155  0.035541022  0.036776968            2 
  317000    1.1514359   -6.5786143    135.15537  0.035529802  0.036755279            3 
  318000    1.1331149   -6.6338094    134.99631   0.03537639  0.036732768            2 
  319000    1.1241532   -6.5939211    135.44116  0.035381704   0.03671087            2 
  320000    1.1513956   -6.6135457    135.87887  0.035385121  0.036688738            2 
  321000    1.1139646   -6.5839182    136.17175   0.03535092  0.036666639            3 
  322000    1.1347266   -6.6345426    136.80041  0.035403832  0.036643862            4 
  323000    1.1329129   -6.6242018    136.70532   0.03526969  0.036621575            3 
  324000    1.1556652    -6.626838    137.15675  0.035276942  0.036598271            3 
  325000    1.1196179   -6.5893135    137.67425  0.035301089  0.036574748            3 
  326000    1.1228249    -6.617235    137.53869  0.035158152  0.036550553            2 
  327000    1.1353526   -6.6102192    138.56095   0.03531115  0.036527758            7 
  328000    1.1359799   -6.6439818    138.64557  0.035224993  0.036504778            2 
  329000       1.1329   -6.6386192    138.84937  0.035169546   0.03648094            3 
  330000    1.1222754   -6.6813729    138.94556  0.035087263  0.036457291            3 
  331000    1.1320146   -6.6198649    139.44004  0.035105751  0.036432631            2 
  332000    1.1431388   -6.6211435    140.16051  0.035180851  0.036409025            6 
  333000    1.1283609   -6.6307679    140.32098  0.035115361  0.036385188            2 
  334000    1.1244427    -6.621213    140.68967  0.035102212   0.03636169            2 
  335000    1.1173079   -6.5842997    141.70667  0.035250416  0.036339104            3 
  336000    1.1237099   -6.6488865     140.7467  0.034907416  0.036316922            2 
  337000    1.1238134   -6.6567824    141.43201  0.034973295  0.036293484            3 
  338000     1.143288    -6.650444    142.20019  0.035059217  0.036270944            5 
  339000    1.1256608   -6.6290721    142.56774   0.03504615  0.036248919            3 
  340000    1.1140958   -6.6068925    143.18113  0.035093415  0.036227775            2 
  341000    1.1373944   -6.6282491    143.91077  0.035168809  0.036206857            3 
  342000    1.1025964   -6.6477512    143.43489  0.034950023  0.036185579            3 
  343000    1.1277392   -6.6181772    144.31319  0.035061513    0.0361643            2 
  344000    1.1194717   -6.6559392    144.47351  0.034998429  0.036142602            2 
  345000    1.1165558   -6.6736569    144.33574  0.034863705  0.036119872            2 
  346000    1.0949065   -6.6675342    144.78567  0.034871309  0.036098021            2 
  347000    1.1130922   -6.6402496    145.19065  0.034868071   0.03607481            3 
  348000    1.0938354   -6.6515883     145.3328  0.034801915  0.036051643            2 
  349000    1.1140024   -6.6596357    145.62039  0.034770866  0.036028325            4 
  350000    1.1115148   -6.6830139    146.12688  0.034792115  0.036005852            2 
  351000    1.0908098   -6.6108984    147.26592  0.034963419  0.035984583            2 
  352000     1.117445   -6.6297324    147.77846  0.034985432  0.035964892            2 
  353000    1.1172198   -6.6542663    147.64416  0.034854618  0.035944862            2 
  354000    1.1171841   -6.6369503    147.88444   0.03481272  0.035924218            3 
  355000    1.1372899   -6.6833947    147.86275  0.034709565   0.03590265            2 
  356000    1.1232297   -6.6460394    148.66938  0.034800885  0.035880658            5 
  357000    1.1241386   -6.6524557    148.52473  0.034669637  0.035859329            3 
  358000    1.1004348   -6.6108964    149.74792  0.034857523  0.035839152            2 
  359000    1.1329889   -6.6731337    150.00472  0.034820038  0.035819191            3 
  360000    1.0792327   -6.6383469    150.32924  0.034798434  0.035800088            4 
  361000    1.1115153   -6.6493347    150.79247  0.034808972  0.035780318            3 
  362000     1.122708   -6.6404643    150.86043  0.034728459   0.03576032            1 
  363000    1.1032259    -6.638785    151.50048  0.034779724  0.035741481            2 
  364000    1.1012847   -6.6721874    152.00531  0.034799751  0.035722698            1 
  365000    1.1140631   -6.6804162    152.12354  0.034731402  0.035703386            2 
  366000     1.118177   -6.6613663    152.36108  0.034690592  0.035684622            4 
  367000    1.1205325   -6.6748822    152.57325  0.034644244  0.035664542            3 
  368000    1.1052984   -6.6560069    153.40636   0.03473876  0.035645308            3 
  369000    1.1110237   -6.6406796    154.34995  0.034857712  0.035626337            1 
  370000    1.0803846    -6.669162    153.88499  0.034658781   0.03560793            4 
  371000    1.1174111   -6.6765771    154.46394  0.034695404  0.035589891            2 
  372000    1.1084449   -6.6766684    154.36073  0.034579017  0.035570872            1 
  373000    1.1109975   -6.6443666    155.12505  0.034657071  0.035552054            4 
  374000    1.0932893   -6.6392755    155.26458  0.034595496  0.035533625            2 
  375000    1.1072959   -6.6381748    156.63584  0.034807965  0.035516694            2 
  376000    1.1168285    -6.672752    156.74336   0.03473922  0.035500108            2 
  377000    1.0871831   -6.6248388    157.59685  0.034835733   0.03548313            3 
  378000    1.1140891   -6.6432179    157.54946  0.034733126  0.035465548            4 
  379000    1.1012184   -6.6630878     157.6784  0.034669833  0.035448653            2 
  380000    1.0981146   -6.6535198    158.06211  0.034662744  0.035431878            4 
  381000    1.0941137   -6.6604775    158.67091  0.034704924  0.035415948            8 
  382000    1.1284683   -6.6301211    158.89946   0.03466393  0.035399718            4 
  383000    1.0992606     -6.65399    159.52408   0.03470933  0.035383417            5 
  384000     1.096949    -6.655534    159.60032  0.034635486  0.035366873            2 
  385000    1.1168054   -6.7080714    159.46908  0.034517117  0.035350488            3 
  386000    1.1155381   -6.6849784    160.39435   0.03462745  0.035333813            2 
  387000    1.0985774   -6.6710573    160.49645  0.034559958  0.035317772            3 
  388000    1.0947993   -6.6715731    161.06735  0.034593503  0.035301352            2 
  389000    1.1052963   -6.6604002    162.08463    0.0347225   0.03528589            3 
  390000    1.1015275   -6.6978841    161.80959  0.034574699  0.035270544            2 
  391000    1.1004055   -6.6584874    162.55294  0.034644703  0.035255821            2 
  392000    1.0916965   -6.6725219    162.77625  0.034603794  0.035240874            2 
  393000    1.0912813   -6.6947294    163.02616  0.034568736  0.035226184            2 
  394000    1.0929345   -6.6880551    163.84224  0.034653604  0.035211034            3 
  395000    1.0798925   -6.6829517    163.82285  0.034561783  0.035196274            2 
  396000    1.1086539    -6.669942    164.74666   0.03466891  0.035181705            2 
  397000     1.067767   -6.7098086    163.87761  0.034399163  0.035166527            2 
  398000    1.0905935   -6.7058539    164.21014  0.034382357  0.035150573            3 
  399000    1.0937719   -6.6939912    164.60122  0.034377866  0.035134113            2 
  400000    1.1212859   -6.6386908     165.4441   0.03446752  0.035118219            3 
  401000    1.0724624   -6.7054367    165.71223  0.034437287  0.035102515            1 
  402000    1.0835463   -6.7024567    166.17265  0.034447066  0.035086871            3 
  403000     1.080318    -6.671285    165.85792  0.034296509  0.035070214           10 
  404000    1.1061301   -6.6869528    167.37103  0.034523727  0.035054085            4 
  405000    1.0764077   -6.6655907    167.47862   0.03446062  0.035038425            2 
  406000     1.108418   -6.6821842    167.27229  0.034333392  0.035022602            3 
  407000      1.08938   -6.6963299    168.11452  0.034421481  0.035007173            4 
  408000     1.101071   -6.7032833    168.37304  0.034389918  0.034991308            2 
  409000    1.0973084   -6.6780336    168.95267  0.034423933  0.034976538            3 
  410000    1.0708454   -6.6862098    170.23874   0.03460137  0.034963047            3 
  411000    1.0896551   -6.6947756    169.52225  0.034371908  0.034949139            2 
  412000    1.0689148   -6.7122952    170.20443  0.034426462  0.034935272            2 
  413000    1.0887372   -6.6970162    170.41137   0.03438486  0.034921659            3 
  414000    1.0918791   -6.7047361    171.69173  0.034559528   0.03490808            4 
  415000    1.1005938   -6.6511312    171.80275  0.034498544  0.034894852            3 
  416000    1.0779058   -6.6838375    171.98367  0.034451856  0.034881845            3 
  417000    1.1047538    -6.702939    172.65654  0.034503706  0.034870127            4 
  418000    1.0707179   -6.7176816    172.91292  0.034472274  0.034857623            5 
  419000    1.0809217   -6.6940683    173.08261   0.03442375  0.034845825            3 
  420000    1.0840758   -6.6612125    174.14129  0.034551842  0.034834094            2 
  421000    1.0852897   -6.7029471    173.63543  0.034369642  0.034822793            2 
  422000    1.1032424    -6.693521    175.02976  0.034563539  0.034811121            2 
  423000    1.0614842   -6.6614617    174.96295  0.034468666  0.034800008            2 
  424000    1.1160115   -6.7349595    174.74602  0.034344736  0.034788674            2 
  425000    1.0923043   -6.7101728    175.58501  0.034428433  0.034776534            3 
  426000    1.0726723   -6.6888954    175.82618  0.034394792  0.034763658            2 
  427000    1.0868823   -6.7183083    175.28866   0.03420934  0.034750446            2 
  428000    1.0847144   -6.6944137    176.38518  0.034342908  0.034737131            3 
  429000    1.0624606   -6.7088012    176.50325   0.03428579  0.034723812            7 
  430000    1.0721174   -6.7111969    176.90233  0.034283397  0.034710264            2 
  431000    1.0835924   -6.6853661    177.24654  0.034270407  0.034696525            4 
  432000    1.0911451   -6.6577727    177.33056  0.034207284  0.034682728            3 
  433000    1.0895842   -6.7219868    177.02672  0.034069808  0.034668342            6 
  434000    1.0671524   -6.7343765    177.87152  0.034153518  0.034653854            3 
  435000      1.07145    -6.703105    177.99797  0.034099227  0.034639055            2 
  436000    1.0809641   -6.7300152    178.08041  0.034036775  0.034623442            2 
  437000    1.0750313   -6.7165255    178.45496  0.034030313  0.034608373            4 
  438000    1.0901538   -6.7168292    178.50672  0.033962466  0.034593644            1 
  439000    1.0919344   -6.7359919    179.47339  0.034068601  0.034579069            2 
  440000    1.0832842   -6.7109836    179.57722  0.034010836  0.034563495            2 
  441000    1.1004709   -6.6753229      180.127  0.034037605  0.034549276            3 
  442000    1.0851246   -6.7320848    180.49636  0.034030234  0.034533886            3 
  443000    1.0860886   -6.7016619      180.963  0.034041196  0.034518502            4 
  444000    1.0783078   -6.7011148    181.25431  0.034019203  0.034504028            2 
  445000    1.0832402   -6.7257534    181.54332  0.033996876   0.03448959            2 
  446000    1.1035365   -6.7307119    182.07546  0.034020079  0.034475089            2 
  447000    1.0741767   -6.7161397    181.70822  0.033875508  0.034460865            3 
  448000    1.0648058   -6.7071741     182.7709  0.033997563   0.03444687            2 
  449000     1.081473   -6.6909426    182.50422   0.03387235  0.034432469            3 
  450000    1.0692147   -6.7184799    182.92287  0.033874605  0.034417112            4 
  451000    1.0627223   -6.7220343    183.17992  0.033846992  0.034402319            3 
  452000    1.0528841   -6.7439713    183.76085  0.033879213  0.034387764            4 
  453000    1.0637119   -6.7321198    184.53307  0.033946481   0.03437351            2 
  454000    1.0631378   -6.7426728    184.68589  0.033899759  0.034360023            3 
  455000    1.0588294   -6.7426167    185.56253  0.033985811  0.034347285            3 
  456000    1.0605993   -6.7317895    185.64923  0.033927125  0.034334095            1 
  457000    1.0843209     -6.73735    186.11617  0.033938032  0.034321411            2 
  458000    1.0705176   -6.7451325    186.50879  0.033935369  0.034308772            3 
  459000    1.0605032   -6.7260332    186.76229   0.03390746  0.034295726            1 
  460000    1.0718715    -6.708075    186.55658  0.033796482  0.034281986            2 
  461000    1.0703855   -6.7212811     187.4751  0.033889208  0.034268372            6 
  462000    1.0818318   -6.7227598    187.97545  0.033906106  0.034255483            6 
  463000    1.0678329   -6.7426044    188.44871  0.033918054   0.03424337            4 
  464000    1.0829645   -6.7394198    188.50991  0.033855947  0.034230348            2 
  465000    1.0491253   -6.7216106     188.8297  0.033840448  0.034216767            2 
  466000    1.0522378   -6.7422794    189.27094  0.033846735  0.034203726            8 
  467000    1.0564954   -6.6965803    190.07534  0.033917798  0.034190476            2 
  468000    1.0817095   -6.7117339    189.66567  0.033772377  0.034177185            3 
  469000    1.0675429   -6.7467864    190.13702  0.033784119  0.034163624            6 
  470000    1.0836242    -6.715866    189.67924  0.033631071  0.034149474            3 
  471000    1.0681298   -6.7740006    189.94952  0.033607488  0.034134652            2 
  472000      1.07648   -6.7558279    189.77957  0.033506281  0.034119144            4 
  473000    1.0929678   -6.7331929    190.55029  0.033571227  0.034103314            1 
  474000    1.0661819   -6.7274413    191.11334  0.033599393  0.034088385            2 
  475000    1.0615889    -6.758987    190.92374  0.033495393  0.034072785            7 
  476000    1.0469922   -6.7081137    191.88297  0.033592957   0.03405789            1 
  477000    1.0881806    -6.737594    191.97426   0.03353848  0.034043014            3 
  478000    1.0471926   -6.7401718    192.12202  0.033494076  0.034027897            7 
  479000    1.0484071   -6.7472003    192.59836  0.033507022  0.034012506            1 
  480000    1.0631294   -6.7693755     192.4649  0.033414046  0.033996986            3 
  481000    1.0817716   -6.7457601    193.44519  0.033514412  0.033981971            4 
  482000    1.0518716   -6.7496195    193.66003  0.033482025  0.033967081            5 
  483000    1.0648295   -6.7645967     193.9855  0.033468858  0.033952258            1 
  484000    1.0655645    -6.772316    193.84633  0.033375746  0.033937305            3 
  485000     1.035691   -6.7552804    193.74434  0.033289406  0.033921584            2 
  486000    1.0630779    -6.763813    194.63306  0.033373295  0.033905492            2 
  487000    1.0593858   -6.7506534    194.40285  0.033265375  0.033889435            5 
  488000    1.0883679   -6.7429189    195.05229  0.033308109  0.033873515            3 
  489000    1.0558961    -6.762448    195.31902   0.03328545  0.033857732            7 
  490000    1.0666824   -6.7064137    196.37294  0.033396758   0.03384185            5 
  491000    1.0560213   -6.7578281    195.95558  0.033257906  0.033825521            5 
  492000     1.055277   -6.7500233     196.4992  0.033282384  0.033809383            3 
  493000    1.0470086   -6.7588914    196.48481  0.033212443  0.033792824            2 
  494000    1.0712669   -6.7567406    196.63382  0.033170348   0.03377602            3 
  495000    1.0466026   -6.7601645    196.84166  0.033138327  0.033759156            4 
  496000    1.0545534   -6.7592693    196.97432  0.033093803  0.033741711            2 
  497000    1.0695986   -6.7612009    197.64291  0.033139321  0.033724277            1 
  498000    1.0520188   -6.7524594    196.93804  0.032954826  0.033706651            1 
  499000     1.029123   -6.7495825     198.3467  0.033124031  0.033689126            5 
  500000    1.0705716   -6.7615699    198.21551  0.033035919  0.033671498            1 
  501000    1.0601546   -6.7600225    198.37639  0.032996738  0.033654758            7 
  502000    1.0748013   -6.7766152    199.37479  0.033096745  0.033638412            4 
  503000    1.0779282    -6.743636    199.49282  0.033050501  0.033621595            4 
  504000    1.0337534   -6.7674988    199.89137  0.033050822  0.033605474            2 
  505000    1.0559799   -6.7572035    200.28682   0.03305063   0.03358933            2 
  506000    1.0558056   -6.7709881    199.58486  0.032869707  0.033572627            2 
  507000    1.0394765   -6.7807285    200.10791  0.032890847  0.033555126            2 
  508000    1.0429628   -6.7549478     200.0751  0.032820718  0.033537863            6 
  509000    1.0564235   -6.7791844    200.91559  0.032893842  0.033520057            6 
  510000      1.05014   -6.7654399     201.0107  0.032844885  0.033502194            2 
  511000    1.0482572   -6.7224155    201.33521   0.03283353  0.033484657            1 
  512000     1.043733   -6.7689623    201.29024  0.032762083  0.033466761            3 
  513000    1.0390136   -6.7836553    202.31089  0.032864016  0.033449416            3 
  514000    1.0450285   -6.7595451    202.89153  0.032894217  0.033432436            2 
  515000    1.0682646   -6.7512188    203.76518  0.032971711   0.03341594            5 
  516000    1.0427882   -6.7508379    202.60602  0.032720611  0.033398785            2 
  517000     1.042006   -6.8083659    202.70335  0.032673009  0.033381277            4 
  518000    1.0443156   -6.7674661    203.48697  0.032735999  0.033363917            2 
  519000    1.0515595   -6.7888296    203.56546  0.032685527  0.033346182            2 
  520000    1.0572967   -6.7738776    203.71596  0.032646789  0.033328608            4 
  521000    1.0396444   -6.7755346    204.67462  0.032737463  0.033311834            4 
  522000    1.0536445   -6.8269667    205.16124  0.032752433  0.033295128            1 
  523000    1.0546669    -6.797739    205.64132  0.032766303  0.033278601            5 
  524000    1.0614655   -6.7935588    205.48105  0.032678284  0.033262381            2 
  525000    1.0543887   -6.7888525    205.89465   0.03268169  0.033246321            3 
  526000    1.0267728   -6.7847887    205.85576  0.032613396  0.033229682            2 
  527000    1.0461249   -6.7713917    206.62485  0.032673127  0.033212392            2 
  528000    1.0448098   -6.7895942    206.76437  0.032633266  0.033194742            5 
  529000    1.0687267   -6.7377748    207.22998  0.032644924  0.033177079            2 
  530000    1.0389705   -6.7995621    207.19655  0.032578074  0.033160187            6 
  531000    1.0527878   -6.7823369    207.20762  0.032518459  0.033143018            2 
  532000    1.0353379   -6.7697943    207.79311  0.032549046  0.033125905            2 
  533000    1.0359851   -6.7692023    208.71438  0.032632016  0.033108898            5 
  534000    1.0319348    -6.792733    208.03996  0.032465661  0.033092064            3 
  535000    1.0173927   -6.8038724    208.52674  0.032480801  0.033075176            3 
  536000    1.0470798    -6.811643    208.62645  0.032435704  0.033057937            5 
  537000    1.0790819   -6.8390181     208.8177  0.032404981  0.033040759            1 
  538000    1.0282425   -6.7797805    209.65464  0.032474387  0.033023218            6 
  539000    1.0341262   -6.7992346    210.11009  0.032484554  0.033005988            6 
  540000    1.0345535   -6.7998089    210.44375  0.032475887  0.032988958            2 
  541000    1.0274627   -6.7634606    211.17884  0.032529087  0.032972084            3 
  542000    1.0556095   -6.7838496    211.41373  0.032505186  0.032955689            3 
  543000    1.0487887   -6.8053853    210.97292  0.032377674  0.032939606            9 
  544000    1.0196717   -6.7742518    212.79526  0.032597314  0.032923928            4 
  545000    1.0591616   -6.7927154    212.95217  0.032561495  0.032908815            3 
  546000    1.0238666   -6.8041621    212.31656  0.032404847  0.032893497            2 
  547000     1.029123   -6.8017599    212.51644  0.032376058  0.032877729            9 
  548000    1.0245273   -6.8020264    213.18907  0.032419262  0.032862004            2 
  549000    1.0397682   -6.7733621    214.49185  0.032557962  0.032846746            3 
  550000    1.0485074   -6.7683162    213.92635  0.032413084  0.032831298            4 
  551000    1.0632774   -6.7754837    214.16664  0.032390599  0.032816002            5 
  552000    1.0214963   -6.7902657    214.96262  0.032452086  0.032801209            3 
  553000    1.0063961    -6.858643    214.81426  0.032371045  0.032786547            5 
  554000    1.0587453   -6.7804392    215.60323  0.032431292    0.0327714            2 
  555000     1.019067   -6.8023947    216.04612  0.032439358  0.032756426            3 
  556000    1.0524342   -6.7627664    216.12793  0.032393275  0.032741422            1 
  557000    1.0053234   -6.7925339    215.88324   0.03229851  0.032726593            1 
  558000    1.0363998   -6.8016419    216.38273  0.032315223  0.032711761            3 
  559000     1.038445   -6.8314279    216.00278  0.032200772  0.032696653            4 
  560000    1.0141001   -6.8141667     216.9193  0.032279657  0.032681728            2 
  561000    1.0307775   -6.8028037    217.46937  0.032303829  0.032666443            4 
  562000    1.0002183   -6.8167967    217.65015  0.032273154  0.032651103            4 
  563000    1.0412128   -6.8257639    218.06161  0.032276733  0.032635528            3 
  564000    1.0270918   -6.8310255    217.83346  0.032185795  0.032619402            5 
  565000    1.0162305   -6.8204413    217.85244  0.032131628  0.032603688            2 
  566000    1.0346264   -6.7619185    218.83607   0.03221968  0.032587814            2 
  567000    1.0369321   -6.7774122    218.27287  0.032080082  0.032572174            3 
  568000     1.012693   -6.8284948    218.26909  0.032023047  0.032556033            3 
  569000    1.0198563   -6.7887613    218.84277  0.032050787  0.032539622            5 
  570000    1.0261704   -6.8198406    219.45998  0.032084793  0.032523559            4 
  571000    1.0262989   -6.8090154    219.27754  0.032001975  0.032507315            2 
  572000    1.0212801   -6.7990588    219.90473  0.032037403  0.032490688            3 
  573000    1.0121543   -6.8254589    219.37949  0.031905104  0.032474142            2 
  574000    1.0448797   -6.8405955    219.61802  0.031884149  0.032457195            4 
  575000    1.0097951   -6.8267527    219.81599  0.031857389  0.032439824            2 
  576000    1.0285839    -6.815853    220.63641  0.031920777  0.032422565            2 
  577000    1.0336226   -6.7981952    220.80983  0.031890501    0.0324055            7 
  578000     1.011577   -6.7988262    220.72063  0.031822467  0.032388742            3 
  579000     1.040734   -6.7994377     220.6002  0.031750172  0.032370898            5 
  580000    1.0090867   -6.8657085    221.36016  0.031804621  0.032353399            3 
  581000    1.0122694     -6.80986    221.50627  0.031770836  0.032336138            2 
  582000    1.0289272   -6.7947128    221.89363  0.031771711  0.032319122            2 
  583000      1.02852   -6.7885563    222.65061  0.031825416  0.032302377            2 
  584000    1.0203719   -6.8556987    222.26297  0.031715606  0.032285273            5 
  585000   0.99037293   -6.7997474    222.66669  0.031718902  0.032268376            3 
  586000    1.0276856    -6.833362     222.3378  0.031618004  0.032250616            3 
  587000    1.0221649   -6.8091791     223.2954  0.031700085  0.032233011            2 
  588000    1.0105699   -6.8229294     222.7155  0.031563989  0.032215152            4 
  589000    1.0344842   -6.8459101    223.44323   0.03161336  0.032197217            4 
  590000    1.0309499   -6.8897222    223.69267   0.03159501   0.03217933            6 
  591000    1.0075641   -6.8121872    224.35882   0.03163548  0.032161499            5 
  592000    1.0291759   -6.8268085    224.29634  0.031573247   0.03214359            2 
  593000    1.0267677   -6.8613814    224.51538  0.031550784  0.032126059            3 
  594000    1.0323443   -6.8032219    225.24288  0.031599731  0.032108263            2 
  595000   0.99944608    -6.855068    226.03588  0.031657686  0.032091089            3 
  596000   0.98720919   -6.8466551     225.4169  0.031518022  0.032073519            4 
  597000    1.0175349    -6.838174    225.35509  0.031456601  0.032056035            3 
  598000    1.0015022   -6.8474837     226.0698  0.031503595  0.032038802            2 
  599000    1.0060927   -6.8405369    226.13999  0.031460766  0.032021292            3 
  600000    1.0226202   -6.8264567    226.69446  0.031485342  0.032003603            2 
  601000    1.0010212   -6.8531334    226.34204  0.031384088  0.031985774            3 
  602000     1.012736   -6.8483134     226.9168  0.031411517  0.031967913            4 
  603000   0.99469914     -6.84576    227.00245  0.031371262  0.031949979            2 
  604000    1.0126903   -6.8177169    227.39255  0.031373145  0.031932401            5 
  605000    1.0092637   -6.8080179    227.98776  0.031403273  0.031915483            6 
  606000    1.0018099   -6.8565111    227.79624  0.031325115  0.031898008            7 
  607000   0.99793973   -6.8228549    228.56178  0.031378607  0.031880856            4 
  608000    1.0095192   -6.8859337    228.89585  0.031372786  0.031863823            6 
  609000    1.0048402   -6.8299559    229.74417  0.031437352  0.031846507            3 
  610000    1.0103308   -6.8679088    228.76892  0.031252584  0.031829227            2 
  611000    1.0217986   -6.8452237    229.54614  0.031307438  0.031811933            4 
  612000    1.0308787   -6.8362539    229.44951  0.031243125  0.031794658            2 
  613000    1.0133732   -6.8652716    230.00308  0.031267411  0.031776914            3 
  614000   0.99966636   -6.8573718    229.50222  0.031148509   0.03175926            5 
  615000    1.0259234   -6.8553318    230.13571    0.0311837  0.031741614            3 
  616000   0.99468166   -6.8725049    230.47611  0.031179128  0.031723973            2 
  617000   0.98797393   -6.8631951    230.79765  0.031172022  0.031706952            3 
  618000    1.0031178   -6.8461278    232.07943  0.031294421  0.031689663            1 
  619000    1.0247331   -6.8310258    232.05963    0.0312412  0.031672733            4 
  620000   0.98754388   -6.8690905     232.4577  0.031244315  0.031656022            4 
  621000    1.0154128   -6.8731709    232.40995  0.031187594  0.031639399            4 
  622000    1.0016488   -6.8233658    233.22643  0.031246842  0.031623118            5 
  623000   0.99191399   -6.8439598    232.96262  0.031161399  0.031606586            3 
  624000   0.98140958    -6.872462    233.15972  0.031137784  0.031589703            5 
  625000    1.0011987   -6.8738731    233.24215  0.031098953  0.031573001            5 
  626000    1.0164962   -6.8662354    233.67971  0.031107523   0.03155653            4 
  627000    1.0017884   -6.8808628    233.84365  0.031079698  0.031539586            3 
  628000    1.0054951   -6.8573256     234.1739  0.031074031  0.031522677            5 
  629000   0.99355019   -6.8823684    234.97766  0.031131116  0.031506067            2 
  630000    1.0037977   -6.8366832    235.17554  0.031107876  0.031489526            3 
  631000   0.99446226   -6.8487735     236.6009  0.031246817  0.031473754            6 
  632000   0.99682549   -6.8724089    235.34778  0.031032144  0.031457104            1 
  633000   0.99658969   -6.8992108     234.7159  0.030899934  0.031440269            3 
  634000    0.9780392   -6.8567507    235.45827  0.030948773  0.031423305            4 
  635000    0.9984921   -6.8575466    235.79955  0.030944823    0.0314065            3 
  636000   0.99032904   -6.8681189    236.37914  0.030972109  0.031389668            3 
  637000    1.0049778   -6.8658301    236.61446  0.030954272  0.031372533            2 
  638000   0.99263653   -6.8598145    236.48675  0.030889074  0.031355448            2 
  639000   0.98420528   -6.8851447    236.13871  0.030795346  0.031338256            2 
  640000     1.001665   -6.8581159     237.2322   0.03088961  0.031321141            5 
  641000    1.0068352   -6.8687209    237.84434  0.030921001  0.031303828            3 
  642000    1.0099703   -6.8900379    236.85174  0.030743995  0.031286593            4 
  643000    1.0052836    -6.859413    236.63384  0.030667942  0.031269355            2 
  644000   0.99822623   -6.8733078    237.58269  0.030743102  0.031252021            4 
  645000    1.0046203   -6.8793496    238.05126  0.030755976  0.031234702            3 
  646000   0.98806191    -6.855082    238.67677  0.030789057   0.03121804            3 
  647000   0.99368907   -6.8520083    238.85709  0.030764694   0.03120154            2 
  648000    1.0160658    -6.867557    239.46969  0.030795999   0.03118514            2 
  649000   0.99448726   -6.8820973    239.92391  0.030806871  0.031168434            8 
  650000     1.001989   -6.8572738    240.55642  0.030840566  0.031152063            3 
  651000    1.0104821   -6.8881381    240.13326  0.030739025  0.031135787            1 
  652000   0.96575001   -6.8519226    240.78194  0.030774788  0.031119562            5 
  653000   0.99403203    -6.883859    239.93023  0.030618968  0.031102701            2 
  654000    1.0088837   -6.9112291    240.61587  0.030659514  0.031085706            4 
  655000    1.0000901   -6.9369097    240.19153  0.030558719  0.031068349            3 
  656000   0.99163695   -6.8481259    241.00163  0.030615044  0.031051297            4 
  657000   0.99552797   -6.9026232    240.71159  0.030531657   0.03103465            3 
  658000    1.0049861   -6.8666194    241.09934  0.030534364  0.031017887            3 
  659000   0.98418206   -6.9176348    242.87655  0.030712765  0.031001752            4 
  660000   0.96976431   -6.9075272    242.35202  0.030600003  0.030985598            2 
  661000   0.99636497   -6.8878547     242.5867  0.030583296  0.030969203            3 
  662000   0.98394929   -6.8853565    242.59762  0.030538471  0.030952797            3 
  663000    0.9924236   -6.8710213     243.4901  0.030604588   0.03093629            3 
  664000    1.0037728   -6.8683928    244.14186  0.030640294    0.0309199            2 
  665000   0.98111136   -6.8701166    243.96143  0.030571608  0.030903707            2 
  666000   0.99589802   -6.9123486    243.56832  0.030476517   0.03088741            5 
  667000   0.98100981    -6.909913    243.70546  0.030447958  0.030871202            4 
  668000   0.98772716   -6.9136576    243.92653  0.030429956  0.030855098            5 
  669000   0.96865766   -6.9082719    245.39633  0.030567554  0.030838897            3 
  670000    1.0087066   -6.8750703    245.38843  0.030520949  0.030822733            4 
  671000    1.0044117   -6.9020441    245.31091  0.030465835  0.030806712            3 
  672000   0.99699851    -6.919299    245.88738  0.030491987  0.030790884            6 
  673000    1.0057714   -6.9274445    245.88293  0.030446129  0.030775141            3 
  674000   0.97314895    -6.878622    247.22187  0.030566502  0.030759423            3 
  675000    1.0006648   -6.8535665     247.0974  0.030505851  0.030743837            3 
  676000    1.0021383   -6.8652737    247.28518  0.030483873  0.030728376            5 
  677000   0.96335869   -6.9190898    246.96691  0.030399669  0.030712242            3 
  678000   0.97946901   -6.9238529    247.41408  0.030409794  0.030696252            4 
  679000    0.9964836   -6.9377624    247.36622  0.030359133  0.030680133            2 
  680000   0.99520351   -6.9130961    247.96175   0.03038747  0.030664502            6 
  681000   0.96205835   -6.8783429    247.99188  0.030346535  0.030648688            3 
  682000    0.9937852   -6.8919496    248.21583  0.030329402  0.030632613            4 
  683000   0.97532804   -6.8980102    248.84178  0.030361369  0.030616567            2 
  684000   0.97259213   -6.8973971    248.42593  0.030266317  0.030600548            3 
  685000   0.95063222   -6.9039529    249.33231  0.030332398  0.030584842            3 
  686000   0.95645614   -6.9337929    249.11384  0.030261642   0.03056914            5 
  687000   0.97081882   -6.9242882    249.29262   0.03023928  0.030553211            4 
  688000    0.9971504   -6.9294306    249.30342  0.030196635  0.030536965            4 
  689000   0.95891349   -6.9318238    249.60088  0.030188785  0.030520615            2 
  690000   0.98224026   -6.9227321    249.25023  0.030102685  0.030504427            2 
  691000   0.97990672   -6.9137148    250.14792  0.030167381  0.030488337            4 
  692000   0.98695784   -6.9209733    250.76914  0.030198595  0.030472293            3 
  693000   0.98881136   -6.9143948    250.43377  0.030114691  0.030456282            4 
  694000   0.96882292   -6.9381835    251.27116  0.030171849  0.030440275            4 
  695000   0.98807988   -6.8896738    251.75135  0.030186013    0.0304244            5 
  696000   0.97229428    -6.918524    251.28182  0.030086425  0.030408277            3 
  697000   0.99813664   -6.8937453    251.20331  0.030033873  0.030392056            4 
  698000   0.99034991   -6.9297579    252.13872  0.030102522  0.030375841            3 
  699000   0.94625195   -6.9021742     252.5543  0.030109001  0.030359636            4 
  700000   0.97289054   -6.9296565     252.2468   0.03002938  0.030343535            3 
  701000   0.98894775    -6.926699    252.59192  0.030027571  0.030327639            6 
  702000   0.96696918   -6.9120624    252.90602  0.030022082  0.030311859            3 
  703000   0.95766585   -6.9306385    253.56586  0.030057594  0.030296034            5 
  704000   0.98832235   -6.8913386    253.79338  0.030041831  0.030280119            5 
  705000   0.97632051   -6.9608396    253.19373  0.029928337  0.030264246            2 
  706000   0.96773026    -6.971657    253.65685   0.02994061  0.030248065            5 
  707000   0.99633088   -6.9148708     253.6753  0.029900436  0.030231662            3 
  708000   0.97662989   -6.9295648    254.92834  0.030005689  0.030215493            2 
  709000   0.94384029   -6.9535232    254.14915  0.029871786  0.030199653            1 
  710000   0.95917343   -6.9292606    254.85287  0.029912309  0.030183712            3 
  711000   0.98632916   -6.9014479    255.13621  0.029903447  0.030167839            3 
  712000   0.96741729   -6.9393716    254.75608  0.029816957  0.030151931            4 
  713000   0.98765141   -6.9389771    255.58614  0.029872153  0.030135811            8 
  714000   0.95456963   -6.9347055    255.14068  0.029778324  0.030119658            2 
  715000   0.97432439   -6.9139102    256.58196  0.029904658  0.030103674            4 
  716000   0.96562275   -6.9384305    256.01321  0.029796696  0.030087511            4 
  717000   0.97591478   -6.9191955    256.72655  0.029838046  0.030071569            6 
  718000   0.98231695   -6.9263947    256.27504  0.029744085  0.030055568            2 
  719000   0.97062739   -6.8911243      257.045  0.029791957   0.03003939            4 
  720000   0.97603052   -6.8834978    257.22002  0.029770835  0.030023615            5 
  721000   0.97308833   -6.9423898    257.83805  0.029800977  0.030008079            2 
  722000   0.97017304   -6.9315609    258.08192  0.029787849  0.029992396            4 
  723000   0.97023566   -6.9703812    257.75465  0.029708927  0.029976702            2 
  724000   0.95942181   -6.9328882    258.36517  0.029738164  0.029960953            4 
  725000   0.96179059   -6.9466107    257.54273  0.029602613  0.029945164            2 
  726000   0.95660976   -6.9482534    258.60297  0.029683537  0.029929247            2 
  727000   0.97590047   -6.9322344    258.95902  0.029683519  0.029913324            4 
  728000     0.979974   -6.9739241    259.16851  0.029666726  0.029897793            6 
  729000   0.98428615    -6.973081    259.15252  0.029624202  0.029882085            2 
  730000   0.97593474   -6.9387728    260.07885  0.029689366  0.029866402            2 
  731000   0.96791581   -6.9615124    259.78976  0.029615795  0.029850771            3 
  732000   0.96047037   -6.9239158    260.16426  0.029617971   0.02983513            4 
  733000   0.96209076   -6.9409307     260.0268  0.029561937  0.029819267            4 
  734000   0.94641437   -6.9103234    260.51791   0.02957742  0.029803259            6 
  735000   0.96638349   -6.9157063    260.42262  0.029526374  0.029787501            5 
  736000    0.9419886   -6.9444555    260.33764  0.029476635  0.029771668            4 
  737000   0.97189334   -6.9542188    260.06418   0.02940572  0.029755808            2 
  738000   0.96753738   -6.9564952    260.93843  0.029464592  0.029739493            3 
  739000   0.97914495   -6.9368095    262.09634  0.029555293  0.029723213            5 
  740000   0.95343226   -6.9662084    260.88839  0.029379324  0.029707174            4 
  741000   0.94581915   -6.9557052    262.14517  0.029481014  0.029691235            2 
  742000   0.95042642    -6.986884    261.78707  0.029401063  0.029675083            1 
  743000    0.9302192   -6.9808164    261.61476  0.029342166  0.029658637            3 
  744000   0.95777373   -6.9852797    261.91338  0.029336176  0.029642478            4 
  745000    0.9609822   -6.9732452     262.0828  0.029315749  0.029626425            7 
  746000   0.94307787   -6.9693108    262.64603  0.029339369  0.029610186            4 
  747000   0.96389082   -7.0007444    262.65328  0.029300902  0.029593854            7 
  748000   0.95348499   -6.9487446    262.43749  0.029237688   0.02957751            5 
  749000    0.9581356   -7.0148435    262.84916  0.029244455  0.029561321            4 
  750000   0.96658089   -6.9703402    263.26856  0.029252062  0.029545079            1 
  751000    0.9539876   -6.9419616    263.74175  0.029265618  0.029529298            4 
  752000   0.96196655   -6.9738147    263.37135  0.029185655  0.029513208            4 
  753000   0.96364845   -6.9809594    264.25669  0.029244875  0.029496935            4 
  754000   0.93803366   -6.9975057    264.34174  0.029215488   0.02948056            8 
  755000   0.94805412   -6.9693649    264.27816  0.029169775  0.029464217            8 
  756000   0.95784525    -6.970895    264.48159  0.029153615  0.029448046            3 
  757000   0.97213006   -6.9739128    265.30181  0.029205395  0.029432115            2 
  758000   0.93368761   -6.9889181    265.20639  0.029156375  0.029416077            2 
  759000   0.96178475   -6.9587953    265.59012  0.029160092  0.029399775            8 
  760000   0.97165656   -6.9677699     265.4166  0.029102697  0.029383492            3 
  761000   0.93483653   -6.9604432    265.48649  0.029072108  0.029367445            2 
  762000   0.94706698   -6.9902681    265.06519  0.028987882  0.029351231            2 
  763000    0.9412618   -6.9577711    266.38435  0.029093966  0.029334861            3 
  764000   0.96449071   -6.9598048    265.90808  0.029003936  0.029318459            5 
  765000   0.94929899   -7.0075003    265.96309  0.028972014  0.029301923            4 
  766000   0.95117296   -6.9261395    266.71116  0.029015574  0.029285633            2 
  767000   0.93690498   -6.9704436    267.00067  0.029009199  0.029269452            4 
  768000   0.94581919   -6.9577012    267.19468  0.028992478  0.029253247            6 
  769000   0.91711731   -6.9635049    267.34092  0.028970624  0.029236858            5 
  770000    0.9453653    -6.971745     267.1916  0.028916839  0.029220512            2 
  771000   0.94931483    -6.959611    267.95626  0.028961982  0.029203974            2 
  772000   0.93207967    -6.960835     268.4426  0.028976964  0.029187517            3 
  773000   0.93631343   -6.9713659     267.5151  0.028839489  0.029170974            3 
  774000   0.94101051   -6.9644991    267.95654  0.028849757  0.029154466            3 
  775000   0.92536541   -6.9773736    267.82947  0.028798868  0.029137853            5 
  776000   0.94308296   -7.0101255    267.72443  0.028750475  0.029121206            5 
  777000   0.93590039   -6.9863198    267.96771  0.028739565  0.029104565           10 
  778000   0.94498242   -6.9851809    268.07406  0.028714016  0.029087851            3 
  779000   0.96160234    -6.996836    268.62326  0.028735907  0.029071089            6 
  780000   0.93340323   -6.9941497    269.84185  0.028829257    0.0290543            5 
  781000   0.96242699   -6.9662695    269.34106   0.02873891  0.029037773            3 
  782000   0.94065242   -6.9512731     269.2359  0.028690952  0.029021117            8 
  783000   0.93036845   -6.9771643    270.10735  0.028747058  0.029004377            3 
  784000   0.93180809    -6.958893    269.66568  0.028663444  0.028987768            2 
  785000   0.94879908   -6.9833836    270.24135  0.028688042  0.028971049            3 
  786000   0.95170405   -6.9664873    269.85184  0.028610246  0.028954425            3 
  787000   0.93955235   -7.0112684    270.16021  0.028606545  0.028937794            5 
  788000   0.94245737   -7.0090358    270.35741  0.028591097  0.028920881            3 
  789000   0.94022678   -6.9680528    270.32139  0.028551055  0.028903975           10 
  790000   0.93801504   -6.9887399    270.76118  0.028561306  0.028886902            2 
  791000   0.94165432   -7.0180214    270.19874  0.028465944  0.028869602            3 
  792000   0.93943468   -6.9861539    270.59637   0.02847184  0.028852118            8 
  793000   0.93726505   -6.9820747    271.09302  0.028488128  0.028835052            5 
  794000   0.92329445     -6.99986    271.21373  0.028464918  0.028817856            3 
  795000   0.94392627   -6.9780245    271.53496  0.028462785  0.028800591            2 
  796000    0.9324465   -6.9945898    271.22981  0.028395081  0.028783403            4 
  797000   0.94272976   -6.9841498    271.44769  0.028382234  0.028766421            4 
  798000   0.93874517   -6.9647869    272.12344  0.028417235  0.028749246            5 
  799000   0.93272253   -7.0083451    272.18964  0.028388573  0.028732224            3 
  800000    0.9356339   -6.9771327    273.00372  0.028437887  0.028715222            4 
  801000   0.91905084   -6.9942661    272.53776  0.028353908  0.028698419            4 
  802000   0.90537584   -7.0055802    272.64068  0.028329248  0.028681532            4 
  803000   0.93319954   -7.0214992    273.59002  0.028392488   0.02866452            3 
  804000    0.9424114   -7.0046832    272.88386  0.028283982  0.028647698            6 
  805000    0.9385779   -7.0140275    273.28426  0.028290296  0.028630917            4 
  806000      0.92243    -7.023297    273.88873  0.028317693  0.028614323            3 
  807000   0.91772663   -7.0040305    273.92719  0.028286575  0.028597676            4 
  808000   0.91632657   -6.9816932    274.15285   0.02827484  0.028580923            4 
  809000   0.92429052   -6.9942161    273.95762  0.028219779  0.028563998            8 
  810000   0.93780334   -7.0308121      274.557  0.028246605  0.028547003            4 
  811000   0.93253831   -7.0136949    274.05555  0.028160249  0.028530074            6 
  812000   0.94373366   -7.0351842    274.96467   0.02821887  0.028513238            7 
  813000   0.91527533    -7.043018    274.15895  0.028101573  0.028496363            5 
  814000   0.94783236     -6.98826    275.42513  0.028196675  0.028479519            5 
  815000   0.93010304   -7.0218518    275.87629  0.028208209  0.028462688            6 
  816000   0.92455772   -7.0201428    275.66754  0.028152323  0.028445754            5 
  817000   0.91934121   -7.0355743     275.3758  0.028088107   0.02842879            2 
  818000   0.92393017    -6.997587     275.3429  0.028050417  0.028411786            4 
  819000   0.92533554       -7.026    276.36838  0.028120511  0.028394671            4 
  820000   0.94646242   -6.9829144    276.90111  0.028140357  0.028377924            2 
  821000   0.92689501   -7.0328493    276.38971  0.028054172  0.028361183            5 
  822000   0.92679934   -7.0139193    276.53205  0.028034474  0.028344384            3 
  823000   0.93350215   -7.0052996    276.57144  0.028004399    0.0283275            2 
  824000   0.92260521   -7.0026075     277.1253  0.028026426  0.028310755            7 
  825000   0.92616552   -7.0128712    277.14608  0.027994554   0.02829406            1 
  826000   0.91402345   -7.0418902    276.98023  0.027943929  0.028277176            6 
  827000   0.92766424   -7.0055931    277.44295  0.027956767  0.028260395            5 
  828000   0.91706481   -7.0257364    278.22202  0.028001411  0.028243765            4 
  829000   0.93976799   -7.0615471    277.51146  0.027896206  0.028227071            2 
  830000   0.92370661   -7.0592737    276.69299   0.02778042  0.028210262            6 
  831000   0.89702386   -7.0575682    278.14161  0.027892259  0.028193327            3 
  832000    0.9201186   -7.0381683    278.31934  0.027876536  0.028176532            4 
  833000   0.93278727   -7.0194836    278.81233  0.027892389  0.028159655            5 
  834000   0.91991788   -7.0065325    278.80628  0.027858341  0.028142678            2 
  835000   0.91986048   -6.9997315    279.14579  0.027858861  0.028125961            3 
  836000   0.90825909   -7.0470557    279.07076  0.027818058  0.028109061            2 
  837000   0.91004943   -7.0224106     278.6086  0.027738809  0.028092127            3 
  838000   0.91862218   -6.9923319     278.7672   0.02772148   0.02807529            5 
  839000   0.90284985   -7.0283167    279.68182  0.027779283  0.028058615            6 
  840000   0.91380731   -7.0132579    279.55242  0.027733375  0.028041869            6 
  841000   0.91072275   -7.0173518    280.05582  0.027750279  0.028025086            9 
  842000    0.9023465   -7.0150951    280.32807  0.027744266  0.028008429            4 
  843000   0.91222406   -7.0357012    280.15962  0.027694703  0.027991763            3 
  844000     0.937956   -7.0396702    279.64345  0.027610925  0.027974738            3 
  845000   0.92757629   -7.0367776    278.83243  0.027498267  0.027957688            5 
  846000   0.93192267   -7.0434844    280.10202  0.027590822   0.02794059            2 
  847000   0.92859698   -7.0779783    279.68669  0.027517384  0.027923258            2 
  848000    0.9184022   -7.0455762    280.67255  0.027581815  0.027906123            4 
  849000   0.92432396    -7.022528    281.33928   0.02761477  0.027889178            3 
  850000   0.89782107   -7.0538257    280.72624  0.027522181  0.027872417           10 
  851000   0.91352758   -7.0201724    281.50685   0.02756628  0.027855753            4 
  852000     0.893615   -7.0901567    280.58615  0.027443872  0.027838866            5 
  853000   0.90507176   -7.0358743    281.18073  0.027469786  0.027821856            2 
  854000   0.90144925   -7.0553849    281.04119  0.027424003   0.02780499            3 
  855000   0.93019895   -7.0143409     281.5647  0.027442953  0.027788111            3 
  856000   0.92399058    -7.056364    282.49518  0.027501478  0.027771081            5 
  857000   0.91118265   -7.0509743    282.13361  0.027434228  0.027754043            6 
  858000    0.9132229   -7.0332228      283.188  0.027504662   0.02773698            3 
  859000   0.91875131   -7.0980493    281.97384  0.027354854  0.027719969            6 
  860000   0.90943439   -7.0375024    283.32799  0.027454262  0.027703079            3 
  861000   0.91039725    -7.071869    282.60787  0.027352678  0.027685914            5 
  862000   0.91568426   -7.0579466    283.18988  0.027377212  0.027669021            2 
  863000   0.90854745    -7.046062     283.3193  0.027357986  0.027652264            4 
  864000      0.91802   -7.0376819    283.76469  0.027369279  0.027635351            4 
  865000   0.92038821   -7.0658142     283.9328  0.027353834   0.02761876            3 
  866000   0.91104762    -7.063266    284.56892   0.02738346  0.027602389            4 
  867000   0.90785807   -7.0084831    285.18959  0.027411533  0.027585923            6 
  868000   0.90601585   -7.0552127    284.34935  0.027299285   0.02756919            3 
  869000    0.9183714    -7.043343    284.34612  0.027267561   0.02755259            2 
  870000   0.90223848   -7.0557532    285.12834  0.027311143  0.027536158            5 
  871000   0.90415814   -7.0456842    285.76138  0.027340354  0.027519714            3 
  872000   0.90421567   -7.0693299    286.30625  0.027361072  0.027503301            5 
  873000   0.90112122   -7.0395164    286.27582  0.027326825  0.027487059            4 
  874000   0.90653616    -7.070107    285.66131  0.027236967  0.027470854            6 
  875000   0.90614424   -7.0423652    285.94946  0.027233282  0.027454608            4 
  876000   0.89817683   -7.0608023    287.11439  0.027313013  0.027438402            7 
  877000   0.90705146   -7.0326454    286.92491  0.027263864  0.027422363            2 
  878000   0.90595151   -7.0733471    287.44596  0.027282266  0.027406216            5 
  879000   0.91640211   -7.0674307    286.84629  0.027194377  0.027390022            4 
  880000   0.91308358   -7.0690745    287.13342  0.027190664  0.027373966            3 
  881000   0.89065988   -7.0641488    286.84734  0.027132742  0.027357843            6 
  882000   0.92103344   -7.0932414    287.74504  0.027186796  0.027341711            2 
  883000   0.90393056   -7.0466954    287.55237  0.027137823  0.027325767            3 
  884000   0.91009484   -7.0587549     288.6187  0.027207645  0.027309799            6 
  885000   0.92117057   -7.0862232    288.38274  0.027154683  0.027293761            4 
  886000   0.90155523   -7.1116848    287.53226  0.027044042  0.027277345            3 
  887000   0.90027492   -7.0581833    288.94141  0.027145942  0.027261034            4 
  888000   0.89664802   -7.0513639    288.60865  0.027084145  0.027244979            3 
  889000   0.90593542   -7.0606891    288.45133  0.027038932  0.027228891            2 
  890000   0.92199037   -7.0771449    289.13757  0.027072806   0.02721274            8 
  891000   0.88144784   -7.0481579    289.41368  0.027068246  0.027196656            3 
  892000   0.92597645   -7.0815838    288.78404  0.026979077  0.027180486            2 
  893000   0.88864023   -7.0883794    288.15068  0.026889761  0.027164152            6 
  894000   0.89531705   -7.0706293    289.35531  0.026971971   0.02714786            2 
  895000   0.91204393     -7.08407    288.95612  0.026904667   0.02713154           13 
  896000   0.89265316   -7.0993294    289.10978   0.02688893  0.027115228            8 
  897000   0.88908785   -7.0837616    289.25821  0.026872744  0.027098796            3 
  898000   0.87092995   -7.1091308    289.15847  0.026833562  0.027082514            3 
  899000   0.87990184     -7.07765    289.75013  0.026858558  0.027066183            2 
  900000   0.92045534   -7.0837006    289.75572  0.026829234  0.027049967            3 
  901000   0.89968478   -7.0402993    290.24959  0.026845134  0.027033803            2 
  902000   0.89130059   -7.0854806    289.24659  0.026722708  0.027017547            4 
  903000   0.89065673   -7.0855336    290.27966  0.026788451  0.027001307            5 
  904000   0.89935247   -7.0746098    290.67671  0.026795419  0.026984965            4 
  905000   0.89597448   -7.0924667    291.16669  0.026810929  0.026968831           10 
  906000   0.87661888   -7.0821511    290.85542  0.026752706  0.026952657            6 
  907000   0.89678062     -7.08086    291.54507  0.026786574  0.026936432            5 
  908000   0.89904933   -7.0895516    291.08644  0.026714982  0.026920323            3 
  909000   0.90034378   -7.1070885    291.09514   0.02668639  0.026904363            5 
  910000   0.90019211   -7.0802507    292.17482  0.026755936  0.026888385            4 
  911000   0.87179271    -7.110672    292.49996  0.026756308  0.026872318            5 
  912000   0.91478513    -7.116223    291.81992  0.026664832  0.026856146            3 
  913000   0.88222194   -7.1076369    292.23713  0.026673706  0.026840037            7 
  914000   0.88966435   -7.1260902    292.93904  0.026708519  0.026824018            4 
  915000   0.89164834   -7.1360984    292.78662  0.026665448  0.026808231           11 
  916000   0.88071988   -7.1039101    293.01348  0.026656976  0.026792362            4 
  917000   0.89857255   -7.0897236    293.74278  0.026694182  0.026776685            6 
  918000   0.87718369   -7.0956977     293.2769  0.026622812  0.026760908            4 
  919000   0.89437486   -7.0908381    294.17535  0.026675313  0.026745175           20 
  920000    0.8979955   -7.0587966    294.53015  0.026678455  0.026729475            7 
  921000   0.88806692   -7.1186829    293.32715   0.02654064  0.026713809            3 
  922000   0.90935277     -7.11298    294.20396  0.026591103  0.026697901            5 
  923000   0.87547092   -7.1064021    293.81517  0.026527191  0.026681977            3 
  924000   0.88374506   -7.1049831    294.43944  0.026554784  0.026666082            6 
  925000   0.87296932     -7.09367    294.33163  0.026516363  0.026650261            3 
  926000   0.89935516   -7.0896574    294.21305  0.026477057   0.02663441            4 
  927000   0.89306828   -7.1004568    295.11365  0.026529454  0.026618569            9 
  928000   0.87453005   -7.1423903    293.95257  0.026396603  0.026602654            4 
  929000    0.8826053   -7.1035181    294.84892  0.026448593   0.02658646            6 
  930000   0.86825344    -7.108839     295.0823  0.026441066  0.026570312            3 
  931000    0.8892372    -7.099242    295.41481  0.026442428  0.026554206            5 
  932000   0.89272859   -7.1114793    295.17378  0.026392505  0.026538094            8 
  933000   0.86342888   -7.1213061    294.47604  0.026301897  0.026521859            3 
  934000   0.89361511   -7.1000571    294.86361  0.026308317  0.026505771            4 
  935000   0.88236531    -7.081522    295.78036  0.026361886  0.026489782            3 
  936000   0.86243073   -7.0901515    295.83744  0.026338803  0.026473786            7 
  937000   0.88550929    -7.110952    296.37223  0.026358256  0.026457652            3 
  938000   0.87540411   -7.1014681    296.38698  0.026331466  0.026441595            4 
  939000   0.88937099   -7.1166907    296.66848  0.026328406  0.026425668            4 
  940000   0.87805891   -7.1418003    296.38466  0.026275236  0.026409745            4 
  941000   0.89051027   -7.1206219     296.7116  0.026276267  0.026393684            5 
  942000   0.87074442   -7.1063304    296.50903  0.026230452  0.026377652            4 
  943000   0.87185465   -7.0944649    296.16357  0.026172108  0.026361576            2 
  944000   0.88299037    -7.106817    296.41063  0.026166193  0.026345452            8 
  945000   0.87657822   -7.1010497    296.63535   0.02615832  0.026329243            5 
  946000   0.86205696   -7.1460336    296.77584  0.026143044  0.026312869            3 
  947000   0.87548791   -7.1539498    297.03988  0.026138673  0.026296588            5 
  948000   0.87746334   -7.1194402    296.56707  0.026069538  0.026280188            3 
  949000   0.86906017   -7.1085312    297.75521  0.026146401  0.026263878            3 
  950000   0.85894112   -7.1514321    297.00478  0.026053051  0.026247471            5 
  951000   0.88824433   -7.1494864    297.34308    0.0260553  0.026231286            3 
  952000   0.89958092   -7.1115565    297.14764  0.026010822  0.026215036            5 
  953000   0.87424456   -7.1127873    298.53156  0.026104544  0.026198904            7 
  954000    0.8561515    -7.144936    297.89864  0.026021894  0.026182909            4 
  955000   0.87232537    -7.132173    298.45407  0.026043113  0.026166881            2 
  956000   0.85669469   -7.1370427    298.07891  0.025983168   0.02615096            6 
  957000   0.87531512   -7.1383261    298.77661  0.026016772  0.026134852            8 
  958000   0.85929214    -7.115057    298.83636  0.025994812  0.026118673            5 
  959000   0.88121854   -7.1460651    298.10981  0.025904572  0.026102587            5 
  960000   0.86248361   -7.1577514    298.24669  0.025889469  0.026086559            4 
  961000   0.86405014   -7.1450748    298.10689  0.025850407  0.026070334            4 
  962000   0.84647633   -7.1252965    298.39053  0.025848106  0.026053953            4 
  963000   0.87442133   -7.1739412    297.73908  0.025764891  0.026037447            5 
  964000   0.87231348   -7.1468198    297.82412  0.025745515  0.026020898            7 
  965000   0.87395075   -7.1474804    298.92261  0.025813697  0.026004144            6 
  966000   0.86875348   -7.1424519    299.06778  0.025799498  0.025987466            5 
  967000   0.87927295   -7.1527074    298.85189  0.025754214  0.025970901            6 
  968000   0.86705738   -7.1582527    299.63022  0.025794613  0.025954341            5 
  969000   0.87465222    -7.128675    298.72753  0.025690362  0.025937757            5 
  970000   0.87104496   -7.1545935    299.00127  0.025687394  0.025921287            4 
  971000   0.86775802   -7.1617916    299.28479  0.025685272  0.025904827            5 
  972000   0.85537516   -7.1403863    299.06646  0.025640128  0.025888223            7 
  973000   0.87315904    -7.136235    299.84897  0.025680796  0.025871817           10 
  974000   0.87888253   -7.1670644    299.58111  0.025631512  0.025855152            4 
  975000   0.88286561   -7.1529983    299.98759  0.025639965  0.025838472            3 
  976000   0.84370793   -7.1789679    299.25101  0.025550803  0.025821788            3 
  977000   0.85653948   -7.1273163    299.40892   0.02553812  0.025804902            3 
  978000    0.8684576   -7.1653593    299.96833  0.025559674  0.025788215            9 
  979000    0.8432481   -7.1273755    299.42559  0.025487367  0.025771616           10 
  980000    0.8581399   -7.1589848    300.04034  0.025513635  0.025755043            5 
  981000   0.88047232   -7.1660646    300.26311   0.02550655  0.025738247            2 
  982000     0.859958   -7.1990401    300.44081  0.025495656  0.025721523            2 
  983000   0.86032166   -7.1422803    301.15275  0.025530074  0.025704802            3 
  984000   0.85599732    -7.146353     300.2232  0.025425406  0.025687945            7 
  985000   0.84977297   -7.1332897    301.55157  0.025511977  0.025671296            5 
  986000   0.85928083   -7.1365304    301.59186  0.025489508   0.02565467            5 
  987000   0.84343395   -7.1488458    300.67802  0.025386527  0.025638068            6 
  988000   0.84824888   -7.1720586    301.76827  0.025452789  0.025621488            7 
  989000   0.85605644    -7.182298    301.25611  0.025383899   0.02560509            4 
  990000   0.86528038   -7.1758812    301.92802  0.025414817  0.025588607            3 
  991000   0.85933265   -7.1595399    302.18772  0.025411009  0.025572115            5 
  992000   0.86668975   -7.1543514    301.18061   0.02530079  0.025555581            2 
  993000   0.87855056    -7.174372     302.2899  0.025368404  0.025538902            3 
  994000   0.84123495   -7.1509611    301.86709  0.025307436  0.025522261            6 
  995000   0.85859482   -7.1355347    301.75534  0.025272641  0.025505653            4 
  996000   0.86444025   -7.1505255    302.98955  0.025350531  0.025489107            6 
  997000   0.84921569   -7.1410264    302.60151  0.025292671  0.025472649            3 
  998000    0.8564499   -7.1556609    303.27395  0.025323476  0.025456076            3 
  999000   0.84949796   -7.1884373    302.00812  0.025192536  0.025439346            3 
 1000000   0.85315299    -7.174087    301.58128  0.025131773  0.025422574            6 
 1001000   0.85001256   -7.1478801    302.58443  0.025190179  0.025405861            3 
 1002000    0.8599811   -7.1667571    302.34097  0.025144791  0.025389238            6 
 1003000   0.85306443   -7.1527327    303.48271  0.025214582  0.025372612            7 
 1004000   0.85671458   -7.1869773    303.23583  0.025168976  0.025355938            8 
 1005000   0.84960294    -7.191061    302.34304  0.025069904  0.025339311           12 
 1006000   0.83371134   -7.1810318     302.9665  0.025096628  0.025322583            3 
 1007000   0.84544381   -7.1804227    303.41603  0.025108907  0.025306101            4 
 1008000   0.86850116   -7.1679917    303.17528  0.025064094  0.025289623            9 
 1009000   0.85945529   -7.1715657    303.59014  0.025073517  0.025273207           13 
 1010000   0.86640251   -7.1740176    303.85062  0.025070183  0.025256781            7 
 1011000   0.83977851   -7.2067437     303.8752  0.025047412  0.025240178            3 
 1012000   0.82159656   -7.1630121    304.23329  0.025052149  0.025223485            3 
 1013000   0.87302031   -7.1792344    303.72319  0.024985455  0.025206978            3 
 1014000   0.84991973   -7.2026673    304.07578  0.024989791  0.025190385            8 
 1015000   0.85658699   -7.1548416    304.46158  0.024996846  0.025173844            3 
 1016000   0.84905196   -7.1998168     304.0969  0.024942331  0.025157329            7 
 1017000   0.85491287   -7.1977532    304.64946  0.024963083  0.025140853            3 
 1018000   0.85048398   -7.1590413    305.21212   0.02498462  0.025124408            5 
 1019000   0.84542484   -7.1708181    304.39375  0.024893176  0.025107997            3 
 1020000   0.86759025   -7.1649417    305.00763  0.024918924  0.025091625            5 
 1021000   0.85658016   -7.1696292    305.81887   0.02496073  0.025075166            7 
 1022000   0.82380238   -7.1642023    304.67239  0.024842824  0.025058652            5 
 1023000   0.83861616   -7.1856983    305.23001  0.024863963  0.025042134            4 
 1024000   0.86063874   -7.2037179    304.75225  0.024800802  0.025025563            4 
 1025000   0.84801558    -7.193797     305.1284  0.024807187  0.025009009            5 
 1026000   0.84284787   -7.1980655    305.25083  0.024792953  0.024992479            8 
 1027000   0.86608334   -7.1810479    305.07742  0.024754741  0.024976063            2 
 1028000   0.84172358   -7.2257082     305.3721  0.024754548  0.024959491            7 
 1029000   0.84480468   -7.2260317    304.36119  0.024648622  0.024942796            4 
 1030000   0.85035458   -7.2413309    305.33495  0.024703475  0.024926089            5 
 1031000   0.84021733   -7.2201479    305.96136  0.024730146  0.024909469            3 
 1032000   0.84320139   -7.2106185    306.05095  0.024713416  0.024893021            4 
 1033000   0.85454631    -7.194821    307.08555  0.024772955  0.024876737            5 
 1034000   0.84234162   -7.2054659     306.6723  0.024715691  0.024860381            6 
 1035000    0.8373877   -7.2058694    306.77709  0.024700249  0.024843991            5 
 1036000   0.84842678   -7.2115261    306.44411  0.024649623  0.024827549            5 
 1037000   0.85981672   -7.1968041    306.02977  0.024592557  0.024811131            5 
 1038000    0.8245597   -7.1911582    306.28926  0.024589697  0.024794857           11 
 1039000   0.84764686   -7.2156833    307.25812  0.024643738   0.02477842            4 
 1040000   0.85182312   -7.2008691    306.54412   0.02456283  0.024761957            3 
 1041000   0.83849685   -7.1945982    307.10453  0.024584096  0.024745478            6 
 1042000    0.8353681   -7.2303071     306.9501  0.024548153  0.024729044            6 
 1043000   0.83625355   -7.2048029    308.44443   0.02464401  0.024712692            3 
 1044000   0.84169401   -7.2278218    307.37993  0.024535435  0.024696307            4 
 1045000   0.83204627   -7.1976707    307.23544  0.024500434  0.024680033            3 
 1046000   0.82869257   -7.2063918    306.79552  0.024441963  0.024663636           18 
 1047000   0.84085289   -7.2076825    307.66579  0.024487885  0.024647152            3 
 1048000   0.82967426   -7.2287898    307.56221  0.024456283   0.02463062            6 
 1049000   0.83025905   -7.2299756    307.82689  0.024453995  0.024614185            5 
 1050000   0.82943467   -7.2052819    308.05198   0.02444857  0.024597795            2 
 1051000   0.83969762   -7.2115002    308.40268  0.024453114  0.024581378            6 
 1052000   0.82191379   -7.1897846    308.38949  0.024428825  0.024564981            4 
 1053000   0.82760818   -7.2390471    308.44708  0.024410183  0.024548542            3 
 1054000   0.82173202   -7.1945893    308.73453  0.024409751  0.024532172            8 
 1055000    0.8273791   -7.1997796    307.66047  0.024301775  0.024515823            9 
 1056000   0.84377557   -7.2118782    307.86388  0.024294814  0.024499318           13 
 1057000   0.80929689   -7.1981762    307.82074  0.024268428  0.024482814            5 
 1058000   0.83166234   -7.2030116    308.72951  0.024317069  0.024466488            3 
 1059000   0.83524052    -7.207509    308.32775  0.024262492  0.024450066            4 
 1060000   0.83007886   -7.2128799    307.43295  0.024169257  0.024433477            4 
 1061000   0.82229536   -7.2294883    308.51391  0.024231378  0.024416906            4 
 1062000   0.83867077   -7.2485666    309.13516   0.02425731  0.024400255            4 
 1063000   0.83211069   -7.2372631     308.1379  0.024156311   0.02438356            5 
 1064000   0.83529831   -7.2320381    308.32077   0.02414793  0.024366685            6 
 1065000   0.83154409   -7.2085232    308.38641  0.024130392  0.024349953            5 
 1066000   0.83244992   -7.2416268    308.43476  0.024111535    0.0243331            3 
 1067000   0.83384271   -7.2193932    308.02812  0.024057179  0.024316237            8 
 1068000   0.83835259   -7.2244903    308.72279  0.024088857  0.024299421            7 
 1069000   0.83571233   -7.2440794    308.39976  0.024041141  0.024282667           13 
 1070000   0.81595982   -7.2177494    309.76038   0.02412464  0.024266058            6 
 1071000   0.81547385   -7.2146109    309.54102  0.024085047  0.024249457            3 
 1072000   0.82352791   -7.2374202    308.90519  0.024013152  0.024232818            3 
 1073000    0.8178017   -7.2345677    309.68129  0.024051048  0.024216164            9 
 1074000   0.83455087   -7.2340769     309.7256  0.024032092  0.024199588            8 
 1075000   0.83717925   -7.2282741    309.21531  0.023970179  0.024183011            8 
 1076000   0.81711554   -7.2343071    309.06298  0.023936105  0.024166365            2 
 1077000   0.82866769   -7.2016707    310.55688  0.024029471  0.024149784            4 
 1078000   0.84405062   -7.2376959    310.41112  0.023995912  0.024133169            8 
 1079000   0.82089641   -7.2180719    309.93484  0.023936889  0.024116572            3 
 1080000   0.81406034   -7.2414716    309.23581  0.023860788   0.02409989            9 
 1081000   0.82796469   -7.2291921    310.05196  0.023901631  0.024083092            5 
 1082000   0.80801026   -7.2474045    309.58643  0.023843687  0.024066353           15 
 1083000   0.81310723   -7.2290521    309.88024  0.023844278   0.02404964            9 
 1084000   0.81510271   -7.2462358    309.63581  0.023803491  0.024032964           16 
 1085000   0.79010682   -7.2401917    309.97001  0.023807221  0.024016205            5 
 1086000   0.81517525   -7.2335441    309.93731  0.023782789  0.023999433            9 
 1087000    0.8080863   -7.2398416      309.622  0.023736737  0.023982668            6 
 1088000   0.82706191   -7.2539655    311.07598  0.023826286  0.023965865            2 
 1089000   0.81983732   -7.2781008    309.98411  0.023720853  0.023949108            7 
 1090000   0.81617638   -7.2438493    310.34759   0.02372688  0.023932431            6 
 1091000    0.8202719   -7.2687286    310.69055  0.023731329  0.023915761            4 
 1092000   0.81441216   -7.2667701     310.3684  0.023685012  0.023899085            5 
 1093000   0.84331837   -7.2297325    311.31302  0.023735363   0.02388254            8 
 1094000    0.8061576   -7.2572753    311.61154  0.023736406  0.023866079            4 
 1095000   0.81967048   -7.2586783    311.26357  0.023688247  0.023849641            5 
 1096000   0.82038791   -7.2661504    311.53828  0.023687521  0.023833206            4 
 1097000    0.8119085   -7.2600312    311.09878  0.023632542  0.023816654            9 
 1098000   0.80606265   -7.2849102     312.2249  0.023696486  0.023800019            3 
 1099000   0.82126088   -7.2492874    311.83969  0.023645715  0.023783342            3 
 1100000   0.81704086    -7.256134    311.78996  0.023620451  0.023766767            4 
 1101000   0.79994655   -7.2389553    311.50913  0.023577742  0.023750181            3 
 1102000   0.81592174   -7.2484376     311.1164  0.023526648  0.023733587           10 
 1103000   0.82233589   -7.2486514    311.63275   0.02354433  0.023716975            7 
 1104000    0.8187128   -7.2676066    311.46569  0.023510394  0.023700286            4 
 1105000   0.82424083   -7.2577611    312.09267  0.023536401  0.023683747            4 
 1106000   0.82141204   -7.2672272    311.97002  0.023505879  0.023667105            5 
 1107000   0.80755157    -7.267591    311.78679  0.023470851  0.023650534            8 
 1108000   0.80534073   -7.2599951    311.52808  0.023430211  0.023634039           14 
 1109000   0.83271662   -7.2531862     312.2173  0.023460873   0.02361764           13 
 1110000   0.81016272    -7.280351    312.44014  0.023456467  0.023601195           12 
 1111000   0.79317944   -7.2799729    311.87611  0.023393048  0.023584648            8 
 1112000   0.78347017   -7.2898785    312.12062  0.023390334  0.023568164            7 
 1113000   0.82824692    -7.254758    312.42779  0.023392317  0.023551649            6 
 1114000   0.80559475   -7.2933812    312.34846  0.023365384  0.023535092            8 
 1115000   0.80027768   -7.2804861    312.99463  0.023392723  0.023518565            4 
 1116000   0.79499521   -7.2484546    312.33261  0.023322327  0.023502042            8 
 1117000   0.80242602   -7.3017957    312.02838  0.023278751  0.023485461            2 
 1118000   0.81027941   -7.2489092    313.97964  0.023403372  0.023468906            7 
 1119000   0.78847728   -7.2637795    312.62955  0.023281915  0.023452494            6 
 1120000   0.80692439   -7.2630468    312.97968  0.023287179  0.023436041            9 
 1121000   0.80996932   -7.2707932    312.17794  0.023206805  0.023419433            3 
 1122000   0.80270087   -7.2981016    311.93342  0.023167961   0.02340273            4 
 1123000   0.82061051   -7.2881716    312.52781  0.023191437  0.023386126            5 
 1124000   0.79446607   -7.2837433    312.29643   0.02315365  0.023369426            8 
 1125000   0.81332214   -7.2845552    312.71275  0.023163907  0.023352675            3 
 1126000   0.81299065   -7.2690979    312.60522  0.023135378  0.023336033            6 
 1127000   0.79908605   -7.2901613    313.54543  0.023184371  0.023319411            4 
 1128000   0.80613641   -7.3223024    313.11433  0.023131969   0.02330272            6 
 1129000   0.79227806   -7.2853544    312.99931   0.02310299  0.023286048            5 
 1130000   0.79874552   -7.3141801    312.31342  0.023031963   0.02326934           10 
 1131000   0.81674642   -7.2790846    313.05324  0.023066109  0.023252682            4 
 1132000   0.79878425   -7.2900961    313.29113  0.023063246  0.023236056           10 
 1133000   0.78387883   -7.2981962    313.91726  0.023088942  0.023219477            4 
 1134000   0.81083203   -7.3017247    313.37962  0.023029073  0.023202805            6 
 1135000   0.78762988   -7.2973192     313.6195  0.023026395  0.023186073            5 
 1136000   0.79466366    -7.272312     313.6906  0.023011341  0.023169527            3 
 1137000   0.80021229   -7.2988029    313.33688  0.022965177  0.023152903            4 
 1138000   0.80434656   -7.2843154    313.67721  0.022969919  0.023136323            7 
 1139000   0.81174257   -7.2593754    313.39182  0.022928872  0.023119662           11 
 1140000   0.79055588   -7.3004421    313.93696  0.022948608  0.023103087            6 
 1141000   0.80171288   -7.2967265    313.88092  0.022924403   0.02308645            8 
 1142000   0.79475972   -7.2906565    313.71931  0.022892536  0.023069853            6 
 1143000   0.78892865   -7.2753661    313.88096  0.022884293  0.023053314            2 
 1144000   0.81656537   -7.2948457    314.28681  0.022893853  0.023036797            8 
 1145000   0.79712325   -7.2813952    314.67271  0.022901944  0.023020303            8 
 1146000   0.79504752   -7.2836325    314.83963  0.022894098  0.023003857            9 
 1147000   0.80862906   -7.2867738    315.20432  0.022900634  0.022987413            3 
 1148000   0.78837787   -7.2685177    314.37389  0.022820404  0.022971067            3 
 1149000   0.78319379   -7.2758666    313.85934  0.022763225  0.022954592            7 
 1150000   0.80420553   -7.2921397    314.65948  0.022801411  0.022938024            8 
 1151000   0.80631587   -7.3141045    314.27422  0.022753708  0.022921374            6 
 1152000   0.80881974   -7.2973141    314.01846  0.022715456  0.022904779            9 
 1153000   0.79130081   -7.2894728    314.66841   0.02274273  0.022888154            3 
 1154000    0.7978341   -7.3303859    315.02818  0.022749002  0.022871677            6 
 1155000   0.78279775   -7.2689551    314.95551  0.022724063  0.022855302            6 
 1156000    0.7993671   -7.2847959    315.26226  0.022726518  0.022838856            5 
 1157000    0.8035559   -7.3018511    315.10546  0.022695582  0.022822486            4 
 1158000   0.79070103   -7.3095829    314.75331  0.022650642  0.022806036            4 
 1159000   0.79298499   -7.2993589    315.32177  0.022671971  0.022789689            7 
 1160000   0.79506229   -7.3095639    314.67153  0.022605713  0.022773315            6 
 1161000   0.79760637   -7.2936657    314.52229  0.022575531  0.022756785            5 
 1162000   0.77828951    -7.333625    315.37547  0.022617289  0.022740258            5 
 1163000   0.79487246   -7.2799814    315.50508  0.022607128   0.02272382            6 
 1164000   0.78697924   -7.3034404    316.19293  0.022636951  0.022707463            4 
 1165000    0.7746652   -7.3322199     315.2218  0.022548054   0.02269096            5 
 1166000   0.78983063   -7.3420517    314.85138  0.022502243  0.022674375            8 
 1167000   0.77177551   -7.2999304    315.44563  0.022525395  0.022657752           10 
 1168000   0.78441411   -7.3413011    315.06695  0.022479092  0.022641163            5 
 1169000   0.79612724    -7.333977    315.24274  0.022472394  0.022624546            6 
 1170000   0.76781251   -7.3182025    315.21094  0.022450922  0.022607939            4 
 1171000   0.78646552   -7.3200951     316.0204  0.022489354  0.022591482            6 
 1172000   0.76798916   -7.3510361    316.02434  0.022470445   0.02257504            5 
 1173000   0.78291416   -7.3235214    315.65417  0.022424991  0.022558652            2 
 1174000   0.80682546   -7.3340105     316.0912  0.022436911  0.022542337            4 
 1175000   0.80139428   -7.3187238    317.27054  0.022501456  0.022526015            7 
 1176000   0.78593142   -7.3448619    316.68271  0.022440668  0.022509702            5 
 1177000   0.77546442   -7.3169547    316.16047  0.022384627  0.022493343            5 
 1178000   0.79871231   -7.3285257    316.27261  0.022373558  0.022477112           11 
 1179000   0.77852734    -7.338162     316.9292  0.022400989  0.022460834            6 
 1180000   0.78327548   -7.3133473    316.72165  0.022367348   0.02244459            5 
 1181000   0.78541318   -7.3177661    316.48776  0.022331905  0.022428315            5 
 1182000   0.78361481   -7.3491009    316.86299  0.022339466  0.022412057           18 
 1183000   0.78827948   -7.3070872    317.36753  0.022356123  0.022395795           12 
 1184000   0.78550055   -7.3192567    316.21986  0.022256465  0.022379458            7 
 1185000   0.78188779     -7.34509    316.12408  0.022230948  0.022363125           10 
 1186000   0.78090298   -7.3455581    316.76308  0.022257102  0.022346832            7 
 1187000   0.78616158   -7.3559877    316.75599  0.022237854  0.022330484            6 
 1188000   0.77331148   -7.3241518    316.72685  0.022217091  0.022314125            6 
 1189000    0.7915103    -7.340674    316.99157  0.022216959  0.022297876            4 
 1190000   0.77653432   -7.3668244    317.39003  0.022226193  0.022281729           11 
 1191000   0.78671931   -7.3536088    317.87582  0.022241521  0.022265571            6 
 1192000   0.77505067   -7.3337479    316.98284  0.022160434  0.022249406            4 
 1193000   0.79317993   -7.3342293    317.45307  0.022174705  0.022233167            9 
 1194000   0.77553863   -7.3371433    317.33958  0.022148212  0.022217072            5 
 1195000    0.7773532   -7.3091565    317.55227   0.02214451  0.022201065            7 
 1196000   0.76037491   -7.3440624    317.67474  0.022134528  0.022184992            5 
 1197000   0.77267119   -7.3462896    318.52196  0.022175018   0.02216893            6 
 1198000    0.7735867     -7.32102    318.76578  0.022173468  0.022153026            5 
 1199000   0.77873494   -7.3208264    318.26272  0.022120011  0.022137196            6 
 1200000   0.76420045   -7.3337871    318.15419  0.022094041  0.022121285            4 
 1201000   0.76793586   -7.3669785    317.53671  0.022032799  0.022105257            5 
 1202000   0.77867972   -7.3561159    317.89888  0.022039578  0.022089155            7 
 1203000   0.76551452    -7.387139     318.1661  0.022039769  0.022073096            8 
 1204000   0.77569364   -7.3625762    317.92908  0.022005058  0.022057006           12 
 1205000   0.77337838   -7.3408461    318.82052  0.022048445  0.022041035            4 
 1206000   0.77268284    -7.336691    318.34832  0.021997534  0.022025037           11 
 1207000    0.7645599   -7.3615182    318.31142  0.021976762  0.022009037            6 
 1208000   0.78037537   -7.3613376    318.73764  0.021987972  0.021993065           12 
 1209000   0.77721693   -7.3303692    319.09914  0.021994702  0.021977142            5 
 1210000   0.76636323   -7.3662525    318.07778  0.021906183  0.021961205            5 
 1211000   0.77918305   -7.3523496    318.89263  0.021944167  0.021945248            3 
 1212000     0.760313   -7.3696482    317.97387   0.02186289  0.021929308            4 
 1213000   0.77173649   -7.3538368    319.05838  0.021919372  0.021913359            6 
 1214000   0.75126187   -7.3478912    318.75455   0.02188046  0.021897406            3 
 1215000   0.78217454   -7.3745194    318.77567    0.0218639   0.02188153           11 
 1216000   0.77278525   -7.3523171    319.36847  0.021886545  0.021865702            3 
 1217000      0.77002   -7.3530891    319.89356  0.021904517  0.021849872            6 
 1218000   0.76611751    -7.345682    319.82531  0.021881863  0.021834091           14 
 1219000   0.74459377    -7.341849    319.45724   0.02183875  0.021818312            2 
 1220000   0.76664094   -7.3551815    319.64578  0.021833728  0.021802537            9 
 1221000   0.78794095   -7.3357303     320.2488  0.021857003   0.02178689            6 
 1222000   0.75916917   -7.3716808    319.63288  0.021797114  0.021771156            4 
 1223000   0.75675874   -7.3513929     319.5874  0.021776192  0.021755445            9 
 1224000   0.75919756    -7.355502    320.23626  0.021802578  0.021739868            9 
 1225000   0.75778349   -7.3594586    319.87845  0.021760439  0.021724154            9 
 1226000   0.76714504   -7.3681442    319.34289  0.021706286  0.021708445            9 
 1227000   0.77574176   -7.3458086    319.97608    0.0217316   0.02169277            5 
 1228000   0.79096593   -7.3430722    320.11275  0.021723178  0.021677184            5 
 1229000   0.76490531   -7.3986724     320.4835  0.021730641   0.02166154            4 
 1230000   0.75580834   -7.3941852    320.70772  0.021728165  0.021645899            8 
 1231000   0.76648203   -7.3356377    321.01392  0.021731243  0.021630367            8 
 1232000   0.77083742   -7.3633855    320.71211  0.021693189  0.021614905            4 
 1233000   0.76619981   -7.3700794    320.06656  0.021631965  0.021599394            6 
 1234000   0.74641326   -7.3525773    321.20516  0.021691327  0.021583871            4 
 1235000   0.75962949   -7.3804932    320.27848  0.021611234  0.021568353            5 
 1236000   0.75159181   -7.3587618    320.65733  0.021619292  0.021552845            7 
 1237000   0.75972133   -7.3731039    320.55063  0.021594626  0.021537225            8 
 1238000   0.74932429   -7.3714341    320.22672   0.02155538  0.021521555           10 
 1239000   0.75996054   -7.4222024    319.71698  0.021503698  0.021505852            6 
 1240000   0.75875593   -7.3823711    320.58735  0.021544849  0.021490168            7 
 1241000    0.7543568   -7.4095405     320.9432  0.021551383  0.021474536           12 
 1242000   0.74589446   -7.3699693    320.10181  0.021477577  0.021459015            8 
 1243000   0.76221211   -7.4002593    320.66626   0.02149814  0.021443485            8 
 1244000   0.76089438   -7.3735186    320.19557  0.021449328  0.021427948            9 
 1245000   0.75344255   -7.3798353    321.02695  0.021487748  0.021412439            9 
 1246000   0.76637463   -7.3573205    321.20617  0.021482489  0.021397011            7 
 1247000   0.75012382   -7.3820866    321.34532   0.02147456  0.021381614            6 
 1248000   0.74704751   -7.3677167     321.8253  0.021489403  0.021366208            8 
 1249000   0.74704918   -7.3658508    321.61749  0.021458332  0.021350749            8 
 1250000   0.74496769   -7.3488022     320.8171  0.021387806  0.021335291            9 
 1251000   0.74795833   -7.4058409    321.52876  0.021418116  0.021319948            6 
 1252000   0.75800237   -7.3810978    321.59328  0.021405303  0.021304451           10 
 1253000   0.74905146   -7.3829364    320.48217  0.021314323  0.021288981           14 
 1254000   0.75045415   -7.4027533     321.6721  0.021376402   0.02127353           10 
 1255000   0.74948869   -7.3816297    322.46534  0.021412041  0.021258101            3 
 1256000   0.76313718   -7.3910076    321.46051  0.021328325  0.021242656            3 
 1257000   0.74690076   -7.4111641    321.80888  0.021334452   0.02122716            5 
 1258000   0.74224244   -7.4008652    322.27474  0.021348353  0.021211629            4 
 1259000   0.75326967    -7.427481    321.29455  0.021266518  0.021196144            8 
 1260000   0.75595998   -7.4324394    321.31384  0.021250915  0.021180634            5 
 1261000   0.74675167   -7.4124468    321.37669  0.021238216  0.021165139           11 
 1262000   0.74415723   -7.3889334    321.35698  0.021220086  0.021149706            9 
 1263000    0.7652715   -7.4166867    322.01409  0.021246641  0.021134186            4 
 1264000   0.77933599   -7.3919218    322.00869  0.021229476  0.021118736            5 
 1265000   0.75336544   -7.4014574     322.0985   0.02121861  0.021103304            4 
 1266000   0.76018173   -7.4048679    322.03543  0.021197698  0.021087934            8 
 1267000   0.74248356   -7.4114988     321.0419  0.021115621  0.021072408           18 
 1268000   0.74109246   -7.4016709     321.6163  0.021136718   0.02105697            5 
 1269000   0.75775378   -7.4399099    321.84709  0.021135217  0.021041518            8 
 1270000    0.7516694   -7.4012134    321.95152  0.021125428  0.021026013            6 
 1271000   0.73531858   -7.3969551    322.37856  0.021136806  0.021010548           10 
 1272000   0.73132869   -7.3828819     322.6723  0.021139433   0.02099521            7 
 1273000   0.74007433   -7.4257225    321.92101  0.021073646  0.020979828            9 
 1274000   0.73483022   -7.4023158    322.59839  0.021101412  0.020964416            7 
 1275000   0.72835949   -7.3908549    321.62636  0.021021331  0.020949016            4 
 1276000   0.75059865   -7.4244278    321.99445  0.021028896  0.020933705            9 
 1277000   0.73572077     -7.40756    321.56312  0.020984281  0.020918375           12 
 1278000   0.73524399   -7.4031286     322.4149  0.021023402  0.020903027            4 
 1279000   0.74750775   -7.4308198    322.10116  0.020986523  0.020887757            8 
 1280000   0.75218867   -7.4235429    322.49136  0.020995531  0.020872459            7 
 1281000   0.75676958   -7.4254516    322.23943  0.020962753  0.020857142            9 
 1282000   0.75058224   -7.4034782    322.36121  0.020954317   0.02084186            7 
 1283000   0.73048801   -7.4610031    322.28669  0.020933145  0.020826567            4 
 1284000   0.75009572   -7.4316971    323.34683  0.020985646   0.02081126            6 
 1285000   0.71806672   -7.4139533    321.92298  0.020876977  0.020796038            4 
 1286000   0.73870748   -7.3939344    323.02299  0.020932024  0.020780838            6 
 1287000   0.72941886   -7.4355975    323.14738  0.020923814  0.020765657            9 
 1288000   0.73819237   -7.4200124    322.82679  0.020886826  0.020750472            4 
 1289000   0.73233484   -7.4271705    323.17237  0.020892964  0.020735271            4 
 1290000   0.75545806   -7.4098304    323.72415  0.020912412  0.020720141            9 
 1291000   0.72758657   -7.4514642    322.93239  0.020845106  0.020705032            5 
 1292000   0.74949559    -7.435861    323.00946  0.020833943  0.020689861            6 
 1293000    0.7373195   -7.4156508    323.35583  0.020840154  0.020674712            8 
 1294000   0.73914272   -7.4273982    324.23918  0.020880937  0.020659637            3 
 1295000   0.74385124   -7.4329505    323.75088   0.02083339  0.020644554            4 
 1296000   0.73316038    -7.432109    322.71138  0.020750475  0.020629467            3 
 1297000   0.71093666   -7.4319774    323.31118  0.020773013  0.020614379            7 
 1298000   0.70967213   -7.4209799    323.31448  0.020757221  0.020599261            7 
 1299000   0.75579643   -7.4045351      323.851  0.020775661  0.020584172            4 
 1300000   0.75795448   -7.4236773    323.81388    0.0207573  0.020569143           15 
 1301000   0.75065368   -7.4214701    324.22396  0.020767612  0.020554112            8 
 1302000   0.72618121   -7.4611702    324.36171  0.020760478  0.020539164           11 
 1303000    0.7468502   -7.4472181    324.11741  0.020728921  0.020524109            8 
 1304000   0.72830979   -7.4372339    323.70867  0.020686904  0.020508996            3 
 1305000   0.71933701   -7.4463789    323.01211  0.020626571  0.020493825            7 
 1306000   0.73536704   -7.4503851    323.34851  0.020632243  0.020478695            6 
 1307000    0.7295565    -7.454605    323.20459  0.020607281  0.020463558            3 
 1308000    0.7376311   -7.4453478    323.82096  0.020630795  0.020448517           11 
 1309000   0.74179792   -7.4219197    323.71289  0.020608154  0.020433456            4 
 1310000   0.71998224   -7.4342182     323.0805  0.020552195  0.020418355            5 
 1311000   0.71808105   -7.4360064    323.55714  0.020566815  0.020403271            3 
 1312000   0.73214087   -7.4540894    323.31484   0.02053575  0.020388181           10 
 1313000   0.72914061   -7.4459892    323.59521  0.020537904  0.020373033            6 
 1314000   0.72080837   -7.4580896    323.70148  0.020529013   0.02035788            5 
 1315000   0.74661436   -7.4659659    323.86263  0.020523614  0.020342736            6 
 1316000   0.72380416     -7.46609     323.5817  0.020490229   0.02032762            6 
 1317000   0.72284925   -7.4323788     323.3081  0.020457359  0.020312481            5 
 1318000     0.737894   -7.4491443    322.98163  0.020421195  0.020297396            8 
 1319000   0.73185723   -7.4657311     323.1856    0.0204186  0.020282237            6 
 1320000    0.7077557   -7.4735607    323.17709  0.020402594  0.020267067           11 
 1321000   0.70974933   -7.4498557    324.06548  0.020443192   0.02025186            8 
 1322000   0.73613572   -7.4468533     323.6537  0.020401771  0.020236697           17 
 1323000   0.71467805    -7.441034    323.00872  0.020345724  0.020221446           10 
 1324000   0.73066003   -7.4940154     322.9179  0.020324641  0.020206221            8 
 1325000   0.72323573   -7.4512318    323.55071  0.020349101  0.020190937            7 
 1326000   0.73946707   -7.4777931    323.56106  0.020334405  0.020175753            9 
 1327000   0.71256584   -7.4555366    323.50273  0.020315419   0.02016059            7 
 1328000   0.73723747   -7.4493438    323.50921  0.020300528  0.020145399            6 
 1329000   0.72662445   -7.4524453    323.53452   0.02028684  0.020130268            6 
 1330000   0.71903418   -7.4606002    323.71944  0.020283173  0.020115158           13 
 1331000   0.72069767   -7.4635825    323.25257  0.020238703   0.02009998            8 
 1332000   0.73558443   -7.4899566    323.06458  0.020211748  0.020084846           13 
 1333000   0.72787035   -7.4863636    323.44951   0.02022065  0.020069697            5 
 1334000   0.71936395   -7.4508305    324.50914  0.020271686  0.020054596            5 
 1335000    0.7241039    -7.470415    323.35161  0.020184245   0.02003949            7 
 1336000   0.71788104   -7.4731255    323.44324  0.020174853  0.020024392            8 
 1337000   0.70714029   -7.4569911    323.54731   0.02016625  0.020009337            5 
 1338000   0.72561204   -7.4835862    323.94605  0.020176012  0.019994223           13 
 1339000   0.70938774   -7.4529115    324.33598  0.020185212  0.019979198           14 
 1340000   0.72258955   -7.4726793    324.03523  0.020151444  0.019964093            7 
 1341000   0.72698117   -7.4671651     323.6964  0.020115362  0.019948979            9 
 1342000    0.7318971    -7.482177    323.31976  0.020076985  0.019933865           11 
 1343000   0.69781793   -7.4790725    324.31367  0.020123708  0.019918815            6 
 1344000   0.72668021    -7.458886    323.57263  0.020062787  0.019903718            7 
 1345000   0.71009082    -7.473876    323.35739  0.020034534  0.019888683            3 
 1346000   0.73106892   -7.4648347    323.67433  0.020039273    0.0198736           10 
 1347000   0.72344326   -7.4715829    323.81254  0.020032946  0.019858553            7 
 1348000   0.71959808   -7.4650369    324.18016  0.020040811   0.01984355           13 
 1349000   0.70514665   -7.4661824    323.92384  0.020010121  0.019828574            6 
 1350000   0.72709134   -7.4762959    324.05069  0.020003129   0.01981359            5 
 1351000   0.69868116   -7.4621071    324.04356  0.019987883  0.019798629            5 
 1352000   0.71756482   -7.4749146    324.52984  0.020003072  0.019783718            6 
 1353000   0.71402265   -7.4760066    324.29876  0.019974055  0.019768888            6 
 1354000   0.71105808   -7.4824076      324.302  0.019959503  0.019754041            6 
 1355000   0.68988969   -7.4877839    325.05062  0.019990813  0.019739229            7 
 1356000   0.71093384   -7.5040062    324.35406  0.019933263  0.019724403            7 
 1357000   0.71194692   -7.4721968    324.65033  0.019936768  0.019709584            5 
 1358000   0.71687871   -7.4702013    324.90214  0.019937539   0.01969477           12 
 1359000   0.71724953   -7.4665395    324.68269  0.019909412  0.019679965            9 
 1360000   0.73783426   -7.4713373    324.71538  0.019896776  0.019665186           10 
 1361000   0.72264699   -7.4619036    324.71394  0.019882068  0.019650483           14 
 1362000   0.70516071   -7.4919093    324.50313  0.019854572  0.019635829            9 
 1363000   0.72159065   -7.5016936     324.2898  0.019826963  0.019621119            8 
 1364000   0.71191512    -7.466435    324.59446   0.01983104  0.019606453            8 
 1365000   0.70562427   -7.5013366    325.30014  0.019859593  0.019591791            6 
 1366000   0.70322511   -7.4829197    325.89029  0.019881057  0.019577159            6 
 1367000   0.70554046   -7.4994957    324.73455  0.019796059  0.019562562           10 
 1368000   0.70524992   -7.4928308    324.67425  0.019777915  0.019547847            9 
 1369000     0.717331   -7.4836541    324.61965  0.019760144  0.019533128            4 
 1370000   0.69618051    -7.509174    324.46534  0.019736335  0.019518366            9 
 1371000   0.70975358    -7.493565    325.22336  0.019768014  0.019503653            5 
 1372000   0.67576409   -7.5044597    325.28782   0.01975752  0.019488902            7 
 1373000   0.70233132   -7.5034042    325.07731  0.019730354  0.019474172            6 
 1374000   0.69805391   -7.4816037     324.3988  0.019674842  0.019459424            5 
 1375000   0.71271609   -7.4873262    324.59828  0.019672623  0.019444714            4 
 1376000   0.70437109   -7.4940401    324.53406  0.019654437  0.019429954            9 
 1377000   0.68954414   -7.5034516    324.99063  0.019667794  0.019415217            8 
 1378000   0.70897476   -7.4885273     325.0472  0.019656943  0.019400526           20 
 1379000   0.70819573   -7.4876729    325.01449  0.019640712  0.019385814            8 
 1380000   0.71984089   -7.4978324    325.26399  0.019641546  0.019371147            7 
 1381000   0.69390755    -7.482731     324.2148  0.019564012  0.019356572            7 
 1382000   0.72369567   -7.5196975     324.8447  0.019587837  0.019341924            4 
 1383000   0.71401119   -7.4889819    325.33429  0.019603175  0.019327324            5 
 1384000   0.70350351   -7.5085002    325.41097  0.019593628  0.019312723            5 
 1385000   0.69950105   -7.5159578    325.47065  0.019583072  0.019298138           23 
 1386000   0.70999829   -7.5203855    325.25852  0.019556188  0.019283554            4 
 1387000   0.69558415   -7.5002227    325.62585  0.019564159  0.019268987            5 
 1388000     0.711969   -7.5062433    325.40093  0.019536559  0.019254401           10 
 1389000   0.71058445   -7.5015467    324.68619  0.019479613  0.019239844           14 
 1390000   0.69299133   -7.5019286    325.43552  0.019510523  0.019225299            7 
 1391000   0.68779517   -7.5046797    325.68141  0.019511228   0.01921078           10 
 1392000   0.70563088   -7.5017409    326.06152  0.019519966  0.019196279           13 
 1393000   0.69838047   -7.5120538    326.01585  0.019503221  0.019181792           13 
 1394000   0.71622008   -7.5115757    325.80428  0.019476583  0.019167337           14 
 1395000   0.69357556   -7.5410166     326.3038  0.019492461  0.019152912            4 
 1396000   0.69045381   -7.5192744    326.33999  0.019480658  0.019138551            4 
 1397000   0.68981975   -7.5176281    326.33334  0.019466317  0.019124204           10 
 1398000   0.69908714    -7.508004    326.68568  0.019473395  0.019109864           10 
 1399000   0.69915404   -7.5201251    325.39106   0.01938236  0.019095499            7 
 1400000   0.70099058   -7.5063625    325.96987  0.019402968  0.019081154           17 
 1401000   0.71952941    -7.523264    326.44347  0.019417289  0.019066846            7 
 1402000    0.7146194    -7.508811    325.75253  0.019362371   0.01905256            4 
 1403000   0.70134581   -7.5460347    325.40069  0.019327673  0.019038231            7 
 1404000   0.69413248   -7.5016918    326.00094  0.019349533  0.019023886            5 
 1405000   0.70565299   -7.5813117    326.16118  0.019345266  0.019009555            6 
 1406000   0.69000185    -7.537875    326.43616  0.019347805   0.01899529           14 
 1407000   0.67806037   -7.5149956    325.96224  0.019305984  0.018981018            8 
 1408000   0.69790752   -7.5121614    326.34725   0.01931506  0.018966782            8 
 1409000   0.70150636   -7.5341624    326.49649  0.019310178  0.018952605            6 
 1410000   0.67118797   -7.4921845    326.99799  0.019326122  0.018938469            5 
 1411000   0.69147204   -7.5169593    326.44437  0.019279729  0.018924293            8 
 1412000   0.71202999   -7.4998526    327.00793  0.019299335  0.018910171            5 
 1413000   0.69225802   -7.5116962    326.56197  0.019259375  0.018896049           16 
 1414000   0.68771486   -7.5336286    326.60886  0.019248518  0.018881874           12 
 1415000   0.69650334   -7.5201001    326.77869  0.019244917  0.018867686            4 
 1416000   0.68673177   -7.5392019    326.37243  0.019207417  0.018853571           15 
 1417000   0.68352535    -7.504343    327.05226  0.019233843  0.018839443           18 
 1418000   0.68976335    -7.564928    326.89249  0.019210889  0.018825336           12 
 1419000   0.68057328   -7.5352386    326.88137  0.019196698  0.018811221            4 
 1420000   0.68200784   -7.5385491    326.64036  0.019169035  0.018797146           10 
 1421000   0.69624855   -7.5477955    327.28744  0.019193493  0.018783027            8 
 1422000   0.68839519   -7.5568497     327.0355  0.019165231  0.018768934           18 
 1423000   0.68408651   -7.5358727    326.13119  0.019098805  0.018754854            9 
 1424000   0.68982517   -7.5757729    327.14445  0.019144689  0.018740768           15 
 1425000   0.68779835   -7.5641366    326.69943   0.01910523   0.01872667            9 
 1426000   0.67157772   -7.5878431    327.04228  0.019111868   0.01871256            9 
 1427000   0.68828423   -7.5708115    326.27904  0.019053903  0.018698438           16 
 1428000   0.70293913   -7.5464663    326.91487  0.019077665  0.018684283            7 
 1429000    0.6723489   -7.5609387    326.38825  0.019033605  0.018670135           12 
 1430000   0.69021971   -7.5449499    326.57858  0.019031386  0.018656037            8 
 1431000   0.68094384   -7.5792381    326.83925  0.019033266   0.01864196            5 
 1432000   0.67650723   -7.5335715    326.54789   0.01900302  0.018627916            9 
 1433000   0.67933099   -7.5647245    327.53287  0.019047038  0.018613931           14 
 1434000   0.68250965   -7.5787569    326.43911  0.018970195  0.018599935           11 
 1435000    0.6734458   -7.5503285    325.81869  0.018920946  0.018585898           13 
 1436000    0.6978097    -7.566665    327.35408  0.018996871  0.018571868            8 
 1437000   0.67499193   -7.5568583    326.58338  0.018938957   0.01855784            9 
 1438000   0.68260037   -7.5501464    326.52543  0.018922429  0.018543874           15 
 1439000   0.66083369   -7.5515393    327.39227  0.018959478  0.018529906            8 
 1440000   0.66993489   -7.5652519    327.13085  0.018931184  0.018515952           12 
 1441000   0.66982219   -7.5664158    327.20756  0.018922482  0.018502026            7 
 1442000   0.67788006   -7.5539732    327.36054    0.0189182  0.018488091            3 
 1443000    0.6758499   -7.5600338    326.99126  0.018883764  0.018474127            7 
 1444000   0.68386267   -7.5622399      326.968  0.018869345  0.018460165            8 
 1445000    0.6925766   -7.5942984    327.07754  0.018862603  0.018446181           20 
 1446000   0.67204374   -7.5832945    327.00183  0.018845195  0.018432219            9 
 1447000   0.68662234   -7.5643519    326.62159  0.018810273  0.018418284            9 
 1448000   0.66747798   -7.5787743    327.23413  0.018832535  0.018404309            5 
 1449000   0.67544301    -7.575771     327.6956  0.018846078  0.018390361            7 
 1450000   0.67030315   -7.5526442     327.3203  0.018811512  0.018376443           15 
 1451000    0.6775738   -7.5560105    327.13907  0.018788139  0.018362564            7 
 1452000   0.68400147   -7.5585857    327.26891  0.018782651  0.018348689            4 
 1453000   0.67032847   -7.5590617    326.81246  0.018743545  0.018334789            7 
 1454000   0.68379079   -7.5601431    327.76659  0.018785339  0.018320949            5 
 1455000   0.68715294   -7.5553827    326.90221  0.018722922  0.018307124           11 
 1456000   0.67465983   -7.5738651    327.80671  0.018761831   0.01829332            9 
 1457000   0.67278702   -7.5705013    327.75547  0.018746023  0.018279509            9 
 1458000   0.65402584   -7.5880278    328.00469   0.01874741  0.018265694            4 
 1459000    0.6770203   -7.5575012    326.92231  0.018672739   0.01825186            8 
 1460000   0.68010832   -7.5678638    326.53323  0.018637742  0.018238016            3 
 1461000   0.66807478   -7.5877694    327.71962  0.018692654  0.018224152            4 
 1462000   0.67510249   -7.5528572    326.97795  0.018637594  0.018210331            4 
 1463000   0.67990343   -7.5585283    328.02969  0.018684762  0.018196522            7 
 1464000   0.67413467   -7.5742068    327.40598  0.018636497  0.018182714            8 
 1465000   0.66984615   -7.5915147    326.89281  0.018594585  0.018168911           12 
 1466000   0.67153233   -7.5753874    327.38531  0.018609897  0.018155155           18 
 1467000    0.6667308   -7.6149404    327.15552  0.018584158  0.018141392            6 
 1468000   0.66264625   -7.5703367    326.58476  0.018539098  0.018127646            9 
 1469000   0.67705033   -7.5786068    326.60707  0.018527744  0.018113905           10 
 1470000    0.6640385   -7.6045014    327.71397   0.01857789   0.01810016            8 
 1471000   0.66241389   -7.5722909    327.74236  0.018566868  0.018086415           10 
 1472000   0.65477711   -7.5642985    327.28116  0.018528146   0.01807272           12 
 1473000   0.66807497   -7.6048881      327.177  0.018509674  0.018059006            7 
 1474000   0.66539409   -7.5973892    326.95553  0.018484596  0.018045298            5 
 1475000   0.66087407   -7.5700267    327.99264  0.018530658  0.018031603           11 
 1476000   0.65552015   -7.6041577    327.60949   0.01849647  0.018017889            4 
 1477000   0.66376055   -7.5790383    327.92901  0.018501975  0.018004207           15 
 1478000   0.66197778   -7.5679627    327.75565  0.018479683  0.017990556            4 
 1479000   0.66797806   -7.5576818    328.00242  0.018481092  0.017976942           15 
 1480000   0.65950812   -7.5699846    328.18951  0.018479139  0.017963333           16 
 1481000   0.66131618   -7.5937711    327.69115   0.01843862  0.017949744           15 
 1482000   0.65739556   -7.5870123    328.17471  0.018453369   0.01793617            9 
 1483000   0.67560342   -7.5799271     327.8661  0.018423584  0.017922607            8 
 1484000   0.66036448   -7.5826742    327.43817  0.018387139  0.017909006            6 
 1485000   0.65878193    -7.592192    327.96183  0.018404143  0.017895412            9 
 1486000   0.65218048   -7.5947288    327.64858  0.018374192  0.017881803            7 
 1487000   0.64938951   -7.5813969    327.75787   0.01836796  0.017868208            7 
 1488000   0.66690138   -7.5938241    327.49041  0.018340637  0.017854631            6 
 1489000   0.66844097    -7.583375    327.12878   0.01830808  0.017841059            4 
 1490000   0.64987795   -7.5859783    327.56994  0.018320467  0.017827503            5 
 1491000   0.66067387   -7.5741918    327.71877  0.018316497  0.017813975           14 
 1492000   0.63858457   -7.5866715     328.0114  0.018320565  0.017800465           13 
 1493000   0.66382833   -7.5999452    327.66292  0.018288843  0.017786956           12 
 1494000   0.66646047   -7.5935856    327.69973  0.018278655  0.017773423           12 
 1495000    0.6569329   -7.6092147    327.34338  0.018246565  0.017759901            6 
 1496000   0.66055461   -7.6076485    327.90846  0.018265846   0.01774637            8 
 1497000   0.64876045   -7.5928838    327.70715  0.018242438  0.017732886           10 
 1498000   0.64365714   -7.6224352    327.82017  0.018236547  0.017719394           10 
 1499000   0.65850876   -7.6208489     327.5793  0.018210991  0.017705923           22 
 1500000   0.66637834   -7.6088269    328.00222  0.018222346  0.017692485           24 
 1501000   0.66677884   -7.6085367    328.02051  0.018211221  0.017679046           11 
 1502000   0.66489743   -7.6085954    327.75299  0.018184254  0.017665612           11 
 1503000   0.65392833   -7.6088222    327.60456  0.018163925  0.017652189           12 
 1504000   0.64253426   -7.6259268    327.43934  0.018142694  0.017638752           18 
 1505000   0.65529286   -7.6285479    327.90974  0.018156686  0.017625335            7 
 1506000   0.63981413   -7.6104187     328.3371  0.018168277  0.017611896           18 
 1507000   0.64176274   -7.6154751    327.69158  0.018120525  0.017598476           10 
 1508000   0.64075375   -7.6072772    328.11834  0.018132092  0.017585046            9 
 1509000     0.662734   -7.5894215    327.48374  0.018085031  0.017571614           10 
 1510000   0.65051112    -7.638667    327.66999  0.018083333  0.017558217            8 
 1511000   0.65180443   -7.6295338    327.53692  0.018064026  0.017544822           13 
 1512000   0.65575705   -7.6012529    327.31519  0.018039858   0.01753146            8 
 1513000   0.64500908   -7.5972108    328.54405  0.018095619  0.017518143           11 
 1514000   0.65195307   -7.6064568    328.15835  0.018062437  0.017504821           14 
 1515000   0.64812069    -7.607251     328.2393  0.018054967  0.017491524            7 
 1516000   0.64888219   -7.6131247    327.65534  0.018010958  0.017478245           16 
 1517000    0.6420695   -7.6383388    326.94166   0.01795988  0.017464949           19 
 1518000   0.64854729   -7.6161861    327.87231  0.017999139  0.017451646           14 
 1519000   0.64655254   -7.6225117    328.35224  0.018013618  0.017438298           12 
 1520000   0.65759982   -7.6308896    327.25737  0.017941742  0.017424969           39 
 1521000   0.65965112   -7.6437729     327.8461  0.017962201  0.017411638            9 
 1522000   0.64975744   -7.6266284     327.9383  0.017955448  0.017398322           10 
 1523000   0.66200972   -7.6235429    327.73376  0.017932466  0.017385009           22 
 1524000   0.64046191   -7.6272898    327.86974  0.017928136  0.017371695           12 
 1525000   0.63617352   -7.6563463    327.78604  0.017911805   0.01735842           11 
 1526000   0.62068515   -7.6216401    327.61248   0.01789059  0.017345186            8 
 1527000   0.65135237   -7.6377565    328.29184  0.017915948  0.017331977           13 
 1528000   0.64139435   -7.6373614    327.61666  0.017867401  0.017318761            8 
 1529000   0.63732436   -7.6346821    328.42177  0.017899595  0.017305554           10 
 1530000   0.64737291   -7.6281839    328.15844  0.017873553  0.017292375            9 
 1531000   0.65156026   -7.6399439    328.31426   0.01787036   0.01727919           11 
 1532000   0.64634249   -7.6323384    327.84861  0.017833367  0.017266038            7 
 1533000   0.64254612   -7.6299259    328.23512  0.017842744   0.01725286           10 
 1534000   0.64869074   -7.6226119    327.67579  0.017800727  0.017239722           12 
 1535000   0.64132359    -7.622936    328.49556  0.017833635  0.017226599           10 
 1536000   0.64847089   -7.6256026    328.71418  0.017833886  0.017213511           11 
 1537000   0.63960978    -7.635907     329.1075  0.017843608  0.017200437            5 
 1538000   0.63303611   -7.6429143    327.81098  0.017761757   0.01718736            6 
 1539000   0.63274158   -7.6493878    329.15114  0.017822782  0.017174271           12 
 1540000   0.63993977   -7.6358902    328.20028  0.017759755  0.017161219           13 
 1541000   0.63219898   -7.6184893    328.64077  0.017772051  0.017148188            8 
 1542000   0.64224828   -7.6340318    328.29134  0.017741642  0.017135136           10 
 1543000   0.63497547   -7.6415562    328.14735  0.017722367  0.017122055            7 
 1544000   0.63647816   -7.6467612    327.59213  0.017680922  0.017108988            7 
 1545000   0.65886671    -7.646135    328.21818  0.017703246  0.017095913           15 
 1546000   0.64047672    -7.641406    327.99446  0.017679736  0.017082867            3 
 1547000   0.62002328    -7.652659    327.67388  0.017651039  0.017069795            8 
 1548000   0.62959101   -7.6438427    328.13865  0.017664656  0.017056736           15 
 1549000   0.62674792   -7.6382755    328.68883  0.017682851  0.017043698            7 
 1550000   0.64712457   -7.6711811    327.38704  0.017601454   0.01703063            8 
 1551000   0.62509341   -7.6631572    329.23801  0.017689555  0.017017577            9 
 1552000   0.64930188    -7.645867    328.51121  0.017639133  0.017004536            9 
 1553000   0.62416038   -7.6564748    328.29642  0.017616249  0.016991492            7 
 1554000   0.63112983   -7.6518412    327.65875  0.017570718  0.016978431           17 
 1555000   0.61688312   -7.6590274    328.33047  0.017595417  0.016965378            9 
 1556000   0.62132293   -7.6572386    328.58368  0.017597669  0.016952337           13 
 1557000   0.63685202   -7.6804107    328.06946  0.017558845  0.016939308            8 
 1558000   0.62027281   -7.6717244    328.10605  0.017549532  0.016926315            6 
 1559000   0.62507995   -7.6372495    327.88238  0.017526319  0.016913314           10 
 1560000   0.62129385   -7.6609505    327.38481  0.017488505  0.016900315           13 
 1561000   0.63565945   -7.6613161    328.34468  0.017528544  0.016887338           12 
 1562000   0.61180179   -7.6666649    328.46376  0.017523675  0.016874372           10 
 1563000   0.62670601   -7.6593994    328.09059  0.017492567   0.01686139           18 
 1564000   0.62278699   -7.6791399    327.84744  0.017468427  0.016848407           21 
 1565000   0.64240555   -7.6802648    327.64944  0.017446722  0.016835403           19 
 1566000    0.6219486   -7.6634963    328.04969   0.01745688  0.016822411           33 
 1567000   0.62522752   -7.6760476    328.35891  0.017462184  0.016809448            9 
 1568000   0.63020207   -7.6638845    328.43891  0.017455299  0.016796501            7 
 1569000   0.62911426   -7.6749111    327.99722  0.017420715  0.016783561           14 
 1570000   0.61387399   -7.6747096    327.92744  0.017405915  0.016770626           16 
 1571000   0.62999024   -7.6658271    327.12668  0.017352359  0.016757655           13 
 1572000   0.62601231   -7.6526279    327.66485   0.01736985  0.016744724           15 
 1573000   0.62927458   -7.6726536    328.41106   0.01739834  0.016731815           23 
 1574000   0.62583479   -7.7018962    327.98443  0.017364699  0.016718875           20 
 1575000   0.63664268   -7.7141166    328.08373  0.017358927  0.016705956           23 
 1576000   0.62145019   -7.6803851    327.66072  0.017325546  0.016693024           10 
 1577000   0.62362022   -7.6958824    327.55017  0.017308717  0.016680108           23 
 1578000   0.62712301   -7.6948007    327.60135  0.017300452  0.016667237           16 
 1579000   0.62804454   -7.6975026    327.96091  0.017308471  0.016654366           22 
 1580000   0.63049626   -7.7018619    328.30188    0.0173155  0.016641477           13 
 1581000   0.62892028   -7.6931633    327.43952  0.017259093  0.016628602           17 
 1582000   0.62865589   -7.7052038    327.77047  0.017265617  0.016615747           16 
 1583000    0.6241718   -7.6934663    327.45213  0.017237952  0.016602901           12 
 1584000   0.62197421   -7.6957195    328.42237  0.017278113  0.016590078           18 
 1585000   0.61157933   -7.6897559    327.77829  0.017233348  0.016577274           42 
 1586000   0.60662441   -7.6842798    327.88306  0.017227988  0.016564501           18 
 1587000   0.61636535   -7.7238449    327.57512  0.017200962  0.016551726           22 
 1588000   0.62617702   -7.6816386    327.37245  0.017179495  0.016538955           33 
 1589000   0.62211566   -7.6862834    327.48064  0.017174357  0.016526218           10 
 1590000     0.625403   -7.6904025    328.45792  0.017214776  0.016513454           28 
 1591000   0.61149364   -7.7195582    327.99244  0.017179575  0.016500738           20 
 1592000   0.62358337    -7.712711    328.00673  0.017169532  0.016487983           34 
 1593000   0.61879177   -7.6897751    327.77977   0.01714688  0.016475217           25 
 1594000   0.60863058   -7.6958841     327.3576  0.017114053  0.016462453           33 
 1595000   0.61929037   -7.7053213    327.97179  0.017135412  0.016449687           21 
 1596000   0.62165438   -7.7009695     327.3095  0.017090095  0.016436951           27 
 1597000   0.62288656   -7.6820515    327.58684  0.017093866  0.016424219           21 
 1598000   0.60419438   -7.6876429    327.58202  0.017082917  0.016411487           15 
 1599000   0.62952457    -7.706739    328.34653  0.017112077  0.016398731           11 
 1600000    0.6149144   -7.6944727    327.74454  0.017070028   0.01638599           18 
 1601000   0.60342824   -7.7036966    327.89454  0.017067173  0.016373272            9 
 1602000   0.61382872   -7.7082463    327.77211  0.017050151  0.016360583            8 
 1603000   0.62042052   -7.6942571    327.57515  0.017029276  0.016347872           13 
 1604000   0.61532279   -7.7001112    327.94325  0.017037783  0.016335175           14 
 1605000   0.62003535   -7.7092546    327.59408  0.017009038  0.016322527           15 
 1606000    0.6105552   -7.6702847    327.66405  0.017002078  0.016309867           18 
 1607000   0.61479184   -7.6869544    328.21193  0.017019909  0.016297238            8 
 1608000   0.61187371   -7.6908519    327.21201  0.016957505  0.016284628           13 
 1609000   0.61229717   -7.6938495    328.26121  0.017001306  0.016272034            9 
 1610000   0.61386554   -7.7013082    328.02093  0.016978309  0.016259449           27 
 1611000   0.59683492   -7.6767206    327.78983  0.016955815  0.016246871           15 
 1612000   0.61132782   -7.7114141    327.83761  0.016947767  0.016234305           14 
 1613000   0.61911414   -7.7088721     327.6356  0.016926823  0.016221765           30 
 1614000   0.60463338   -7.6977375    327.63482  0.016916296  0.016209244           27 
 1615000   0.60339446   -7.6985163     328.7887  0.016965361  0.016196726            8 
 1616000   0.60939936   -7.7430938    328.04242  0.016916379  0.016184216           24 
 1617000   0.60652038   -7.6916391    328.00759  0.016904122  0.016171713           17 
 1618000   0.61196074    -7.719049    327.94865  0.016890639  0.016159198           11 
 1619000   0.62105231   -7.7179321    327.53558  0.016858945  0.016146689           12 
 1620000   0.60002161   -7.7234838    327.60228  0.016851969  0.016134214           31 
 1621000   0.61439586   -7.6986921    328.13856  0.016869142  0.016121713           11 
 1622000   0.60074474   -7.7229224    327.60205  0.016831178  0.016109247            6 
 1623000   0.61188474   -7.7298594    327.91133  0.016836688  0.016096758            9 
 1624000   0.60396303   -7.7162889    326.98173  0.016778619  0.016084276            5 
 1625000   0.59964826   -7.7118151    327.94912  0.016817904  0.016071815            9 
 1626000   0.60084344   -7.7333368    327.04718  0.016761336  0.016059347           15 
 1627000   0.59471001   -7.7358199    327.31731  0.016764869  0.016046889            6 
 1628000   0.60698285     -7.73319    327.75143  0.016776793  0.016034439           17 
 1629000   0.59225556   -7.7285334     327.3379   0.01674534  0.016021969            9 
 1630000   0.60178432   -7.7156686    327.21583  0.016728826   0.01600952           13 
 1631000    0.6159141   -7.7233982    327.37702  0.016726805  0.015997087            8 
 1632000   0.60902227   -7.7206369    327.48536  0.016722088  0.015984659           12 
 1633000   0.60202692   -7.7231322    327.49538  0.016712359  0.015972236           13 
 1634000   0.60640496   -7.7452661    327.67158  0.016711117  0.015959834            6 
 1635000   0.59882346   -7.7272015    327.61624  0.016698075  0.015947402           11 
 1636000   0.60535749   -7.7330738    327.51699  0.016682813  0.015934981           13 
 1637000     0.597578   -7.7464847    327.86981  0.016690583  0.015922566           37 
 1638000   0.60699493   -7.7405501    327.88599  0.016681216  0.015910168           19 
 1639000   0.59739177   -7.7436342    328.04301  0.016679023  0.015897768           25 
 1640000   0.59233745   -7.7457321    327.50144  0.016641334  0.015885398            8 
 1641000   0.59944123   -7.7238127    327.05933  0.016608741  0.015873039           19 
 1642000   0.60228968   -7.7396017    327.74537  0.016633444  0.015860689           17 
 1643000   0.60320607   -7.7225922    327.42974  0.016607311  0.015848343           20 
 1644000   0.59638705   -7.7252099    327.39183  0.016595287  0.015836014           14 
 1645000   0.60064792   -7.7304091     327.4671  0.016589012  0.015823699            9 
 1646000   0.60927091   -7.7374172    327.77673   0.01659461  0.015811363           14 
 1647000   0.58477958   -7.7537328     327.3726  0.016564086  0.015799041           15 
 1648000   0.58693478   -7.7257716    327.61591  0.016566339  0.015786735           18 
 1649000   0.60181276   -7.7479653    327.59559  0.016555265  0.015774469           16 
 1650000   0.58644094   -7.7450293    327.73014  0.016552027  0.015762205           19 
 1651000   0.60561613    -7.748231    327.99919  0.016555582  0.015749947           12 
 1652000   0.58919283   -7.7657053    327.31206  0.016510899  0.015737685           14 
 1653000   0.59372842   -7.7539835     327.4501   0.01650787  0.015725417           16 
 1654000   0.58054135   -7.7533641    327.18141  0.016484352   0.01571315           10 
 1655000   0.59143067   -7.7468962    327.15025  0.016472822   0.01570091            8 
 1656000   0.59599762   -7.7512528    326.89759  0.016450161  0.015688677           14 
 1657000   0.58796275   -7.7688521    327.74045  0.016482622  0.015676448           10 
 1658000   0.59704285   -7.7474766    327.30712  0.016450901  0.015664226           10 
 1659000   0.59038543   -7.7659274    326.94234  0.016422661  0.015652013           17 
 1660000   0.59789122   -7.7619715    327.05925  0.016418637    0.0156398           11 
 1661000   0.58829099   -7.7788858    327.19268  0.016415446  0.015627563           11 
 1662000   0.59113075     -7.77174    327.22305  0.016407093  0.015615347           10 
 1663000   0.59970118   -7.7569161    327.71763   0.01642201  0.015603137           14 
 1664000   0.57747715   -7.7472428     327.0899  0.016380704   0.01559093           13 
 1665000   0.58102276   -7.7665219    327.63685  0.016398241  0.015578745           11 
 1666000    0.5781208     -7.77388    327.50017  0.016381561   0.01556657            7 
 1667000    0.5993359   -7.7708516    327.33556  0.016363505  0.015554383           10 
 1668000   0.60012337    -7.761942    326.89269  0.016331569  0.015542244           12 
 1669000   0.57935364   -7.7704351    327.06755  0.016330515   0.01553011           18 
 1670000   0.59243146   -7.7753619    327.76203  0.016355391  0.015517993           13 
 1671000   0.57673884   -7.7639219    327.35778  0.016325443  0.015505891            4 
 1672000   0.58555937   -7.7555701    327.28996  0.016312299  0.015493806            6 
 1673000   0.59858276   -7.7796338     327.1572  0.016295935  0.015481748            9 
 1674000    0.6033033    -7.770001    327.21671  0.016289163  0.015469653            6 
 1675000    0.5873353   -7.7619296    326.91683  0.016264519  0.015457587            9 
 1676000   0.58901435   -7.7524517    327.42488  0.016280076  0.015445543           11 
 1677000   0.58664732   -7.7639983    327.06346  0.016252408   0.01543351            9 
 1678000   0.58477481   -7.7681015    327.48283  0.016263549  0.015421466           14 
 1679000   0.58345214   -7.7711942    326.70458  0.016215236  0.015409407            8 
 1680000    0.5752546   -7.7704205    327.19591  0.016229956  0.015397367           11 
 1681000   0.57330626   -7.7773945    327.53688  0.016237204   0.01538534            9 
 1682000   0.59515425   -7.7724803      327.253  0.016213486  0.015373294           17 
 1683000   0.58558784   -7.7745644    326.77402  0.016180136  0.015361267           16 
 1684000   0.57176648    -7.764749    327.06191  0.016184774  0.015349255           14 
 1685000   0.58073451   -7.7580377    326.87549  0.016165949  0.015337243            7 
 1686000   0.58939357   -7.7671007    327.29851  0.016177269  0.015325227           10 
 1687000   0.59881383   -7.7945544    327.27463    0.0161665  0.015313203           12 
 1688000   0.58533281   -7.7826702    326.96007  0.016141393  0.015301217           15 
 1689000   0.57026358    -7.778918     327.1537  0.016141391  0.015289238           12 
 1690000   0.56766858   -7.7806374    327.07977  0.016128194  0.015277256            8 
 1691000   0.56814233   -7.7683233    326.66232  0.016098084   0.01526528           13 
 1692000   0.57697686   -7.7687503    327.10882   0.01611056  0.015253312            8 
 1693000   0.57601509   -7.7825927    326.85907  0.016088751  0.015241357           20 
 1694000    0.5766059   -7.7941198    326.92148  0.016082324  0.015229407            9 
 1695000    0.5709917   -7.7763456    326.65326  0.016059649   0.01521748            7 
 1696000    0.5722424   -7.7950149    327.23409  0.016078719  0.015205535           11 
 1697000   0.57682616   -7.7785491    327.02688  0.016059069  0.015193623            7 
 1698000   0.56820821   -7.7644191    326.70431   0.01603378  0.015181735            8 
 1699000   0.57064045   -7.7792814    326.90529  0.016034201  0.015169838            7 
 1700000   0.57289229   -7.7730511    327.02486   0.01603063  0.015157961           10 
 1701000   0.57425339   -7.7922723    326.43381   0.01599225  0.015146074            9 
 1702000   0.56866454   -7.7936349    326.69921  0.015995849  0.015134183            6 
 1703000   0.58176484   -7.7782823    326.96385  0.015999405  0.015122309           10 
 1704000   0.57017049   -7.7684632    327.51686  0.016017061  0.015110454           15 
 1705000   0.58338069   -7.7893471    326.79927  0.015972594  0.015098607           10 
 1706000   0.57134823   -7.7814344    327.59963  0.016002326  0.015086753            7 
 1707000   0.57193803   -7.7788189    326.24867     0.015927  0.015074922            8 
 1708000   0.58631593   -7.7679158    326.56869  0.015933289  0.015063102            7 
 1709000   0.57884888   -7.7925095    326.87279  0.015938794  0.015051295            5 
 1710000   0.57573011   -7.7961701    326.32701  0.015902876  0.015039484            9 
 1711000   0.58675426    -7.783566    326.98844  0.015925796  0.015027678            9 
 1712000   0.57327881   -7.7927929    326.70472  0.015902683  0.015015888           11 
 1713000   0.57880446   -7.7694025    326.81576  0.015898801  0.015004107           13 
 1714000   0.56819586    -7.787884    327.10488  0.015903582  0.014992328           10 
 1715000   0.57761074   -7.7947692     326.7245  0.015875826  0.014980545            8 
 1716000   0.57582758   -7.7974816    326.48969  0.015855172  0.014968773            8 
 1717000   0.57499848   -7.7745021    326.44228  0.015843636  0.014957003           10 
 1718000   0.56844075    -7.798381    326.50127  0.015837275  0.014945266           15 
 1719000    0.5647406    -7.809871    326.51142  0.015828554  0.014933509            7 
 1720000   0.56594897   -7.8035198     327.2361  0.015854462  0.014921793           10 
 1721000   0.56641785   -7.8160312    326.20805   0.01579547   0.01491005           11 
 1722000   0.56833409   -7.8190003    326.64407  0.015807398  0.014898306            5 
 1723000   0.56356059   -7.7994839    326.64467  0.015798253  0.014886578            9 
 1724000   0.57652589   -7.7967345     326.5078  0.015782473  0.014874857           15 
 1725000    0.5707334   -7.8108147    326.55106  0.015775414  0.014863157           11 
 1726000   0.56746107   -7.8160083    326.69633  0.015773288  0.014851452           12 
 1727000   0.54164291   -7.8183762    326.36829  0.015748325   0.01483976           10 
 1728000   0.56944723   -7.7978587    326.95862   0.01576768  0.014828081           16 
 1729000   0.56879714   -7.8306211    326.23455  0.015723662  0.014816411            6 
 1730000   0.57016073   -7.8160674    326.64114  0.015734159  0.014804756            9 
 1731000   0.55949303   -7.7993354    327.21658  0.015752772  0.014793109            9 
 1732000   0.56748818   -7.8035754    326.15691  0.015692692  0.014781474           10 
 1733000   0.57187457   -7.8010914    326.24463  0.015687855  0.014769853            7 
 1734000   0.55858269   -7.8216955    326.61654  0.015696681  0.014758235           13 
 1735000   0.55822843   -7.8114785    326.41278  0.015677847  0.014746636            8 
 1736000   0.55007778   -7.8303886    326.63074  0.015679279  0.014735044            8 
 1737000   0.55605112   -7.7917351    326.22685  0.015650875  0.014723459            7 
 1738000   0.56777587   -7.7831322      326.544  0.015657077  0.014711889           10 
 1739000   0.54740497   -7.8276231    326.43831  0.015643009  0.014700336            9 
 1740000   0.56238636   -7.8125157    326.65629  0.015644458  0.014688776            8 
 1741000   0.56373089   -7.8188126    326.60928  0.015633222  0.014677223           10 
 1742000   0.55356708    -7.808726    326.21393  0.015605335  0.014665662           12 
 1743000   0.56165083   -7.8317101    326.81967  0.015625343  0.014654109            6 
 1744000   0.54807226   -7.8266006    326.73108   0.01561215  0.014642573            7 
 1745000   0.54416977   -7.8362579    325.58909  0.015548667  0.014631048           10 
 1746000   0.55075299   -7.8349119    325.42493  0.015531927  0.014619528            8 
 1747000   0.54724105   -7.8426033    325.71399  0.015536824   0.01460801            8 
 1748000   0.55583266   -7.8266936    326.12424  0.015547495  0.014596499           14 
 1749000     0.560863   -7.8228945    325.94894  0.015530253   0.01458501           13 
 1750000   0.55341052    -7.830831    326.09724   0.01552844  0.014573521           12 
 1751000   0.56027964   -7.8348024     326.1057  0.015519974  0.014562034           11 
 1752000   0.54854461   -7.8139045     326.0086  0.015506497   0.01455056           18 
 1753000   0.56809826   -7.8289591    326.30441  0.015511714    0.0145391           10 
 1754000   0.55807375     -7.84298    326.38939  0.015506908  0.014527642           21 
 1755000   0.55695068   -7.8253201    325.99031  0.015479122   0.01451621            9 
 1756000   0.54892515   -7.8193612    326.47776   0.01549344  0.014504794            6 
 1757000   0.54710451   -7.8200703    326.59352  0.015490112  0.014493375           10 
 1758000   0.55635901   -7.8426737    326.30696  0.015467717  0.014481974           11 
 1759000   0.54753518   -7.8238463    325.99192  0.015443998  0.014470574           10 
 1760000   0.55394866   -7.8316839    325.44984  0.015409557  0.014459176           10 
 1761000   0.53911744   -7.8246272    325.42705  0.015399728  0.014447776           19 
 1762000   0.56130069   -7.8201951    325.98136  0.015417204  0.014436393           12 
 1763000   0.54907446   -7.8424755    326.51341  0.015433608  0.014425033           24 
 1764000   0.54794686   -7.8200562    325.97862  0.015399595  0.014413677           16 
 1765000   0.55486526    -7.836985    326.56842  0.015418717  0.014402355           14 
 1766000   0.54212778    -7.833183    326.22347  0.015393708  0.014391021            9 
 1767000   0.53377518   -7.8240794    326.40815  0.015393706   0.01437968            9 
 1768000   0.54933201   -7.8253918    325.97673  0.015364665   0.01436836            8 
 1769000   0.54631074   -7.8315883    325.47328  0.015332263  0.014357057           11 
 1770000   0.54395013   -7.8549391    326.41406  0.015367894  0.014345745           12 
 1771000   0.53826549   -7.8376666    325.94598  0.015337191  0.014334477            8 
 1772000   0.55382673   -7.8343178    325.79066  0.015321231  0.014323208           10 
 1773000   0.54895807   -7.8330255    326.65806  0.015353359  0.014311968           13 
 1774000    0.5487263   -7.8207598    326.04132  0.015315733  0.014300715            9 
 1775000   0.54686192   -7.8255489    326.27718  0.015318178  0.014289475           11 
 1776000   0.54214132   -7.8383543    325.95095  0.015294245  0.014278238           12 
 1777000   0.55350282   -7.8470382    326.38464  0.015305976  0.014267012           19 
 1778000   0.52810315   -7.8196881    325.92607  0.015275875  0.014255812           12 
 1779000   0.54405821   -7.8376026    325.90922  0.015266499  0.014244593           21 
 1780000   0.54618927   -7.8447918    326.19196  0.015271159  0.014233398           20 
 1781000   0.54072676   -7.8446121    326.17506  0.015261794    0.0142222           14 
 1782000   0.54017755   -7.8409321    325.57153  0.015225006  0.014211014           14 
 1783000   0.54054153   -7.8385426    325.93728  0.015233561  0.014199823           14 
 1784000   0.53542997   -7.8533199    326.37576  0.015245504  0.014188649           12 
 1785000   0.54742623   -7.8426405    326.03399  0.015221008  0.014177486           10 
 1786000   0.54888082    -7.832525    325.03567  0.015165905  0.014166337           13 
 1787000   0.52888419   -7.8492481    325.64952  0.015186044  0.014155184           21 
 1788000   0.54676879   -7.8486416    326.00134  0.015193948  0.014144047           17 
 1789000   0.54046964   -7.8592677    325.30913  0.015153211  0.014132908           12 
 1790000   0.53977663    -7.841579    325.92537  0.015173435  0.014121784           17 
 1791000   0.54186487   -7.8404712    325.78498   0.01515843  0.014110685           18 
 1792000   0.54090015    -7.856663     325.8286     0.015152  0.014099584           11 
 1793000   0.53194808   -7.8518398    325.24431  0.015116393  0.014088481           18 
 1794000   0.53153318   -7.8585842    325.65283  0.015126943  0.014077385           18 
 1795000   0.52752666   -7.8481008    326.14545  0.015141386  0.014066318           12 
 1796000   0.54486768   -7.8516592    326.02887  0.015127546  0.014055252           11 
 1797000    0.5253789   -7.8597689    325.76715  0.015106991  0.014044192           13 
 1798000   0.54674236   -7.8446322    325.90567  0.015105009  0.014033133            7 
 1799000   0.54165141   -7.8490056    325.54137  0.015079737  0.014022086           11 
 1800000   0.54653743   -7.8565757    325.69553  0.015078497  0.014011057           10 
 1801000   0.54423566   -7.8629435    325.54896  0.015063343  0.014000026           19 
 1802000   0.53420201   -7.8605529    325.73857  0.015063752  0.013989009           13 
 1803000   0.53236877   -7.8863118     325.3657  0.015038163  0.013978002           12 
 1804000   0.52665481   -7.8552152    325.42917  0.015032759  0.013967001           19 
 1805000   0.53661062   -7.8513377    325.70834  0.015037319  0.013956014           18 
 1806000   0.52544883   -7.8770634    325.58617  0.015023356  0.013945031           20 
 1807000   0.52436071   -7.8713743    325.67494  0.015019136  0.013934047            9 
 1808000   0.53424301   -7.8775944    325.06355  0.014982649  0.013923071           24 
 1809000   0.53499408   -7.8593962    325.21764  0.014981465  0.013912095           25 
 1810000   0.53988595   -7.8820001    325.40248  0.014981698  0.013901133           11 
 1811000   0.53756784    -7.875066    325.23732  0.014965826  0.013890174           37 
 1812000    0.5333778   -7.8830301    325.49618  0.014969471  0.013879222           12 
 1813000   0.52405293    -7.885159    325.39545  0.014956584  0.013868274            9 
 1814000   0.52602071    -7.886415    325.38324  0.014947779   0.01385734           11 
 1815000   0.52894955   -7.8770537     325.9473  0.014965441  0.013846422           13 
 1816000   0.53684069   -7.8782896    325.29583  0.014927305  0.013835497           13 
 1817000   0.52353142   -7.8888682    325.54039  0.014930306   0.01382459           18 
 1818000   0.53765807   -7.8828318    326.05274  0.014945578  0.013813692           18 
 1819000   0.51646608   -7.8856011    325.01724  0.014889923   0.01380279            9 
 1820000   0.52494689   -7.8760735     324.9139   0.01487701  0.013791907           11 
 1821000   0.53439953   -7.8663039     325.3447  0.014888555   0.01378104           12 
 1822000   0.52350856    -7.877988    325.25516  0.014876288  0.013770159           27 
 1823000   0.52216835    -7.879723    325.11769  0.014861843  0.013759288           14 
 1824000   0.52613397   -7.8820135    325.30121   0.01486208  0.013748439           15 
 1825000   0.53224839   -7.8889551    325.43845  0.014860203  0.013737597           21 
 1826000   0.52924538   -7.8809531    325.46961  0.014853487  0.013726762           12 
 1827000   0.52388489   -7.8805749    324.92693  0.014820604  0.013715934           23 
 1828000   0.52934499   -7.8814954    324.96188   0.01481409  0.013705128           19 
 1829000   0.52932865   -7.8814687    325.66694  0.014838115  0.013694333           15 
 1830000   0.52847116   -7.8834406     325.3362  0.014814945  0.013683546           15 
 1831000   0.52421275    -7.877939    325.40554   0.01481001  0.013672767           18 
 1832000   0.52132933   -7.8844861    324.96883  0.014782061   0.01366199           26 
 1833000   0.51959425   -7.8809311    324.90235  0.014770974  0.013651232           18 
 1834000    0.5221311   -7.8839134     325.0923  0.014771551  0.013640489           17 
 1835000   0.51830875   -7.8927212    325.17491  0.014767253  0.013629748           18 
 1836000   0.51508542   -7.8909612    324.78139  0.014741348  0.013619029           28 
 1837000   0.53104073   -7.8898953    324.90434  0.014738901  0.013608307           33 
 1838000   0.52615426   -7.8906252    325.48334  0.014757133  0.013597604           18 
 1839000   0.52673679   -7.8910393    324.89852  0.014722608  0.013586897           17 
 1840000   0.52665118   -7.8917856    325.34098  0.014734646  0.013576201           31 
 1841000   0.51159799   -7.8979439    325.14956  0.014717978  0.013565533           15 
 1842000   0.50597749   -7.8813097    324.85457  0.014696642  0.013554869           23 
 1843000   0.51852173   -7.9067712    325.09743  0.014699649  0.013544216           26 
 1844000   0.52666681   -7.8983893    325.18333  0.014695559  0.013533568           29 
 1845000   0.52295639   -7.8977233    325.45448  0.014699841  0.013522923           22 
 1846000   0.50656112   -7.9070713    325.15191  0.014678219  0.013512285           21 
 1847000   0.51446555   -7.9027304    325.25374  0.014674867  0.013501665           25 
 1848000   0.52783879   -7.8884172    325.33128  0.014670422  0.013491057           19 
 1849000   0.51474915   -7.9010775     326.0394  0.014694402  0.013480451           18 
 1850000   0.51760976   -7.9137097    324.94088  0.014636976  0.013469856           27 
 1851000   0.51148615   -7.8959546    324.92123  0.014628184  0.013459261           15 
 1852000   0.51374888   -7.8902073    325.35266  0.014639699  0.013448675           18 
 1853000   0.50373007    -7.902334    324.41251  0.014589518  0.013438094           23 
 1854000      0.52789   -7.8985876    324.38565  0.014580441   0.01342753           14 
 1855000    0.5139549   -7.9152982    324.98015  0.014599288  0.013416974           30 
 1856000   0.51791196   -7.9006546    324.91716  0.014588594   0.01340643           12 
 1857000   0.52296171   -7.9051262     324.5718  0.014565239  0.013395886           15 
 1858000   0.51071823    -7.905223    324.52514  0.014555308  0.013385349           12 
 1859000   0.50965363   -7.8988957    324.98091  0.014567909  0.013374817           19 
 1860000   0.49979693   -7.9053531    324.52978  0.014539865  0.013364292           12 
 1861000   0.50716956   -7.9005645    324.89298  0.014548315  0.013353791           17 
 1862000   0.50992758   -7.9073133    325.24613  0.014556307  0.013343304           17 
 1863000   0.50339258   -7.9041093    324.63073  0.014520967   0.01333282           40 
 1864000   0.50073456   -7.9064998    324.61578  0.014512508  0.013322352           20 
 1865000   0.50432233   -7.9034333    324.75768  0.014511067  0.013311882           14 
 1866000   0.51296197   -7.8995148     325.1968  0.014522901  0.013301428           31 
 1867000   0.49954894   -7.9211725    324.95077  0.014504141  0.013290984           18 
 1868000   0.50960392   -7.9153447    324.79986  0.014489644  0.013280542           14 
 1869000    0.5009925   -7.9048522    325.05695  0.014493354  0.013270115           11 
 1870000   0.50090021   -7.9114596    324.59167  0.014464869  0.013259696           20 
 1871000   0.51556329   -7.9087985    324.69809  0.014461878  0.013249295           15 
 1872000    0.5127781   -7.9148377    324.65433  0.014452205  0.013238903           18 
 1873000   0.49826346    -7.924415    324.39648  0.014433016  0.013228507           20 
 1874000   0.51150367   -7.9124193    324.47136  0.014428644  0.013218128           16 
 1875000   0.49483652   -7.9222631    324.73491  0.014432663  0.013207761           18 
 1876000   0.50747347   -7.9152748    325.01269  0.014437309  0.013197398           15 
 1877000   0.49715751   -7.9080598    324.47284  0.014405649   0.01318704           12 
 1878000   0.50685164   -7.9329647     325.2285   0.01443151  0.013176696           15 
 1879000   0.49688135   -7.8944372    324.95729  0.014411801   0.01316637           14 
 1880000   0.49740128   -7.9273764    324.88918  0.014401116  0.013156044           13 
 1881000   0.49609036   -7.9152871    324.70174  0.014385156   0.01314573           21 
 1882000   0.50692869   -7.9313115    325.09491  0.014394922  0.013135417           18 
 1883000   0.50772106   -7.9262465    324.20148  0.014347737   0.01312511           15 
 1884000   0.49461717   -7.9198599    324.51627  0.014354046  0.013114816           13 
 1885000   0.48592868   -7.9194037     324.3838  0.014340575  0.013104532           22 
 1886000   0.49823008     -7.94089    324.77158  0.014350105  0.013094262           20 
 1887000   0.50675995   -7.9115737    324.98898  0.014352101  0.013084003           20 
 1888000    0.5009166    -7.916976    324.91653  0.014341302  0.013073748           18 
 1889000   0.50081401   -7.9359144    324.73928   0.01432589  0.013063503           14 
 1890000   0.50875881   -7.9241422    324.56378  0.014310572  0.013053276           13 
 1891000    0.4959999   -7.9067378    324.15565  0.014285019   0.01304306           15 
 1892000   0.50077795   -7.9222572    324.78975  0.014305398  0.013032863           12 
 1893000   0.49192058   -7.9369061    324.32024  0.014277172  0.013022666           24 
 1894000   0.48904879    -7.912491     324.7812  0.014289915  0.013012473           20 
 1895000   0.49542875   -7.9213233    324.72782  0.014280027  0.013002297           16 
 1896000   0.48082615   -7.9308236    324.62223  0.014267855  0.012992143           14 
 1897000   0.50535543   -7.9269236    324.83534  0.014269695  0.012981979           14 
 1898000   0.50392761   -7.9255797     324.9746  0.014268291  0.012971839           12 
 1899000   0.49609692   -7.9443022    324.48201  0.014239161  0.012961698           25 
 1900000   0.49052536   -7.9341047    324.55697  0.014234955  0.012951573           22 
 1901000   0.48697219   -7.9253801    324.37354  0.014219426   0.01294146           21 
 1902000   0.49529804   -7.9218301    324.79571  0.014230446  0.012931348           19 
 1903000   0.49020561   -7.9421629    324.62699   0.01421558  0.012921244           17 
 1904000   0.49792746   -7.9352651    324.19988   0.01418942  0.012911141           15 
 1905000   0.50282076    -7.946961    324.51414  0.014195719  0.012901058           13 
 1906000   0.49878068   -7.9425735    324.82759  0.014201976  0.012890989           13 
 1907000   0.48218616   -7.9380128    324.25873   0.01416967  0.012880925           16 
 1908000   0.48554214    -7.933324    324.54967  0.014174951  0.012870858           14 
 1909000   0.50513712   -7.9350485    323.97174  0.014142297  0.012860808           14 
 1910000   0.48100072   -7.9332768    324.80131  0.014171087   0.01285076           12 
 1911000   0.49235694   -7.9161658    324.14749   0.01413516  0.012840733           14 
 1912000   0.49689525   -7.9334541    324.50281  0.014143254  0.012830721           22 
 1913000   0.49877732   -7.9477728    324.54287  0.014137605   0.01282071           21 
 1914000   0.49165119    -7.920097    324.00473  0.014106789  0.012810707           20 
 1915000   0.48246836   -7.9264493    324.27207  0.014111056  0.012800707           16 
 1916000   0.49055623   -7.9327447    324.66501  0.014120781   0.01279073           18 
 1917000   0.48778311   -7.9327423    324.55562   0.01410866  0.012780761           17 
 1918000   0.49827868   -7.9568466    324.41002  0.014094978  0.012770807           18 
 1919000   0.49469471   -7.9515717    324.47466   0.01409044  0.012760849           14 
 1920000   0.48981209   -7.9381971    324.79602   0.01409705  0.012750907           14 
 1921000   0.47932157   -7.9525595    324.67919  0.014084643  0.012740974           21 
 1922000    0.4850419   -7.9432916    324.28692  0.014060307  0.012731063           15 
 1923000   0.48392802   -7.9437021    324.50966  0.014062648  0.012721145           17 
 1924000   0.48944184   -7.9406298    324.33357  0.014047712  0.012711241           20 
 1925000   0.48437196   -7.9539218    324.61415  0.014052561  0.012701338           13 
 1926000   0.47876568   -7.9417226     324.6849  0.014048325  0.012691453           25 
 1927000   0.48415507   -7.9430368    324.23525   0.01402159  0.012681571           17 
 1928000   0.48152639    -7.944776    324.40506  0.014021657   0.01267171           15 
 1929000   0.48872694   -7.9632319    324.37481  0.014013082  0.012661851           18 
 1930000   0.47672348   -7.9530858    324.20704  0.013998577  0.012651988           20 
 1931000   0.48753057   -7.9620453     324.5343   0.01400545  0.012642145           19 
 1932000   0.47835394   -7.9369242    324.53626  0.013998286  0.012632306           20 
 1933000   0.48318051   -7.9526809    324.22043  0.013977428  0.012622487           16 
 1934000   0.47125681   -7.9664608    324.21588  0.013970005  0.012612657           10 
 1935000   0.47374579   -7.9480913    324.36627  0.013969262  0.012602842           13 
 1936000   0.48936553   -7.9599751    324.59092  0.013971717  0.012593047           20 
 1937000   0.47350721   -7.9407932    324.01247  0.013939618  0.012583255           14 
 1938000   0.48196964   -7.9551889    323.83611  0.013924841  0.012573464           10 
 1939000   0.48436568   -7.9551248    324.49045  0.013945782  0.012563684           15 
 1940000   0.48375333   -7.9378302    324.30543  0.013930646  0.012553926           14 
 1941000   0.48196963   -7.9432361    324.41698  0.013928258  0.012544175           14 
 1942000   0.47555164   -7.9699984    324.45051  0.013922524  0.012534432           19 
 1943000   0.47165513   -7.9557969     324.5125  0.013918018  0.012524704           13 
 1944000    0.4744735   -7.9545652    324.54674  0.013912326  0.012514979           21 
 1945000   0.47286829   -7.9750917    324.12342  0.013887036  0.012505262           13 
 1946000   0.47119979   -7.9588026    324.77188  0.013907669  0.012495546           21 
 1947000   0.48498954   -7.9596282    324.11657  0.013872478  0.012485836            8 
 1948000   0.47656286   -7.9687045    323.81207   0.01385233  0.012476148           16 
 1949000   0.47528143   -7.9561036     324.0509  0.013855435  0.012466467           14 
 1950000   0.46515704   -7.9615083    324.12589  0.013851534   0.01245678           42 
 1951000   0.48164304    -7.951654    324.21147  0.013848089  0.012447116           13 
 1952000   0.47269536   -7.9511073     324.2023  0.013840604  0.012437454            9 
 1953000   0.47650996   -7.9775755    323.93935  0.013822297  0.012427803           14 
 1954000   0.46665923   -7.9560406    324.23811  0.013827965  0.012418164            9 
 1955000   0.47246753   -7.9618742    323.73391  0.013799399  0.012408521           24 
 1956000   0.47135023    -7.967892    324.44762  0.013822751  0.012398892           14 
 1957000   0.46845338   -7.9593618    324.23198  0.013806506  0.012389273           13 
 1958000   0.46565043   -7.9623903    324.14663  0.013795822  0.012379673           15 
 1959000   0.47700727   -7.9519313    324.53297  0.013805214  0.012370077           15 
 1960000   0.46827549   -7.9558759    324.09105  0.013779381  0.012360498           13 
 1961000    0.4628093   -7.9630956    323.99356  0.013768212  0.012350922           15 
 1962000   0.47184835   -7.9726339    324.04621   0.01376343  0.012341348           16 
 1963000   0.47364221   -7.9703642    324.04758  0.013756477  0.012331792           17 
 1964000   0.46412796   -7.9585637    324.14122  0.013753446  0.012322247           13 
 1965000   0.47124488   -7.9782684    324.28269  0.013752447   0.01231271           13 
 1966000   0.46399263   -7.9775359    323.99558  0.013733282   0.01230317           11 
 1967000   0.46579633   -7.9762079    323.86648   0.01372083  0.012293645           21 
 1968000   0.46900666   -7.9768694     324.0368  0.013721071  0.012284138           14 
 1969000   0.47000844   -7.9898404    324.25793  0.013723461  0.012274626           15 
 1970000   0.47830158   -7.9535471    323.41848  0.013680985  0.012265119           11 
 1971000   0.46567648   -7.9590834    323.78312  0.013689461  0.012255623           18 
 1972000   0.47768104   -7.9693622    323.34502  0.013664005  0.012246137           18 
 1973000   0.46319979   -7.9598256    324.02047  0.013685609  0.012236666           14 
 1974000   0.47503423   -7.9764622      323.012  0.013636103  0.012227195           14 
 1975000   0.46910005   -7.9793046    324.22395  0.013680335  0.012217735           18 
 1976000   0.46744819   -7.9718714     323.6945  0.013651084  0.012208278           12 
 1977000   0.46067356   -7.9838323    323.90376  0.013652999  0.012198836           16 
 1978000   0.46925623   -7.9690365    323.69942  0.013637488  0.012189399           12 
 1979000   0.45693606    -7.986187    324.41939  0.013660914  0.012179987           15 
 1980000   0.47090991   -7.9882409    324.54294  0.013659215  0.012170577           11 
 1981000    0.4537431   -7.9737114    323.84662  0.013623028  0.012161173           11 
 1982000   0.45552429   -7.9827793    324.07693  0.013625838  0.012151779           12 
 1983000   0.47043744   -7.9818782    324.25757  0.013626558  0.012142397           24 
 1984000   0.45922921   -7.9725793    323.90173  0.013604744  0.012133008           15 
 1985000    0.4644961   -7.9717109     324.2799  0.013613766  0.012123636           14 
 1986000   0.46805661   -7.9673979    324.10639   0.01359963  0.012114276           14 
 1987000   0.45830354    -7.977642    323.77454  0.013578868  0.012104924           11 
 1988000    0.4573249   -7.9892248    323.69607  0.013568749  0.012095571           13 
 1989000   0.45932497   -7.9857196    323.91735  0.013571198  0.012086227           10 
 1990000   0.46198859   -7.9810035    323.99318  0.013567554    0.0120769           11 
 1991000   0.45852926   -7.9784885    323.65119  0.013546425  0.012067578           14 
 1992000   0.46020704    -7.980579     323.4383  0.013530719  0.012058266           11 
 1993000   0.45447782   -7.9805533    323.90719  0.013543535  0.012048978           17 
 1994000   0.44695882   -7.9766574    323.97265  0.013539479  0.012039685           13 
 1995000   0.44940533   -7.9794346    323.76436  0.013523992  0.012030405           15 
 1996000   0.44870594   -7.9784357    323.58618  0.013509777  0.012021123           17 
 1997000   0.45483333   -7.9978438    323.79965   0.01351192  0.012011855           14 
 1998000   0.44685359   -7.9803259    323.67598  0.013499999  0.012002593           18 
 1999000   0.44694837   -7.9906228    323.88935  0.013502141  0.011993334           16 
 2000000   0.45025821   -7.9824306     323.9476  0.013497817  0.011984079           16 
 2001000   0.44967757   -7.9761958    323.64865  0.013478621  0.011974838           19 
 2002000   0.45168162   -7.9829707    323.63352  0.013471259   0.01196561           12 
 2003000   0.44801684   -8.0004949    323.47205  0.013457816  0.011956391           16 
 2004000   0.44384688   -7.9988777    323.72358  0.013461559  0.011947185           15 
 2005000   0.45662725   -7.9920522    324.07884  0.013469611  0.011937984           16 
 2006000   0.45150037   -8.0022684    323.38144  0.013433925  0.011928779           15 
 2007000   0.44530461   -7.9851351    323.22239  0.013420627  0.011919589           22 
 2008000   0.45237226   -7.9892991    323.68104  0.013432978  0.011910405           15 
 2009000   0.45838152   -7.9863454    323.81096  0.013431681  0.011901235           12 
 2010000   0.44427724    -8.015255    323.69517  0.013420198  0.011892078           14 
 2011000   0.45329308   -7.9902967    323.14817  0.013390857  0.011882922           19 
 2012000   0.45069581   -8.0048611    323.66842   0.01340575   0.01187378           36 
Loop time of 4449.5 on 48 procs for 2000000 steps with 4000 atoms

Performance: 77671.585 tau/day, 449.488 timesteps/s
99.4% CPU use with 48 MPI tasks x no OpenMP threads

MPI task timing breakdown:
Section |  min time  |  avg time  |  max time  |%varavg| %total
---------------------------------------------------------------
Pair    | 288.03     | 306.09     | 322.78     |  55.6 |  6.88
Neigh   | 28.371     | 29.194     | 30.132     |   6.8 |  0.66
Comm    | 256.2      | 274.93     | 300.23     |  57.6 |  6.18
Output  | 3.9665     | 3.9687     | 4.0147     |   0.3 |  0.09
Modify  | 3776.4     | 3790.9     | 3803.4     |  11.0 | 85.20
Other   |            | 44.46      |            |       |  1.00

Nlocal:        83.3333 ave          90 max          76 min
Histogram: 1 2 6 4 5 13 4 9 0 4
Nghost:        1864.50 ave        1886 max        1833 min
Histogram: 1 2 1 4 10 3 12 6 6 3
Neighs:        11665.9 ave       13192 max       10223 min
Histogram: 2 2 3 10 10 6 8 5 1 1
FullNghs:      23332.4 ave       25648 max       20634 min
Histogram: 1 2 3 5 9 7 11 6 1 3

Total # of neighbors = 1119956
Ave neighs/atom = 279.98900
Neighbor list builds = 107635
Dangerous builds = 0

#clear
#
#next RN
#
#jump SELF
Total wall time: 1:14:12
