
units lj                  # Use reduced LJ style units
atom_style atomic         # Uncharged point particles
atom_modify map hash      # Needed for indexing of clusters etc
                          # Used to be able to find where atoms are in relation to each other.

lattice fcc 1.0 spacing 1 1 1
Lattice spacing in x,y,z = 1.5874011 1.5874011 1.5874011
region box block 0 10 0 10 0 10 units lattice
create_box 2 box
Created orthogonal box = (0.0000000 0.0000000 0.0000000) to (15.874011 15.874011 15.874011)
  3 by 4 by 4 MPI processor grid
create_atoms 1 box
Created 4000 atoms
  using lattice units in orthogonal box = (0.0000000 0.0000000 0.0000000) to (15.874011 15.874011 15.874011)
  create_atoms CPU = 0.020 seconds
set type 1 type/fraction 2 0.22 78393
Setting atom values ...
  910 settings made for type/fraction
mass 1 1.0
mass 2 1.0
pair_style lj/cut  3.5
pair_modify tail  yes
pair_coeff 1  1  1.0  1.0   # Intearaction between 1 and 1 set with epsilon = 1 and sigma = 1
pair_coeff 1  2  1.5  0.8
pair_coeff 2  2  0.5  0.88

write_data data.0
System init for write_data ...
Neighbor list info ...
  update every 1 steps, delay 10 steps, check yes
  max neighbors/atom: 2000, page size: 100000
  master list distance cutoff = 3.8
  ghost atom cutoff = 3.8
  binsize = 1.9, bins = 9 9 9
  1 neighbor lists, perpetual/occasional/extra = 1 0 0
  (1) pair lj/cut, perpetual
      attributes: half, newton on
      pair build: half/bin/atomonly/newton
      stencil: half/bin/3d
      bin: standard
WARNING: Not all mixed pair coeffs generated from mixing. Use write_data with 'pair ij' option to store all pair coeffs. (../write_data.cpp:312)


#############################
#   M E L T   S Y S T E M   #
#############################

velocity all create 2.4 6583654 mom yes dist gaussian # Assign velocities
                                                    # Temperature 2.4, random number seed, zero linear momentum
                                                                                # Gaussian distribution

timestep 0.002   # simulation timestep
thermo 1000       # output thermodynamic data every 1000 steps bf 100

# Define a fix  in this case with index 1 applied to all
# particles in the simulation. This fix is for simulations
# in the anisotropic NPT ensemble. Note that we use the MTK
# correction.
fix 1 all npt temp 2.4 2.4 0.1 iso 5.68 5.68 0.5 mtk yes tchain 5 pchain 5 # Use NPT ensemble
                                                                         # Set temperature and pressure and damping
                                                                         # Numbers of thermostats in chain and in barostat
run 10000          # run for 10000 steps
Per MPI rank memory allocation (min/avg/max) = 3.642 | 3.644 | 3.648 Mbytes
Step Temp E_pair E_mol TotEng Press Volume 
       0          2.4   -6.9213593            0   -3.3222593   -3.6990896         4000 
    1000    2.3833407   -4.8479951            0   -1.2738778    5.5010461    4429.5676 
    2000    2.4247374   -4.8599754            0   -1.2237785    5.4074999    4450.1483 
    3000    2.4199907   -4.8582672            0   -1.2291887     5.958016    4393.1027 
    4000     2.368834   -4.9380617            0    -1.385699    5.4730133    4383.6292 
    5000    2.4469991   -4.8832672            0   -1.2136861    5.8495047    4380.2257 
    6000    2.3470934    -4.838009            0   -1.3182491    5.9973538    4385.0892 
    7000    2.3212867   -4.8474099            0   -1.3663503    5.4320485    4442.1605 
    8000    2.4358408   -4.8401701            0   -1.1873223    5.9574786    4398.3784 
    9000    2.4195201   -4.8586141            0   -1.2302412    5.8333984    4395.1461 
   10000    2.4272954   -4.8521628            0     -1.21213    5.9316975    4389.8973 
Loop time of 2.29986 on 48 procs for 10000 steps with 4000 atoms

Performance: 751351.219 tau/day, 4348.097 timesteps/s
99.6% CPU use with 48 MPI tasks x no OpenMP threads

MPI task timing breakdown:
Section |  min time  |  avg time  |  max time  |%varavg| %total
---------------------------------------------------------------
Pair    | 0.96378    | 1.0474     | 1.1099     |   3.2 | 45.54
Neigh   | 0.19932    | 0.20701    | 0.21794    |   0.9 |  9.00
Comm    | 0.70939    | 0.78399    | 0.87553    |   4.1 | 34.09
Output  | 0.00024317 | 0.00024702 | 0.00031936 |   0.0 |  0.01
Modify  | 0.2172     | 0.24679    | 0.27683    |   3.2 | 10.73
Other   |            | 0.0144     |            |       |  0.63

Nlocal:        83.3333 ave          93 max          74 min
Histogram: 3 1 5 10 9 2 7 6 4 1
Nghost:        1542.44 ave        1577 max        1510 min
Histogram: 1 1 8 6 10 10 3 6 1 2
Neighs:        8687.23 ave       10138 max        7508 min
Histogram: 3 5 5 12 5 4 6 3 4 1

Total # of neighbors = 416987
Ave neighs/atom = 104.24675
Neighbor list builds = 915
Dangerous builds = 262

# Equilibrate just above the melting temperature to avoid step fn in T

fix 1 all npt temp 1.25 1.25 0.1 iso 5.68 5.68 0.5 mtk yes tchain 5 pchain 5
run 2000
Per MPI rank memory allocation (min/avg/max) = 3.643 | 3.645 | 3.649 Mbytes
Step Temp E_pair E_mol TotEng Press Volume 
   10000    2.4272954   -4.8521628            0     -1.21213    5.9316975    4389.8973 
   11000    1.2358797   -6.6078642            0   -4.7545081    5.6186957    3592.2223 
   12000    1.2492506   -6.5931278            0   -4.7197204     5.818875     3586.731 
Loop time of 0.51264 on 48 procs for 2000 steps with 4000 atoms

Performance: 674156.739 tau/day, 3901.370 timesteps/s
99.6% CPU use with 48 MPI tasks x no OpenMP threads

MPI task timing breakdown:
Section |  min time  |  avg time  |  max time  |%varavg| %total
---------------------------------------------------------------
Pair    | 0.22302    | 0.2491     | 0.27651    |   2.3 | 48.59
Neigh   | 0.032238   | 0.034779   | 0.038141   |   0.7 |  6.78
Comm    | 0.1485     | 0.17495    | 0.20255    |   2.9 | 34.13
Output  | 5.0837e-05 | 5.2323e-05 | 6.9673e-05 |   0.0 |  0.01
Modify  | 0.039608   | 0.04916    | 0.056518   |   2.0 |  9.59
Other   |            | 0.0046     |            |       |  0.90

Nlocal:        83.3333 ave          92 max          74 min
Histogram: 2 0 3 10 5 11 10 1 4 2
Nghost:        1768.71 ave        1794 max        1736 min
Histogram: 1 1 4 2 8 13 7 5 5 2
Neighs:        10658.4 ave       12259 max        9173 min
Histogram: 1 3 2 10 11 9 7 2 2 1

Total # of neighbors = 511605
Ave neighs/atom = 127.90125
Neighbor list builds = 143
Dangerous builds = 13

#############################
# L I N E A R  Q U E N C H  #
#############################

# Define solid atoms. This closely follows ten Wolde  Ruiz-Montero and Frenkel  Faraday Discuss  1996  104  93-110
# Compute components of the per-atom q6 vector
compute q6 all orientorder/atom degrees 1 6 components 6 nnn NULL cutoff 1.3 # compute the Q6 parameter.
                                                                             # Use all neighbours within 1.3 unit cell.

# get number of connections
compute coord_number all coord/atom orientorder q6 0.5

# An atom is solid if it has 8 or more connections (of a possible 14)
variable is_solid atom c_coord_number>=8
group solid dynamic all var is_solid    # Must be dynamic to update
dynamic group solid defined

# do clustering
compute cluster solid cluster/atom 1.3 # Create a cluster where all atoms within are solid and max 1.3 units from another member

# define chunks one chunk per cluster
compute clus_chunks solid chunk/atom c_cluster nchunk every compress yes  # Says which atoms are in which chunk

# count the size of each chunk
compute size_chunks solid property/chunk clus_chunks count


# Find the maximum entry in the vector of chunk sizes
variable max_n equal max(c_size_chunks)


# Thermo style which includes this variable
# thermo_style custom step temp pe vol v_max_n

thermo ${N}  # Print the thermo information every 100 steps
thermo 1000  

# Reset the npt fix at a lower temperature (below freezing)
fix 1  all npt temp  ${temp} ${temp}  0.1  iso  5.68  5.68  0.5  mtk yes tchain  5  pchain  5
fix 1  all npt temp  0.45 ${temp}  0.1  iso  5.68  5.68  0.5  mtk yes tchain  5  pchain  5
fix 1  all npt temp  0.45 0.45  0.1  iso  5.68  5.68  0.5  mtk yes tchain  5  pchain  5

dump dmp2 all dcd ${N} traj.dcd
dump dmp2 all dcd 1000 traj.dcd


compute msd all msd com yes
variable twopoint equal c_msd[4]/6/(step*dt+1.0e-6)
fix 9 all vector 10 c_msd[4]
variable fit equal slope(f_9)/6/(10*dt)
thermo_style custom step temp pe c_msd[4] v_twopoint v_fit v_max_n

fix 1 all npt temp 1.25 ${temp} 0.1 iso 5.68 5.68 0.5 mtk yes tchain 5 pchain 5
fix 1 all npt temp 1.25 0.45 0.1 iso 5.68 5.68 0.5 mtk yes tchain 5 pchain 5
run 500000 # 5000000  # Run for this many steps
Neighbor list info ...
  update every 1 steps, delay 10 steps, check yes
  max neighbors/atom: 2000, page size: 100000
  master list distance cutoff = 3.8
  ghost atom cutoff = 3.8
  binsize = 1.9, bins = 9 9 9
  4 neighbor lists, perpetual/occasional/extra = 1 3 0
  (1) pair lj/cut, perpetual
      attributes: half, newton on
      pair build: half/bin/atomonly/newton
      stencil: half/bin/3d
      bin: standard
  (2) compute orientorder/atom, occasional
      attributes: full, newton on
      pair build: full/bin/atomonly
      stencil: full/bin/3d
      bin: standard
  (3) compute coord/atom, occasional
      attributes: full, newton on
      pair build: full/bin/atomonly
      stencil: full/bin/3d
      bin: standard
  (4) compute cluster/atom, occasional
      attributes: full, newton on
      pair build: full/bin/atomonly
      stencil: full/bin/3d
      bin: standard
Per MPI rank memory allocation (min/avg/max) = 9.778 | 9.785 | 9.791 Mbytes
Step Temp PotEng c_msd[4] v_twopoint v_fit v_max_n 
   12000    1.2492506   -6.5931278 5.1853799e-30 3.6009581e-32 8.3333333e+20            1 
   13000     1.221096   -6.6396067   0.53977407   0.00346009  0.044390952            1 
   14000    1.2416166   -6.6300764    1.0312358 0.0061383083  0.043061722            2 
   15000    1.2283083   -6.6255392    1.5432902 0.0085738343  0.042113616            3 
   16000    1.2703865   -6.6599794    2.0272188  0.010558431  0.042184551            2 
   17000    1.2591856   -6.6559224    2.5322748  0.012413111   0.04155792            2 
   18000     1.236692   -6.6248411    3.0193906   0.01397866  0.041563345            2 
   19000    1.2422204    -6.662283    3.4230967  0.015013582   0.04125636            3 
   20000    1.2466643   -6.6511447    3.8747993  0.016144997  0.040708061            2 
   21000    1.2413609   -6.6971534    4.3962983  0.017445628  0.040251792            1 
   22000    1.2370022   -6.6718037     4.857576  0.018399909  0.040071551            1 
   23000    1.2343569   -6.6706739    5.3293261  0.019309152  0.039925803            2 
   24000    1.2216585   -6.6489433    5.8511049  0.020316336  0.039933618            1 
   25000    1.2488642   -6.7120357     6.381708  0.021272359  0.040012311            2 
   26000    1.2155969   -6.6552946    6.9727826  0.022348662  0.040246975            1 
   27000    1.2351676   -6.6502453    7.4355828  0.022949329  0.040453563            3 
   28000    1.2054706   -6.6712005    7.8231449  0.023283169  0.040554342            3 
   29000    1.2212669   -6.6780141    8.3426352  0.023973089  0.040589933            1 
   30000    1.2275403   -6.7166619    8.7391429  0.024275397  0.040577889            1 
   31000    1.2228925   -6.6771841    9.3108758  0.025029236  0.040556574            1 
   32000    1.2131647   -6.6678977    9.8016267  0.025525069  0.040570321            1 
   33000    1.2127784   -6.6549729    10.174748  0.025693808   0.04048906            3 
   34000    1.2080278   -6.6927117    10.624134  0.026039544  0.040362346            2 
   35000    1.2096676   -6.7055791    11.065408  0.026346209  0.040245218            3 
   36000    1.2128438   -6.7172062    11.555761  0.026749446  0.040117572            3 
   37000    1.2055258   -6.7360928    11.997172  0.027020658  0.040025037            1 
   38000    1.2060758     -6.70797    12.513993  0.027442967  0.039960166            3 
   39000    1.2056735   -6.7149354    13.049592  0.027883743   0.03993057            2 
   40000    1.2110039   -6.6903679    13.528277   0.02818391  0.039946064            2 
   41000    1.2037797   -6.6872184    14.072212  0.028602057  0.039965951            3 
   42000    1.1920448   -6.6961313    14.508665  0.028787033   0.03997131            3 
   43000     1.186587   -6.7167985    14.780726  0.028644817  0.039916282            1 
   44000    1.2040944   -6.7066575    15.083028  0.028566341   0.03978579            1 
   45000    1.1772215   -6.7548158    15.568264  0.028830118  0.039646171            3 
   46000    1.2049078   -6.7394541    16.074403  0.029120294  0.039532956            1 
   47000    1.2076384   -6.7512639    16.470552  0.029203106  0.039454084            4 
   48000    1.2095272   -6.7431467    16.859848  0.029270569  0.039343194            2 
   49000    1.2468185   -6.7319791    17.406162  0.029602317  0.039222723            1 
   50000    1.1973109   -6.7681496    17.817054   0.02969509   0.03914305            3 
   51000    1.1978628   -6.7343497    18.289614   0.02988499  0.039068854            1 
   52000    1.1846303   -6.7476282    18.658107  0.029900812  0.038985663            1 
   53000    1.1581525   -6.7380263    19.145801   0.03010346  0.038882002            3 
   54000    1.2016705   -6.7241061    19.704847  0.030408715  0.038805701            1 
   55000    1.1694527   -6.7409438    20.063166  0.030398737  0.038762159            3 
   56000    1.1692854   -6.7520934    20.471583  0.030463665  0.038707168            1 
   57000    1.1554931   -6.8013416    20.989574  0.030686511  0.038644594            1 
   58000    1.1588644   -6.7787922    21.322094  0.030635192  0.038575309            1 
   59000    1.1677942   -6.7661712    21.780548  0.030763486  0.038510185            1 
   60000    1.1846836   -6.7778681    22.138522  0.030747947  0.038446233            2 
   61000    1.1689906   -6.8131622    22.329184  0.030504349  0.038342923            2 
   62000    1.1572219   -6.7865807    22.726424  0.030546268  0.038223903            1 
   63000     1.171689   -6.7888504    23.137004  0.030604502  0.038095266            2 
   64000    1.1782191   -6.7966644    23.547074  0.030660252  0.037983938            2 
   65000     1.136648    -6.763682    23.967043  0.030726979  0.037875237            2 
   66000    1.1691585   -6.7651263    24.385997    0.0307904  0.037772984            1 
   67000     1.141281   -6.7562934    24.806133  0.030853399  0.037664627            1 
   68000    1.1537701   -6.7757587    25.252007  0.030946086  0.037564319            2 
   69000    1.1755227   -6.8277456    25.577808  0.030891072  0.037473685            2 
   70000    1.1977377   -6.8033454    25.988562  0.030938764  0.037377837            1 
   71000    1.1555343   -6.7855375    26.317104  0.030888619  0.037281626            1 
   72000    1.1433027   -6.7693822    26.779085  0.030994311  0.037192247            1 
   73000    1.1761692    -6.818428    27.052759  0.030882144  0.037097686            4 
   74000    1.1396767   -6.8415332    27.433962  0.030894101  0.036999007            2 
   75000    1.1579693   -6.8092927     28.13497  0.031261078  0.036919435            2 
   76000    1.1586813   -6.7924405    28.451946  0.031197309  0.036857986            4 
   77000    1.1397933   -6.8456796    28.917854  0.031296379  0.036801208            2 
   78000    1.1476708   -6.8225999    29.361717  0.031369355   0.03675583            6 
   79000    1.1378011   -6.8138438    29.732671  0.031363577  0.036703722            3 
   80000    1.1443583   -6.8669621    30.132903  0.031388441  0.036652991            1 
   81000    1.1266097   -6.8277441    30.762682  0.031648849  0.036607369            3 
   82000    1.1394091   -6.7958355    30.928436  0.031431337  0.036558565            1 
   83000    1.1496083   -6.8672814    31.371265  0.031497254  0.036503088            2 
   84000    1.1409649   -6.8692331     31.80137  0.031548978  0.036446015            3 
   85000    1.0980315   -6.8427424    32.038196  0.031409996  0.036395058            3 
   86000    1.1393442   -6.8640003    32.469764  0.031462949  0.036327425            2 
   87000     1.122704   -6.8535337     32.63412  0.031258735  0.036261189            2 
   88000    1.1534182   -6.8231092    32.982897  0.031233804  0.036187591            2 
   89000    1.1244105   -6.8762982    33.392848  0.031266712  0.036114776            1 
   90000    1.1592084    -6.882712    33.632756  0.031141441   0.03603654            4 
   91000    1.0856953   -6.8471373     33.96368  0.031102271   0.03595627            2 
   92000     1.139235    -6.868123    34.320434  0.031087349  0.035875891            3 
   93000    1.1056517   -6.8702486    34.699133  0.031092413  0.035785839            1 
   94000    1.0972323   -6.8404406    35.195075  0.031201307  0.035702815            2 
   95000    1.1357318   -6.8763729    35.290365   0.03095646  0.035622217            3 
   96000     1.135011   -6.8786113    35.629775  0.030928624  0.035531427            2 
   97000    1.1056016   -6.9151167    36.003652  0.030930972   0.03543979            4 
   98000     1.106691   -6.8667141    36.236699  0.030813519  0.035347039            2 
   99000    1.1384029   -6.9084736    36.695349  0.030888341  0.035254376            2 
  100000    1.1293671   -6.8916468    36.867973  0.030723311   0.03516828            1 
  101000     1.099276    -6.891444    37.425823  0.030879392  0.035081903            1 
  102000    1.0838017   -6.8895355    37.842638  0.030917188  0.034999206            4 
  103000    1.1133825   -6.9219239    38.060256  0.030793087  0.034920041            1 
  104000    1.1049005   -6.9376454    38.471787  0.030826753  0.034843457            1 
  105000    1.1181915   -6.9353996    38.592251  0.030628771   0.03476107            2 
  106000    1.0910422   -6.9629045    39.100245  0.030739186  0.034676863            2 
  107000    1.1044061   -6.9199682    39.403624   0.03068818  0.034595971            3 
  108000    1.1011045   -6.9641383     39.64392  0.030589444   0.03451484            2 
  109000     1.077079   -6.9475427    40.166721  0.030708502  0.034436485            2 
  110000    1.0786534   -6.8882904    40.741878  0.030865059   0.03436899            1 
  111000    1.0711035   -6.8916007    40.991095  0.030774095  0.034307622            2 
  112000    1.0891102   -6.9498152     41.32227  0.030745736  0.034244483            4 
  113000    1.0785208   -6.9406941     41.64558   0.03071208  0.034177429            2 
  114000    1.0633653   -6.9455404    41.897897  0.030627118    0.0341079            3 
  115000    1.0830582   -6.9705831    41.969825  0.030412917   0.03403246            2 
  116000    1.0753976   -6.9677545    42.415071  0.030470597  0.033952994            2 
  117000    1.0730157   -6.9615049    42.629778   0.03036309  0.033873974            1 
  118000    1.0723683   -6.9735151    43.044965  0.030398986  0.033799124            2 
  119000    1.0501765   -6.9750093    43.512689   0.03047107  0.033729311            2 
  120000    1.0896112   -6.9704875    43.860333  0.030458565  0.033659177            3 
  121000    1.0576705   -6.9798001    44.188472  0.030432832  0.033591239            6 
  122000    1.0744059   -6.9550719    44.527473   0.03041494  0.033523666            2 
  123000    1.0656584   -6.9641423    44.855774  0.030390091  0.033457667            4 
  124000    1.0677118   -6.9841483    45.050353  0.030275775  0.033390852            3 
  125000    1.0687661   -6.9722571    45.472355  0.030314903  0.033326563            3 
  126000    1.0834235   -6.9706127    45.749726  0.030257755  0.033259168            2 
  127000    1.0725555   -6.9717306    46.026374  0.030201033  0.033195217            3 
  128000    1.0450151   -7.0632892    46.313892  0.030152273   0.03312907            2 
  129000    1.0742089   -6.9926825    46.584141  0.030093114  0.033063418            2 
  130000    1.0615547    -6.999668     46.77162  0.029981808  0.032993428            3 
  131000    1.0452666   -7.0081378    47.154238  0.029996335  0.032920024            6 
  132000     1.043416   -7.0044954    47.285917   0.02985222  0.032842189            3 
  133000    1.0431793   -7.0262205    47.477634  0.029747891  0.032762226            2 
  134000    1.0533197   -7.0028382    47.626305  0.029618349  0.032682129            2 
  135000    1.0505694    -7.014772    48.152298  0.029723641   0.03260429            1 
  136000    1.0437603   -7.0239756    48.225803  0.029550124  0.032525902            2 
  137000    1.0626544   -7.0436197    48.374674  0.029424984   0.03244414            5 
  138000    1.0430467   -7.0201378    48.946395  0.029557002  0.032368033            2 
  139000    1.0328639   -7.0047511    49.274469  0.029541048   0.03229331            4 
  140000    1.0624453   -7.0552059    49.391256  0.029399557  0.032216423            2 
  141000    1.0310392   -7.0259131    49.647566  0.029342533  0.032138918            2 
  142000    1.0513017   -6.9962221    49.923531  0.029297847  0.032060644            2 
  143000    1.0329421   -7.0543786    49.949355  0.029108016  0.031978255            4 
  144000    1.0341923   -7.0989996     50.29341  0.029104982  0.031897084            3 
  145000    1.0300425   -7.0519916    50.682999   0.02912816  0.031817793            3 
  146000    1.0401403   -7.0826859    50.963036  0.029088491  0.031738049            4 
  147000    1.0356474   -7.0483808    51.122252  0.028980868  0.031656685            3 
  148000    1.0155584   -7.0385931    51.366386  0.028922515  0.031574277            2 
  149000    1.0078577   -7.0752883    51.458197  0.028779752  0.031489906            2 
  150000    1.0407747   -7.0795853    51.818872  0.028788262  0.031409081            2 
  151000    1.0188686   -7.1074613    52.018203  0.028707618  0.031329253            2 
  152000    1.0152616   -7.1017856    52.418395  0.028738155  0.031248619            3 
  153000    1.0482684    -7.125553    52.622549  0.028661519  0.031169231            1 
  154000    1.0288571   -7.0700186    52.858892  0.028603297  0.031091428            2 
  155000     1.018279   -7.0792746    53.333811  0.028674092  0.031014998            2 
  156000     1.035817   -7.0636769    53.471515  0.028563843  0.030936838            3 
  157000    1.0232133   -7.1030554    53.658726  0.028481277  0.030860175            1 
  158000   0.98819529    -7.101369    53.970999  0.028465717  0.030781928            2 
  159000    1.0294923   -7.0931133    54.194307  0.028403725   0.03070451            2 
  160000    1.0197922   -7.0672288    54.356878  0.028310874  0.030625616            3 
  161000    1.0140417   -7.0908452    54.761428  0.028344424  0.030546468            3 
  162000    1.0057856   -7.0928009    54.573182  0.028072624  0.030466936            4 
  163000     1.004589   -7.1082708    54.923501    0.0280795  0.030387866            3 
  164000    1.0225764   -7.1167711    55.121395  0.028008839  0.030309498            4 
  165000    1.0293775   -7.1524985    55.422277  0.027991049  0.030229825            3 
  166000    1.0132668   -7.1347384    55.601741   0.02791252  0.030149107            1 
  167000    1.0065051   -7.1413517    55.657462  0.027773185  0.030069315            4 
  168000   0.99138286   -7.1257754    55.883839  0.027720158  0.029989295            3 
  169000   0.97563921   -7.1213813    56.179343  0.027701846  0.029908869            2 
  170000   0.98690621   -7.1365533    56.361568  0.027628219  0.029828239            2 
  171000   0.98680553   -7.1546279    56.878272  0.027718456   0.02975065            1 
  172000   0.98955979     -7.18517    56.976271  0.027604783  0.029674154            2 
  173000   0.99997912   -7.1394808    57.179253  0.027542992  0.029597397            3 
  174000   0.99900069   -7.1698419     57.54796  0.027561284  0.029520874            2 
  175000   0.98861907    -7.168072    57.481604  0.027372192  0.029443042            2 
  176000    1.0034613   -7.1777902    57.577486  0.027262067  0.029363725            3 
  177000   0.98395558    -7.177566    58.031843   0.02732196  0.029286027            1 
  178000   0.97628889   -7.1667716    58.246458  0.027268941  0.029210016            4 
  179000   0.96373447   -7.1040671    58.802606  0.027375515  0.029134057            2 
  180000   0.98472566   -7.1686182    58.570295  0.027115877  0.029059657            3 
  181000   0.97876995   -7.1550291    58.933799  0.027133425  0.028984657            3 
  182000   0.98652336   -7.1677514    58.972797  0.027002196  0.028908157            4 
  183000     0.980904   -7.1384165    59.032209  0.026881698  0.028830202            3 
  184000   0.97784611   -7.1818925    59.396314  0.026900504  0.028753986            2 
  185000   0.98351187   -7.1964846    59.416521  0.026764198  0.028676119            2 
  186000   0.96048923     -7.17899    59.768758  0.026778117  0.028597567            5 
  187000   0.95027435   -7.1822305    60.147734  0.026803803   0.02852225            2 
  188000   0.94694149   -7.2091423    60.005019  0.026597969  0.028447212            3 
  189000   0.95965174   -7.2045281    60.492973  0.026672387  0.028372146            4 
  190000   0.97474904   -7.2177773    60.564974  0.026563585  0.028297008            2 
  191000   0.99341735   -7.2668074    60.686237  0.026477416  0.028221905            3 
  192000   0.95669426   -7.1896402     61.00613  0.026478355  0.028148637            2 
  193000   0.97866886   -7.2326105    61.065868  0.026366955  0.028077175            3 
  194000    0.9638587    -7.238135    61.368259  0.026360936  0.028004156            7 
  195000   0.96176636    -7.218429     61.52934   0.02629459  0.027930874            4 
  196000   0.98567712   -7.2253383    61.675735  0.026222677  0.027857667            2 
  197000   0.95729134   -7.2367683    61.667781  0.026086202  0.027784023            3 
  198000   0.96632029   -7.2372189    62.039963  0.026111095  0.027709655            3 
  199000   0.96696306    -7.199544    62.521264  0.026181434  0.027637356            3 
  200000    0.9486501   -7.2400771    62.521521  0.026050634  0.027565572            2 
  201000   0.93424854   -7.1996573    62.801815  0.026037237  0.027494928            4 
  202000   0.93181293    -7.267005    62.809528  0.025911521  0.027424162            2 
  203000   0.94203317   -7.2573332    63.085875  0.025897321  0.027352249            2 
  204000   0.93173092   -7.2795691    63.071121  0.025764347  0.027280864            2 
  205000   0.93626184   -7.2708305    63.320182  0.025739911  0.027208214            3 
  206000   0.94113332   -7.2777978     63.19123  0.025562795   0.02713557            3 
  207000   0.95274265   -7.2568684    63.544399  0.025581481  0.027063455            2 
  208000   0.91927925   -7.2593094    63.830855  0.025573259  0.026991426            3 
  209000   0.93606146    -7.277415    63.982205  0.025511246  0.026919805            3 
  210000   0.92140466   -7.2640354    64.087563  0.025431573  0.026847198            5 
  211000   0.93553663   -7.3066017    64.000127  0.025276511  0.026773076            2 
  212000   0.94189333   -7.2815085    64.358925  0.025298319  0.026699341            3 
  213000   0.93263061   -7.2773091    64.641267   0.02529001  0.026627082            4 
  214000   0.91689265     -7.28457    64.645659  0.025173543  0.026554808            4 
  215000   0.93637088   -7.2952627    64.820074  0.025124059  0.026482265            3 
  216000   0.90384177   -7.2756706    65.214282  0.025159831  0.026410746            3 
  217000   0.91721561    -7.311343     65.42815  0.025126018  0.026341887            5 
  218000   0.90089556   -7.2890588    65.591508  0.025073206  0.026273084            1 
  219000   0.93564079   -7.2782999    65.727152  0.025010332  0.026203999            2 
  220000   0.92299281   -7.3146309     65.82252  0.024932773   0.02613609            3 
  221000   0.90036829   -7.2929651    66.095216  0.024922781  0.026067648            3 
  222000   0.91293996   -7.3165162    66.231582  0.024861705  0.025999248            2 
  223000   0.91080953   -7.2881554    66.307708  0.024778665  0.025931449            2 
  224000   0.90213681   -7.2841663    66.472283  0.024729272  0.025863085            3 
  225000   0.90828403   -7.3222753    66.457885  0.024614031   0.02579577            1 
  226000   0.91215328   -7.3138522     66.91423  0.024673389  0.025728663            2 
  227000   0.90821746   -7.3300851     66.94501  0.024575995  0.025660842            4 
  228000   0.89840504   -7.3131178    67.111074  0.024528901  0.025594173            3 
  229000   0.89245785   -7.3455481    67.150031  0.024435965  0.025527536            4 
  230000   0.89768937   -7.3371637    67.423774  0.024428904  0.025461207            4 
  231000   0.89600144   -7.3645887    67.434129  0.024326886  0.025394235            5 
  232000   0.90104819   -7.3288196    67.462604  0.024232257  0.025327623            3 
  233000   0.89920052   -7.4079586    67.624593  0.024186192  0.025260376            4 
  234000   0.87767934   -7.4018978    67.732771  0.024121357  0.025192507            2 
  235000   0.89884799   -7.3675192    67.919101  0.024084787  0.025124485            6 
  236000   0.89134244   -7.3576598    68.198945  0.024081548  0.025057486            8 
  237000   0.88124649   -7.3561351    68.118904  0.023951794  0.024989826            4 
  238000   0.89038585    -7.344836    68.202476  0.023880419  0.024922857            3 
  239000   0.89525162    -7.390589    68.589688  0.023915512  0.024855875            3 
  240000   0.88144878    -7.388493    68.691621  0.023851257  0.024789049            4 
  241000   0.86932802   -7.4011241    68.873941  0.023815332  0.024723208            2 
  242000   0.87750657   -7.3941721    69.119176  0.023801369  0.024658308            4 
  243000   0.87341573   -7.4048894    69.410729  0.023803405  0.024593353            2 
  244000   0.87074674   -7.3705338     69.43017   0.02371249  0.024529187            3 
  245000   0.86877297   -7.4259905    69.336492  0.023583841  0.024464806            4 
  246000   0.86624797   -7.4113659    69.313272  0.023480106  0.024399689            9 
  247000   0.88450349   -7.3972488    69.451262    0.0234316  0.024333829            2 
  248000   0.87511623   -7.4090012     69.66406  0.023408622  0.024268996            3 
  249000   0.85934581   -7.4015084    70.059228  0.023446864  0.024204891            3 
  250000   0.86432044   -7.4169385    69.830778  0.023276926  0.024140327            3 
  251000   0.84973047   -7.3993039    70.119052  0.023279898  0.024075355            4 
  252000   0.86739633   -7.4328003    70.291919  0.023244682  0.024010167            3 
  253000   0.85037712   -7.4501474    70.333454  0.023166487  0.023944748            7 
  254000   0.86620556   -7.4346572    70.673588  0.023186873  0.023880234            4 
  255000   0.85424309   -7.4169285     70.59708  0.023070941  0.023817669            3 
  256000   0.87178862    -7.425597    70.663108  0.023002314   0.02375439            4 
  257000   0.85866731    -7.443139    71.117714  0.023060218  0.023692105            3 
  258000   0.85242035   -7.4486994    71.091015  0.022962214  0.023630347            4 
  259000   0.86621797   -7.4109464    71.290885  0.022937865  0.023569202            1 
  260000   0.85587533   -7.4132893    71.542222  0.022930199  0.023507888            5 
  261000   0.85487308   -7.4847716    71.156261  0.022719113  0.023445343            4 
  262000   0.85545855   -7.4520775    71.491808  0.022739125  0.023382747            4 
  263000   0.86968543   -7.4851491    71.502617  0.022656089   0.02332073            2 
  264000   0.85015121   -7.4943039    71.595554  0.022599607  0.023258738            3 
  265000   0.85304419   -7.4901219    71.784472  0.022573733   0.02319698            1 
  266000   0.87426974   -7.4699638    71.795358   0.02249228   0.02313487            2 
  267000   0.83697845   -7.4866912    71.879715  0.022434368  0.023072743            1 
  268000   0.83308181   -7.4829447    71.970673   0.02237894  0.023010551            5 
  269000   0.86047921   -7.4836645    72.106179  0.022337726  0.022948903            3 
  270000   0.83523643   -7.4957448    72.411132  0.022349115  0.022887827            2 
  271000     0.858756   -7.4562914    72.713468  0.022359615  0.022828402            5 
  272000   0.84382834   -7.5091753    72.676383  0.022266049  0.022769209            2 
  273000   0.82617855    -7.502674    72.909885  0.022255765  0.022709854            3 
  274000   0.82453547    -7.508931    72.991286  0.022199296  0.022651079            4 
  275000   0.81913837   -7.5369299    72.991392  0.022118604  0.022592109            4 
  276000   0.82589048   -7.5433882    72.965621  0.022030683  0.022532551            1 
  277000   0.81755229   -7.5212719    73.131827  0.022001151  0.022472889            1 
  278000   0.82095159   -7.5396607    73.408539  0.022004958  0.022414049            3 
  279000   0.81743379   -7.5219217    73.557375  0.021970542  0.022356004            2 
  280000   0.82581421   -7.5595888    73.594185  0.021903031  0.022297981            4 
  281000   0.82818955   -7.5256158    73.579466  0.021820719  0.022239882            4 
  282000   0.81890158   -7.5661881    73.578696  0.021743113  0.022181161            2 
  283000   0.82975726   -7.5560582    73.585536  0.021668297  0.022121885            3 
  284000   0.79119385   -7.5698503    73.734044  0.021635576  0.022063047            5 
  285000   0.80276952   -7.5473899    73.989637  0.021634397  0.022004437            4 
  286000   0.82172096   -7.5545856    74.163746  0.021609483  0.021946424            4 
  287000   0.79744733   -7.5461885    74.119674  0.021521392  0.021889133            3 
  288000   0.79414934   -7.5509106    74.221538  0.021476139  0.021831894            2 
  289000   0.80657685   -7.5919419    74.374391  0.021445903   0.02177447            4 
  290000   0.80673734   -7.5609641    74.361859   0.02136835  0.021717422            5 
  291000   0.80191105   -7.5550142    74.552463  0.021349503  0.021660172            6 
  292000   0.80235789   -7.5753639    74.562119  0.021279144  0.021602728            2 
  293000   0.79063622   -7.5618399    74.677105  0.021239222  0.021545241            1 
  294000   0.81260741   -7.5932201    74.610676  0.021148151  0.021487986            3 
  295000   0.80167613    -7.587555    74.842453  0.021141936  0.021430532            3 
  296000   0.80719664    -7.573594    74.870319  0.021078355  0.021373658            9 
  297000   0.78640339   -7.5938096     74.77863  0.020981658  0.021316245            6 
  298000   0.78648446   -7.5913524     74.77012   0.02090887  0.021258473            3 
  299000   0.77133986   -7.5929622    75.051435  0.020917345  0.021200427            2 
  300000   0.78902274    -7.602794    75.043322  0.020845367  0.021143178            6 
  301000   0.77910423   -7.6039597     75.03468  0.020773721   0.02108544            5 
  302000   0.79851237   -7.6194546    75.149058  0.020736495  0.021027637            2 
  303000   0.77368215   -7.6016454    75.035187   0.02063674  0.020969883            5 
  304000    0.7761241   -7.5922141    75.312468  0.020644865  0.020913029            2 
  305000   0.80302662   -7.6304004     75.37951  0.020595494   0.02085593            4 
  306000   0.75975384   -7.6273873    75.594404  0.020586711  0.020798804            5 
  307000   0.78962461    -7.620144     75.58658   0.02051753   0.02074177            2 
  308000   0.76383161   -7.6557868    75.524205  0.020434038  0.020684891            3 
  309000   0.77898645   -7.6368594    75.601436  0.020388737  0.020627755            5 
  310000   0.78335046   -7.6184206    75.699456  0.020349316  0.020571085            3 
  311000   0.79024066   -7.6186966    75.611354  0.020260277  0.020514374            3 
  312000   0.78140267    -7.609942     75.90705  0.020274319  0.020457987            3 
  313000    0.7811069   -7.6735638    75.836209  0.020190684  0.020401714            6 
  314000   0.77233361   -7.6728496    75.911901  0.020146471  0.020345137            5 
  315000   0.77880718   -7.6541804    75.862279  0.020069386  0.020288782            4 
  316000   0.75259779   -7.6618504    75.916356  0.020020136  0.020232507           14 
  317000   0.76113949   -7.6508491     76.12185  0.020011001  0.020176264            3 
  318000    0.7420561   -7.6489466    76.091449  0.019940107   0.02012054           13 
  319000   0.75651794   -7.6736277    76.115774  0.019883953  0.020065143            4 
  320000   0.75687171   -7.6913241    76.291615  0.019867608  0.020009529            2 
  321000   0.74630205   -7.6677253    76.250698  0.019795093  0.019953673            4 
  322000   0.76276019   -7.6799172    76.437205  0.019781885  0.019898328            3 
  323000    0.7569761   -7.6831983    76.471094  0.019729384  0.019843522            2 
  324000   0.76479264   -7.6800379    76.401345  0.019650552  0.019788863            5 
  325000   0.74560801   -7.6933651    76.659883   0.01965638   0.01973386            2 
  326000   0.74074869   -7.6920765    76.661442  0.019596483  0.019678822            6 
  327000   0.73577948   -7.7036387    76.658587  0.019535828  0.019624242            3 
  328000   0.75267481   -7.6972388    76.627103  0.019468268  0.019569488            5 
  329000   0.74154406   -7.6888169    76.717132  0.019431898  0.019514984            6 
  330000   0.75833478   -7.7123649    76.820196  0.019399039  0.019460385            5 
  331000   0.74221677   -7.6968661    76.825507  0.019341769  0.019406048            4 
  332000   0.74550378   -7.7285103    76.720945  0.019257265  0.019351516            8 
  333000   0.74799022    -7.704385    76.826203  0.019225776  0.019296908            4 
  334000   0.74169348   -7.7405061    76.670295  0.019129315   0.01924237            3 
  335000   0.74048946   -7.7433369    76.973319  0.019147592  0.019188064            5 
  336000   0.74456468   -7.6965241    77.043759  0.019108075  0.019134284            3 
  337000    0.7291096   -7.7472936    77.017081  0.019044778  0.019080261            4 
  338000   0.72365471   -7.7370619    77.102094  0.019009392  0.019026562            4 
  339000   0.73730658   -7.7345395    76.996475  0.018927354   0.01897267            6 
  340000    0.7260233   -7.7206051    77.220999  0.018926715  0.018918716           11 
  341000   0.71728922   -7.7336886    77.214641  0.018869658  0.018864721            4 
  342000   0.70845968   -7.7726175    77.016798  0.018766276  0.018810935            5 
  343000   0.73097285   -7.7796355    77.129454  0.018738934  0.018757038            4 
  344000   0.73214494   -7.7492472     77.14285  0.018687706  0.018703166            5 
  345000   0.71148688   -7.7720561    77.154859  0.018636439  0.018649332            4 
  346000   0.69960884    -7.769525    77.190887  0.018591254  0.018595571            3 
  347000   0.71691198   -7.7871949    77.216842   0.01854391  0.018541601            8 
  348000   0.71764204   -7.7740824    77.158175  0.018476574  0.018487784            8 
  349000   0.70651318    -7.826261    77.172194  0.018426981  0.018433964            3 
  350000   0.69130942   -7.7812519    77.256364  0.018394372  0.018380176            3 
  351000   0.69300303   -7.8087628    77.297788  0.018351801  0.018326552            2 
  352000   0.71359464   -7.7767035    77.235151  0.018284837  0.018272875            4 
  353000   0.71419297   -7.8032398    77.076905  0.018195681  0.018219273           12 
  354000   0.68948837   -7.7831427    77.225812  0.018179334  0.018165991            5 
  355000   0.70514561   -7.7968736    77.174913  0.018116177  0.018112701            6 
  356000   0.69647957   -7.8000646    77.310951  0.018097133  0.018059696            9 
  357000   0.70647697   -7.8265725    77.445159  0.018077768  0.018006905            2 
  358000   0.68069785   -7.8091982    77.586115  0.018060083  0.017954421            2 
  359000   0.70386594   -7.8410081    77.378396  0.017961559  0.017901736            3 
  360000   0.68923098   -7.8273134     77.30829  0.017895438  0.017848988            4 
  361000   0.68221523   -7.8329647    77.364921  0.017858938  0.017796055            4 
  362000   0.67620118   -7.8160706    77.371894  0.017811209  0.017743264            6 
  363000   0.69937986   -7.8584689    77.326688  0.017751765  0.017690526            7 
  364000   0.69307978   -7.8491557    77.223863  0.017679456  0.017638047            1 
  365000   0.68010294   -7.8523523    77.355776  0.017661136  0.017585671            8 
  366000   0.68335449   -7.8489653    77.362389  0.017614387  0.017533218            3 
  367000   0.66393856   -7.8708781    77.402415   0.01757548  0.017480898            4 
  368000   0.67624912   -7.8633827     77.38367  0.017523476  0.017428834            3 
  369000   0.68449405   -7.8654281    77.502343  0.017502787  0.017376686            5 
  370000   0.69393909   -7.8716609    77.547025  0.017465546  0.017324768            4 
  371000   0.68530053   -7.8719906    77.552461   0.01741969  0.017272898            2 
  372000   0.66861097   -7.8921486    77.640319  0.017392545  0.017221284            5 
  373000   0.67908294   -7.8323251    77.810837  0.017384012  0.017169891            2 
  374000   0.66489859   -7.8732538    77.712673  0.017315658  0.017118783            4 
  375000   0.66692854   -7.8687367    77.478175  0.017217372  0.017067839            2 
  376000    0.6784318   -7.8854065    77.669158  0.017213909  0.017016794            5 
  377000   0.66521997   -7.8695745    77.719367  0.017179347  0.016966106            5 
  378000   0.65770081   -7.8859138     77.70673  0.017131113  0.016915406            4 
  379000   0.65640505   -7.8967343    77.836613  0.017114471  0.016864843            6 
  380000   0.66688665    -7.882148    77.607028  0.017019085  0.016814113            6 
  381000    0.6546283   -7.8880586    77.711914  0.016997357   0.01676335            3 
  382000   0.66989608   -7.9035344    77.847474  0.016982433  0.016712874            3 
  383000   0.66591036   -7.9028423    77.709474  0.016908067   0.01666235            5 
  384000    0.6452122   -7.9141451    77.761917  0.016875416  0.016612058            5 
  385000     0.652131   -7.9121001    77.746613  0.016828271  0.016561818            6 
  386000   0.65243556   -7.9061936    77.691998  0.016772884  0.016511671            3 
  387000   0.65953672   -7.9048317    77.643622  0.016719126  0.016461442            4 
  388000   0.65126404   -7.9486272    77.749255  0.016698723  0.016411503            4 
  389000   0.65656709     -7.93966    77.885844  0.016685057  0.016361929            4 
  390000   0.64886042   -7.9403344     77.77974  0.016619602  0.016312462            4 
  391000   0.64948563   -7.9492919    77.774476  0.016575975  0.016263131            3 
  392000   0.63223775   -7.9582424    77.750519  0.016528597  0.016213789            5 
  393000   0.63965073   -7.9435383    77.720474  0.016480168  0.016164498            6 
  394000   0.64210511   -7.9391549    77.650547  0.016423551  0.016115082            6 
  395000   0.62582759   -7.9564243    77.583723  0.016367874  0.016065794            7 
  396000   0.63257951   -7.9565991    77.641204  0.016338637  0.016016478            3 
  397000   0.63196611   -7.9586051     77.62392  0.016293854  0.015967295            5 
  398000   0.62316929   -7.9549334    77.671742  0.016262928  0.015918406            5 
  399000   0.61792567   -7.9606001    77.707506  0.016229638  0.015869819            4 
  400000   0.62538366   -7.9570633    77.733384  0.016194455  0.015821284            3 
  401000   0.63650721   -7.9415227    77.601483  0.016126659  0.015772915            4 
  402000   0.63128532   -7.9505201    77.884316  0.016145173  0.015724689            3 
  403000   0.62605604   -7.9662471    77.743665  0.016076027  0.015676651            2 
  404000    0.6225007   -7.9775155    77.821835  0.016052359  0.015628557            4 
  405000   0.61134421   -7.9847557    77.626536  0.015972538  0.015580462            4 
  406000   0.63077823   -8.0014744     77.73231  0.015954908  0.015532573            4 
  407000   0.61139547   -7.9842752    77.549949  0.015878368  0.015484643            4 
  408000   0.62254536   -8.0018155     77.76561  0.015883499  0.015436863            4 
  409000   0.60132223   -7.9960623     77.73569  0.015838568  0.015389375            5 
  410000    0.6139654   -7.9919755    77.673259  0.015787248  0.015342052            9 
  411000   0.60299726   -7.9990111    77.594067  0.015732779  0.015294911            3 
  412000   0.60753638   -8.0060836    77.723117  0.015720695  0.015247758            8 
  413000   0.59938113   -8.0092392    77.604604  0.015658717  0.015200663            4 
  414000   0.61119031   -8.0330846    77.615072  0.015623002  0.015153712            3 
  415000   0.60278691   -8.0299032    77.529015  0.015568075  0.015106812           13 
  416000   0.61220823   -8.0180538    77.722593   0.01556943  0.015060262            4 
  417000   0.59719768   -8.0166652    77.672471  0.015522077  0.015013695            4 
  418000   0.58287625   -8.0173242    77.477564  0.015446085  0.014967147            7 
  419000   0.60756428   -8.0251009    77.454466  0.015404627  0.014920707            3 
  420000   0.60993431   -8.0287541    77.672051  0.015411121  0.014874503            6 
  421000   0.59069224   -8.0313982    77.729925  0.015385971  0.014828428            5 
  422000   0.59682356   -8.0656425    77.688406  0.015341312  0.014782389            3 
  423000   0.58710166   -8.0373823    77.587515  0.015285168  0.014736746            4 
  424000   0.60137962   -8.0523307    77.655621  0.015262504  0.014691124            6 
  425000   0.58791569    -8.063667    77.691618  0.015233651   0.01464561            4 
  426000   0.58679907   -8.0689319    77.495829  0.015159591  0.014600232            3 
  427000   0.59005423   -8.0662569    77.567266   0.01513803  0.014554831            2 
  428000   0.59523549   -8.0496903    77.546187  0.015098557  0.014509656            2 
  429000   0.58537599   -8.0731541    77.574247  0.015068812   0.01446458            2 
  430000   0.57991567   -8.0705575    77.482516  0.015015992  0.014419668            4 
  431000   0.57607969    -8.072584    77.603316  0.015004508  0.014374787            2 
  432000   0.57599887   -8.0976925    77.378874   0.01492648  0.014330181            5 
  433000   0.57920575   -8.0806874    77.397949  0.014895679  0.014285537            6 
  434000   0.57782251   -8.0697145    77.505706  0.014882048  0.014241032            2 
  435000   0.56791406   -8.1206578    77.531115  0.014852704  0.014196579            3 
  436000   0.57363369   -8.1054046    77.469386   0.01480684  0.014152256            3 
  437000   0.57349252    -8.116454    77.475721  0.014774165  0.014108009            2 
  438000   0.56885891   -8.1134072     77.37857   0.01472195  0.014063959            3 
  439000   0.56921743   -8.0940115    77.414603  0.014695255  0.014020089            4 
  440000   0.55777252   -8.1273749    77.455923  0.014669682  0.013976383            4 
  441000   0.56198106   -8.1108513    77.493631  0.014643543  0.013932801            2 
  442000    0.5544465      -8.1375    77.443037  0.014600874  0.013889304            4 
  443000   0.54913701   -8.1387679    77.326621  0.014546016  0.013845861            4 
  444000    0.5605112   -8.1201599    77.361232  0.014519751  0.013802579            3 
  445000   0.55603875   -8.1304875    77.282243   0.01447233   0.01375941            6 
  446000   0.55137503   -8.1257929    77.334553  0.014449655  0.013716257            6 
  447000   0.55732452   -8.1301815    77.366258   0.01442324  0.013673265            6 
  448000    0.5626825   -8.1244206     77.35206  0.014388404  0.013630528            5 
  449000   0.55254488    -8.154412    77.246106  0.014336694  0.013587891            4 
  450000    0.5616655   -8.1274894    77.372548   0.01432825   0.01354545            3 
  451000   0.55253508   -8.1355656     77.22144  0.014268559  0.013503079            5 
  452000   0.55611875   -8.1419853    77.226542  0.014237932  0.013460874            2 
  453000   0.54100653   -8.1308168    77.214108  0.014204214  0.013418744            7 
  454000     0.544111   -8.1417919    77.323939  0.014193087  0.013376856            3 
  455000    0.5342486    -8.144988     77.34044  0.014164916  0.013335157            4 
  456000   0.54193848   -8.1455931    77.273927  0.014121697  0.013293586            4 
  457000   0.53590128   -8.1467007    77.293513  0.014094368  0.013252184            5 
  458000   0.54520369    -8.140229     77.30913  0.014066436  0.013210956            3 
  459000   0.54530997   -8.1562971    77.370208  0.014046879  0.013169747            3 
  460000   0.53369483   -8.1741493     77.25264  0.013995044  0.013128718            5 
  461000   0.51401727   -8.1682189    77.322868   0.01397738  0.013087774            3 
  462000   0.53104161   -8.1871309    77.281932  0.013939742  0.013047087            5 
  463000    0.5341788   -8.1871629    77.233836  0.013900978  0.013006435            3 
  464000    0.5262467   -8.1836148    77.199087  0.013864778  0.012965931            3 
  465000   0.51981707   -8.1689119    77.075752  0.013812859  0.012925575            4 
  466000   0.52317496   -8.1723043    77.265486  0.013817147  0.012885389            5 
  467000   0.52018006   -8.1793595    77.216312  0.013778785  0.012845293            2 
  468000   0.52194627   -8.1787968    77.336627  0.013770767  0.012805293            3 
  469000   0.52241108   -8.1861953    77.157625  0.013709599   0.01276544            4 
  470000   0.52113714   -8.1724721    77.103758  0.013670879  0.012725763            3 
  471000   0.52595432   -8.1831369    77.095503  0.013640393  0.012686164            5 
  472000   0.51785076   -8.1912751    77.147705  0.013620711  0.012646721            3 
  473000   0.50906242   -8.1962608    77.217192  0.013604156  0.012607401            4 
  474000   0.52730074   -8.1975388    77.069592  0.013549506  0.012568195            3 
  475000   0.51086167   -8.2027198     77.27611  0.013557212  0.012529152            3 
  476000   0.50445746   -8.2109685    77.225192  0.013519817   0.01249021            5 
  477000   0.51191562   -8.2119846    77.116634  0.013472508  0.012451438            3 
  478000   0.50636041   -8.2162161    77.170293  0.013453677  0.012412772            3 
  479000   0.50680261   -8.2145846    77.121981  0.013417185  0.012374258            4 
  480000   0.50014575   -8.2172873    77.040454  0.013375079  0.012335792            3 
  481000   0.50202009   -8.2104301    77.166012  0.013369025  0.012297519            4 
  482000   0.49696546   -8.2016115    77.177086  0.013343203  0.012259487            4 
  483000   0.49379591   -8.2237956    77.056428   0.01329476  0.012221444            4 
  484000   0.49352192   -8.2362704    77.069921  0.013269615  0.012183514            2 
  485000   0.48188671   -8.2207156    76.902696  0.013213522  0.012145715            2 
  486000   0.49443085   -8.2293402    76.896123  0.013185206  0.012108059            3 
  487000   0.48500747   -8.2217532    76.993983  0.013174877  0.012070536            3 
  488000   0.48112786   -8.2220559    76.862838  0.013125485  0.012033118            3 
  489000   0.48541082    -8.236014      76.9025  0.013105402  0.011995779            4 
  490000   0.48319978   -8.2357735    76.906483  0.013079334  0.011958549            3 
  491000    0.4703946   -8.2244912    77.010899  0.013070417  0.011921483            3 
  492000   0.47030609   -8.2501122    76.849719  0.013016551  0.011884583            4 
  493000    0.4850531   -8.2508959    76.990318  0.013013914  0.011847827            4 
  494000   0.48496293   -8.2494359    76.893613  0.012971257  0.011811212            4 
  495000   0.47897371   -8.2492597    76.893299     0.012945  0.011774717            7 
  496000   0.46836574   -8.2586938    76.972805  0.012932259  0.011738407            3 
  497000   0.47497151   -8.2621693    76.915764  0.012896674  0.011702264            6 
  498000   0.47182042   -8.2584728     76.80874  0.012852868  0.011666218            3 
  499000   0.46394112   -8.2570155    77.029255  0.012863937  0.011630365            3 
  500000   0.45888295   -8.2541154    76.803513  0.012800585  0.011594564            4 
  501000   0.45873891   -8.2725276    76.882381  0.012788154   0.01155892            6 
  502000   0.47905797   -8.2627122    76.874476  0.012761367  0.011523394            6 
  503000   0.46231608   -8.2637028    76.817377  0.012726537  0.011488018            8 
  504000    0.4556021   -8.2669823    76.933476  0.012720482  0.011452797            3 
  505000   0.46957544   -8.2781754    76.836252   0.01267925  0.011417628            4 
  506000    0.4513169   -8.2780517      76.8775  0.012660985   0.01138263            4 
  507000   0.44440039   -8.2977549    76.849893  0.012631475  0.011347758            5 
  508000   0.45267625   -8.2751256    76.779174  0.012595009  0.011313062            3 
  509000   0.44875206   -8.2833567    76.805718   0.01257461  0.011278507            6 
  510000   0.44535885   -8.3018147    76.801913  0.012549332  0.011244021            2 
  511000   0.45229244    -8.292031    76.820499  0.012527805  0.011209652            4 
  512000   0.45693613   -8.2915856    76.756597  0.012492936  0.011175446            5 
Loop time of 1163.58 on 48 procs for 500000 steps with 4000 atoms

Performance: 74253.686 tau/day, 429.709 timesteps/s
99.4% CPU use with 48 MPI tasks x no OpenMP threads

MPI task timing breakdown:
Section |  min time  |  avg time  |  max time  |%varavg| %total
---------------------------------------------------------------
Pair    | 69.992     | 75.376     | 80.311     |  23.7 |  6.48
Neigh   | 7.5185     | 7.7834     | 8.0791     |   5.0 |  0.67
Comm    | 72.767     | 78.438     | 84.213     |  27.9 |  6.74
Output  | 0.84555    | 0.846      | 0.85652    |   0.2 |  0.07
Modify  | 986.67     | 989.68     | 993.44     |   4.9 | 85.06
Other   |            | 11.45      |            |       |  0.98

Nlocal:        83.3333 ave          91 max          73 min
Histogram: 1 1 5 2 4 15 4 7 7 2
Nghost:        1953.15 ave        1969 max        1932 min
Histogram: 3 1 3 3 4 10 11 4 7 2
Neighs:        12427.1 ave       13937 max       11021 min
Histogram: 2 5 2 8 10 6 8 2 2 3
FullNghs:      24854.2 ave       27212 max       21359 min
Histogram: 1 1 2 4 7 10 7 6 4 6

Total # of neighbors = 1193002
Ave neighs/atom = 298.25050
Neighbor list builds = 26835
Dangerous builds = 0

#clear
#
#next RN
#
#jump SELF
Total wall time: 0:19:26
