
units lj                  # Use reduced LJ style units
atom_style atomic         # Uncharged point particles
atom_modify map hash      # Needed for indexing of clusters etc
                          # Used to be able to find where atoms are in relation to each other.

lattice fcc 1.0 spacing 1 1 1
Lattice spacing in x,y,z = 1.5874011 1.5874011 1.5874011
region box block 0 10 0 10 0 10 units lattice
create_box 2 box
Created orthogonal box = (0.0000000 0.0000000 0.0000000) to (15.874011 15.874011 15.874011)
  3 by 4 by 4 MPI processor grid
create_atoms 1 box
Created 4000 atoms
  using lattice units in orthogonal box = (0.0000000 0.0000000 0.0000000) to (15.874011 15.874011 15.874011)
  create_atoms CPU = 0.004 seconds
set type 1 type/fraction 2 0.76 78393
Setting atom values ...
  3028 settings made for type/fraction
mass 1 1.0
mass 2 1.0
pair_style lj/cut  3.5
pair_modify tail  yes
pair_coeff 1  1  1.0  1.0   # Intearaction between 1 and 1 set with epsilon = 1 and sigma = 1
pair_coeff 1  2  1.5  0.8
pair_coeff 2  2  0.5  0.88

write_data data.0
System init for write_data ...
Neighbor list info ...
  update every 1 steps, delay 10 steps, check yes
  max neighbors/atom: 2000, page size: 100000
  master list distance cutoff = 3.8
  ghost atom cutoff = 3.8
  binsize = 1.9, bins = 9 9 9
  1 neighbor lists, perpetual/occasional/extra = 1 0 0
  (1) pair lj/cut, perpetual
      attributes: half, newton on
      pair build: half/bin/atomonly/newton
      stencil: half/bin/3d
      bin: standard
WARNING: Not all mixed pair coeffs generated from mixing. Use write_data with 'pair ij' option to store all pair coeffs. (../write_data.cpp:312)


#############################
#   M E L T   S Y S T E M   #
#############################

velocity all create 2.4 6229865 mom yes dist gaussian # Assign velocities
                                                    # Temperature 2.4, random number seed, zero linear momentum
                                                                                # Gaussian distribution

timestep 0.002   # simulation timestep
thermo 1000       # output thermodynamic data every 1000 steps bf 100

# Define a fix  in this case with index 1 applied to all
# particles in the simulation. This fix is for simulations
# in the anisotropic NPT ensemble. Note that we use the MTK
# correction.
fix 1 all npt temp 2.4 2.4 0.1 iso 5.68 5.68 0.5 mtk yes tchain 5 pchain 5 # Use NPT ensemble
                                                                         # Set temperature and pressure and damping
                                                                         # Numbers of thermostats in chain and in barostat
run 10000          # run for 10000 steps
Per MPI rank memory allocation (min/avg/max) = 3.642 | 3.644 | 3.648 Mbytes
Step Temp E_pair E_mol TotEng Press Volume 
       0          2.4   -3.9031684            0  -0.30406845   -3.4881309         4000 
    1000    2.4145073   -3.3390038            0   0.28185168    5.9599231    3724.7476 
    2000    2.3888646   -3.3927506            0   0.18965044    5.4731977    3753.8829 
    3000    2.4159008   -3.3457014            0   0.27724373    5.8922344    3736.9693 
    4000    2.4064419   -3.3666906            0    0.2420698    5.9862725    3701.8125 
    5000    2.4217762   -3.4480791            0   0.18367711    5.4780994    3706.6719 
    6000    2.3709216   -3.3604684            0    0.1950249    5.9843198    3706.5558 
    7000    2.3930104    -3.409199            0   0.17941921    5.4002273    3736.9155 
    8000    2.3915271   -3.4477307            0   0.13866311    5.6229839    3694.3902 
    9000    2.3559501   -3.3813091            0   0.15173253    5.7215899     3708.964 
   10000     2.426723   -3.4076558            0   0.23151872     5.872812    3694.7487 
Loop time of 2.61778 on 48 procs for 10000 steps with 4000 atoms

Performance: 660100.947 tau/day, 3820.029 timesteps/s
99.6% CPU use with 48 MPI tasks x no OpenMP threads

MPI task timing breakdown:
Section |  min time  |  avg time  |  max time  |%varavg| %total
---------------------------------------------------------------
Pair    | 1.1921     | 1.2497     | 1.3715     |   3.1 | 47.74
Neigh   | 0.2165     | 0.22284    | 0.24407    |   0.9 |  8.51
Comm    | 0.75029    | 0.88364    | 0.94964    |   4.3 | 33.76
Output  | 0.00025729 | 0.00026188 | 0.00033056 |   0.0 |  0.01
Modify  | 0.21801    | 0.24553    | 0.27454    |   3.3 |  9.38
Other   |            | 0.01577    |            |       |  0.60

Nlocal:        83.3333 ave          93 max          74 min
Histogram: 3 4 4 6 5 8 10 2 4 2
Nghost:        1731.12 ave        1757 max        1707 min
Histogram: 2 3 7 5 9 7 4 5 5 1
Neighs:        10330.2 ave       11804 max        9142 min
Histogram: 7 1 3 12 6 7 4 4 1 3

Total # of neighbors = 495849
Ave neighs/atom = 123.96225
Neighbor list builds = 903
Dangerous builds = 174

# Equilibrate just above the melting temperature to avoid step fn in T

fix 1 all npt temp 1.25 1.25 0.1 iso 5.68 5.68 0.5 mtk yes tchain 5 pchain 5
run 2000
Per MPI rank memory allocation (min/avg/max) = 3.644 | 3.646 | 3.649 Mbytes
Step Temp E_pair E_mol TotEng Press Volume 
   10000     2.426723   -3.4076558            0   0.23151872     5.872812    3694.7487 
   11000    1.2502502   -5.0323136            0   -3.1574072    5.6169975    2840.4365 
   12000    1.2433142   -5.0942915            0   -3.2297863    5.6331324    2813.2454 
Loop time of 0.652902 on 48 procs for 2000 steps with 4000 atoms

Performance: 529329.363 tau/day, 3063.249 timesteps/s
99.6% CPU use with 48 MPI tasks x no OpenMP threads

MPI task timing breakdown:
Section |  min time  |  avg time  |  max time  |%varavg| %total
---------------------------------------------------------------
Pair    | 0.2988     | 0.32183    | 0.36058    |   2.1 | 49.29
Neigh   | 0.041741   | 0.044155   | 0.048972   |   0.6 |  6.76
Comm    | 0.19446    | 0.23685    | 0.26506    |   2.8 | 36.28
Output  | 5.2152e-05 | 5.3673e-05 | 6.8376e-05 |   0.0 |  0.01
Modify  | 0.040297   | 0.045097   | 0.04918    |   1.2 |  6.91
Other   |            | 0.004919   |            |       |  0.75

Nlocal:        83.3333 ave          89 max          74 min
Histogram: 1 0 1 2 10 6 11 5 6 6
Nghost:        2086.92 ave        2109 max        2063 min
Histogram: 4 3 2 3 7 10 8 7 3 1
Neighs:        13569.0 ave       14844 max       12364 min
Histogram: 3 5 6 8 2 6 6 6 3 3

Total # of neighbors = 651310
Ave neighs/atom = 162.82750
Neighbor list builds = 144
Dangerous builds = 13

#############################
# L I N E A R  Q U E N C H  #
#############################

# Define solid atoms. This closely follows ten Wolde  Ruiz-Montero and Frenkel  Faraday Discuss  1996  104  93-110
# Compute components of the per-atom q6 vector
compute q6 all orientorder/atom degrees 1 6 components 6 nnn NULL cutoff 1.3 # compute the Q6 parameter.
                                                                             # Use all neighbours within 1.3 unit cell.

# get number of connections
compute coord_number all coord/atom orientorder q6 0.5

# An atom is solid if it has 8 or more connections (of a possible 14)
variable is_solid atom c_coord_number>=8
group solid dynamic all var is_solid    # Must be dynamic to update
dynamic group solid defined

# do clustering
compute cluster solid cluster/atom 1.3 # Create a cluster where all atoms within are solid and max 1.3 units from another member

# define chunks one chunk per cluster
compute clus_chunks solid chunk/atom c_cluster nchunk every compress yes  # Says which atoms are in which chunk

# count the size of each chunk
compute size_chunks solid property/chunk clus_chunks count


# Find the maximum entry in the vector of chunk sizes
variable max_n equal max(c_size_chunks)


# Thermo style which includes this variable
# thermo_style custom step temp pe vol v_max_n

thermo ${N}  # Print the thermo information every 100 steps
thermo 1000  

# Reset the npt fix at a lower temperature (below freezing)
fix 1  all npt temp  ${temp} ${temp}  0.1  iso  5.68  5.68  0.5  mtk yes tchain  5  pchain  5
fix 1  all npt temp  0.45 ${temp}  0.1  iso  5.68  5.68  0.5  mtk yes tchain  5  pchain  5
fix 1  all npt temp  0.45 0.45  0.1  iso  5.68  5.68  0.5  mtk yes tchain  5  pchain  5

dump dmp2 all dcd ${N} traj.dcd
dump dmp2 all dcd 1000 traj.dcd


compute msd all msd com yes
variable twopoint equal c_msd[4]/6/(step*dt+1.0e-6)
fix 9 all vector 10 c_msd[4]
variable fit equal slope(f_9)/6/(10*dt)
thermo_style custom step temp pe c_msd[4] v_twopoint v_fit v_max_n

fix 1 all npt temp 1.25 ${temp} 0.1 iso 5.68 5.68 0.5 mtk yes tchain 5 pchain 5
fix 1 all npt temp 1.25 0.45 0.1 iso 5.68 5.68 0.5 mtk yes tchain 5 pchain 5
run 500000 # 5000000  # Run for this many steps
Neighbor list info ...
  update every 1 steps, delay 10 steps, check yes
  max neighbors/atom: 2000, page size: 100000
  master list distance cutoff = 3.8
  ghost atom cutoff = 3.8
  binsize = 1.9, bins = 8 8 8
  4 neighbor lists, perpetual/occasional/extra = 1 3 0
  (1) pair lj/cut, perpetual
      attributes: half, newton on
      pair build: half/bin/atomonly/newton
      stencil: half/bin/3d
      bin: standard
  (2) compute orientorder/atom, occasional
      attributes: full, newton on
      pair build: full/bin/atomonly
      stencil: full/bin/3d
      bin: standard
  (3) compute coord/atom, occasional
      attributes: full, newton on
      pair build: full/bin/atomonly
      stencil: full/bin/3d
      bin: standard
  (4) compute cluster/atom, occasional
      attributes: full, newton on
      pair build: full/bin/atomonly
      stencil: full/bin/3d
      bin: standard
Per MPI rank memory allocation (min/avg/max) = 9.842 | 9.848 | 9.853 Mbytes
Step Temp PotEng c_msd[4] v_twopoint v_fit v_max_n 
   12000    1.2433142   -5.0942915 8.5078649e-31 5.9082392e-33 8.3333333e+20            3 
   13000    1.2274834   -5.0121367   0.70421198 0.0045141792   0.05966219            2 
   14000    1.2290901   -4.9757732     1.391361 0.0082819107  0.058008437            2 
   15000    1.2513797   -5.0245019    2.1522385   0.01195688  0.058992014            3 
   16000    1.2212296   -5.0237437    2.9060388  0.015135618  0.060155914            5 
   17000    1.2271832   -5.0282651    3.6426398  0.017856077  0.060997219            1 
   18000    1.2243637   -5.0343966    4.3171167  0.019986651   0.06104826            1 
   19000    1.2255165   -5.0800065    5.0149335  0.021995322  0.060578859            2 
   20000    1.2365448    -5.046645     5.682147  0.023675612  0.060053127            2 
   21000    1.2310443    -5.073853    6.4133572   0.02544983  0.059626224            3 
   22000    1.2541369   -5.1003667    7.1338659  0.027022219  0.059547338            4 
   23000    1.2143845   -5.0815887    7.7987145  0.028256211  0.059423329            2 
   24000    1.2280239   -5.0474256    8.4796136  0.029443102  0.059171636            2 
   25000    1.2490801   -5.0720944    9.1643389  0.030547796  0.058941568            5 
   26000     1.228143   -5.0556598     9.977587  0.031979445  0.058978941            4 
   27000    1.2164002    -5.054579    10.551199   0.03256543  0.058925341            2 
   28000    1.2031367   -5.0509357    11.078849  0.032972764  0.058585232            2 
   29000    1.2249099   -5.0685555    11.698084  0.033615185  0.058166035            4 
   30000    1.2238353   -5.1412462    12.301626  0.034171182  0.057730869            3 
   31000    1.2369976   -5.0947698    12.852129  0.034548733  0.057337631            3 
   32000    1.1966469    -5.027368    13.585167  0.035378039  0.056943748            3 
   33000    1.1970533   -5.0590079    14.317302  0.036154802  0.056580312            5 
   34000    1.1935919   -5.0988302    14.770701  0.036202697  0.056298603            2 
   35000    1.2330289   -5.0752383    15.529161  0.036974193  0.056030109            3 
   36000    1.1997284     -5.07814    16.257411  0.037632896  0.055910998            3 
   37000    1.2092396    -5.103527    16.932792  0.038136918  0.055820669            2 
   38000    1.1999965   -5.0821835    17.518841   0.03841851  0.055729136            4 
   39000    1.2174014   -5.0802732    18.231887  0.038957024  0.055629341            9 
   40000    1.2122911   -5.0698167    18.929547  0.039436556  0.055567963            1 
   41000    1.1932245   -5.1339506     19.46299  0.039558921  0.055508112            3 
   42000    1.1982477   -5.1477877    20.221068  0.040121166  0.055424034            1 
   43000    1.1935282   -5.1207196    20.813917  0.040337047  0.055395052            1 
   44000    1.2157359   -5.1099543     21.54718  0.040809053  0.055372141            1 
   45000    1.2018666   -5.0680646    22.309249  0.041313423  0.055376052            2 
   46000    1.2312753   -5.1319338    23.012966  0.041690156  0.055398853            3 
   47000    1.1825586   -5.1543951    23.462711  0.041600551  0.055406136            1 
   48000    1.2247176   -5.1018653    24.218754  0.042046447  0.055373813            3 
   49000    1.2004579   -5.1564716    24.684009  0.041979606  0.055345761            3 
   50000    1.1958855   -5.1347086    25.471945  0.042453241  0.055342906            4 
   51000    1.1736931   -5.1416695    25.996725  0.042478309  0.055269401            1 
   52000      1.21878   -5.1330018    26.521146  0.042501836  0.055174807            3 
   53000    1.1900333   -5.1274799    27.109417  0.042624869  0.055070024            1 
   54000    1.1963653   -5.1201506    27.704142  0.042753305  0.054961935            3 
   55000    1.1868388   -5.1639793    28.315492  0.042902261  0.054828132            7 
   56000     1.195127   -5.1349736     28.97379  0.043115758  0.054728255            4 
   57000    1.1735783   -5.1273164    29.625434  0.043312038  0.054646975            1 
   58000    1.1852012   -5.1840578    30.207086  0.043400986  0.054586883            2 
   59000    1.1851077    -5.189018    30.782715  0.043478411  0.054500564            2 
   60000     1.186298   -5.2140264    31.397537   0.04360769  0.054418567            2 
   61000    1.1768657   -5.1612253    32.113896  0.043871442  0.054332723            1 
   62000    1.1697929   -5.1794806    32.692151  0.043941063  0.054246505            4 
   63000    1.1781582   -5.2106959    33.009205  0.043662969  0.054138779            5 
   64000    1.1730403   -5.2095985    33.558933  0.043696528  0.054017386            2 
   65000    1.1573026   -5.1634988    34.278873  0.043947273  0.053906437            1 
   66000    1.1903586   -5.1817347    34.855807  0.044009857  0.053795583            2 
   67000    1.1626034   -5.1841102    35.315845   0.04392518  0.053677045            5 
   68000    1.1821619    -5.176267    35.894188  0.043987975  0.053563808            2 
   69000    1.1366674   -5.2096356    36.368741    0.0439236  0.053434947            3 
   70000    1.1575787   -5.2438521    36.802274  0.043812231  0.053291203            4 
   71000    1.1439946   -5.1857027    37.452085  0.043957846  0.053143258            1 
   72000    1.1523877   -5.2243843    37.977243  0.043955142  0.053005673            2 
   73000    1.1740458   -5.2160007    38.596364  0.044059776  0.052880867            4 
   74000    1.1669629   -5.2359465    38.945289  0.043857307  0.052750981            3 
   75000    1.1704449   -5.2050455    39.607968  0.044008853  0.052612194            2 
   76000    1.1488084   -5.2100279    39.999519  0.043859121  0.052464161            7 
   77000    1.1423714   -5.1866397     40.56893  0.043905768   0.05231656            2 
   78000     1.149015   -5.2083338    41.167223  0.043982075  0.052174352            4 
   79000     1.157294   -5.2262042    41.531524  0.043809624  0.052040971            2 
   80000      1.12486   -5.1942533    42.174165  0.043931421  0.051897128            2 
   81000    1.1417095   -5.2641977    42.605019  0.043832324  0.051756323            2 
   82000    1.1400158   -5.2335826    43.198702   0.04390112  0.051615801            3 
   83000    1.1464148   -5.2651797    43.802307  0.043978219  0.051495777            2 
   84000    1.1142883   -5.2489277    44.501666  0.044148478  0.051382084            3 
   85000    1.1207986   -5.2596645    45.135543  0.044250532  0.051272309            3 
   86000    1.1088044   -5.2203365    45.705395  0.044288174   0.05117611            1 
   87000    1.1268464   -5.2620746    46.412656  0.044456567  0.051081526            2 
   88000    1.1494502   -5.2808524    47.037403  0.044542995   0.05100889            3 
   89000    1.1286195   -5.2469021    47.761509  0.044720514  0.050944633            3 
   90000    1.1097673   -5.2450038    48.261564  0.044686633  0.050881246            3 
   91000    1.1028964   -5.3025148    48.654692  0.044555579  0.050817333            1 
   92000    1.1276939   -5.2264793    49.389593   0.04473695  0.050751434            3 
   93000    1.1407626   -5.2841429    49.559386  0.044408052  0.050679265            2 
   94000     1.114527   -5.3150508    49.878043  0.044218123  0.050590635            2 
   95000    1.1298057   -5.2724723    51.035055  0.044767592  0.050501847            3 
   96000    1.1114236   -5.3054748    51.268464  0.044503875  0.050428572            3 
   97000    1.0971793   -5.3059616    51.998136  0.044671938  0.050358125            4 
   98000    1.1189482   -5.3035861    52.553316  0.044688193   0.05029441            2 
   99000     1.115896   -5.3126684    53.155434  0.044743631  0.050235277            2 
  100000    1.1181406   -5.3034831    53.691748  0.044743123  0.050178399            6 
  101000     1.096236    -5.311168    54.437191  0.044915174  0.050129281            5 
  102000    1.1034908   -5.3142648    54.902882  0.044855295  0.050081975            3 
  103000    1.0829844    -5.305539    55.463043  0.044873012  0.050024962            1 
  104000    1.0751049   -5.3160929    55.413529  0.044401866  0.049961703            6 
  105000    1.0767159   -5.3741537     56.03578  0.044472841  0.049896331            3 
  106000    1.0893931   -5.3109269    56.669872  0.044551786  0.049831445            3 
  107000    1.0699301   -5.2851836    57.325773   0.04464624  0.049759305            4 
  108000    1.1078527   -5.3360253    57.594189  0.044439961   0.04968651            7 
  109000    1.0702336   -5.3324329    58.178276  0.044478804  0.049607668            4 
  110000    1.1185628   -5.3535821    58.502775  0.044320284  0.049521738            2 
  111000    1.0639589    -5.296852    58.869487  0.044196312  0.049436664            1 
  112000    1.1012549   -5.2910914    59.600146  0.044345346  0.049350485            3 
  113000    1.0879701   -5.3470362    59.929727  0.044195963  0.049263965            3 
  114000    1.0917128   -5.3288975    60.317026  0.044091393  0.049178793            2 
  115000      1.06562   -5.3217687    61.029275  0.044224112  0.049096181            2 
  116000     1.073995   -5.3320873    61.434713  0.044134133  0.049010176            2 
  117000    1.0939465   -5.3569326    61.528306  0.043823579  0.048922948            2 
  118000    1.0741306   -5.3064059     62.21902  0.043939986  0.048826751            2 
  119000     1.081008   -5.3298427    62.824771  0.043994937  0.048740471            4 
  120000    1.0792446   -5.3434049    62.980699  0.043736597  0.048650715            3 
  121000    1.0871795   -5.3559653    63.366849   0.04364108  0.048551947            2 
  122000    1.0546969   -5.3524639    63.620344  0.043456519  0.048450147            2 
  123000    1.0876959    -5.384242    64.079021   0.04341397    0.0483472            4 
  124000    1.0545791   -5.3471888    64.711965  0.043489224   0.04824334            2 
  125000    1.0805067   -5.3767856    65.133801  0.043422533  0.048137464            3 
  126000    1.0765595   -5.3493423     65.76232  0.043493598  0.048039005            7 
  127000    1.0684499   -5.3634602    66.129565  0.043392103  0.047939941            2 
  128000    1.0739548   -5.3785988    66.485763  0.043285002  0.047845149            3 
  129000    1.0534309   -5.3889243    67.187554  0.043402813  0.047754671            3 
  130000    1.0425608   -5.4021166     67.49306  0.043264782  0.047655658            4 
  131000    1.0549232   -5.4190484    67.784811  0.043120109   0.04755802            2 
  132000     1.074901   -5.3853314     67.92135   0.04287964  0.047451128            2 
  133000    1.0438552   -5.4409411    68.125459  0.042685125   0.04734437            5 
  134000    1.0777479   -5.4258506    68.281731  0.042463763  0.047228877            6 
  135000    1.0391982   -5.3875722    69.385435  0.042830515  0.047113474            3 
  136000    1.0555577   -5.4224332    69.486538  0.042577535  0.047002964            4 
  137000    1.0824635   -5.4128078    70.183464  0.042690671  0.046895914            3 
  138000    1.0600128   -5.4522008    70.258568  0.042426672  0.046792272            3 
  139000    1.0363772   -5.4261729    70.946284  0.042533743  0.046689524            4 
  140000     1.052647   -5.4476086    71.569722  0.042601025  0.046592631            3 
  141000    1.0517494   -5.4276499    72.080739  0.042600909  0.046498074            4 
  142000    1.0386217   -5.4495238    72.544311  0.042572952  0.046406996            5 
  143000    1.0512604   -5.4925511    73.092007   0.04259441  0.046318595            3 
  144000    1.0440779   -5.4481264    73.499418  0.042534385  0.046228342            6 
  145000    1.0213498   -5.4857719    73.819218  0.042424838  0.046139982            6 
  146000    1.0552537   -5.4668626    74.236762  0.042372581  0.046048254            1 
  147000    1.0610289   -5.4568177    74.769187   0.04238616  0.045958949            3 
  148000     1.029197   -5.4649993    75.271823  0.042382783   0.04587023            4 
  149000    1.0141247   -5.4956968    75.520911  0.042237646  0.045782727            5 
  150000    1.0253409    -5.455141    75.957401  0.042198556   0.04569856            2 
  151000    1.0365114   -5.4870213     76.41401  0.042171087  0.045616161            2 
  152000    1.0079838   -5.4677939     77.04158  0.042237708  0.045527127            4 
  153000    1.0523657   -5.4415572    77.255151  0.042077969  0.045436949            3 
  154000    1.0469134   -5.4616354     77.60724   0.04199526  0.045346678            4 
  155000    1.0186736   -5.4946345    78.136782  0.042009023  0.045260344            5 
  156000    1.0270697   -5.5108966    77.999379  0.041666335  0.045174164            4 
  157000    1.0107604   -5.4690396    78.895566  0.041876627   0.04508322            3 
  158000    1.0165317   -5.4638787    79.418839  0.041887573   0.04499322            5 
  159000    1.0061561   -5.4979987    79.351614  0.041588896  0.044903785            3 
  160000    1.0211357   -5.5116418    79.605027  0.041460951  0.044812224            4 
  161000    1.0044688   -5.4722921    80.389708  0.041609579  0.044721343            5 
  162000    1.0131987   -5.5225135    80.707509  0.041516208  0.044631555            4 
  163000    1.0249512   -5.5105309    81.004627  0.041413408  0.044544615            2 
  164000    1.0054926   -5.5098537    81.501174  0.041413198  0.044456058            4 
  165000    1.0044424    -5.529231     81.70865  0.041266995  0.044366179            4 
  166000   0.99524872   -5.4990463    82.358913  0.041344836  0.044279314            2 
  167000    1.0189998   -5.5059564    82.657134  0.041246075  0.044195835            4 
  168000    1.0173584   -5.5213175    83.102633  0.041221544  0.044111731            2 
  169000    1.0138801   -5.5280576     83.19942  0.041025355  0.044025714            2 
  170000   0.97602381   -5.5207838    83.506015  0.040934321  0.043936069            5 
  171000    0.9924466   -5.5209416     83.65438  0.040767242  0.043840984            3 
  172000    1.0013396   -5.5427446    83.632907  0.040519819     0.043744            4 
  173000   0.97553325   -5.5353313    84.276282  0.040595512  0.043651103            9 
  174000   0.99646623   -5.5532802    84.832084  0.040628392  0.043560185            2 
  175000   0.99073209   -5.5679639    84.865641   0.04041221  0.043469039            2 
  176000   0.99860229   -5.5619663    85.002435  0.040247365  0.043373212            4 
  177000    0.9654639   -5.5530021    85.545739  0.040275772  0.043277145            3 
  178000   0.95791297   -5.5377239     85.92105  0.040225211  0.043180673            6 
  179000   0.98493318   -5.5646101    86.246417  0.040151963  0.043084818            3 
  180000   0.98338344   -5.5467389    86.576578  0.040081749  0.042988227            5 
  181000   0.97392612   -5.5771282    86.531679  0.039839631   0.04289065            2 
  182000   0.97635717   -5.5886167    87.190896  0.039922572  0.042792178            4 
  183000   0.96620855   -5.5894937    87.553925  0.039869729  0.042697586            3 
  184000   0.96737108   -5.5649169    88.136319  0.039916811    0.0426027            3 
  185000   0.98552283    -5.546439    88.463678  0.039848503  0.042510874            4 
  186000   0.95203514   -5.5788265    88.731571  0.039754288   0.04241867            7 
  187000   0.97165763   -5.5621801    89.234049  0.039765619  0.042326879            3 
  188000   0.95082865   -5.5806991    89.125879  0.039506152  0.042231943            8 
  189000   0.95992429   -5.5883632    89.450228  0.039440136  0.042135931            4 
  190000   0.98708028   -5.6137533    89.393845  0.039207827  0.042038206            2 
  191000   0.93840535   -5.5882236    89.806342  0.039182523  0.041938889            4 
  192000   0.95844689   -5.6170461    90.099621  0.039105738  0.041841211            2 
  193000   0.96715934   -5.6087628    90.118953  0.038911465  0.041740926            2 
  194000   0.93513896   -5.5928789    90.759046  0.038985844  0.041639467            3 
  195000   0.97443962    -5.581359    91.463701  0.039087051  0.041543932            5 
  196000   0.96566781   -5.6312774     91.30932   0.03882199  0.041448221            4 
  197000   0.95162114   -5.5797066    91.905332  0.038877044  0.041352148            2 
  198000   0.93644546   -5.6321878    92.611638  0.038977962  0.041260473            6 
  199000   0.97064176   -5.6080004    92.823359  0.038870753   0.04117004            3 
  200000   0.95722172   -5.6053262    92.787505   0.03866146  0.041079879            5 
  201000   0.94138653   -5.6114308    93.047978  0.038577105  0.040987418            4 
  202000   0.95081615   -5.6591924    92.718905  0.038250373  0.040891811            2 
  203000    0.9493972   -5.6068672    93.067299  0.038204967  0.040793982            5 
  204000    0.9486759   -5.6277957    93.767877  0.038303871  0.040698613            5 
  205000   0.94918037    -5.644273    94.192813  0.038289761  0.040604798            4 
  206000   0.94699237   -5.6486206    94.205621   0.03810907   0.04050964            4 
  207000   0.92061955   -5.6603819    94.418192  0.038010544  0.040414313            7 
  208000   0.94815247   -5.6894204    94.892141  0.038017685  0.040318229            5 
  209000    0.9392043   -5.6502146    95.632163  0.038130846  0.040225382            4 
  210000   0.92793748   -5.6950074    95.687182  0.037971104  0.040135455            4 
  211000   0.91125666   -5.6629192    95.700015  0.037796214  0.040044274            4 
  212000   0.94210117   -5.6922408    96.293506  0.037851221  0.039953523            2 
  213000   0.91852247   -5.6823471    96.528259  0.037765359  0.039861987            6 
  214000   0.94624125   -5.6665672    96.654639  0.037638099  0.039771286            4 
  215000   0.93367346   -5.7016331    97.096904  0.037634459  0.039680361            3 
  216000   0.92249361   -5.6802528    97.386196  0.037571835   0.03959134            6 
  217000    0.9384319   -5.6757221    97.812016  0.037562218  0.039504279            4 
  218000   0.92194264   -5.7387153    97.555759  0.037291957  0.039415993            3 
  219000   0.92968338   -5.6880799    97.973637  0.037280684  0.039325098            4 
  220000   0.92682973   -5.7209089    97.880405  0.037075911  0.039233376            7 
  221000   0.90655695   -5.7224945     98.48058  0.037134457  0.039141482            3 
  222000   0.90757216    -5.685025    98.669273  0.037038015  0.039050841            3 
  223000   0.91122299   -5.7394485    98.392594  0.036768533  0.038956561            5 
  224000   0.88881764   -5.7013746    98.749186  0.036737048  0.038861399            2 
  225000   0.90943581   -5.7365795    98.810696  0.036596554  0.038767205           10 
  226000   0.90360308   -5.7372822    99.034008  0.036516964  0.038671756            6 
  227000   0.90522879   -5.7138515    99.303983  0.036455207  0.038575356            7 
  228000   0.90410268   -5.7364509    99.615931  0.036409331  0.038477671            8 
  229000    0.9094893   -5.7227762    99.840876  0.036332196  0.038380576            2 
  230000   0.89101444   -5.7233627    100.26407   0.03632756  0.038284753            4 
  231000   0.90258048   -5.7511255    100.22204  0.036155138  0.038188712            6 
  232000   0.91950327   -5.7471079    100.55978  0.036120611  0.038094007            4 
  233000   0.88247107   -5.7597235    100.66252  0.036002332  0.037999603            4 
  234000   0.89259742   -5.7750532    100.87534  0.035924266  0.037906817            3 
  235000   0.87845774   -5.7710225    101.23151  0.035897699  0.037813278            5 
  236000   0.88281846   -5.7812581    101.32471  0.035778498  0.037718433            8 
  237000    0.8852557   -5.7547199    101.48217    0.0356829   0.03762403            8 
  238000   0.89269707   -5.7813654    101.56631  0.035562432   0.03752868            5 
  239000   0.89300042   -5.7762698     101.5935  0.035423118  0.037432061           18 
  240000   0.89843019   -5.7752627    102.14312  0.035466362  0.037334128           10 
  241000   0.88903486   -5.7644342    102.28291  0.035367536  0.037237307            1 
  242000   0.90221126   -5.7950023    102.02895  0.035133937  0.037139357           10 
  243000   0.86653489   -5.8056452     102.5116  0.035154868  0.037042275            4 
  244000   0.88533829   -5.7947417    102.53826  0.035019897  0.036945514            6 
  245000   0.88509992   -5.7671937    102.67196  0.034922434  0.036848487            6 
  246000   0.86975797   -5.8153789    102.75854  0.034809803  0.036750638            4 
  247000   0.86847727   -5.8085438    103.05496  0.034768879  0.036653193            2 
  248000   0.85551252   -5.7814956    103.47505  0.034769843   0.03655664            8 
  249000   0.86549867   -5.8290555    103.16764  0.034527321  0.036460049            3 
  250000   0.88548135   -5.8204485    103.69103  0.034563676  0.036364151            6 
  251000   0.87790106   -5.8170758    103.53664  0.034374713  0.036267168            9 
  252000   0.85683087   -5.8405624    104.04477   0.03440634  0.036170219            9 
  253000   0.86551755   -5.8290573    104.16647  0.034310431  0.036072364            6 
  254000   0.86419722   -5.8316767    104.18707  0.034182109  0.035975651            7 
  255000   0.85468005   -5.8502156    104.20589  0.034054213  0.035878377            6 
  256000   0.85150565    -5.833496    104.57395     0.034041  0.035781356            7 
  257000   0.85731346   -5.8603951     104.9716  0.034037483  0.035684835            5 
  258000   0.84617422   -5.8550922    105.09224  0.033944522  0.035588674            5 
  259000   0.84911808   -5.8467418     104.9867  0.033779503  0.035493286            9 
  260000   0.84757785   -5.8806163    105.25794  0.033736519  0.035397083           12 
  261000   0.85058749   -5.8644863    105.53569  0.033695942  0.035301709            3 
  262000   0.86296276   -5.8706105    105.70308  0.033620573  0.035207402           10 
  263000   0.87602868   -5.9101688    105.62046  0.033466557  0.035112698            3 
  264000   0.85847307   -5.8591156    105.90155  0.033428518  0.035018176            4 
  265000   0.82840925   -5.8659579    106.21735  0.033401683  0.034923687            5 
  266000    0.8435135   -5.8862728    106.29062  0.033299068  0.034829564            5 
  267000   0.84336462   -5.8528296    106.00662  0.033085711  0.034734725            6 
  268000   0.83561108   -5.8759217    106.45534  0.033101786  0.034639465            3 
  269000   0.84568886   -5.8676428    106.64074  0.033036165  0.034543947            6 
  270000   0.84078317   -5.8949619    106.48644  0.032866186  0.034448147            5 
  271000   0.84255226   -5.8779619    106.69195  0.032808103  0.034351294            7 
  272000    0.8275242   -5.8957123    107.14641   0.03282672  0.034255725            6 
  273000   0.82349512    -5.926933    106.65856  0.032557557  0.034159866            9 
  274000   0.82813093   -5.9091244    106.88322  0.032507063  0.034063599            3 
  275000   0.85541085   -5.9160132     107.2575  0.032502273  0.033968442            7 
  276000   0.83007577   -5.9238646    107.17971  0.032361025  0.033873457            5 
  277000   0.82919174   -5.9640244    107.35337   0.03229644  0.033777819            4 
  278000   0.83332467    -5.931928    107.43663  0.032205226  0.033683422           10 
  279000    0.8340421   -5.9528826    107.59927  0.032138373  0.033589616            8 
  280000   0.81646074   -5.9172432    108.13357  0.032182609  0.033495808            3 
  281000   0.81837228   -5.9219437    107.76854  0.031959828  0.033402021            7 
  282000   0.81790862   -5.9384254    107.95319  0.031901061  0.033307311            5 
  283000   0.82059575   -5.9219292    108.11924  0.031837231   0.03321252            6 
  284000   0.80674535   -5.9523335    108.24489  0.031761999  0.033118388           14 
  285000   0.80689679   -5.9431535    108.68195  0.031778349  0.033025676            5 
  286000   0.81700223   -5.9607898    108.42709  0.031592975  0.032933033           16 
  287000   0.82899012   -5.9395769    108.81784  0.031596354  0.032841482           11 
  288000   0.81924251   -5.9694238    108.85119  0.031496293  0.032749304           10 
  289000   0.79874023   -5.9660986    109.26908  0.031507809  0.032657833            4 
  290000   0.79490191   -5.9757608    109.21592  0.031383885  0.032567517           10 
  291000   0.78903633   -5.9624499    109.40461  0.031330073  0.032476337            9 
  292000   0.79265431    -5.992624    109.16795  0.031155238  0.032384751            6 
  293000   0.79898184   -6.0016378    109.32649  0.031093995  0.032293244            6 
  294000   0.80349238   -5.9886211    109.77459  0.031115246  0.032202791           12 
  295000   0.81319643   -5.9670554    109.57647  0.030953805  0.032111753            5 
  296000   0.80475367   -5.9923679    109.74043  0.030895391  0.032021212            6 
  297000   0.78889904   -5.9990714       109.93  0.030844557   0.03193067           13 
  298000   0.78929729   -5.9842056     110.0332  0.030769909  0.031841157            5 
  299000   0.77858869   -5.9890387    109.97476  0.030650713  0.031751585            6 
  300000   0.80062202   -6.0005337    110.24652  0.030624032  0.031662683            3 
  301000   0.76977135   -6.0401773    110.08895  0.030478669  0.031573962           14 
  302000   0.77468798   -6.0001972    110.64251  0.030530494  0.031485686            8 
  303000   0.78360155   -5.9956772    110.49959  0.030390428  0.031397153            8 
  304000   0.78064102   -6.0332165    110.73782  0.030355762  0.031308732            3 
  305000   0.77197548   -6.0073102    110.91178  0.030303764  0.031220592           13 
  306000   0.77700342   -6.0168325    110.93664  0.030211502  0.031132061            9 
  307000   0.79483188   -6.0394941    111.05318  0.030144729  0.031044149            9 
  308000   0.77679502   -6.0452645    110.96184  0.030022142   0.03095613            6 
  309000   0.78442731   -6.0569668     111.4646  0.030060571  0.030868356            7 
  310000   0.76326392   -6.0906759    111.11175  0.029868751  0.030780595           10 
  311000   0.77920887   -6.0743796    110.83503  0.029698562  0.030692629           11 
  312000   0.76333328   -6.0815459     110.8183  0.029598905  0.030603935            9 
  313000   0.74782776    -6.079966    111.07598  0.029572945  0.030515271            8 
  314000   0.77001446   -6.0535615    111.36478  0.029555408  0.030427532            7 
  315000   0.77411058   -6.0956755    111.39863  0.029470536   0.03034018            5 
  316000   0.77300507   -6.1074855    111.27881  0.029345678  0.030251308           11 
  317000   0.75452459   -6.0554162    111.90509  0.029417743  0.030163217            7 
  318000   0.78403469   -6.0651925    111.74895  0.029284315  0.030076186            6 
  319000    0.7442599   -6.0649627    111.61114  0.029156514  0.029988973            8 
  320000   0.76373969   -6.0598684    111.74466  0.029100173  0.029901769            9 
  321000    0.7553596   -6.0656067    111.85502  0.029038168  0.029814207            7 
  322000   0.75007941   -6.0758911    111.66548  0.028898934  0.029727243            4 
  323000   0.74493377    -6.098235    111.57375  0.028785796  0.029640312           24 
  324000   0.75066734   -6.0819902    111.80065  0.028755311  0.029553093           13 
  325000   0.73372229   -6.1010358    111.75073  0.028654033  0.029465912           11 
  326000   0.74630594   -6.0875765    112.02573  0.028636434   0.02937866            8 
  327000   0.75240176   -6.1282092    111.84124  0.028501844  0.029291824            8 
  328000    0.7378188   -6.1325336     111.9804  0.028450306  0.029204389           10 
  329000   0.74880917   -6.1110697    112.17344  0.028412726  0.029117569            7 
  330000   0.74614042   -6.1416855    111.95184  0.028270667  0.029030954           13 
  331000   0.73178144   -6.1457331    112.07944  0.028217381  0.028944654            8 
  332000   0.74735978   -6.1429881    111.97731  0.028106755  0.028858017           12 
  333000   0.72842021   -6.1560504    112.13361  0.028061465  0.028771383           11 
  334000   0.72586009   -6.1380879    112.06299  0.027959829   0.02868445            7 
  335000   0.73420101    -6.151361    112.18341  0.027906321  0.028597908            7 
  336000   0.72736534   -6.1306547    112.37997  0.027872016  0.028512752            5 
  337000   0.74194531   -6.1214677    112.54522  0.027830173  0.028427782           15 
  338000   0.72035368   -6.1601476    112.49877  0.027736382  0.028342795            7 
  339000   0.72314987   -6.1707768     112.2493  0.027593239  0.028257081           11 
  340000   0.71837581   -6.1706225    112.42343  0.027554762  0.028171683           12 
  341000   0.73018747   -6.1564145    112.61235  0.027520124  0.028086651            6 
  342000    0.7249052   -6.1550125    112.80986  0.027487783  0.028002547           31 
  343000   0.72166265   -6.2084714    112.42835  0.027314953  0.027918092           13 
  344000   0.72003922   -6.2133537    112.66017  0.027291709  0.027833389           27 
  345000   0.72164321   -6.2055502    112.98661  0.027291452  0.027748604           15 
  346000   0.72306397   -6.2293964    112.64545  0.027130408  0.027664714           20 
  347000   0.71219045   -6.2092556     112.9648  0.027128915  0.027580628           16 
  348000   0.70360114   -6.2055145    112.75367  0.027000401   0.02749694            9 
  349000    0.7118355    -6.233016    112.69413  0.026908819   0.02741287           19 
  350000   0.72972121   -6.2129639    112.65772  0.026823267  0.027329028            7 
  351000   0.71159155   -6.2217099     112.9208  0.026809307  0.027245819           20 
  352000   0.70783295   -6.1816251    113.22634  0.026805478  0.027163362            6 
  353000   0.70386049   -6.2305327    113.06147  0.026690622  0.027081735           12 
  354000   0.70781196   -6.2274991    113.33119  0.026678717  0.027000856           20 
  355000   0.68555221   -6.2450189     113.1412  0.026558966   0.02691995           11 
  356000   0.71638755   -6.2357344     113.1636  0.026489607  0.026838905           11 
  357000     0.682966   -6.2307621    113.34944  0.026458787  0.026758057           11 
  358000   0.69210262   -6.2233471    113.38273  0.026392629  0.026677515            7 
  359000   0.69358882   -6.2468011    113.56707    0.0263619   0.02659728           14 
  360000   0.71169497   -6.2518802    113.73202  0.026326855  0.026517399           15 
  361000   0.68211878   -6.2317299    113.70513  0.026247722  0.026437325            9 
  362000   0.68687557   -6.2360204    113.56976  0.026144051  0.026357834           14 
  363000   0.70124653   -6.2411691    113.52467  0.026061678  0.026278559           13 
  364000   0.68920664   -6.2687688    113.40613  0.025962942  0.026198774           39 
  365000   0.68600351   -6.2977463    113.21857   0.02584899  0.026119182           20 
  366000   0.69173449   -6.2631671    113.41851  0.025823887  0.026039792           32 
  367000   0.68057617   -6.2941237    113.89194  0.025861021  0.025960531           57 
  368000   0.69810944   -6.2806752    113.69834  0.025746907  0.025881512           36 
  369000    0.6725578   -6.2680538    113.52843  0.025638761  0.025802941           47 
  370000   0.66234236   -6.3052715    113.90777  0.025654903  0.025724293           10 
  371000   0.69901395   -6.2949542    113.83974  0.025570471  0.025646246           13 
  372000   0.68039499   -6.3072861    113.73295   0.02547781  0.025568572           15 
  373000   0.66533163   -6.2881686    113.83585  0.025432496  0.025490844           10 
  374000   0.67058775   -6.2865901    113.96435  0.025393126  0.025413511            9 
  375000   0.66699792   -6.3092027    113.87554  0.025305675  0.025336077            9 
  376000   0.67689432   -6.3141291    113.85739   0.02523435  0.025258929            9 
  377000   0.67872212   -6.3230231    113.90893   0.02517881  0.025181672            9 
  378000   0.65838465   -6.3242733    113.53351  0.025029433  0.025104588           10 
  379000   0.65594094   -6.3373117    113.97316  0.025060062  0.025027512           12 
  380000   0.64457565   -6.3367605    113.68674  0.024931303  0.024950378           20 
  381000   0.65421409   -6.3483717    113.70918  0.024870775  0.024873527           21 
  382000   0.66115092   -6.3226097    113.64682  0.024792064  0.024797158           65 
  383000    0.6697019   -6.3345448    114.02948  0.024810593  0.024721203           21 
  384000   0.65236012   -6.3606656    113.87678  0.024712843  0.024645167           30 
  385000   0.65286208   -6.3534193    113.86835  0.024646829  0.024569287           17 
  386000   0.63813683   -6.3606507    113.88992  0.024587633  0.024493759           14 
  387000   0.64538904   -6.3451141    113.93078  0.024532899  0.024418166            9 
  388000   0.65426477   -6.3474202    113.89849  0.024462735  0.024343185           18 
  389000   0.64756954   -6.3401042    113.95361  0.024411657  0.024268317           16 
  390000   0.64539494     -6.37782    114.17922   0.02439727  0.024193808           49 
  391000   0.64601248   -6.3622128    114.29865  0.024360327  0.024119756           26 
  392000   0.62500649    -6.373791    114.01749  0.024238413  0.024045861           15 
  393000   0.64444373   -6.4115952    114.02051  0.024177377  0.023972132           14 
  394000   0.64873542   -6.3878676    114.01601  0.024115061  0.023898453           48 
  395000   0.63808172   -6.3834273    114.18947  0.024090605  0.023825231           11 
  396000   0.62978292   -6.3738044    114.16411  0.024024434  0.023752094           23 
  397000   0.63040014   -6.3764094    114.14996  0.023960948  0.023679168           21 
  398000   0.64376001   -6.3724885    114.01239   0.02387194  0.023606304           18 
  399000   0.63072166    -6.399737    114.17997  0.023847111    0.0235335           17 
  400000   0.63204358   -6.3945875    113.95399  0.023740415  0.023460847           18 
  401000   0.62930859   -6.3995895    114.15164  0.023722286  0.023388393           11 
  402000   0.62173991   -6.3939335    114.21931  0.023677302  0.023316112           55 
  403000   0.63961058   -6.3894418     114.4658   0.02366952  0.023244011           15 
  404000   0.63767284   -6.3986461    114.31918   0.02358069  0.023172363           39 
  405000    0.6242472   -6.4091773    113.89345  0.023434867  0.023100539           34 
  406000   0.61889752   -6.4346832    114.16319  0.023432509  0.023029195           43 
  407000   0.61353979   -6.4290891    114.15811  0.023373896  0.022958132           30 
  408000   0.61501215   -6.4397898    114.10797  0.023306366  0.022887378           20 
  409000   0.62684978   -6.4508999    114.06323  0.023240267  0.022816716           19 
  410000   0.62159387   -6.4308327    114.00544  0.023171837  0.022746128           26 
  411000   0.61666221   -6.4584511    114.14671  0.023144103  0.022675648           39 
  412000   0.61734451   -6.4621485    114.02031   0.02306236  0.022605124           26 
  413000   0.60862954   -6.4653632    114.19407   0.02304158  0.022535065           16 
  414000   0.61231046   -6.4464593    114.13298  0.022973626  0.022464977           31 
  415000   0.59847564   -6.4690177    113.93247  0.022878007  0.022395293           26 
  416000   0.60469134   -6.5039245    114.10053  0.022856676  0.022325721           24 
  417000   0.59146003   -6.4616654    113.96625  0.022775031  0.022256467           20 
  418000   0.59468121   -6.4777091     113.8574  0.022698844  0.022187481           50 
  419000   0.59578103   -6.4864967    113.93482  0.022660067  0.022118729           23 
  420000    0.5966866   -6.5019926    113.79895  0.022579156  0.022050078           17 
  421000   0.60323607   -6.4971555    114.21138  0.022607162  0.021981606           37 
  422000   0.58730013   -6.4728439    114.41866  0.022594523  0.021913345           45 
  423000    0.5972764   -6.4906135    113.70446  0.022400405  0.021845566           23 
  424000   0.58948608    -6.475532    114.18721  0.022442454  0.021778072           22 
  425000   0.58414848    -6.492272    114.04136  0.022361052  0.021711084           54 
  426000   0.58160778   -6.5111551    114.61504  0.022420783  0.021644519           37 
  427000   0.58965716   -6.4869834     114.2318  0.022293481  0.021577906           71 
  428000   0.56470101   -6.5162455    113.86341  0.022169667  0.021510976           42 
  429000   0.58713734   -6.5473083    114.39223  0.022220714  0.021444427           73 
  430000   0.59281795   -6.5237547    114.17468  0.022126877  0.021377991           62 
  431000   0.57814061   -6.5274425    113.87262  0.022017134  0.021311605           83 
  432000   0.58186048   -6.5368237    114.03901  0.021998266  0.021245352           81 
  433000   0.58094084   -6.5139136    114.15378   0.02196955  0.021179451           85 
  434000   0.57814128   -6.5586311    114.08764   0.02190623  0.021113852           81 
  435000   0.58404447   -6.5670958    113.99822  0.021838739  0.021048452          121 
  436000   0.57098505   -6.5692491    113.95581  0.021780544  0.020983193          103 
  437000   0.57333366   -6.5751831    113.97569  0.021734495  0.020918254          126 
  438000   0.57180339   -6.5941933     113.8642  0.021663661  0.020853239          120 
  439000   0.56488377   -6.5807222     113.9979  0.021639692   0.02078846          128 
  440000   0.57488931   -6.5792524    113.98653  0.021588358  0.020724021          112 
  441000   0.56939245   -6.5880114    114.05008  0.021551414  0.020659772           86 
  442000   0.56631993   -6.5869958    113.83274  0.021461678  0.020595683          101 
  443000   0.55666463   -6.6061294    114.16547  0.021475821   0.02053168          107 
  444000   0.55397258   -6.5858263    113.99758  0.021395942  0.020468034          141 
  445000   0.55305909   -6.6073987    113.91824  0.021333003  0.020404654          152 
  446000   0.55110258   -6.5997711    113.85086  0.021272583  0.020341246          165 
  447000   0.54747739    -6.608954    114.05153  0.021262403  0.020277923          222 
  448000   0.56493653    -6.603052    114.02247  0.021209537  0.020214843          172 
  449000   0.54882199   -6.6115314    113.83947  0.021128335  0.020152149          144 
  450000   0.54201803   -6.6276028    114.09674  0.021129026  0.020089753          219 
  451000   0.54506997   -6.6313601    114.00584  0.021065381  0.020027608          225 
  452000   0.54948739   -6.6266011    113.95469  0.021009346  0.019965627          213 
  453000   0.53875367   -6.6220351    113.97304  0.020966343    0.0199039          184 
  454000   0.53182033    -6.629809    114.03181  0.020930949  0.019842453          138 
  455000   0.54553428   -6.6212273    113.98849  0.020877013  0.019781233          173 
  456000   0.53400023     -6.62844    113.98449  0.020830499  0.019720292          173 
  457000   0.54327538    -6.644424    113.89745  0.020769046   0.01965946          207 
  458000   0.53721961   -6.6332422    114.27885  0.020793095  0.019598992          242 
  459000   0.52989249   -6.6427948    114.01063  0.020699097  0.019538767          182 
  460000   0.54079154   -6.6537435    113.88827  0.020631933  0.019478542          182 
  461000   0.52504745   -6.6640268     113.8583  0.020581761   0.01941846          192 
  462000    0.5116856   -6.6626755    114.07661  0.020576589  0.019358537          125 
  463000   0.52316392   -6.6564117    113.88797  0.020498194  0.019298939          236 
  464000   0.53078036   -6.6405744    113.85165  0.020447494  0.019239541          125 
  465000   0.53005089   -6.6517178    113.82685  0.020399077  0.019180318          242 
  466000    0.5261557   -6.6603821    113.64034  0.020321948  0.019121189          202 
  467000   0.52226063    -6.666932    113.65702  0.020281409  0.019062175          195 
  468000   0.51575979   -6.6909088    113.60367  0.020228573   0.01900332          159 
  469000   0.51754073   -6.6677605    113.77824  0.020216461  0.018944614          217 
  470000   0.53208101    -6.675673    113.66189  0.020152817  0.018886144          206 
  471000   0.52567399   -6.6462003     114.0075  0.020171178  0.018828073           59 
  472000   0.51964144   -6.6870319    113.70554  0.020075131  0.018770243          220 
  473000   0.50975629   -6.6730712    113.72065   0.02003535  0.018712725          199 
  474000   0.50468649   -6.6844347     113.7995  0.020006944  0.018655369          267 
  475000   0.50228301    -6.710553    113.65689  0.019939805  0.018598021          217 
  476000   0.50652664   -6.7139373    113.58681  0.019885646  0.018540884          131 
  477000   0.51148412   -6.7138165    113.94686  0.019906858  0.018484032           95 
  478000   0.50291822   -6.7178455    113.68957  0.019820357  0.018427338          238 
  479000   0.50214429   -6.6952361    113.72566  0.019785258  0.018370794          293 
  480000   0.50180591    -6.721293    113.59725  0.019721745  0.018314269          235 
  481000    0.4975736   -6.7068638    113.53634  0.019670191  0.018257863          138 
  482000   0.49950341   -6.7207307    113.51811  0.019626229  0.018201668          183 
  483000   0.49067124   -6.7246571    113.50332  0.019583044  0.018145778          125 
  484000   0.49165922    -6.743631    113.58373  0.019556427  0.018090014          276 
  485000   0.49582342   -6.7324348    113.39744  0.019484096  0.018034482          205 
  486000   0.49148966   -6.7335417    113.31641  0.019430111  0.017979079          282 
  487000   0.49629624   -6.7486636    113.56376  0.019432539  0.017923941          208 
  488000   0.48663457   -6.7451584    113.32479  0.019351911  0.017868881          180 
  489000   0.48175453   -6.7556633    113.46414  0.019336084  0.017814069          197 
  490000    0.4798875   -6.7543865    113.49044  0.019301095  0.017759389          192 
  491000   0.47894593   -6.7524003    113.61436  0.019282817  0.017705027          196 
  492000   0.48269201   -6.7594473    113.45028  0.019215833  0.017650857          245 
  493000   0.47985161   -6.7491424    113.32657  0.019155945  0.017596803          287 
  494000   0.47731828   -6.7774668    113.36485  0.019123626  0.017543047          239 
  495000   0.48672268   -6.7653341    113.22067   0.01906072  0.017489241          272 
  496000   0.47417545   -6.7761217    113.26467  0.019029682  0.017435515          267 
  497000   0.46714816   -6.7505136    113.32688  0.019001824  0.017382043          273 
  498000   0.48277058   -6.7689922    113.14713  0.018933589  0.017328849          306 
  499000   0.47083041   -6.7689997    113.27427  0.018916879  0.017275715          359 
  500000   0.44974075   -6.7596332    113.31148  0.018885247  0.017222881          286 
  501000    0.4757204   -6.7825283    113.21718  0.018831866  0.017170177          246 
  502000   0.46836206   -6.7784026    113.17538  0.018787414  0.017117667          359 
  503000   0.47965069   -6.7908089    113.11798  0.018740553  0.017065308          330 
  504000   0.47395895     -6.78879    113.19365  0.018715881  0.017013105          368 
  505000   0.46423439    -6.774795    113.17201  0.018675249  0.016961058          400 
  506000   0.45798279   -6.7856478    113.01683  0.018612785  0.016909147          295 
  507000   0.45091699   -6.7986191    113.23564  0.018612038   0.01685748          385 
  508000   0.45691051    -6.804251    112.97766   0.01853308  0.016805962          443 
  509000   0.45611827    -6.806984     113.0688  0.018511592   0.01675467          343 
  510000   0.46511176   -6.7981738    112.97305  0.018459648  0.016703441          442 
  511000   0.44176205   -6.7995009    112.88306  0.018408849   0.01665242          513 
  512000    0.4466276   -6.8113845    112.95922  0.018385289  0.016601518          399 
Loop time of 1283.69 on 48 procs for 500000 steps with 4000 atoms

Performance: 67306.050 tau/day, 389.503 timesteps/s
99.4% CPU use with 48 MPI tasks x no OpenMP threads

MPI task timing breakdown:
Section |  min time  |  avg time  |  max time  |%varavg| %total
---------------------------------------------------------------
Pair    | 91.939     | 97.61      | 101.51     |  27.0 |  7.60
Neigh   | 8.8505     | 9.1899     | 9.5493     |   6.4 |  0.72
Comm    | 84.726     | 89.592     | 95.786     |  30.0 |  6.98
Output  | 0.94248    | 0.94325    | 0.96488    |   0.3 |  0.07
Modify  | 1070.8     | 1074.3     | 1077.1     |   4.1 | 83.69
Other   |            | 12.01      |            |       |  0.94

Nlocal:        83.3333 ave          88 max          79 min
Histogram: 3 2 4 9 7 8 9 2 1 3
Nghost:        2385.38 ave        2405 max        2371 min
Histogram: 4 6 6 7 4 9 7 2 2 1
Neighs:        16471.5 ave       18782 max       14314 min
Histogram: 3 1 10 6 4 8 4 6 4 2
FullNghs:      32942.4 ave       34977 max       31041 min
Histogram: 3 2 5 8 8 8 7 3 1 3

Total # of neighbors = 1581233
Ave neighs/atom = 395.30825
Neighbor list builds = 26793
Dangerous builds = 0

#clear
#
#next RN
#
#jump SELF
Total wall time: 0:21:27
