
units lj                  # Use reduced LJ style units
atom_style atomic         # Uncharged point particles
atom_modify map hash      # Needed for indexing of clusters etc
                          # Used to be able to find where atoms are in relation to each other.

lattice fcc 1.0 spacing 1 1 1
Lattice spacing in x,y,z = 1.5874011 1.5874011 1.5874011
region box block 0 10 0 10 0 10 units lattice
create_box 2 box
Created orthogonal box = (0.0000000 0.0000000 0.0000000) to (15.874011 15.874011 15.874011)
  3 by 4 by 4 MPI processor grid
create_atoms 1 box
Created 4000 atoms
  using lattice units in orthogonal box = (0.0000000 0.0000000 0.0000000) to (15.874011 15.874011 15.874011)
  create_atoms CPU = 0.002 seconds
set type 1 type/fraction 2 0.31 78393
Setting atom values ...
  1268 settings made for type/fraction
mass 1 1.0
mass 2 1.0
pair_style lj/cut  3.5
pair_modify tail  yes
pair_coeff 1  1  1.0  1.0   # Intearaction between 1 and 1 set with epsilon = 1 and sigma = 1
pair_coeff 1  2  1.5  0.8
pair_coeff 2  2  0.5  0.88

write_data data.0
System init for write_data ...
Neighbor list info ...
  update every 1 steps, delay 10 steps, check yes
  max neighbors/atom: 2000, page size: 100000
  master list distance cutoff = 3.8
  ghost atom cutoff = 3.8
  binsize = 1.9, bins = 9 9 9
  1 neighbor lists, perpetual/occasional/extra = 1 0 0
  (1) pair lj/cut, perpetual
      attributes: half, newton on
      pair build: half/bin/atomonly/newton
      stencil: half/bin/3d
      bin: standard
WARNING: Not all mixed pair coeffs generated from mixing. Use write_data with 'pair ij' option to store all pair coeffs. (../write_data.cpp:312)


#############################
#   M E L T   S Y S T E M   #
#############################

velocity all create 2.4 1741580 mom yes dist gaussian # Assign velocities
                                                    # Temperature 2.4, random number seed, zero linear momentum
                                                                                # Gaussian distribution

timestep 0.002   # simulation timestep
thermo 1000       # output thermodynamic data every 1000 steps bf 100

# Define a fix  in this case with index 1 applied to all
# particles in the simulation. This fix is for simulations
# in the anisotropic NPT ensemble. Note that we use the MTK
# correction.
fix 1 all npt temp 2.4 2.4 0.1 iso 5.68 5.68 0.5 mtk yes tchain 5 pchain 5 # Use NPT ensemble
                                                                         # Set temperature and pressure and damping
                                                                         # Numbers of thermostats in chain and in barostat
run 10000          # run for 10000 steps
Per MPI rank memory allocation (min/avg/max) = 3.642 | 3.644 | 3.648 Mbytes
Step Temp E_pair E_mol TotEng Press Volume 
       0          2.4   -6.3727134            0   -2.7736134   -4.0086663         4000 
    1000    2.4101833   -5.0040336            0   -1.3896625     5.554505    4122.8901 
    2000    2.3800347   -4.9961866            0   -1.4270271    5.5769455    4129.7167 
    3000    2.3692408   -5.0193173            0   -1.4663445    5.4592456    4130.7044 
    4000    2.4214312   -4.9942373            0   -1.3629986    5.9953931     4093.128 
    5000     2.366538    -4.976046            0   -1.4271264    5.8338812    4123.8041 
    6000    2.4023337   -5.0093432            0   -1.4067435    5.1892467    4165.6893 
    7000     2.392439   -4.9464024            0    -1.358641    5.8255412    4129.3411 
    8000    2.3781663   -5.0392153            0   -1.4728576    5.7199344    4093.1178 
    9000    2.3653817   -5.0159445            0    -1.468759     5.354131    4138.9489 
   10000    2.3956684   -5.0098028            0   -1.4171986      6.13576    4075.6596 
Loop time of 2.43768 on 48 procs for 10000 steps with 4000 atoms

Performance: 708870.834 tau/day, 4102.262 timesteps/s
99.6% CPU use with 48 MPI tasks x no OpenMP threads

MPI task timing breakdown:
Section |  min time  |  avg time  |  max time  |%varavg| %total
---------------------------------------------------------------
Pair    | 1.0548     | 1.1109     | 1.1956     |   2.8 | 45.57
Neigh   | 0.20224    | 0.20958    | 0.2274     |   0.9 |  8.60
Comm    | 0.72421    | 0.81909    | 0.88573    |   3.9 | 33.60
Output  | 0.00024035 | 0.0002492  | 0.00040961 |   0.0 |  0.01
Modify  | 0.2552     | 0.28281    | 0.31638    |   3.0 | 11.60
Other   |            | 0.01502    |            |       |  0.62

Nlocal:        83.3333 ave          91 max          71 min
Histogram: 1 0 0 5 7 7 7 12 3 6
Nghost:        1612.08 ave        1637 max        1572 min
Histogram: 1 0 6 3 2 9 7 7 6 7
Neighs:        9358.25 ave       10689 max        7768 min
Histogram: 1 0 2 8 10 9 7 7 1 3

Total # of neighbors = 449196
Ave neighs/atom = 112.29900
Neighbor list builds = 902
Dangerous builds = 184

# Equilibrate just above the melting temperature to avoid step fn in T

fix 1 all npt temp 1.25 1.25 0.1 iso 5.68 5.68 0.5 mtk yes tchain 5 pchain 5
run 2000
Per MPI rank memory allocation (min/avg/max) = 3.643 | 3.645 | 3.649 Mbytes
Step Temp E_pair E_mol TotEng Press Volume 
   10000    2.3956684   -5.0098028            0   -1.4171986      6.13576    4075.6596 
   11000     1.257819   -6.8682835            0   -4.9820266     5.606088    3322.0488 
   12000    1.2458292   -6.8816974            0   -5.0134208    5.6818437     3311.522 
Loop time of 0.576909 on 48 procs for 2000 steps with 4000 atoms

Performance: 599054.192 tau/day, 3466.749 timesteps/s
99.7% CPU use with 48 MPI tasks x no OpenMP threads

MPI task timing breakdown:
Section |  min time  |  avg time  |  max time  |%varavg| %total
---------------------------------------------------------------
Pair    | 0.23864    | 0.27097    | 0.31394    |   2.6 | 46.97
Neigh   | 0.035251   | 0.038756   | 0.043795   |   0.8 |  6.72
Comm    | 0.17688    | 0.21985    | 0.26043    |   3.3 | 38.11
Output  | 4.9394e-05 | 5.2746e-05 | 0.00014792 |   0.0 |  0.01
Modify  | 0.03677    | 0.042624   | 0.048768   |   1.9 |  7.39
Other   |            | 0.004661   |            |       |  0.81

Nlocal:        83.3333 ave          89 max          76 min
Histogram: 2 2 1 6 8 7 9 5 3 5
Nghost:        1868.19 ave        1893 max        1844 min
Histogram: 4 3 5 4 8 5 9 2 6 2
Neighs:        11545.1 ave       13050 max        9968 min
Histogram: 1 2 3 9 9 9 6 4 3 2

Total # of neighbors = 554165
Ave neighs/atom = 138.54125
Neighbor list builds = 140
Dangerous builds = 11

#############################
# L I N E A R  Q U E N C H  #
#############################

# Define solid atoms. This closely follows ten Wolde  Ruiz-Montero and Frenkel  Faraday Discuss  1996  104  93-110
# Compute components of the per-atom q6 vector
compute q6 all orientorder/atom degrees 1 6 components 6 nnn NULL cutoff 1.3 # compute the Q6 parameter.
                                                                             # Use all neighbours within 1.3 unit cell.

# get number of connections
compute coord_number all coord/atom orientorder q6 0.5

# An atom is solid if it has 8 or more connections (of a possible 14)
variable is_solid atom c_coord_number>=8
group solid dynamic all var is_solid    # Must be dynamic to update
dynamic group solid defined

# do clustering
compute cluster solid cluster/atom 1.3 # Create a cluster where all atoms within are solid and max 1.3 units from another member

# define chunks one chunk per cluster
compute clus_chunks solid chunk/atom c_cluster nchunk every compress yes  # Says which atoms are in which chunk

# count the size of each chunk
compute size_chunks solid property/chunk clus_chunks count


# Find the maximum entry in the vector of chunk sizes
variable max_n equal max(c_size_chunks)


# Thermo style which includes this variable
# thermo_style custom step temp pe vol v_max_n

thermo ${N}  # Print the thermo information every 100 steps
thermo 1000  

# Reset the npt fix at a lower temperature (below freezing)
fix 1  all npt temp  ${temp} ${temp}  0.1  iso  5.68  5.68  0.5  mtk yes tchain  5  pchain  5
fix 1  all npt temp  0.45 ${temp}  0.1  iso  5.68  5.68  0.5  mtk yes tchain  5  pchain  5
fix 1  all npt temp  0.45 0.45  0.1  iso  5.68  5.68  0.5  mtk yes tchain  5  pchain  5

dump dmp2 all dcd ${N} traj.dcd
dump dmp2 all dcd 1000 traj.dcd


compute msd all msd com yes
variable twopoint equal c_msd[4]/6/(step*dt+1.0e-6)
fix 9 all vector 10 c_msd[4]
variable fit equal slope(f_9)/6/(10*dt)
thermo_style custom step temp pe c_msd[4] v_twopoint v_fit v_max_n

fix 1 all npt temp 1.25 ${temp} 0.1 iso 5.68 5.68 0.5 mtk yes tchain 5 pchain 5
fix 1 all npt temp 1.25 0.45 0.1 iso 5.68 5.68 0.5 mtk yes tchain 5 pchain 5
run 500000 # 5000000  # Run for this many steps
Neighbor list info ...
  update every 1 steps, delay 10 steps, check yes
  max neighbors/atom: 2000, page size: 100000
  master list distance cutoff = 3.8
  ghost atom cutoff = 3.8
  binsize = 1.9, bins = 8 8 8
  4 neighbor lists, perpetual/occasional/extra = 1 3 0
  (1) pair lj/cut, perpetual
      attributes: half, newton on
      pair build: half/bin/atomonly/newton
      stencil: half/bin/3d
      bin: standard
  (2) compute orientorder/atom, occasional
      attributes: full, newton on
      pair build: full/bin/atomonly
      stencil: full/bin/3d
      bin: standard
  (3) compute coord/atom, occasional
      attributes: full, newton on
      pair build: full/bin/atomonly
      stencil: full/bin/3d
      bin: standard
  (4) compute cluster/atom, occasional
      attributes: full, newton on
      pair build: full/bin/atomonly
      stencil: full/bin/3d
      bin: standard
Per MPI rank memory allocation (min/avg/max) = 9.810 | 9.818 | 9.826 Mbytes
Step Temp PotEng c_msd[4] v_twopoint v_fit v_max_n 
   12000    1.2458292   -6.8816974 7.6953381e-31 5.3439846e-33 8.3333333e+20            1 
   13000     1.245088   -6.9302651   0.53002748 0.0033976119  0.043307166            2 
   14000    1.2653993    -6.924272    1.0044558 0.0059789035   0.04128431            1 
   15000    1.2613668   -6.9127261    1.5055274 0.0083640406  0.040696673            1 
   16000    1.2689332   -6.9453935    1.9850641  0.010338875  0.040840504            2 
   17000    1.2502193   -6.9597072    2.4573863  0.012046011  0.040681127            2 
   18000    1.2540909   -6.9344565    2.9000365  0.013426095  0.040311952            3 
   19000    1.2452072   -6.9372106    3.3835552  0.014840154  0.040038287            1 
   20000    1.2247039   -6.9614795     3.807806  0.015865858  0.039697046            1 
   21000    1.2466816   -6.9279448    4.2841968   0.01700078  0.039319127            2 
   22000    1.2154159   -6.9388718    4.7450123  0.017973531  0.039196005            1 
   23000    1.2387903   -6.9826718    5.1411273  0.018627272  0.038957124            2 
   24000    1.2077147   -6.8790515    5.5990017  0.019440978  0.038760892            2 
   25000    1.2302607   -6.9822334    5.9480168  0.019826722  0.038405048            2 
   26000    1.2183756   -6.9323981    6.3927857  0.020489697  0.038026443            1 
   27000    1.2344005   -6.9459751    6.9473057  0.021442301  0.037860763            2 
   28000    1.2251925   -6.9617094    7.3802395  0.021964998  0.037790208            2 
   29000    1.2146541   -6.9525986    7.8313594  0.022503906  0.037723048            1 
   30000    1.2000849   -6.9566671    8.2372889  0.022881358  0.037645137            1 
   31000    1.1970491   -6.9551998    8.6669396  0.023298224  0.037598012            1 
   32000    1.2091196   -6.9605432     9.110708  0.023725802  0.037518439            1 
   33000    1.2251057   -6.9764851    9.4966909  0.023981542  0.037403788            2 
   34000    1.1976532   -6.9904056    9.8663152  0.024182145  0.037278467            3 
   35000    1.2012586   -6.9675009    10.306193  0.024538555  0.037122383            2 
   36000    1.2262439   -6.9747317    10.785619   0.02496671   0.03704513            2 
   37000     1.231584    -6.976156    11.214889  0.025258759  0.036997215            2 
   38000    1.2225198   -6.9679313    11.619783   0.02548198  0.036938708            2 
   39000    1.1983973    -6.988762    11.944936  0.025523366  0.036802004            2 
   40000    1.2318482   -6.9905894    12.240465  0.025500969    0.0366465            1 
   41000    1.1631486   -7.0316604    12.764952  0.025945024  0.036504163            1 
   42000    1.1961156   -7.0282986    13.284097  0.026357335  0.036418743            2 
   43000    1.2184932   -6.9386981    13.698767  0.026547997  0.036375262            1 
   44000    1.1890367   -7.0007019    14.179547  0.026855203  0.036331061            2 
   45000    1.1814202   -7.0341781    14.775644  0.027362302  0.036347329            2 
   46000    1.1908617   -7.0373184     15.20066  0.027537427  0.036396954            3 
   47000    1.1903913   -6.9899985    15.610818  0.027678756  0.036419375            2 
   48000    1.2025866   -7.0401668    16.092232  0.027937903  0.036446314            1 
   49000    1.1893564   -7.0413363    16.477093  0.028022267  0.036464381            2 
   50000    1.1786063   -7.0020208    16.894983  0.028158306   0.03645573            2 
   51000     1.183554   -7.0390445    17.217418  0.028133036    0.0364222            1 
   52000    1.2064444    -7.053496    17.464824  0.027988499  0.036373739            6 
   53000    1.1698574   -7.0817496    18.044975  0.028372601  0.036309336            2 
   54000     1.186461    -7.044975     18.37355  0.028354243  0.036256229            1 
   55000    1.1755183    -7.063956    18.745668  0.028402526  0.036196319            2 
   56000    1.1735995   -7.0722348    19.156092  0.028506089   0.03611639            2 
   57000    1.1643086   -7.0302218    19.322261  0.028248919  0.036024466            1 
   58000    1.1684674   -7.0829979    19.694904  0.028297275  0.035911244            2 
   59000     1.178478   -7.0486533    20.032935  0.028295106  0.035787914            3 
   60000    1.1740215   -7.1009311    20.264809  0.028145567    0.0356515            1 
   61000    1.1829551   -7.0448112    20.624726  0.028175855  0.035515434            4 
   62000    1.1721032   -7.0981196    20.897412  0.028087919  0.035371964            3 
   63000    1.1506164   -7.0956703    21.230944  0.028083259  0.035228134            2 
   64000    1.1515925   -7.0944828    21.618339  0.028148879  0.035081445            3 
   65000     1.173364   -7.1016947    22.027305  0.028240134  0.034942522            1 
   66000    1.1775454   -7.1278421    22.259481  0.028105405  0.034813161            1 
   67000    1.1785863   -7.1029003    22.910095  0.028495142  0.034697352            1 
   68000    1.1764671   -7.0806666    23.274552  0.028522735  0.034610421            1 
   69000    1.1444526   -7.1197499    23.759686  0.028695273    0.0345217            2 
   70000      1.17887   -7.1061502    23.931476  0.028489852  0.034433806            3 
   71000    1.1389365   -7.1199228    24.381541  0.028616832  0.034335589            1 
   72000    1.1527654   -7.1719554    24.655932  0.028536958   0.03424989            1 
   73000    1.1266256   -7.0893219    25.130608  0.028687908  0.034158518            1 
   74000    1.1441905   -7.1192983    25.447304  0.028656874  0.034072613            1 
   75000    1.1382342   -7.1013877    25.616091  0.028462323  0.033983875            2 
   76000    1.1299924   -7.1152004    26.039318  0.028551883  0.033887648            1 
   77000    1.1492533   -7.1299892    26.228371  0.028385683  0.033786433            2 
   78000    1.1270105   -7.1729298    26.652544   0.02847494  0.033673008            1 
   79000    1.1446897    -7.110103    26.976197  0.028455904  0.033569558            1 
   80000     1.122285   -7.1189745    27.311617  0.028449601  0.033471615            3 
   81000    1.1404608   -7.1243047    27.818679   0.02862004  0.033382125            2 
   82000    1.1498553   -7.1757531    28.000647  0.028455942  0.033292575            1 
   83000    1.1415075   -7.1605045    28.533242  0.028647833  0.033211468            2 
   84000    1.1648967   -7.0966019    28.910449     0.028681  0.033145074            2 
   85000    1.1284956   -7.1706273    29.225903  0.028652846  0.033075913            1 
   86000    1.1125966   -7.2014171    29.526731  0.028611173  0.032999858            3 
   87000    1.1195365    -7.198627    29.736953  0.028483671  0.032920904            1 
   88000    1.1185318   -7.1308187    30.058394  0.028464388  0.032839277            1 
   89000    1.1274822   -7.1804054    30.426354  0.028489095  0.032756817            1 
   90000    1.1484168   -7.1455329     30.62238  0.028354055  0.032672573            3 
   91000     1.154338    -7.177695    31.054444  0.028438135  0.032588215            2 
   92000    1.1022693   -7.1835866    31.263032  0.028317963   0.03250362            2 
   93000    1.1081733   -7.1801015    31.581774   0.02829908  0.032411791            1 
   94000    1.1021694   -7.1790132    31.967244  0.028339755  0.032328662            3 
   95000    1.1155009   -7.1875855    32.319882  0.028350773  0.032253113            3 
   96000    1.1280016   -7.1730604    32.584557  0.028285205  0.032174083            1 
   97000    1.0927493   -7.1900352    32.803481  0.028181685  0.032085568            2 
   98000    1.1346926   -7.2318818    33.025716  0.028083092  0.031996965            1 
   99000    1.1354148   -7.1849629    33.337534  0.028061897  0.031907542            3 
  100000    1.0935551   -7.1801674    33.691581  0.028076317   0.03182155            1 
  101000    1.1021372   -7.2230788    34.088065  0.028125466  0.031735899            1 
  102000    1.0982451   -7.2052387    34.270493  0.027998769  0.031648715            1 
  103000    1.1155487    -7.183185    34.577842    0.0279756  0.031564059            1 
  104000    1.0993354   -7.2310316     34.82397  0.027903822  0.031478237            2 
  105000    1.1056261   -7.2587906    34.839294  0.027650234  0.031386502            2 
  106000    1.1080924   -7.2003836    35.353492  0.027793625  0.031294854            1 
  107000    1.1017779   -7.2058042     35.88785  0.027950039  0.031210815            1 
  108000    1.1036671    -7.225569    36.090795  0.027847835  0.031135594            2 
  109000    1.1027729   -7.2349007    36.503539  0.027907904  0.031061927            2 
  110000    1.0765506   -7.2471014    36.851427  0.027917748  0.030989848            1 
  111000    1.1166149   -7.2397534    37.083008  0.027840096  0.030918587            1 
  112000    1.0680571   -7.2748695    37.483384  0.027889422  0.030852753            1 
  113000    1.0836519   -7.2618881    37.794136  0.027871781  0.030786361            1 
  114000     1.061416   -7.2450994     38.12884  0.027871959  0.030723811            1 
  115000    1.0783311   -7.2574832    38.460758  0.027870115  0.030660906            2 
  116000    1.0831606    -7.226277    38.616243  0.027741553  0.030597341            2 
  117000    1.0965377   -7.2909345    38.868123  0.027683848  0.030532774            2 
  118000    1.0819145   -7.2460928    39.289703  0.027746966  0.030467737            1 
  119000    1.0813298   -7.2848574    39.471848   0.02764135  0.030401805            1 
  120000    1.1030845   -7.2468053    39.723542  0.027585793  0.030336573            1 
  121000    1.0815047   -7.2520764    40.021265  0.027562855  0.030270618            2 
  122000    1.0711325   -7.2478441    40.355489  0.027565224   0.03020488            2 
  123000        1.081   -7.2709951     40.52316  0.027454715  0.030136353            4 
  124000    1.0790235   -7.3246048    40.741897  0.027380307  0.030065448            2 
  125000     1.055717   -7.3005211    41.068713  0.027379142  0.029992656            2 
  126000    1.0693019    -7.272661    41.168897  0.027228106  0.029916522            2 
  127000    1.0774424   -7.3144805     41.38365  0.027154626  0.029838624            3 
  128000    1.0589912   -7.2502698    41.609625    0.0270896  0.029760777            4 
  129000    1.0681562   -7.3089322    41.895702  0.027064407   0.02968686            3 
  130000    1.0632677   -7.3037434    42.173201  0.027034103  0.029614303            1 
  131000    1.0879846   -7.3243911    42.519497  0.027048026  0.029540552            2 
  132000    1.0647318   -7.3062272    42.622143  0.026907918  0.029465316            4 
  133000    1.0585821    -7.346245    42.663551  0.026731548  0.029387591            2 
  134000    1.0763759   -7.3013917    43.023885  0.026756147  0.029307278            3 
  135000    1.0354065   -7.3463923    43.334493  0.026749687  0.029230913            1 
  136000     1.050922    -7.306631    43.560587  0.026691536   0.02915348            1 
  137000    1.0648938   -7.3117964    43.684179  0.026571885  0.029074401            1 
  138000    1.0297579   -7.3297838    44.099614  0.026630201  0.028994086            1 
  139000    1.0624871   -7.3382099    44.286957  0.026550933  0.028911899            3 
  140000     1.037133   -7.3477793    44.321671  0.026381947  0.028830036            2 
  141000      1.04697   -7.3053198    44.636905   0.02638115  0.028748572            1 
  142000     1.045353   -7.3295015    44.676489  0.026218597  0.028664304            1 
  143000     1.055889   -7.3937617    44.743495  0.026074297   0.02857802            1 
  144000      1.04688   -7.3576484     44.88868  0.025977245  0.028493371            3 
  145000    1.0542842    -7.376606    45.065529  0.025899729  0.028405979            1 
  146000    1.0346332   -7.3932265    45.316535  0.025865602  0.028315864            1 
  147000    1.0573713   -7.3622697    45.466258  0.025774523  0.028227687            1 
  148000    1.0350586   -7.4161046    45.813957  0.025796147  0.028140204            2 
  149000     1.039311   -7.4031897    45.956983  0.025703011  0.028052841            1 
  150000    1.0374785   -7.3894459    46.109243  0.025616246  0.027966935            1 
  151000    1.0265776   -7.3742999    46.514656   0.02567034  0.027882374            2 
  152000    1.0272725    -7.400454    46.491192  0.025488592  0.027798392            2 
  153000    1.0428852    -7.420968    46.759876  0.025468342  0.027715736            2 
  154000    1.0218835   -7.3679129    47.229542  0.025557111   0.02763356            1 
  155000    1.0457289   -7.3958005    47.408162  0.025488259  0.027552071            1 
  156000    1.0457417   -7.4306895     47.45288  0.025348761  0.027468676            2 
  157000    1.0180975   -7.4602752    47.577021  0.025253196  0.027384094            4 
  158000    1.0156765   -7.4147803    47.809839   0.02521616  0.027301368            3 
  159000    1.0187697   -7.4451991    47.939681  0.025125619  0.027221156            2 
  160000    1.0148776   -7.3907624    48.330449  0.025172109  0.027141378            1 
  161000    1.0014743   -7.4147739    48.810594  0.025264282  0.027063486            2 
  162000    0.9933863   -7.4347488    48.881015  0.025144555  0.026987902            2 
  163000    1.0092126    -7.410785    49.108396  0.025106542  0.026910976            2 
  164000    1.0045073   -7.4136306    49.222041  0.025011199  0.026836619            2 
  165000   0.98778305   -7.4715909    49.363015  0.024930816  0.026760289            2 
  166000    1.0264351   -7.4765666    49.449037  0.024823814  0.026681763            1 
  167000    1.0108959   -7.4548018    49.596483  0.024748744  0.026603968            2 
  168000   0.97774682    -7.426779    49.820198    0.0247124  0.026524886            1 
  169000   0.99122088   -7.4492221    50.049137  0.024679062  0.026445944            1 
  170000    1.0175769   -7.4458074    50.263482  0.024638962  0.026367722            1 
  171000    1.0101588   -7.4738997    50.641942  0.024679309  0.026291716            2 
  172000    1.0026333   -7.4797701    50.760999  0.024593507  0.026217021            2 
  173000   0.98383821   -7.4866228    50.893093  0.024514977  0.026143549            2 
  174000     1.009236   -7.4565648    51.064784  0.024456314   0.02606863            1 
  175000   0.99123362   -7.4905381    51.161094  0.024362426  0.025993074            2 
  176000   0.99964881   -7.5059295    51.295469  0.024287627  0.025916231       -1e+20 
  177000   0.98234019   -7.5143428     51.32224  0.024163013  0.025839684            4 
  178000   0.98078142   -7.5074836    51.539036  0.024128762  0.025763228            3 
  179000   0.97534847   -7.4938006    51.829932  0.024129391  0.025685806            2 
  180000   0.96735501   -7.5084368    51.867283  0.024012631  0.025609412            1 
  181000   0.97928248   -7.4714124    52.135243  0.024003335  0.025534202            2 
  182000   0.96948185    -7.511269    52.199667  0.023900946  0.025457993            3 
  183000   0.97020584   -7.5204826    52.393532  0.023858621  0.025380012            4 
  184000   0.95110006   -7.5423935    52.366072  0.023716518  0.025301753            1 
  185000   0.98579351   -7.5339505    52.634238  0.023709116  0.025224979            2 
  186000   0.97040709   -7.5033837    53.050332   0.02376807  0.025150246            1 
  187000   0.98225853   -7.5233852    53.050111  0.023640869  0.025074482            2 
  188000   0.97038357   -7.5148323    53.138425  0.023554266  0.024998818            2 
  189000   0.97023515   -7.5751154     53.29862  0.023500273  0.024924088            1 
  190000   0.95411564   -7.5554875     53.38859  0.023416048  0.024849215            6 
  191000   0.95187385   -7.5630257    53.387696  0.023293061  0.024773543            1 
  192000   0.95734216   -7.5493314    53.684414  0.023300527  0.024698206            1 
  193000   0.96931233   -7.5991084     53.84348   0.02324848  0.024623504            2 
  194000   0.99232574   -7.5790249    53.756476   0.02309127   0.02454714            1 
  195000   0.95786724   -7.5454552    53.914051  0.023040193  0.024470803            2 
  196000    0.9455282   -7.5880815    54.170586  0.023031712  0.024394463            1 
  197000   0.94543861   -7.5834322    54.333943  0.022983902  0.024319057            2 
  198000   0.97430212   -7.5428119    54.644613  0.022998574  0.024245344            1 
  199000   0.95471743   -7.5492191    54.800827   0.02294842  0.024171088            2 
  200000   0.93027727   -7.6015878    54.785805  0.022827419  0.024098343            2 
  201000   0.92331822   -7.5080875    55.176552  0.022875851  0.024025918            2 
  202000   0.94624931    -7.582727    55.229482   0.02278444  0.023953256            1 
  203000   0.93388671   -7.6009392     55.19895  0.022659667  0.023880911            2 
  204000   0.94192504   -7.5944227    55.476487  0.022661964  0.023809076            3 
  205000   0.96640374   -7.5804024    55.724843  0.022652375  0.023736895            2 
  206000   0.94873609   -7.5689545    55.879062  0.022604798   0.02366549            3 
  207000   0.93762729   -7.5944665    56.082513  0.022577501  0.023595775            2 
  208000    0.9767346   -7.6239968    56.114343  0.022481708  0.023526235            2 
  209000   0.91878552   -7.5732704    56.334829  0.022462053  0.023457664            4 
  210000   0.93766189   -7.6224219     56.46378  0.022406262  0.023389532            1 
  211000   0.93102754   -7.6411792    56.825842  0.022443066  0.023322536            2 
  212000   0.95863734   -7.5981884    56.906397  0.022368867  0.023256613            2 
  213000   0.91311716   -7.6329964    57.090345  0.022335816  0.023191469            3 
  214000   0.91241892   -7.6122474    57.094618  0.022233107   0.02312613            2 
  215000   0.92524516   -7.6633388    57.270934  0.022198036  0.023061169            2 
  216000   0.92698855   -7.6171107    57.467768  0.022171207  0.022996234            2 
  217000   0.95245054   -7.6655983    57.424273  0.022052332  0.022931815            1 
  218000   0.91104776   -7.6651932    57.569221  0.022006583  0.022866987            3 
  219000   0.94277625   -7.6490083    58.005297  0.022072031  0.022801586            2 
  220000   0.91359288   -7.6501173    57.916454  0.021938051  0.022737398            2 
  221000   0.90547563   -7.6870569    57.980363  0.021862882  0.022671711            1 
  222000   0.93088412    -7.648437    58.156802  0.021830631  0.022606052            2 
  223000    0.9017953   -7.6738963     58.36145  0.021809212  0.022540809            2 
  224000   0.90445168    -7.698595    58.286655  0.021684023  0.022475348            2 
  225000   0.90743871   -7.6506765    58.368336  0.021617902  0.022409796            3 
  226000   0.91333629   -7.6848145    58.456338  0.021554697  0.022344004            3 
  227000   0.91101147   -7.6882345    58.587892  0.021508037  0.022277884            2 
  228000   0.92778378   -7.6636373    58.638705  0.021432275  0.022211739            2 
  229000   0.91873548    -7.664797    58.795751  0.021395834  0.022146238            3 
  230000   0.87805776   -7.6927262    58.968244  0.021365306  0.022081536            2 
  231000   0.89873663   -7.7078094    59.139064  0.021334439   0.02201844            2 
  232000   0.88640382   -7.6861499     59.28178  0.021293743  0.021955859            2 
  233000   0.90011429   -7.7138535    59.438533  0.021258417  0.021893806            1 
  234000   0.91233098   -7.6987107     59.56801  0.021213679  0.021832107            2 
  235000   0.89316962   -7.7722394    59.683812  0.021164472  0.021770575            2 
  236000   0.88771805   -7.7347544    59.804322  0.021117345  0.021708891            2 
  237000   0.89185791   -7.7114922    59.912015  0.021066109  0.021647622            2 
  238000   0.88974488   -7.7412949    59.985938   0.02100348  0.021586063            2 
  239000   0.89305715   -7.7351414    60.207408   0.02099282  0.021524979            1 
  240000   0.88089621   -7.7320356    60.308228  0.020940357  0.021464614            2 
  241000    0.8653872   -7.6908656    60.593672  0.020952169  0.021405005            2 
  242000   0.86420936   -7.7196946    60.858876  0.020956913  0.021345924            3 
  243000   0.88328293   -7.6478924    60.944715  0.020900108  0.021287239            1 
  244000   0.88265985   -7.7095706    60.991525  0.020830439  0.021229421            2 
  245000   0.87670733   -7.7640659    60.920183  0.020721151  0.021170464            4 
  246000   0.87103505   -7.7454033    61.228628  0.020741405  0.021112284            1 
  247000   0.89277728   -7.7921713    61.246477  0.020663454  0.021055066            1 
  248000   0.88260004   -7.7635334     61.32892  0.020607836  0.020998119            1 
  249000   0.88575624   -7.7565475    61.503731  0.020583578   0.02094139            1 
  250000   0.86706532   -7.7755353    61.609489  0.020536496  0.020885344            2 
  251000   0.88446611   -7.7737388    61.786293  0.020513377  0.020829471            2 
  252000   0.83443196   -7.7727391    61.875134  0.020461354  0.020773584            2 
  253000   0.88746342   -7.7688487    61.811411   0.02035949  0.020717598            3 
  254000   0.87637589   -7.8016083     61.96115  0.020328461  0.020661408            2 
  255000   0.84856125   -7.7732889    62.226566  0.020335479  0.020605716            3 
  256000   0.84658209   -7.7764582    62.199816  0.020247336   0.02054985            2 
  257000   0.86454507   -7.7935781    62.282057  0.020195219  0.020492635            2 
  258000   0.84265035   -7.8114097    62.366882  0.020144342  0.020435992            1 
  259000   0.84348585   -7.7807519    62.448819  0.020092928  0.020379576            6 
  260000    0.8476251   -7.8059362    62.582643  0.020058539  0.020323469            3 
  261000   0.83864595   -7.8012106    62.692878  0.020016883  0.020267983            2 
  262000   0.84184089   -7.8150129    62.722487    0.0199499  0.020212717            1 
  263000   0.85235432   -7.8031121    63.001271   0.01996238  0.020157056            2 
  264000    0.8419929   -7.8156919    62.978772  0.019879663  0.020103026            4 
  265000   0.84349114   -7.8465015    62.989508  0.019808021  0.020048196            3 
  266000   0.85430452   -7.8394359     63.30487  0.019832353  0.019994047            2 
  267000   0.83001896    -7.799616    63.283122  0.019751287  0.019939928            3 
  268000   0.81129208    -7.845555    63.271055  0.019673836  0.019884954            3 
  269000   0.84586044   -7.8499269    63.314279  0.019614089  0.019830077            2 
  270000    0.8398287   -7.8396901    63.398166  0.019567335    0.0197753            2 
  271000     0.838213   -7.8549244    63.646966  0.019571638  0.019721332            2 
  272000   0.82347931   -7.8390927    63.805193   0.01954816  0.019668043            3 
  273000   0.82942253   -7.8494263    63.887679  0.019501733  0.019614756            4 
  274000   0.82271699   -7.8367294    63.851485  0.019419551  0.019561405            4 
  275000   0.83014734   -7.8763008    63.862902  0.019352395  0.019507395            2 
  276000   0.81139869   -7.8752853    63.924642  0.019300919  0.019453039            1 
  277000   0.83390756   -7.9155754    63.858434  0.019211322  0.019398217            2 
  278000   0.80772559   -7.8843914     64.13571  0.019225333  0.019343906            1 
  279000   0.82396567   -7.8740252    64.090463   0.01914291  0.019289264            3 
  280000   0.81842708   -7.8921602    64.230095    0.0191161  0.019234674            1 
  281000   0.81490492   -7.8930224    64.168128  0.019029694  0.019180705            2 
  282000   0.80128463   -7.8912155    64.395944  0.019029534  0.019125997            2 
  283000   0.82280643     -7.94094     64.29307  0.018931999  0.019071872            2 
  284000   0.81383956   -7.9269793    64.392796    0.0188946  0.019017906            1 
  285000   0.79737668   -7.9043788    64.515017   0.01886404  0.018964328            2 
  286000    0.8004617   -7.9381893    64.603496  0.018823863  0.018911063            2 
  287000    0.8165671   -7.9134819    64.622159  0.018763693   0.01885772            2 
  288000   0.80429739   -7.9626373    64.584585  0.018687669  0.018804551            1 
  289000   0.80064937   -7.9593122    64.810704  0.018688207  0.018751416            1 
  290000   0.82173727   -7.9518144    64.788842  0.018617483  0.018698231            2 
  291000   0.82570431   -7.9151669    64.921366  0.018591457  0.018645074            2 
  292000   0.81947599    -7.914157    64.996744  0.018549299  0.018591971            2 
  293000   0.80625154   -7.9197731    65.030655  0.018495636  0.018539156            2 
  294000   0.80094749   -7.9384207    65.084297   0.01844793  0.018486597            2 
  295000   0.79755626   -7.9430004    65.249387   0.01843203  0.018433979            2 
  296000   0.78584005   -7.9848497    65.226004  0.018363177   0.01838193            2 
  297000   0.77470978   -7.9774488    65.521017  0.018384124   0.01832996            1 
  298000   0.76781374   -7.9640103    65.255176  0.018248092  0.018277884            3 
  299000   0.78858372   -7.9652609    65.330843   0.01820815  0.018225502            1 
  300000   0.78532945   -7.9653317    65.413356  0.018170377  0.018173399            1 
  301000    0.7839402   -7.9531674     65.61347  0.018165413  0.018121855            3 
  302000   0.78670062   -7.9748591    65.740244  0.018140244  0.018070475            2 
  303000   0.78101366     -7.95053    65.910217  0.018127122  0.018019529            1 
  304000   0.80318809   -7.9853401    65.790409  0.018034651  0.017968626            3 
  305000   0.76967874   -7.9583606    65.913527   0.01800916  0.017917989            2 
  306000   0.77900945   -8.0094106    65.947455  0.017959547  0.017867337            2 
  307000   0.81982366   -7.9773543    65.866322  0.017879023   0.01781656            2 
  308000   0.77638418   -7.9966384    65.886425  0.017826414   0.01776532            2 
  309000   0.77751059   -8.0341286    65.767329  0.017736604  0.017713773            2 
  310000   0.76550394   -8.0018415    66.044206  0.017753819  0.017662825            2 
  311000   0.78743328   -8.0265825    66.171581  0.017730863  0.017612482            2 
  312000   0.77942372    -8.025406     66.18013  0.017676317  0.017562706            1 
  313000   0.76806196   -8.0017273     66.30046   0.01765188  0.017512887            3 
  314000   0.78017799   -8.0252137    66.330078  0.017603524  0.017462965            2 
  315000   0.75716654   -8.0463905    66.269318  0.017531565  0.017413014            3 
  316000   0.77652291     -8.04105    66.294454  0.017482715  0.017363244            3 
  317000   0.76372668   -8.0014545    66.523997  0.017487907  0.017313683            2 
  318000    0.7739918   -8.0617765    66.336142  0.017383685  0.017264236            1 
  319000   0.76050278   -8.0442884    66.551129  0.017385352  0.017214723            2 
  320000   0.77661633   -8.0531805    66.476811   0.01731167  0.017165198            1 
  321000   0.76581469   -8.0359702    66.554134  0.017277813  0.017115803            3 
  322000    0.7442859   -8.0709193    66.675522   0.01725557  0.017066597            1 
  323000   0.75530271   -8.0493307     66.69071  0.017206066  0.017017803            3 
  324000   0.75733539   -8.0379765    66.587241  0.017126348  0.016968509            2 
  325000   0.73898274   -8.0412422    66.672159  0.017095425  0.016918896            1 
  326000   0.75403011   -8.0696898    66.547665  0.017011162  0.016868943            1 
  327000   0.74050176   -8.0848773    66.744799  0.017009378  0.016818888            2 
  328000   0.75382471   -8.0563243    66.717575  0.016950603  0.016768934            3 
  329000   0.73831925    -8.082272    66.623488   0.01687525  0.016718981            5 
  330000   0.74061457   -8.0749792    66.737352  0.016852867   0.01666903            2 
  331000   0.74305342   -8.0988158      66.5704  0.016759919  0.016618898            3 
  332000   0.75273933   -8.0671061    66.808574   0.01676922  0.016569102            2 
  333000   0.75777132   -8.1108758    66.715549  0.016695583  0.016519587            2 
  334000   0.73732332   -8.0946942    66.518565  0.016596448  0.016470026            1 
  335000   0.72711304   -8.1027466    66.747377  0.016603825  0.016420748            2 
  336000   0.72685619   -8.1042378    66.998015  0.016616571  0.016371553            5 
  337000   0.73187897   -8.0816944    66.792586  0.016516465  0.016322667            2 
  338000    0.7248328   -8.1075559    66.878589  0.016488804  0.016273954            1 
  339000   0.72348036   -8.0913765    67.067104  0.016486505  0.016225704            2 
  340000   0.71905175   -8.1041227    67.220407   0.01647559  0.016177616            1 
  341000   0.71848633   -8.1339154    67.071739  0.016390943  0.016129902            1 
  342000     0.719141   -8.1080462    67.161177  0.016364809  0.016082018            1 
  343000   0.71106799   -8.1275375    67.087774  0.016299265  0.016034069            4 
  344000   0.72115241   -8.1299501    67.093372  0.016253239  0.015986362            2 
  345000   0.72512561   -8.1493193    67.055783  0.016197049  0.015938887            1 
  346000   0.71461633   -8.1254082    67.021573  0.016141997  0.015891276            2 
  347000   0.72858948   -8.1585731    67.238693  0.016147621  0.015843598            1 
  348000    0.7105725   -8.1309515    67.261117  0.016106589  0.015796384            3 
  349000   0.69999839   -8.1343261    67.464511  0.016109004  0.015749198            2 
  350000   0.71941924   -8.1298468    67.398478  0.016047257  0.015702252            3 
  351000   0.69478204   -8.1523794    67.348341  0.015989635  0.015655271            2 
  352000   0.71254369   -8.1685989    67.195644   0.01590806  0.015608278            2 
  353000   0.71079189   -8.1672549    67.278205  0.015882485  0.015561442            1 
  354000   0.70767536   -8.1818254    67.334569  0.015850887  0.015514786            3 
  355000   0.68642839   -8.1976472    67.216001  0.015778404  0.015467928            2 
  356000   0.69434701   -8.2109869    67.175043  0.015724495  0.015420837            2 
  357000   0.69242778   -8.2072062    67.245404  0.015696873  0.015373679            1 
  358000   0.70007881   -8.2093855    67.311708  0.015668461   0.01532697            1 
  359000   0.69468751   -8.2190714    67.228992  0.015605616  0.015280085            1 
  360000   0.68132286   -8.2019274    67.422801   0.01560713  0.015233465            3 
  361000   0.70388483   -8.2364436    67.452985  0.015570865  0.015187084            1 
  362000   0.69173341   -8.2118755    67.301643  0.015493012  0.015140817            2 
  363000    0.6824787   -8.2094928    67.349723  0.015461369  0.015094413            2 
  364000   0.67530336   -8.2153064    67.323225  0.015412826  0.015048044            2 
  365000   0.69512235   -8.2094527    67.427399  0.015394383  0.015001622            5 
  366000   0.69558535   -8.2399638    67.121967  0.015282779  0.014955173            3 
  367000   0.67576062   -8.2385576    67.260157  0.015272515  0.014908481            1 
  368000   0.68256872   -8.2386597    67.272635  0.015233839  0.014861976            4 
  369000   0.68637816   -8.2590029    67.330119  0.015205537  0.014815713            2 
  370000   0.66778891   -8.2740028    67.185055  0.015131769  0.014769333            1 
  371000   0.68901179   -8.2496485    67.195501  0.015093329  0.014722973            1 
  372000    0.6696993   -8.2494104    67.290737   0.01507409  0.014676624            3 
  373000   0.66518498   -8.2624346    67.141471  0.015000329  0.014630386            3 
  374000   0.67083872   -8.2967472    67.245849  0.014983478  0.014584215            2 
  375000   0.68258945   -8.2576943    67.196022  0.014932449  0.014538061            2 
  376000   0.69016053   -8.2828924    67.168465  0.014886628  0.014492061            1 
  377000   0.66120002   -8.2795682    67.193541  0.014852684  0.014446379            1 
  378000   0.67475256   -8.2899576    67.301816  0.014837261   0.01440061            2 
  379000   0.65177236   -8.2792451    67.114091  0.014756836   0.01435504            2 
  380000   0.67605798   -8.2761859    67.196048  0.014735975    0.0143094            3 
  381000   0.65150742   -8.3176014     67.14137  0.014685339  0.014263927            3 
  382000   0.65996473   -8.2972652    67.160581  0.014651087  0.014218516            3 
  383000    0.6431676    -8.307294     67.10548  0.014600844  0.014173053            2 
  384000    0.6472905   -8.3138391    67.198468  0.014583001  0.014127644            3 
  385000   0.65709025   -8.3101629    67.156543  0.014536048  0.014082418            5 
  386000   0.65337538   -8.3161908    67.207257  0.014509339  0.014037474            3 
  387000   0.65302575   -8.3062902      67.1208   0.01445323  0.013992536            8 
  388000     0.659605   -8.3177132    67.128809    0.0144177  0.013947584            2 
  389000   0.65465405   -8.3296884    67.050083  0.014363771  0.013902796            2 
  390000   0.64883492   -8.3380732    67.130686  0.014344164  0.013858105            1 
  391000   0.64081555   -8.3424938    67.195847  0.014321366  0.013813656            3 
  392000   0.64771265   -8.3491363    67.160512   0.01427732  0.013769247            2 
  393000   0.64607599   -8.3551636    67.003833  0.014207768  0.013724939            2 
  394000    0.6542984   -8.3332238    67.056469   0.01418284  0.013680678            3 
  395000   0.61854258   -8.3708377    67.068237  0.014149417  0.013636431            2 
  396000   0.62629736   -8.3698108    67.044268  0.014108642  0.013592321            1 
  397000   0.62765721   -8.3629516     67.19692  0.014105147  0.013548457            2 
  398000    0.6271498   -8.3525656    67.057353  0.014040484  0.013504617            1 
  399000   0.62669188   -8.3598121    66.979507  0.013989036  0.013461004            2 
  400000   0.63084783   -8.3759358    67.024338  0.013963404  0.013417404            3 
  401000   0.62239096   -8.3601739    67.073773  0.013938855  0.013373871            3 
  402000   0.63325287   -8.3699086    67.010635  0.013891094  0.013330446            2 
  403000   0.61843978   -8.3810308    67.000399  0.013854508  0.013287271            3 
  404000   0.61896446   -8.3480842     67.03942  0.013828263  0.013243985            4 
  405000   0.62578975   -8.3860208    67.085371  0.013803574  0.013201002            6 
  406000   0.61370378   -8.3941377    66.991882  0.013750386  0.013158181            2 
  407000   0.62979004   -8.3790152    66.980055   0.01371418  0.013115602            1 
  408000   0.61241121   -8.3948101    66.911987  0.013666664  0.013073091            2 
  409000   0.61536513   -8.4116876    67.097491  0.013671046  0.013030733            2 
  410000   0.60941708   -8.4073459    66.985659  0.013614971  0.012988623            2 
  411000   0.60883049   -8.4180514    67.028821  0.013590596  0.012946527            2 
  412000   0.61223319     -8.42406    66.999482  0.013551675  0.012904434            3 
  413000   0.59502453    -8.412588    66.969135  0.013512739  0.012862463            3 
  414000    0.6139577   -8.4182773    66.883709  0.013462904  0.012820645            2 
  415000   0.60799189   -8.4359923    66.988595  0.013451525  0.012779023            3 
  416000   0.60270089   -8.4011244    66.887954  0.013399029  0.012737348            2 
  417000   0.60818601   -8.4193343    67.080469  0.013405369  0.012695836            8 
  418000   0.59628711   -8.4447727    66.912187   0.01333975  0.012654499            3 
  419000   0.58868401   -8.4234799    66.990026  0.013323394  0.012613249            3 
  420000    0.5885292   -8.4322156    66.932727  0.013280303  0.012572171            3 
  421000   0.59753529   -8.4447642    66.976511  0.013257425  0.012531247            2 
  422000   0.58436098   -8.4664401    66.884032  0.013207747  0.012490408            3 
  423000   0.59618917   -8.4398131    66.860103  0.013171809  0.012449785            3 
  424000   0.59510912   -8.4453002    67.045478  0.013177177  0.012409286            4 
  425000   0.58705031   -8.4535976    66.987269  0.013134759  0.012369034            2 
  426000   0.58229254     -8.42999    67.006913  0.013107769  0.012328846            2 
  427000   0.59137951   -8.4573782    66.906078  0.013057392  0.012288723            4 
  428000   0.58708101   -8.4699617    66.813143   0.01300879  0.012248693            3 
  429000   0.58378584   -8.4517301    66.867823  0.012989088  0.012208818            3 
  430000   0.58685863   -8.4503176    66.877425  0.012960741  0.012169005            6 
  431000   0.59413714   -8.4705233    66.817401  0.012919064  0.012129274            3 
  432000    0.5794303   -8.4551111     66.79895    0.0128856  0.012089809            3 
  433000   0.57123215   -8.4727874    66.828089  0.012861449  0.012050404            3 
  434000   0.57544599    -8.460334    66.823186  0.012830873  0.012011212            2 
  435000   0.57033663   -8.4728837    66.658487  0.012769825   0.01197216            1 
  436000   0.56122097   -8.4806608     66.96593  0.012799299  0.011933269            4 
  437000   0.56519416   -8.4751063    66.847949  0.012747511  0.011894449            2 
  438000   0.56082767   -8.4765954     66.87305  0.012723183  0.011855841            2 
  439000   0.55839072   -8.4787996    66.786391  0.012677751  0.011817295            2 
  440000   0.55816962    -8.489521    66.706962  0.012633894  0.011778871            1 
  441000   0.57183527   -8.5119308    66.652962  0.012595042   0.01174058            1 
  442000   0.56424268   -8.5034877     66.84417  0.012602596  0.011702548            2 
  443000   0.55148651   -8.5004406    66.724065  0.012551555  0.011664549            3 
  444000   0.56325623   -8.4990295    66.751046   0.01252835  0.011626682            2 
  445000    0.5568235   -8.4790611    66.822395  0.012513557  0.011589106            4 
  446000   0.55334499   -8.5039347    66.830262   0.01248697  0.011551591            2 
  447000   0.55508599   -8.5227658    66.706157  0.012435898  0.011514075            4 
  448000    0.5526673   -8.5110469    66.623166  0.012392702  0.011476728            2 
  449000   0.53736201   -8.5063732    66.609488  0.012362563  0.011439387            3 
  450000   0.53776825   -8.5260684    66.698402  0.012351556  0.011402247            3 
  451000   0.54409272   -8.5381172    66.770695  0.012337527  0.011365253            3 
  452000   0.54130879   -8.5252269    66.739518  0.012304483  0.011328429            2 
  453000   0.54371892   -8.5000722    66.650723  0.012260987  0.011291679            1 
  454000   0.53319555   -8.5334533    66.528583  0.012211561  0.011255053            3 
  455000    0.5324111   -8.5323694    66.652695  0.012207453  0.011218602            2 
  456000   0.54182656   -8.5176381    66.725986  0.012194076  0.011182279            2 
  457000   0.53647086   -8.5438945    66.615116  0.012147176  0.011146123            2 
  458000   0.54716551   -8.5457965    66.676786  0.012131875  0.011110039            2 
  459000   0.54588607   -8.5414883    66.709863  0.012111449  0.011074164            2 
  460000   0.52679501   -8.5483993    66.640909  0.012072628   0.01103841            3 
  461000   0.53743075    -8.562117    66.613871  0.012041553  0.011002803            2 
  462000    0.5270941   -8.5647584    66.643338  0.012020804  0.010967309            3 
  463000   0.52762865   -8.5558063      66.6793  0.012001314  0.010931891            4 
  464000   0.52084084   -8.5642624     66.62336  0.011965402  0.010896566            2 
  465000   0.53411633   -8.5602234    66.693915  0.011952315   0.01086153            3 
  466000    0.5337356   -8.5741143    66.598246  0.011909558  0.010826506            4 
  467000   0.52060513   -8.5640547     66.59909  0.011884206  0.010791672            2 
  468000   0.52175283   -8.5863399    66.514959  0.011843832  0.010756909            4 
  469000   0.52008176   -8.5583374    66.572506  0.011828804  0.010722285            2 
  470000   0.52037172   -8.5824674    66.649225  0.011817238  0.010687796            2 
  471000   0.51013673   -8.5745022    66.473082  0.011760984   0.01065344            3 
  472000   0.51334316   -8.5669702    66.528709  0.011745888  0.010619194            2 
  473000   0.51470507   -8.5675519    66.598146  0.011733289  0.010585075            3 
  474000   0.51175297   -8.5791776    66.574312  0.011704345  0.010551063            3 
  475000   0.51679264   -8.5896709    66.570071   0.01167896  0.010517172            3 
  476000   0.51636156   -8.6002036    66.441081  0.011631842  0.010483445            2 
  477000   0.51202914   -8.6080552    66.423104  0.011604316  0.010449774            2 
  478000   0.49757224   -8.5850991    66.444933  0.011583845  0.010416175            2 
  479000   0.50040913   -8.5971411    66.484559  0.011566555    0.0103828            3 
  480000   0.49513143   -8.5926424    66.510993  0.011547047  0.010349546            4 
  481000   0.50887079   -8.6043752    66.481301  0.011517897  0.010316493            3 
  482000   0.50131497   -8.5984917    66.468145  0.011491726  0.010283541            2 
  483000   0.49498826    -8.589247    66.432591    0.0114618  0.010250675            3 
  484000   0.49862914   -8.6088623    66.453802   0.01144177  0.010217934            3 
  485000   0.49219178   -8.6115314    66.434245  0.011414819   0.01018532            3 
  486000   0.48899456   -8.6251386    66.554246  0.011411908    0.0101528            2 
  487000   0.48578536   -8.6029347    66.422039  0.011365852   0.01012042            4 
  488000   0.48770334   -8.6214468    66.453757  0.011347978  0.010088236            4 
  489000   0.48793503     -8.61653    66.404679  0.011316407  0.010056101            4 
  490000   0.48226312   -8.6363681    66.471264  0.011304637  0.010024076            2 
  491000   0.48049196   -8.6316518    66.398442  0.011269254 0.0099922215            2 
  492000   0.47877758   -8.6342699    66.446453   0.01125448 0.0099604764            2 
  493000   0.48152163   -8.6324565    66.345375  0.011214566 0.0099288383            2 
  494000   0.48228588   -8.6279945    66.532747  0.011223473 0.0098974378            2 
  495000   0.46435818   -8.6414923     66.36883  0.011173204  0.009866099            1 
  496000   0.47803531   -8.6637605    66.334281  0.011144872  0.009834827            3 
  497000   0.46165816   -8.6325803    66.278626  0.011113116 0.0098036891            1 
  498000    0.4691085   -8.6501894    66.360194   0.01110445 0.0097726375            3 
  499000   0.46840053   -8.6486892    66.448381  0.011096924 0.0097417927            1 
  500000   0.46267783   -8.6480881    66.367378   0.01106123 0.0097110226            1 
  501000   0.46278488   -8.6578267    66.441238  0.011051437 0.0096803975            2 
  502000   0.47512289   -8.6610817    66.408723  0.011024024 0.0096498698            1 
  503000   0.46770195   -8.6652435      66.3153   0.01098663 0.0096195017            3 
  504000    0.4645335   -8.6666755    66.310121  0.010963975 0.0095892373            2 
  505000   0.46432054   -8.6633253    66.256958  0.010933491 0.0095590909            2 
  506000   0.45394207   -8.6650913    66.321245  0.010922471  0.009529045            1 
  507000   0.44890997   -8.6632483    66.316816    0.0109002 0.0094990986            3 
  508000   0.45973295   -8.6752798    66.373744  0.010888081 0.0094692397            4 
  509000    0.4524957     -8.67757    66.268537  0.010849466 0.0094395108            3 
  510000   0.45946747   -8.6530514    66.303496  0.010833904 0.0094098676            2 
  511000   0.45503522    -8.678362     66.25248  0.010804384 0.0093803725            2 
  512000   0.44715669   -8.6766342    66.265135  0.010785341 0.0093509723            2 
Loop time of 1203.3 on 48 procs for 500000 steps with 4000 atoms

Performance: 71802.759 tau/day, 415.525 timesteps/s
99.4% CPU use with 48 MPI tasks x no OpenMP threads

MPI task timing breakdown:
Section |  min time  |  avg time  |  max time  |%varavg| %total
---------------------------------------------------------------
Pair    | 74.65      | 79.778     | 86.502     |  31.5 |  6.63
Neigh   | 7.8668     | 8.1934     | 8.8065     |   6.0 |  0.68
Comm    | 72.32      | 80.376     | 86.19      |  35.2 |  6.68
Output  | 0.8287     | 0.82936    | 0.83886    |   0.2 |  0.07
Modify  | 1019.7     | 1022.9     | 1026       |   4.6 | 85.01
Other   |            | 11.21      |            |       |  0.93

Nlocal:        83.3333 ave          90 max          74 min
Histogram: 1 0 2 5 1 15 14 3 6 1
Nghost:        2062.96 ave        2084 max        2040 min
Histogram: 2 2 2 8 4 13 10 4 2 1
Neighs:        13472.0 ave       14750 max       11893 min
Histogram: 1 3 4 7 4 8 8 6 2 5
FullNghs:      26943.6 ave       29014 max       23821 min
Histogram: 1 0 4 1 4 16 10 4 3 5

Total # of neighbors = 1293295
Ave neighs/atom = 323.32375
Neighbor list builds = 26770
Dangerous builds = 0

#clear
#
#next RN
#
#jump SELF
Total wall time: 0:20:06
