
units lj                  # Use reduced LJ style units
atom_style atomic         # Uncharged point particles
atom_modify map hash      # Needed for indexing of clusters etc
                          # Used to be able to find where atoms are in relation to each other.

lattice fcc 1.0 spacing 1 1 1
Lattice spacing in x,y,z = 1.5874011 1.5874011 1.5874011
region box block 0 10 0 10 0 10 units lattice
create_box 2 box
Created orthogonal box = (0.0000000 0.0000000 0.0000000) to (15.874011 15.874011 15.874011)
  3 by 4 by 4 MPI processor grid
create_atoms 1 box
Created 4000 atoms
  using lattice units in orthogonal box = (0.0000000 0.0000000 0.0000000) to (15.874011 15.874011 15.874011)
  create_atoms CPU = 0.014 seconds
set type 1 type/fraction 2 0.14 78393
Setting atom values ...
  590 settings made for type/fraction
mass 1 1.0
mass 2 1.0
pair_style lj/cut  3.5
pair_modify tail  yes
pair_coeff 1  1  1.0  1.0   # Intearaction between 1 and 1 set with epsilon = 1 and sigma = 1
pair_coeff 1  2  1.5  0.8
pair_coeff 2  2  0.5  0.88

write_data data.0
System init for write_data ...
Neighbor list info ...
  update every 1 steps, delay 10 steps, check yes
  max neighbors/atom: 2000, page size: 100000
  master list distance cutoff = 3.8
  ghost atom cutoff = 3.8
  binsize = 1.9, bins = 9 9 9
  1 neighbor lists, perpetual/occasional/extra = 1 0 0
  (1) pair lj/cut, perpetual
      attributes: half, newton on
      pair build: half/bin/atomonly/newton
      stencil: half/bin/3d
      bin: standard
WARNING: Not all mixed pair coeffs generated from mixing. Use write_data with 'pair ij' option to store all pair coeffs. (../write_data.cpp:312)


#############################
#   M E L T   S Y S T E M   #
#############################

velocity all create 2.4 5833274 mom yes dist gaussian # Assign velocities
                                                    # Temperature 2.4, random number seed, zero linear momentum
                                                                                # Gaussian distribution

timestep 0.002   # simulation timestep
thermo 1000       # output thermodynamic data every 1000 steps bf 100

# Define a fix  in this case with index 1 applied to all
# particles in the simulation. This fix is for simulations
# in the anisotropic NPT ensemble. Note that we use the MTK
# correction.
fix 1 all npt temp 2.4 2.4 0.1 iso 5.68 5.68 0.5 mtk yes tchain 5 pchain 5 # Use NPT ensemble
                                                                         # Set temperature and pressure and damping
                                                                         # Numbers of thermostats in chain and in barostat
run 10000          # run for 10000 steps
Per MPI rank memory allocation (min/avg/max) = 3.642 | 3.644 | 3.648 Mbytes
Step Temp E_pair E_mol TotEng Press Volume 
       0          2.4   -7.4253508            0   -3.8262508   -3.2887046         4000 
    1000    2.4335796   -4.7164542            0   -1.0669974    5.6193366    4691.0443 
    2000    2.4655546   -4.7107914            0   -1.0133841    5.8881668    4666.1872 
    3000    2.3783349    -4.708347            0   -1.1417365    5.6471137     4687.528 
    4000    2.3687387   -4.7266964            0   -1.1744766    5.8965378    4648.8817 
    5000     2.439081   -4.7260792            0   -1.0683724    5.5462791     4701.624 
    6000    2.3692598   -4.7394347            0   -1.1864334    5.7138668    4668.3247 
    7000    2.4099611   -4.7077431            0   -1.0937053    5.6065256    4700.7639 
    8000    2.3725362   -4.7593942            0   -1.2014797    5.5579237    4667.4541 
    9000    2.3916385   -4.7532737            0   -1.1667127    5.4885048    4673.9689 
   10000    2.3751934   -4.7358558            0   -1.1739564    5.2020644     4724.915 
Loop time of 2.21588 on 48 procs for 10000 steps with 4000 atoms

Performance: 779824.020 tau/day, 4512.870 timesteps/s
99.6% CPU use with 48 MPI tasks x no OpenMP threads

MPI task timing breakdown:
Section |  min time  |  avg time  |  max time  |%varavg| %total
---------------------------------------------------------------
Pair    | 0.92387    | 0.99724    | 1.0901     |   3.3 | 45.00
Neigh   | 0.19356    | 0.20008    | 0.21133    |   0.9 |  9.03
Comm    | 0.63128    | 0.76639    | 0.86752    |   5.1 | 34.59
Output  | 0.00024899 | 0.00025674 | 0.0004808  |   0.0 |  0.01
Modify  | 0.21451    | 0.23698    | 0.27033    |   3.1 | 10.69
Other   |            | 0.01494    |            |       |  0.67

Nlocal:        83.3333 ave          90 max          75 min
Histogram: 5 2 2 2 8 6 6 4 9 4
Nghost:        1473.71 ave        1502 max        1445 min
Histogram: 1 4 3 7 7 10 5 8 2 1
Neighs:        8078.46 ave        9072 max        7018 min
Histogram: 4 2 3 6 7 7 7 6 3 3

Total # of neighbors = 387766
Ave neighs/atom = 96.941500
Neighbor list builds = 900
Dangerous builds = 181

# Equilibrate just above the melting temperature to avoid step fn in T

fix 1 all npt temp 1.25 1.25 0.1 iso 5.68 5.68 0.5 mtk yes tchain 5 pchain 5
run 2000
Per MPI rank memory allocation (min/avg/max) = 3.642 | 3.644 | 3.648 Mbytes
Step Temp E_pair E_mol TotEng Press Volume 
   10000    2.3751934   -4.7358558            0   -1.1739564    5.2020644     4724.915 
   11000    1.2558092   -6.2757713            0   -4.3925285    5.7414338    3864.6532 
   12000    1.2384677   -6.3530618            0   -4.4958248     5.810121    3834.4133 
Loop time of 0.484647 on 48 procs for 2000 steps with 4000 atoms

Performance: 713095.664 tau/day, 4126.711 timesteps/s
99.6% CPU use with 48 MPI tasks x no OpenMP threads

MPI task timing breakdown:
Section |  min time  |  avg time  |  max time  |%varavg| %total
---------------------------------------------------------------
Pair    | 0.2159     | 0.23547    | 0.25202    |   1.5 | 48.59
Neigh   | 0.032135   | 0.033902   | 0.036088   |   0.4 |  7.00
Comm    | 0.14538    | 0.16291    | 0.18688    |   2.0 | 33.61
Output  | 5.2535e-05 | 5.409e-05  | 6.9588e-05 |   0.0 |  0.01
Modify  | 0.043387   | 0.047713   | 0.054454   |   1.3 |  9.84
Other   |            | 0.004601   |            |       |  0.95

Nlocal:        83.3333 ave          90 max          75 min
Histogram: 3 1 3 5 9 1 9 7 7 3
Nghost:        1691.65 ave        1721 max        1669 min
Histogram: 3 6 2 7 12 9 4 3 1 1
Neighs:        9980.75 ave       10858 max        8552 min
Histogram: 1 2 2 4 6 7 4 8 11 3

Total # of neighbors = 479076
Ave neighs/atom = 119.76900
Neighbor list builds = 142
Dangerous builds = 12

#############################
# L I N E A R  Q U E N C H  #
#############################

# Define solid atoms. This closely follows ten Wolde  Ruiz-Montero and Frenkel  Faraday Discuss  1996  104  93-110
# Compute components of the per-atom q6 vector
compute q6 all orientorder/atom degrees 1 6 components 6 nnn NULL cutoff 1.3 # compute the Q6 parameter.
                                                                             # Use all neighbours within 1.3 unit cell.

# get number of connections
compute coord_number all coord/atom orientorder q6 0.5

# An atom is solid if it has 8 or more connections (of a possible 14)
variable is_solid atom c_coord_number>=8
group solid dynamic all var is_solid    # Must be dynamic to update
dynamic group solid defined

# do clustering
compute cluster solid cluster/atom 1.3 # Create a cluster where all atoms within are solid and max 1.3 units from another member

# define chunks one chunk per cluster
compute clus_chunks solid chunk/atom c_cluster nchunk every compress yes  # Says which atoms are in which chunk

# count the size of each chunk
compute size_chunks solid property/chunk clus_chunks count


# Find the maximum entry in the vector of chunk sizes
variable max_n equal max(c_size_chunks)


# Thermo style which includes this variable
# thermo_style custom step temp pe vol v_max_n

thermo ${N}  # Print the thermo information every 100 steps
thermo 1000  

# Reset the npt fix at a lower temperature (below freezing)
fix 1  all npt temp  ${temp} ${temp}  0.1  iso  5.68  5.68  0.5  mtk yes tchain  5  pchain  5
fix 1  all npt temp  0.45 ${temp}  0.1  iso  5.68  5.68  0.5  mtk yes tchain  5  pchain  5
fix 1  all npt temp  0.45 0.45  0.1  iso  5.68  5.68  0.5  mtk yes tchain  5  pchain  5

dump dmp2 all dcd ${N} traj.dcd
dump dmp2 all dcd 1000 traj.dcd


compute msd all msd com yes
variable twopoint equal c_msd[4]/6/(step*dt+1.0e-6)
fix 9 all vector 10 c_msd[4]
variable fit equal slope(f_9)/6/(10*dt)
thermo_style custom step temp pe c_msd[4] v_twopoint v_fit v_max_n

fix 1 all npt temp 1.25 ${temp} 0.1 iso 5.68 5.68 0.5 mtk yes tchain 5 pchain 5
fix 1 all npt temp 1.25 0.45 0.1 iso 5.68 5.68 0.5 mtk yes tchain 5 pchain 5
run 500000 # 5000000  # Run for this many steps
Neighbor list info ...
  update every 1 steps, delay 10 steps, check yes
  max neighbors/atom: 2000, page size: 100000
  master list distance cutoff = 3.8
  ghost atom cutoff = 3.8
  binsize = 1.9, bins = 9 9 9
  4 neighbor lists, perpetual/occasional/extra = 1 3 0
  (1) pair lj/cut, perpetual
      attributes: half, newton on
      pair build: half/bin/atomonly/newton
      stencil: half/bin/3d
      bin: standard
  (2) compute orientorder/atom, occasional
      attributes: full, newton on
      pair build: full/bin/atomonly
      stencil: full/bin/3d
      bin: standard
  (3) compute coord/atom, occasional
      attributes: full, newton on
      pair build: full/bin/atomonly
      stencil: full/bin/3d
      bin: standard
  (4) compute cluster/atom, occasional
      attributes: full, newton on
      pair build: full/bin/atomonly
      stencil: full/bin/3d
      bin: standard
Per MPI rank memory allocation (min/avg/max) = 9.760 | 9.765 | 9.771 Mbytes
Step Temp PotEng c_msd[4] v_twopoint v_fit v_max_n 
   12000    1.2384677   -6.3530618 1.1146605e-30 7.7406973e-33 8.3333333e+20            1 
   13000    1.2597767   -6.3475051   0.56258502 0.0036063141  0.046805339            1 
   14000    1.2267549   -6.3414562    1.1182548 0.0066562784   0.04561845            2 
   15000    1.2582376   -6.3654487    1.6549562 0.0091942009  0.045719137            1 
   16000    1.2167069   -6.3527687    2.2203029  0.011564077  0.046163903            4 
   17000    1.2218291   -6.3440246    2.7925158  0.013688802  0.046212914            5 
   18000    1.2568119    -6.382916     3.341555  0.015470161  0.046223899            2 
   19000    1.2250748   -6.3642929    3.8553455   0.01690941  0.045994847            7 
   20000    1.2451267   -6.3738512    4.3304608  0.018043586  0.045736433            2 
   21000    1.2612186   -6.3864366    4.8551087  0.019266304  0.045190155            2 
   22000    1.2438449   -6.4438209    5.3928871  0.020427602  0.044925557            3 
   23000    1.2293901   -6.4181542    5.8742978  0.021283687  0.044688521            4 
   24000    1.2257119   -6.3667635    6.4321713  0.022333928  0.044461494            2 
   25000    1.2084134   -6.4212264    6.8555546  0.022851848  0.044180538            1 
   26000    1.1997052   -6.4149817    7.3172067  0.023452585   0.04382537            3 
   27000    1.2206461   -6.4111306    7.9130665  0.024423044  0.043613008            1 
   28000    1.2150494   -6.3966621    8.2995305  0.024700983  0.043385113            2 
   29000    1.2201047   -6.3822609    8.7253559  0.025072861  0.043010245            2 
   30000    1.2167823   -6.4197138    9.3194551  0.025887375  0.042757624            3 
   31000    1.2093272   -6.4077188     9.897236  0.026605473   0.04268178            7 
   32000    1.2334687   -6.4579701    10.338901  0.026924221  0.042681363            2 
   33000    1.2029164    -6.410635    10.843413  0.027382357  0.042568932            2 
   34000    1.2276351    -6.404227    11.368091  0.027862968  0.042504798            1 
   35000    1.2336282    -6.412878    11.993498  0.028555946  0.042541563            2 
   36000    1.2041543   -6.3822493    12.595919   0.02915722  0.042609264            3 
   37000    1.2001419   -6.4270715    13.035827  0.029359971  0.042695578            2 
   38000    1.1903386   -6.4303143    13.542576  0.029698631   0.04269975            2 
   39000    1.2030941   -6.4588657    14.010512  0.029936991  0.042701453            2 
   40000     1.255196   -6.4834662    14.536844  0.030285092   0.04270906            6 
   41000    1.2069528    -6.453849    15.031246  0.030551313  0.042735329            3 
   42000    1.2149519   -6.4269791    15.460515  0.030675626  0.042710225            7 
   43000    1.2167489    -6.452038      15.9162  0.030845348  0.042642545            3 
   44000     1.189572   -6.4628244    16.319718  0.030908556  0.042540608            4 
   45000    1.2050116   -6.4437278     16.76008  0.031037185  0.042442963            3 
   46000    1.2272379   -6.4648042      17.1962  0.031152537  0.042322999            3 
   47000    1.1991983   -6.4196185     17.71459  0.031408847   0.04221495            1 
   48000    1.1973348   -6.4805836    18.015743  0.031277332   0.04208693            6 
   49000    1.1683104   -6.4592869    18.535503  0.031522964  0.041935946            3 
   50000    1.1793924   -6.4833667    18.900271  0.031500452  0.041793779            3 
   51000     1.187096   -6.4548171    19.336394  0.031595415  0.041653586            1 
   52000    1.1666921   -6.4719492    19.727706  0.031614913   0.04150072            3 
   53000    1.1814619   -6.4767669    20.026648   0.03148844  0.041317336            4 
   54000    1.1927933   -6.4993498    20.437452  0.031539278  0.041114368            2 
   55000    1.1697497   -6.4772134    20.852557  0.031594783   0.04092014            2 
   56000     1.205809   -6.4586585    21.347647  0.031767332  0.040743382            3 
   57000    1.2005113   -6.4956884    21.571035  0.031536601  0.040544451            2 
   58000    1.1569887   -6.5405571    21.955138  0.031544738  0.040352803            3 
   59000    1.1645764   -6.4565194    22.665661  0.032013646  0.040205309            2 
   60000    1.1653908   -6.5195494     23.18807  0.032205652  0.040085907            3 
   61000    1.1832981   -6.4758427    23.485055  0.032083409  0.039969522            1 
   62000    1.1625787   -6.5338525    23.997507  0.032254714  0.039859381            5 
   63000    1.1471428   -6.4946178    24.375079  0.032242168  0.039745423            3 
   64000    1.1611533    -6.542937    24.757609   0.03223647  0.039631698            3 
   65000     1.179193   -6.5026237    25.167774  0.032266377  0.039521381            3 
   66000    1.1905804   -6.5426651    25.583226  0.032302052  0.039410602            1 
   67000    1.1586895   -6.5335162    26.129359  0.032499202  0.039304409            2 
   68000    1.1338602   -6.5187189    26.427981  0.032387231  0.039199077            3 
   69000     1.163659   -6.5154983    26.780025  0.032343025  0.039093822            3 
   70000    1.1809199   -6.5117127    27.115952  0.032280895  0.038979155            3 
   71000    1.1762703   -6.4987492    27.399892  0.032159498  0.038843297            1 
   72000    1.1390221   -6.5255015    27.688721   0.03204713  0.038704239            3 
   73000    1.1577817   -6.5577089     28.05433  0.032025491  0.038556534            4 
   74000    1.1366768   -6.5080318    28.402036  0.031984274  0.038420913            2 
   75000    1.1589702   -6.5226092    28.892269   0.03210252  0.038297268            4 
   76000    1.1558975   -6.5104073    29.429326  0.032268997  0.038179938            3 
   77000    1.1533189   -6.5259618    29.778766  0.032228102   0.03805725            2 
   78000    1.1470929   -6.5564163    30.108539  0.032167242  0.037933898            1 
   79000    1.1595235   -6.5654092     30.42258  0.032091329  0.037821005            1 
   80000    1.1577714   -6.5774704    30.967816  0.032258141  0.037706692            2 
   81000     1.150488   -6.5648414    31.282919  0.032184072  0.037599066            3 
   82000    1.1270376   -6.5246388    31.659714  0.032174506  0.037493362            2 
   83000    1.1089572   -6.5301148    31.974608   0.03210302   0.03738218            2 
   84000     1.139225   -6.5535538    32.384983  0.032127959  0.037275511            2 
   85000    1.1460315   -6.5906317    32.736654  0.032094758  0.037172467            1 
   86000    1.1478545   -6.5508686     33.26054  0.032229205  0.037084737            3 
   87000    1.1646084   -6.5763638    33.649471  0.032231294  0.036994127            2 
   88000    1.1177188   -6.5720366    34.110855  0.032301946  0.036910741            3 
   89000    1.1442098   -6.5937514    34.409335  0.032218478  0.036834548            3 
   90000    1.1009665   -6.5519052    35.088662  0.032489501  0.036759365            6 
   91000     1.108359   -6.5876882    35.294243  0.032320735  0.036690592            2 
   92000    1.1117341   -6.5756804    35.862364  0.032484025  0.036623657            4 
   93000    1.1045608   -6.5733574    36.085861  0.032335001  0.036550404            2 
   94000    1.0871484    -6.600138    36.402404  0.032271635  0.036477192            1 
   95000    1.1199767   -6.6031276    36.730206  0.032219478  0.036399078            2 
   96000    1.1195526   -6.6467203    36.949963  0.032074621  0.036312859            3 
   97000    1.0864928    -6.602608    37.362968   0.03209877  0.036225069            2 
   98000     1.133242   -6.6323645    37.598948  0.031971894  0.036139327            4 
   99000    1.1033785   -6.6117104    38.259252  0.032204758  0.036067533            3 
  100000     1.108653   -6.6098571    38.890962  0.032409135  0.036005059            2 
  101000    1.1149079   -6.5974065    39.240953  0.032377024  0.035948614            3 
  102000    1.1068675   -6.6039831    39.775281  0.032496144  0.035900321            3 
  103000    1.1019534   -6.6368757    39.962543  0.032332154  0.035851875            5 
  104000    1.0864661   -6.5868306    40.398267  0.032370406   0.03579187            3 
  105000    1.1021568   -6.6505671    40.699614  0.032301281   0.03573593            3 
  106000    1.1001641   -6.6353544    41.160129  0.032358592  0.035683998            3 
  107000    1.1172016   -6.6216379    41.550256  0.032360012  0.035633717            2 
  108000    1.0743664   -6.6521531    41.851908  0.032293138  0.035584267            4 
  109000    1.0966232   -6.6178728    42.587094   0.03255894   0.03554285            2 
  110000    1.0985139   -6.6723574    43.106422   0.03265638  0.035512185            2 
  111000    1.0896739   -6.6638977    43.162622   0.03240437  0.035472503            4 
  112000    1.0722322   -6.6611022    43.421888  0.032307952  0.035430728            5 
  113000    1.1008525   -6.6676985    43.849457  0.032337357  0.035384246            6 
  114000    1.0824306   -6.6702317    44.303645  0.032385706  0.035341304            2 
  115000    1.0849427   -6.6499016    44.686423  0.032381466  0.035300943            3 
  116000    1.0927343   -6.6583673    44.936405    0.0322819   0.03526054            2 
  117000     1.087322   -6.6821707    45.390409  0.032329351   0.03521812            2 
  118000    1.0871972   -6.6481983    45.792098  0.032339052  0.035172547            3 
  119000      1.09491   -6.6857106    45.925648  0.032160818   0.03512439            5 
  120000    1.0629521   -6.6666434    46.380557   0.03220872  0.035077245            4 
  121000    1.0663044   -6.6625574     46.59621  0.032091054  0.035031546            4 
  122000    1.0712537   -6.6524289    47.202758  0.032242321  0.034983353            6 
  123000    1.0838064   -6.7170283    47.169406  0.031957592  0.034930832            2 
  124000    1.0970516    -6.708211    47.607883  0.031994545  0.034874246            3 
  125000    1.0835592   -6.7009175    48.021254  0.032014169  0.034816788            4 
  126000    1.0761605     -6.67918    48.220687  0.031891989  0.034762772            8 
  127000    1.0705593   -6.7100782    48.571445  0.031871027  0.034707522            2 
  128000    1.0739879   -6.6873319    48.968607  0.031880603  0.034650305            4 
  129000    1.0551453   -6.7380944    49.070322  0.031699175  0.034589019            2 
  130000     1.050623   -6.7134332    49.525398   0.03174705  0.034527472            4 
  131000    1.0690935   -6.6987109    49.703525  0.031618019  0.034469101            4 
  132000    1.0577669   -6.7026336    50.228077  0.031709644  0.034406045            3 
  133000     1.074364   -6.7043492    50.468308  0.031621747  0.034347637            6 
  134000    1.0314762   -6.6998945    50.792464  0.031587353  0.034284125            4 
  135000    1.0458525   -6.7140506    50.975518  0.031466369   0.03422373            6 
  136000     1.049988   -6.7044953    51.448421  0.031524768  0.034161095            4 
  137000    1.0346212   -6.7269689    51.664321  0.031425986  0.034098311            4 
  138000    1.0338371   -6.7184326    51.824341  0.031294892  0.034034975            4 
  139000    1.0439365   -6.7459241    52.140963   0.03125957  0.033967515            4 
  140000    1.0212731   -6.7301041    52.452548  0.031221755  0.033896591            3 
  141000    1.0525645   -6.7762401    52.550578  0.031058261  0.033823462            5 
  142000    1.0456856   -6.7144535    52.762747  0.030964053    0.0337475            2 
  143000    1.0732667   -6.7908666    52.874192  0.030812466  0.033668024            2 
  144000    1.0309579   -6.7327584    53.213807  0.030795027   0.03358565            3 
  145000    1.0495276   -6.7680301    53.358838  0.030665999  0.033504257            5 
  146000    1.0318839   -6.7855323    53.515437  0.030545341  0.033421707            7 
  147000    1.0487727   -6.7711549    53.908613  0.030560438  0.033339976            4 
  148000     1.027329   -6.7447655    54.052225  0.030434811  0.033258072            2 
  149000     1.033183   -6.7578176    54.350113  0.030397155  0.033174252            2 
  150000    1.0387228   -6.7732581    54.631772  0.030350984  0.033088477            5 
  151000     1.045351   -6.7756461      54.9705   0.03033692  0.033001334            2 
  152000    1.0231198     -6.76632    54.944128  0.030122877  0.032914017            6 
  153000    1.0078075   -6.7762042    55.422655  0.030186631   0.03282801            2 
  154000    1.0219675   -6.7786883    55.619808  0.030097298   0.03274599            3 
  155000    1.0380153   -6.8206854    55.895381   0.03005128  0.032662672            5 
  156000    1.0595748   -6.7298519    56.183956  0.030012797  0.032581146            2 
  157000    0.9945996   -6.7692411    56.542108  0.030011735  0.032502756            2 
  158000    1.0275267   -6.7961656    56.939658  0.030031465  0.032426348            8 
  159000    1.0361029   -6.8022522    57.034901  0.029892506   0.03234777            7 
  160000   0.99547842   -6.8066477    57.455372  0.029924673  0.032270195            5 
  161000    1.0086387   -6.8140166    57.872403   0.02995466  0.032194882            2 
  162000    1.0121783   -6.8222534    57.792228  0.029728512  0.032117069            3 
  163000    1.0223472   -6.8303181    58.180507  0.029744635  0.032039224            2 
  164000    1.0147399   -6.8324198    58.208329  0.029577403   0.03195938            2 
  165000    1.0071629    -6.820612    58.486392  0.029538582  0.031879776            3 
  166000   0.99367996   -6.8091879    58.896474  0.029566503  0.031800979            5 
  167000    1.0225529   -6.8235557    59.025596   0.02945389  0.031721568            3 
  168000    1.0076729   -6.8621764    59.037595  0.029284521  0.031641615            5 
  169000   0.98541808    -6.853024    59.328342  0.029254607  0.031560314            5 
  170000   0.98564436   -6.8597679    59.464696  0.029149361  0.031480844            3 
  171000   0.98046713    -6.866497    59.919194  0.029200387  0.031401518            5 
  172000   0.98723041   -6.8540456    60.179667  0.029156815  0.031322489            3 
  173000    1.0162945   -6.8634842    60.522425  0.029153384  0.031243887            2 
  174000    1.0104449   -6.8306201    60.742097  0.029091043  0.031167869            3 
  175000   0.99149528   -6.8480729     60.88616  0.028993409  0.031092234            3 
  176000   0.96282394   -6.8553332    61.138619   0.02894821  0.031013579            3 
  177000   0.98260284   -6.8640482    61.066982  0.028750933   0.03093612            7 
  178000    1.0097865   -6.8710906    61.378475  0.028735241  0.030857565            5 
  179000   0.96919404   -6.8754743    61.921982  0.028827738  0.030778881            4 
  180000    1.0003821   -6.8782929    62.156692  0.028776246  0.030702249            3 
  181000   0.99444926   -6.8818476    62.309126  0.028687443  0.030625799            4 
  182000   0.96680033    -6.836772    62.832196  0.028769321  0.030550531            4 
  183000   0.98833783   -6.8732941    62.945722  0.028663808  0.030475061            3 
  184000   0.97357597   -6.8759864     63.00358   0.02853423  0.030400023            3 
  185000   0.98529708   -6.8714314    63.356954  0.028539168  0.030325986            5 
  186000   0.96997522   -6.8954628    63.510998  0.028454748  0.030254248            5 
  187000   0.96272784   -6.8430148    64.043481  0.028539876  0.030183058            2 
  188000   0.96822784   -6.8742257    64.428061  0.028558537  0.030114053            4 
  189000   0.96044124   -6.9095166    64.510446  0.028443759  0.030046335            3 
  190000   0.95408327   -6.9060327    64.814345  0.028427344  0.029979042            3 
  191000   0.96560981   -6.9198125    65.225541  0.028457915   0.02991327            5 
  192000   0.97358296   -6.9069506    65.267926  0.028328093  0.029848331            4 
  193000   0.96408399   -6.9206519    65.509877  0.028285785  0.029782723            6 
  194000   0.95604074   -6.9169607     65.64756  0.028199124  0.029717588            7 
  195000   0.95478918   -6.8866365    66.107185  0.028250934  0.029655147            3 
  196000   0.94375685   -6.8957437       66.105  0.028105867   0.02959132            3 
  197000   0.94460238   -6.9052568    66.525273  0.028140978  0.029526765            4 
  198000   0.97734436   -6.9326508    66.819215  0.028122565  0.029463666            7 
  199000   0.95822477   -6.9063959    67.019212  0.028064997  0.029401247            5 
  200000   0.93931291   -6.9257472    67.224333  0.028010138  0.029338715            4 
  201000   0.95382606   -6.8921478    67.489614  0.027980768  0.029276807            2 
  202000   0.94404319   -6.9380145    67.438713  0.027821251  0.029212986           11 
  203000   0.94069522   -6.9447748    67.560814  0.027734324  0.029147208            6 
  204000   0.94697553   -6.9498875    67.937595  0.027752286  0.029082763            4 
  205000   0.92699785   -6.9659367    67.938195  0.027617152  0.029019031            6 
  206000   0.93002201   -6.9410181    68.345463  0.027647841  0.028953685            6 
  207000   0.94257338   -6.9534267    68.392825  0.027533343  0.028889051            2 
  208000   0.96878521   -6.9392086    68.531935  0.027456704  0.028822516            3 
  209000   0.93039363   -6.9570498    68.813685  0.027437674  0.028757491            4 
  210000   0.92078816   -6.9571634    69.114235  0.027426284  0.028691566            3 
  211000   0.90962746   -6.9941247    69.081983  0.027283564  0.028626105           12 
  212000   0.92802845   -6.9667303    69.484284  0.027313005  0.028561231            6 
  213000   0.92737949   -6.9927677    69.507016  0.027193668  0.028495223            7 
  214000   0.94815576    -6.980725    69.497419  0.027062858  0.028427596            7 
  215000   0.91648318   -6.9871571    69.593028  0.026974042  0.028357861            6 
  216000    0.9287313   -6.9700001    69.747426  0.026908729  0.028288819            6 
  217000   0.91866417   -7.0084919    69.830071  0.026816463  0.028220548            8 
  218000   0.93239611   -6.9778535    69.981292  0.026751258  0.028151142            4 
  219000   0.90704393   -6.9764871    70.415412  0.026794297  0.028081531            7 
  220000   0.90043817   -7.0098683    70.342502  0.026644887  0.028012592            4 
  221000    0.9199586   -6.9785567    70.636492  0.026635178  0.027943497            6 
  222000   0.90334489   -7.0081762    70.625604  0.026511113  0.027873695            7 
  223000   0.90641543   -7.0066547    70.907931  0.026497732  0.027803803            3 
  224000   0.94405054   -7.0141597    70.901358  0.026376993  0.027734275            3 
  225000   0.92441355   -7.0288868    71.451386  0.026463476  0.027665413           10 
  226000   0.91237274   -7.0000652    71.370574  0.026316583  0.027596861            2 
  227000   0.91658297   -7.0034334    71.710168  0.026325318  0.027528693            3 
  228000   0.90542431   -7.0090023     71.94633  0.026296173  0.027461105            3 
  229000   0.89889419   -7.0490078    71.833527  0.026140294  0.027392657            5 
  230000   0.91935867   -7.0265513    71.958817  0.026072035  0.027323413            3 
  231000   0.88826389   -7.0500642    72.142535  0.026025445  0.027253926            6 
  232000   0.90173545   -7.0471375      72.2592  0.025955172  0.027185169            6 
  233000   0.89893825   -7.0233034     72.53362  0.025941924  0.027117536            4 
  234000   0.88480807   -7.0252785    72.746883   0.02590701  0.027050039            3 
  235000   0.90358582   -7.0294459    72.930832  0.025861997  0.026983161            5 
  236000   0.87241066   -7.0539982     73.02519  0.025785731  0.026915958            4 
  237000    0.8725561   -7.0809537    73.005613  0.025670047  0.026847389           10 
  238000   0.87941587   -7.0535006    73.305607  0.025667229   0.02677964            6 
  239000    0.9012167   -7.0388388    73.575361  0.025653892  0.026713261            5 
  240000   0.88570191   -7.0880208    73.658915  0.025576012  0.026647015            4 
  241000   0.88967763   -7.0853751    73.970406  0.025577596  0.026580579            6 
  242000   0.87097268   -7.0921738    74.099446  0.025516338  0.026515193            5 
  243000   0.88678189   -7.0704607    74.227233  0.025455155  0.026449562            6 
  244000   0.89300008   -7.0738303    74.339941  0.025389324   0.02638408            8 
  245000    0.8554634   -7.0662678    74.634356  0.025385835  0.026318835            3 
  246000   0.87290449   -7.0529963    74.655779  0.025289898   0.02625339           11 
  247000   0.87004192   -7.0604557    74.697489  0.025201582  0.026187743            3 
  248000   0.87481704   -7.0804685    74.798498  0.025133904  0.026122201            6 
  249000   0.83947595    -7.092187    75.079983   0.02512717   0.02605603            3 
  250000   0.86214836   -7.0431516    75.171937  0.025057312  0.025990196            9 
  251000   0.85801048   -7.1070871    75.368744  0.025022823  0.025924998            5 
  252000   0.86431437   -7.1042348    75.310978  0.024904424  0.025859029            9 
  253000   0.88923652   -7.1127479    75.348817  0.024818451  0.025793168            7 
  254000   0.87618743   -7.1215917    75.630292  0.024813088  0.025726853           14 
  255000   0.84767966   -7.1035106    75.800042  0.024771256  0.025661387            3 
  256000   0.86917726   -7.1022156    75.909001  0.024709961  0.025597061            4 
  257000   0.85898779   -7.1209628    76.073849  0.024667266  0.025531965            3 
  258000   0.85236194   -7.1069624    76.179299  0.024605717  0.025467817            7 
  259000   0.84100794   -7.0832988    76.310112  0.024552803  0.025404824           15 
  260000   0.83641266   -7.1507435    76.309648  0.024458221  0.025341334            3 
  261000   0.84171435    -7.124389    76.649623   0.02447306   0.02527737            5 
  262000   0.84595266    -7.120436     76.85341  0.024444469  0.025214383            7 
  263000    0.8472173   -7.1433623    77.010896  0.024401425  0.025151577            7 
  264000    0.8336378   -7.1536773      76.9313   0.02428387  0.025089378            6 
  265000   0.84425344   -7.1368237    77.392936  0.024337401  0.025027205            4 
  266000   0.84551433   -7.1630804    77.443186   0.02426165  0.024965885            6 
  267000    0.8535803   -7.1448046    77.539985  0.024200994  0.024904059            7 
  268000   0.82469478   -7.1357049    77.745982  0.024174746   0.02484217            4 
  269000   0.83824944   -7.1691878     77.46611  0.023998175  0.024779251            4 
  270000   0.84628426   -7.1659345    77.841757  0.024025234  0.024715819            9 
  271000   0.85464182   -7.1713155    77.637814  0.023873866  0.024652111            7 
  272000     0.816377   -7.1708595    77.865334  0.023855801  0.024588726           10 
  273000   0.84259448   -7.2024707    77.893628  0.023777054  0.024525371            4 
  274000   0.83063256    -7.172926     77.77745  0.023654942  0.024461979            7 
  275000   0.83874686   -7.1742341    77.954137  0.023622466  0.024397956            3 
  276000   0.83229148   -7.1894612    78.169313  0.023601846  0.024333632           10 
  277000   0.82019917   -7.1944731    78.010479  0.023468856  0.024269108            6 
  278000   0.81683296   -7.1924031    78.166023  0.023431062  0.024204418            7 
  279000   0.83595125   -7.1902236    78.311898   0.02339065   0.02414048            3 
  280000   0.82037237   -7.1798131    78.753554  0.023438558  0.024075921            5 
  281000   0.84198712   -7.2262757    78.329287  0.023229326  0.024011434            5 
  282000   0.83712717   -7.2164266    78.669993  0.023247634  0.023946453            4 
  283000   0.80984284     -7.18714    78.696623  0.023173328  0.023882173           11 
  284000   0.79725523   -7.1793501    78.915303  0.023155899  0.023818585            7 
  285000   0.83276444   -7.2052791    78.907301   0.02307231  0.023754902            4 
  286000   0.79989474   -7.2044159    78.914392  0.022993704   0.02369072            6 
  287000   0.80470767   -7.2323077    78.684768  0.022846913   0.02362591            3 
  288000   0.79272099   -7.2228634    79.073283  0.022880001  0.023561641            4 
  289000   0.80735257   -7.2251887    79.107887  0.022810809  0.023497214            5 
  290000   0.78193407   -7.2437727    79.044704  0.022713995   0.02343254            2 
  291000   0.80416078   -7.2331646    79.175444   0.02267338  0.023367062            8 
  292000   0.82139437   -7.2316941    79.117112  0.022579084  0.023301453            7 
  293000   0.79627538   -7.2691817    79.010714  0.022471762  0.023236043           10 
  294000   0.79968985   -7.2578218    79.464149  0.022523852  0.023171536            7 
  295000   0.79550639   -7.2453111    79.415084   0.02243364  0.023107093            6 
  296000   0.79687718   -7.2458608    79.640566  0.022421331  0.023042561            9 
  297000    0.7955276   -7.2487843    79.434904  0.022288132  0.022977988           13 
  298000   0.79588351   -7.2398193    79.744926  0.022300035  0.022913269           11 
  299000   0.79132807   -7.2729806    79.640062  0.022196227  0.022848541            5 
  300000   0.78496552   -7.3099085    79.702937  0.022139705  0.022784099            4 
  301000    0.7950587   -7.2728274    79.824287  0.022099747  0.022719599           19 
  302000   0.80001139   -7.2749013    79.623422  0.021971143  0.022654715            9 
  303000   0.78680722   -7.2793546    79.781514   0.02194211  0.022589723            9 
  304000   0.78157483   -7.2999674    80.039057  0.021940531  0.022525251            2 
  305000   0.79504912   -7.2620195    80.229408  0.021920603  0.022461302            7 
  306000   0.78322404   -7.2826143    80.081561  0.021808704   0.02239724            5 
  307000   0.79159751    -7.279452    80.006371  0.021717256   0.02233316            4 
  308000   0.76372449   -7.2831601    80.169518  0.021690887   0.02226867            9 
  309000   0.77665276    -7.276384     80.28038  0.021650588  0.022204322            3 
  310000    0.7732616   -7.2635308    80.313897  0.021589757  0.022139836            4 
  311000   0.76954403   -7.3030774    80.284936  0.021512577  0.022075558           11 
  312000     0.755916   -7.2697295    80.185181  0.021416982  0.022011606            4 
  313000   0.76669193   -7.2885157    80.443756    0.0214174  0.021947805            3 
  314000   0.76314943   -7.3172854    80.451594  0.021351272  0.021883884            4 
  315000   0.77645611   -7.2853326    80.589477  0.021319967  0.021820661            3 
  316000   0.75711852   -7.3186097    80.660888  0.021271331  0.021757936            5 
  317000   0.75702866   -7.3419423    80.763163  0.021231115  0.021694915           10 
  318000   0.75859793   -7.3386975    80.577867  0.021115793  0.021631946            7 
  319000   0.77032518   -7.3163521    80.754987  0.021095869  0.021569108           26 
  320000   0.76802511   -7.3204009    80.719857  0.021020796  0.021505908           21 
  321000   0.76221513   -7.3187703    80.945291  0.021013835  0.021443687            8 
  322000   0.73857201   -7.3355614    80.926213  0.020943637  0.021381154            8 
  323000   0.75187707   -7.3380333    80.922021  0.020877714  0.021319022           10 
  324000   0.74362295   -7.3279355    81.051143  0.020846487  0.021256879            9 
  325000    0.7490309    -7.370017     80.89094  0.020741267  0.021194891           11 
  326000   0.73912197   -7.3834197      80.9103  0.020682592   0.02113282            6 
  327000   0.74959766   -7.3505931    81.013591  0.020645665  0.021070697            9 
  328000   0.74176279   -7.3123566    81.296695  0.020654648  0.021009053            5 
  329000   0.75435332   -7.3786477    81.549966   0.02065602  0.020947478            6 
  330000    0.7381138   -7.3628108     81.14802  0.020491924  0.020886119            4 
  331000   0.73517138   -7.3850032    81.298966  0.020468018  0.020824587            7 
  332000   0.73046438   -7.3962843    81.187513  0.020378392  0.020762904            5 
  333000   0.73486042   -7.3800498    81.299707  0.020345272  0.020701471           15 
  334000   0.74425015   -7.3928636    81.367355  0.020301236  0.020640017            7 
  335000   0.73995399   -7.3646368     81.44578  0.020260144  0.020579206            9 
  336000   0.74179419   -7.3916776    81.558242  0.020227738   0.02051865            6 
  337000   0.73944303    -7.389538    81.523712  0.020159177  0.020458296           10 
  338000   0.71753761   -7.4130829    81.702595  0.020143638  0.020397981           17 
  339000   0.72448877   -7.4084185    81.522986  0.020040065  0.020337512            7 
  340000   0.72531702   -7.3818182    81.785999  0.020045588  0.020277413           21 
  341000   0.72524049   -7.3865006     81.68504  0.019962131  0.020217484           10 
  342000   0.72062607   -7.3984455    81.763669  0.019922921  0.020157942           14 
  343000   0.72156466   -7.4018395     82.01928  0.019926939  0.020098514           17 
  344000   0.70993504   -7.4334365    82.008912    0.0198665  0.020039044            9 
  345000   0.71091381   -7.4362688    82.042991  0.019817148  0.019980213            8 
  346000   0.72275069   -7.4342214    81.863237  0.019716579    0.0199215            8 
  347000   0.73020272   -7.4197638    82.181417  0.019736171  0.019862814            6 
  348000   0.71615817   -7.4259568    82.081598  0.019655555  0.019804708           11 
  349000    0.7060767   -7.4072787    82.296663  0.019650588  0.019746597            7 
  350000   0.71681678   -7.4551971    81.985049   0.01952025  0.019688632            9 
  351000   0.72255869   -7.4358068    82.342348  0.019549465  0.019630763            9 
  352000   0.70855546   -7.4429812    82.434659  0.019515781  0.019573891           10 
  353000   0.69302747   -7.4655549    82.455096   0.01946532  0.019517041            6 
  354000    0.7013072    -7.433205    82.492138  0.019419053  0.019460368            5 
  355000   0.69197125    -7.464193    82.600508  0.019389791  0.019403916           10 
  356000    0.6984064   -7.4632834    82.601048  0.019335451  0.019347835           11 
  357000   0.70378886   -7.4741748    82.465581  0.019249669  0.019291587            9 
  358000   0.70390163   -7.4701286     82.43205  0.019188093  0.019235084           10 
  359000   0.68368169   -7.4829592    82.576211  0.019168108  0.019178537           16 
  360000   0.68231542   -7.4605288    82.502475  0.019097795  0.019122366            7 
  361000   0.69138058   -7.4747865     82.67638  0.019085037  0.019066439            7 
  362000   0.69571827   -7.4640401    82.683536  0.019033963   0.01901073            6 
  363000   0.68870509   -7.4951561    82.582184  0.018958261  0.018954724           15 
  364000   0.69413738   -7.5266356    82.479141  0.018882587  0.018898671           15 
  365000   0.68869219   -7.4976255      82.6722  0.018874931  0.018842778           19 
  366000   0.67547079   -7.4912116    82.580578  0.018802499  0.018786828           15 
  367000   0.67885593   -7.4770062    82.709864  0.018780623   0.01873132           10 
  368000    0.6782337   -7.4910711    82.685165  0.018723996  0.018675831           11 
  369000   0.68302222   -7.4958589    82.736483  0.018684843   0.01862034            7 
  370000   0.66368298   -7.4926902    82.700246  0.018626181  0.018564976            8 
  371000   0.67529169   -7.5031296    82.702549  0.018576494  0.018509774            7 
  372000   0.65788392   -7.5153609    82.688306  0.018523366  0.018454521            8 
  373000   0.67897793    -7.509828    82.722621  0.018481372   0.01839934            5 
  374000   0.66859236   -7.5154104    82.613731  0.018407694  0.018344225            7 
  375000   0.65966938   -7.5250352    82.702037   0.01837823    0.0182894            6 
  376000    0.6697464   -7.5381203    82.728257  0.018335163  0.018234844           16 
  377000   0.66626064   -7.5184953    82.839715  0.018311166  0.018180309            6 
  378000   0.67367064   -7.5458309    82.722103  0.018236795  0.018125728            9 
  379000   0.66501676   -7.5122859    82.888177  0.018225193  0.018071265           15 
  380000   0.65517818   -7.5157989     82.59626  0.018113215  0.018017079            7 
  381000   0.65280653   -7.5531288    82.690888  0.018086371  0.017962914            8 
  382000   0.64287775   -7.5432751    82.886357  0.018081666  0.017908626           20 
  383000   0.67537413   -7.5520061    82.749077  0.018004586  0.017854448           18 
  384000   0.64311996   -7.5631695    82.597364  0.017924775  0.017800292           15 
  385000   0.66548348   -7.5545346    82.563024  0.017870784  0.017746124           12 
  386000    0.6534783   -7.5478915    82.609811  0.017834588  0.017692135            6 
  387000   0.65159886   -7.5383642    82.742984   0.01781718  0.017638342            6 
  388000    0.6608709   -7.5469163    82.847495  0.017793706  0.017584905           10 
  389000   0.65127163   -7.5850737    82.800795  0.017737959  0.017531928            7 
  390000    0.6452846   -7.5693052    82.990044  0.017732915  0.017478981           11 
  391000    0.6516475    -7.567034    82.955433  0.017680186  0.017426149           14 
  392000   0.63303543   -7.5684747    82.905554   0.01762448  0.017373612           10 
  393000   0.63263035   -7.5590574    82.933751  0.017585613  0.017321133            9 
  394000   0.63340614    -7.562486    82.919611  0.017537989   0.01726856           10 
  395000   0.63593533   -7.5779421    82.895242  0.017488448  0.017216145           14 
  396000    0.6302465   -7.5866504    82.952609  0.017456357  0.017163879           21 
  397000   0.63064628   -7.6064303    82.872111  0.017395489  0.017111817           18 
  398000   0.62612082   -7.6070712    82.817584  0.017340365  0.017059762           18 
  399000   0.62114641    -7.616828    82.881988  0.017310357  0.017007693           16 
  400000   0.64227731   -7.6108063    82.934463  0.017278013  0.016955858           25 
  401000   0.63281843    -7.604491    83.013555  0.017251362  0.016904205           20 
  402000   0.61988607   -7.6074322    82.695989  0.017142618  0.016852839           20 
  403000   0.62763696   -7.6222013    82.919954  0.017146392  0.016801479           11 
  404000   0.62748356   -7.6205882    82.824904  0.017084345   0.01675019           17 
  405000   0.62320046   -7.6003659    82.885493  0.017054628   0.01669902           17 
  406000   0.60794604   -7.6353741    82.732958  0.016981313  0.016647928           20 
  407000    0.6157965   -7.6515543    82.869085  0.016967462  0.016596744           12 
  408000   0.61933922   -7.6570338    82.771396  0.016905922  0.016545838           10 
  409000   0.62369876   -7.6376579    82.938607  0.016898657   0.01649496           10 
  410000   0.61754844   -7.6457296    82.885015  0.016846548  0.016444355           15 
  411000   0.62018036   -7.6545332    82.890373  0.016806645  0.016393854           10 
  412000   0.60436986   -7.6457364    82.711705  0.016729714  0.016343486           16 
  413000    0.6112155   -7.6502182    82.764981  0.016699956  0.016293235           18 
  414000   0.61137348   -7.6454017    82.845442  0.016675814  0.016243128           18 
  415000   0.60337981   -7.6585202    82.858296  0.016638212  0.016193149           13 
  416000   0.60339985   -7.6572886    82.849596  0.016596474  0.016143156           12 
  417000   0.61090968   -7.6588415    82.806133  0.016547988  0.016093263           15 
  418000   0.59225326   -7.6590626    82.730557  0.016493333  0.016043462           19 
  419000   0.59336244   -7.6605889    82.921319  0.016491909  0.015993701           14 
  420000   0.60618911   -7.6777426    82.536302   0.01637625  0.015944075           19 
  421000   0.58784038    -7.679541    82.653301  0.016360511  0.015894498            9 
  422000   0.58666185    -7.691829    82.648997  0.016320892   0.01584502           14 
  423000   0.58145118   -7.6803639    82.526681  0.016258211  0.015795812           15 
  424000   0.59745308    -7.703287    82.688629  0.016251696  0.015746778           17 
  425000   0.59000637   -7.6935641    82.645495  0.016204999  0.015698087           16 
  426000    0.5962208   -7.6967203    82.617459  0.016161475  0.015649271           11 
  427000   0.58911761   -7.6884659    82.673398  0.016134543  0.015600612            8 
  428000   0.59291248    -7.705878    82.662578  0.016094739  0.015552203           13 
  429000   0.58403494   -7.6964439    82.551458  0.016035637  0.015503894           12 
  430000   0.57761864    -7.716056    82.715619  0.016030159  0.015455815            8 
  431000   0.58246034   -7.7206615    82.695958  0.015989164  0.015407891           13 
  432000   0.57716744   -7.7083896    82.516136  0.015917464  0.015360073            7 
  433000   0.57817173   -7.6893788    82.618868  0.015900475  0.015312335            8 
  434000   0.57631094     -7.70525    82.662073  0.015872134  0.015264779            8 
  435000   0.57668708   -7.7274332    82.821869  0.015866258  0.015217365           17 
  436000   0.57154791   -7.7197694    82.618741  0.015791044  0.015169994           16 
  437000    0.5811931   -7.7271796    82.560361  0.015743776  0.015122665            8 
  438000   0.57809803    -7.717743     82.62305  0.015719758  0.015075536           11 
  439000   0.56648891   -7.7284085    82.549311  0.015669953  0.015028587           19 
  440000    0.5757353   -7.7337447    82.706154  0.015664044    0.0149819            6 
  441000   0.55281934   -7.7241742    82.535055  0.015596193  0.014935375           20 
  442000   0.55613609   -7.7356762    82.634527  0.015579662   0.01488904           11 
  443000   0.56470572   -7.7350949    82.483705  0.015516122  0.014842778            8 
  444000   0.55017727   -7.7505491    82.430158  0.015471126  0.014796682           14 
  445000   0.55003633   -7.7349362    82.622226  0.015472327  0.014750655           16 
  446000   0.56614151   -7.7396155    82.463921  0.015408057  0.014704863           10 
  447000   0.54871031   -7.7616918    82.474128   0.01537549  0.014659107           15 
  448000   0.55090562   -7.7651408     82.50362  0.015346656  0.014613464            8 
  449000   0.54873503   -7.7791504    82.536769  0.015318628  0.014567989           15 
  450000   0.53636809   -7.7677491    82.406549  0.015260472  0.014522631           11 
  451000   0.54610415   -7.7704791    82.515797  0.015246821  0.014477359           13 
  452000   0.55170733    -7.770241     82.53775  0.015217137  0.014432302            9 
  453000   0.55514178    -7.772306    82.439385   0.01516545  0.014387223           14 
  454000    0.5441484   -7.7711682    82.429482  0.015130228  0.014342484           15 
  455000   0.53109066   -7.7638552    82.417417  0.015094765  0.014297939           12 
  456000   0.54384622   -7.7642573    82.449142   0.01506746  0.014253565           13 
  457000   0.53516909   -7.7753217    82.320207  0.015010979  0.014209226           11 
  458000   0.53786989   -7.7750967    82.563291  0.015022433   0.01416506           24 
  459000   0.52915789   -7.7844692    82.460794  0.014971095  0.014121029           14 
  460000   0.52542938   -7.7874456    82.344522  0.014917486  0.014077174           10 
  461000   0.52385348   -7.7966609    82.321132  0.014880899  0.014033431           20 
  462000   0.51699103   -7.8114719    82.340434  0.014852171  0.013989749           15 
  463000   0.53936338   -7.7962017    82.374778  0.014826274  0.013946171           17 
  464000   0.52362807   -7.7929156     82.42675  0.014803655  0.013902798           11 
  465000   0.51916304   -7.8003869    82.208881  0.014732774  0.013859621           26 
  466000   0.53484544   -7.8077523    82.287708  0.014715255  0.013816464           15 
  467000   0.51603058    -7.802221    82.368449  0.014698153  0.013773509           17 
  468000   0.51115539   -7.8066066     82.32282  0.014658622  0.013730657           11 
  469000   0.51167271   -7.8031769    82.287258  0.014621048  0.013687936           13 
  470000   0.51720676   -7.8183754    82.346936  0.014600521  0.013645386           10 
  471000   0.52045163   -7.8310513    82.245462  0.014551568  0.013603059           14 
  472000   0.50137235   -7.8302609    82.403744  0.014548684   0.01356084           13 
  473000   0.50809732   -7.8372585    82.435711  0.014523557  0.013518888           12 
  474000   0.50280754   -7.8396802    82.279779  0.014465503  0.013477026           13 
  475000   0.52299453    -7.819798     82.25991  0.014431563  0.013435392           19 
  476000   0.50396046   -7.8449045    82.371864  0.014420845  0.013393899           14 
  477000   0.50569713   -7.8369692    82.281104  0.014374756  0.013352514           16 
  478000   0.50152159    -7.832696    82.305146  0.014348875  0.013311252           16 
  479000    0.5077656   -7.8416498    82.264856  0.014311909  0.013270136           16 
  480000   0.50093532   -7.8296389    82.216087  0.014273626  0.013229211           16 
  481000   0.49522189   -7.8572604    82.264696  0.014252373  0.013188481           16 
  482000   0.50935238   -7.8523971    82.173935  0.014207112  0.013147826           16 
  483000   0.49138815   -7.8485447    82.200188  0.014182227  0.013107319           13 
  484000   0.48278252   -7.8464241    82.323958  0.014174235  0.013066995           17 
  485000   0.48920841   -7.8478482    82.380391  0.014154706  0.013026875           11 
  486000   0.49389114   -7.8385973    82.216291  0.014097444  0.012986841           20 
  487000   0.48555616   -7.8459191     82.18546   0.01406322  0.012946989           19 
  488000   0.49127728   -7.8603265    82.321337  0.014057605  0.012907136           19 
  489000   0.48070964   -7.8564321    82.254499  0.014017467  0.012867467           22 
  490000   0.48147745   -7.8771154    82.252672   0.01398855  0.012827965           21 
  491000   0.48055844   -7.8826798    82.237174  0.013957429   0.01278854           15 
  492000   0.48086257    -7.869607    82.125851  0.013910205  0.012749304           15 
  493000    0.4824785   -7.8660478    82.169625  0.013889389  0.012710145           15 
  494000   0.47205039   -7.8981792    82.046481  0.013840499  0.012671173           14 
  495000   0.48055715   -7.8734031    82.116885  0.013824391  0.012632367           14 
  496000   0.47345485   -7.8946694    82.091017  0.013792174  0.012593664           28 
  497000   0.45973788   -7.8895811     82.15581  0.013775287  0.012555119           18 
  498000   0.46538027   -7.8760449    82.053769   0.01373055  0.012516625           22 
  499000   0.46958727   -7.9061734    82.032939  0.013699556  0.012478299           15 
  500000   0.46209519   -7.9092497    82.113623  0.013685604  0.012440086           14 
  501000   0.47392078   -7.8930637    82.064636  0.013650139  0.012402017           14 
  502000   0.46382594   -7.8927352    82.100414  0.013628887  0.012364135           16 
  503000   0.46768976   -7.9056628    82.184452  0.013615714  0.012326376           13 
  504000    0.4647822   -7.9038569    82.140087  0.013581364  0.012288756           17 
  505000   0.46866362   -7.9123614    81.995421  0.013530597  0.012251267           16 
  506000   0.46704638   -7.9055333    81.999589  0.013504544  0.012213852           16 
  507000    0.4514864   -7.9291155    82.035929  0.013483881  0.012176568           13 
  508000   0.45876058    -7.908534    81.977777  0.013447798  0.012139437           18 
  509000   0.46220539   -7.9162368    81.957669  0.013418086  0.012102477           18 
  510000   0.44783847     -7.91875    82.064286  0.013409197   0.01206565           13 
  511000   0.44183731   -7.9382371    81.953976  0.013364967  0.012029011           14 
  512000   0.44824209   -7.9231944    81.926856  0.013334449   0.01199243           20 
Loop time of 1115.17 on 48 procs for 500000 steps with 4000 atoms

Performance: 77477.057 tau/day, 448.363 timesteps/s
99.4% CPU use with 48 MPI tasks x no OpenMP threads

MPI task timing breakdown:
Section |  min time  |  avg time  |  max time  |%varavg| %total
---------------------------------------------------------------
Pair    | 66.397     | 72.194     | 76.202     |  22.0 |  6.47
Neigh   | 6.9483     | 7.187      | 7.477      |   3.9 |  0.64
Comm    | 62.413     | 68.134     | 75.556     |  30.4 |  6.11
Output  | 0.79915    | 0.79961    | 0.80889    |   0.2 |  0.07
Modify  | 948.88     | 954.71     | 961.69     |   8.2 | 85.61
Other   |            | 12.14      |            |       |  1.09

Nlocal:        83.3333 ave          91 max          75 min
Histogram: 2 1 3 9 5 10 9 4 3 2
Nghost:        1860.04 ave        1883 max        1843 min
Histogram: 4 4 7 7 6 5 10 3 1 1
Neighs:        11543.0 ave       13019 max       10185 min
Histogram: 1 3 7 5 9 12 3 5 2 1
FullNghs:      23085.6 ave       24940 max       20488 min
Histogram: 2 0 2 7 8 7 4 6 8 4

Total # of neighbors = 1108108
Ave neighs/atom = 277.02700
Neighbor list builds = 26897
Dangerous builds = 0

#clear
#
#next RN
#
#jump SELF
Total wall time: 0:18:38
