
units lj                  # Use reduced LJ style units
atom_style atomic         # Uncharged point particles
atom_modify map hash      # Needed for indexing of clusters etc
                          # Used to be able to find where atoms are in relation to each other.

lattice fcc 1.0 spacing 1 1 1
Lattice spacing in x,y,z = 1.5874011 1.5874011 1.5874011
region box block 0 10 0 10 0 10 units lattice
create_box 2 box
Created orthogonal box = (0.0000000 0.0000000 0.0000000) to (15.874011 15.874011 15.874011)
  3 by 4 by 4 MPI processor grid
create_atoms 1 box
Created 4000 atoms
  using lattice units in orthogonal box = (0.0000000 0.0000000 0.0000000) to (15.874011 15.874011 15.874011)
  create_atoms CPU = 0.002 seconds
set type 1 type/fraction 2 0.69 78393
Setting atom values ...
  2781 settings made for type/fraction
mass 1 1.0
mass 2 1.0
pair_style lj/cut  3.5
pair_modify tail  yes
pair_coeff 1  1  1.0  1.0   # Intearaction between 1 and 1 set with epsilon = 1 and sigma = 1
pair_coeff 1  2  1.5  0.8
pair_coeff 2  2  0.5  0.88

write_data data.0
System init for write_data ...
Neighbor list info ...
  update every 1 steps, delay 10 steps, check yes
  max neighbors/atom: 2000, page size: 100000
  master list distance cutoff = 3.8
  ghost atom cutoff = 3.8
  binsize = 1.9, bins = 9 9 9
  1 neighbor lists, perpetual/occasional/extra = 1 0 0
  (1) pair lj/cut, perpetual
      attributes: half, newton on
      pair build: half/bin/atomonly/newton
      stencil: half/bin/3d
      bin: standard
WARNING: Not all mixed pair coeffs generated from mixing. Use write_data with 'pair ij' option to store all pair coeffs. (../write_data.cpp:312)


#############################
#   M E L T   S Y S T E M   #
#############################

velocity all create 2.4 9580093 mom yes dist gaussian # Assign velocities
                                                    # Temperature 2.4, random number seed, zero linear momentum
                                                                                # Gaussian distribution

timestep 0.002   # simulation timestep
thermo 1000       # output thermodynamic data every 1000 steps bf 100

# Define a fix  in this case with index 1 applied to all
# particles in the simulation. This fix is for simulations
# in the anisotropic NPT ensemble. Note that we use the MTK
# correction.
fix 1 all npt temp 2.4 2.4 0.1 iso 5.68 5.68 0.5 mtk yes tchain 5 pchain 5 # Use NPT ensemble
                                                                         # Set temperature and pressure and damping
                                                                         # Numbers of thermostats in chain and in barostat
run 10000          # run for 10000 steps
Per MPI rank memory allocation (min/avg/max) = 3.642 | 3.644 | 3.648 Mbytes
Step Temp E_pair E_mol TotEng Press Volume 
       0          2.4    -4.227286            0  -0.62818599   -3.7882121         4000 
    1000    2.4297374   -3.8989073            0  -0.25521235    5.5900604    3642.9346 
    2000    2.3986491    -3.880936            0  -0.28386178    5.6133868    3641.2772 
    3000    2.4293317   -3.8433008            0  -0.20021431     5.672901    3652.2695 
    4000    2.3301777   -3.8701324            0  -0.37573963    5.7804882    3645.9387 
    5000    2.3931829   -3.8833073            0  -0.29443039    5.4266712    3660.3106 
    6000    2.3688251   -3.9061358            0  -0.35378654    5.3459375    3652.3382 
    7000    2.3915268    -3.893927            0  -0.30753365    5.6499568    3631.0384 
    8000    2.4166933   -3.8915282            0  -0.26739453    5.8062106    3624.9327 
    9000    2.3732267   -3.8535732            0  -0.29462316    5.6784594    3651.1085 
   10000    2.4745579   -3.8781277            0  -0.16721883    5.8033782    3634.3149 
Loop time of 2.63225 on 48 procs for 10000 steps with 4000 atoms

Performance: 656471.571 tau/day, 3799.025 timesteps/s
99.6% CPU use with 48 MPI tasks x no OpenMP threads

MPI task timing breakdown:
Section |  min time  |  avg time  |  max time  |%varavg| %total
---------------------------------------------------------------
Pair    | 1.1828     | 1.2564     | 1.4167     |   3.3 | 47.73
Neigh   | 0.21546    | 0.22206    | 0.24238    |   0.9 |  8.44
Comm    | 0.71921    | 0.87827    | 0.93544    |   4.0 | 33.37
Output  | 0.00024133 | 0.0002489  | 0.00031995 |   0.0 |  0.01
Modify  | 0.22649    | 0.25982    | 0.28948    |   3.4 |  9.87
Other   |            | 0.01545    |            |       |  0.59

Nlocal:        83.3333 ave          94 max          71 min
Histogram: 2 1 1 9 11 5 8 6 3 2
Nghost:        1752.94 ave        1784 max        1728 min
Histogram: 2 5 6 10 7 6 5 2 3 2
Neighs:        10504.6 ave       12203 max        8562 min
Histogram: 1 0 3 8 8 11 8 5 2 2

Total # of neighbors = 504221
Ave neighs/atom = 126.05525
Neighbor list builds = 904
Dangerous builds = 201

# Equilibrate just above the melting temperature to avoid step fn in T

fix 1 all npt temp 1.25 1.25 0.1 iso 5.68 5.68 0.5 mtk yes tchain 5 pchain 5
run 2000
Per MPI rank memory allocation (min/avg/max) = 3.644 | 3.646 | 3.649 Mbytes
Step Temp E_pair E_mol TotEng Press Volume 
   10000    2.4745579   -3.8781277            0  -0.16721883    5.8033782    3634.3149 
   11000    1.2582077   -5.6931144            0   -3.8062746    5.6670446    2788.5593 
   12000    1.2384072   -5.7368886            0   -3.8797422    5.6784276    2778.6273 
Loop time of 0.647764 on 48 procs for 2000 steps with 4000 atoms

Performance: 533527.789 tau/day, 3087.545 timesteps/s
99.6% CPU use with 48 MPI tasks x no OpenMP threads

MPI task timing breakdown:
Section |  min time  |  avg time  |  max time  |%varavg| %total
---------------------------------------------------------------
Pair    | 0.29106    | 0.31972    | 0.34887    |   2.4 | 49.36
Neigh   | 0.040237   | 0.042678   | 0.045694   |   0.6 |  6.59
Comm    | 0.20282    | 0.23556    | 0.26792    |   3.1 | 36.37
Output  | 5.7447e-05 | 5.9378e-05 | 7.7e-05    |   0.0 |  0.01
Modify  | 0.041698   | 0.044837   | 0.047979   |   0.9 |  6.92
Other   |            | 0.004909   |            |       |  0.76

Nlocal:        83.3333 ave          91 max          72 min
Histogram: 1 1 1 5 7 7 13 5 5 3
Nghost:        2099.75 ave        2124 max        2079 min
Histogram: 5 3 4 5 13 3 8 1 3 3
Neighs:        13758.9 ave       15624 max       11914 min
Histogram: 1 2 6 7 8 11 2 8 2 1

Total # of neighbors = 660426
Ave neighs/atom = 165.10650
Neighbor list builds = 141
Dangerous builds = 7

#############################
# L I N E A R  Q U E N C H  #
#############################

# Define solid atoms. This closely follows ten Wolde  Ruiz-Montero and Frenkel  Faraday Discuss  1996  104  93-110
# Compute components of the per-atom q6 vector
compute q6 all orientorder/atom degrees 1 6 components 6 nnn NULL cutoff 1.3 # compute the Q6 parameter.
                                                                             # Use all neighbours within 1.3 unit cell.

# get number of connections
compute coord_number all coord/atom orientorder q6 0.5

# An atom is solid if it has 8 or more connections (of a possible 14)
variable is_solid atom c_coord_number>=8
group solid dynamic all var is_solid    # Must be dynamic to update
dynamic group solid defined

# do clustering
compute cluster solid cluster/atom 1.3 # Create a cluster where all atoms within are solid and max 1.3 units from another member

# define chunks one chunk per cluster
compute clus_chunks solid chunk/atom c_cluster nchunk every compress yes  # Says which atoms are in which chunk

# count the size of each chunk
compute size_chunks solid property/chunk clus_chunks count


# Find the maximum entry in the vector of chunk sizes
variable max_n equal max(c_size_chunks)


# Thermo style which includes this variable
# thermo_style custom step temp pe vol v_max_n

thermo ${N}  # Print the thermo information every 100 steps
thermo 1000  

# Reset the npt fix at a lower temperature (below freezing)
fix 1  all npt temp  ${temp} ${temp}  0.1  iso  5.68  5.68  0.5  mtk yes tchain  5  pchain  5
fix 1  all npt temp  0.45 ${temp}  0.1  iso  5.68  5.68  0.5  mtk yes tchain  5  pchain  5
fix 1  all npt temp  0.45 0.45  0.1  iso  5.68  5.68  0.5  mtk yes tchain  5  pchain  5

dump dmp2 all dcd ${N} traj.dcd
dump dmp2 all dcd 1000 traj.dcd


compute msd all msd com yes
variable twopoint equal c_msd[4]/6/(step*dt+1.0e-6)
fix 9 all vector 10 c_msd[4]
variable fit equal slope(f_9)/6/(10*dt)
thermo_style custom step temp pe c_msd[4] v_twopoint v_fit v_max_n

fix 1 all npt temp 1.25 ${temp} 0.1 iso 5.68 5.68 0.5 mtk yes tchain 5 pchain 5
fix 1 all npt temp 1.25 0.45 0.1 iso 5.68 5.68 0.5 mtk yes tchain 5 pchain 5
run 2000000 # 5000000  # Run for this many steps
Neighbor list info ...
  update every 1 steps, delay 10 steps, check yes
  max neighbors/atom: 2000, page size: 100000
  master list distance cutoff = 3.8
  ghost atom cutoff = 3.8
  binsize = 1.9, bins = 8 8 8
  4 neighbor lists, perpetual/occasional/extra = 1 3 0
  (1) pair lj/cut, perpetual
      attributes: half, newton on
      pair build: half/bin/atomonly/newton
      stencil: half/bin/3d
      bin: standard
  (2) compute orientorder/atom, occasional
      attributes: full, newton on
      pair build: full/bin/atomonly
      stencil: full/bin/3d
      bin: standard
  (3) compute coord/atom, occasional
      attributes: full, newton on
      pair build: full/bin/atomonly
      stencil: full/bin/3d
      bin: standard
  (4) compute cluster/atom, occasional
      attributes: full, newton on
      pair build: full/bin/atomonly
      stencil: full/bin/3d
      bin: standard
Per MPI rank memory allocation (min/avg/max) = 9.844 | 9.851 | 9.854 Mbytes
Step Temp PotEng c_msd[4] v_twopoint v_fit v_max_n 
   12000    1.2384072   -5.7368886 3.1625434e-30 2.1962106e-32 8.3333333e+20            3 
   13000    1.2589143   -5.7396906   0.57567664 0.0036902347  0.047851712            2 
   14000    1.2261668   -5.7520807    1.1726625 0.0069801336   0.04794201            3 
   15000    1.2654502   -5.7808644    1.7158807 0.0095326703  0.047686801            2 
   16000    1.2428411   -5.7627666    2.2858533  0.011905486  0.047532711            3 
   17000    1.2400755    -5.745984    2.8956655  0.014194438  0.047521611            5 
   18000    1.2660695   -5.7388941    3.4398994   0.01592546  0.047551534            3 
   19000    1.2624579   -5.7527883    4.0526123  0.017774615  0.047734453            2 
   20000    1.2342845   -5.7436729    4.5951865   0.01914661  0.047828228            1 
   21000    1.2499279   -5.7584339    5.1841136  0.020571879  0.047905286            2 
   22000    1.2297006   -5.7534098    5.8097723  0.022006713  0.047946889            2 
   23000    1.2284136   -5.7532695    6.4488253  0.023365309  0.048257811            2 
   24000    1.2283065   -5.7231919    7.0715993  0.024554164  0.048556512            3 
   25000     1.237495   -5.6961388    7.6529569  0.025509856   0.04884432            1 
   26000    1.2358562   -5.7539333    8.1443474  0.026103677  0.048893749            2 
   27000    1.2678419   -5.7398965      8.71707  0.026904537   0.04885777            2 
   28000    1.2405116   -5.8161804    9.2786679  0.027615082  0.048765174            5 
   29000    1.2449053   -5.7268992    9.9616138  0.028625326  0.048752794            2 
   30000    1.2301656   -5.7239166     10.56873  0.029357582  0.048837463            2 
   31000     1.220212   -5.7891712    11.116451  0.029882932  0.048919214            2 
   32000    1.2569044   -5.7696992    11.678168  0.030411895  0.048937574            1 
   33000    1.2242307   -5.7607364    12.243082  0.030916873  0.048881157            3 
   34000    1.2684349   -5.7231072    12.746813  0.031242189  0.048783006            2 
   35000    1.2512813   -5.7413137    13.154668  0.031320637  0.048590734            2 
   36000    1.2335743   -5.7483682    13.712294  0.031741421  0.048341712            2 
   37000    1.2374502   -5.7313639    14.317786  0.032247265  0.048119393            1 
   38000    1.2591982   -5.7535051    14.950353   0.03278586  0.048005935            1 
   39000    1.2637716   -5.7699616    15.433405   0.03297736  0.047897384            2 
   40000    1.2531978   -5.7572171    15.844681  0.033009752  0.047751851            1 
   41000     1.223002   -5.8386163     16.31356  0.033157642  0.047571255            3 
   42000    1.2308134   -5.7792598    17.063478  0.033856106  0.047465833            4 
   43000    1.2395679   -5.8093488    17.781539  0.034460347   0.04745847            1 
   44000    1.1933242   -5.7401673    18.444383  0.034932543  0.047496574            2 
   45000    1.2136218   -5.7888678    18.899605  0.034999268  0.047511461            2 
   46000    1.2238261   -5.7715868    19.421252  0.035183427  0.047479463            4 
   47000    1.2425006   -5.8249951    19.788252  0.035085553  0.047418604            3 
   48000    1.2276377   -5.7622774    20.422468  0.035455673  0.047344941            1 
   49000    1.2309995   -5.7985167    20.918516  0.035575707  0.047263848            2 
   50000    1.2369427    -5.753525    21.304392  0.035507319  0.047162371            4 
   51000    1.2310483    -5.783365    22.021862  0.035983434  0.047066585            3 
   52000    1.2512182   -5.7611084    22.530746  0.036106965  0.046995881            2 
   53000    1.2394074   -5.8270197    23.024332  0.036201779  0.046932935            2 
   54000    1.2326552   -5.7960704     23.76374  0.036672438  0.046883529            3 
   55000    1.2309346   -5.8158225    24.349765  0.036893583  0.046875094            2 
   56000    1.2107745   -5.7815255     25.09021  0.037336622   0.04689261            3 
   57000    1.2342223   -5.7073109    25.714128  0.037593754  0.046922325            1 
   58000    1.2583846   -5.7660624    26.317804  0.037812936  0.046959256            2 
   59000     1.223338   -5.8058116    26.725007  0.037747185  0.046993825            6 
   60000    1.2309842   -5.7532921    27.371649  0.038016178  0.047013751            4 
   61000    1.2465325   -5.7559545    27.878271   0.03808507   0.04703345            1 
   62000    1.2223252   -5.8026015    28.102872  0.037772678  0.047014858            2 
   63000    1.2182372   -5.7718349    28.985858  0.038341082  0.047004724            3 
   64000    1.2252001   -5.7751844    29.404793   0.03828749  0.047003541            9 
   65000    1.2524967   -5.8226732    30.002925  0.038465288  0.046991988            2 
   66000    1.2105921   -5.8170396    30.498566   0.03850829  0.046977483            3 
   67000    1.2428296   -5.7881137    31.039906  0.038606848  0.046955788            1 
   68000    1.2449693   -5.8088122    31.445955   0.03853671  0.046928259            5 
   69000    1.2247541   -5.8154102    31.916019  0.038545916  0.046884479            2 
   70000    1.2006461   -5.7756582    32.544402  0.038743335  0.046831684            1 
   71000     1.234609   -5.7722322    33.031459  0.038769318  0.046792217            2 
   72000    1.2419842    -5.816785    33.418859  0.038679235  0.046745608            5 
   73000    1.2392289   -5.8055615    34.165989   0.03900227  0.046695032            1 
   74000     1.238295   -5.8052634    34.773887  0.039159782  0.046646867            2 
   75000     1.233779   -5.7985718    35.206187  0.039117986  0.046622374            2 
   76000    1.2158598   -5.8203527    35.863189  0.039323671  0.046591027            2 
   77000    1.2105679   -5.7821991    36.449658  0.039447681  0.046559137            2 
   78000     1.241357   -5.7932374    37.063177  0.039597411  0.046535544            2 
   79000    1.2099782   -5.7968438    37.535863  0.039594792  0.046520607            2 
   80000    1.2113951   -5.7872799    38.265782  0.039860189  0.046511094            1 
   81000    1.2233899   -5.7797583    38.727077  0.039842672  0.046516566            4 
   82000    1.2090543   -5.8324646    39.475565  0.040117444  0.046526442            3 
   83000    1.2127762   -5.7732923    40.255101  0.040416768  0.046541631            2 
   84000    1.1742064   -5.8054017    40.732727  0.040409451  0.046575255            4 
   85000    1.1960149   -5.8188544    41.375339  0.040564058  0.046605698            2 
   86000    1.2075962   -5.8000476     41.86022  0.040562229  0.046618619            2 
   87000    1.2404197   -5.8065243    42.143347   0.04036719   0.04662938            1 
   88000     1.242626   -5.8037696    42.705578  0.040440888  0.046639739            1 
   89000    1.1948752    -5.799626    43.355447  0.040594987  0.046641178            2 
   90000    1.2480128    -5.838607    43.768036  0.040525959  0.046635969            3 
   91000     1.230808   -5.8527757    44.309714  0.040576661  0.046632826            3 
   92000    1.2228082   -5.8315679    44.926481  0.040694276  0.046633696            2 
   93000    1.2195762   -5.8294024    45.602596  0.040862541  0.046632535            4 
   94000    1.2344194   -5.8208776    46.057245  0.040830891  0.046622325            4 
   95000    1.2258536   -5.8003036    46.719844  0.040982319  0.046614448            2 
   96000    1.2010354   -5.8431974    46.933801  0.040741147  0.046591384            4 
   97000    1.2119931   -5.8428743    47.732522  0.041007321  0.046573974            2 
   98000    1.2101026   -5.8275362      48.4531  0.041201615  0.046569945            5 
   99000    1.2015281   -5.8793047    48.577906  0.040890493   0.04656486            2 
  100000     1.239509   -5.8092714    49.505621  0.041254684  0.046564522            2 
  101000    1.2162298   -5.8187803    49.786173    0.0410777  0.046556483            1 
  102000    1.2193292   -5.8039389    50.543695  0.041293868  0.046541473            2 
  103000    1.2086778   -5.8641821    50.801685  0.041101686  0.046528736            1 
  104000    1.2399512    -5.817908    51.444672  0.041221692  0.046517313            2 
  105000    1.2078516   -5.8179809    52.108601  0.041356032  0.046502078            2 
  106000    1.1988915     -5.85402     52.42311  0.041213137  0.046488563            3 
  107000    1.1971242   -5.8311312    52.889536  0.041191228  0.046465018            2 
  108000    1.2039309   -5.8535727    53.242452  0.041082139  0.046441346            2 
  109000    1.2243244   -5.8532038    53.776189  0.041113294  0.046412851            1 
  110000     1.204597   -5.8485413    54.085982  0.040974229  0.046373232            5 
  111000    1.1956914   -5.8556207    54.485108  0.040904736  0.046324937            3 
  112000    1.2143247   -5.8346899    55.283486  0.041133546  0.046276081            1 
  113000    1.2164238   -5.8175676    55.842913  0.041182089  0.046239815            2 
  114000    1.2169859    -5.821273    56.418086  0.041241291  0.046209475            2 
  115000    1.1986697   -5.8192865    57.152724  0.041415017   0.04618688            5 
  116000    1.2324492   -5.7941854    57.658366   0.04142124   0.04616817            2 
  117000    1.2320442   -5.8849824    58.399989  0.041595433  0.046162431            2 
  118000    1.2000863   -5.8631275    58.820141  0.041539648  0.046151589            2 
  119000    1.2075127   -5.8667255    59.289927  0.041519556  0.046141906            5 
  120000    1.2164046   -5.8535475    60.118093  0.041748676  0.046131862            3 
  121000    1.2016115   -5.8201627    60.622007  0.041750693  0.046120185            1 
  122000    1.1984887   -5.8749655    60.873899  0.041580532  0.046106125            2 
  123000    1.2059466   -5.8410199    61.312763  0.041539812  0.046096567            4 
  124000     1.203518   -5.8733484    62.167737  0.041779393  0.046089335            3 
  125000     1.211014   -5.8666075     62.93989  0.041959926  0.046087286            3 
  126000      1.19392   -5.8439196    63.589597  0.042056612  0.046085115            1 
  127000    1.1885213   -5.8270951    63.752358  0.041832256  0.046074809            2 
  128000    1.1920218   -5.8242267    64.284055  0.041851598  0.046066455            1 
  129000    1.1863213   -5.8667138    64.871634   0.04190674  0.046059704            3 
  130000    1.1859477   -5.8493394    65.870207  0.042224491  0.046058435            2 
  131000    1.2160543   -5.8518695    66.375959  0.042223892  0.046068739            3 
  132000    1.2243169   -5.8609875     66.54196  0.042008813  0.046065884            3 
  133000    1.2120498   -5.8709291    67.024897  0.041995549  0.046059396            3 
  134000      1.20478    -5.874287    67.630243  0.042058609  0.046048455            3 
  135000    1.2053641   -5.8576922    68.426359  0.042238493  0.046043782            2 
  136000    1.2277757   -5.8171717    68.813973  0.042165425  0.046032275            6 
  137000     1.208393    -5.856669    69.083998  0.042021897  0.046020157            2 
  138000    1.2000588   -5.8752535     69.38579  0.041899632  0.045999761            2 
  139000    1.1843661   -5.8187051    69.996471  0.041964311  0.045978804            2 
  140000    1.2078707   -5.8800564    70.390444  0.041899073  0.045957209            3 
  141000    1.1768815   -5.8174226     71.21658  0.042090177  0.045938397            1 
  142000    1.2159421    -5.918607     71.37497   0.04188672  0.045922235            3 
  143000    1.1718709   -5.8516724    72.328807  0.042149654  0.045900903            2 
  144000    1.2121964   -5.8948617    72.412491  0.041905376  0.045875127            2 
  145000    1.2072231    -5.848211    73.125024  0.042025876  0.045853543            2 
  146000    1.1792704   -5.8818368    73.308521  0.041842763  0.045826892            3 
  147000    1.1870403   -5.8145191    73.950111  0.041921832  0.045798521            3 
  148000    1.1900572    -5.850814    73.914376  0.041618455   0.04576861            2 
  149000    1.1997402   -5.8575702    74.824607  0.041848214  0.045742636            3 
  150000    1.2047778   -5.8654779     75.23222  0.041795678  0.045715041            3 
  151000    1.2058814   -5.8871901     75.76569  0.041813294  0.045685877            3 
  152000    1.1917216   -5.9136064    76.429301  0.041902029  0.045662432            2 
  153000    1.2205435   -5.8629778    77.394303   0.04215376  0.045642598            2 
  154000    1.1833142   -5.8797555    77.825964  0.042113617  0.045624712            5 
  155000     1.191029   -5.8786787    77.894602  0.041878818  0.045601233            3 
  156000    1.2061621   -5.8556643    78.452333  0.041908297  0.045575055            2 
  157000    1.1852273   -5.8998803    78.785594  0.041818256   0.04555079            2 
  158000    1.1872052   -5.8533285    79.373114  0.041863457  0.045524468            2 
  159000     1.199199   -5.8854381    79.932137  0.041893154  0.045502322            4 
  160000    1.1792308   -5.8988611    80.369239  0.041858979  0.045479195            1 
  161000    1.1818472   -5.8669599    80.616798  0.041727121  0.045452817            3 
  162000    1.1747504   -5.9298089    81.011216  0.041672436  0.045422179            2 
  163000    1.2271047   -5.9209731    81.305123  0.041567036  0.045392428            3 
  164000    1.1903631    -5.871759    82.416657  0.041878382  0.045367443            5 
  165000    1.1963516   -5.8916569    82.608076  0.041721251  0.045339685            3 
  166000    1.1689985   -5.8821391    83.367956  0.041851384  0.045311993            4 
  167000    1.2016107    -5.908798    83.885018  0.041858791  0.045286569            3 
  168000    1.1920529   -5.8795906     84.83396  0.042080337  0.045260495            1 
  169000    1.1905903    -5.900164     84.91206  0.041869852   0.04523754            3 
  170000    1.1819439    -5.897962    85.442388  0.041883523  0.045213126            2 
  171000    1.1533211   -5.9241404    85.966361  0.041893938  0.045189093            2 
  172000    1.1919646   -5.9191241    86.315101  0.041819332  0.045168603            3 
  173000    1.1732921   -5.8798143    87.126704  0.041968547  0.045145087            3 
  174000    1.1700681   -5.8627107    87.471842  0.041892645  0.045120516            3 
  175000    1.1994486   -5.9100778     87.33687  0.041588986  0.045094244            2 
  176000    1.1852421   -5.8790211    88.326757  0.041821381  0.045064926            2 
  177000    1.1687168   -5.8829251    88.636071   0.04173073   0.04503569            2 
  178000     1.186726   -5.9396485    88.596448  0.041477738   0.04500212            3 
  179000     1.196827   -5.9230937     89.54995  0.041689921  0.044969202            4 
  180000    1.1771449   -5.8738305    90.158363  0.041739983  0.044937807            2 
  181000    1.2000843   -5.8925984    90.572461  0.041700028  0.044910835            5 
  182000    1.1977323   -5.8733197    91.716527  0.041994747  0.044884543            3 
  183000    1.1776997   -5.9480983    91.718828  0.041766315   0.04486323            1 
  184000    1.2058069   -5.9199222    92.567047  0.041923481  0.044844536            2 
  185000    1.1941332   -5.8760059    93.369985  0.042058552  0.044828456            2 
  186000    1.2095741   -5.9005022    93.757476  0.042006038  0.044812137            4 
  187000    1.1981883   -5.8652515    94.281835  0.042015078   0.04479454            7 
  188000    1.1762911   -5.9172261    94.395264  0.041841872  0.044776831            3 
  189000    1.1569684   -5.8745087    95.342687  0.042038222  0.044758248            3 
  190000    1.1686919   -5.9218102     95.52942  0.041898868  0.044740945            2 
  191000    1.1658664   -5.9277444    95.756347  0.041778511    0.0447221            3 
  192000     1.176696   -5.9124767    96.612961  0.041932709  0.044700689            2 
  193000    1.1763941   -5.8832329    97.125859  0.041936899  0.044679009            3 
  194000     1.151126   -5.9086012    97.870069  0.042040408  0.044658541            4 
  195000    1.1469306   -5.9161831    97.872075  0.041825673  0.044635315            3 
  196000    1.1900361   -5.9237363    98.098519  0.041708554  0.044609645            2 
  197000    1.1838811   -5.8988467    98.646668  0.041728709  0.044583712            4 
  198000    1.1766645   -5.9394455    99.306606  0.041795709   0.04455939            2 
  199000    1.1413072   -5.9224955    99.480581  0.041658534  0.044536041            4 
  200000    1.1640817   -5.8909237    100.59906  0.041916276  0.044515469            4 
  201000    1.1916277   -5.9369684    100.49945  0.041666439  0.044490257            3 
  202000    1.1575059   -5.9107877    101.14569  0.041726771  0.044466342            2 
  203000    1.1693753   -5.9290752    101.12554  0.041512949  0.044440808            3 
  204000    1.1644982   -5.9163895     101.6114  0.041507925  0.044414696            3 
  205000    1.1549827   -5.9416821    102.09819  0.041503329  0.044385141            1 
  206000    1.1735108   -5.8828373    103.05002  0.041686903  0.044354001            2 
  207000    1.1840339   -5.9203414    102.94162  0.041441875   0.04432595            2 
  208000     1.145502   -5.9131908     103.4336  0.041439742  0.044298989            4 
  209000    1.1540289   -5.9526468     104.2845  0.041580741   0.04427084            2 
  210000    1.1637404   -5.9849746    104.57386  0.041497564  0.044244967            2 
  211000    1.1462385   -5.9556268    105.10139  0.041509237  0.044216742            2 
  212000    1.1699187   -5.9190442    105.65954  0.041532837  0.044190598            2 
  213000    1.1905049   -5.9298116    106.04616  0.041489108   0.04416532            2 
  214000    1.1784172   -5.9609883    105.83513  0.041213058  0.044137776            5 
  215000     1.152238    -5.932407    107.03814  0.041487649  0.044106581            1 
  216000     1.186965   -5.9235057     107.5567   0.04149564  0.044080161            3 
  217000    1.1789235   -5.9499679    107.90926  0.041439809  0.044055041            3 
  218000    1.1862238    -5.955969    108.38118  0.041430115  0.044027197            2 
  219000    1.1903864   -5.9722553    108.28826  0.041205578  0.043997236            4 
  220000    1.1574454   -5.8915712    109.43863  0.041454026  0.043969338            2 
  221000    1.1701913   -5.9905317    109.54054  0.041304879  0.043942927            2 
  222000    1.1427808   -5.9392833    110.54339  0.041495266   0.04391705            3 
  223000    1.1531783   -5.9121853    110.73926  0.041382385  0.043889496            3 
  224000    1.1448297     -5.95871    110.86059  0.041242779  0.043859271            3 
  225000    1.1947183   -5.9405982    111.12919   0.04115896  0.043830088            4 
  226000    1.1698076   -5.9552469     112.0314  0.041309514   0.04380071            3 
  227000    1.1515172   -5.9574901    112.41629  0.041268827  0.043773578            2 
  228000    1.1557249   -5.9238411     113.1375  0.041351426  0.043746989            4 
  229000    1.1486554   -5.9076223      113.834  0.041424307  0.043721245            6 
  230000    1.1317297   -5.9233298    114.34676  0.041429986  0.043697984            3 
  231000    1.1787351   -5.9547174    114.15394  0.041181075  0.043671929            3 
  232000    1.1772634   -5.9064768     114.6086  0.041166881  0.043642661            3 
  233000    1.1685074   -5.9169238    115.09781  0.041165167  0.043611497            4 
  234000     1.174871   -5.9325683    115.51614  0.041138228   0.04357892            5 
  235000    1.1629342   -5.9247004    115.62604  0.041002141  0.043547857            1 
  236000    1.1779014   -5.9201739    116.55082  0.041154951  0.043518589            2 
  237000    1.1629259   -5.9609181    116.61265  0.041003041  0.043489029            3 
  238000    1.1724689   -5.9394305    117.39143  0.041103442  0.043460231            5 
  239000    1.1518476   -5.9718553    117.52441  0.040977828  0.043430097            4 
  240000    1.1538201   -5.9952977    117.55302  0.040817019  0.043399188            7 
  241000    1.1499538   -5.9442898    118.38879  0.040936651   0.04336874            2 
  242000    1.1700853   -5.9701762    118.79281  0.040906615   0.04333852            4 
  243000     1.164405   -5.9520088    118.97677  0.040801362  0.043306572            3 
  244000    1.1739597    -5.973586    119.43758  0.040791523   0.04327552            3 
  245000    1.1237542   -5.9454532    120.57149  0.041010712  0.043245306            2 
  246000     1.175034   -5.9455587    121.17167  0.041047315  0.043218775            2 
  247000    1.1793172   -5.9269566    121.71586   0.04106473  0.043194399            3 
  248000     1.172308   -5.9474023    122.17617  0.041053819  0.043170044            5 
  249000    1.1497648   -5.9461893    122.33627  0.040942526  0.043143763            2 
  250000    1.1679547   -5.9511797    122.80726  0.040935753  0.043116491            3 
  251000    1.1239015   -5.9833935    122.77686   0.04076257  0.043090088            3 
  252000    1.1517125   -5.9674007    123.65572  0.040891442  0.043063068            2 
  253000    1.1309193   -5.9977135    124.04659  0.040858561  0.043035515            2 
  254000    1.1365765   -5.9852128    124.05479  0.040700391  0.043010117            6 
  255000    1.1682735   -5.9668945    125.15178  0.040899276  0.042985105            3 
  256000    1.1503029   -5.9643103    125.11787  0.040728472  0.042957733            2 
  257000    1.1456111   -5.9835447    126.16772  0.040910415  0.042930378            2 
  258000      1.14304   -5.9441786    126.45594  0.040844942  0.042905019            4 
  259000    1.1502007   -5.9295958    126.97576   0.04085449  0.042877229            2 
  260000    1.1821586   -5.9675989    127.03038  0.040714865  0.042850181            5 
  261000    1.1401151     -5.94527    127.86722   0.04082606  0.042823715            5 
  262000    1.1376785   -5.9731013    128.17856  0.040769262  0.042795372            4 
  263000    1.1708342   -5.9603256    128.85231  0.040827727  0.042770013            4 
  264000    1.1532919   -5.9634252    128.98754  0.040715764  0.042746855            2 
  265000    1.1355775    -5.965967    130.00697  0.040882694  0.042726255            3 
  266000     1.146772   -5.9366198    130.69789  0.040945454  0.042705588            5 
  267000    1.1418208   -6.0008111     131.0314  0.040896191  0.042686938            6 
  268000    1.1497768   -5.9849534    131.53097  0.040898933  0.042666532            2 
  269000    1.1332622   -5.9806304     131.6356  0.040779306  0.042646189            4 
  270000    1.1365687   -5.9360231    132.88216  0.041013014  0.042626706            3 
  271000    1.1310718   -5.9783339    132.68382  0.040800682  0.042606171            4 
  272000    1.1416325   -6.0037453    133.47593   0.04089336  0.042586409            5 
  273000    1.1279946   -5.9529077    134.13185  0.040943789  0.042568519            2 
  274000    1.1296068   -6.0098295     134.4407   0.04088829  0.042549845            4 
  275000    1.1673208   -5.9501237    135.22062  0.040975944   0.04252959            2 
  276000    1.1418019   -5.9683572    135.36249  0.040870318  0.042508903            2 
  277000    1.1525792   -6.0162601     134.9942  0.040611975  0.042486732            3 
  278000    1.1491573   -5.9758904    135.67692  0.040670539  0.042463568            4 
  279000    1.1455701   -5.9677984    136.07657  0.040644137  0.042440567            3 
  280000    1.1551361   -5.9924101     136.3814  0.040589703  0.042415643            5 
  281000    1.1249528   -5.9801617    136.73237  0.040549338  0.042392717            2 
  282000    1.1351431    -6.029309    136.68597  0.040391835  0.042368569            3 
  283000     1.152511   -5.9924661    137.96554  0.040625896  0.042344851            3 
  284000    1.1465855   -5.9742917    138.20473  0.040553032  0.042321969            3 
  285000    1.1379335   -5.9887179    138.53612  0.040507637  0.042299308            2 
  286000    1.1372695   -5.9756703    138.50832  0.040357901  0.042275494            4 
  287000    1.1510605   -5.9532708    139.84382  0.040605059  0.042251392            5 
  288000     1.120175   -5.9884685    139.88186  0.040475074  0.042227236            2 
  289000    1.1391234    -5.994375    140.30355  0.040456617  0.042202432            4 
  290000    1.1404883   -5.9860034    140.34067  0.040327777  0.042177147            3 
  291000    1.1647104   -5.9898524    140.84399  0.040333332  0.042151531            3 
  292000      1.13179   -6.0358822    140.95424  0.040226666  0.042126938            2 
  293000    1.1453489   -6.0107556    141.61442  0.040277138  0.042102874            5 
  294000    1.1388834    -6.004549    142.09944  0.040277618  0.042077883            1 
  295000    1.1378953   -5.9802058    142.10427  0.040142448  0.042055085            3 
  296000    1.1283969   -5.9566925    143.04919  0.040272856  0.042028609            2 
  297000    1.1143542   -6.0119073    143.30548  0.040209169  0.042003264            2 
  298000     1.133049   -5.9992327    143.32229  0.040078939  0.041973923            2 
  299000    1.1355742    -5.984044    143.91148  0.040109109  0.041945326            3 
  300000    1.1304668   -6.0032162    143.55128  0.039875357  0.041915802            3 
  301000    1.1528168   -5.9966293    144.34698  0.039963173  0.041887612            4 
  302000     1.124959   -5.9823063    144.75816  0.039944306  0.041858001            4 
  303000    1.1243898   -6.0158287    145.04728   0.03989199   0.04183161            6 
  304000    1.1358791   -5.9901571    146.51886  0.040164161  0.041806054            3 
  305000     1.123911   -5.9865471    146.70784  0.040084109  0.041781251            6 
  306000    1.1187589   -5.9878704    146.71668  0.039955524  0.041755394            2 
  307000    1.1421414   -6.0226403    147.47215  0.040030441  0.041729145            4 
  308000    1.1438753   -5.9978241    147.81535  0.039993329   0.04170301            4 
  309000    1.1428938   -5.9935074    148.11892   0.03994577  0.041675739            3 
  310000    1.1164132   -6.0510125    147.55494  0.039665308  0.041647031            2 
  311000     1.103304   -6.0350144    148.04492  0.039669056  0.041616355            3 
  312000    1.1156794   -6.0350263    147.97799  0.039524035   0.04158513            3 
  313000    1.1282452   -6.0230469     148.5605   0.03955285  0.041553981            4 
  314000    1.1278233   -5.9909651    149.39917   0.03964946  0.041522003            2 
  315000    1.1363799   -6.0173609     149.6997  0.039603095  0.041490185            4 
  316000    1.1434558   -5.9691968    150.31047  0.039638836  0.041459119            6 
  317000    1.1484599   -6.0138358    150.30394  0.039512077  0.041428329            2 
  318000    1.1359192   -6.0324249    150.80107    0.0395181  0.041397358            3 
  319000    1.1202012   -6.0209257    151.66505  0.039619919  0.041366892            9 
  320000    1.1372114   -6.0409868    150.85144   0.03928423  0.041334709            3 
  321000    1.1055351   -6.0271575    151.40588  0.039305784  0.041301828            5 
  322000    1.1303971    -6.077064    151.26775  0.039147969  0.041268229            3 
  323000    1.1325979   -6.0763195    151.75762  0.039153153  0.041234091            6 
  324000    1.1371622    -6.054779    152.29458  0.039170417  0.041201032            3 
  325000    1.1418085   -6.0493458    152.64832  0.039140595  0.041167818            4 
  326000    1.1146827   -6.0217686    153.12169  0.039141537  0.041134788            5 
  327000     1.109565   -6.0573666    153.41006  0.039095325  0.041100947            1 
  328000    1.1367354   -6.0747291    153.55901  0.039013977   0.04106601            2 
  329000    1.1397216   -6.0240329    154.82822  0.039216876  0.041033107            3 
  330000    1.1015491   -6.0067317    155.52756  0.039274638  0.041001757            5 
  331000    1.1277129    -5.954823    156.43423  0.039384248  0.040971118            4 
  332000    1.1274129   -6.0240888    156.13096  0.039189498  0.040940805            2 
  333000     1.126001     -6.02129    156.78703  0.039235994  0.040910916            2 
  334000    1.1092021   -6.0342928    157.18637  0.039218157  0.040881622            2 
  335000    1.1240523   -6.0276644    157.74155  0.039239192  0.040852419            5 
  336000    1.1245253   -6.0198926    158.43233  0.039293733   0.04082386            2 
  337000    1.1112039   -6.0529272    158.25047  0.039132164  0.040795955            4 
  338000    1.1103725   -6.0438971    159.00818  0.039203199  0.040769079            4 
  339000    1.1379548   -6.0118492    159.97609   0.03932549  0.040742236            6 
  340000    1.1386914   -6.0431734    160.12214  0.039245622   0.04071637            3 
  341000    1.1346303   -6.0631001    160.18501  0.039145897  0.040689232            6 
  342000    1.0997792   -6.0604174    160.20386  0.039036029  0.040660387            4 
  343000    1.1332263     -6.07361    160.47062  0.038987032  0.040631186            6 
  344000    1.1210335   -6.0321042    161.01595  0.039005803  0.040601126            4 
  345000    1.1010979    -6.065192    160.91758  0.038868981  0.040572348            2 
  346000    1.1098995   -6.0668574    161.11673  0.038804607  0.040543546            3 
  347000    1.1226745   -6.0501662    161.58922   0.03880625   0.04051486            2 
  348000    1.1329682    -6.029453    162.32823  0.038871703  0.040485176            4 
  349000    1.1187469    -6.035405    162.52423  0.038807122  0.040455145            2 
  350000    1.1046258     -6.07853     162.9755  0.038803691  0.040424953            6 
  351000    1.1200132   -6.0562718    163.30625  0.038771663  0.040395982            3 
  352000    1.1101039   -6.0182472    164.57187  0.038961143  0.040366954            3 
  353000    1.1193632   -6.0515855      164.609  0.038859538  0.040339436            7 
  354000    1.1188563    -6.005197    165.66954  0.038999422  0.040311686            2 
  355000    1.1284758   -6.0208717    165.45115  0.038838299  0.040285204            3 
  356000    1.1113811   -6.0169367    165.79843  0.038810493  0.040258334            3 
  357000    1.1394717   -6.0631565    165.46267  0.038623406  0.040231603            2 
  358000    1.1181073   -6.0807341    165.92034  0.038622053  0.040202594            4 
  359000    1.0854473   -6.0522457    166.54383  0.038659199  0.040174412            3 
  360000    1.0849738   -6.0207343    167.95355  0.038878138  0.040148095            5 
  361000    1.1144562   -6.0757045    167.84898  0.038746301  0.040122584            2 
  362000    1.1108905    -6.088735    168.02425  0.038679616  0.040096574            4 
  363000    1.0903462   -6.0377996    168.10697  0.038592051  0.040070337            6 
  364000    1.1167183   -6.0814653    168.23755  0.038515922  0.040045024            4 
  365000    1.1130593    -6.104082    168.93467  0.038569559  0.040019015            2 
  366000    1.1059743   -6.0903223    169.95725  0.038697006  0.039993249            2 
  367000    1.1029746    -6.013667    170.93375  0.038813294  0.039968406            3 
  368000    1.1272921   -6.0525541    171.13114  0.038752523  0.039943576            4 
  369000    1.0856728   -6.0332243    170.85822  0.038585866  0.039918599            2 
  370000    1.1085815   -6.0782283    170.80577  0.038469769  0.039893069            5 
  371000    1.1075144   -6.0593352    172.10147  0.038657113  0.039865658            3 
  372000    1.1024585   -6.0447352    171.78355  0.038481978  0.039838529            3 
  373000    1.0947086   -6.0725596    172.15335  0.038461427  0.039811724            2 
  374000    1.0954579   -6.0509317    172.84866  0.038513516  0.039784666            2 
  375000     1.120865   -6.0714826    173.64256  0.038587236  0.039759946            2 
  376000    1.0779415   -6.0907546    174.03315  0.038571177  0.039734735            9 
  377000      1.10474   -6.0673421    174.48082  0.038567821  0.039710829            5 
  378000    1.1131744    -6.055723    175.22927  0.038630791  0.039687636            3 
  379000    1.0993062   -6.0789336    175.23602  0.038530348  0.039663352            2 
  380000    1.1026347   -6.0890938     175.6083  0.038510592  0.039639338            5 
  381000    1.1285532    -6.091232    175.79881  0.038451183  0.039614334            2 
  382000     1.101579   -6.0601868    176.84713  0.038579216  0.039590337            2 
  383000    1.0944444   -6.0831813    177.23654  0.038563216  0.039567812            4 
  384000    1.1022337   -6.0692733    177.71492  0.038566605  0.039545503            3 
  385000    1.0906765    -6.113261    178.24091  0.038580284  0.039523062            2 
  386000    1.0852136    -6.167388     177.4877  0.038317723  0.039500377            3 
  387000    1.0744048   -6.0895262    178.43391  0.038422462  0.039478302            3 
  388000    1.0974301    -6.071001    179.33531  0.038517033  0.039455354            6 
  389000    1.0953725   -6.0470902    179.51862  0.038457287  0.039433041            3 
  390000    1.1143833    -6.121805    179.43834  0.038341526  0.039411231            3 
  391000    1.1027121   -6.0771905    180.50026  0.038469792  0.039389342            4 
  392000    1.1089245   -6.1059729    180.11859  0.038290516  0.039367316            3 
  393000    1.1020707   -6.1187342    180.06169   0.03818102  0.039344151            4 
  394000    1.1008726   -6.1219146    180.95018  0.038272035  0.039321019            3 
  395000    1.0772596   -6.0527112    181.93607  0.038383137  0.039298771            2 
  396000    1.0893015   -6.0791123    182.66872  0.038440386  0.039277135            6 
  397000    1.1032427   -6.1522265    182.51135  0.038310528  0.039256521            4 
  398000    1.0855206   -6.0902214    183.81941  0.038488152  0.039236342            4 
  399000     1.106749   -6.1033221    183.89506  0.038407489  0.039216502            4 
  400000    1.0979917   -6.0824149    184.11791  0.038357897  0.039197189            3 
  401000    1.1017469   -6.0923837    184.86719  0.038417953  0.039178138            4 
  402000    1.0796412   -6.1194168    184.23984  0.038192339   0.03915885            4 
  403000     1.094111   -6.0854832    185.74064  0.038407907  0.039139856            8 
  404000     1.107037    -6.104241    185.67403  0.038299098  0.039120602            3 
  405000    1.0801943   -6.1141863    186.88026  0.038452729  0.039101454            4 
  406000    1.0783059   -6.1100571     186.7772  0.038336863  0.039082937            3 
  407000    1.0973509   -6.0931942    187.58738  0.038408555  0.039065131            4 
  408000    1.0766873   -6.1098895    187.18929  0.038233106  0.039046377            2 
  409000    1.0766877   -6.1253379    187.22238  0.038146369  0.039026779            2 
  410000    1.0837205   -6.1551918    187.31362  0.038071875  0.039006515            4 
  411000    1.0943656   -6.0997378    188.95008  0.038311046  0.038986588            5 
  412000    1.0855158   -6.1092478     188.8344   0.03819466  0.038966033            4 
  413000    1.0861372   -6.1133873    189.06894  0.038149504  0.038945889            3 
  414000    1.0826592   -6.0879485    188.95119  0.038033654  0.038924772            2 
  415000    1.0811384   -6.1036086    188.58241  0.037867954   0.03890373            2 
  416000    1.0597699   -6.0783215    190.41044  0.038143117  0.038882751            2 
  417000    1.1043846   -6.1232923    189.96948  0.037963524  0.038862103            4 
  418000    1.0667384   -6.1263694    190.53183  0.037984816  0.038841731            2 
  419000    1.0681828   -6.1269119    190.72918  0.037933409  0.038821805            1 
  420000    1.0943055   -6.1126471    191.22305  0.037941081  0.038801498            5 
  421000    1.0736403   -6.0844459    192.52777  0.038109219  0.038781505            2 
  422000    1.0717546   -6.1317098     191.7519  0.037865698  0.038760926            5 
  423000     1.070633   -6.1496169    192.69535  0.037962046   0.03874028            2 
  424000    1.0837649   -6.1667044    192.66201  0.037865961  0.038719314            3 
  425000    1.0911154   -6.1024069     193.1021  0.037863158  0.038698948            2 
  426000    1.0945113   -6.0897301    193.52732  0.037857456  0.038678404            3 
  427000    1.0996134   -6.1209259    193.41287  0.037746463  0.038657789            2 
  428000    1.0875477   -6.1233775    193.41421  0.037658531  0.038636558            2 
  429000    1.1012752    -6.128673    194.75045  0.037830314  0.038614822            3 
  430000    1.1172468   -6.1727628    194.98931  0.037788626  0.038593888           12 
  431000    1.0804146   -6.1803111    194.46518   0.03759961  0.038573095            2 
  432000    1.0652303   -6.1200662    196.63808  0.037931729   0.03855315            3 
  433000    1.0744442   -6.1292481    195.59281  0.037642958  0.038533006            3 
  434000    1.0920734   -6.1148002    196.80127  0.037788263  0.038513186            4 
  435000    1.0853676   -6.0639815    197.63863  0.037861807  0.038493885            3 
  436000     1.099432   -6.1394139    196.62542  0.037581311  0.038473812            2 
  437000    1.0581349   -6.1318476    197.88181  0.037734899  0.038453315            7 
  438000    1.0831463   -6.1366561    197.72015   0.03761799  0.038432246            2 
  439000     1.073838   -6.1097379    198.79532  0.037736392  0.038411175            3 
  440000    1.0779025   -6.1960474    197.71629  0.037446268   0.03839022            4 
  441000    1.0925973   -6.1562855    199.29002  0.037658734  0.038369314            2 
  442000    1.0762077   -6.1484353     199.2738  0.037570476  0.038348689            3 
  443000    1.0783499   -6.1442653    199.86706  0.037597265  0.038328414            3 
  444000    1.0767176   -6.1202456    200.08482  0.037553458  0.038308797            4 
  445000    1.0874854   -6.1139937    200.20281  0.037491162   0.03828819            2 
  446000    1.0590043   -6.1565867    200.30634  0.037426447  0.038266873            3 
  447000    1.0697824   -6.1513694    200.73826  0.037423239  0.038245368            2 
  448000    1.0784128   -6.1546498    200.68062  0.037328984  0.038224412            3 
  449000    1.0845856   -6.1442751    201.38222  0.037376062  0.038203663            8 
  450000    1.0737414   -6.1120097    201.94745  0.037397676  0.038182533            3 
  451000    1.0847784   -6.1381343    202.47352  0.037411958   0.03816217            4 
  452000    1.0751954   -6.1666384    202.23998  0.037286132  0.038140878            3 
  453000    1.0651168   -6.1435208    202.89037  0.037323468   0.03811947            3 
  454000    1.0624628   -6.1436889    202.89566  0.037242229  0.038097643            2 
  455000    1.0622317   -6.1413416    204.16532  0.037392916  0.038076057            3 
  456000     1.080785   -6.1759781    203.75275  0.037235518  0.038055057            3 
  457000    1.0658799   -6.1818088    203.34211  0.037079159  0.038033728            4 
  458000    1.0680106    -6.193919    203.80039  0.037081585  0.038012065            5 
  459000    1.0676258   -6.1468724    205.16173  0.037247953  0.037990635            1 
  460000    1.0650316   -6.1144274    205.48652   0.03722582  0.037969649            5 
  461000    1.0553639   -6.1466811    204.92718  0.037043959  0.037948462            6 
  462000    1.0584676   -6.1549215    206.72138  0.037287406   0.03792727            5 
  463000    1.0601228   -6.1665286    206.60843  0.037186542  0.037906318            3 
  464000    1.0461363   -6.1378745    206.79578  0.037140047  0.037886173            9 
  465000     1.049476   -6.1490182    207.10755  0.037116049  0.037866336            4 
  466000    1.0405708   -6.1516529    207.93249  0.037183923   0.03784709            3 
  467000    1.0448796   -6.1287627    208.64004  0.037230558  0.037826932            3 
  468000    1.0566245   -6.1642536    207.98292  0.037033995  0.037806899            3 
  469000    1.0434047   -6.1324506    208.43723  0.037035754  0.037786122            5 
  470000    1.0499641   -6.1342754    209.08663  0.037072098  0.037765682            6 
  471000     1.053932   -6.1991004    208.80842  0.036944164  0.037744706            3 
  472000     1.061555   -6.1854678    209.69109  0.037021732  0.037724417            3 
  473000     1.086774   -6.1642594    209.39635  0.036891535  0.037704537            4 
  474000    1.0638985   -6.1661714    210.45666  0.037000116  0.037685121            4 
  475000     1.054708   -6.1750005    210.70237  0.036965328  0.037665144            3 
  476000    1.0794691   -6.1504249    211.80402  0.037080537  0.037645219            4 
  477000    1.0639726   -6.1563663    211.84169  0.037009379  0.037625103            2 
  478000    1.0545267   -6.1772688     211.1325  0.036808316  0.037603498            5 
  479000    1.0844112   -6.2095968    211.63214  0.036818396  0.037582048            3 
  480000     1.066481   -6.1994104    212.15058  0.036831698  0.037560305            5 
  481000    1.0704107   -6.1614979     212.3699  0.036793122  0.037539086            2 
  482000    1.0609671   -6.1831896    212.37807    0.0367182  0.037518637            5 
  483000    1.0702781   -6.2199578    212.10903   0.03659576  0.037497694            6 
  484000    1.0628415   -6.1684037    213.64786  0.036785101  0.037476664            3 
  485000    1.0747647   -6.1902664    213.91731  0.036755551  0.037456007            3 
  486000    1.0542284   -6.1970707    214.61035  0.036798757  0.037435906            3 
  487000    1.0574923     -6.16868      214.946  0.036780629  0.037416356            5 
  488000    1.0675115   -6.1955858    215.01184  0.036716503  0.037396716            5 
  489000    1.0535729    -6.191722    215.46372  0.036718425  0.037376526            5 
  490000    1.0468388   -6.1868117    215.97045  0.036729669  0.037356562            7 
  491000    1.0726439   -6.1609444    215.97386  0.036655441  0.037336312            6 
  492000    1.0811392   -6.1920807    217.07132  0.036766823  0.037316433            3 
  493000    1.0590799   -6.1935417    216.92297  0.036667168  0.037296583            4 
  494000    1.0784446   -6.2098662    217.66055  0.036717367  0.037277033            3 
  495000     1.049206   -6.1548729    218.02334  0.036704266  0.037257393            3 
  496000    1.0486309   -6.1869118    218.72508  0.036748166  0.037238489            4 
  497000    1.0669989    -6.176453    219.62635  0.036825344  0.037220517            2 
  498000    1.0449886   -6.1531497      220.137  0.036836848  0.037203284            4 
  499000    1.0643257   -6.1828218    219.29534  0.036622468  0.037185705            3 
  500000      1.04886    -6.214481    219.24024   0.03654004  0.037167655            2 
  501000    1.0296655   -6.1986178     220.5945  0.036692365  0.037149456            3 
  502000     1.042365   -6.1630875    220.63025  0.036625207  0.037131311            3 
  503000    1.0542659    -6.143901    220.94939  0.036605266  0.037112846            2 
  504000    1.0433293   -6.1893409    221.30692  0.036591753  0.037093872            6 
  505000    1.0671974   -6.2343551    220.45249  0.036378299  0.037073773            5 
  506000    1.0333138   -6.2233917    220.86688  0.036374651  0.037052989            2 
  507000     1.039074   -6.2231713    221.20735  0.036358868  0.037032566            4 
  508000     1.040303    -6.190171     221.9892  0.036415551  0.037012557            4 
  509000    1.0365051   -6.1681989    221.67624  0.036292769  0.036992238            2 
  510000    1.0541957    -6.179576    222.36579  0.036334279  0.036972495            7 
  511000    1.0372311   -6.2197052    222.47213  0.036280517  0.036951665            5 
  512000    1.0546562   -6.1613502    223.31944  0.036347565  0.036931373            3 
  513000    1.0493535     -6.23529    222.73304  0.036181456  0.036910449            4 
  514000    1.0323043   -6.2129501    223.26973  0.036198076  0.036889602            3 
  515000    1.0728602   -6.2189785    223.25531  0.036125455  0.036868468            3 
  516000    1.0325961   -6.2226675    223.62708  0.036115484  0.036846862            5 
  517000    1.0641578   -6.2232947    224.41907  0.036173287  0.036824984            2 
  518000    1.0513896   -6.2051218    224.41944  0.036103513  0.036803822            5 
  519000    1.0589629   -6.1917751    224.66615  0.036073563  0.036782067            2 
  520000    1.0660921   -6.2378092    223.93156  0.035886468  0.036760523            5 
  521000    1.0435644   -6.2314215    224.54589   0.03591585  0.036738062            3 
  522000    1.0608035   -6.2286083    224.63943  0.035861978  0.036715288            3 
  523000    1.0788825   -6.2013873    225.63111   0.03595142  0.036692591            3 
  524000       1.0483   -6.2244304    224.95544  0.035775357  0.036669685            6 
  525000     1.060772   -6.2111527     225.7179  0.035828239  0.036646192            4 
  526000    1.0456342   -6.2238653    225.64897  0.035749203  0.036622848            3 
  527000    1.0398059    -6.204903    225.76486  0.035699693  0.036599643            4 
  528000    1.0166292   -6.2001841    226.61582  0.035766386  0.036576735            2 
  529000    1.0294123   -6.2496059    226.28892  0.035647277  0.036553616            3 
  530000    1.0195716   -6.2025639    227.34733  0.035746436  0.036530766            4 
  531000    1.0659768   -6.2373199    226.99538  0.035623883  0.036507941            5 
  532000    1.0213194   -6.2060359    227.61891  0.035654591  0.036484907            5 
  533000    1.0360487     -6.21648    228.22176  0.035681951  0.036461521            2 
  534000    1.0391415   -6.2149252    227.73391  0.035538999   0.03643774            3 
  535000     1.033945    -6.238291    228.63812  0.035613415  0.036414329            3 
  536000    1.0482164   -6.2054033    227.88374  0.035429686  0.036390216            3 
  537000    1.0389929   -6.2664537    228.48934  0.035457687  0.036365768            6 
  538000    1.0320508   -6.2522494    229.31807  0.035520147  0.036340874            9 
  539000    1.0440003   -6.2755437    228.16809  0.035276452  0.036315891            7 
  540000    1.0478752   -6.2432018    229.36054  0.035395146  0.036290891            9 
  541000    1.0447974    -6.223216    229.99958  0.035428154  0.036266858            2 
  542000    1.0575825   -6.2332056     229.6618  0.035310855  0.036243283            3 
  543000    1.0245884    -6.205576    230.72861  0.035409548  0.036219139            2 
  544000     1.031965   -6.2122408    230.82289  0.035358898  0.036196165            4 
  545000    1.0586917   -6.2201073    230.82483  0.035294316  0.036172075            9 
  546000    1.0449917   -6.2075671     231.1564  0.035280281  0.036148016            3 
  547000    1.0348338   -6.2454879    231.79367  0.035312868  0.036123764            4 
  548000    1.0505203   -6.2582947     232.0729   0.03529089  0.036099574            5 
  549000    1.0598619   -6.2262343     232.2877  0.035259213  0.036075806            5 
  550000    1.0198036   -6.2765104      231.858      0.03513  0.036051721            2 
  551000    1.0409892   -6.2513932    232.74291  0.035200077  0.036026795            4 
  552000    1.0502811    -6.243968    233.30313  0.035220884  0.036002912            3 
  553000    1.0216575   -6.2464111    233.48998  0.035185349    0.0359796            3 
  554000    1.0393363   -6.2445094    233.56854  0.035133655  0.035956493            4 
  555000    1.0410013   -6.2221191    233.15956  0.035008943   0.03593202            6 
  556000    1.0588257   -6.2510937    234.19626  0.035101357  0.035908412            4 
  557000    1.0385738   -6.2129536    234.97357  0.035154633  0.035884956            5 
  558000    1.0299767   -6.2521397    234.23126  0.034980773  0.035861163            8 
  559000     1.003672   -6.2519004    234.86791  0.035013106  0.035837186            2 
  560000    1.0285848   -6.2487242    235.28327  0.035012392  0.035813102            2 
  561000    1.0250821   -6.2345232     235.6214  0.035000207   0.03578986            6 
  562000    1.0304179   -6.2815323    236.04919  0.035001363  0.035766369            5 
  563000    1.0455424    -6.268035     236.6632  0.035030077  0.035743075            4 
  564000    1.0296245   -6.2335457    237.65765  0.035114901  0.035720686            2 
  565000    1.0151396   -6.2618249    237.16004  0.034979358  0.035698135            4 
  566000     1.024987   -6.2262986    238.08385   0.03505357  0.035675465            2 
  567000    1.0546495   -6.2998258    238.16932   0.03500431  0.035652805            3 
  568000    1.0420599   -6.2364649    238.56509  0.035000747   0.03563069            4 
  569000    1.0100073   -6.2381425    238.06777  0.034866399  0.035609132            4 
  570000    1.0004962   -6.3018177    237.95687  0.034789016  0.035587151            5 
  571000    1.0414455   -6.2671713    239.38418  0.034936395   0.03556498            4 
  572000   0.98852347    -6.291334    239.25644  0.034856707  0.035543353            3 
  573000    1.0220004   -6.2604151    241.17719  0.035075217  0.035521273            4 
  574000    1.0261991   -6.2781523    240.26694  0.034881959  0.035499546            4 
  575000     1.017379   -6.2578477    240.41747  0.034843112  0.035478397            5 
  576000    1.0255511   -6.2466013    241.77249  0.034978659  0.035457311            5 
  577000    1.0293932     -6.23619    241.74076  0.034913455  0.035436336            5 
  578000    1.0095916   -6.2474681    241.97752  0.034887186  0.035415343            2 
  579000    1.0285106   -6.2870547    241.26555  0.034724461  0.035393714            3 
  580000    1.0119776   -6.2723394    242.01666  0.034772509  0.035372174            8 
  581000    1.0372788   -6.2762951    243.11002  0.034869481  0.035350561            7 
  582000    1.0277303   -6.3034651    243.13637  0.034813341  0.035328823            3 
  583000    1.0092978    -6.256431    243.26382  0.034771843  0.035307809            7 
  584000    1.0330006    -6.255856    243.64397  0.034766548  0.035287236            5 
  585000   0.98822653   -6.2897088    243.54613  0.034693181  0.035265849            4 
  586000    1.0173667   -6.2777974    244.56279  0.034778553  0.035244701            3 
  587000    1.0355969   -6.2464674    244.34311  0.034688119  0.035223859            5 
  588000    1.0442657   -6.3111924    244.07463  0.034591076   0.03520279            3 
  589000    1.0141332   -6.2964007    244.65534  0.034614508  0.035181278            4 
  590000    1.0396418   -6.2948675    244.56886  0.034543624   0.03515979            4 
  591000    1.0127337   -6.3122252    245.52605  0.034620143  0.035138573            6 
  592000     1.042209   -6.2746851    245.20497  0.034516465  0.035117465            2 
  593000   0.99709745    -6.291244     246.2055  0.034598862  0.035096184            4 
  594000    1.0030049   -6.3002008    245.79971  0.034483685  0.035074951            6 
  595000    1.0120946   -6.3010506    245.84732  0.034432398   0.03505341            6 
  596000    1.0443942   -6.2996387    245.81027  0.034369446  0.035032445            3 
  597000    1.0196867    -6.260168    246.83641   0.03445511  0.035011813            2 
  598000    1.0416157   -6.2880624    247.41785  0.034478519  0.034990982            4 
  599000    1.0130686   -6.2870019    247.73333  0.034464849  0.034969805            3 
  600000     1.004426   -6.2891325    248.70351  0.034542154  0.034949237            5 
  601000    1.0119535   -6.2912744    248.10586  0.034401811   0.03492879            4 
  602000    1.0021852   -6.3023758    248.63983  0.034418581  0.034907555            6 
  603000    1.0224902   -6.2977151    248.88063   0.03439478  0.034886437            5 
  604000     1.016822   -6.3151564    247.90917  0.034203804  0.034865213            3 
  605000    1.0324126   -6.3054195     248.5491  0.034235413  0.034843734            3 
  606000    1.0177557   -6.2612137    249.54536  0.034315919  0.034822443            3 
  607000    1.0151003   -6.3000767     249.9068  0.034309006  0.034801956            2 
  608000    1.0171191   -6.2868346    250.57338  0.034343939  0.034780765            7 
  609000    1.0122054    -6.325658    250.17162   0.03423257  0.034759737            4 
  610000    1.0283741   -6.3008621    249.78151  0.034123157   0.03473854            4 
  611000    1.0151279   -6.2777165     250.5669  0.034174428  0.034717213            4 
  612000    1.0013228   -6.2807824    250.19704  0.034068225  0.034695231            7 
  613000    1.0110247   -6.2931266       250.14  0.034004894  0.034673042            6 
  614000   0.98625791   -6.2804171    250.62985  0.034015995  0.034650111            3 
  615000    1.0217687   -6.3335484    250.18744  0.033900738  0.034627042            6 
  616000    1.0001282   -6.3180707     250.5926  0.033900514    0.0346037            3 
  617000    1.0131369    -6.293081    251.45594  0.033962175    0.0345807            2 
  618000    1.0057322   -6.3030514    251.82625  0.033957153  0.034557555            3 
  619000    1.0134337   -6.3137578    251.69768  0.033884986  0.034534648            4 
  620000   0.99007341    -6.327329    252.25775  0.033905612  0.034512009            6 
  621000    1.0090619   -6.3395857    252.72486  0.033913695  0.034489577            6 
  622000    1.0076134   -6.3288822    252.42436  0.033818913  0.034467153            5 
  623000   0.99408454   -6.3144119    253.11566  0.033857097  0.034444994            4 
  624000   0.98422479   -6.3554233    252.62795  0.033737708  0.034422567            4 
  625000   0.99509218   -6.3600508    253.24776  0.033766369  0.034400325            5 
  626000    0.9932661   -6.3060367    254.59511  0.033891788  0.034378528            3 
  627000    1.0002557   -6.3145246    254.49909  0.033824972  0.034356882            4 
  628000    1.0039925   -6.2912364    254.95605  0.033831748  0.034335009            3 
  629000    1.0012923   -6.3241822     255.5483  0.033856426    0.0343132            7 
  630000   0.99415581   -6.3394705    255.08906  0.033741939  0.034291743            2 
  631000    1.0163087   -6.3145784    256.27289  0.033844808  0.034270299            5 
  632000    1.0173903   -6.3137924      255.894  0.033741298  0.034249046            6 
  633000    1.0044453   -6.3587398     256.6373  0.033785848  0.034227296            5 
  634000   0.96379264   -6.3169405    256.22598  0.033678493  0.034205901            4 
  635000   0.99913173   -6.2904317    256.82963  0.033704676  0.034184694            2 
  636000    1.0011661   -6.3339401     257.4543  0.033733529  0.034163294            4 
  637000    1.0095968   -6.3238305    256.80324    0.0335954  0.034142053            5 
  638000   0.99540017    -6.325778    257.23981  0.033599767   0.03412034            3 
  639000    1.0167704   -6.2878609     257.5245  0.033584311  0.034099095            2 
  640000   0.98002544   -6.3062198    257.52306  0.033531649  0.034077925            3 
  641000   0.98756957   -6.3490909     257.2513  0.033444007  0.034056012            6 
  642000    0.9954775   -6.3243508     258.8286  0.033596651  0.034034294            3 
  643000   0.99743703   -6.3241227    258.26404  0.033471234   0.03401268            3 
  644000    1.0068068   -6.3578313     258.3494  0.033430305  0.033990914            7 
  645000    1.0146794   -6.3801059     258.9856  0.033460671  0.033969374            3 
  646000    0.9830839   -6.3231027     259.9106    0.0335282  0.033948426            5 
  647000    1.0154134   -6.3354413    259.56445  0.033431795  0.033927029            4 
  648000    1.0101105   -6.3692928    260.34003  0.033479942  0.033905086            5 
  649000   0.99644362   -6.3753835    259.33354   0.03329912  0.033883052            4 
  650000    0.9855273   -6.3301281    261.16528  0.033482728  0.033861479            6 
  651000   0.99927717   -6.3655019    259.71439   0.03324557   0.03383999            5 
  652000   0.97779118   -6.3393575    260.71252  0.033322152  0.033818622           12 
  653000     1.001911   -6.3685227    260.36154  0.033226333   0.03379722            6 
  654000   0.97873532   -6.3526883    261.10654  0.033270457  0.033775583            5 
  655000    0.9893244   -6.3215542    262.33231  0.033375611  0.033754358            2 
  656000    1.0102432   -6.3362057    262.11818  0.033297533  0.033733491            5 
  657000   0.99918018   -6.3453813    262.15744  0.033251831  0.033712996            1 
  658000    1.0050987   -6.3271997    262.73383  0.033274295  0.033692535            4 
  659000    1.0061528   -6.3740725    262.42242  0.033184423  0.033671722            9 
  660000   0.98294066   -6.3079088    265.27163  0.033493893  0.033650978            3 
  661000    0.9996981   -6.3091053    264.07803  0.033292742    0.0336308            2 
  662000   0.99823753   -6.3236333    264.58317  0.033306039  0.033610647            7 
  663000    0.9773581   -6.3456619     264.6185  0.033260243  0.033590654            4 
  664000    1.0051878   -6.3689033    263.98148  0.033130205  0.033570529            3 
  665000   0.99055905   -6.3535459    263.97829  0.033079987  0.033549905            3 
  666000     1.000579   -6.3577052    264.99548  0.033157592  0.033529023            2 
  667000   0.97206986   -6.3448037    265.48717  0.033169312  0.033508705            4 
  668000     1.012039   -6.4243654     263.7365   0.03290126  0.033487704            2 
  669000   0.97810565   -6.3609992    265.33246  0.033050879  0.033466382            3 
  670000    1.0042582   -6.3171168    265.92288  0.033074985  0.033445366            4 
  671000   0.97135603   -6.3385169    265.46194  0.032968447  0.033424504            9 
  672000    1.0087663   -6.3683093    265.44057  0.032916737  0.033402876            4 
  673000   0.99865827   -6.3800092    265.78353  0.032910294  0.033381314            4 
  674000   0.98664467   -6.3548163    266.80565   0.03298784  0.033359944            2 
  675000   0.97816658   -6.3624836    267.29028    0.0329988  0.033338856            2 
  676000    1.0021487   -6.4059873    266.30799  0.032828894  0.033317766            7 
  677000   0.99805539   -6.3639802    268.05416  0.032995342  0.033297112            7 
  678000   0.99624855   -6.3357046    267.41162  0.032867702  0.033276819            2 
  679000   0.96681255   -6.3808056    267.91167  0.032880667  0.033255961            3 
  680000   0.97851422   -6.3574758    267.31227  0.032758856  0.033235428            7 
  681000   0.96579142   -6.3616205    268.76963  0.032889089  0.033214997            3 
  682000   0.97171973    -6.355937    268.93312  0.032860841  0.033194099            5 
  683000   0.98796865   -6.3667154    268.73597  0.032788673  0.033173081            6 
  684000   0.97983636   -6.3954286    268.19317  0.032674606   0.03315201            4 
  685000   0.97087232   -6.3668393    268.99673  0.032724663  0.033131069            3 
  686000   0.99356406   -6.3854974    268.52935  0.032620184   0.03311029            7 
  687000     1.005882   -6.4189274    268.94254  0.032622822  0.033088839            3 
  688000   0.99314656   -6.3922294    270.22537  0.032730786   0.03306754            5 
  689000   0.96359116   -6.4260852    269.62463  0.032610623  0.033046454            3 
  690000   0.98464486   -6.3572968    271.14638  0.032747147  0.033026037            3 
  691000   0.99363343   -6.3912511    270.83453  0.032662148  0.033005408            6 
  692000    0.9701109   -6.3688584    270.98012   0.03263248  0.032984912            6 
  693000    1.0024257   -6.3985459     271.1443  0.032605134  0.032964246            1 
  694000   0.96109234   -6.4032709    271.19177  0.032563853  0.032943474            4 
  695000   0.97198835   -6.3948329    271.40793  0.032542917  0.032922595            7 
  696000   0.96862465   -6.3835365    272.06862  0.032575266  0.032901829            3 
  697000   0.98208074   -6.4027862    271.98568  0.032518613  0.032881099            6 
  698000   0.97995628   -6.3822115    272.24361  0.032502818  0.032860598            3 
  699000   0.96086368   -6.3748775    272.53632  0.032491216  0.032840145            8 
  700000   0.97715923   -6.3958225    273.21088  0.032525104  0.032819417            3 
  701000   0.96838489   -6.4001657     272.7337  0.032421981  0.032798969            4 
  702000   0.97735131   -6.3967868    273.00477  0.032407973  0.032778182            4 
  703000   0.99099006   -6.3668065    273.23847  0.032389577  0.032757896            6 
  704000   0.96916742   -6.4120474    274.26974  0.032465642  0.032737262            8 
  705000   0.98012646    -6.396107    273.52997  0.032332147  0.032716497            5 
  706000   0.96154139   -6.3710806    273.20369  0.032247839     0.032696            6 
  707000   0.97438616   -6.3726332    273.58734  0.032247447  0.032675304            5 
  708000   0.97672509   -6.4169134     273.6951  0.032214583    0.0326544            5 
  709000     0.984214   -6.4118078    274.51713  0.032265766  0.032633249            6 
  710000   0.96432034   -6.4076527     274.0768  0.032168639  0.032612457            4 
  711000   0.97527903    -6.375635    275.29916  0.032266662  0.032591617            6 
  712000   0.99235833   -6.4163277    274.88871  0.032173304  0.032571024            4 
  713000   0.96677594   -6.4438637    274.25728  0.032054381  0.032550078            3 
  714000   0.96222798   -6.4032184    276.10252   0.03222485  0.032528846            4 
  715000    0.9575553   -6.3651579    276.74178  0.032254287   0.03250787            6 
  716000   0.96863946   -6.4259603    275.25894  0.032036655  0.032487195            5 
  717000   0.96643476    -6.398262    276.99071  0.032193249  0.032466879            6 
  718000   0.96663675   -6.4061197     276.9016  0.032138069  0.032446248            4 
  719000   0.95636058   -6.4240517    276.61766  0.032060461  0.032425477            3 
  720000   0.96075249   -6.4143747    277.37492  0.032103579  0.032404923            5 
  721000   0.95179308   -6.4123856    277.44533   0.03206719  0.032384699            4 
  722000   0.94249798   -6.3933838    277.17232  0.031991265  0.032363884            2 
  723000   0.98264194   -6.3781573    278.30556  0.032077635  0.032343857            5 
  724000     0.998722   -6.3612766    279.29741  0.032147492  0.032324087            3 
  725000   0.95538542   -6.4147528    279.59462  0.032137312  0.032304356            4 
  726000   0.95102367   -6.4052117    278.93558  0.032017399  0.032284565            7 
  727000   0.97541294   -6.4256682    278.31812  0.031902582  0.032264756           17 
  728000   0.97721626   -6.4416731    279.64876  0.032011076  0.032244887            4 
  729000   0.96838566   -6.4372147    280.03275  0.032011059   0.03222497            6 
  730000   0.99222456     -6.45024    280.39942  0.032009066   0.03220488            5 
  731000   0.95911895   -6.4228037    280.04306  0.031924654  0.032184894            4 
  732000   0.96419078   -6.4449476    280.14926  0.031893131  0.032165014            4 
  733000   0.96137831   -6.4304335    280.91881  0.031937109  0.032144986            7 
  734000     0.961834   -6.4378738      280.698  0.031868529  0.032124474            5 
  735000    0.9893596   -6.4006706    281.67489  0.031935929  0.032104059            2 
  736000   0.99012974     -6.45284    281.50985  0.031873851  0.032083917            8 
  737000   0.95435993   -6.4162179    281.81671    0.0318653  0.032063885            3 
  738000   0.94703859   -6.4562072    281.43413  0.031778921  0.032043829            7 
  739000   0.96498243    -6.428537     281.6488  0.031760126  0.032023835            5 
  740000   0.96279796   -6.4246004    281.98135  0.031754656  0.032003408            6 
  741000   0.96650486   -6.4529118    282.00782  0.031714779    0.0319831            3 
  742000   0.95115233   -6.4365726    281.90695  0.031660708  0.031962826            6 
  743000   0.96029388   -6.4187055    282.16391  0.031646916  0.031942537            9 
  744000   0.95767316   -6.4596836    282.26636  0.031615856   0.03192238            4 
  745000   0.93994396   -6.4519194    282.97729  0.031652941  0.031902134            3 
  746000   0.95398003   -6.4158476    282.40547  0.031546634  0.031881747            6 
  747000    0.9639154   -6.4247574    283.59636  0.031637256  0.031861573            3 
  748000   0.95681316   -6.4529168    283.66293  0.031602377  0.031841611            5 
  749000   0.95835731   -6.4197807    283.59797  0.031552956  0.031821208            3 
  750000   0.97154327   -6.4490898    283.13307   0.03145923  0.031800711            5 
  751000   0.95108145   -6.4358431    283.59983  0.031469133  0.031780267            5 
  752000   0.96466648     -6.43629    283.76562  0.031445658   0.03176001            4 
  753000   0.96213225   -6.4330432    284.81277  0.031519785  0.031740019            3 
  754000   0.96911161    -6.426265    285.06196  0.031505522   0.03172005           15 
  755000   0.95870764   -6.4557193    284.67388  0.031420958  0.031699861            5 
  756000   0.93970899   -6.4532109    285.35479  0.031454452  0.031679564            2 
  757000   0.95052589   -6.4310901    284.97796  0.031371417  0.031659189            3 
  758000   0.92937532   -6.4657278    284.72877  0.031302635  0.031639103           10 
  759000    0.9584185    -6.424781    285.35955  0.031330649  0.031619077            4 
  760000   0.93434461   -6.4501289    285.47906  0.031302528  0.031598962            4 
  761000   0.93593678   -6.4722629    286.26752  0.031347735  0.031578748            7 
  762000   0.96401621   -6.4289024    287.00488  0.031387235  0.031558754            5 
  763000   0.94568537   -6.4360253    287.06281  0.031352426  0.031539104            6 
  764000   0.95311879   -6.5149962    286.16921  0.031213919  0.031519251            5 
  765000   0.95868155   -6.3889634    288.22872  0.031397464   0.03149933            4 
  766000   0.95225755   -6.4511111    287.58088  0.031285996  0.031479626            6 
  767000   0.94655219   -6.4586808    288.18352  0.031310683  0.031460138            6 
  768000     0.927834   -6.4221496    288.72397  0.031328556  0.031440937            3 
  769000   0.93035436   -6.4732442    288.06654  0.031216573  0.031421261            9 
  770000   0.96398513   -6.4729774    287.30061  0.031093139  0.031401098            6 
  771000   0.95020544   -6.4449626    289.07853  0.031244977  0.031380919            4 
  772000   0.94187401   -6.4750611    287.51407  0.031035629  0.031361065            5 
  773000   0.95300811   -6.4840098    288.38294  0.031089149  0.031341076            4 
  774000   0.93564795   -6.4534944    288.73021  0.031086371  0.031320968            3 
  775000   0.91655104   -6.4935693    288.71356  0.031044468   0.03130049            4 
  776000   0.93430012   -6.4723345    288.89863  0.031024338   0.03127979            5 
  777000   0.93654645   -6.4634191    289.52892  0.031052008  0.031259258            9 
  778000   0.93304225   -6.4707433    287.69919  0.030816109  0.031238488            5 
  779000   0.94922027   -6.4814117    288.95478  0.030910867  0.031217868            5 
  780000   0.94142355   -6.5121104    288.61222  0.030834639  0.031196759            3 
  781000   0.93808928   -6.4810952    288.70183   0.03080472   0.03117558            9 
  782000   0.93204338   -6.4536229    288.66386  0.030761281    0.0311544            4 
  783000   0.92254218   -6.4625138    290.38429  0.030905097   0.03113311            9 
  784000   0.95598806   -6.4975913    288.91381  0.030709376   0.03111166            4 
  785000   0.93442157   -6.4873655    289.47814  0.030730163  0.031090075            6 
  786000   0.92645675   -6.4578865    289.40737  0.030683563    0.0310685           10 
  787000   0.94775854   -6.4733893    289.79293  0.030685402  0.031047011            7 
  788000    0.9332033   -6.4874668    289.77927  0.030645016   0.03102572            6 
  789000   0.93220931   -6.4647664    289.92396  0.030621457  0.031004187            2 
  790000   0.95207013   -6.4818638    288.81596  0.030465818    0.0309824            2 
  791000   0.95276144   -6.4824941    289.28426  0.030476639  0.030960597            5 
  792000   0.94765799   -6.4882415    289.83594  0.030496206  0.030938717            7 
  793000   0.94561769   -6.5034917    289.48652  0.030421029  0.030916288            7 
  794000   0.93261634   -6.5074978     289.7851  0.030414053  0.030893642            7 
  795000   0.95838386    -6.484351    289.48951  0.030344812  0.030871144            9 
  796000   0.92283447   -6.5112704     289.9688  0.030356867  0.030848924            3 
  797000   0.93880283   -6.4766759    290.94398  0.030420742  0.030826697            4 
  798000   0.93480072   -6.4650053     289.9755  0.030281485  0.030804288            3 
  799000   0.93564712   -6.5455345    289.37561  0.030181019  0.030781932            8 
  800000   0.91493194   -6.5066348    289.78384  0.030185817  0.030759206            5 
  801000   0.93028951   -6.5049942    290.24759  0.030196379  0.030736615            4 
  802000    0.9351788   -6.5216522    290.82157  0.030218367  0.030714284            3 
  803000   0.94532222   -6.5182732    290.76709  0.030175082  0.030692067            4 
  804000   0.92584046   -6.4699444    291.19353  0.030181751  0.030669869            6 
  805000   0.93794818    -6.474125    292.42849  0.030272101  0.030647753            7 
  806000   0.94946082   -6.4772588    291.98269  0.030188451  0.030626073            5 
  807000   0.93437203   -6.5002324    291.94309  0.030146953  0.030604409            5 
  808000    0.9387233   -6.4663208    292.68237  0.030185888  0.030582327            5 
  809000   0.93296357   -6.4672639    292.13472  0.030092163  0.030560211            4 
  810000    0.9265114   -6.5076381    291.89032  0.030029868  0.030538251            6 
  811000   0.93912355   -6.5170461    292.76839  0.030083065  0.030516024            4 
  812000   0.93583127   -6.5099569     292.8466  0.030054044   0.03049377            8 
  813000    0.9369672   -6.5094355    292.97431  0.030030167  0.030471714            4 
  814000   0.93302769   -6.4844203    292.79897  0.029975325  0.030449796            4 
  815000   0.91695016   -6.5184034    293.00867  0.029959987  0.030428027            3 
  816000   0.93765424   -6.5319817    292.68491  0.029890208  0.030405797            3 
  817000   0.95741378   -6.5224098    293.16184  0.029902269  0.030383515            2 
  818000   0.91073159   -6.5158792    293.80852  0.029931593   0.03036122            4 
  819000   0.90349604   -6.5195579    294.08917  0.029923603  0.030339151            3 
  820000    0.9412767   -6.5105711    294.11595  0.029889832  0.030316957            3 
  821000   0.92777879   -6.5254451    293.92973  0.029834524  0.030294943            9 
  822000   0.92786078   -6.5560054    293.26568  0.029730908  0.030272525           12 
  823000   0.92326937   -6.4895801     294.2828  0.029797773  0.030250359            3 
  824000    0.9410765   -6.5493176    294.08626  0.029741733  0.030228017            5 
  825000   0.94126221   -6.5502503    293.90059  0.029686928  0.030206026           11 
  826000   0.92918788    -6.498639     294.5669   0.02971821  0.030183795            7 
  827000   0.91361293   -6.5231042    295.26395  0.029752514  0.030162065            2 
  828000   0.91791864   -6.5351058    296.21921  0.029812723  0.030140119            4 
  829000   0.89238129   -6.5231773    295.52337  0.029706813  0.030118162            5 
  830000    0.9319514   -6.5300723    295.53766  0.029672456  0.030096253            6 
  831000   0.91999306   -6.5657449    296.11882  0.029695028  0.030074329            6 
  832000   0.93033113    -6.511709    297.13374  0.029760991  0.030052726            7 
  833000   0.91565546   -6.5263104    296.52491  0.029664357  0.030031293            5 
  834000   0.92485797    -6.511961    296.38912  0.029615219  0.030009825           13 
  835000   0.91515496   -6.5427484    297.12421  0.029653115  0.029988532            4 
  836000   0.92937914   -6.5247801    297.08101  0.029613338  0.029966987            6 
  837000   0.91730795   -6.5269892    296.79746  0.029549727  0.029945764            8 
  838000   0.91520878   -6.5372876    297.22878  0.029557356  0.029924068            6 
  839000    0.9156224   -6.5240138    298.13855   0.02961249  0.029902276            5 
  840000   0.91500621   -6.5019251    298.68948  0.029631893  0.029880653            9 
  841000   0.89645884   -6.5195673    297.87194   0.02951565  0.029859071            4 
  842000   0.90692489    -6.524514    298.13425  0.029506557  0.029837358            7 
  843000   0.93205475   -6.5374744    297.82888  0.029441368  0.029815556            2 
  844000   0.90768199   -6.5449899    298.08758  0.029432028  0.029793911            4 
  845000   0.90165824   -6.5494454    298.59768  0.029447503  0.029772392            5 
  846000   0.90283037   -6.5636054    297.67326  0.029321637   0.02975085            5 
  847000   0.91043709   -6.5508548    298.91327  0.029409019  0.029729095            8 
  848000   0.94107116   -6.5602448    299.00618  0.029383469  0.029707606            4 
  849000   0.91920991   -6.5377625    298.85271  0.029333796  0.029686064            4 
  850000   0.90303513   -6.5331057    299.32016  0.029345114  0.029664797            4 
  851000    0.9239865   -6.5464413    299.78847  0.029356489  0.029643384            4 
  852000    0.9052716   -6.5640472    299.57876  0.029301522  0.029622177            6 
  853000   0.92145331   -6.5833191    299.71001  0.029279993  0.029600729            7 
  854000   0.92941473   -6.5657199    299.56171  0.029231236  0.029579311            6 
  855000   0.90903501   -6.5409187    299.69859  0.029210389  0.029557834            6 
  856000   0.92180008    -6.550955    300.11295  0.029216604  0.029536655            4 
  857000   0.91767059   -6.5739944    300.40175  0.029210594  0.029515482            9 
  858000   0.90840958   -6.5761949    301.04812  0.029239328  0.029494422           10 
  859000   0.91793373   -6.5248081    301.59718  0.029258555  0.029473549            6 
  860000   0.93945257   -6.5382214     301.7144  0.029235891  0.029452548            8 
  861000   0.91925634   -6.5600875    301.44635  0.029175992  0.029431534            5 
  862000    0.9233952   -6.5372504    300.93853  0.029093052  0.029410541            5 
  863000   0.90503941   -6.5661466    301.95932  0.029157911  0.029389395            4 
  864000    0.8823453   -6.5604848    302.32799  0.029159721   0.02936857            3 
  865000   0.89823254    -6.580527    301.75356   0.02907067  0.029347669           15 
  866000   0.90314654   -6.5959223    301.93312   0.02905438  0.029326679            6 
  867000   0.89807962   -6.5925262    301.94203  0.029021726  0.029305569            4 
  868000   0.91796835   -6.5346855     303.7923  0.029165928  0.029284949            5 
  869000   0.90826855   -6.5672067    302.65762  0.029023554  0.029264182            5 
  870000   0.92096896   -6.5829604    302.69958  0.028994213  0.029243346            4 
  871000   0.89419931   -6.5912516    303.65954  0.029052769  0.029222439            4 
  872000   0.90724721   -6.5779445    302.17725  0.028877795  0.029201667            8 
  873000   0.89766289   -6.6120651    303.37101  0.028958668  0.029180597            5 
  874000   0.91026613   -6.6188951     302.9282  0.028883315  0.029159787            9 
  875000   0.88793823   -6.6017294    302.37861  0.028797963  0.029138871            5 
  876000   0.91098975   -6.5865172    303.23386  0.028846448  0.029118056           23 
  877000   0.92722417   -6.5922203    303.30073   0.02881991  0.029097177            9 
  878000   0.93234185   -6.6006385    303.65301  0.028820521  0.029076503           11 
  879000   0.89305236   -6.5784441    303.89717   0.02881088  0.029055649            6 
  880000   0.93399815   -6.5678049    304.77597  0.028861361  0.029034911            6 
  881000   0.88149967   -6.5827293    304.88719  0.028839121  0.029014426            5 
  882000   0.90804251   -6.5640664    305.31933  0.028847253  0.028993834            7 
  883000   0.92939384   -6.5495048    305.04447  0.028788644  0.028973411            4 
  884000   0.90500816   -6.6100395    305.20932  0.028771618  0.028952947            4 
  885000   0.91215279   -6.5997268    304.75001  0.028695858  0.028932293            8 
  886000   0.91470584   -6.6288141    305.19078  0.028704926  0.028911762            5 
  887000   0.92172397   -6.5781346    306.56199   0.02880139  0.028891316            6 
  888000   0.91524619   -6.5885841    306.19494   0.02873451  0.028871017            4 
  889000   0.91461658    -6.603104     305.1125  0.028600722  0.028850738           10 
  890000   0.89226605    -6.608926    306.12647  0.028663527  0.028830346            6 
  891000   0.89699541   -6.6086284    306.40937  0.028657816  0.028810009            3 
  892000   0.88344478   -6.6086961    306.32668  0.028617963  0.028789548           11 
  893000   0.89696381   -6.6060681    306.77275  0.028627543  0.028768924           16 
  894000   0.90259379   -6.6405755     306.6661   0.02858558  0.028748457           19 
  895000    0.8962683   -6.6095077     306.8454  0.028570335  0.028727947           12 
  896000    0.8806016   -6.6008036    307.33807   0.02858427  0.028707653            5 
  897000   0.89727062   -6.5959796    306.90763  0.028512415  0.028687219            8 
  898000   0.90055175    -6.619785    306.05718  0.028401743  0.028666766            8 
  899000   0.88777127   -6.5950626    307.35535  0.028490485  0.028646246            9 
  900000   0.88270783   -6.5902425    307.15166  0.028439968  0.028625566            3 
  901000   0.89275563   -6.5839343    307.27442  0.028419758  0.028604753            6 
  902000   0.90916026   -6.6368552    306.78481  0.028343017   0.02858394            7 
  903000   0.87429896    -6.597002    307.48581  0.028376321   0.02856326           15 
  904000   0.89742828   -6.6082437    307.93567  0.028386401  0.028542771           10 
  905000    0.8917023   -6.5952885    307.76536  0.028339352  0.028522256            6 
  906000   0.88621113   -6.6064479    308.94317  0.028416406  0.028501917            4 
  907000   0.88704093    -6.583778    308.41425  0.028336481  0.028481454            8 
  908000   0.89814653   -6.6111252    308.83521  0.028343907  0.028461274            5 
  909000   0.86834601   -6.6134131    308.45825  0.028278167  0.028440858            5 
  910000   0.90228793   -6.6427216    308.77623  0.028276211  0.028420396            6 
  911000   0.89101142   -6.6334335    307.98093  0.028172423  0.028399822            7 
  912000   0.89672907   -6.6403227    308.07817  0.028150418  0.028379427            4 
  913000   0.90156419   -6.5870661    309.83557   0.02827999  0.028359189            5 
  914000   0.88635058   -6.6403686    309.13938  0.028185574  0.028338936           11 
  915000   0.89068139   -6.6091583    309.36985   0.02817576  0.028318586            4 
  916000   0.89835716   -6.6275692    309.60456  0.028166354   0.02829812            7 
  917000   0.89021936   -6.5991393    309.58987  0.028134303  0.028277765            4 
  918000   0.90035981   -6.6089902    310.64857  0.028199762  0.028257527            4 
  919000   0.88005083   -6.6426458    309.22874  0.028040328  0.028237081            3 
  920000   0.88420801   -6.6264534    310.10936  0.028089616  0.028216742            4 
  921000   0.88669593   -6.6137649    310.16173  0.028063855  0.028196267            5 
  922000   0.89041198   -6.6077685    309.98209  0.028017181  0.028175812            7 
  923000    0.8857715   -6.6015638    311.47305  0.028121438  0.028155624            5 
  924000   0.89042309    -6.622885    309.84273  0.027943969  0.028135407            8 
  925000   0.89955598   -6.6451664    310.50158  0.027973116  0.028115225           10 
  926000   0.88451765   -6.6537623    310.28712  0.027923607  0.028094812            6 
  927000   0.89701512    -6.636657    310.56661  0.027918609  0.028074547            6 
  928000   0.87803535   -6.6292093    310.96463  0.027924267  0.028054348            7 
  929000   0.88335447   -6.6452203    310.74287  0.027874316  0.028034164            5 
  930000   0.88275672   -6.6668486    310.52209   0.02782456  0.028013652            7 
  931000   0.88871819   -6.6340509    309.94215  0.027742763  0.027992998            7 
  932000   0.88111103   -6.6488526    309.87651  0.027707127  0.027972425           13 
  933000   0.88199235   -6.6219333     311.0919  0.027785986  0.027951756            7 
  934000   0.89100828   -6.6203457    310.96039  0.027744503  0.027931237            4 
  935000   0.88890502   -6.6261665    311.33915  0.027748587  0.027910658            5 
  936000   0.89189102   -6.6601664    310.63759   0.02765648  0.027890143            7 
  937000   0.89503853   -6.6331834    312.10634   0.02775759  0.027869589            5 
  938000   0.84399185   -6.6525089    311.59415  0.027682494  0.027848912            4 
  939000   0.89770516   -6.6704071    311.42704  0.027638182  0.027828301            5 
  940000   0.88118949   -6.6157547    313.06898  0.027754342  0.027807689            4 
  941000   0.89166479   -6.6296215     311.4105  0.027577975  0.027787151            9 
  942000   0.87870481   -6.6374847    311.94871  0.027596312   0.02776652            7 
  943000   0.89217199   -6.6199937    312.58136  0.027622955  0.027745983            7 
  944000   0.87150968   -6.6521311    311.74572  0.027519926  0.027725378            7 
  945000   0.87346186   -6.6508171    312.30234  0.027539889   0.02770486            6 
  946000    0.8720329   -6.6279111    312.41075  0.027520327  0.027684195            6 
  947000   0.88506079   -6.6433425    312.55558  0.027504011  0.027663453            3 
  948000   0.87718314   -6.6227061    312.99083  0.027513259  0.027642678            5 
  949000   0.87041191   -6.6747847    312.16768  0.027411985  0.027621672            5 
  950000   0.86644863   -6.6597452    313.05548  0.027461007  0.027600932            5 
  951000   0.84867959   -6.6157697    312.99005  0.027426397  0.027580129           12 
  952000   0.89707201   -6.6657616    311.92166  0.027304067  0.027559263            7 
  953000   0.85532072   -6.6865592    311.99722  0.027282023  0.027538274            3 
  954000    0.8901577   -6.6802799    311.58111  0.027217078     0.027517            7 
  955000   0.88129988   -6.6850302    312.32702  0.027253666  0.027496001            5 
  956000   0.87275591    -6.663506    313.28853  0.027308972   0.02747486            9 
  957000   0.87135673   -6.6556918    313.22232  0.027274671  0.027453949            5 
  958000   0.88586856   -6.6619695    312.83301  0.027212336  0.027433195            4 
  959000    0.8844532   -6.6851267    312.24694  0.027133033  0.027412387            7 
  960000   0.87850229   -6.6658718    312.22255  0.027102651  0.027391251            7 
  961000    0.8686711   -6.6703863    313.64735  0.027198001  0.027370142            6 
  962000   0.87233101   -6.6888348    312.68772  0.027086601  0.027349062            3 
  963000    0.8762864   -6.6513123    313.78949  0.027153815  0.027327947            7 
  964000   0.86098247   -6.6756767    313.45201  0.027096474  0.027307014            5 
  965000   0.88548649    -6.668519    313.25021  0.027050968  0.027285851            4 
  966000     0.886345   -6.6424302    313.33367  0.027030165   0.02726483            6 
  967000   0.88880152   -6.6907981    312.55069  0.026934737  0.027243647            4 
  968000   0.86845041   -6.6848745     312.7696  0.026925758  0.027222464            6 
  969000   0.86799544   -6.6553793    313.97752  0.027001851  0.027201439            7 
  970000    0.8514449   -6.6412616    314.88819   0.02705225  0.027180509           12 
  971000   0.86723493   -6.6827871    313.47305  0.026902939  0.027159781           10 
  972000   0.86018804   -6.6592176    313.73847  0.026898017   0.02713887            3 
  973000   0.86711805   -6.7010908    313.75759   0.02687201  0.027117806            5 
  974000   0.88660845   -6.6680604     314.0641  0.026870645  0.027096707            7 
  975000   0.87807987   -6.6788135    313.94502  0.026832907  0.027075598           13 
  976000   0.85524051   -6.6674425    313.83995  0.026796444  0.027054443            6 
  977000   0.87525148    -6.670157      314.674  0.026840157  0.027033324           11 
  978000   0.86680369   -6.6887598    314.20712  0.026772931  0.027012195            6 
  979000   0.86643363   -6.7004188    313.45318  0.026681408  0.026990902            6 
  980000   0.87539221   -6.6880409    314.63991  0.026755094  0.026969627            4 
  981000   0.85082968   -6.7299922    313.52058  0.026632737  0.026948352            7 
  982000   0.84373727   -6.6861246    314.12401  0.026656823   0.02692701            5 
  983000   0.85082323   -6.7149469    314.72877  0.026680974  0.026905751            7 
  984000   0.85671264   -6.6991838     314.2686  0.026614888  0.026884447            8 
  985000   0.85509122   -6.7029548    314.36535  0.026596053  0.026863164            6 
  986000   0.86011705   -6.7036708    314.87559  0.026612203  0.026842009           20 
  987000   0.86218816   -6.6592672    315.00391  0.026596074   0.02682114            5 
  988000   0.87229424   -6.6860123    315.37074  0.026600096  0.026800335            7 
  989000   0.85909829   -6.6946281    315.53803  0.026587296  0.026779617           11 
  990000   0.86866132   -6.7186862    316.51713  0.026642856  0.026758907            9 
  991000   0.87229876   -6.6708711    316.51705  0.026615965  0.026738088            8 
  992000   0.84923118   -6.6906592    315.88037   0.02653565  0.026717228            7 
  993000   0.85695055   -6.7428343    316.01294  0.026520052  0.026696264           11 
  994000   0.85420662    -6.735895     316.0213  0.026494072  0.026675128            4 
  995000   0.85047968   -6.7135866    316.75034  0.026528504  0.026654044            5 
  996000    0.8524097   -6.7163889    316.00565  0.026439562  0.026633185            6 
  997000   0.86185635   -6.6993828    315.95516  0.026408823  0.026612226           13 
  998000   0.85582569   -6.7228645     316.6551  0.026440806  0.026591216            5 
  999000   0.85901606   -6.7265664    316.07114  0.026365627  0.026570357           23 
 1000000    0.8551901   -6.7264533    316.48397  0.026373664  0.026549421            8 
 1001000   0.85065156   -6.7264838    316.76059  0.026370346  0.026528553            3 
 1002000   0.86197083   -6.7217946    317.12002  0.026373921  0.026507943            6 
 1003000   0.84330431   -6.6889261    317.63715  0.026390591   0.02648737            4 
 1004000   0.84527147    -6.732601    316.65373   0.02628268  0.026466649            7 
 1005000   0.85137077   -6.7416339    316.19727  0.026218679  0.026445841            4 
 1006000    0.8528777   -6.7042934    317.14044  0.026270745  0.026425152            5 
 1007000    0.8667541   -6.7083232    317.03348  0.026235806  0.026404512            4 
 1008000   0.85808062   -6.7318479    317.23446  0.026226393  0.026383816            5 
 1009000   0.85626184     -6.73301    317.56999  0.026228113  0.026363294            8 
 1010000   0.85105688   -6.6985225     318.1097  0.026246675  0.026342908            7 
 1011000   0.83030702   -6.6982502    318.51182  0.026253859  0.026322518           12 
 1012000   0.84220988   -6.7171649    316.93602  0.026098157  0.026301955            6 
 1013000   0.83301168    -6.714917    317.28655   0.02610123  0.026281281            7 
 1014000   0.84364622   -6.7429841    317.09718  0.026059926  0.026260472            6 
 1015000   0.85614571   -6.7296576    317.38838  0.026058159  0.026239952            3 
 1016000   0.83374679   -6.7527788    317.43619  0.026036433  0.026219381            5 
 1017000   0.83397266   -6.7412042    318.01561   0.02605831  0.026198763            4 
 1018000   0.84693171   -6.7317017    318.73945  0.026091965  0.026178237            7 
 1019000   0.84217274   -6.7429288     318.9067  0.026080038   0.02615779            5 
 1020000   0.83912275   -6.7769289    317.80528  0.025964484  0.026137282            4 
 1021000   0.83870355    -6.727679    319.17326  0.026050706  0.026116911            7 
 1022000   0.84866627   -6.7163828    319.04834  0.026015031  0.026096508           11 
 1023000   0.85582805   -6.7390437    317.88033  0.025894455  0.026076023            5 
 1024000   0.83555774    -6.764159    318.45707  0.025916103  0.026055553            7 
 1025000   0.84008294   -6.7318846    318.93519   0.02592969  0.026035005            5 
 1026000   0.84274037   -6.7409275    318.13832  0.025839695  0.026014459            8 
 1027000   0.85406526   -6.7558127    318.63951  0.025855202  0.025993847           24 
 1028000   0.85132225   -6.7366535    318.63644  0.025829802  0.025973288           10 
 1029000   0.82245388   -6.7133901     319.3844  0.025865273  0.025952862            5 
 1030000   0.82646308   -6.7232334    319.32581  0.025835421  0.025932426           12 
 1031000   0.84609906    -6.747865    319.71385  0.025841727  0.025911878            6 
 1032000   0.84561391   -6.7428225    319.53287  0.025802073  0.025891381           10 
 1033000   0.84344457   -6.7424676    319.40883  0.025767088  0.025870932           16 
 1034000   0.84060292   -6.7533378       319.33  0.025735815  0.025850464            4 
 1035000   0.84623477   -6.7576619    319.86211  0.025753793  0.025829994           13 
 1036000   0.83116272   -6.7762454    319.47065  0.025697446  0.025809352            5 
 1037000   0.83664212   -6.7496734    320.27129  0.025737005  0.025788601            7 
 1038000   0.83596053   -6.7709295    318.60028  0.025578057   0.02576806            6 
 1039000   0.81902975   -6.7586792    319.38435  0.025616326    0.0257475           16 
 1040000   0.84344002    -6.747217    319.35583  0.025589409  0.025727069            7 
 1041000   0.83830649   -6.7302783    319.64623  0.025588075  0.025706785            9 
 1042000   0.83615797   -6.7889382    319.53672   0.02555476  0.025686423            7 
 1043000   0.83619885   -6.7815318     319.5952  0.025534931  0.025665791            7 
 1044000   0.84820055   -6.7751669    319.56322   0.02550792  0.025645255           10 
 1045000   0.83605934   -6.7569239    321.14744  0.025609844  0.025624839           13 
 1046000   0.84002638   -6.7707238    320.40788   0.02552644  0.025604361           17 
 1047000   0.82810404    -6.762439    320.10355  0.025477837  0.025583907            6 
 1048000   0.82605135   -6.7383901     320.0277  0.025447495   0.02556358            4 
 1049000    0.8475445   -6.7577688    321.51429  0.025541332  0.025543473           11 
 1050000    0.8231556   -6.7922909     319.8789  0.025387214  0.025523326           11 
 1051000   0.82742384   -6.7573366    320.82718  0.025438247  0.025503175            5 
 1052000   0.80802962   -6.7763365     321.0811  0.025434181  0.025482945            5 
 1053000   0.84626934   -6.7668121    320.16949  0.025337883  0.025462823           10 
 1054000   0.83985803   -6.7698949    321.61784  0.025428356  0.025442779            7 
 1055000   0.82730168   -6.7616807    321.57257  0.025400677  0.025422694            8 
 1056000   0.86036856   -6.7692077     321.9449  0.025406005  0.025402709            8 
 1057000   0.81109297    -6.757629    321.71424  0.025363784  0.025382807            5 
 1058000   0.85058398   -6.7835816    322.46404  0.025398869  0.025362935            6 
 1059000   0.83078657   -6.7769061    322.50045   0.02537775  0.025342991           10 
 1060000   0.82873262   -6.7993113    321.41091  0.025268153  0.025322891           16 
 1061000   0.83599174   -6.8097264    322.21753  0.025307692  0.025302784           12 
 1062000   0.84929094   -6.8311586    321.14054  0.025199352  0.025282601           28 
 1063000    0.8536452   -6.8119676    322.21992  0.025260264  0.025262396           11 
 1064000   0.84083445   -6.7919824    321.78606  0.025202542   0.02524242            6 
 1065000   0.81739441   -6.7870483    322.41292  0.025227928  0.025222496           16 
 1066000   0.84143301   -6.8108816    321.60857  0.025141383  0.025202641            9 
 1067000   0.83112298   -6.7770282    322.43105  0.025182057  0.025182542           11 
 1068000   0.82923483   -6.7655509    323.19949  0.025218437  0.025162718            9 
 1069000   0.82823363   -6.7753097    322.58317  0.025146802  0.025142936            7 
 1070000   0.82835919   -6.7785312    323.43022  0.025189269  0.025123115           14 
 1071000   0.81792262   -6.8162372    322.90553  0.025124924   0.02510335           16 
 1072000    0.8367319   -6.8255497    322.37437  0.025060197   0.02508365            8 
 1073000   0.84616097   -6.7932904     324.5093  0.025202648   0.02506381            7 
 1074000   0.81510168   -6.8161557    322.57512  0.025029106  0.025044043            5 
 1075000   0.81700867   -6.8034121    322.60258  0.025007952  0.025024267           16 
 1076000   0.82215982   -6.7888491    323.75528  0.025073984  0.025004478            7 
 1077000   0.83996247   -6.7913257    323.41036  0.025024014  0.024984814           11 
 1078000   0.81679433   -6.7814256    323.66322  0.025020348  0.024965218            7 
 1079000   0.83224466     -6.77417    324.14089  0.025034051  0.024945656            7 
 1080000   0.82180059   -6.8054296    322.78795  0.024906478  0.024926138            6 
 1081000    0.8140428    -6.798189    323.10356  0.024907768  0.024906556            7 
 1082000   0.82161371   -6.7862269    324.37217  0.024982453  0.024886877            5 
 1083000   0.82340894     -6.76141    325.92044  0.025078519  0.024867489            9 
 1084000   0.82032353   -6.8198096    324.02574  0.024909728  0.024848087           10 
 1085000   0.82986829   -6.7896598    324.58483   0.02492971  0.024828689            9 
 1086000    0.8249786   -6.7579107    325.00151  0.024938728   0.02480929            8 
 1087000   0.83173706   -6.8081282    323.86441  0.024828611  0.024789919           16 
 1088000   0.80408085   -6.8482464    324.18771  0.024830554  0.024770497            8 
 1089000   0.82860339   -6.8291812    324.35734  0.024820733  0.024751153            7 
 1090000    0.8204124    -6.813038    325.29569  0.024869701  0.024731951            7 
 1091000   0.83759369   -6.8106663    324.89394  0.024816219  0.024712719            7 
 1092000   0.82141321   -6.8145377    325.50843  0.024840387  0.024693404           15 
 1093000   0.82324693   -6.8335224    325.21911  0.024795602  0.024674242           11 
 1094000   0.82093053   -6.8207174     325.3202  0.024780637  0.024655041            6 
 1095000   0.79516161   -6.8213327    325.57901  0.024777702  0.024635895            7 
 1096000   0.82586185   -6.8270673    325.31884  0.024735313  0.024616806            8 
 1097000   0.79618231   -6.8149165    325.43078  0.024721269  0.024597812           24 
 1098000   0.81756796   -6.7959277    326.86105  0.024807305  0.024578874            4 
 1099000   0.80535103   -6.8220446    325.70062  0.024696741   0.02455999            7 
 1100000   0.81349659   -6.8137202    326.25819  0.024716529  0.024541029           11 
 1101000    0.7961655   -6.8108533    326.97895  0.024748634   0.02452215            7 
 1102000   0.80403077   -6.8218826    326.82083  0.024714219  0.024503284            9 
 1103000   0.80744949   -6.7900316    326.21764  0.024646241  0.024484388           11 
 1104000   0.80641852   -6.8328563    326.31559  0.024631309  0.024465535            8 
 1105000   0.80178583   -6.8226391    327.05131  0.024664503  0.024446848            9 
 1106000   0.82732552   -6.7856186    326.68626  0.024614697  0.024428026           12 
 1107000   0.80039814   -6.8557815    325.71603  0.024519424  0.024409122           13 
 1108000   0.82639499    -6.836456    327.49226  0.024630886  0.024390184           11 
 1109000   0.79407528    -6.828366    327.93797  0.024642168  0.024371368           21 
 1110000   0.80016249   -6.8585182    326.36398    0.0245018  0.024352489           15 
 1111000   0.81372155   -6.8221719    327.97709  0.024600742  0.024333642            6 
 1112000   0.83487173   -6.8419298    326.76242  0.024487591  0.024314928            7 
 1113000   0.81401687   -6.8369254    327.05408  0.024487428   0.02429616            9 
 1114000   0.81043922   -6.8275745    327.19054  0.024475654  0.024277329           20 
 1115000   0.82525159   -6.8664903    326.56066  0.024406626  0.024258663           18 
 1116000    0.7993201   -6.8211141    327.97675  0.024490498  0.024240006            6 
 1117000    0.8007919   -6.8408982    327.61533  0.024441609  0.024221414            9 
 1118000   0.81955571    -6.837679      328.269   0.02446847  0.024202895           14 
 1119000   0.80474566   -6.8297975    328.23509  0.024444079  0.024184274           13 
 1120000   0.79558066   -6.8451063    327.35715   0.02435693  0.024165651            5 
 1121000   0.81391233   -6.8692888    327.48044  0.024344368  0.024147003            8 
 1122000    0.8149562   -6.8571497    327.45697  0.024320928  0.024128338            3 
 1123000   0.79991856   -6.8379009    328.42966   0.02437145  0.024109763            9 
 1124000   0.80271651   -6.8427013    327.48529  0.024279751  0.024091108            5 
 1125000   0.79807416   -6.8480018     329.0847  0.024376644   0.02407268           10 
 1126000   0.80643921    -6.793733    329.71114  0.024401358  0.024054389            7 
 1127000   0.78476835   -6.8233351     328.2929  0.024274837  0.024036156            6 
 1128000   0.81783276   -6.7919661    330.13142  0.024389142  0.024017812            5 
 1129000   0.80353531   -6.8060631    329.44918  0.024317182  0.023999455            6 
 1130000   0.81497508   -6.8142376     329.3485  0.024288238  0.023981132           13 
 1131000   0.80837724   -6.8171652     330.2163  0.024330703  0.023962853           11 
 1132000   0.78339923   -6.8295744    328.54427  0.024186122  0.023944465            8 
 1133000   0.80650427   -6.8593804    328.87994  0.024189463  0.023926149           18 
 1134000   0.79748366   -6.8793118    328.14359  0.024114021  0.023907603           12 
 1135000   0.82394044   -6.8690668    328.22068  0.024098434  0.023889142            8 
 1136000   0.78387844   -6.8683925    329.00145  0.024134496  0.023870642           11 
 1137000   0.79168584   -6.8888705    328.69493  0.024090804  0.023852152           28 
 1138000   0.80892257   -6.8630752     328.1788  0.024031839  0.023833481           14 
 1139000   0.79842045   -6.8597409    329.34888  0.024096347  0.023815035            5 
 1140000   0.80712792   -6.8711975    329.78553   0.02410713  0.023796775            7 
 1141000   0.80630143   -6.8715339     329.6773  0.024078097  0.023778534           15 
 1142000   0.82204074   -6.8654403    329.78678  0.024065002   0.02376014            6 
 1143000   0.80670825    -6.864379    329.40541  0.024016143  0.023741803            5 
 1144000   0.79372454   -6.8438708    328.64944  0.023940081  0.023723295           11 
 1145000   0.79603652   -6.8964562    329.46945  0.023978854  0.023704852            6 
 1146000   0.79707484   -6.8692606    329.71024  0.023975439  0.023686507            7 
 1147000   0.77948072   -6.8851493    328.97452  0.023901084  0.023668167           10 
 1148000   0.79621829   -6.8604077    329.72656  0.023934855  0.023649726           24 
 1149000   0.79112568   -6.8762443    330.39536   0.02396253  0.023631449            7 
 1150000   0.79294746   -6.8639094    330.56598  0.023954056  0.023613283           12 
 1151000   0.80691798   -6.8642792    329.63839  0.023866087  0.023595104           10 
 1152000   0.79267161   -6.8977309     329.4421   0.02383117  0.023576695           16 
 1153000   0.77442875   -6.8974225    328.90059  0.023771364  0.023558289            6 
 1154000   0.79361814   -6.9018767    329.52099  0.023795565  0.023539813            7 
 1155000    0.8014316   -6.9097433     329.2527  0.023755606  0.023521543            8 
 1156000   0.80425529   -6.8925272    330.67255   0.02383741  0.023503219           11 
 1157000   0.79514503   -6.9108448     330.0414  0.023771349  0.023484928            9 
 1158000   0.79231491   -6.8974041    330.38444  0.023775506  0.023466679           15 
 1159000    0.7826799   -6.8869732    330.40503  0.023756473  0.023448433           19 
 1160000   0.81073429   -6.9231352    330.60223   0.02375016  0.023430264            8 
 1161000   0.79126884   -6.9068216    330.69671  0.023736485  0.023412205           11 
 1162000    0.7958731    -6.883086    330.78406  0.023722322  0.023394337            6 
 1163000    0.8000645   -6.8681487    330.89605  0.023709949  0.023376351           10 
 1164000   0.77838697   -6.8950133    330.34178  0.023649899  0.023358304            6 
 1165000   0.79392771   -6.8810133    331.50212  0.023712598  0.023340169           11 
 1166000   0.78792949   -6.8661682    331.30812  0.023678396  0.023322094           12 
 1167000   0.78334728   -6.8936239    331.40538  0.023665052  0.023304129           10 
 1168000    0.7891899   -6.8991259    331.03514  0.023618375  0.023286078            6 
 1169000   0.77744099   -6.8988399    331.62911  0.023640513  0.023268068            5 
 1170000   0.77316778    -6.866294    331.08243  0.023581369   0.02325007            7 
 1171000    0.7690998   -6.8852902    331.56207  0.023595365  0.023232037            9 
 1172000   0.79870946   -6.8787694    330.84371  0.023524155  0.023214087           11 
 1173000   0.77543012   -6.9138646     330.2907  0.023464813   0.02319595           10 
 1174000   0.79751689   -6.9040873    330.95131  0.023491717  0.023177891            8 
 1175000   0.78094699   -6.8982161    330.90969  0.023468772  0.023159861           16 
 1176000   0.76589078    -6.937243    330.66394  0.023431402  0.023141851           16 
 1177000   0.78833946   -6.9075776    330.92932  0.023430284  0.023123892           10 
 1178000   0.77289603   -6.9028315     331.4897  0.023450036  0.023105843            8 
 1179000   0.77286309   -6.8906299    331.51937  0.023432243  0.023087728            6 
 1180000   0.78358718    -6.919134    331.18648  0.023388875  0.023069673            9 
 1181000   0.79006467   -6.8983523    331.78717  0.023411457  0.023051601           10 
 1182000   0.76686643   -6.9180554    331.05787  0.023340234  0.023033577           17 
 1183000   0.79184765   -6.9221763    331.38777  0.023343742  0.023015449           17 
 1184000   0.79237598   -6.9143808    330.58655  0.023267634  0.022997295           25 
 1185000   0.79322524   -6.8886264    332.15592  0.023358363  0.022979237            6 
 1186000   0.79265499   -6.9168736    331.01292  0.023258356  0.022961222           31 
 1187000   0.75412251   -6.8864197    332.19693  0.023321885   0.02294329           23 
 1188000   0.77169107   -6.9104682    332.13861  0.023298163  0.022925399            9 
 1189000   0.77948367   -6.9145786    331.51164  0.023234626  0.022907362           13 
 1190000   0.76375332   -6.9469468    331.29933  0.023200233  0.022889315            9 
 1191000   0.77697747   -6.9454615    331.45208  0.023191441  0.022871283           11 
 1192000   0.77764146   -6.9080576    331.87814  0.023201772  0.022853216           15 
 1193000   0.77314579   -6.9045774    332.41701  0.023219965  0.022835227           10 
 1194000   0.78437783   -6.9060476    332.42903  0.023201356  0.022817441            6 
 1195000   0.76934929   -6.8909579    332.89511  0.023214443  0.022799664            9 
 1196000   0.77426365   -6.9356389     332.6413  0.023177348  0.022781871           11 
 1197000    0.7628031    -6.911681    332.47948   0.02314672  0.022764161           13 
 1198000   0.77050997   -6.9377907    332.94966  0.023160104   0.02274632            6 
 1199000   0.76780695   -6.9172953    333.25873  0.023162269  0.022728425           27 
 1200000   0.76328222   -6.9277894    332.78388  0.023109992  0.022710658            8 
 1201000   0.77229649   -6.9548042    332.70533  0.023085299  0.022692804            7 
 1202000   0.78323435   -6.9142175     332.6571   0.02306275  0.022674959           10 
 1203000   0.75752584   -6.9142218    332.60396  0.023039898  0.022657042            8 
 1204000   0.78665119   -6.9292516    333.16381  0.023059511  0.022639205           35 
 1205000   0.77549126   -6.9615479    331.86871   0.02295081   0.02262137            5 
 1206000   0.76384819   -6.9265565     332.8285    0.0229981  0.022603467           10 
 1207000   0.76963229   -6.9623765    333.12678   0.02299964  0.022585598           11 
 1208000   0.77543741   -6.9789796    332.45667  0.022934373  0.022567615            5 
 1209000   0.75437972   -6.9483591    332.72018  0.022933566  0.022549622            9 
 1210000   0.75601936   -6.9701432    332.83395  0.022922449  0.022531697           14 
 1211000   0.78334304   -6.9700108    332.96746  0.022912707  0.022513773            7 
 1212000   0.76196396   -6.9705584    333.02146  0.022897515  0.022495839           13 
 1213000   0.77085792    -6.978881    332.32893  0.022831061  0.022477924            9 
 1214000    0.7608337   -6.9352751    333.27509  0.022877203  0.022460123            5 
 1215000   0.77976113   -6.9341868    332.82286  0.022827356  0.022442401            8 
 1216000   0.76460086   -6.9279631    333.30225  0.022841437  0.022424745            6 
 1217000   0.77406165   -6.9421947    333.34627  0.022825683  0.022407224           18 
 1218000   0.75583365   -6.9291571    333.04816  0.022786546   0.02238959            9 
 1219000   0.77122755    -6.928347     333.9805   0.02283159  0.022372096           16 
 1220000   0.76684042   -6.9354795    333.96408  0.022811754  0.022354512           16 
 1221000   0.77838597   -6.9423832    333.04858  0.022730588  0.022336902           12 
 1222000    0.7664514    -6.974596    333.61774    0.0227508  0.022319232           10 
 1223000   0.77383339   -6.9808612    332.74718  0.022672879  0.022301499           21 
 1224000   0.75335236   -6.9616962    333.57458  0.022710688  0.022283888            7 
 1225000   0.77705041   -6.9763113    332.84549  0.022642551  0.022266297           21 
 1226000   0.77089705    -6.951395    333.36179  0.022659176   0.02224868           15 
 1227000   0.76962695   -6.9734069    333.26978   0.02263446  0.022230985           11 
 1228000   0.76415782   -6.9664421    333.06635  0.022602223  0.022213303           13 
 1229000   0.76125806   -6.9819346    333.19207  0.022592357  0.022195787           16 
 1230000   0.76105217   -6.9743805    333.29146  0.022580722   0.02217833           24 
 1231000   0.74902483   -6.9963977    333.11149  0.022550196  0.022160834           18 
 1232000    0.7614242   -6.9753389    334.88194  0.022651646  0.022143474           13 
 1233000   0.77472589   -6.9782232    334.13824  0.022583011  0.022126204           12 
 1234000   0.77891019   -6.9599711    334.52422  0.022590776  0.022108956           10 
 1235000   0.77465078    -6.962211    334.71677  0.022585477  0.022091689           11 
 1236000   0.74673535   -6.9917526    334.17444  0.022530639  0.022074403            6 
 1237000   0.77507234   -6.9958657    333.85036  0.022490593  0.022057049           19 
 1238000   0.74725253   -6.9891932    335.05216  0.022553323  0.022039736           12 
 1239000   0.74442362   -6.9749181    334.42439  0.022492897  0.022022234           10 
 1240000   0.76409693   -6.9749621    334.02263  0.022447757  0.022004708            5 
 1241000    0.7612717   -6.9710392    333.78998  0.022414047  0.021987167           23 
 1242000    0.7561575   -7.0331367     332.8559  0.022333327  0.021969591           14 
 1243000     0.764416   -7.0009738    334.25228  0.022408976  0.021952003           11 
 1244000   0.74231092   -7.0274482    332.90069  0.022300421  0.021934411           13 
 1245000    0.7723558   -6.9847173    333.57624  0.022327727  0.021916745           23 
 1246000   0.75187758   -6.9927649    333.31745  0.022292499  0.021899182           18 
 1247000   0.74993457   -6.9609964      333.632  0.022295643  0.021881597           21 
 1248000    0.7417883   -6.9788811    333.62993   0.02227764  0.021863941           17 
 1249000    0.7508724   -7.0088081    333.66166  0.022261921  0.021846315           10 
 1250000   0.76109733   -6.9769778    333.94377  0.022262918  0.021828764           10 
 1251000   0.73891191    -6.986581    334.56936  0.022286794   0.02181128            8 
 1252000   0.75945517   -6.9732453    334.68908  0.022276962  0.021793955           12 
 1253000   0.74184678    -6.963625    335.04948  0.022283153  0.021776563           13 
 1254000   0.75534411   -6.9760565    334.13441  0.022204573  0.021759161           10 
 1255000   0.75416679   -7.0006639    334.25591  0.022194948  0.021741758           21 
 1256000   0.75421547   -6.9908664    334.38459  0.022185814  0.021724324           17 
 1257000    0.7504689   -7.0128045    333.36858  0.022100807  0.021706896           14 
 1258000   0.74044154   -7.0008835    334.78291  0.022176929  0.021689448            8 
 1259000   0.75062771   -6.9911207    334.48045  0.022139294  0.021672108           20 
 1260000   0.75554386   -7.0071805    334.67916  0.022134865  0.021654751           11 
 1261000   0.74186644   -6.9884899    335.07069  0.022143186  0.021637354           32 
 1262000    0.7420751   -7.0129442    334.20601  0.022068543  0.021619987           23 
 1263000   0.75194403   -6.9851915    334.85501  0.022093891   0.02160278           11 
 1264000   0.76707453   -7.0082094    335.39829  0.022112229  0.021585602           14 
 1265000   0.75060382   -6.9905484    334.13055  0.022011235  0.021568415           18 
 1266000    0.7598845   -7.0088167    335.90142  0.022110415  0.021551328           10 
 1267000   0.76170709   -6.9946585    335.46645  0.022064355  0.021534174           19 
 1268000   0.75408357   -7.0042581    335.34541  0.022038999   0.02151714           21 
 1269000    0.7267943   -7.0250552    334.75367  0.021982773  0.021500021            6 
 1270000   0.73859673   -7.0303758    335.31551   0.02200233  0.021482851           12 
 1271000   0.73645257   -7.0484154     333.8871  0.021891365  0.021465561           14 
 1272000   0.76195697   -7.0267687    334.67728  0.021925922  0.021448258           17 
 1273000   0.74597842   -7.0647823    335.05658  0.021933528  0.021431013           10 
 1274000   0.72876757   -7.0483686    335.39294  0.021938314  0.021413854           24 
 1275000   0.74698408   -7.0302239    335.49807  0.021927978  0.021396666           16 
 1276000   0.75440515   -7.0455811    335.08838  0.021884038  0.021379618           18 
 1277000   0.73257861   -7.0373034    335.14985  0.021870912   0.02136257           14 
 1278000   0.74636372   -7.0166376    335.93805  0.021905194  0.021345506           15 
 1279000   0.75411331   -7.0073141    335.81947  0.021880341   0.02132854           11 
 1280000   0.74112393   -7.0258011    335.34129  0.021832115  0.021311622           13 
 1281000   0.74416431   -7.0324141    334.86667  0.021784197  0.021294663           25 
 1282000   0.73454889   -7.0238224    336.12721  0.021849142  0.021277704           13 
 1283000   0.73169425   -7.0114596    335.72042  0.021805691  0.021260894           14 
 1284000   0.72936014   -7.0139012     336.0925  0.021812857  0.021243971           13 
 1285000   0.75998772   -7.0296591    335.81763  0.021778056  0.021227103           12 
 1286000   0.74307244   -7.0059674    334.84561  0.021698134  0.021210114            9 
 1287000   0.72483608   -7.0085696      335.785    0.0217421  0.021193238            9 
 1288000   0.73266974   -7.0370512    336.32975  0.021760465  0.021176284           12 
 1289000   0.72842534   -7.0400252    335.98224  0.021721117  0.021159378           11 
 1290000   0.73976348   -7.0480197    335.74347  0.021688855  0.021142412           19 
 1291000   0.74784451   -7.0164788    335.80698  0.021676154  0.021125476           35 
 1292000   0.73749622   -7.0501281    335.20395  0.021620482  0.021108542           13 
 1293000   0.74381441   -7.0408228    335.58231  0.021628146  0.021091632           10 
 1294000   0.75093603   -7.0311481    335.44531  0.021602609  0.021074646           30 
 1295000    0.7406675   -7.0613966    334.98883  0.021556553  0.021057654           21 
 1296000   0.73795046   -7.0404556    335.28019  0.021558654  0.021040653           25 
 1297000   0.75210952   -7.0540983    335.96939  0.021586314  0.021023733           29 
 1298000   0.72770622   -7.0420551    336.12251  0.021579514  0.021006815           29 
 1299000   0.72146218   -7.0526542    335.46146  0.021520494  0.020989838            9 
 1300000   0.74920544   -7.0691668    335.08012  0.021479495  0.020972852           24 
 1301000   0.73923778   -7.0437042    334.85507   0.02144857  0.020955876           27 
 1302000   0.73592466    -7.077013     335.1976   0.02145402   0.02093897           19 
 1303000    0.7390459   -7.0920368    334.53987  0.021395489  0.020921984           12 
 1304000   0.72580443   -7.0863652    335.11803  0.021416029  0.020905019           16 
 1305000   0.74115971   -7.1002359    334.76478  0.021377061   0.02088804           20 
 1306000   0.72344097   -7.0822919    336.16141  0.021449809   0.02087115           28 
 1307000   0.74147457    -7.073613    335.58608  0.021396715  0.020854279           14 
 1308000   0.73587157    -7.050966    335.33618  0.021364435  0.020837448           28 
 1309000   0.72161783   -7.0842802    336.33585  0.021411755  0.020820602           20 
 1310000    0.7397364   -7.0734997    335.23732  0.021325529  0.020803747           20 
 1311000    0.7196164   -7.0691955    336.24131  0.021373081  0.020786953           14 
 1312000   0.75870974   -7.0912667    335.70592  0.021322785  0.020770106           12 
 1313000   0.71938517   -7.0790568    335.19032  0.021273821  0.020753253           16 
 1314000   0.73681308    -7.077118    335.50037  0.021277294  0.020736356           77 
 1315000   0.71834145   -7.0750428    336.95095  0.021353038  0.020719528           52 
 1316000   0.73090294   -7.0689607    335.93026   0.02127218  0.020702785           44 
 1317000   0.73674394   -7.1101603    335.73498  0.021243671  0.020686038           50 
 1318000   0.73554041   -7.1061823    335.95135  0.021241234  0.020669288           40 
 1319000   0.72158336   -7.0908977    336.25071  0.021244043  0.020652522           54 
 1320000   0.72607209   -7.0989292    335.43496  0.021176449  0.020635706           36 
 1321000   0.71445611   -7.1019091    336.01226  0.021196837  0.020618903           66 
 1322000   0.72224598   -7.0869433    335.38581  0.021141315  0.020602026           92 
 1323000   0.73006712   -7.0812007    336.36269  0.021186866  0.020585295           63 
 1324000   0.73387995   -7.0913557    335.83311  0.021137532  0.020568535           41 
 1325000   0.73501545   -7.0745861    334.85659  0.021060163   0.02055174           40 
 1326000   0.73898052   -7.1086334    335.97398  0.021114503  0.020534977           14 
 1327000   0.72374247   -7.0833497    335.98668  0.021099389  0.020518272           18 
 1328000   0.72320881    -7.087649    336.01067  0.021085007  0.020501495           27 
 1329000   0.71253492   -7.1054768    335.68362  0.021048634  0.020484751           27 
 1330000   0.74385791   -7.1095659    335.53398  0.021023432  0.020468012           94 
 1331000   0.72466381   -7.0859972    334.96767  0.020972181  0.020451245           16 
 1332000   0.70596133   -7.0921597    335.13999  0.020967216  0.020434506           23 
 1333000   0.70378872   -7.1077331    335.74384  0.020989237  0.020417748           31 
 1334000   0.73172337   -7.1015099    335.53796  0.020960642  0.020400996           27 
 1335000   0.69789054   -7.1124408    335.42369  0.020937808  0.020384235           20 
 1336000   0.73657794   -7.0827492     335.7929  0.020945166  0.020367583           25 
 1337000   0.71361635   -7.0970382    335.64756  0.020920441  0.020351024           21 
 1338000   0.72103168   -7.0688507    336.82017  0.020977838  0.020334483            8 
 1339000   0.71504044   -7.0878775    336.28073  0.020928599   0.02031794           28 
 1340000   0.70974172   -7.0951322    335.68914  0.020876191  0.020301348           35 
 1341000   0.71622375   -7.0905393     336.6088  0.020917773  0.020284777           27 
 1342000   0.72051041   -7.0853588    335.85094  0.020855125  0.020268269           31 
 1343000   0.72889771   -7.0883269    336.49257   0.02087941   0.02025171           27 
 1344000   0.71607692   -7.1042707     336.5542  0.020867696  0.020235134           14 
 1345000    0.7028857   -7.1111429    336.17867  0.020828914  0.020218534           18 
 1346000   0.71035189   -7.1372608    335.66815  0.020781832  0.020202004           17 
 1347000   0.72426715   -7.0843472    336.34489  0.020808271  0.020185486           27 
 1348000   0.73137691   -7.0830496    335.95666  0.020768834  0.020169016           14 
 1349000   0.70851359   -7.1131184    335.96271  0.020753812  0.020152543           14 
 1350000   0.69821915   -7.0941338    336.74537  0.020786751  0.020136134           21 
 1351000   0.69781383   -7.1185306    336.65067  0.020765524  0.020119689            7 
 1352000   0.71776227   -7.0978428    336.35487  0.020731932  0.020103307           20 
 1353000   0.71358198   -7.1128873    336.91126  0.020750878  0.020086863            9 
 1354000   0.72074325   -7.0657588    337.21395  0.020754182  0.020070526           31 
 1355000   0.69187827   -7.1125775    336.23133  0.020678433  0.020054212           16 
 1356000   0.71706148   -7.0960308     336.6706  0.020690179  0.020037871            9 
 1357000   0.72922874   -7.0918441    337.44202  0.020722305  0.020021522           16 
 1358000   0.71752244   -7.1147005      336.341  0.020639482  0.020005157           12 
 1359000   0.70452223   -7.1131205    335.96765  0.020601401   0.01998881            9 
 1360000   0.71146491   -7.1004379    336.87606  0.020641915  0.019972487           13 
 1361000   0.72230534   -7.1054611    336.77702  0.020620685  0.019956161           13 
 1362000   0.69555762   -7.1139799    336.33996  0.020578803   0.01993983           24 
 1363000   0.70665084   -7.1164432    335.96734  0.020540923  0.019923548           42 
 1364000   0.70584623   -7.1518248    336.18544  0.020539189  0.019907195           11 
 1365000   0.70555735   -7.1331947    336.15545  0.020522311  0.019890851           27 
 1366000   0.70323292   -7.1240749    335.35539  0.020458479  0.019874509           13 
 1367000   0.71616233   -7.1300039    336.53867  0.020515647  0.019858212           27 
 1368000    0.7355242   -7.1370619    336.43965  0.020494618  0.019841865           48 
 1369000   0.69481522   -7.1517322    336.22887  0.020466817   0.01982549           52 
 1370000   0.70216559   -7.1259023    336.71992  0.020481747  0.019809167           42 
 1371000   0.71909986   -7.1342078    336.90155  0.020477847  0.019792811           35 
 1372000   0.70844214   -7.1399413    336.31787   0.02042747   0.01977645           91 
 1373000   0.71740295   -7.1800852    336.12413  0.020400833  0.019760061           71 
 1374000   0.69759395   -7.1471769    336.25576  0.020393969  0.019743681           51 
 1375000    0.7012811   -7.1491062    335.63167  0.020341313  0.019727307           60 
 1376000   0.70932174   -7.1693023    335.49381  0.020318181  0.019710948           27 
 1377000   0.71319011   -7.1490751    335.17859  0.020284349   0.01969453           48 
 1378000   0.71152932   -7.1284867    336.72276  0.020363012  0.019678152           89 
 1379000   0.70693243   -7.1527555    336.87091  0.020357198  0.019661871           25 
 1380000   0.69690254   -7.1728669    336.81864   0.02033929  0.019645542           52 
 1381000   0.70817084   -7.1612513    336.84896  0.020326391  0.019629231           98 
 1382000   0.69987782   -7.1599728    335.85151  0.020251538  0.019612917           72 
 1383000   0.71851152   -7.1527077    336.49994  0.020275967  0.019596597           44 
 1384000   0.69498817   -7.1408836    336.61948  0.020268514  0.019580328           43 
 1385000   0.71289002   -7.1383391    336.68251  0.020257672  0.019564121           23 
 1386000   0.68267081   -7.1459197    336.82047  0.020251351  0.019547995           26 
 1387000   0.71611827   -7.1553745    336.88885  0.020240858  0.019531844           41 
 1388000   0.70920935    -7.159872    335.84754  0.020163757  0.019515689           24 
 1389000   0.69704768   -7.1382358    336.32003  0.020177587  0.019499595           28 
 1390000   0.71823874   -7.1185124    337.10696  0.020210249  0.019483571           49 
 1391000   0.70020241   -7.1410097    337.15104  0.020198361  0.019467586           50 
 1392000   0.69885131   -7.1567778    336.69197  0.020156368  0.019451568           55 
 1393000   0.72015789   -7.1254616    337.21371   0.02017311  0.019435511           27 
 1394000   0.68678093   -7.1570136    336.45623  0.020113357  0.019419466           40 
 1395000   0.68115789   -7.1477575    336.65455  0.020110785  0.019403394           33 
 1396000   0.69718003   -7.1692373    336.46731  0.020085202  0.019387318           41 
 1397000   0.70871116   -7.1563001    335.78606  0.020030187  0.019371218           62 
 1398000   0.70376136   -7.1838086    336.16068   0.02003819  0.019355089           82 
 1399000   0.67071242    -7.167274    336.13761  0.020022493  0.019338968           50 
 1400000   0.70015598   -7.1745869    336.44544  0.020026515  0.019322862           73 
 1401000    0.6937131   -7.1719141    336.96643  0.020043209  0.019306813           44 
 1402000   0.70095107   -7.1466302    336.19387  0.019982993  0.019290744           30 
 1403000   0.69381443   -7.1334072    336.37606  0.019979571  0.019274738           31 
 1404000   0.68737254   -7.1624672     336.1921  0.019954422  0.019258748           31 
 1405000   0.69929573   -7.1769541    336.33201  0.019948518  0.019242698           34 
 1406000   0.69825349   -7.1661257    336.21249  0.019927246  0.019226703           21 
 1407000   0.69242808   -7.1768397    335.67051  0.019880983  0.019210669           31 
 1408000   0.68401178   -7.1576523     337.0778  0.019950154  0.019194648           23 
 1409000   0.69550994   -7.1785881    336.41048  0.019896527  0.019178594           28 
 1410000   0.67743167   -7.1893121    335.73192  0.019842312  0.019162496           14 
 1411000   0.69239823    -7.174178     336.3363  0.019863944  0.019146458           13 
 1412000   0.69269679   -7.1940535    335.98671  0.019829244  0.019130423           32 
 1413000   0.68101418   -7.1704096    335.22502  0.019770289  0.019114382           44 
 1414000   0.69268959   -7.1541204    336.40663  0.019825944  0.019098383           23 
 1415000   0.68635464   -7.1930383    335.42508  0.019754127  0.019082367           23 
 1416000   0.67815432   -7.1847582    335.86153  0.019765862  0.019066384           23 
 1417000   0.67936635   -7.1942164    335.25377  0.019716171  0.019050348           37 
 1418000   0.68166905   -7.2179988    335.94963  0.019743161  0.019034363           30 
 1419000   0.67897907   -7.1981968    335.68838  0.019713906  0.019018269           28 
 1420000   0.68094651   -7.2151323    336.09619  0.019723955  0.019002259           35 
 1421000   0.70072731   -7.1881113    336.50759  0.019734201  0.018986284           37 
 1422000   0.68419757   -7.2072451    335.20602  0.019644047  0.018970335           52 
 1423000   0.68244998   -7.2122482    336.26811   0.01969244  0.018954351           18 
 1424000   0.68116232   -7.1937719     335.2786  0.019620705   0.01893837           10 
 1425000   0.69238026   -7.2347578    335.79577   0.01963718  0.018922384           31 
 1426000   0.70467084    -7.213025    335.02159  0.019578167  0.018906388           24 
 1427000   0.68852976    -7.219864    335.31979  0.019581861  0.018890359           33 
 1428000   0.67264202    -7.232044    335.35027  0.019569927  0.018874329           72 
 1429000   0.67220747   -7.2252448    335.37137  0.019557463   0.01885832           56 
 1430000   0.67043458    -7.215327    334.62571  0.019500332  0.018842246           50 
 1431000   0.67439703   -7.2588365     334.8179  0.019497898  0.018826185           32 
 1432000   0.68918417   -7.2057364    335.27109  0.019510655  0.018810143           19 
 1433000   0.69585173    -7.227938    335.48757  0.019509628  0.018794164           41 
 1434000   0.68862206   -7.2005198    335.64894  0.019505401  0.018778279           49 
 1435000    0.6891281   -7.2224684     335.6496  0.019491847  0.018762371           58 
 1436000   0.67627357   -7.2072376    335.07409  0.019444875  0.018746488           72 
 1437000   0.68883972    -7.226048    335.43031  0.019452001   0.01873057           54 
 1438000   0.67915269   -7.2148107    336.11946  0.019478411  0.018714652           39 
 1439000   0.68887645   -7.2605459    334.75106   0.01938563  0.018698719           66 
 1440000   0.67984628   -7.2464952    335.38406    0.0194088  0.018682781          101 
 1441000   0.67143105   -7.2490084    334.74516  0.019358383   0.01866684           72 
 1442000   0.68520873   -7.2180363    335.21091  0.019371874  0.018650908           40 
 1443000   0.66648448   -7.2341893    335.12526  0.019353503   0.01863498           72 
 1444000   0.66394864   -7.2285709    334.82771  0.019322929  0.018619141           48 
 1445000   0.67725596   -7.2289712    335.59864  0.019354016  0.018603333           43 
 1446000   0.67016639   -7.2447781    335.19184  0.019317188  0.018587488           89 
 1447000   0.66926599   -7.2372124    335.61601  0.019328266  0.018571644           42 
 1448000   0.66283486   -7.2361747    334.52796  0.019252299  0.018555791           24 
 1449000   0.67668952   -7.2279838    335.27492  0.019281971  0.018539996           30 
 1450000   0.66494668   -7.2280592    335.95661  0.019307851  0.018524214           15 
 1451000   0.67094134    -7.227722    335.18998  0.019250516  0.018508491           23 
 1452000   0.67349869   -7.2020444    335.97918  0.019282552  0.018492744           26 
 1453000   0.68008587   -7.2203506    335.51639  0.019242739  0.018477031           35 
 1454000   0.70594047   -7.2412283    335.76384  0.019243686  0.018461363           24 
 1455000   0.67676191   -7.2363952    335.05322  0.019189761  0.018445692           25 
 1456000   0.68288914   -7.2271789    335.30992  0.019191273  0.018430046           74 
 1457000   0.65657099   -7.2474351    336.09402  0.019222948  0.018414415           28 
 1458000   0.67578494   -7.2432038    335.28012  0.019163244  0.018398781           14 
 1459000   0.67144541   -7.2383685    336.14118   0.01919929  0.018383138           24 
 1460000   0.67064413   -7.2488143    335.20895  0.019132931  0.018367525           22 
 1461000   0.65721269   -7.2745311     334.5201  0.019080544  0.018351915           53 
 1462000   0.67495178   -7.2629849      335.468  0.019121523  0.018336322           31 
 1463000   0.67421017   -7.2506157    335.47675  0.019108951  0.018320731           19 
 1464000   0.66350562   -7.2474044    334.69891  0.019051623  0.018305134           28 
 1465000    0.6641914   -7.2436455    335.50983  0.019084746   0.01828957           55 
 1466000   0.68481696   -7.2587964    335.48072  0.019070072  0.018273967           33 
 1467000   0.67355145   -7.2597974    335.83557  0.019077231  0.018258431           25 
 1468000   0.65556981   -7.2583413    335.54026  0.019047471  0.018242863           34 
 1469000   0.66362165   -7.2712894    335.12089  0.019010715  0.018227344           41 
 1470000   0.66838887    -7.251368    335.16799  0.019000453  0.018211855           84 
 1471000   0.65600916   -7.2804863    334.86357   0.01897029  0.018196363           68 
 1472000   0.67485864   -7.2634732    335.14283  0.018973213  0.018180835           68 
 1473000   0.66573737   -7.2674397    334.72554  0.018936724  0.018165329           12 
 1474000   0.65855224   -7.2717392    335.48918   0.01896705  0.018149779           40 
 1475000   0.65739683   -7.2354793    336.14475  0.018991229   0.01813431           24 
 1476000   0.65730291   -7.2537282    334.93407  0.018910008   0.01811881           27 
 1477000   0.66721078   -7.2799754     335.6562  0.018937949   0.01810336           30 
 1478000   0.66475952   -7.2831028    334.45721  0.018857533  0.018087901           63 
 1479000   0.66673388   -7.2889727    335.17821  0.018885407  0.018072453           30 
 1480000   0.67579598    -7.284624    335.60995  0.018896957  0.018057096           24 
 1481000   0.66687561   -7.2466205     335.6348  0.018885595  0.018041764           20 
 1482000   0.67105473   -7.2649293    335.57267  0.018869359   0.01802647           22 
 1483000   0.68448506    -7.270666    335.09027  0.018829527  0.018011176           28 
 1484000   0.67216689   -7.2543057       335.99  0.018867363  0.017995924           19 
 1485000   0.65986478   -7.2738732    334.56114  0.018774475  0.017980626           40 
 1486000   0.66188827   -7.2799354    335.35753  0.018806501  0.017965298           37 
 1487000   0.65635155   -7.2501879    335.70485  0.018813318  0.017949973           20 
 1488000   0.65775593   -7.2861212    335.54945  0.018791972  0.017934662           40 
 1489000   0.65574566   -7.2617263    335.58088   0.01878111  0.017919399           18 
 1490000   0.66362655   -7.2654686    335.05891  0.018739313  0.017904099           20 
 1491000   0.65166596   -7.2737181    334.75449   0.01870973  0.017888841           21 
 1492000   0.66891442   -7.2835804    335.87285  0.018759654  0.017873551           28 
 1493000   0.65052598   -7.2784839    335.12652  0.018705432  0.017858323           26 
 1494000   0.66500412   -7.2970952    334.84118  0.018676996    0.0178431           28 
 1495000   0.65781096   -7.2771313    335.49083  0.018700715  0.017827865           34 
 1496000   0.65761216    -7.266232    334.69773  0.018644036  0.017812697           34 
 1497000   0.65989748   -7.2867455    335.65153  0.018684676  0.017797543           51 
 1498000   0.65520764   -7.2835171    335.11387  0.018642294  0.017782434           28 
 1499000   0.65060014   -7.2490854    335.53632  0.018653342   0.01776735           49 
 1500000   0.65029717   -7.2640074    335.73987  0.018652215  0.017752237           76 
 1501000   0.67419814    -7.283913    335.13646  0.018606288  0.017737168           54 
 1502000   0.64790737   -7.2935478    335.52032  0.018615198  0.017722115           42 
 1503000   0.65413451   -7.2905077    335.44253  0.018598499  0.017707038           41 
 1504000   0.64278943   -7.2764045     336.8643   0.01866491  0.017692059           99 
 1505000   0.65721891   -7.3014114    335.90268  0.018599262  0.017677059           81 
 1506000   0.65026616   -7.2720654    335.03228  0.018538749  0.017662032           38 
 1507000   0.64704072   -7.2847131    336.19318  0.018590642  0.017647034           48 
 1508000    0.6452346   -7.3045359    335.29758  0.018528823  0.017632096          117 
 1509000    0.6430318   -7.3060209    336.94819  0.018607698  0.017617119           53 
 1510000   0.66261523   -7.3260479    335.79557  0.018531764  0.017602123           83 
 1511000   0.66153683   -7.2907953     335.5826  0.018507754  0.017587182           55 
 1512000    0.6542632   -7.3102673    336.01069  0.018519108  0.017572216          137 
 1513000   0.64631103    -7.318668    335.65813  0.018487449  0.017557235           39 
 1514000   0.66342754   -7.3324823    335.27449  0.018454122  0.017542304          111 
 1515000   0.64380236   -7.3021956    336.12976  0.018488986  0.017527352           84 
 1516000   0.65568353    -7.307386    335.59191  0.018447225  0.017512412          213 
 1517000   0.65768936   -7.3041144    334.91826  0.018398059  0.017497514           37 
 1518000   0.62961312   -7.3084364    335.20531  0.018401697  0.017482607           50 
 1519000   0.66135445   -7.3121472    335.81334  0.018422939  0.017467713          132 
 1520000   0.64348941    -7.303713    335.47421  0.018392227  0.017452863           81 
 1521000      0.65083   -7.2882454     335.3089  0.018371077   0.01743802           81 
 1522000   0.64097719   -7.3341186    334.93174  0.018338356  0.017423197           82 
 1523000   0.64133316   -7.3051975     335.4584  0.018355133  0.017408398          122 
 1524000    0.6261236   -7.3049286    336.03812  0.018374788  0.017393647           49 
 1525000   0.62478992   -7.3102494    335.19998  0.018316939  0.017378895           81 
 1526000   0.63972318    -7.307484    335.56725  0.018324992  0.017364147           75 
 1527000   0.64151121   -7.3023227    335.72246  0.018321462  0.017349396           41 
 1528000   0.64444696   -7.3179279    336.49742  0.018351735  0.017334655           27 
 1529000   0.64204772     -7.33387    334.80865  0.018247692  0.017319928           39 
 1530000   0.63323779   -7.3114628    335.13418  0.018253496  0.017305158           40 
 1531000   0.64316553   -7.3404355    335.64788  0.018269534  0.017290382           51 
 1532000   0.64698528   -7.3225657    335.24647  0.018235774   0.01727559           48 
 1533000   0.64356325   -7.3504823     335.8859  0.018258638  0.017260812           66 
 1534000   0.64929605   -7.3131742    335.61611  0.018232079  0.017246066           51 
 1535000   0.61467674   -7.3486246    335.43037  0.018210118  0.017231292          109 
 1536000   0.64812468   -7.3274216    335.48519  0.018201236  0.017216546           69 
 1537000   0.65913456   -7.3455761    335.19523  0.018173673  0.017201842           56 
 1538000   0.64112463   -7.3530087    335.15363  0.018159603  0.017187139           37 
 1539000   0.64411042   -7.3357663    334.51072  0.018112991  0.017172438           45 
 1540000   0.63778735   -7.3421463     334.9773  0.018126477  0.017157722           54 
 1541000    0.6338739   -7.3174844     335.3028  0.018132317  0.017143046           77 
 1542000   0.62966243   -7.3430153    334.66257  0.018085958   0.01712838          109 
 1543000   0.63630712   -7.3425301    335.36309   0.01811207  0.017113756           62 
 1544000   0.63470984   -7.3150312    334.70971  0.018065075  0.017099136           52 
 1545000   0.63241017   -7.3153143    335.01845  0.018070035  0.017084541           83 
 1546000   0.62509752   -7.3586442    335.33997  0.018075678  0.017069966          162 
 1547000    0.6304307   -7.3313498    335.13981  0.018053211  0.017055374           66 
 1548000   0.62949038   -7.3392853     334.4602  0.018004963  0.017040819          183 
 1549000   0.62961399   -7.3576606    334.60516  0.018001138  0.017026217           95 
 1550000   0.62771446   -7.3561415     334.6059  0.017989564   0.01701162           65 
 1551000   0.64899786   -7.3456429    336.07159  0.018056715  0.016997092          112 
 1552000   0.63616357   -7.3430431    334.86364  0.017980221  0.016982574          112 
 1553000    0.6356235   -7.3302069    335.27603  0.017990772  0.016968065           78 
 1554000   0.63333287   -7.3627871    334.33988  0.017928994  0.016953541           65 
 1555000   0.63814054   -7.3744937    334.86663  0.017945693  0.016939006           71 
 1556000   0.63560534   -7.3615932    334.91992  0.017937014  0.016924507          106 
 1557000   0.63547538   -7.3623681    334.92593  0.017925815   0.01691001           99 
 1558000   0.62512054    -7.362163    335.06345  0.017921665  0.016895535           69 
 1559000   0.62636369   -7.3553553    334.87499  0.017900096  0.016881087           70 
 1560000   0.63980942   -7.3633683    335.13468  0.017902494  0.016866651           87 
 1561000   0.63023671   -7.3624211    335.07158  0.017887656  0.016852207           97 
 1562000   0.63998271   -7.3602252    334.19277   0.01782932  0.016837786           69 
 1563000   0.63203727   -7.3482049    335.83459  0.017905448  0.016823405           70 
 1564000   0.63270573   -7.3468751    334.99104  0.017849054  0.016809069           69 
 1565000   0.61999406   -7.3394147    334.93698   0.01783477  0.016794715           44 
 1566000   0.63872905   -7.3309309    335.25407  0.017840255  0.016780417           69 
 1567000   0.63004432   -7.3598523    334.91353   0.01781076  0.016766058           51 
 1568000   0.62069746   -7.3599524    334.86941  0.017797056  0.016751689           49 
 1569000   0.63086449   -7.3673571     333.9731  0.017738108  0.016737357           32 
 1570000   0.62585302   -7.3797276    335.31659   0.01779812  0.016723003           45 
 1571000   0.60848494   -7.3646857    335.30196  0.017786015  0.016708689           49 
 1572000   0.61343043   -7.3836392    334.48214  0.017731242  0.016694363           34 
 1573000    0.6334006   -7.3782757    334.61991  0.017727268  0.016680019           69 
 1574000    0.6267493   -7.3696372    334.04493  0.017685564  0.016665687          122 
 1575000   0.61688405   -7.3666331    335.20573  0.017735753  0.016651383           46 
 1576000   0.62496492   -7.3712914    334.28217  0.017675665  0.016637099          107 
 1577000   0.60386314    -7.398784    334.57749  0.017680062  0.016622782           51 
 1578000   0.62598348   -7.3857595    333.84716  0.017630289  0.016608478           73 
 1579000   0.61719677   -7.3954624    334.34689  0.017645498  0.016594154           66 
 1580000   0.62712546   -7.3943799    333.99396  0.017615715   0.01657987          101 
 1581000      0.62189   -7.4120571    333.68141  0.017588099  0.016565596          100 
 1582000   0.63443099   -7.4106816      334.198  0.017604193   0.01655131          120 
 1583000   0.61816809   -7.3999577    334.03742  0.017584619  0.016537033          132 
 1584000   0.61017205   -7.3837847    334.46219  0.017595864  0.016522725           96 
 1585000   0.61927186   -7.3860708    334.34279  0.017578485  0.016508455           92 
 1586000   0.62327943   -7.3908355    334.96103  0.017599886  0.016494245           27 
 1587000   0.60961681   -7.3953583    333.60749  0.017517722  0.016480042           80 
 1588000   0.63566824   -7.4058543    334.07031  0.017530977  0.016465845           99 
 1589000    0.6251378   -7.4010729    333.79189  0.017505344  0.016451621          122 
 1590000   0.61276253   -7.4083087    334.06798  0.017508804  0.016437398           56 
 1591000   0.61759878    -7.420108    334.19128  0.017504257   0.01642319          148 
 1592000   0.62062729   -7.3906352    333.99047  0.017482751  0.016408972           91 
 1593000   0.61997048   -7.4141091    334.11094  0.017478078    0.0163948          184 
 1594000   0.61342258   -7.4062208    333.35453  0.017427568  0.016380638          201 
 1595000   0.63037724   -7.4310678    333.56302  0.017427535  0.016366508          314 
 1596000    0.6180629   -7.4060734    334.09154  0.017444211  0.016352398          196 
 1597000   0.60867948   -7.3999761    334.89608   0.01747527  0.016338291          227 
 1598000   0.63048118   -7.3970136    334.75223  0.017456833  0.016324195          327 
 1599000   0.60779916   -7.4184294    333.38897  0.017374868  0.016310111          214 
 1600000   0.60791474    -7.394877    334.16746  0.017404555   0.01629605           65 
 1601000   0.61774029   -7.4031848    333.86897  0.017378147   0.01628198          117 
 1602000   0.61663379   -7.3854647    334.52317   0.01740133   0.01626794           71 
 1603000    0.6171655   -7.4182922    333.90303  0.017358236  0.016253883           94 
 1604000   0.60577042   -7.4144573     334.1244  0.017358915  0.016239851           44 
 1605000   0.60824457   -7.4228494    333.69336   0.01732572  0.016225817           76 
 1606000   0.60981391   -7.4056961    333.84698  0.017322903  0.016211814          153 
 1607000   0.60765943   -7.4087843     333.6303  0.017300887  0.016197813          118 
 1608000   0.62492378    -7.403907    334.60128  0.017340448  0.016183819           98 
 1609000   0.60284437   -7.3975861    334.55866  0.017327463  0.016169864           83 
 1610000   0.59652197   -7.4087088    334.00853  0.017288226   0.01615592          272 
 1611000   0.61186654   -7.4329264    333.53947  0.017253232  0.016141961          111 
 1612000   0.62002926   -7.4132378    334.73211  0.017304183  0.016128061          111 
 1613000   0.60740621   -7.4029402    334.48384  0.017280628  0.016114197          118 
 1614000   0.62436028    -7.424915    333.80327  0.017234783  0.016100329           97 
 1615000    0.6101534   -7.4415819    333.81405  0.017224667  0.016086449           55 
 1616000   0.61081376   -7.4312619    333.84121  0.017215409  0.016072586          148 
 1617000    0.6132043   -7.4040191    333.62488  0.017193613   0.01605875          128 
 1618000   0.61412464   -7.4349007     334.0765  0.017206248  0.016044907          255 
 1619000   0.59829005    -7.422525    333.91437  0.017187275  0.016031065          206 
 1620000   0.60465138    -7.424004    334.02812  0.017182517  0.016017268          190 
 1621000   0.60239673   -7.4020441    334.36183  0.017189072  0.016003476          194 
 1622000   0.60882818   -7.3967005    334.09581  0.017164807  0.015989711           83 
 1623000   0.59267774   -7.3832124    334.53713  0.017176891  0.015975971           63 
 1624000    0.6090829   -7.4318806    334.73166  0.017176296  0.015962216           47 
 1625000   0.60104524   -7.4291616    333.41708  0.017098312  0.015948449          270 
 1626000   0.60372605   -7.4241399    333.59706   0.01709702  0.015934701          164 
 1627000   0.61001579   -7.4494149    333.42697    0.0170778  0.015920935          135 
 1628000   0.59409941   -7.4363021    333.50487  0.017071298  0.015907184          154 
 1629000   0.59937051    -7.455445    333.28924  0.017049787  0.015893464          292 
 1630000   0.60474698   -7.4243851    333.34402  0.017042128   0.01587975          106 
 1631000   0.60561071   -7.4393799    333.68302  0.017048999  0.015866041          297 
 1632000   0.60995437    -7.462082    333.81398   0.01704524  0.015852365          172 
 1633000   0.59377768   -7.4241178    333.48018  0.017017768  0.015838698          189 
 1634000   0.60764335   -7.4394703    334.25718   0.01704698  0.015825036          297 
 1635000   0.59944291   -7.4666948    332.85274  0.016964972  0.015811412          144 
 1636000   0.60582929   -7.4640026    333.19854  0.016972216  0.015797754          134 
 1637000   0.58788355   -7.4496715     333.0638  0.016954989  0.015784101          248 
 1638000   0.59191772   -7.4315403    333.91006  0.016987691  0.015770491          149 
 1639000    0.6016862   -7.4501604    333.88026  0.016975811  0.015756891          158 
 1640000   0.60043163    -7.436927     334.7119  0.017007719  0.015743334          112 
 1641000   0.59035927   -7.4619652    333.29952  0.016925631   0.01572976          200 
 1642000   0.59170964   -7.4391673    333.40536  0.016920694  0.015716212          187 
 1643000    0.5993311   -7.4301124    333.88132  0.016934536  0.015702682          137 
 1644000   0.60185966   -7.4585909    333.20586  0.016889997  0.015689158          221 
 1645000   0.59709947   -7.4540022    333.70263  0.016904895  0.015675666          111 
 1646000   0.60811914   -7.4490712    334.04214  0.016911813  0.015662199          133 
 1647000   0.61189789   -7.4509017    333.58522  0.016878426  0.015648742          171 
 1648000   0.60249503   -7.4494791    334.24027  0.016901308  0.015635294          175 
 1649000   0.59214991   -7.4298247    333.84256   0.01687096   0.01562185          281 
 1650000   0.59914186   -7.4351232    334.46384  0.016892113  0.015608389          262 
 1651000   0.59179794   -7.4408428    333.79876  0.016848312  0.015594921           84 
 1652000   0.59762795   -7.4734617    333.10017  0.016802874  0.015581484          270 
 1653000    0.5977456   -7.4505495    333.33586  0.016804591  0.015568068          172 
 1654000   0.58809806   -7.4497037    333.52426  0.016803923  0.015554665          414 
 1655000   0.58632549   -7.4595598    333.31744  0.016783356  0.015541286          236 
 1656000   0.58718025   -7.4652384    333.04237  0.016759378  0.015527922          205 
 1657000   0.59815586   -7.4503839    333.47924  0.016771235  0.015514554          188 
 1658000   0.58938403   -7.4655627    333.38071  0.016756168    0.0155012          278 
 1659000   0.59082899   -7.4483399    332.92905   0.01672338  0.015487834          288 
 1660000   0.58333402   -7.4484228    333.68694  0.016751353  0.015474508          188 
 1661000    0.5960169   -7.4859017    333.51912  0.016732848  0.015461213          224 
 1662000   0.58775104   -7.4698904    332.76966  0.016685202  0.015447899          293 
 1663000   0.58739154   -7.4745157    332.87607    0.0166805   0.01543458          371 
 1664000   0.57895373   -7.4445815    333.50014   0.01670173  0.015421264          269 
 1665000   0.58592713   -7.4861702    332.92963  0.016663145  0.015408005          361 
 1666000    0.5804227   -7.4554974    332.78831  0.016646074  0.015394733          225 
 1667000   0.58983559   -7.4519939    332.96578   0.01664496  0.015381477          326 
 1668000   0.58392458    -7.474736    333.71689  0.016672506  0.015368227          306 
 1669000   0.58118038   -7.4815706    332.99102  0.016626274   0.01535499          420 
 1670000   0.59968833    -7.485518    332.88141  0.016610849  0.015341767          326 
 1671000   0.59238884   -7.4790919    333.03025  0.016608331  0.015328553          388 
 1672000   0.56852752   -7.4664154    332.99793  0.016596787  0.015315356          284 
 1673000   0.58092662   -7.4791392    333.84846  0.016629232  0.015302177          414 
 1674000   0.57331401   -7.4666646    332.99095   0.01657661  0.015289005          293 
 1675000   0.59373717   -7.4792088    333.12979  0.016573621  0.015275836          455 
 1676000   0.57935776   -7.4703467     332.6604  0.016540394  0.015262707          382 
 1677000   0.58763202   -7.4792349    333.33074  0.016563841   0.01524959          407 
 1678000   0.58638386   -7.4738721    332.50341  0.016512883  0.015236453          421 
 1679000   0.56680905   -7.4760192    333.18159  0.016536708  0.015223337          228 
 1680000   0.59403587   -7.4715136     332.7788  0.016506885  0.015210237          230 
 1681000   0.57942384   -7.4759002    333.09247  0.016512615  0.015197126          337 
 1682000   0.60304327    -7.491026    332.90283  0.016493402  0.015184039          341 
 1683000   0.57973791   -7.4811004    332.48564  0.016462945  0.015170979          401 
 1684000   0.58681926   -7.4664556    333.59178  0.016507907  0.015157917          408 
 1685000   0.57930839   -7.4861246    333.05064  0.016471347  0.015144869          321 
 1686000   0.57007348   -7.4732331    332.47784  0.016433266  0.015131817          427 
 1687000   0.57536912   -7.5007052    333.45845  0.016471965  0.015118794          393 
 1688000   0.58235865   -7.4811017    333.50991  0.016464747  0.015105795          410 
 1689000   0.57700758   -7.4801978    333.37003  0.016448097  0.015092818          366 
 1690000   0.59347187   -7.4955949    332.32131  0.016386652  0.015079825          592 
 1691000   0.57557185   -7.4891962    332.95686  0.016408282  0.015066822          427 
 1692000   0.57567545   -7.4841427    332.56458  0.016379264  0.015053851          375 
 1693000    0.5761139   -7.5046554    332.42185  0.016362564   0.01504088          386 
 1694000   0.57226678   -7.4940733    332.53603  0.016358522  0.015027937          397 
 1695000   0.57560645   -7.5165785    332.88805  0.016366178  0.015015001          520 
 1696000    0.5749503   -7.4881436    332.68432  0.016346517  0.015002104          390 
 1697000   0.56488137   -7.5075535    332.58012  0.016331768   0.01498921          195 
 1698000   0.57590177    -7.504281    332.29144  0.016307982  0.014976317          340 
 1699000   0.58326019   -7.4863576    332.96248  0.016331297  0.014963452          443 
 1700000   0.56321786    -7.507594    332.98972  0.016323025  0.014950592          391 
 1701000   0.56850673   -7.4833718    333.05362   0.01631656  0.014937736          159 
 1702000   0.56250454   -7.5282674    333.01307  0.016304988  0.014924921          426 
 1703000   0.56667292   -7.4968497    332.43228  0.016266994  0.014912083          481 
 1704000   0.55731791   -7.5105198    332.21957  0.016247045  0.014899258          406 
 1705000   0.56826376    -7.493885     331.9174  0.016222747  0.014886443          410 
 1706000   0.57449043   -7.5279324    332.76248  0.016254517  0.014873649          162 
 1707000   0.56534094   -7.5057507    333.11153  0.016262035  0.014860872          537 
 1708000   0.57443715   -7.5051192    332.33128  0.016214446  0.014848096          515 
 1709000   0.56893357    -7.510754    332.59985  0.016218054  0.014835349          413 
 1710000   0.56823567   -7.5016586    332.71802  0.016214329  0.014822623          336 
 1711000   0.57068193   -7.5058235    333.22039  0.016229319  0.014809921          459 
 1712000   0.56664062    -7.493315    332.30879  0.016175467  0.014797196          353 
 1713000   0.55751689   -7.4965919    332.48052  0.016174378  0.014784491          433 
 1714000   0.56599303   -7.5246482    332.04205  0.016143624   0.01477179          184 
 1715000   0.57159079   -7.5142786    332.56582  0.016159661  0.014759087          414 
 1716000   0.56001057   -7.5096618    332.78443   0.01616086  0.014746438          369 
 1717000   0.57131269   -7.5149727    332.61097  0.016143029  0.014733769          529 
 1718000   0.56761312   -7.5044442    332.38603  0.016122722  0.014721074          194 
 1719000   0.56735683   -7.5164676    331.78899    0.0160844  0.014708422          526 
 1720000   0.55859185   -7.5521578    331.94432  0.016082574  0.014695762          579 
 1721000   0.58009125   -7.5163352    332.16079  0.016083711  0.014683124          597 
 1722000   0.57120908   -7.5323232    332.41159  0.016086507  0.014670519          584 
 1723000   0.55467367   -7.5207107    332.82334  0.016097086  0.014657929          510 
 1724000   0.56387079   -7.5149055    331.92174  0.016044167  0.014645342          173 
 1725000   0.57094619   -7.5481577    332.32598  0.016054395  0.014632732          238 
 1726000   0.56635965   -7.5192754    332.58364  0.016057534  0.014620154          456 
 1727000   0.55919573   -7.5358584    332.15807  0.016027701  0.014607564          541 
 1728000   0.54865867   -7.5310679    332.29005   0.01602479  0.014595003          288 
 1729000   0.55734644   -7.5254511    332.57203  0.016029113  0.014582451          591 
 1730000   0.55979612   -7.5405754    331.94914  0.015989843   0.01456993          264 
 1731000   0.56137901   -7.5280877    331.97526  0.015981863  0.014557402          332 
 1732000   0.55670181     -7.54999    331.56582  0.015952936  0.014544873          494 
 1733000   0.56635813   -7.5030138    332.47494  0.015987446  0.014532364          433 
 1734000   0.54950473   -7.5414287    331.79643  0.015945619  0.014519859          478 
 1735000   0.56168354   -7.5515799    332.43207  0.015966958  0.014507375          300 
 1736000   0.55611993   -7.5446527    332.84453   0.01597756  0.014494909          558 
 1737000   0.56730538   -7.5417755    332.32496  0.015943435   0.01448243          386 
 1738000   0.56603449   -7.5331624     332.1254  0.015924693  0.014469997          475 
 1739000   0.55838349   -7.5323804    332.06299  0.015912545  0.014457567          588 
 1740000   0.56369719   -7.5310385    332.05095  0.015902823  0.014445155          429 
 1741000   0.55592851   -7.5134025    332.87776  0.015933265  0.014432768          435 
 1742000   0.56709135    -7.547186    332.15905  0.015889737  0.014420371          661 
 1743000   0.56186499   -7.5623035    332.01641  0.015873801  0.014407995          626 
 1744000   0.56266752   -7.5467868    332.05553  0.015866568  0.014395626          437 
 1745000   0.55654904    -7.560979     331.9497  0.015852421  0.014383261          603 
 1746000    0.5512313   -7.5502416    331.37565  0.015815943  0.014370919          513 
 1747000   0.55295091    -7.551095    331.76987  0.015825695  0.014358576          596 
 1748000   0.56081178   -7.5424835    332.46895  0.015849969  0.014346257          442 
 1749000   0.55708384    -7.547148    331.73499  0.015805936  0.014333949          500 
 1750000   0.55917237   -7.5635738    331.92158   0.01580579  0.014321654          574 
 1751000   0.56279026   -7.5513514    331.42885  0.015773313  0.014309375          577 
 1752000   0.55175781    -7.563788    332.11004   0.01579671  0.014297104          611 
 1753000   0.55118932   -7.5606203    331.73897   0.01577006   0.01428484          547 
 1754000   0.55073751   -7.5578756    332.86014  0.015814336  0.014272591          529 
 1755000   0.56647502   -7.5633463    331.53524  0.015742414  0.014260358          348 
 1756000   0.55808601   -7.5588188    332.16888   0.01576352   0.01424814          607 
 1757000   0.55692934   -7.5337623    332.11053   0.01575178  0.014235929          588 
 1758000   0.55750834   -7.5526623    331.66174  0.015721546  0.014223731          569 
 1759000   0.55534828    -7.558989    332.09365   0.01573307  0.014211546          486 
 1760000   0.53772038   -7.5389096    331.71434  0.015706171  0.014199377          671 
 1761000    0.5543493    -7.554825    331.83366  0.015702899  0.014187208          452 
 1762000   0.56279114   -7.5453397    332.09273   0.01570624  0.014175046          610 
 1763000    0.5511571    -7.575084    331.74055  0.015680684  0.014162892          398 
 1764000   0.54923424   -7.5581398    331.76864  0.015673122  0.014150756          625 
 1765000   0.55767783   -7.5621728    332.09673  0.015679732  0.014138625          662 
 1766000   0.55464515   -7.5498519    332.26146  0.015678627  0.014126532          634 
 1767000   0.55743746   -7.5589542    332.19573  0.015666654  0.014114444          548 
 1768000   0.54874951   -7.5717736    331.80764    0.0156395  0.014102352          537 
 1769000   0.55929685   -7.5684762    332.29509  0.015653622  0.014090302          233 
 1770000   0.55076033   -7.5540672    331.74458   0.01561886  0.014078262          529 
 1771000   0.55261045   -7.5684044    331.75196  0.015610388   0.01406624          333 
 1772000   0.54860584   -7.5645175    331.74409  0.015601208  0.014054202          680 
 1773000   0.54504007   -7.5704352    331.08846  0.015561593  0.014042141          270 
 1774000   0.55313612   -7.5754918    331.96031  0.015593776  0.014030109          553 
 1775000    0.5490361   -7.5746964     331.6086  0.015568479  0.014018079          555 
 1776000   0.54433899   -7.5772891    331.63926  0.015561151  0.014006065          458 
 1777000   0.54840458   -7.5718887    331.74836  0.015557511  0.013994056          466 
 1778000   0.54425259   -7.5700583    331.46413  0.015535439  0.013982074          554 
 1779000   0.53919269   -7.5878351    331.88112  0.015546239  0.013970082          451 
 1780000   0.54658538   -7.5792522    331.95289  0.015540866  0.013958115          631 
 1781000   0.53895247   -7.5599388    331.67038  0.015518921  0.013946152          554 
 1782000   0.54968717    -7.583674    331.28064  0.015491986  0.013934207          533 
 1783000   0.52958335   -7.5787197    331.88794  0.015511682  0.013922264          487 
 1784000   0.54639756   -7.5808155    331.14762  0.015468405  0.013910337          527 
 1785000   0.54757097    -7.580019    331.78634  0.015489558  0.013898415          479 
 1786000   0.54710395   -7.6070132    331.32084  0.015459166  0.013886506          547 
 1787000   0.54032346   -7.5820747    331.45995  0.015457002  0.013874591          594 
 1788000    0.5340579   -7.5971407    330.64848  0.015410537  0.013862697          643 
 1789000   0.55067259   -7.5825418    331.44625  0.015439084  0.013850822          633 
 1790000   0.54648935   -7.5795183    330.79619  0.015400195  0.013838948          571 
 1791000   0.53231482   -7.5976809    331.21234   0.01541096  0.013827077          652 
 1792000    0.5373711   -7.5895247     330.6781  0.015377516  0.013815211          643 
 1793000   0.54806975   -7.5917625    331.16685  0.015391655  0.013803366          625 
 1794000   0.53984258   -7.5833322    331.06948  0.015378553  0.013791542          609 
 1795000   0.53961499   -7.5945447    331.28802  0.015380131  0.013779725          288 
 1796000   0.54075072   -7.5805004     330.7362  0.015345963  0.013767942          559 
 1797000   0.53660808   -7.5905968     330.9079  0.015345386  0.013756155          528 
 1798000     0.539835   -7.5880845    331.29313  0.015354706  0.013744374          560 
 1799000   0.53448667   -7.5790139    330.89876  0.015327902  0.013732601          579 
 1800000   0.52389701   -7.5984499     331.2274  0.015334602  0.013720858          447 
 1801000   0.55293906   -7.5810757    331.17632  0.015323724  0.013709111          573 
 1802000   0.54083769   -7.5786555    330.88907  0.015301936  0.013697385          504 
 1803000   0.54411573   -7.5969406    331.17129  0.015306493  0.013685676          503 
 1804000   0.52750625   -7.5983902    331.27756  0.015302918  0.013673992          584 
 1805000   0.53109224   -7.6017977    331.30924  0.015295902  0.013662304          332 
 1806000    0.5279103   -7.5915207    330.87214  0.015267264  0.013650626          638 
 1807000   0.53011231   -7.5824162    330.27684  0.015231361  0.013638949          552 
 1808000    0.5128171   -7.6057894    330.75195  0.015244835  0.013627289          620 
 1809000   0.52649183   -7.5940414    330.61351  0.015230031  0.013615663          408 
 1810000   0.53610122   -7.5933226    331.29669   0.01525307  0.013604039          576 
 1811000    0.5309043   -7.5984687    331.39886  0.015249349  0.013592416          465 
 1812000   0.53135527   -7.6109408    330.79759  0.015213281  0.013580808          364 
 1813000   0.52679953   -7.6044375    330.15383    0.0151753  0.013569197          522 
 1814000   0.54523585   -7.5896543    331.98901  0.015251241  0.013557621          473 
 1815000   0.52902957   -7.6091942    331.28575  0.015210549  0.013546062          524 
 1816000   0.53194974   -7.5932386    330.92867  0.015185787  0.013534502          295 
 1817000   0.52423402   -7.6053981    329.78644  0.015125043  0.013522963          477 
 1818000   0.54467732   -7.6028345    330.85135  0.015165537  0.013511413          593 
 1819000   0.51554662   -7.5960087    330.95095  0.015161763  0.013499905          496 
 1820000   0.51411357   -7.6083504    330.73083  0.015143353  0.013488396          272 
 1821000   0.53478397   -7.6186363    330.07371  0.015104966  0.013476878          255 
 1822000   0.52003057     -7.60375    330.78437  0.015129179  0.013465374          626 
 1823000   0.52321477   -7.6105125      330.499  0.015107835  0.013453892          534 
 1824000   0.50770615   -7.6347488    330.10996  0.015081778  0.013442396          628 
 1825000   0.52657844   -7.5958885    331.04723  0.015116312  0.013430927          515 
 1826000   0.53642746   -7.6121579    331.38514  0.015123455  0.013419474          449 
 1827000   0.53366819   -7.6327463    330.77594   0.01508739  0.013408041          513 
 1828000   0.51666178   -7.6324336    330.68695   0.01507508  0.013396608          682 
 1829000   0.52316145   -7.6300702    330.05514  0.015038051  0.013385184          456 
 1830000   0.51396674   -7.6292499    331.16136  0.015080208  0.013373771          511 
 1831000   0.52967926   -7.6134526    330.54516  0.015043927  0.013362381          646 
 1832000   0.53643023   -7.6196581    330.70724  0.015043088     0.013351          539 
 1833000   0.51910073   -7.6138373    330.52506  0.015026598  0.013339634          419 
 1834000   0.52665753   -7.6157467    330.35117  0.015010504  0.013328284          564 
 1835000   0.52323488   -7.6343192    330.33051  0.015001386   0.01331693          372 
 1836000   0.51914563   -7.6213079     329.8438  0.014971124  0.013305593          505 
 1837000   0.50723214   -7.5942005    330.70512  0.015002047  0.013294275          524 
 1838000   0.50735873   -7.6049303    331.40528  0.015025629  0.013282969          727 
 1839000   0.51257264    -7.614105     330.4751  0.014975308  0.013271656          518 
 1840000   0.51702507   -7.6144655    331.00372   0.01499111   0.01326038          667 
 1841000    0.5263665   -7.6242355    330.49671  0.014960018   0.01324911          567 
 1842000   0.52022306   -7.6296241    330.44483  0.014949549  0.013237835          672 
 1843000   0.51651198   -7.6110329    330.81015  0.014957956   0.01322659          671 
 1844000   0.51206952   -7.6139569    331.25282  0.014969849  0.013215354          654 
 1845000   0.51616795    -7.630518    330.13536  0.014911263  0.013204115          682 
 1846000   0.51907652   -7.6220207    330.32564  0.014911775  0.013192898          678 
 1847000   0.51765978   -7.6476347    330.32066  0.014903477  0.013181685          605 
 1848000   0.51127232   -7.6240047    330.55972  0.014906192  0.013170482          622 
 1849000   0.51421457   -7.6310335    329.90476  0.014868612  0.013159268          603 
 1850000   0.50869779   -7.6351738    330.33364  0.014879894  0.013148101          595 
 1851000   0.51663688   -7.6279652    330.59432  0.014883591  0.013136941          323 
 1852000   0.51803853   -7.6205548    330.08926  0.014852828  0.013125799          635 
 1853000   0.52516915   -7.6216935    330.75098  0.014874572  0.013114662          738 
 1854000   0.52005017   -7.6356397     330.3093  0.014846696  0.013103529          629 
 1855000   0.52609169   -7.6282766    330.75345  0.014858646  0.013092407          620 
 1856000   0.50902403    -7.610226    330.69541  0.014848034   0.01308131          609 
 1857000   0.51453713   -7.6220884    330.33342  0.014823794  0.013070215          484 
 1858000   0.50244359   -7.6192936     330.6891  0.014831768  0.013059129          520 
 1859000   0.51323936   -7.6440575    330.50688  0.014815621  0.013048058          654 
 1860000   0.51283378   -7.6337413    330.65812  0.014814432     0.013037          299 
 1861000   0.50956557   -7.6338786    330.23248  0.014787412  0.013025949          588 
 1862000   0.50965521   -7.6236247    330.30543  0.014782735  0.013014913          582 
 1863000   0.50793487   -7.6364022    330.31342  0.014775157  0.013003883          614 
 1864000   0.50918988   -7.6421108    330.61986  0.014780931  0.012992879          594 
 1865000   0.51992579   -7.6460866    330.42647  0.014764364  0.012981881          427 
 1866000   0.50900329   -7.6473419    330.15929   0.01474452  0.012970888          594 
 1867000   0.50096856   -7.6486815    330.10564  0.014734228  0.012959904          680 
 1868000   0.49538264   -7.6452045    330.29705  0.014734879  0.012948923          557 
 1869000   0.51961712   -7.6335077    330.55479  0.014738487  0.012937973          419 
 1870000   0.50318516   -7.6530356    330.19033  0.014714364  0.012927043          665 
 1871000   0.51440262    -7.649262    329.66007  0.014682882    0.0129161          364 
 1872000   0.49658199   -7.6395372    330.46057  0.014710674  0.012905186          651 
 1873000   0.50108374     -7.62846    330.04159  0.014684178  0.012894289          647 
 1874000   0.50632927   -7.6446743    330.14613  0.014680991  0.012883396          702 
 1875000   0.50682097   -7.6386168    329.74617  0.014655385  0.012872498          747 
 1876000   0.50560363   -7.6445086    330.24444  0.014669707  0.012861622          728 
 1877000   0.50328878   -7.6543101    330.59697  0.014677543  0.012850762          682 
 1878000   0.50452582   -7.6394285    330.23381  0.014653612  0.012839899          631 
 1879000   0.50617001   -7.6382374    329.82827  0.014627828  0.012829055          619 
 1880000   0.49825527   -7.6593549    329.89207  0.014622876  0.012818228          708 
 1881000   0.50730002   -7.6667205    330.58625  0.014645856  0.012807409          801 
 1882000   0.51008429   -7.6607544    330.09734  0.014616425  0.012796592          662 
 1883000   0.49621645   -7.6515535     329.9471  0.014602014  0.012785783          691 
 1884000   0.49063307   -7.6657437    329.50539  0.014574725  0.012774989          668 
 1885000   0.49978896   -7.6323234     329.7055   0.01457584  0.012764217          764 
 1886000   0.50357251   -7.6502631    330.65036   0.01460986   0.01275345          617 
 1887000    0.5069601   -7.6371951    330.72113  0.014605243  0.012742705          685 
 1888000   0.49208898    -7.646119    330.02806  0.014566916  0.012731969          690 
 1889000   0.49471004   -7.6572973    329.92335  0.014554586  0.012721233          769 
 1890000   0.50579919     -7.64853    329.90207  0.014545947  0.012710509          673 
 1891000   0.49374916   -7.6613051    329.97818  0.014541608  0.012699782          681 
 1892000   0.48860806    -7.639712    330.04814  0.014537004  0.012689071          675 
 1893000   0.49689007   -7.6572704    329.70731  0.014514321  0.012678367          699 
 1894000   0.50167738   -7.6636475    330.28038  0.014531872  0.012667677          719 
 1895000   0.48832925   -7.6673682    329.84624  0.014505112  0.012656987          716 
 1896000   0.49514023    -7.659723    329.66033   0.01448929  0.012646321          724 
 1897000     0.491106   -7.6739473    329.68511  0.014482741  0.012635652          693 
 1898000   0.49062452   -7.6556971    329.70157  0.014475833  0.012625011          678 
 1899000   0.49072384   -7.6620026    329.51777  0.014460145  0.012614383          727 
 1900000   0.49316882   -7.6805331    329.87202  0.014468071  0.012603773          803 
 1901000   0.49513218   -7.6786933    329.53622   0.01444574  0.012593161          719 
 1902000   0.49496719   -7.6672881    329.51212  0.014437089  0.012582569          626 
 1903000   0.49611526   -7.6686224    330.07432  0.014454122  0.012571991          596 
 1904000   0.48827172   -7.6677052    330.02103  0.014444198  0.012561425          716 
 1905000    0.4833718   -7.6681899    329.90101  0.014431365  0.012550858          744 
 1906000   0.48890727   -7.6410521    329.74637  0.014417033  0.012540313          695 
 1907000   0.48908562   -7.6749182      329.738  0.014409107  0.012529777          699 
 1908000   0.49807735    -7.673723    329.08978  0.014373243  0.012519239          711 
 1909000   0.50023919   -7.6746318    329.48312  0.014382884  0.012508709          679 
 1910000   0.49655409   -7.6686871    329.89986  0.014393537  0.012498194          745 
 1911000   0.48204099   -7.6745943    329.97143  0.014389125  0.012487692          723 
 1912000   0.48715944   -7.6590931    329.88603  0.014377878  0.012477201          753 
 1913000   0.49221831   -7.6775954    329.59169   0.01435754  0.012466726          626 
 1914000   0.47884348   -7.6665852    329.75731   0.01435725  0.012456245          601 
 1915000   0.48865714   -7.6646077    330.31957   0.01437422  0.012445804          698 
 1916000   0.48942279   -7.6789969    330.25048  0.014363712   0.01243536          613 
 1917000   0.48976496    -7.668397    329.46396  0.014322029  0.012424927          727 
 1918000   0.49306311   -7.6813974    329.37284  0.014310603  0.012414506          610 
 1919000   0.49961021   -7.6844343    329.91273  0.014326591  0.012404097          746 
 1920000   0.48386606    -7.695669    329.61296  0.014306118  0.012393686          702 
 1921000   0.49027119    -7.678834    329.17794    0.0142798  0.012383281          636 
 1922000   0.47769309   -7.6918217    329.73378   0.01429647  0.012372895          771 
 1923000   0.48070692   -7.6789393     330.1073  0.014305222  0.012362515          754 
 1924000    0.4841096   -7.6800121    329.51853  0.014272286  0.012352152          582 
 1925000   0.48130002   -7.6750858     329.3048  0.014255619  0.012341797          668 
 1926000   0.48768901   -7.6750337    329.49869  0.014256607  0.012331448          679 
 1927000    0.4862745   -7.6810751    329.81075  0.014262703  0.012321114          742 
 1928000   0.48717051   -7.6730183    329.43253  0.014238958  0.012310793          624 
 1929000   0.47912849   -7.6758649    329.46608  0.014233026  0.012300492          683 
 1930000   0.48714282    -7.691267    329.64925   0.01423356  0.012290183          649 
 1931000   0.47763182   -7.6674129    329.51251  0.014220288   0.01227989          728 
 1932000   0.48547103   -7.6929009    329.30661  0.014204046  0.012269611          780 
 1933000    0.4827971   -7.6740941    329.18225  0.014191337  0.012259345          652 
 1934000   0.48280633   -7.6994012     329.5132  0.014198259  0.012249089          698 
 1935000   0.48205124   -7.6962995    329.67981  0.014198097  0.012238836          705 
 1936000   0.48160008   -7.6800201    329.42269  0.014179696  0.012228593          768 
 1937000   0.47646552   -7.7032938    329.51591  0.014176386  0.012218364          777 
 1938000   0.47388066   -7.6952023    329.13976  0.014152897  0.012208145          756 
 1939000   0.48391374   -7.7097252    330.23677  0.014192744   0.01219793          660 
 1940000   0.47684093   -7.6832446    329.18167  0.014140106  0.012187729          772 
 1941000   0.47543196   -7.6924115    330.03892  0.014169626  0.012177535          684 
 1942000   0.47574509   -7.6933919    329.49492  0.014138986  0.012167345          682 
 1943000   0.46413712   -7.7023482    329.17517  0.014117995  0.012157165          751 
 1944000   0.47637079   -7.6867382    329.09878  0.014107458  0.012146992          802 
 1945000    0.4885407   -7.6970664    329.20859  0.014104909  0.012136837          625 
 1946000   0.47720138   -7.7001006    328.66255  0.014074278  0.012126685          743 
 1947000   0.46592348    -7.702031    328.78613  0.014072339   0.01211656          721 
 1948000   0.46864814   -7.7142298    329.52291  0.014096634  0.012106439          804 
 1949000   0.48140746   -7.6893178    328.92579   0.01406387  0.012096322          654 
 1950000   0.48775847    -7.707023    329.44423  0.014078813  0.012086225          708 
 1951000   0.46637568   -7.6863288    329.70641  0.014082795  0.012076129          789 
 1952000   0.47051147   -7.7079543    328.78577  0.014036278  0.012066051          799 
 1953000   0.47104927   -7.6952659    328.87206  0.014032773  0.012055971          763 
 1954000    0.4802398   -7.7011895    329.40718  0.014048413  0.012045917          660 
 1955000   0.47529708   -7.6967651    329.24432  0.014034285   0.01203586          611 
 1956000   0.46474846   -7.6965755    329.23894   0.01402688  0.012025819          771 
 1957000   0.46178439   -7.7024371    329.26139  0.014020669  0.012015792          778 
 1958000   0.46759898   -7.7078909    328.73206   0.01399098  0.012005759          777 
 1959000   0.46044811   -7.7200596    329.11861  0.014000281  0.011995744          720 
 1960000   0.47422247    -7.712379    328.42443  0.013963624  0.011985731          660 
 1961000   0.46250665   -7.7033004    329.25129  0.013991641  0.011975739          689 
 1962000   0.47153547   -7.7169341    328.84222  0.013967135  0.011965744          621 
 1963000    0.4650707   -7.7098639    328.79928  0.013958197  0.011955764          631 
 1964000   0.48074635   -7.7056669    328.38791  0.013933635    0.0119458          633 
 1965000   0.47340265   -7.7100411    328.78881  0.013943546  0.011935845          781 
 1966000   0.47485012   -7.7111826    328.94353  0.013943012  0.011925901          600 
 1967000   0.47093572   -7.7039158    329.57562  0.013962702  0.011915973          657 
 1968000   0.47308482   -7.7187797    329.00202  0.013931318   0.01190606          690 
 1969000   0.45486341   -7.7091644    328.82743  0.013916854  0.011896155          761 
 1970000   0.46866776   -7.7118229    328.25364  0.013885518  0.011886253          674 
 1971000   0.45442156   -7.7082471    328.60593  0.013893367  0.011876369          559 
 1972000   0.46145678   -7.7130594    329.00841   0.01390333  0.011866493          794 
 1973000   0.46061342   -7.7148462    329.04138  0.013897676   0.01185664          687 
 1974000   0.47242472   -7.7208182    328.85065  0.013882584  0.011846783          633 
 1975000   0.45690842   -7.7248087    328.76064  0.013871757  0.011836933          785 
 1976000   0.45691317   -7.7226046    328.56117  0.013856324  0.011827099          749 
 1977000   0.46287585   -7.7104742    328.79356  0.013859111  0.011817263          666 
 1978000   0.45973365   -7.7181245    328.17358  0.013825985  0.011807437          768 
 1979000   0.46754052   -7.7247347    328.59919   0.01383692   0.01179762          714 
 1980000   0.46438816    -7.718416    328.52549   0.01382683  0.011787822          625 
 1981000   0.46308682   -7.7194147    328.86225  0.013834017  0.011778035          644 
 1982000   0.46452955   -7.7346806    328.89455  0.013828395  0.011768267          692 
 1983000   0.46877833    -7.713248    328.55274  0.013807058  0.011758492          667 
 1984000   0.45775608    -7.712627    328.46363  0.013796355  0.011748733          695 
 1985000   0.45365474   -7.7267294    328.89114  0.013807353  0.011738989          774 
 1986000   0.45543794   -7.7328247    328.59213  0.013787854  0.011729248          648 
 1987000   0.45203613   -7.7058108    328.39507   0.01377265  0.011719518          691 
 1988000   0.46620742   -7.7384429    328.95775  0.013789309  0.011709806          693 
 1989000   0.45957523    -7.715639    328.61174  0.013767879  0.011700091          716 
 1990000   0.46545715   -7.7301774    328.51429   0.01375688   0.01169039          788 
 1991000   0.46413677   -7.7194894    328.69388  0.013757487  0.011680696          672 
 1992000   0.45326749    -7.729014    328.51778  0.013743214  0.011671012          763 
 1993000   0.45164835   -7.7371794    328.40347  0.013731538  0.011661341          870 
 1994000   0.46020938    -7.719112     327.9115  0.013704091  0.011651685          792 
 1995000   0.45528641    -7.725142    329.11005  0.013747287   0.01164204          674 
 1996000   0.45982485   -7.7411881    329.03531  0.013737279  0.011632406          698 
 1997000   0.45624206   -7.7334059    329.18269   0.01373655  0.011622772          734 
 1998000   0.46027736   -7.7409373    328.95438  0.013720153  0.011613143          637 
 1999000    0.4526346   -7.7406537    328.25905  0.013684303  0.011603532          719 
 2000000   0.45272879   -7.7389755    328.88789  0.013703662  0.011593932          589 
 2001000   0.45175533   -7.7342599     328.6736  0.013687889  0.011584342          744 
 2002000   0.44901241   -7.7398132    328.96749  0.013693286  0.011574752          671 
 2003000   0.43766819   -7.7258485    328.42524  0.013663889  0.011565175          631 
 2004000   0.46083208   -7.7388253    327.96681  0.013638008  0.011555614          710 
 2005000   0.45381098   -7.7294155    328.59154  0.013657171  0.011546071          726 
 2006000   0.45762587   -7.7311211    328.48876  0.013646093  0.011536521          691 
 2007000   0.45248135   -7.7275374     328.2553  0.013629601  0.011526984          779 
 2008000    0.4552721   -7.7307241    328.20696  0.013620807  0.011517453          782 
 2009000   0.44360479   -7.7369743    327.81209  0.013597648  0.011507936          722 
 2010000   0.45981861   -7.7319459    328.26441  0.013609636  0.011498429          729 
 2011000   0.45313301   -7.7400472    328.56093  0.013615155  0.011488933          649 
 2012000   0.44363355   -7.7279053    328.73052  0.013615412  0.011479452          684 
Loop time of 5293.08 on 48 procs for 2000000 steps with 4000 atoms

Performance: 65292.811 tau/day, 377.852 timesteps/s
99.4% CPU use with 48 MPI tasks x no OpenMP threads

MPI task timing breakdown:
Section |  min time  |  avg time  |  max time  |%varavg| %total
---------------------------------------------------------------
Pair    | 371.45     | 402.4      | 437.56     |  63.8 |  7.60
Neigh   | 36.935     | 38.225     | 39.553     |   9.6 |  0.72
Comm    | 322.77     | 357.41     | 398.49     |  83.9 |  6.75
Output  | 4.8442     | 4.846      | 4.8968     |   0.3 |  0.09
Modify  | 4420.8     | 4439.8     | 4465.3     |  18.2 | 83.88
Other   |            | 50.39      |            |       |  0.95

Nlocal:        83.3333 ave          89 max          78 min
Histogram: 4 3 7 4 9 3 8 3 4 3
Nghost:        2418.15 ave        2434 max        2407 min
Histogram: 3 4 9 8 7 10 3 2 1 1
Neighs:        16780.5 ave       19108 max       14429 min
Histogram: 5 4 2 6 3 9 9 4 2 4
FullNghs:      33560.6 ave       35924 max       31692 min
Histogram: 6 1 10 6 4 5 9 2 2 3

Total # of neighbors = 1610910
Ave neighs/atom = 402.72750
Neighbor list builds = 106887
Dangerous builds = 0

#clear
#
#next RN
#
#jump SELF
Total wall time: 1:28:16
