
units lj                  # Use reduced LJ style units
atom_style atomic         # Uncharged point particles
atom_modify map hash      # Needed for indexing of clusters etc
                          # Used to be able to find where atoms are in relation to each other.

lattice fcc 1.0 spacing 1 1 1
Lattice spacing in x,y,z = 1.5874011 1.5874011 1.5874011
region box block 0 10 0 10 0 10 units lattice
create_box 2 box
Created orthogonal box = (0.0000000 0.0000000 0.0000000) to (15.874011 15.874011 15.874011)
  3 by 4 by 4 MPI processor grid
create_atoms 1 box
Created 4000 atoms
  using lattice units in orthogonal box = (0.0000000 0.0000000 0.0000000) to (15.874011 15.874011 15.874011)
  create_atoms CPU = 0.002 seconds
set type 1 type/fraction 2 0.71 78393
Setting atom values ...
  2865 settings made for type/fraction
mass 1 1.0
mass 2 1.0
pair_style lj/cut  3.5
pair_modify tail  yes
pair_coeff 1  1  1.0  1.0   # Intearaction between 1 and 1 set with epsilon = 1 and sigma = 1
pair_coeff 1  2  1.5  0.8
pair_coeff 2  2  0.5  0.88

write_data data.0
System init for write_data ...
Neighbor list info ...
  update every 1 steps, delay 10 steps, check yes
  max neighbors/atom: 2000, page size: 100000
  master list distance cutoff = 3.8
  ghost atom cutoff = 3.8
  binsize = 1.9, bins = 9 9 9
  1 neighbor lists, perpetual/occasional/extra = 1 0 0
  (1) pair lj/cut, perpetual
      attributes: half, newton on
      pair build: half/bin/atomonly/newton
      stencil: half/bin/3d
      bin: standard
WARNING: Not all mixed pair coeffs generated from mixing. Use write_data with 'pair ij' option to store all pair coeffs. (../write_data.cpp:312)


#############################
#   M E L T   S Y S T E M   #
#############################

velocity all create 2.4 6229865 mom yes dist gaussian # Assign velocities
                                                    # Temperature 2.4, random number seed, zero linear momentum
                                                                                # Gaussian distribution

timestep 0.002   # simulation timestep
thermo 1000       # output thermodynamic data every 1000 steps bf 100

# Define a fix  in this case with index 1 applied to all
# particles in the simulation. This fix is for simulations
# in the anisotropic NPT ensemble. Note that we use the MTK
# correction.
fix 1 all npt temp 2.4 2.4 0.1 iso 5.68 5.68 0.5 mtk yes tchain 5 pchain 5 # Use NPT ensemble
                                                                         # Set temperature and pressure and damping
                                                                         # Numbers of thermostats in chain and in barostat
run 10000          # run for 10000 steps
Per MPI rank memory allocation (min/avg/max) = 3.642 | 3.644 | 3.648 Mbytes
Step Temp E_pair E_mol TotEng Press Volume 
       0          2.4   -4.1166387            0   -0.5175387   -3.7043072         4000 
    1000    2.3625254    -3.732948            0  -0.19004588    5.8415729    3637.2053 
    2000     2.377759   -3.6641723            0 -0.098425387    5.7633747    3681.8013 
    3000    2.3450486   -3.7034477            0  -0.18675424     5.484216     3682.004 
    4000    2.3909272   -3.6838844            0 -0.098390173    5.5480331    3688.7152 
    5000    2.4009455   -3.6948929            0 -0.094375093    5.6756193    3688.2448 
    6000    2.4238747   -3.7236881            0 -0.088784981    5.7296045    3652.7944 
    7000    2.4011295   -3.6486982            0 -0.047904431     5.669139    3696.7217 
    8000    2.4125169   -3.6914046            0 -0.073533901    5.5797389    3687.4369 
    9000    2.3999964   -3.7566818            0  -0.15758726    5.7937067     3630.362 
   10000    2.4002248   -3.6780256            0 -0.078588523    5.8135808    3672.6209 
Loop time of 3.05365 on 48 procs for 10000 steps with 4000 atoms

Performance: 565880.554 tau/day, 3274.772 timesteps/s
99.2% CPU use with 48 MPI tasks x no OpenMP threads

MPI task timing breakdown:
Section |  min time  |  avg time  |  max time  |%varavg| %total
---------------------------------------------------------------
Pair    | 1.2132     | 1.2702     | 1.335      |   2.7 | 41.59
Neigh   | 0.21714    | 0.22541    | 0.23851    |   0.8 |  7.38
Comm    | 0.92107    | 1.0228     | 1.1023     |   3.9 | 33.49
Output  | 0.00026135 | 0.00027866 | 0.00083309 |   0.0 |  0.01
Modify  | 0.47307    | 0.519      | 0.56493    |   3.4 | 17.00
Other   |            | 0.01599    |            |       |  0.52

Nlocal:        83.3333 ave          92 max          75 min
Histogram: 2 4 4 5 8 15 1 4 4 1
Nghost:        1735.19 ave        1763 max        1705 min
Histogram: 2 1 8 6 7 3 8 6 3 4
Neighs:        10397.5 ave       11754 max        9049 min
Histogram: 3 2 3 5 12 7 5 6 4 1

Total # of neighbors = 499081
Ave neighs/atom = 124.77025
Neighbor list builds = 908
Dangerous builds = 211

# Equilibrate just above the melting temperature to avoid step fn in T

fix 1 all npt temp 1.25 1.25 0.1 iso 5.68 5.68 0.5 mtk yes tchain 5 pchain 5
run 2000
Per MPI rank memory allocation (min/avg/max) = 3.644 | 3.646 | 3.649 Mbytes
Step Temp E_pair E_mol TotEng Press Volume 
   10000    2.4002248   -3.6780256            0 -0.078588523    5.8135808    3672.6209 
   11000    1.2516282   -5.4601175            0   -3.5831445    5.9289028    2795.4181 
   12000    1.2488848   -5.4822655            0   -3.6094067    5.6195262    2800.5561 
Loop time of 0.830932 on 48 procs for 2000 steps with 4000 atoms

Performance: 415918.262 tau/day, 2406.934 timesteps/s
99.0% CPU use with 48 MPI tasks x no OpenMP threads

MPI task timing breakdown:
Section |  min time  |  avg time  |  max time  |%varavg| %total
---------------------------------------------------------------
Pair    | 0.30525    | 0.32689    | 0.35212    |   2.2 | 39.34
Neigh   | 0.043097   | 0.045001   | 0.047319   |   0.5 |  5.42
Comm    | 0.24983    | 0.28528    | 0.34736    |   3.3 | 34.33
Output  | 5.4493e-05 | 5.6942e-05 | 8.9173e-05 |   0.0 |  0.01
Modify  | 0.1048     | 0.16873    | 0.17869    |   3.9 | 20.31
Other   |            | 0.004974   |            |       |  0.60

Nlocal:        83.3333 ave          92 max          77 min
Histogram: 5 1 11 2 11 5 7 3 1 2
Nghost:        2087.62 ave        2120 max        2059 min
Histogram: 3 2 5 8 8 9 5 7 0 1
Neighs:        13614.8 ave       15200 max       12046 min
Histogram: 1 5 5 11 6 2 5 4 6 3

Total # of neighbors = 653508
Ave neighs/atom = 163.37700
Neighbor list builds = 146
Dangerous builds = 13

#############################
# L I N E A R  Q U E N C H  #
#############################

# Define solid atoms. This closely follows ten Wolde  Ruiz-Montero and Frenkel  Faraday Discuss  1996  104  93-110
# Compute components of the per-atom q6 vector
compute q6 all orientorder/atom degrees 1 6 components 6 nnn NULL cutoff 1.3 # compute the Q6 parameter.
                                                                             # Use all neighbours within 1.3 unit cell.

# get number of connections
compute coord_number all coord/atom orientorder q6 0.5

# An atom is solid if it has 8 or more connections (of a possible 14)
variable is_solid atom c_coord_number>=8
group solid dynamic all var is_solid    # Must be dynamic to update
dynamic group solid defined

# do clustering
compute cluster solid cluster/atom 1.3 # Create a cluster where all atoms within are solid and max 1.3 units from another member

# define chunks one chunk per cluster
compute clus_chunks solid chunk/atom c_cluster nchunk every compress yes  # Says which atoms are in which chunk

# count the size of each chunk
compute size_chunks solid property/chunk clus_chunks count


# Find the maximum entry in the vector of chunk sizes
variable max_n equal max(c_size_chunks)


# Thermo style which includes this variable
# thermo_style custom step temp pe vol v_max_n

thermo ${N}  # Print the thermo information every 100 steps
thermo 1000  

# Reset the npt fix at a lower temperature (below freezing)
fix 1  all npt temp  ${temp} ${temp}  0.1  iso  5.68  5.68  0.5  mtk yes tchain  5  pchain  5
fix 1  all npt temp  0.45 ${temp}  0.1  iso  5.68  5.68  0.5  mtk yes tchain  5  pchain  5
fix 1  all npt temp  0.45 0.45  0.1  iso  5.68  5.68  0.5  mtk yes tchain  5  pchain  5

dump dmp2 all dcd ${N} traj.dcd
dump dmp2 all dcd 1000 traj.dcd


compute msd all msd com yes
variable twopoint equal c_msd[4]/6/(step*dt+1.0e-6)
fix 9 all vector 10 c_msd[4]
variable fit equal slope(f_9)/6/(10*dt)
thermo_style custom step temp pe c_msd[4] v_twopoint v_fit v_max_n

fix 1 all npt temp 1.25 ${temp} 0.1 iso 5.68 5.68 0.5 mtk yes tchain 5 pchain 5
fix 1 all npt temp 1.25 0.45 0.1 iso 5.68 5.68 0.5 mtk yes tchain 5 pchain 5
run 2000000 # 5000000  # Run for this many steps
Neighbor list info ...
  update every 1 steps, delay 10 steps, check yes
  max neighbors/atom: 2000, page size: 100000
  master list distance cutoff = 3.8
  ghost atom cutoff = 3.8
  binsize = 1.9, bins = 8 8 8
  4 neighbor lists, perpetual/occasional/extra = 1 3 0
  (1) pair lj/cut, perpetual
      attributes: half, newton on
      pair build: half/bin/atomonly/newton
      stencil: half/bin/3d
      bin: standard
  (2) compute orientorder/atom, occasional
      attributes: full, newton on
      pair build: full/bin/atomonly
      stencil: full/bin/3d
      bin: standard
  (3) compute coord/atom, occasional
      attributes: full, newton on
      pair build: full/bin/atomonly
      stencil: full/bin/3d
      bin: standard
  (4) compute cluster/atom, occasional
      attributes: full, newton on
      pair build: full/bin/atomonly
      stencil: full/bin/3d
      bin: standard
Per MPI rank memory allocation (min/avg/max) = 9.843 | 9.848 | 9.851 Mbytes
Step Temp PotEng c_msd[4] v_twopoint v_fit v_max_n 
   12000    1.2488848   -5.4822655 7.4961508e-31  5.20566e-33 8.3333333e+20            3 
   13000    1.2675486   -5.5527033   0.63928252 0.0040979647  0.053142283            1 
   14000     1.220033   -5.5156147    1.3006645 0.0077420501  0.053316044            2 
   15000    1.2652261    -5.505933    1.9706896  0.010948275  0.054486583            1 
   16000    1.2373306   -5.4708768    2.5823082  0.013449522  0.054158334            2 
   17000     1.277233   -5.5130279    3.2715357  0.016036939  0.054144405            2 
   18000    1.2467647   -5.4941898    3.8500497  0.017824304   0.05420353            3 
   19000    1.2464753   -5.5410532     4.532002  0.019877201   0.05385265            4 
   20000    1.2301207   -5.5263984    5.1201804  0.021334085  0.053412099            1 
   21000    1.2150208   -5.5052517    5.7874682  0.022966143  0.053417348            3 
   22000    1.2668068   -5.4845157    6.3751137  0.024148157  0.053179596            1 
   23000    1.2531778   -5.5859893    6.9683487  0.025247639  0.052899381            1 
   24000    1.2335771   -5.5042672    7.6156343  0.026443174  0.052744574            2 
   25000    1.2373703   -5.5340345    8.2955612   0.02765187  0.052815214            3 
   26000    1.2478279    -5.505255    8.9337893   0.02863394  0.052825241            3 
   27000    1.2455014   -5.5305474    9.4265788  0.029094379  0.052684911            3 
   28000    1.2256355   -5.5408268    9.9902394  0.029732855  0.052465457            5 
   29000    1.2548495   -5.5108582    10.579737  0.030401543  0.052160551            4 
   30000    1.2584997   -5.4915822    11.151761  0.030977114  0.051903511            3 
   31000     1.206288   -5.5614823     11.86824  0.031903871  0.051740184            2 
   32000    1.2486169   -5.5267477     12.49151  0.032529973  0.051677205            2 
   33000    1.2018195   -5.5712711    12.985608  0.032791939  0.051592215            3 
   34000    1.2467985    -5.521422    13.632866  0.033413888  0.051445585            2 
   35000    1.2608844   -5.5059867    14.243585  0.033913297  0.051347825            1 
   36000    1.2275335    -5.538059    14.834462  0.034339031  0.051240542            1 
   37000     1.256528   -5.5180522    15.546923  0.035015593  0.051224202            2 
   38000    1.2448875   -5.5073363    16.093491  0.035292744   0.05122165            2 
   39000    1.2561498   -5.5303249    16.876511  0.036060919  0.051255146            1 
   40000    1.2408067    -5.552396    17.509141  0.036477377  0.051323101            1 
   41000    1.2237043   -5.5227567    17.998571   0.03658246  0.051371857            3 
   42000    1.2313258   -5.5534036    18.753689  0.037209699  0.051391347            2 
   43000    1.2269382   -5.5103847    19.411329  0.037618855  0.051459112            3 
   44000    1.2317177   -5.5330753    20.023797  0.037923857  0.051522936            3 
   45000    1.2520749   -5.5399615    20.601132  0.038150243  0.051590423            3 
   46000    1.2536997   -5.5518024    21.016558  0.038073474  0.051585756            2 
   47000     1.230362   -5.5523935    21.739207  0.038544694  0.051562545            1 
   48000    1.2298393   -5.5259129    22.339268   0.03878345   0.05156048            3 
   49000     1.225138    -5.564129    22.932287  0.039000488  0.051519335            3 
   50000    1.2045212   -5.5480505    23.482612  0.039137686  0.051470086            2 
   51000    1.2146616    -5.559726    24.059142  0.039312323   0.05142041            2 
   52000    1.2634562   -5.5856606    24.677079  0.039546601  0.051380784            3 
   53000    1.1994056   -5.5235895     25.33578  0.039836132  0.051346661            5 
   54000    1.2153833   -5.5648056    25.910372  0.039985142  0.051314531            8 
   55000    1.2379662   -5.5083011    26.544667  0.040219192  0.051264036            2 
   56000    1.2413957   -5.5927776    26.992302  0.040167115  0.051210759            3 
   57000    1.2157492    -5.536468    27.707492  0.040508029  0.051158758            3 
   58000    1.2232318   -5.5771903    28.117196   0.04039827  0.051108536            4 
   59000    1.2449021   -5.5588935    28.908305  0.040830939  0.051057814            6 
   60000     1.196561   -5.5559847    29.569638  0.041068942  0.051034345            2 
   61000    1.2253006    -5.548061    30.216465  0.041279323  0.051050372            1 
   62000    1.2439649   -5.5426558    30.829757  0.041437845  0.051051583            2 
   63000     1.243317   -5.5732479    31.440732   0.04158827   0.05105084            5 
   64000    1.2430875   -5.5803574    31.921537  0.041564501  0.051055794            2 
   65000     1.205976   -5.5740191    32.804259  0.042056742  0.051069872            2 
   66000    1.2281037   -5.5908786    33.335417  0.042090173  0.051092794            2 
   67000    1.2170966   -5.5427361    34.041529  0.042340209  0.051112628            2 
   68000    1.2387282    -5.535081    34.506826  0.042287776  0.051117989            1 
   69000    1.2032941   -5.5516073    35.198667  0.042510467  0.051126873            3 
   70000    1.2378956   -5.5526383    35.604502  0.042386311  0.051118003            2 
   71000    1.2200443   -5.5908386    36.212961  0.042503475  0.051096379            2 
   72000    1.2303765   -5.5688516    36.716738  0.042496224  0.051051586            2 
   73000    1.2241856   -5.5590476    37.181528  0.042444666  0.050999788            3 
   74000    1.2185408   -5.5779185    37.518933  0.042251051  0.050936146            3 
   75000     1.195039   -5.6064373    38.170094  0.042411215  0.050864395            1 
   76000    1.2061631   -5.5537999    38.951589  0.042710076  0.050808102            3 
   77000    1.1996808    -5.593481    39.549953  0.042802979  0.050780142            2 
   78000    1.2535459   -5.5490887     40.22148  0.042971666  0.050747195            3 
   79000    1.2327676   -5.5589407     40.93251  0.043177752  0.050727204            3 
   80000    1.2540489   -5.5590893    41.367269  0.043090905  0.050717378            4 
   81000    1.2321711   -5.5879199    41.939359  0.043147488    0.0506981            6 
   82000    1.2126631   -5.5653052    42.554526  0.043246469  0.050674171            3 
   83000    1.2326671   -5.5703074    43.343895  0.043517967  0.050652192            2 
   84000    1.2307487   -5.5564691    43.857276  0.043509202  0.050630298            2 
   85000    1.1978791   -5.5714206    44.429097  0.043557938  0.050611274            3 
   86000    1.2090733    -5.573616    44.859368  0.043468379   0.05058523            2 
   87000    1.2193438    -5.575384    45.490478  0.043573255  0.050546686            2 
   88000    1.2346848   -5.5425549    46.239065  0.043786993  0.050521033            1 
   89000     1.234016   -5.5271815    46.490934  0.043530837  0.050486424            1 
   90000    1.2006074   -5.5866406    47.055551  0.043569954  0.050448072            2 
   91000    1.1929522   -5.5941208    47.733723  0.043712201  0.050416245            1 
   92000    1.1936743    -5.577895    48.242966  0.043698338  0.050388341            2 
   93000    1.2288062   -5.6112918    48.498749   0.04345766  0.050356898            1 
   94000    1.2014802   -5.5555144    49.026802  0.043463477   0.05030493            3 
   95000    1.2098744   -5.5649909    49.780902  0.043667457  0.050239729            2 
   96000    1.2065297   -5.5234218    50.680309  0.043993323  0.050186929            3 
   97000    1.1985412   -5.5714288    51.114478  0.043912781  0.050141209            1 
   98000    1.1861826   -5.5698141    51.848913  0.044089211  0.050097685            4 
   99000    1.2148775   -5.5643689    52.151663  0.043898706  0.050064931            2 
  100000    1.2314149   -5.5541428    53.304285  0.044420237  0.050037304            2 
  101000    1.2181653   -5.5788449    53.710615  0.044315688  0.050024038            2 
  102000    1.2076922   -5.5874267     54.12255  0.044217769  0.050008737            2 
  103000    1.2109986   -5.5620311    54.872893  0.044395544  0.049984065            2 
  104000    1.2042171   -5.5651565    55.530683   0.04449574  0.049960824            3 
  105000    1.2018446   -5.6303474    55.819571  0.044301247  0.049935936            4 
  106000    1.2514236   -5.5975447    56.428644  0.044362141  0.049911451            1 
  107000    1.2006188   -5.5881238    57.212189  0.044557779  0.049894054            6 
  108000    1.2024206    -5.562218    57.607283  0.044450064  0.049877862            2 
  109000    1.2124082   -5.5861444    57.858171  0.044234076  0.049852769            2 
  110000    1.2105412   -5.5947909    58.540249  0.044348673  0.049820597            2 
  111000    1.2290253   -5.5756538    59.162484  0.044416279  0.049788075            6 
  112000    1.2460454   -5.5595864     59.30051  0.044122403  0.049750252            4 
  113000    1.2205287   -5.5998901    60.143012  0.044353254  0.049709826            5 
  114000    1.2384449   -5.5855065    60.486773  0.044215477  0.049669558            3 
  115000    1.1977946   -5.5896686    60.799528  0.044057629  0.049623452            2 
  116000    1.1882691   -5.5361945    61.919555  0.044482439    0.0495832            3 
  117000    1.2240152   -5.6360125    61.820609  0.044031773  0.049539409            4 
  118000    1.1852896   -5.5963803     62.65909  0.044250769  0.049494184            2 
  119000    1.2118964    -5.588966    63.282112  0.044315204  0.049456453            2 
  120000    1.2179234   -5.5698081    64.054103  0.044482016  0.049421627            1 
  121000    1.2197446   -5.6178128    64.372029  0.044333353  0.049391712            2 
  122000    1.2214528   -5.6131853    65.406406  0.044676507  0.049363959            2 
  123000    1.2096951   -5.5847663    66.266689  0.044896131  0.049347255            6 
  124000    1.1834616   -5.6032583    66.810164  0.044899304  0.049330631            1 
  125000    1.1970089   -5.6332945    67.315596  0.044877064  0.049315984            3 
  126000    1.1899621   -5.5908246    67.481973  0.044630935  0.049303301            2 
  127000    1.2020743   -5.5650678    68.178403  0.044736485  0.049281911            3 
  128000    1.2067813   -5.6015201    69.094149   0.04498317  0.049260325            2 
  129000    1.1852698   -5.6001009    69.334021  0.044789419  0.049242911            5 
  130000    1.1804178   -5.6272139    69.740653  0.044705547  0.049220286            2 
  131000    1.1723595   -5.6193802      70.0779  0.044578817    0.0491954            4 
  132000     1.201106   -5.6070661    71.189103  0.044942615  0.049170269            6 
  133000    1.2058407   -5.6637915    71.503094  0.044801437  0.049146901            3 
  134000    1.2166785   -5.6160468    71.994866  0.044772926  0.049119769            2 
  135000    1.1973405   -5.6236144    72.564569  0.044792944  0.049095683            3 
  136000    1.2026388   -5.5845576    72.953643  0.044701987  0.049073982            2 
  137000    1.1827625   -5.6053422    73.713326  0.044837789  0.049046548            2 
  138000    1.1922256   -5.6065369    74.296954   0.04486531  0.049016519            3 
  139000    1.1912869   -5.6326999    73.965754  0.044343977  0.048980379            2 
  140000    1.2059583    -5.610874     74.74248  0.044489571  0.048934709            5 
  141000    1.2094112   -5.6320376    75.154716  0.044417681  0.048885814            3 
  142000    1.1828369   -5.6099709    75.701349  0.044425674  0.048834793            1 
  143000    1.2028303   -5.6371377    76.011606  0.044295808  0.048788475            5 
  144000    1.2033666   -5.6052651    76.836141  0.044465359  0.048744766            6 
  145000    1.2047208    -5.597033    77.754209  0.044686327  0.048707681            2 
  146000     1.208046   -5.5706408    78.387082  0.044741485  0.048680245            2 
  147000    1.1859026   -5.6221313    78.886202  0.044720069  0.048653958            3 
  148000     1.191651   -5.6074081    79.608805  0.044824778  0.048630304            2 
  149000    1.2079076   -5.6346916    80.353255  0.044940299   0.04861134            3 
  150000     1.166762   -5.6482106    81.070019  0.045038899  0.048595189            2 
  151000    1.2000447   -5.5955934    81.741351  0.045111121  0.048578461            2 
  152000     1.176975   -5.6402051    82.378844   0.04516384  0.048563536            5 
  153000    1.2015416   -5.6400222    82.761986  0.045077334  0.048547335            3 
  154000    1.1849561   -5.6053457    83.620645  0.045249267   0.04853206            2 
  155000    1.1930413   -5.6202785    83.745272   0.04502434  0.048515069            2 
  156000    1.1820003   -5.6102861    84.738606  0.045266349  0.048498877            2 
  157000    1.2025292   -5.6152751    85.102617  0.045171241  0.048485679            2 
  158000     1.193956   -5.6563531    84.992938  0.044827499  0.048464027            1 
  159000    1.1740682   -5.6558445      85.6553  0.044892715  0.048442895            2 
  160000    1.2153378   -5.6115301    86.598867  0.045103577  0.048424613            3 
  161000    1.2159492   -5.5793712    87.246084  0.045158429  0.048408095            2 
  162000    1.1964224   -5.6400667    87.400541  0.044959126  0.048387477            1 
  163000      1.20308   -5.6648686    88.102767  0.045042314  0.048366284            3 
  164000    1.1964657   -5.6259342    88.564133    0.0450021   0.04834854            3 
  165000     1.211696   -5.6643929    89.531491  0.045217925  0.048329587            2 
  166000    1.1708076   -5.6365963    89.984753  0.045173069  0.048314489            4 
  167000    1.1814684   -5.6174916     90.68535  0.045252171  0.048297539            3 
  168000    1.2007063   -5.6519672    90.838339    0.0450587  0.048283711            3 
  169000    1.1680407   -5.6627749    91.289785  0.045014687  0.048268086            7 
  170000    1.2083477    -5.628045    92.261192  0.045226074  0.048253116            3 
  171000    1.1789764   -5.6664913    92.907541  0.045276579  0.048240587            2 
  172000    1.1920937   -5.6350865    93.186355  0.045148428   0.04822536            5 
  173000    1.1899526   -5.6360623     93.79519  0.045180727  0.048212225            2 
  174000    1.1807948   -5.6838438    94.415123  0.045217971  0.048198127            3 
  175000    1.1825267   -5.6008475    95.611365  0.045529221  0.048188332            2 
  176000    1.1797083   -5.7112025    95.699476  0.045312252  0.048182499            4 
  177000    1.1502764   -5.6228056    96.767501  0.045559087  0.048175639            2 
  178000    1.1608639   -5.6506687    97.170239  0.045491685  0.048171082            4 
  179000    1.1901935     -5.63575    97.616094  0.045445109  0.048164911            2 
  180000    1.1705905   -5.6538045    98.427837  0.045568443  0.048157978            3 
  181000    1.1707924   -5.6487543    98.868755  0.045519685  0.048149852            2 
  182000    1.1834388   -5.6330845    99.268761  0.045452729  0.048141605            3 
  183000    1.1319779   -5.6870543    99.749816  0.045423413  0.048133541            1 
  184000    1.2106511   -5.6756516    100.69231  0.045603401   0.04812568            3 
  185000    1.1890373   -5.6747506     101.0502  0.045518106  0.048116468            1 
  186000     1.186489   -5.6973392    101.13756  0.045312527  0.048106954            6 
  187000     1.156578   -5.6159017     102.1566  0.045524329  0.048099017            4 
  188000    1.1770215   -5.6824603    102.36578    0.0453749  0.048087683            2 
  189000    1.1921591   -5.6140294    103.36808  0.045576757  0.048076559            2 
  190000    1.1813968   -5.6570807    103.36764  0.045336685  0.048066836            4 
  191000    1.1914395   -5.6945168    104.01908  0.045383541  0.048059069            2 
  192000    1.1981953   -5.6606328    104.73578  0.045458239  0.048050246            3 
  193000    1.1702483   -5.6487588    105.27916  0.045457323  0.048041004            3 
  194000    1.1730365   -5.7221079    105.35606  0.045256037  0.048028991            3 
  195000    1.1587795     -5.67465    106.15222  0.045364195  0.048014038            4 
  196000    1.1540207   -5.6695019    106.60851  0.045326748  0.047996717            2 
  197000    1.1774413   -5.6266522    107.36363  0.045416086  0.047981739            2 
  198000     1.178363   -5.6644492    108.04202  0.045472232  0.047967935            3 
  199000    1.1867215   -5.6566477     107.9506  0.045205443  0.047954465            3 
  200000     1.183876   -5.6791868    108.70981  0.045295756  0.047939816            2 
  201000    1.1952466   -5.6751569    109.26265  0.045299605  0.047925178            3 
  202000    1.1722492   -5.6417785    110.12239  0.045430029   0.04791069            5 
  203000    1.1736937   -5.6264839    110.55245   0.04538278  0.047897012            4 
  204000    1.1497817   -5.6533362    110.63914  0.045195726  0.047883308            3 
  205000    1.1521586   -5.6747524    111.46228   0.04530987  0.047869772            2 
  206000    1.1737764   -5.6997431    111.99406   0.04530504  0.047856374            3 
  207000    1.1639647   -5.6612473    112.22135  0.045177677  0.047838851            1 
  208000    1.1661807   -5.6568898    112.94532   0.04525053   0.04782215            2 
  209000    1.1870764   -5.6909464    113.11092  0.045100049  0.047804269            1 
  210000    1.1541703   -5.6440171     113.7115   0.04512361  0.047780419            7 
  211000    1.1944643   -5.6430709    114.12877  0.045074555  0.047756519            3 
  212000     1.170145   -5.6996286    114.58105  0.045039723  0.047734795            5 
  213000    1.1642846    -5.711978    114.57336  0.044825257  0.047709775            4 
  214000    1.1802353    -5.646972    115.64559  0.045033328  0.047685931            1 
  215000    1.1829936   -5.6937434    115.87822   0.04491404  0.047660722            5 
  216000    1.1394567   -5.6972269    115.88749  0.044709679  0.047635554            4 
  217000    1.1917534   -5.7047266    116.60312  0.044778463  0.047609242            3 
  218000     1.197653   -5.6999491    116.87192  0.044675812  0.047578152            2 
  219000    1.1498033   -5.6888975    117.20888  0.044600031  0.047546337            4 
  220000    1.1818708   -5.6745589    117.78209   0.04461443  0.047516696            2 
  221000    1.1572728   -5.6856325    118.52162  0.044691409  0.047488269            3 
  222000     1.184683   -5.7054188    119.19977   0.04474466  0.047460869            3 
  223000    1.1740943    -5.711909    119.33546  0.044594715  0.047433792            2 
  224000    1.1540419   -5.6574183    120.63743  0.044879996  0.047406737            2 
  225000    1.1540889   -5.6956324    120.68076  0.044696576  0.047378794            4 
  226000     1.167611   -5.6959266     120.4332  0.044407524  0.047346412            4 
  227000    1.1465791   -5.6671551    120.91593   0.04438911  0.047312065            2 
  228000    1.1594624   -5.7071897    121.63637  0.044457737  0.047279205            5 
  229000    1.1726733   -5.6882613    122.30272  0.044506083  0.047247512            1 
  230000     1.168757   -5.6879194    122.45075  0.044366212  0.047217093            2 
  231000    1.1807239    -5.690108    123.71109   0.04462882  0.047188333            2 
  232000    1.1618199   -5.7323689    123.76516  0.044455876  0.047157451            3 
  233000    1.1427083   -5.6787855    124.54931  0.044545534  0.047125271            1 
  234000    1.1577322   -5.7236398     124.0585  0.044180378  0.047094656            2 
  235000    1.1570152   -5.6845457     124.8154  0.044260779  0.047061197            3 
  236000    1.1530516   -5.6732118    126.10626  0.044529046  0.047029825            6 
  237000    1.1854218    -5.707864    125.99958   0.04430365  0.047000636            3 
  238000    1.1610473   -5.7254943    126.48055  0.044285908  0.046969826            1 
  239000    1.1526523   -5.6937535    126.54291  0.044122355  0.046937292            4 
  240000    1.1538645   -5.6977357    127.54048  0.044284888  0.046906377            3 
  241000    1.1397867   -5.7215136    127.59927  0.044121463  0.046875805            2 
  242000    1.1767597   -5.7069078    128.73018  0.044328573  0.046846633            1 
  243000    1.1448731   -5.7029233    128.82219  0.044177705  0.046818787            5 
  244000    1.1411799   -5.7179764    129.34029  0.044173596  0.046788189            3 
  245000    1.1525442   -5.6668148      130.389  0.044349998  0.046759646            5 
  246000    1.1654872    -5.713904     130.1826  0.044099796  0.046730272            2 
  247000    1.1434605   -5.7028079    131.15579   0.04424959  0.046699475            4 
  248000    1.1353134   -5.6912087    131.75845  0.044273672  0.046668352            4 
  249000    1.1344126   -5.7104616     132.1131  0.044214559  0.046637774            2 
  250000    1.1654334   -5.7209747    132.57467  0.044191556  0.046607994            3 
  251000    1.1414956   -5.6843546    132.94371  0.044138017  0.046578965            1 
  252000    1.1483264    -5.730869    133.58495  0.044174916  0.046548375            4 
  253000    1.1687155   -5.7094323     134.1324  0.044180631  0.046518244            2 
  254000    1.1465068   -5.7276833    134.13641  0.044008007  0.046488674            3 
  255000    1.1630963   -5.7154906    135.06053  0.044137427  0.046461679            2 
  256000    1.1362682   -5.7315199    135.29872  0.044042553  0.046433788            5 
  257000    1.1691127   -5.6921984    136.19453   0.04416165  0.046405063            2 
  258000     1.158231   -5.7282907    136.68467  0.044148796  0.046376581            3 
  259000     1.181009   -5.6754347    137.82621  0.044345628  0.046349283            3 
  260000    1.1382486   -5.6831567     138.1296  0.044272308  0.046325951            3 
  261000    1.1381614   -5.7266858    138.47423  0.044212717  0.046299781            4 
  262000     1.161383   -5.7108763    138.57494  0.044075999  0.046275794            4 
  263000    1.1670965   -5.6947828    139.60896  0.044236046  0.046249883            3 
  264000    1.1561922   -5.6969686    139.90639  0.044162371  0.046224399            2 
  265000    1.1372332   -5.7382546     139.7691  0.043952546  0.046199084            2 
  266000    1.1574567   -5.7233622    140.76642  0.044099756  0.046172507            2 
  267000    1.1722894   -5.7141486    140.97735   0.04400042  0.046147884            5 
  268000    1.1603832   -5.7073476    141.70096  0.044061243  0.046120252            4 
  269000    1.1483964   -5.7133539    141.39771  0.043803505  0.046089973            1 
  270000    1.1427933   -5.7457902    141.53375  0.043683257  0.046058331            2 
  271000    1.1357409    -5.716321    141.87333  0.043626485  0.046026268            3 
  272000     1.141319   -5.7293354    142.91087  0.043783969  0.045993209            4 
  273000    1.1573849   -5.6883361    142.63881  0.043540539  0.045960173            2 
  274000    1.1604441   -5.7051753    142.84972  0.043445778  0.045925761            4 
  275000    1.1264583   -5.7908851    142.94137  0.043315565  0.045890088            2 
  276000    1.1508946   -5.7484319    143.72268  0.043394528  0.045852337            5 
  277000    1.1490216   -5.6892523    144.38906  0.043438346  0.045817681            5 
  278000    1.1324762   -5.7247436    144.26707  0.043245525  0.045781844            1 
  279000    1.1411417   -5.7558027    144.71881   0.04322545   0.04574341            1 
  280000     1.163704   -5.7508292    144.74794  0.043079744  0.045705525            3 
  281000    1.1582937   -5.7490884    145.27889  0.043083895  0.045666497            6 
  282000    1.1579642     -5.73753     146.3489  0.043247312  0.045626956            2 
  283000    1.1450203   -5.7254757    146.91768  0.043261978  0.045587842            4 
  284000      1.12697   -5.7037204    147.30264  0.043222605    0.0455513            2 
  285000    1.1357997   -5.7516042    147.59879  0.043157542  0.045514569           10 
  286000     1.126244   -5.7225616    147.95244  0.043109685  0.045480791            2 
  287000    1.1321279   -5.7628849    148.22674  0.043039123  0.045444714            2 
  288000     1.136489   -5.7587523     148.7457  0.043039842  0.045408644            4 
  289000    1.1286895   -5.7319131    149.16906  0.043012994  0.045373309            4 
  290000    1.1646935     -5.78216    149.70207  0.043017837  0.045335689            2 
  291000     1.162901   -5.7850574    149.80694  0.042900041  0.045298579            3 
  292000    1.1264737   -5.7710131    150.41264  0.042925981  0.045261064            2 
  293000    1.1486024    -5.767726     150.9611  0.042935465  0.045224249            2 
  294000     1.120114   -5.7530251    151.89107  0.043053024  0.045188446            2 
  295000    1.1467244    -5.743284    152.28408  0.043018102  0.045154457            2 
  296000    1.1627291   -5.7055088    152.94295  0.043058262  0.045123052            1 
  297000    1.1234998   -5.7627763    153.11469  0.042961473  0.045088943            3 
  298000    1.1461372   -5.7192664    153.80127  0.043009303  0.045055146            3 
  299000    1.1216662   -5.7574456    153.45777  0.042769724  0.045021266            3 
  300000    1.1302196   -5.7181938    153.93475  0.042759653  0.044986311            2 
  301000    1.1164698   -5.8008026    153.58705  0.042521331  0.044950294            2 
  302000    1.1571298   -5.7429056    154.44027  0.042615968  0.044914029            3 
  303000    1.0951202   -5.7773582    155.15485  0.042671852  0.044878191            2 
  304000    1.1384128   -5.7994245    155.39705  0.042597876  0.044841596            3 
  305000    1.1305939   -5.7386702    156.49805  0.042759031  0.044804531            3 
  306000    1.1209032   -5.7642173    156.40594   0.04259421  0.044765311            4 
  307000    1.1449398   -5.7777899     156.5955  0.042506922  0.044727857            4 
  308000    1.1462585   -5.7570723    157.71546  0.042671931  0.044691307            2 
  309000    1.1587288   -5.7766192    157.85633  0.042571827  0.044655405            2 
  310000    1.1511626   -5.7650601    158.26506  0.042544372  0.044620927            2 
  311000    1.1344274   -5.7593227     159.0136  0.042608147  0.044586065            4 
  312000    1.1227438    -5.800222     158.8714  0.042433599  0.044552064            2 
  313000    1.1395227   -5.7870002    159.39339  0.042437006  0.044517441            1 
  314000    1.1409089   -5.7812385    160.04353  0.042474398  0.044480816            6 
  315000    1.1063447   -5.8154136    159.15353  0.042104109  0.044445682            5 
  316000    1.1299727   -5.7751727    160.33764  0.042283132  0.044410735            6 
  317000    1.1238559   -5.7599995    160.99456  0.042322438  0.044374592            4 
  318000    1.1405872   -5.7549478    161.55453  0.042336093  0.044338167            2 
  319000    1.1340768   -5.7699278    161.48961  0.042186417  0.044301552            4 
  320000    1.1287203   -5.7480802    162.04097  0.042198169   0.04426526            2 
  321000    1.1285716   -5.7851276     162.7149  0.042241666   0.04423114            5 
  322000    1.1002394   -5.7660104    163.73922  0.042375575  0.044196624            3 
  323000     1.116486   -5.7647508    163.46634  0.042173979  0.044162817            4 
  324000    1.1229191   -5.8139155    164.26217  0.042248502  0.044129165            3 
  325000    1.1216624   -5.7657174    164.85398   0.04227025  0.044095836            2 
  326000    1.1209443   -5.7338136    165.02333  0.042183877  0.044062579            3 
  327000    1.1342547   -5.7861068    165.81839   0.04225749  0.044029566            3 
  328000    1.1323037   -5.7815257    166.16199  0.042215952  0.043998252            4 
  329000    1.1143429   -5.8039469    166.91663  0.042278782  0.043967835            3 
  330000    1.1543075   -5.7458067    167.86374  0.042389835  0.043938532            1 
  331000    1.1144143   -5.8336056    167.53198  0.042178243  0.043909699            3 
  332000    1.1049515   -5.8160385    168.26662  0.042235599  0.043881732            5 
  333000    1.1207766   -5.7839296    168.99574  0.042291227  0.043853695            2 
  334000    1.0990353   -5.7777044    169.71458  0.042343958  0.043825758            4 
  335000    1.1153594   -5.7969731    169.91027  0.042266237   0.04380014            3 
  336000     1.116133   -5.7688053    171.15346  0.042448775  0.043773828            2 
  337000    1.1174081   -5.7701143    172.07616  0.042550979  0.043749805            2 
  338000    1.1220221   -5.7760409    171.81258  0.042360103  0.043726306            3 
  339000    1.1166546   -5.7731685    172.35451  0.042368366  0.043703667            1 
  340000    1.1061299    -5.801648    174.08746  0.042668495  0.043681872            6 
  341000    1.1299046   -5.7964377    173.69606  0.042447718  0.043659495            9 
  342000    1.1116293   -5.7961847    174.88624  0.042613607  0.043638183            3 
  343000    1.1147476   -5.8000002    174.61126   0.04242256  0.043616377            5 
  344000    1.0965672   -5.8017713    175.12494  0.042423678   0.04359349            3 
  345000    1.1384112   -5.8042696    174.80571  0.042223602  0.043570063            3 
  346000    1.1291997   -5.7941096    175.78187  0.042336673  0.043547218            5 
  347000    1.1111618   -5.7843406     176.1207  0.042296037  0.043522809            2 
  348000    1.1198864   -5.8232652    176.09747  0.042168934   0.04349917            4 
  349000     1.111655   -5.8002379    177.15663   0.04230101  0.043477758            5 
  350000    1.1258259   -5.8237349     177.3544  0.042227238  0.043453971            2 
  351000    1.1029572    -5.811256    177.98952  0.042257721  0.043429214            6 
  352000    1.1352172   -5.7707388    179.16378  0.042415666  0.043405785            3 
  353000     1.125189   -5.8027122    179.31501  0.042331212    0.0433843            4 
  354000    1.0914871   -5.7984503    179.44482  0.042242189  0.043363823            6 
  355000    1.1141655   -5.7762959    179.91651  0.042233922  0.043342428            2 
  356000    1.1081157   -5.8260062    179.56453  0.042032895  0.043320277            5 
  357000    1.1155601   -5.8121009    180.14999  0.042051819  0.043297916            5 
  358000    1.1317743   -5.8201227    180.64476  0.042049525  0.043276738            3 
  359000    1.1572129   -5.7928314    182.05255  0.042259181  0.043255358            3 
  360000    1.1037858   -5.8033068     182.5076  0.042247131  0.043234612            4 
  361000     1.105143   -5.7696425    182.61078  0.042153919  0.043215183            1 
  362000    1.0957882    -5.781413    183.20165  0.042173493  0.043195137            4 
  363000    1.1178603   -5.7721739    183.70185  0.042172142  0.043175794            3 
  364000    1.1099704   -5.7959062    184.43149  0.042223326  0.043154402            3 
  365000     1.121081   -5.8300077    183.74609  0.041951161  0.043133658            2 
  366000    1.1060578   -5.8427425     183.9936  0.041892895  0.043112138            2 
  367000    1.1276407   -5.8138644    184.95697  0.041997496  0.043090318            2 
  368000    1.1095469    -5.779238    185.96356  0.042111313  0.043070248            4 
  369000    1.0935282   -5.8712017    185.53772   0.04190102  0.043048889            6 
  370000    1.1037299   -5.8174205    186.52025  0.042009065  0.043027851            2 
  371000    1.1216019   -5.8142937    186.71091  0.041938658   0.04300726            2 
  372000    1.0934475   -5.8312784    187.17133  0.041929061   0.04298539            2 
  373000     1.105864   -5.8427908    186.91848   0.04176016  0.042962274            4 
  374000    1.0963413   -5.8233742    187.24564  0.041721398  0.042938785            5 
  375000    1.0845749   -5.8400661    187.71153  0.041713672    0.0429163            3 
  376000    1.1134926   -5.7975721    188.55435  0.041789528   0.04289345            3 
  377000    1.1010751    -5.859304    188.36376  0.041636551  0.042869627            4 
  378000    1.1287019   -5.8169356    188.96289  0.041658486  0.042846346            4 
  379000    1.0899194   -5.8187661    189.80071  0.041732786  0.042823876            4 
  380000    1.0989135   -5.8435712    190.12397  0.041693853  0.042801377            2 
  381000    1.1008248   -5.7930955    190.55673  0.041679075  0.042778756            2 
  382000     1.112015    -5.826212     190.2287  0.041498406  0.042754756            3 
  383000    1.0833137   -5.8526515    190.71354  0.041495549  0.042729705            2 
  384000    1.0855131   -5.8272258    190.56305  0.041354829  0.042704805            2 
  385000    1.0989591    -5.845941    191.15449  0.041375431   0.04267807            2 
  386000     1.119686   -5.8427354    191.02543  0.041240379  0.042651116            3 
  387000    1.0957054     -5.83757    192.54282  0.041460556  0.042624272            4 
  388000    1.0738841   -5.8427351    192.27287  0.041295719  0.042598046            5 
  389000    1.1179183   -5.8118964    193.15131  0.041377745  0.042573788            4 
  390000     1.097914   -5.7692787    194.24401   0.04150513  0.042549302            2 
  391000    1.0980904   -5.8512777    194.22195  0.041394277  0.042525116            4 
  392000    1.1162465   -5.8357733    194.37353  0.041320904  0.042501042            6 
  393000    1.1249832   -5.8226801    194.61962  0.041267944  0.042477106            2 
  394000    1.0946604   -5.8367694    195.52603  0.041354914    0.0424533            6 
  395000    1.1061743   -5.8822749    195.92308  0.041333983  0.042430699            2 
  396000    1.0952513   -5.8199229    197.44731  0.041550359  0.042409027            3 
  397000    1.1039711   -5.8772766    196.57172  0.041261907  0.042386612            5 
  398000    1.0899381   -5.7869639    198.42885  0.041547079  0.042364397            2 
  399000    1.0844468    -5.853538    197.97369  0.041347888  0.042342312            3 
  400000    1.0995757   -5.8300043    198.11992  0.041274984  0.042320955            3 
  401000    1.0816269   -5.8774993     198.5151  0.041254178  0.042299564            3 
  402000    1.1099452   -5.8390315    199.19476  0.041292445  0.042276908            2 
  403000    1.0857646   -5.8220601    200.00268  0.041357048  0.042254887            2 
  404000    1.0987368   -5.8471095    199.84284  0.041221708  0.042232976            4 
  405000    1.0751496    -5.891558    200.02805  0.041158034  0.042210382            2 
  406000     1.099584   -5.8605703    200.61471  0.041177076  0.042187485            2 
  407000    1.1177737   -5.8473614    200.57532  0.041067838   0.04216475            3 
  408000    1.1011646   -5.8345084     201.5149  0.041159088  0.042141255            2 
  409000    1.0741772   -5.8727705    201.42613  0.041040368  0.042117447            3 
  410000    1.0800424   -5.8055262    202.45147  0.041148673  0.042094288            4 
  411000    1.0902384   -5.8129775     202.8735  0.041134124  0.042070475            7 
  412000    1.0791777   -5.8294419    202.50519  0.040959788  0.042047421            3 
  413000     1.102497   -5.8526411    201.93463  0.040745486   0.04202253            9 
  414000    1.0890004    -5.855875    202.00671  0.040661577  0.041997327            1 
  415000    1.0887629   -5.8663975    203.20352   0.04080392  0.041971681            2 
  416000    1.0863648   -5.8628874    203.34136  0.040733445  0.041946259            4 
  417000    1.0620317   -5.8471562    204.94687  0.040956608  0.041921694            2 
  418000    1.0786301   -5.8444588    204.82491  0.040834313   0.04189771            3 
  419000     1.080801   -5.8396618    205.81672  0.040934112  0.041874001            3 
  420000    1.0801185   -5.8577228    206.40325  0.040953025  0.041850846            4 
  421000    1.1072622    -5.865105    206.16011  0.040807622  0.041826711            5 
  422000    1.0636537   -5.8354704    207.47565  0.040970705  0.041804153            4 
  423000     1.067011   -5.8731086     205.9211  0.040567593  0.041780922            2 
  424000    1.0608116   -5.8693918     207.0169  0.040687285  0.041756735            2 
  425000     1.087449   -5.8859331    206.87532  0.040563788  0.041732195            6 
  426000    1.0865215   -5.8920754    207.84106  0.040657484  0.041707523            3 
  427000    1.0906652   -5.8561016    207.73905  0.040542359  0.041682685            3 
  428000    1.0635881   -5.8541375    208.13944  0.040525591  0.041656678            3 
  429000    1.0624298    -5.899713    207.87252  0.040379277  0.041630991            2 
  430000      1.06369    -5.856748    209.12534  0.040528166  0.041606189            3 
  431000    1.0843836   -5.8859819    210.20146    0.0406422  0.041582109            2 
  432000    1.0935555   -5.8558424     210.7717   0.04065812  0.041558737            3 
  433000    1.0963558   -5.8628409    210.59063  0.040529374   0.04153495            3 
  434000    1.0855908   -5.8605371    211.04148  0.040522558  0.041511262            1 
  435000    1.0783987   -5.8827784    211.82511  0.040579522  0.041486956            4 
  436000    1.0955281   -5.8849101    211.75949  0.040473908  0.041462335            5 
  437000    1.0961793   -5.8855472    211.85803  0.040400081  0.041438192            3 
  438000    1.0702135   -5.8942336    212.26702  0.040385658  0.041414266            3 
  439000    1.0633251   -5.8734469    213.20684  0.040472065  0.041390605            4 
  440000    1.0702435   -5.8662387    213.90023  0.040511407  0.041366729            3 
  441000    1.0796704   -5.8733211    213.53597  0.040350713  0.041342413            8 
  442000    1.0689194   -5.8564387    213.94815  0.040337132  0.041318481            4 
  443000    1.0863882   -5.9033767    214.15671   0.04028531   0.04129604            2 
  444000    1.0706796   -5.8994327    215.20713  0.040391728  0.041273486            2 
  445000    1.0676286   -5.8866412    215.70342  0.040393899  0.041250926            3 
  446000    1.0784399   -5.8423694    216.67702  0.040485244  0.041229335            2 
  447000    1.0781029   -5.8685933    216.12427  0.040291624  0.041207404            3 
  448000    1.0808022   -5.9174521    216.58464  0.040287321  0.041184686            5 
  449000    1.0806191    -5.853203    217.32484  0.040334974   0.04116159            6 
  450000    1.0467973   -5.8940869    217.75201  0.040324446  0.041139304            3 
  451000    1.0890367   -5.9330955    217.44977   0.04017919   0.04111654            3 
  452000    1.0541442   -5.9193004    218.42834  0.040270712  0.041092908            3 
  453000    1.0786735   -5.8929356    218.82531   0.04025484  0.041070806            2 
  454000    1.0537915   -5.8909658    219.26873  0.040247564  0.041049278            4 
  455000    1.0675364   -5.9139688    219.54576  0.040209845  0.041028315            4 
  456000    1.0817067    -5.860609    221.67907  0.040511526  0.041008155            2 
  457000    1.0674668   -5.8805936    220.86819  0.040275016   0.04098753            5 
  458000    1.0537603   -5.8849121    222.48075  0.040480487  0.040968185            3 
  459000    1.0910252   -5.8804196    221.77794  0.040264695  0.040949185            5 
  460000     1.056985   -5.9178347    221.94441   0.04020732  0.040928059            4 
  461000    1.0475071   -5.9059127    222.44996  0.040211489  0.040906885            2 
  462000    1.0798181   -5.9261926    222.37218  0.040110421  0.040885756            2 
  463000    1.0864285   -5.9081703     222.4239  0.040033099  0.040864784            6 
  464000    1.0669639   -5.8683748    223.95841  0.040222416  0.040843179            2 
  465000      1.07025   -5.8794372    223.48308  0.040050732  0.040822198            6 
  466000    1.0492633   -5.9297723    223.24006  0.039921326  0.040800773            4 
  467000    1.0590582   -5.8994637    224.34658  0.040033294  0.040778654            3 
  468000    1.0410348   -5.9075146    223.86485  0.039861975  0.040756212            6 
  469000    1.0870687   -5.9649233      224.517  0.039892858  0.040734165            3 
  470000    1.0783579   -5.9202288    224.30338  0.039770103  0.040711736            3 
  471000    1.0655073   -5.8927543    226.07207  0.039998597  0.040690359            3 
  472000    1.0763257   -5.8999436    226.16183  0.039929701  0.040668735            4 
  473000    1.0699367   -5.9423556    226.97795  0.039989068  0.040646938            6 
  474000    1.0706566   -5.8899212    227.54047  0.040003598  0.040625742            3 
  475000    1.0527811    -5.948412    226.76723  0.039783724  0.040603465            3 
  476000    1.0558465   -5.9008718    227.37018  0.039805704   0.04058189            2 
  477000    1.0630384   -5.9259557    227.68151  0.039776644  0.040561164            4 
  478000    1.0623234   -5.9457606    228.02368  0.039753082  0.040540005            4 
  479000    1.0792017   -5.8845459    228.44528  0.039743437  0.040519016            1 
  480000    1.0691122   -5.9173981    229.33974  0.039815926  0.040496936            3 
  481000    1.0589275   -5.9344534     229.9924  0.039846223  0.040475289            3 
  482000    1.0488435   -5.9578977     229.8962  0.039746922  0.040453629            4 
  483000    1.0523188   -5.9194771    230.87312  0.039833182  0.040432036            4 
  484000    1.0466723   -5.9121003    230.78625  0.039735924  0.040410414            4 
  485000    1.0772819   -5.9151991     231.2363  0.039731323  0.040389474            3 
  486000    1.0781016   -5.8911199    232.56654  0.039877664   0.04036974            2 
  487000    1.0588262    -5.941709    231.69178  0.039646095  0.040349329            2 
  488000    1.0632425   -5.9156845    232.62699  0.039724554  0.040328885           10 
  489000    1.0419152   -5.9429563    233.48171  0.039788975  0.040308778            8 
  490000    1.0511372   -5.9158351    232.89419  0.039607855  0.040287587            3 
  491000    1.0539987   -5.8973843    233.46146  0.039623465  0.040266355            5 
  492000     1.052418   -5.9351289    233.12683  0.039486252  0.040245802            6 
  493000    1.0269929   -5.9820974    233.48564  0.039466808  0.040223943            2 
  494000    1.0660961   -5.9267986    234.47493    0.0395538  0.040201556            7 
  495000    1.0871554   -5.9606453    234.37664  0.039457347  0.040180196            2 
  496000    1.0335943   -5.9199021    235.64872  0.039591518  0.040159196            2 
  497000    1.0420245   -5.9209059    236.37103   0.03963297  0.040138305            5 
  498000    1.0458104   -5.9260037     236.5092  0.039576505  0.040117491           11 
  499000    1.0631154   -5.9596271    235.51494  0.039331152  0.040095969            2 
  500000    1.0370502   -5.9338113    235.75076  0.039291793  0.040074381            5 
  501000    1.0413629   -5.9467289    236.31405   0.03930706  0.040052144            3 
  502000    1.0605457   -5.9257152    237.63549  0.039448123  0.040031342            5 
  503000    1.0497792   -5.8973174    237.24689  0.039305317  0.040010648            4 
  504000     1.051959   -5.9296176    237.34204  0.039243062  0.039989283            3 
  505000    1.0427906   -5.9087784    238.43494  0.039345699  0.039968044            4 
  506000    1.0305504   -5.9282092    238.10356  0.039213366  0.039946925            2 
  507000    1.0531317   -5.9519386    238.67474  0.039229905    0.0399259            3 
  508000    1.0607192    -5.938253    239.63119  0.039309579  0.039904682            1 
  509000     1.044114   -5.9474597    239.98718  0.039290632  0.039884441            2 
  510000    1.0550748   -5.9721838     240.3371  0.039270768  0.039863495            3 
  511000    1.0581278   -5.9528172    240.61249  0.039238827  0.039842102            2 
  512000    1.0258538   -5.9445272     240.8849  0.039206526  0.039820415            4 
  513000    1.0639078   -5.9567966    240.41752  0.039054178  0.039798496            3 
  514000    1.0667835   -5.9716334    240.52729  0.038995993  0.039775887            3 
  515000    1.0442547    -5.945521    241.33076  0.039050285  0.039753266            6 
  516000    1.0494572    -5.906435    241.26691  0.038964294   0.03973008            6 
  517000    1.0395783   -5.9488438    242.07039  0.039018438   0.03970759            3 
  518000    1.0666827   -5.9615728    241.97408  0.038927619  0.039684985            3 
  519000    1.0824526   -5.9932382    242.06907  0.038867867  0.039662319            2 
  520000    1.0394254   -5.9706935    242.18421  0.038811573  0.039639105            6 
  521000    1.0627717    -5.939895    242.57375  0.038799383  0.039616493            3 
  522000    1.0365671   -6.0109111    242.39504  0.038696526  0.039593884            2 
  523000    1.0471615   -5.9622966    243.46218  0.038792572  0.039570906            7 
  524000    1.0570863   -5.9805457    243.75312   0.03876481  0.039548013            4 
  525000    1.0434875   -5.9277249    244.97535  0.038884977   0.03952564            6 
  526000    1.0392293   -5.9768649    245.37568  0.038874474  0.039503384            3 
  527000    1.0244875   -5.9427736    245.13764  0.038763067  0.039481076            5 
  528000    1.0415141   -5.9672025    245.12863  0.038688231  0.039458568            2 
  529000    1.0344109   -5.9690618    246.15552  0.038776862  0.039435996            1 
  530000    1.0646958   -5.9543887    245.41822  0.038587771  0.039412986            3 
  531000     1.044148   -5.9597652    246.62289  0.038704157  0.039389777            4 
  532000    1.0440803   -5.9610696    247.26889  0.038732596  0.039367113            5 
  533000    1.0444627   -5.9272654    247.80314  0.038743456  0.039344934            1 
  534000    1.0237785   -5.9492099    247.43297  0.038613135  0.039321817            5 
  535000    1.0273101   -6.0081541    246.97046  0.038468919  0.039298061            3 
  536000    1.0588338   -6.0235961    247.04496  0.038408732  0.039273824            1 
  537000      1.05274   -5.9794327    248.45118  0.038555428  0.039250269            2 
  538000    1.0527045   -5.9767963    248.26263  0.038454558  0.039226853            5 
  539000    1.0347422   -6.0030413     247.4341  0.038255118  0.039203078            4 
  540000    1.0337189   -5.9754777    248.75894  0.038388726  0.039180046            3 
  541000    1.0184273   -5.9732635    250.26405  0.038549607  0.039157536            1 
  542000    1.0560607   -5.9756997    249.69631  0.038391192  0.039135336            4 
  543000    1.0295471   -5.9608909    250.91852   0.03850806  0.039111829            5 
  544000    1.0408778   -5.9937323     250.3263  0.038346553  0.039088663            5 
  545000    1.0420182   -5.9495041    250.49793  0.038302436  0.039065842            2 
  546000    1.0415524   -5.9848986    250.36653   0.03821223  0.039042715            2 
  547000    1.0453276   -5.9519993    252.51801  0.038470142  0.039020469            1 
  548000    1.0202265   -5.9701851    251.74301  0.038282089  0.038998386            3 
  549000    1.0664103   -5.9837236    252.69932  0.038357517  0.038976576            4 
  550000    1.0445295   -5.9732357    253.07911   0.03834532  0.038954394            5 
  551000    1.0410297   -6.0097813    253.29053  0.038307703  0.038932366            6 
  552000    1.0271218   -5.9563428    254.32912  0.038395097  0.038910378            5 
  553000    1.0493993   -5.9920897    253.85511  0.038254237  0.038888935            2 
  554000    1.0462894   -5.9950958    253.64894  0.038154173  0.038867953            3 
  555000    1.0258093   -5.9793317    255.66484  0.038388114  0.038847308            6 
  556000    1.0391935   -5.9869817    255.56799  0.038304555   0.03882627            6 
  557000     1.013118   -6.0046852    256.07282  0.038311313  0.038805652            6 
  558000    1.0462338   -6.0057591    256.24979  0.038269085  0.038785026            2 
  559000    1.0382913   -5.9947815    256.53242  0.038242757  0.038763897            5 
  560000    1.0149436    -5.984745    257.03484  0.038249233    0.0387434            4 
  561000    1.0271552   -6.0270104    257.03272  0.038180737  0.038722694            3 
  562000    1.0091331   -5.9840693    257.34427  0.038158996  0.038701467            7 
  563000    1.0616524   -5.9627079    257.36865  0.038094827   0.03868009            3 
  564000    1.0059842   -6.0124506    257.59345  0.038060498  0.038657873            6 
  565000    1.0301126    -6.029572     258.0058  0.038053952  0.038635602            3 
  566000    1.0393206   -5.9994405    259.12408  0.038151366  0.038614079            2 
  567000    1.0239397   -5.9860898    259.22124  0.038098359  0.038593233            5 
  568000    1.0196271   -6.0015775    259.33078  0.038047355  0.038571873            8 
  569000    1.0421575   -5.9728425    259.54253  0.038011501  0.038550474            3 
  570000    1.0063155   -5.9846071    259.72452  0.037971421    0.0385291            1 
  571000    1.0389546   -6.0106989     259.9135  0.037932501  0.038507693            6 
  572000    1.0230753   -5.9990403    260.81336  0.037997285  0.038486422            5 
  573000    1.0179998    -6.028166    260.13529  0.037832358  0.038465603            2 
  574000    1.0205621   -5.9975866    262.16387  0.038060957  0.038444932            5 
  575000    1.0103813   -6.0180732    262.02747  0.037974996  0.038423829            5 
  576000   0.99731245   -6.0123783    262.10712  0.037920591  0.038402906            2 
  577000    1.0127283    -5.975823     263.0168   0.03798625  0.038381872            4 
  578000    1.0277571   -6.0033597    262.09244  0.037787261  0.038361452            6 
  579000    1.0246268    -5.990224    262.67906  0.037806428  0.038340336            4 
  580000    1.0203904   -6.0276057    263.35107  0.037837798  0.038319275            5 
  581000    1.0050868   -5.9914779    263.82185  0.037840197  0.038297938            5 
  582000    1.0212295   -6.0203735      263.237  0.037691438  0.038276915            3 
  583000    1.0169629   -5.9946137    264.23563   0.03776953  0.038256034            6 
  584000   0.99804113   -6.0336757    264.31154  0.037715688  0.038234863            5 
  585000    1.0463594   -5.9935991    265.12281  0.037766783  0.038213886            5 
  586000    1.0212456   -6.0092467    265.12432  0.037702549  0.038192249            3 
  587000    1.0326636   -6.0407222    264.62004   0.03756673  0.038170632            2 
  588000    1.0442573   -6.0304085     265.3022  0.037599518  0.038148682            6 
  589000    1.0009619   -6.0373218    264.36726  0.037403404  0.038126491            1 
  590000    1.0081185   -6.0065227    266.40738  0.037628161  0.038104812            2 
  591000    1.0053766   -6.0345801    265.72549  0.037468344  0.038082701            3 
  592000    1.0279029   -5.9802451    266.72563  0.037545838  0.038061191            8 
  593000    1.0029035   -6.0309082    266.15458  0.037402274  0.038039212            3 
  594000    1.0209014   -5.9848629    268.07225  0.037608341  0.038017115            3 
  595000    1.0133142   -6.0240224    266.81771  0.037369427  0.037995184            4 
  596000    1.0521686   -6.0340918    266.73993  0.037295852  0.037972976            3 
  597000    1.0165393   -6.0487987     267.4647  0.037334548  0.037950057            3 
  598000    1.0220174   -6.0225874    266.97657  0.037204093   0.03792696            6 
  599000   0.97966642   -6.0466296    267.80715  0.037257533  0.037903606            4 
  600000    1.0031057   -6.0308057    268.61179  0.037307193  0.037880682            2 
  601000    1.0134933   -6.0271571    267.70282  0.037119082  0.037858058            4 
  602000    1.0040386   -6.0233517    268.91652  0.037225432  0.037835031            5 
  603000    1.0144785   -6.0514457    268.59952  0.037119889  0.037812193            3 
  604000    1.0086077   -6.0181482    269.89466  0.037237123  0.037789034            3 
  605000    1.0036525   -6.0044342     269.7479  0.037155358  0.037766408            6 
  606000    1.0345004   -6.0484816    269.98514   0.03712667  0.037743728            2 
  607000    1.0138939    -5.989634    271.15281  0.037225811  0.037721364            4 
  608000     1.014607   -6.0690412    270.00792  0.037007664  0.037698996            7 
  609000    1.0235204   -6.0536047    271.07087  0.037092346  0.037676712            4 
  610000    1.0322773   -6.0257396     272.0315  0.037162773    0.0376549            6 
  611000   0.99649669   -6.0635091    272.26874  0.037134307  0.037633409            4 
  612000    1.0046316   -6.0225324    272.96517   0.03716846  0.037612028            4 
  613000    1.0175825   -6.0718969    272.33104   0.03702162  0.037590291            3 
  614000    1.0322844   -6.0030439    273.78122  0.037158146  0.037568371            6 
  615000   0.99791976   -6.0234255    273.30526  0.037033233  0.037547024           12 
  616000    1.0093746   -6.0343672    273.79899  0.037039907  0.037525619            6 
  617000   0.99148252   -6.0217171     274.6698  0.037097487  0.037504397            3 
  618000    1.0044176   -6.0347843    273.66102  0.036901431  0.037482938            9 
  619000    1.0078115   -6.0708264    273.88824  0.036872407  0.037460733            2 
  620000   0.99081008   -6.0603871     274.1383  0.036846546  0.037439139            5 
  621000    1.0122158   -6.0416063     274.8852   0.03688744  0.037417342            5 
  622000    1.0119057    -6.069126    275.11269  0.036858613  0.037396112            5 
  623000    1.0042298    -6.072496    276.09386  0.036930693  0.037374458            3 
  624000    1.0044261   -6.0748858    275.40221  0.036779142  0.037352298            2 
  625000    1.0151819   -6.0216926    275.93914  0.036791886  0.037329929            6 
  626000   0.98594717   -6.0705431     275.0471  0.036614364  0.037307683            3 
  627000   0.98596864   -6.0689141    276.39113    0.0367346  0.037285379            4 
  628000   0.99055086   -6.0413266    277.11792  0.036772547  0.037263381            3 
  629000    1.0214778   -6.0204509    276.98675  0.036696708  0.037241322            3 
  630000   0.99727742   -6.0390091    277.42848  0.036696889  0.037219915            4 
  631000    1.0342219   -6.0209072    278.27447  0.036750458  0.037198209            4 
  632000   0.99694983   -6.0533775     278.6478  0.036741534  0.037176602            3 
  633000     1.001703   -6.0318212    279.51166  0.036797217  0.037155684            3 
  634000    1.0058396   -6.0333058    280.18259  0.036827365  0.037135224            2 
  635000    1.0097446   -6.0506983    280.49868  0.036810851   0.03711481            5 
  636000   0.97841545   -6.0401652    280.01201  0.036689205  0.037093853            2 
  637000   0.99505783   -6.0451726     279.9682  0.036625877   0.03707285            3 
  638000   0.97682782   -6.0920414    279.82832  0.036550198  0.037051852            7 
  639000   0.98980837   -6.0659437    281.44694  0.036704087  0.037031213            4 
  640000   0.99705839   -6.0614564    282.07229  0.036728163  0.037010838            4 
  641000   0.99933167   -6.0623567    281.23899  0.036562531  0.036989671            3 
  642000   0.99877595   -6.0761625    281.82264   0.03658134   0.03696888            6 
  643000   0.99867035   -6.0810006    282.42208  0.036602135  0.036948547            4 
  644000   0.98871456   -6.0508967    282.24763  0.036522727  0.036928211            5 
  645000    1.0000764   -6.0739098    281.89284  0.036420264  0.036907646            9 
  646000   0.97103174   -6.0578967    283.46332  0.036566476  0.036887214            2 
  647000   0.98708495   -6.0436364    284.08611  0.036590174   0.03686683            4 
  648000    1.0030692   -6.0488753    283.70197  0.036484307  0.036846545            5 
  649000   0.99657107   -6.0912979     284.1131  0.036480881  0.036826331            3 
  650000    1.0001082   -6.0564269    284.52656  0.036477763  0.036805615            3 
  651000   0.99604475   -6.0792912    284.19087  0.036378759  0.036785142            4 
  652000    1.0103047   -6.0505485    284.81218  0.036402375  0.036763862            2 
  653000   0.97929058   -6.0789031    283.96503  0.036238518  0.036742967            4 
  654000   0.97970294   -6.0509721    285.59949  0.036391372  0.036722027            5 
  655000   0.99293993    -6.114767    284.40379  0.036183689  0.036700481            4 
  656000    1.0222311    -6.068421    285.15688  0.036224198  0.036678846            8 
  657000   0.97685143   -6.1085805     284.9866  0.036147464  0.036657439            5 
  658000   0.96110116   -6.1065247    285.77186  0.036191978  0.036635904            5 
  659000    1.0133376   -6.0908896    286.38091  0.036214075  0.036614729            4 
  660000    1.0011484   -6.0479246    287.26954  0.036271406  0.036593943            4 
  661000   0.99036911   -6.0656873     286.9735  0.036179211  0.036573098            3 
  662000   0.96139142   -6.0917091    286.61512  0.036079446  0.036551555            3 
  663000    1.0004007   -6.1233392    286.68959  0.036034388  0.036529875            2 
  664000   0.98464403   -6.0996573    287.50316  0.036082223  0.036508386            3 
  665000   0.98755653   -6.0718078    287.58164  0.036037799  0.036486877            5 
  666000   0.98193528   -6.1335366    287.49981  0.035973449  0.036465387            6 
  667000   0.97820978    -6.110447    288.46146  0.036039663  0.036443996            8 
  668000   0.99906958   -6.0934729    288.58601  0.036001248  0.036423076            8 
  669000    0.9839296   -6.0827903     289.0324  0.036003039  0.036402055            4 
  670000   0.98511743   -6.1158876    288.73109  0.035911827  0.036381344            5 
  671000   0.98337882   -6.0877689    290.91676  0.036129751  0.036360348            2 
  672000   0.98921121   -6.0679189    290.33953  0.036004406  0.036339386            6 
  673000   0.97824935   -6.0863581    291.45896   0.03608952  0.036318803            4 
  674000   0.97943229   -6.1397605    290.27884  0.035890064  0.036298335            3 
  675000   0.98920442   -6.0990759    290.36216   0.03584718  0.036277479            2 
  676000   0.97076435    -6.093582     290.3708  0.035795217  0.036256064            2 
  677000   0.98796508    -6.089939    291.23002  0.035848106  0.036234699            5 
  678000   0.99070424   -6.1061821    291.84482  0.035870798  0.036213395            5 
  679000    0.9938311   -6.1031985    291.90375  0.035825202  0.036192021            3 
  680000   0.95684257    -6.089719    292.57255  0.035854479  0.036170658            7 
  681000   0.97257801     -6.10456    292.74118  0.035822465  0.036149866            4 
  682000   0.98245707   -6.0824445    292.41229  0.035729752  0.036128955            5 
  683000   0.99537215   -6.0935811    292.91349  0.035738591  0.036107782            5 
  684000    1.0079085    -6.104029    293.09246  0.035708146  0.036086618            4 
  685000   0.98405679   -6.1740607    292.08608  0.035533586  0.036065484            5 
  686000   0.98679336   -6.1442966    293.31465  0.035631031  0.036043525            6 
  687000   0.97308905   -6.1334093    292.82396  0.035519645  0.036021492            3 
  688000   0.96052937   -6.1338816    293.03804  0.035493949  0.035999441            3 
  689000   0.99633049   -6.1291675    292.86809  0.035421879  0.035977534            9 
  690000   0.97978071   -6.0856463    294.73034  0.035595452  0.035956225            4 
  691000   0.96528349   -6.0890158    294.76764  0.035548437  0.035934916            3 
  692000   0.99630403   -6.1068334    294.69848  0.035488739  0.035913709            6 
  693000   0.98298681   -6.1194792    294.01443   0.03535527  0.035891995            5 
  694000   0.97912507   -6.0890899     295.3639  0.035466367  0.035870263            4 
  695000   0.98932407   -6.0944615    295.10833  0.035384692  0.035849091            3 
  696000   0.99635763   -6.1274718    295.41019  0.035369994  0.035827798            2 
  697000   0.98981667   -6.1044845    295.57162  0.035338548  0.035806012            9 
  698000   0.96867296   -6.1443988    296.11368  0.035352636  0.035783831            5 
  699000   0.99373289   -6.1413932    294.97117  0.035165852  0.035761407            4 
  700000   0.96118795   -6.1306488    296.23495  0.035266066  0.035739414            4 
  701000   0.97610991   -6.1203758     296.6127  0.035260663  0.035717512            4 
  702000   0.97377517   -6.1048471    297.06167  0.035263731  0.035695482            2 
  703000    0.9921804   -6.1506957    296.89448   0.03519375  0.035673459            4 
  704000   0.98807425   -6.1128884    298.11485  0.035288216  0.035651495            5 
  705000   0.98358785   -6.1489198    297.85436  0.035207371  0.035629663            5 
  706000    0.9848396   -6.1024004    298.92043  0.035283336  0.035608153            3 
  707000   0.94365044   -6.1163099      299.417  0.035291961  0.035586512            8 
  708000   0.93496286    -6.164276    298.82271  0.035172165  0.035565061            7 
  709000   0.98001541   -6.1263429     299.9292   0.03525261  0.035543695            7 
  710000    0.9814386   -6.1199101     299.9222  0.035202136  0.035522347           10 
  711000   0.96396386    -6.136645    299.38853  0.035090076  0.035501104            3 
  712000   0.98561532   -6.1385448    300.26724  0.035143638  0.035479654            3 
  713000   0.97156272   -6.1696937    300.33267  0.035101995  0.035458307            4 
  714000   0.96279266   -6.1784462    299.48041  0.034953363  0.035437017            5 
  715000   0.94433475   -6.1411971    301.20545   0.03510553  0.035415263            5 
  716000   0.95419302   -6.1112293    300.91291  0.035022453  0.035393849            2 
  717000   0.94946333    -6.086909    302.39919   0.03514635  0.035372744            5 
  718000   0.95658431   -6.1453873    301.63632  0.035008858  0.035351783            4 
  719000   0.97696845   -6.1489411    300.74512  0.034856876  0.035330878            5 
  720000   0.95753177   -6.1239652    302.16425  0.034972714  0.035309546            3 
  721000   0.96023972   -6.1738907    302.16672  0.034924494  0.035288205            3 
  722000   0.97220959   -6.1329337     301.9286  0.034848638  0.035266933            4 
  723000   0.96692537   -6.1914724    302.31109  0.034844524  0.035245497            4 
  724000   0.96773077    -6.172881    302.16593  0.034779688  0.035224316            7 
  725000   0.94352416   -6.1479853    302.91676  0.034818019  0.035203271            3 
  726000   0.99050137   -6.1576238    303.67354  0.034856926  0.035182664            5 
  727000   0.98988263   -6.1707169    304.28793  0.034879405  0.035161965            6 
  728000   0.94609133   -6.1772171    304.61421  0.034868842  0.035141407            5 
  729000    0.9545407   -6.1024564    305.83146  0.034960158  0.035121334            3 
  730000   0.96378775   -6.1608194     304.9711  0.034814053  0.035101292            7 
  731000   0.95596354   -6.1140293     306.6192  0.034954309  0.035081152            6 
  732000   0.95780185   -6.1557085    306.33517  0.034874223  0.035061035           10 
  733000    0.9776999   -6.1814162    307.29801  0.034936108  0.035041093            4 
  734000   0.93433905   -6.1834885    306.40947  0.034787632   0.03502123            2 
  735000   0.94660816   -6.1481921    306.51738  0.034752538  0.035001283            8 
  736000   0.97669842   -6.1668222     306.7428  0.034730842  0.034981545            3 
  737000   0.94113319   -6.1762176    306.79221  0.034689305  0.034961565            4 
  738000   0.96827397   -6.1882018    308.27446  0.034809672   0.03494169            4 
  739000   0.93301322   -6.1559618    307.64721  0.034691836  0.034922174            2 
  740000   0.98572491   -6.1453545    309.34001  0.034835587  0.034902122            4 
  741000   0.94466276   -6.1903553    307.87369  0.034623672  0.034882119            2 
  742000   0.93523763   -6.1731477    308.52845  0.034650545  0.034862172            6 
  743000   0.96330469    -6.138616    309.37724  0.034699107  0.034842252            4 
  744000   0.96047635   -6.1861532    309.00025  0.034610243  0.034822201            3 
  745000   0.96296386   -6.1460173    309.43176  0.034612053  0.034802424            5 
  746000    0.9540339    -6.153829    309.88472  0.034616256  0.034782627            7 
  747000   0.97170866   -6.1741752     310.5079  0.034639435  0.034762852            4 
  748000    0.9547926   -6.1913128    310.26818  0.034566419  0.034743412            5 
  749000   0.96260715   -6.1362377    310.41156  0.034536222  0.034723767            9 
  750000   0.95073805   -6.1441107    311.81078  0.034645642  0.034704041            4 
  751000   0.98305824   -6.2022321    310.27056  0.034428602  0.034684278            3 
  752000    0.9510857   -6.1958738    310.99453  0.034463046  0.034664054            4 
  753000   0.92844752   -6.1951798    311.16146  0.034435753  0.034643776            5 
  754000   0.96938946   -6.1701349    310.57438  0.034325197  0.034623347            4 
  755000   0.95039699   -6.1992167    310.86672     0.034312  0.034602825            6 
  756000    0.9607015   -6.2165338    311.86102  0.034376215  0.034582625            2 
  757000   0.91919136   -6.2151774     311.9912  0.034345135  0.034562853            2 
  758000   0.96074872   -6.2005169    312.19371  0.034322087  0.034543096            7 
  759000    0.9576725   -6.1659367    313.55793   0.03442665  0.034523213            3 
  760000   0.96198062   -6.1855604    313.42483  0.034366758  0.034502996            9 
  761000   0.94455395     -6.19703    312.73083  0.034245601   0.03448276            3 
  762000   0.94873833   -6.2112227    312.32464  0.034156238  0.034462533            3 
  763000   0.93793074   -6.1766293    313.09838  0.034195979  0.034441932            9 
  764000   0.96772993   -6.1586452    313.42917    0.0341873  0.034421662            4 
  765000   0.94784944   -6.1929734    314.47789  0.034256851   0.03440166           11 
  766000   0.95659652   -6.1935557    313.78197   0.03413642  0.034381422            4 
  767000   0.94921851     -6.17534     315.0592  0.034230682  0.034361402            2 
  768000   0.96444177   -6.1920982     314.4056  0.034115191   0.03434163            4 
  769000   0.93269011    -6.177215    315.05468  0.034141166  0.034321573            3 
  770000   0.96108394    -6.182559    314.91041  0.034081213  0.034301633            9 
  771000   0.92829762   -6.1898464    316.17182  0.034173349  0.034281912            6 
  772000   0.92982329   -6.2096979    315.55866  0.034062895  0.034261852            4 
  773000   0.94638281   -6.1722964    316.09541  0.034076694  0.034241484            6 
  774000   0.93914799   -6.2096921    314.90206  0.033904184  0.034220753            3 
  775000   0.95017452   -6.2131632    316.07347  0.033986394  0.034200299           10 
  776000   0.94248567   -6.2019249    315.10265  0.033838343  0.034179906            3 
  777000    0.9508809   -6.2072278    317.06181  0.034004913  0.034159364            7 
  778000   0.94230244   -6.2585644     316.0192  0.033849529  0.034138571            8 
  779000   0.93248734   -6.2017662    316.37922  0.033844589  0.034117637            5 
  780000   0.95282692   -6.1981543    316.75564  0.033841414  0.034097301            4 
  781000   0.93815537   -6.1964582    317.57151  0.033885138  0.034076802            5 
  782000   0.93511025   -6.2341574    318.06134  0.033894005  0.034056262            3 
  783000   0.95009858   -6.1702434    317.40224   0.03378057  0.034035934            6 
  784000   0.92701475   -6.1569489    318.05507  0.033806874  0.034015692            2 
  785000    0.9373997    -6.189851     317.7596  0.033732441  0.033995585            5 
  786000   0.93411703   -6.2193141    317.98724   0.03371366  0.033975408            8 
  787000   0.94805678   -6.1714721    318.48689  0.033723728  0.033955018            4 
  788000   0.94960569   -6.1969476    319.16742  0.033752899  0.033934702            3 
  789000   0.94197715   -6.2094119    319.15403  0.033708706  0.033914506            3 
  790000   0.94599815   -6.2295485      318.608  0.033608439  0.033894406            6 
  791000   0.94297192   -6.2328927    319.09353  0.033617102  0.033874324            5 
  792000    0.9366319   -6.1936431     319.5343  0.033621033  0.033853801            4 
  793000   0.93303232   -6.2089268    320.54056   0.03368438  0.033833519            2 
  794000   0.94450118    -6.230873    319.88783   0.03357345  0.033813092            5 
  795000   0.94187838   -6.2323585    319.91295  0.033533852  0.033792293            6 
  796000   0.95191638    -6.225847    321.33489  0.033640587  0.033771594           18 
  797000   0.93875143   -6.2195631    320.36078  0.033496526  0.033750955            4 
  798000   0.93519747   -6.2191489    320.32091  0.033450388  0.033730486            4 
  799000   0.93097098   -6.2367898    321.13794  0.033493735  0.033710093            5 
  800000   0.92324191   -6.2390994    321.32895  0.033471766  0.033689798            6 
  801000   0.93450577   -6.2207544    322.28206  0.033529136  0.033669625            4 
  802000    0.9376724   -6.1927305    322.93329  0.033554997  0.033649648            4 
  803000   0.92859318   -6.1878405    322.56874  0.033475377  0.033629858            4 
  804000   0.92673876   -6.2223176    323.01988  0.033480502  0.033609439            8 
  805000   0.92361658   -6.2037541    323.16078  0.033453497  0.033589452            3 
  806000   0.93746862   -6.2472174    322.74935  0.033369453  0.033569418            5 
  807000   0.94817133   -6.2512951    323.93936  0.033450987  0.033549356            6 
  808000    0.9512261   -6.2274287    323.87541  0.033402992  0.033529261            7 
  809000   0.94078085   -6.1889946    325.26107  0.033504436  0.033509262            6 
  810000   0.93676377   -6.2500384    323.31713   0.03326308  0.033489341            6 
  811000   0.92588447   -6.2344914    324.24139  0.033317035  0.033469365            4 
  812000   0.93560957   -6.2742603    323.61766  0.033211993  0.033448981            6 
  813000    0.9176521   -6.2716949    324.32538  0.033243684  0.033428848            4 
  814000   0.93406129   -6.2819714    324.31221  0.033201496   0.03340887            5 
  815000   0.92559976   -6.2269741    325.55594  0.033287928  0.033389054            4 
  816000   0.92109026   -6.2618654    325.08659  0.033199203  0.033369394            6 
  817000   0.91284882   -6.2505571    325.13154  0.033163151  0.033349359            4 
  818000    0.9427166   -6.2510624    325.39428  0.033149377  0.033329395            8 
  819000   0.91413539   -6.2334387    325.39365  0.033108837  0.033309443           12 
  820000   0.90699066   -6.2574161    325.86285  0.033116144  0.033289301            4 
  821000   0.92301769   -6.2494975    326.34613   0.03312486  0.033269136            4 
  822000   0.94226761   -6.2538899    326.69104   0.03311953   0.03324911           11 
  823000   0.93749771   -6.2486269    326.27701  0.033037365  0.033228832            5 
  824000   0.91218809   -6.2382415     326.5521  0.033025091  0.033209097            5 
  825000   0.93403403   -6.2488357    326.96308  0.033026574  0.033189201            3 
  826000   0.93211063   -6.2178585    326.80694  0.032970838  0.033169624            4 
  827000   0.92273245   -6.2843402    327.00983  0.032951413    0.0331497            6 
  828000   0.90528872   -6.2143638    327.79566  0.032990707   0.03312989            6 
  829000    0.9150006   -6.2308138    327.98888  0.032970334   0.03311011            3 
  830000    0.9443126   -6.2280931    327.69696  0.032901301  0.033090347            5 
  831000   0.95029814   -6.2608236    329.18768  0.033011199  0.033070543            5 
  832000   0.92526287   -6.2869987    328.38577  0.032891203  0.033050584            5 
  833000   0.92482393   -6.2310523    329.02375  0.032915542  0.033030586            6 
  834000   0.90728527   -6.3036705    327.88523  0.032762313   0.03301046            4 
  835000   0.91573843    -6.244546    328.37335  0.032771791  0.032990344           10 
  836000   0.91988727   -6.2438982    329.27593  0.032822561  0.032970354            6 
  837000   0.92041822   -6.2542565    328.32211  0.032688382  0.032950129            7 
  838000   0.92107078   -6.2632518    328.52244  0.032669296  0.032929826            8 
  839000   0.91117321   -6.2401664    330.30318  0.032807229  0.032909666            5 
  840000   0.92553901   -6.2164167    330.11015  0.032749023  0.032889671            4 
  841000   0.91917985   -6.2339525    329.65191  0.032664676  0.032869877           10 
  842000   0.90161042   -6.2537199    330.54097  0.032713873  0.032849732            4 
  843000   0.94546169   -6.2882825    329.72444  0.032594349  0.032829448            5 
  844000   0.91788157   -6.2541621    331.04313  0.032685933  0.032809347            6 
  845000   0.90683781   -6.2437853    331.26772  0.032669401  0.032789545            2 
  846000   0.94924948    -6.255034    331.42182  0.032645963  0.032769696            5 
  847000   0.90022837   -6.2817216    330.36478  0.032503422  0.032749631            5 
  848000   0.91166834   -6.2739729    330.78898  0.032506779  0.032729191            5 
  849000   0.90954209   -6.2718794    331.52534  0.032540767  0.032708828            7 
  850000    0.9140982   -6.2719529     331.1317  0.032463892  0.032688628            4 
  851000    0.8927432   -6.2811033    331.26925  0.032439213  0.032668324            6 
  852000   0.93411245   -6.2749226    332.15575  0.032487847   0.03264767            3 
  853000   0.90870572   -6.2643163    331.41899  0.032377783  0.032627044            6 
  854000   0.91089729    -6.291492    331.20883  0.032319363  0.032606526            3 
  855000   0.93045732   -6.2980561     331.2276  0.032283392  0.032585797            6 
  856000   0.92699398   -6.2820115    331.25858  0.032248693  0.032564967            7 
  857000   0.91843248   -6.2562138    333.37139   0.03241651  0.032544497           12 
  858000   0.91676571   -6.2861873    332.47166  0.032291342  0.032523958            5 
  859000   0.91657508   -6.2914695    332.92307  0.032297543  0.032503563            4 
  860000   0.90307985   -6.2558658     334.2287  0.032386502  0.032483149            5 
  861000   0.90534425   -6.2764707    333.07443  0.032237169  0.032462612            3 
  862000   0.88392368   -6.2996142    332.57645  0.032151629  0.032441573            4 
  863000   0.93080724   -6.2554569     334.9669  0.032345201  0.032420937            5 
  864000   0.90727836   -6.3256887    334.11853  0.032225939  0.032400293            5 
  865000   0.91159332   -6.2586945    334.55701  0.032230926  0.032379518            3 
  866000   0.89520368   -6.2983102    335.14479  0.032250268  0.032359145            5 
  867000   0.89162761   -6.2579737    334.89239  0.032188811  0.032339118            4 
  868000   0.89532551   -6.2863186    336.15173  0.032272631  0.032319089           17 
  869000   0.91846231   -6.2913584     335.6461  0.032187006  0.032299058           12 
  870000   0.90456847   -6.2731082    335.79463  0.032164237  0.032279179            3 
  871000   0.89484782   -6.2815908        335.7  0.032118255  0.032259312            9 
  872000   0.88496777   -6.2744563    335.27487  0.032040795  0.032239449            4 
  873000   0.90239205   -6.2988335    335.77445   0.03205178  0.032219213           10 
  874000   0.91220889   -6.2711924    337.75098  0.032203564  0.032199316            5 
  875000   0.87176048    -6.314561    335.88268  0.031988826  0.032179307            4 
  876000   0.92177694   -6.3009275    336.86994  0.032046227  0.032158877            5 
  877000   0.91553781   -6.2797008     337.2022  0.032041258  0.032138654            4 
  878000   0.92131557   -6.3479499    335.73981  0.031865965  0.032118351            9 
  879000     0.915079   -6.3380377    336.36631  0.031889108  0.032098183            4 
  880000   0.89866367   -6.3129464    338.09632  0.032016697  0.032078073            7 
  881000   0.90110043   -6.3505791    336.40612  0.031820481  0.032057802            7 
  882000   0.90528751   -6.2768418    337.68513  0.031905247  0.032037639            4 
  883000   0.88877701   -6.2955594    337.56409   0.03185769   0.03201769            8 
  884000   0.90620388   -6.3324686    338.09315  0.031871526  0.031997555            4 
  885000   0.90252579   -6.2903524    338.68352  0.031891104  0.031977557            3 
  886000   0.90571535   -6.3097216    338.33689  0.031822507  0.031957534            7 
  887000   0.90562394   -6.3292256    338.27543  0.031780856  0.031937215            4 
  888000   0.88095948   -6.2980255    339.05795  0.031818501  0.031917053            5 
  889000   0.88116983   -6.3174892    337.60984  0.031646966  0.031897054            5 
  890000   0.91500072   -6.3537452    337.79921  0.031629139  0.031876447            7 
  891000   0.90733423   -6.3272605    338.46323  0.031655745  0.031856077           18 
  892000   0.91452633   -6.3198081     338.3461  0.031609315  0.031835515            6 
  893000   0.87995063   -6.3158414    339.55733  0.031686948  0.031815296            4 
  894000   0.89416383   -6.3145267    340.79094  0.031766493   0.03179487            4 
  895000    0.8964461   -6.2991095    340.00103  0.031657451  0.031774841            4 
  896000   0.89906078   -6.3310456    339.86208  0.031609196  0.031754685            5 
  897000    0.9077663   -6.3010868    341.52122  0.031728096  0.031734419            9 
  898000   0.89509908   -6.3304679    339.94315   0.03154632  0.031714091            6 
  899000   0.90144847   -6.3341769    339.32095  0.031453555  0.031693538            5 
  900000   0.88274515   -6.3325424    340.45183  0.031523317  0.031673227           13 
  901000   0.90123573   -6.3106571     340.5904  0.031501147  0.031652593            6 
  902000   0.90734555   -6.3256943    340.74956  0.031480927   0.03163245            3 
  903000   0.88937172   -6.3065858    341.33072  0.031499697  0.031612124            9 
  904000    0.8867681   -6.2800158    340.19389  0.031360056  0.031591636            5 
  905000   0.89247666   -6.3205902    340.83318  0.031384271  0.031571543           10 
  906000   0.90869825   -6.3025955    342.22698  0.031477831  0.031551559            4 
  907000   0.89515646    -6.327236    341.47477  0.031374014  0.031531591            4 
  908000   0.90003706   -6.3288571    341.78653  0.031368073  0.031511443            5 
  909000   0.90433259   -6.3371727    342.79561  0.031426074  0.031491396            4 
  910000   0.88571754   -6.3570436    342.51857  0.031366169  0.031471582            6 
  911000   0.88631296   -6.3251181    342.33608  0.031315046  0.031451605            5 
  912000   0.88997555   -6.3247542    343.05664  0.031346549  0.031431271            4 
  913000   0.89375927   -6.3203003    342.49783  0.031261211    0.0314111            8 
  914000   0.87806723   -6.3391192    342.11042  0.031191687  0.031390643            7 
  915000   0.91426237   -6.3356855    342.59884   0.03120208  0.031370145            8 
  916000   0.88320847   -6.3849408    342.87764   0.03119338  0.031349539            3 
  917000   0.87495006   -6.3289529     343.3572  0.031202944  0.031329261            4 
  918000   0.85651849   -6.3184479    343.99325  0.031226693  0.031309118            6 
  919000   0.86997376   -6.3481317    343.75115  0.031170761  0.031288976            4 
  920000   0.87291371   -6.3347286    343.70636  0.031132822   0.03126855           12 
  921000   0.87507714   -6.3437857    342.93098  0.031028862  0.031248206            5 
  922000   0.88411431   -6.3285256    343.49281  0.031045988  0.031227773            4 
  923000    0.8854475   -6.3686723    343.06408  0.030973644   0.03120739            5 
  924000   0.91280727   -6.3408276    343.29894  0.030961304  0.031186865            4 
  925000   0.88613086   -6.3702219    343.57531  0.030952731  0.031166308            5 
  926000   0.87831846   -6.3383492    345.02426  0.031049699  0.031145898            5 
  927000   0.88962764   -6.3615741    343.45443  0.030875083  0.031125196           11 
  928000   0.88262475   -6.3481203    344.31965  0.030919509  0.031104265            6 
  929000     0.888875   -6.3670555    344.27132  0.030881891  0.031083443            7 
  930000   0.89344383   -6.3239113    346.60483  0.031057781  0.031062974            7 
  931000   0.87929793   -6.3587958     344.3991  0.030826987  0.031042325            6 
  932000   0.86453782   -6.3305553    345.12492  0.030858809  0.031021728            7 
  933000   0.87671636   -6.3144754    345.63798  0.030871559  0.031001326            8 
  934000   0.87861962   -6.3531056    344.70396  0.030755171  0.030981103            5 
  935000    0.9001416   -6.3601468    345.71605  0.030812482  0.030960881            3 
  936000   0.87341499   -6.3433005    345.99468   0.03080437  0.030940516            7 
  937000   0.88448967   -6.3304803    345.51789   0.03072909  0.030920121           16 
  938000   0.86903027   -6.3644725    345.40833  0.030686596  0.030899957            6 
  939000   0.88213651   -6.3756984     345.6391  0.030674397  0.030879453            5 
  940000   0.87214677   -6.3501607    346.75925  0.030741068  0.030859173            4 
  941000   0.87073612    -6.338468    346.56299  0.030691019  0.030838919            4 
  942000   0.89095155   -6.3995537    347.24931  0.030719153    0.0308187            9 
  943000   0.87459967   -6.3764765    346.77846  0.030644968  0.030798384            3 
  944000   0.87696928   -6.3411758    347.54947  0.030680568    0.0307784           14 
  945000   0.87832643   -6.3584975    347.21599  0.030618694  0.030758298            8 
  946000   0.86229207   -6.3687642     347.6086  0.030620913   0.03073814            5 
  947000   0.88129807   -6.3695041    347.13991  0.030547334  0.030717729            4 
  948000   0.85914215   -6.3466961    347.30258  0.030529411  0.030697315            8 
  949000   0.86594209   -6.3522685    348.86149  0.030634131  0.030677192            5 
  950000    0.8899507   -6.3662431    348.24593  0.030547889  0.030657124            8 
  951000   0.85574642   -6.3764382    348.19265  0.030511098  0.030636788            6 
  952000   0.85980242    -6.404116    348.04246  0.030465902  0.030616375            8 
  953000   0.86352997   -6.3921315    348.08401  0.030437567  0.030595967            5 
  954000   0.87040286   -6.3615319     349.0876  0.030493326  0.030575655            2 
  955000   0.86331113   -6.3834415    348.91423  0.030446268   0.03055544            6 
  956000   0.86541533   -6.3901841    348.24701   0.03035626  0.030535162            5 
  957000    0.8609684   -6.3638082    349.03429  0.030393094  0.030514989            5 
  958000   0.87401669   -6.3630599    349.00912  0.030359179  0.030494828            5 
  959000   0.87544674   -6.4097393     348.5715  0.030289494  0.030474608           12 
  960000   0.86303415   -6.3642264      349.316   0.03032257  0.030454477           10 
  961000   0.85636998   -6.3433517    350.15084   0.03036341  0.030434415            7 
  962000    0.8723096   -6.3792061    350.05178  0.030323266   0.03041431            9 
  963000    0.8674295   -6.4084045    349.82948  0.030272541  0.030394147            6 
  964000   0.85611866   -6.3578795    351.01579  0.030343688  0.030374071            4 
  965000   0.85357854   -6.4063873    349.35538  0.030168858  0.030353952            5 
  966000   0.86009568   -6.3855696    350.38286  0.030226264  0.030333863            5 
  967000   0.88350461   -6.3559855     350.8902  0.030238728  0.030313695            6 
  968000   0.86069344   -6.4028649    350.95085  0.030212711  0.030293641            6 
  969000   0.86853913   -6.3704122    351.52208  0.030230657  0.030273697            8 
  970000   0.86706551   -6.3900863    350.99737  0.030154413  0.030253553            6 
  971000   0.86017916   -6.4021064    350.48351  0.030079258  0.030233366           11 
  972000   0.84199848   -6.4283961     349.9933  0.030006284  0.030213077            7 
  973000   0.86921813   -6.3733178    351.85051  0.030134507   0.03019289           12 
  974000   0.87166365   -6.4275705    351.70736  0.030091321  0.030172746            7 
  975000   0.85871376   -6.3805086    351.86439  0.030073879  0.030152664            5 
  976000   0.84719707   -6.3933817    353.30587  0.030166144  0.030132681            7 
  977000   0.84908349   -6.3976083    352.27574  0.030047402  0.030112821            9 
  978000   0.88881049   -6.3757321    352.36316  0.030024127  0.030092915            7 
  979000   0.85240709   -6.4020093    352.77583  0.030028586  0.030073053            7 
  980000   0.84681926   -6.3948395    352.71605  0.029992861  0.030053195           12 
  981000   0.85701583   -6.4109606    351.72658  0.029878235   0.03003332           11 
  982000   0.85283256   -6.4032082    352.89684  0.029947118  0.030013216            6 
  983000   0.87340424   -6.4154726    353.27258  0.029948506   0.02999336            5 
  984000   0.83779689   -6.3564576    353.43128  0.029931511  0.029973469            5 
  985000   0.85203711   -6.4050708    353.98916  0.029948322  0.029953539            7 
  986000   0.85888967    -6.396389    354.28638  0.029943068  0.029933702            9 
  987000   0.86792932   -6.3698862    354.15763   0.02990186   0.02991388            2 
  988000   0.85435314   -6.4237536     353.0481  0.029778011  0.029894135           10 
  989000   0.85971616   -6.4537934    353.49701  0.029785727  0.029874146            8 
  990000   0.86268992   -6.4023409     353.2399  0.029733998  0.029854038            5 
  991000   0.87958033   -6.4113227    355.18961  0.029867946  0.029833967            8 
  992000   0.85347369   -6.4621442    353.38501  0.029686241  0.029814005            4 
  993000   0.84685681   -6.4142079    353.80502  0.029691593  0.029793816            5 
  994000   0.85603994    -6.432167    352.76269  0.029574337  0.029773695            7 
  995000   0.85450151    -6.421655    353.18782   0.02958022  0.029753579            5 
  996000   0.85761397   -6.4289287    354.10831  0.029627536  0.029733438           12 
  997000   0.84547394   -6.4223378    353.69707  0.029563446  0.029713028            6 
  998000   0.86572462   -6.4202516    353.31777  0.029502151  0.029692758           10 
  999000   0.86359972   -6.3934162    354.28046  0.029552924  0.029672376           12 
 1000000   0.83905055   -6.4249505    354.37445  0.029531204     0.029652            5 
 1001000   0.84042031   -6.4276115    353.94656   0.02946608  0.029631501            5 
 1002000   0.85147216    -6.407934    354.15554  0.029454053   0.02961114            8 
 1003000   0.85397098   -6.4412463    354.44957  0.029449117   0.02959074            9 
 1004000   0.86789811   -6.4122577    354.79168  0.029448181    0.0295704            6 
 1005000   0.86050811    -6.404435    355.25929  0.029457653  0.029550035            6 
 1006000   0.83830491   -6.4466853    354.60308  0.029374013  0.029529873            5 
 1007000   0.86390962   -6.4249385    355.23475  0.029397116  0.029509698            4 
 1008000   0.84005979   -6.4598642    354.19823  0.029282261  0.029489421            7 
 1009000   0.85321988   -6.4600021    354.70386     0.029295  0.029469134            4 
 1010000    0.8483436   -6.4028861    356.42656  0.029408132   0.02944879            5 
 1011000   0.85742517   -6.4137568    355.70485  0.029319556  0.029428606            9 
 1012000   0.83774664   -6.4552686     356.0936  0.029322595  0.029408626            9 
 1013000   0.84776236   -6.4098234    357.22835  0.029386998  0.029388617            5 
 1014000   0.86940658   -6.4186865    357.52034  0.029382013  0.029368671            6 
 1015000   0.86368684    -6.421889    356.24574  0.029248419  0.029348745            4 
 1016000   0.85454609   -6.4191678    357.37703   0.02931242  0.029329144            6 
 1017000   0.83690305   -6.4493651    357.15866  0.029265705  0.029309447            9 
 1018000   0.82710937   -6.4419872    357.77541  0.029287444  0.029289761           10 
 1019000   0.84798376   -6.4613109    358.65834  0.029330908  0.029270082           10 
 1020000    0.8403041   -6.4381287    359.32962  0.029356995  0.029250821           14 
 1021000   0.83621916      -6.4161    357.94162  0.029214954  0.029231582            9 
 1022000   0.84982235   -6.4514307    358.79425  0.029255892  0.029212195            9 
 1023000   0.83465605   -6.4331665    358.81496   0.02922898  0.029192727            5 
 1024000   0.82206714   -6.4252668    360.03744  0.029299922  0.029173352            7 
 1025000   0.85274395   -6.4491787    359.05993  0.029191864  0.029153921            4 
 1026000    0.8592851   -6.4391578    357.85803  0.029065792   0.02913428            6 
 1027000   0.85258144   -6.4597359    358.14395   0.02906069   0.02911454            5 
 1028000   0.85071151   -6.4615742    358.26922  0.029042576  0.029094871            8 
 1029000   0.82553317   -6.4389643     358.8881  0.029064472  0.029075072            8 
 1030000   0.83692348   -6.4453966    358.01968  0.028965994  0.029055061           14 
 1031000   0.85509124   -6.4278509    359.51061  0.029058407  0.029035181            3 
 1032000   0.84952996   -6.4754204    359.12703  0.028999276  0.029015343           12 
 1033000   0.84474569   -6.4635066    358.64937   0.02893267  0.028995343           12 
 1034000   0.83729366   -6.4767971    358.47424  0.028890574  0.028975275            6 
 1035000   0.83883496   -6.4395115    359.29617  0.028928838  0.028955189            8 
 1036000    0.8313456   -6.4464116    358.64718  0.028848711  0.028935217            2 
 1037000   0.84306884      -6.4725    358.75676  0.028829698  0.028915277            6 
 1038000   0.85961567   -6.4936214     358.6729  0.028795191  0.028895169            5 
 1039000   0.86079841   -6.4717819    359.51945  0.028835375  0.028875115           10 
 1040000   0.84167668   -6.4450774    359.74213  0.028825491  0.028855481            9 
 1041000   0.85616091   -6.4338432    359.26437  0.028759556  0.028835682            7 
 1042000   0.84227986   -6.4293389    360.09418  0.028798319  0.028815837            7 
 1043000   0.83909052   -6.4529076    360.71454  0.028820273  0.028795949           18 
 1044000     0.833342   -6.4580874    360.22889  0.028753902  0.028776073            6 
 1045000   0.85272959   -6.4646086    360.62484  0.028757962  0.028756172           10 
 1046000   0.81928772   -6.4540726    360.99727  0.028760139  0.028736239            7 
 1047000   0.80992588   -6.4525154    360.86871  0.028722438  0.028716566            3 
 1048000   0.85191774   -6.4936052     359.7112   0.02860299  0.028696795           10 
 1049000   0.82845316   -6.5089634    360.78661  0.028661154  0.028676888            9 
 1050000    0.8288331   -6.4789697    360.01736  0.028572807  0.028656877            7 
 1051000   0.81743027   -6.4622146    360.43751  0.028578934  0.028636752           13 
 1052000   0.83648176   -6.4847813     360.8947  0.028587983  0.028616736           18 
 1053000   0.85159907   -6.4532348    362.37543  0.028678017  0.028596962            6 
 1054000   0.82271262   -6.4682944    362.03726  0.028624072  0.028577211            5 
 1055000   0.81925504   -6.5060339    361.59944  0.028562357  0.028557249            7 
 1056000   0.83082591   -6.4754969    360.90601  0.028480588  0.028537238            9 
 1057000   0.82249745   -6.4879561    361.17072  0.028474513  0.028517241            8 
 1058000   0.85067247   -6.4817987    361.15749  0.028446557  0.028497205            9 
 1059000   0.83488405   -6.4568338    361.84521  0.028473813  0.028477294            4 
 1060000    0.8315056   -6.4722265    362.10654  0.028467496  0.028457319           18 
 1061000   0.81694077   -6.4703208    361.54043  0.028396201  0.028437366           10 
 1062000    0.8310078   -6.4791902    362.16048  0.028418117  0.028417448           11 
 1063000   0.82968281   -6.4856843    362.20051  0.028394521  0.028397618            8 
 1064000   0.83326637   -6.5016928    361.76112  0.028333421  0.028377723            4 
 1065000   0.82478741   -6.4940448    361.65817  0.028298761  0.028357694            7 
 1066000   0.82085484   -6.5026129     362.0175  0.028300305  0.028337547            6 
 1067000   0.84131245   -6.4601854    363.59494  0.028396981  0.028317665            8 
 1068000   0.81996429   -6.5175397    361.81622  0.028231602  0.028297701           10 
 1069000   0.79990647   -6.4946518    362.30426  0.028243238  0.028277409            5 
 1070000   0.81352113    -6.516459    361.17544  0.028128929  0.028257342            6 
 1071000    0.8440312   -6.5128596    361.55377  0.028132102  0.028237305           22 
 1072000   0.83942815   -6.4793948    362.91913  0.028211997  0.028217202            5 
 1073000    0.8156017   -6.4972394    362.12933  0.028124366  0.028197186           10 
 1074000   0.83619878   -6.5052363    363.29914  0.028188946  0.028177313            8 
 1075000   0.81301424   -6.5292133    362.87007  0.028129463  0.028157349            6 
 1076000   0.81295498   -6.4818584    363.03781  0.028116311  0.028137442           11 
 1077000   0.82268897   -6.5122637    363.43017  0.028120564  0.028117718            6 
 1078000   0.82711962   -6.5180479    363.65701  0.028112014  0.028098108            6 
 1079000   0.82279104   -6.5188329    363.67532  0.028087374  0.028078491           10 
 1080000   0.82311303   -6.5030045    364.78336  0.028146864  0.028058978            6 
 1081000     0.828385   -6.5067578    364.56214  0.028103773  0.028039298            4 
 1082000   0.84663253    -6.529056     363.8464  0.028022674  0.028019845           16 
 1083000   0.81830948   -6.5028022    364.70307  0.028062717  0.028000218            6 
 1084000   0.84203054   -6.5138218    365.04851  0.028063385  0.027980831           10 
 1085000   0.81834161   -6.5475757    364.22101  0.027973964  0.027961308            7 
 1086000   0.83768513   -6.5439742    364.42157  0.027963595  0.027941667            6 
 1087000   0.81973687   -6.5400558    364.27131   0.02792635  0.027922119            8 
 1088000   0.83998423   -6.5481614    365.23293  0.027974336  0.027902553            8 
 1089000    0.8243657   -6.5052046    365.06869   0.02793608   0.02788308            4 
 1090000   0.80625923   -6.5115934    364.36088  0.027856336  0.027863431            6 
 1091000   0.84393859   -6.5601552    364.04391  0.027806593  0.027843888            6 
 1092000   0.82048384   -6.5353991    365.31948  0.027878471  0.027824166            6 
 1093000   0.81687219   -6.5276647    365.18647  0.027842823   0.02780454           10 
 1094000   0.81773421   -6.5507022    365.38556  0.027832538  0.027784927            7 
 1095000   0.81962428   -6.5199159    365.87461  0.027844339  0.027765309           14 
 1096000   0.83472754   -6.4953261    365.24319  0.027770924  0.027745829            7 
 1097000   0.82161779   -6.5179332    365.58577  0.027771632  0.027726458            9 
 1098000   0.80754102   -6.5099836    365.81752  0.027763928    0.0277069           10 
 1099000   0.80746743   -6.5307934    366.53887  0.027793363   0.02768743            7 
 1100000   0.83237605   -6.5147944    366.66145  0.027777382  0.027668057            6 
 1101000   0.82635276   -6.5565141    365.97129  0.027699916  0.027648627            6 
 1102000   0.83233872   -6.5087264    366.27619  0.027697836   0.02762932            4 
 1103000   0.81116761   -6.5073083    367.30928  0.027750777  0.027610038           11 
 1104000   0.81210071   -6.5490374    366.06998  0.027632094  0.027590795            5 
 1105000   0.81770535   -6.5210207    366.98882  0.027676381  0.027571419            9 
 1106000   0.80173362   -6.5430832    365.70265  0.027554449  0.027552024           13 
 1107000   0.81258347   -6.5397493    366.12425  0.027561296  0.027532688            8 
 1108000   0.80687776   -6.5258612    366.42645  0.027559149  0.027513291            9 
 1109000   0.82001071   -6.5285541    367.59635  0.027622208  0.027493997            5 
 1110000   0.81003153   -6.5308755     368.2076  0.027643214  0.027474902            4 
 1111000   0.80076134   -6.5287807    368.13691  0.027613029  0.027455684            8 
 1112000   0.81101042   -6.5425321    366.88901   0.02749468  0.027436593            8 
 1113000   0.80333354   -6.5458587    367.95678  0.027549923   0.02741752            9 
 1114000   0.80667715   -6.5550808    367.62693  0.027500518  0.027398488           10 
 1115000   0.80599293   -6.5615276     367.5153  0.027467511  0.027379355            7 
 1116000   0.81152545   -6.5193518    369.19048  0.027567987  0.027360378            8 
 1117000   0.81722534   -6.5398804    368.35235  0.027480778  0.027341365            4 
 1118000   0.81918527   -6.5109006    369.82385   0.02756588  0.027322537            3 
 1119000   0.82784778    -6.521696    368.85131   0.02746882  0.027303722            7 
 1120000   0.81422536   -6.5352909    368.57144   0.02742347  0.027284863            7 
 1121000   0.79097838   -6.5307158    369.26003  0.027450196  0.027266031            8 
 1122000   0.80467458      -6.4934    369.59772  0.027450811  0.027247458            3 
 1123000   0.80141426   -6.4982702     369.8648  0.027446185  0.027228786            5 
 1124000   0.77951638   -6.5463505    368.98595  0.027356609  0.027210045           16 
 1125000   0.82801163   -6.5495308     369.2573  0.027352393   0.02719127           15 
 1126000   0.79399923   -6.5431604    369.72475  0.027362696  0.027172388            4 
 1127000   0.79266156   -6.5567346    370.24904  0.027377184  0.027153481            9 
 1128000   0.81340899   -6.5831128    368.95719  0.027257476  0.027134617            4 
 1129000    0.8194961   -6.5302534    370.48091  0.027345801  0.027115866           11 
 1130000   0.82327078   -6.5593493    369.61352  0.027257634  0.027096981           10 
 1131000   0.79378689   -6.5754476    369.62742  0.027234558   0.02707797            4 
 1132000    0.7989198   -6.5748075    368.89297  0.027156432  0.027059145           10 
 1133000   0.79790851   -6.5926779    369.12368  0.027149432  0.027040137           16 
 1134000   0.80834821    -6.532925    370.34097  0.027214945  0.027021178           13 
 1135000   0.79716798   -6.5812764    369.59247  0.027136011  0.027002385            9 
 1136000   0.78797073   -6.5689406    369.98539  0.027140947  0.026983532            8 
 1137000   0.78773317   -6.5245498     370.7198  0.027170903   0.02696474            5 
 1138000   0.79717407   -6.5821642    369.89746  0.027086809    0.0269459            9 
 1139000   0.78737938   -6.5768117    370.29269  0.027091944  0.026926961            9 
 1140000   0.80068202   -6.5516284    369.65982  0.027021917  0.026908206            7 
 1141000    0.8168808   -6.5931475    369.68013  0.026999718  0.026889331           12 
 1142000    0.8001865   -6.5574737    370.97559  0.027070606  0.026870476           13 
 1143000   0.79533756   -6.5766761     370.0924  0.026982532  0.026851754            7 
 1144000   0.78306137   -6.5811192    370.10421  0.026959806  0.026832842           10 
 1145000   0.79600636    -6.557094    370.89839   0.02699406  0.026814128            8 
 1146000   0.80254748   -6.5553713    371.43382   0.02700944  0.026795443           10 
 1147000   0.78460895     -6.59378    371.39271  0.026982905  0.026776766            8 
 1148000   0.77819952    -6.559619     371.0484  0.026934407  0.026757991            6 
 1149000    0.7938778   -6.6147772    369.88852  0.026826843  0.026739156            8 
 1150000     0.811448    -6.575772    371.22636  0.026900461  0.026720224            7 
 1151000   0.79409582   -6.5755433    370.56033  0.026828868   0.02670128            8 
 1152000   0.80148864   -6.6041514     370.7929  0.026822403  0.026682457           10 
 1153000   0.79722003    -6.555222    371.88768  0.026878265  0.026663771           10 
 1154000   0.78759473   -6.5652384    371.54727  0.026830392  0.026644999            5 
 1155000   0.78135916   -6.6054541    371.22001  0.026783551  0.026626348            5 
 1156000   0.80361434   -6.5986082     371.6415  0.026790766  0.026607511           12 
 1157000   0.80211689   -6.5675176    371.51585   0.02675856  0.026588694           14 
 1158000   0.80057919   -6.5993575    371.95808  0.026767277  0.026570049            6 
 1159000   0.78869702   -6.5832783    371.35076  0.026700515  0.026551344            9 
 1160000   0.78489282   -6.5847339    371.49977  0.026688202  0.026532422            7 
 1161000    0.8031815   -6.6019717      371.423  0.026659704  0.026513498           10 
 1162000   0.80265699   -6.6265349    371.61971  0.026650868  0.026494586            7 
 1163000   0.79674948   -6.6009759    372.26889  0.026674469  0.026475847           11 
 1164000      0.78774   -6.5963472    372.42931  0.026663037  0.026457186           20 
 1165000   0.79179874   -6.5911655    372.71429  0.026660536  0.026438707           15 
 1166000   0.78819795   -6.6054428    372.23324  0.026603291   0.02641994           11 
 1167000   0.79540438   -6.5668416      373.217  0.026650742  0.026401332           10 
 1168000   0.78208496   -6.5826516    373.50356   0.02664837  0.026382778            9 
 1169000   0.79049419   -6.5832154    373.58698  0.026631521   0.02636426           13 
 1170000   0.80137356   -6.6225178    372.86174  0.026557104  0.026345777            9 
 1171000   0.77958228   -6.5747775    373.27723  0.026563993  0.026327236           12 
 1172000    0.7885198   -6.5961605    373.29084  0.026542295  0.026308613           12 
 1173000   0.79345172   -6.5950768    372.41704   0.02645759  0.026289978            7 
 1174000   0.79651865   -6.5971485    373.02225  0.026478013  0.026271313            9 
 1175000   0.78731969   -6.5906507     372.6868  0.026431688  0.026252757            6 
 1176000   0.76609052   -6.6160265    372.50312  0.026396196  0.026234209           14 
 1177000   0.78723323   -6.6176314    373.09321  0.026415549  0.026215643            6 
 1178000   0.78199814   -6.6232453    372.61603  0.026359369  0.026197023            6 
 1179000   0.77507617   -6.6076932    372.98365  0.026362995  0.026178382           11 
 1180000   0.79394973    -6.580484    373.67037  0.026389151  0.026159999            4 
 1181000   0.77326153    -6.586672    374.20789  0.026404734   0.02614161           23 
 1182000   0.77956373   -6.5937733     373.3615  0.026322723  0.026123185            9 
 1183000   0.77694973   -6.5971444    374.23047  0.026361684  0.026104628            8 
 1184000   0.77134287   -6.6095653    374.50467  0.026358718  0.026086179           15 
 1185000   0.77485317   -6.6024964    374.59875  0.026343091  0.026067687           20 
 1186000   0.79507572   -6.5964517    375.05901  0.026353219  0.026049109            6 
 1187000   0.77272844   -6.6291756    374.10842  0.026264281  0.026030732           12 
 1188000   0.76623832   -6.6254967     373.7541  0.026217319  0.026012249            6 
 1189000   0.78315497   -6.6236192    373.74607  0.026194706   0.02599369            7 
 1190000   0.77508238   -6.6249066    374.38213  0.026217236  0.025975234           11 
 1191000   0.78137941   -6.6542552    373.59413  0.026140088  0.025956773           13 
 1192000   0.78257031   -6.6387029     373.3279  0.026099545  0.025938176           10 
 1193000   0.77499985   -6.6321824    373.20156  0.026068843  0.025919463           10 
 1194000   0.77081802   -6.6776954    373.88938  0.026095015   0.02590076            5 
 1195000   0.76418608   -6.6018963    374.72616  0.026131531  0.025882054            3 
 1196000   0.79757287   -6.6631239     374.2962  0.026079724  0.025863359            8 
 1197000   0.76090622   -6.6207051     374.7216  0.026087552  0.025844775            4 
 1198000   0.76617401   -6.6454913     373.9696  0.026013467  0.025826241            5 
 1199000   0.78146891   -6.6328215    374.23621  0.026010301   0.02580768           15 
 1200000   0.78117554   -6.6638103    375.11807  0.026049866  0.025789089           11 
 1201000   0.77591629   -6.6467052    374.93851  0.026015717  0.025770522           19 
 1202000   0.78802092   -6.6532919    374.21527  0.025943932  0.025751848            9 
 1203000   0.77055849   -6.6300556    374.89746  0.025969622  0.025733263           17 
 1204000   0.78174237   -6.6185376    374.92636  0.025950053  0.025714769           10 
 1205000   0.77429103   -6.6211201    376.53846  0.026040004  0.025696299            6 
 1206000   0.75088289   -6.6270102    374.95603  0.025909068  0.025677843            8 
 1207000   0.76654832   -6.6407765    374.83434    0.0258792  0.025659423           11 
 1208000   0.77852664   -6.6603999    374.90851  0.025862894  0.025640941            4 
 1209000   0.78462632   -6.6662297     374.7139  0.025828088  0.025622503           16 
 1210000   0.77712888   -6.6490567    375.33777  0.025849709  0.025604026           20 
 1211000   0.76544233   -6.6400121    374.93992  0.025800985  0.025585478           16 
 1212000   0.78108791   -6.6298795    375.33794  0.025807064  0.025567005            9 
 1213000   0.77550291   -6.6337144     373.9989  0.025693796  0.025548378            5 
 1214000   0.76764304   -6.6509674    375.01926  0.025742673  0.025529728           11 
 1215000   0.75545112   -6.6417584    375.26022  0.025738012  0.025511081            7 
 1216000   0.74649456   -6.6415873     374.5767  0.025670004  0.025492333            9 
 1217000   0.76464135   -6.6618854    374.15072  0.025619742  0.025473462            7 
 1218000   0.77488829   -6.6264136    374.13834  0.025597861  0.025454572            9 
 1219000    0.7535008   -6.6740481    375.11402  0.025643562  0.025435755           12 
 1220000   0.76910852    -6.658538    374.66844  0.025592107  0.025416747            7 
 1221000   0.76974972   -6.6440354    374.23647  0.025541665  0.025397796            6 
 1222000   0.75613974   -6.6593411    374.05755  0.025508562  0.025378834            7 
 1223000   0.77162491   -6.6606678    374.36519  0.025508667  0.025359866            7 
 1224000   0.74151884    -6.667254    374.72616  0.025512402  0.025340747            6 
 1225000    0.7733441   -6.6491049    374.14509  0.025452047  0.025321637           18 
 1226000   0.76500404   -6.6724806     375.1282   0.02549811  0.025302654           25 
 1227000   0.76252849   -6.6869623    374.41697  0.025429025   0.02528367           14 
 1228000   0.75368213   -6.6754552    375.00835  0.025448449   0.02526477           11 
 1229000    0.7619643   -6.6818195    373.69616  0.025338768  0.025245954           19 
 1230000   0.76259157   -6.6735862    373.16906  0.025282457   0.02522696           11 
 1231000   0.75585875   -6.6685576    374.32509  0.025340177  0.025207931           33 
 1232000   0.75739455   -6.6810053    375.10192  0.025372154  0.025188959            7 
 1233000   0.75009208   -6.6745924    374.56584  0.025315345  0.025170217            7 
 1234000    0.7641649    -6.674918    374.58514  0.025296133  0.025151388            8 
 1235000   0.75638393   -6.6969321    374.69451   0.02528303  0.025132573           10 
 1236000    0.7521983   -6.6500524     375.6152   0.02532465  0.025113689           11 
 1237000   0.76004521   -6.6969226    374.43533  0.025224692   0.02509486           11 
 1238000   0.76430966   -6.6856896    375.40952  0.025269892  0.025076008           12 
 1239000   0.76478914    -6.675897    375.94849  0.025285747  0.025057229           20 
 1240000   0.76494307   -6.6713901      376.271   0.02528703  0.025038581           10 
 1241000   0.73285463   -6.6603944    376.34326  0.025271505  0.025019973           14 
 1242000    0.7441518   -6.6806397    375.86813  0.025219279  0.025001429           19 
 1243000   0.75483328   -6.6709138    375.64735  0.025184188  0.024982877            7 
 1244000   0.75868539   -6.6410582    375.92667  0.025182655  0.024964267           14 
 1245000   0.75538516   -6.6430601    376.52735  0.025202634  0.024945695            5 
 1246000   0.76607669   -6.6411468    376.91372  0.025208248  0.024927274           12 
 1247000   0.74526914   -6.6737008    376.11364  0.025134566  0.024908795            9 
 1248000   0.75322333   -6.6617077    377.14039  0.025182985  0.024890346            8 
 1249000    0.7432032   -6.6620376    376.74242  0.025136271  0.024871871           11 
 1250000   0.75228772    -6.689793    376.24772  0.025083181  0.024853389            7 
 1251000   0.76256799   -6.7022521    376.00996  0.025047293  0.024834772           22 
 1252000   0.75600717   -6.6890322    376.46572  0.025057623   0.02481612           14 
 1253000   0.76568469   -6.7038075    375.74665  0.024989801   0.02479742            8 
 1254000    0.7428715   -6.7052046    375.88099    0.0249788  0.024778704           12 
 1255000   0.74669486   -6.6923753    375.53048  0.024935623  0.024760145           14 
 1256000   0.76318972   -6.6757405    375.37406  0.024905391  0.024741457            4 
 1257000   0.75034633   -6.6666822    375.81994  0.024915138  0.024722633           13 
 1258000     0.759726   -6.6800184    375.92728  0.024902443  0.024703859           10 
 1259000   0.76017276   -6.7070595    375.48325  0.024853273  0.024685096           10 
 1260000   0.75515906   -6.6722633    376.37369   0.02489244  0.024666406            7 
 1261000   0.76488157   -6.6995339    375.43504  0.024810669   0.02464759            9 
 1262000   0.73652202   -6.7224407    375.56887  0.024799846  0.024628691           12 
 1263000   0.74488447   -6.7219869    374.65638  0.024720004   0.02460978           11 
 1264000   0.74899494   -6.6930523    376.37554  0.024813789  0.024590866           13 
 1265000   0.75314879   -6.7112643    375.08292   0.02470902  0.024572061           14 
 1266000   0.75695086   -6.7084105    376.09758  0.024756291  0.024553267           11 
 1267000    0.7657238    -6.698812    376.18908   0.02474277  0.024534548           20 
 1268000   0.73812411   -6.7114555    375.93495  0.024706556  0.024515817           11 
 1269000   0.75041718    -6.748869    375.84234  0.024681004  0.024497075           11 
 1270000   0.73781628   -6.7117324    376.60292  0.024711477  0.024478337            8 
 1271000   0.74955265   -6.7234372    376.18193  0.024664433  0.024459736           19 
 1272000   0.74135264   -6.7115688    376.21467  0.024647188  0.024441176           16 
 1273000   0.72947316    -6.721134    375.40739   0.02457498  0.024422597           11 
 1274000   0.74522819   -6.7004711    376.25775  0.024611313  0.024403972           11 
 1275000   0.75360977   -6.6779857    376.90436  0.024634272  0.024385447           16 
 1276000   0.75326257   -6.6978759    376.48822  0.024587789  0.024366915            5 
 1277000   0.75818925   -6.6909001    377.04917   0.02460514  0.024348611            8 
 1278000   0.75299276   -6.7064247    376.47551  0.024548482  0.024330192           20 
 1279000   0.74476016   -6.6957834    377.22112  0.024577868  0.024311737           19 
 1280000   0.74203835   -6.7094162    376.61804  0.024519404  0.024293284            7 
 1281000   0.74534039    -6.697999    376.41865  0.024487292   0.02427479            7 
 1282000   0.74757731   -6.7318379    376.96308   0.02450358  0.024256364           12 
 1283000   0.75382125    -6.715069     376.1735  0.024433197  0.024237911           17 
 1284000   0.74795014   -6.7032015    376.56368  0.024439491  0.024219402           14 
 1285000   0.74568912   -6.7173959    375.84755   0.02437403  0.024200789           13 
 1286000   0.75180959   -6.7393414    376.35434  0.024387917   0.02418212           14 
 1287000   0.75112061   -6.7328584    376.29499  0.024365125  0.024163555            5 
 1288000    0.7388124   -6.7401649    375.80988  0.024314821  0.024145009           20 
 1289000   0.73664067   -6.7207668    376.26422  0.024325331   0.02412652           12 
 1290000   0.73287579   -6.7369264    376.86824  0.024345494  0.024108031           11 
 1291000   0.71974313   -6.7385695    375.74791  0.024254319  0.024089447           13 
 1292000   0.74421098   -6.7445257    376.44973  0.024280813  0.024070799           10 
 1293000    0.7437502   -6.7546203    375.56544  0.024205042   0.02405215            7 
 1294000   0.72099947   -6.7206722    376.05474  0.024217848  0.024033577            8 
 1295000    0.7419365   -6.7568757    376.76558  0.024244889  0.024015044           13 
 1296000   0.71432645   -6.7134681    377.63306  0.024281961  0.023996483           12 
 1297000   0.73267929   -6.7151043    377.24351  0.024238211  0.023977961            5 
 1298000    0.7416279   -6.7254006    377.19413  0.024216367  0.023959337            6 
 1299000   0.72557703   -6.7136096    376.09626  0.024127294  0.023940794            8 
 1300000   0.73446015   -6.7657169    376.27418   0.02412014  0.023922272            6 
 1301000   0.76495495   -6.7537313    377.30411  0.024167571  0.023903779           12 
 1302000   0.73507854   -6.7456473    377.15209  0.024139278  0.023885323           22 
 1303000   0.73066526    -6.750777    376.28692  0.024065421  0.023866749           11 
 1304000   0.73457455   -6.7382889    377.35771  0.024115395  0.023848341           15 
 1305000   0.73682563   -6.7648154     376.8023  0.024061449  0.023829851           26 
 1306000   0.72024143   -6.7741202    376.64559  0.024033026  0.023811353           14 
 1307000   0.72964565   -6.7482503     377.3377  0.024058767  0.023792816            8 
 1308000   0.73587909   -6.7651948     376.7178  0.024000879  0.023774313           14 
 1309000   0.73530725   -6.7672825    376.63588  0.023977329  0.023755805            9 
 1310000   0.74643378   -6.7683152    376.98457  0.023981207  0.023737308           16 
 1311000   0.72143659   -6.7451903    377.69351  0.024007978  0.023718822           38 
 1312000   0.72840719   -6.7523822    377.64806  0.023986792  0.023700363           15 
 1313000    0.7311332   -6.7493113    377.73404  0.023973981  0.023681921            9 
 1314000     0.729456   -6.7672338    376.27748  0.023863361  0.023663481           17 
 1315000   0.73111849   -6.7709784    376.59691  0.023865457  0.023645014           17 
 1316000   0.72415331   -6.7785626    376.27425   0.02382689  0.023626521           25 
 1317000   0.72016055    -6.751567    377.65317   0.02389605   0.02360807           13 
 1318000   0.70905678   -6.7363211     377.6088  0.023875114   0.02358973           14 
 1319000   0.73159572   -6.7643076    377.03562    0.0238208  0.023571488           12 
 1320000   0.71615456   -6.7597647    376.88304  0.023793121   0.02355321            8 
 1321000   0.72260799   -6.7460401    377.41467  0.023808647  0.023534895           11 
 1322000   0.73499819    -6.785747    376.56035  0.023736784   0.02351647           11 
 1323000   0.73156421   -6.7630258    376.58513  0.023720404  0.023498008           10 
 1324000   0.72383556   -6.7743374    376.62413  0.023704943  0.023479651           17 
 1325000   0.73303797   -6.7413519    377.51574  0.023743129  0.023461275           19 
 1326000   0.72357927   -6.7687067    376.81295  0.023681055  0.023443005           18 
 1327000   0.72998241   -6.7728897    377.63653  0.023714929  0.023424676           12 
 1328000   0.71299415    -6.764954    377.48296  0.023687435  0.023406368           15 
 1329000   0.74045741   -6.7860564     376.8688  0.023631101  0.023388157           13 
 1330000   0.70551639   -6.7889459    376.74226  0.023605405   0.02336993           12 
 1331000   0.73262036   -6.7800376     378.2336  0.023681042  0.023351611            9 
 1332000   0.72181049   -6.7787609    377.83654  0.023638422  0.023333354           10 
 1333000   0.71669078   -6.8001111    377.90172  0.023624764  0.023315137           18 
 1334000    0.7264134   -6.7799867    378.46828  0.023642446  0.023296894           22 
 1335000   0.71195964   -6.7787766     377.6656  0.023574631  0.023278669           23 
 1336000   0.72302821   -6.8039425    377.57628  0.023551415  0.023260362           17 
 1337000    0.7284569    -6.804956    377.80712  0.023548187  0.023242022           14 
 1338000   0.72282194   -6.8105777    376.84317  0.023470551  0.023223738           11 
 1339000   0.72322437   -6.8197631    377.16492  0.023473047  0.023205423           26 
 1340000   0.71377843   -6.8096206    377.29718  0.023463755  0.023187062           25 
 1341000   0.71813387   -6.8043097    376.52495  0.023398269  0.023168727           39 
 1342000   0.72566004   -6.7942228    377.50227  0.023441522  0.023150437           23 
 1343000   0.71160999   -6.8278538    376.58338   0.02336705  0.023132094           37 
 1344000   0.72065726   -6.8160193     376.3525  0.023335348  0.023113715           53 
 1345000   0.71300338   -6.8076809    377.51881  0.023390261  0.023095417           51 
 1346000   0.71996621   -6.8254485      378.143  0.023411528  0.023077206           37 
 1347000   0.70393083   -6.8445489    377.27249  0.023340293  0.023058862           20 
 1348000   0.73307726   -6.8040799     376.7116  0.023288304   0.02304061           26 
 1349000   0.70434232   -6.8102389    377.28518  0.023306472  0.023022293           18 
 1350000   0.71967707   -6.8068554    377.10539   0.02327811  0.023004091           16 
 1351000   0.73026614   -6.8140034    377.05105  0.023257529  0.022985849           37 
 1352000   0.72430515   -6.8409738    377.44816  0.023264802  0.022967665           28 
 1353000   0.72242932   -6.7958937    378.09006  0.023287143  0.022949547           13 
 1354000   0.70296489   -6.8124533     377.6388  0.023242171  0.022931447           28 
 1355000   0.70557483   -6.8416074    377.28089  0.023203007  0.022913218           12 
 1356000   0.71965969   -6.8297202    377.64796  0.023208454  0.022894973           14 
 1357000   0.69997122   -6.8219281    377.53185  0.023184221  0.022876807           20 
 1358000   0.70835199   -6.8299877     377.4616  0.023162838  0.022858725           12 
 1359000   0.69592655   -6.8202179    377.89688  0.023172485  0.022840619           11 
 1360000   0.70201724   -6.8277796    377.53811  0.023133463  0.022822519           14 
 1361000   0.70544255   -6.8219279    377.44522  0.023110778  0.022804417           13 
 1362000   0.71891693   -6.8128425    377.19772  0.023078666  0.022786278            9 
 1363000   0.70432764   -6.8206527    377.68154  0.023091314  0.022768117           19 
 1364000   0.72500718   -6.8017348    377.95353  0.023091003  0.022749985           27 
 1365000    0.7041844   -6.8443211    377.20817  0.023028582  0.022731838           17 
 1366000    0.7002801   -6.8250197    377.87225  0.023052236  0.022713789           15 
 1367000   0.71226231   -6.8097024    377.19806  0.022994273  0.022695689            9 
 1368000   0.71442449   -6.8551349    376.70889  0.022947666  0.022677569            9 
 1369000   0.71726581    -6.825838    377.15243  0.022957903  0.022659442            5 
 1370000   0.71653749   -6.8410171    376.62963  0.022909345  0.022641251           12 
 1371000   0.70835149   -6.8580325    376.82933  0.022904773  0.022622966           17 
 1372000   0.69943845   -6.8583355    376.40486  0.022862297  0.022604752           21 
 1373000   0.70759277   -6.8381363    377.42053  0.022907291  0.022586466           10 
 1374000   0.68772954   -6.8198513    376.65434   0.02284415  0.022568187           16 
 1375000   0.70762984   -6.8331163     376.5582  0.022821709  0.022549999           19 
 1376000   0.68955794   -6.8262327     375.9806  0.022770143  0.022531759           21 
 1377000   0.71809105   -6.8197822    377.50555  0.022845894  0.022513531           23 
 1378000   0.69654088   -6.8455392    376.66139  0.022778265  0.022495229           20 
 1379000   0.69802663   -6.8225727    377.42136  0.022807672   0.02247697           17 
 1380000   0.69836223   -6.8535185    377.47311   0.02279427  0.022458774           33 
 1381000   0.69846364   -6.8319728    377.26628  0.022765284  0.022440604           11 
 1382000   0.68465083   -6.8566981    376.55602  0.022705983  0.022422421           18 
 1383000   0.70272046   -6.8767552    376.13895  0.022664434  0.022404251           16 
 1384000   0.70390212   -6.8430071    376.91291   0.02269466  0.022386162           12 
 1385000   0.71235445   -6.8462611    376.82113  0.022672751  0.022368103           11 
 1386000   0.69992512   -6.8385707    376.84811  0.022658015  0.022350069           20 
 1387000   0.69716136   -6.8599703    376.71171  0.022633484   0.02233206           18 
 1388000   0.69460652   -6.8665689    376.33663  0.022594658  0.022314061           12 
 1389000      0.70733   -6.8473697    377.50543  0.022648514  0.022296046           14 
 1390000   0.70015454     -6.84038    377.06415  0.022605764  0.022277981           16 
 1391000   0.70129817   -6.8641186     376.5327  0.022557675  0.022259938           12 
 1392000   0.69925536   -6.8530645    376.94388  0.022566085  0.022241909           12 
 1393000   0.68981455   -6.8453557    377.64568  0.022591869  0.022223908           10 
 1394000    0.6900643   -6.8361211    377.50357  0.022567167  0.022205923           17 
 1395000   0.68856893   -6.8518617    377.01053  0.022521537  0.022187899           15 
 1396000   0.70513434   -6.8847316    376.27965  0.022461775    0.0221699           18 
 1397000     0.690971   -6.8684175    377.65809  0.022527922  0.022151942           30 
 1398000   0.68627984   -6.8795008     378.1643  0.022541983  0.022134024           18 
 1399000   0.69974951   -6.8832896    378.22314  0.022529375  0.022116174           13 
 1400000   0.69414855   -6.8549044    377.35566  0.022461646  0.022098325           27 
 1401000   0.68456712   -6.8735809    378.31787  0.022502847  0.022080516           15 
 1402000   0.68060645   -6.8701873    376.61206  0.022385405  0.022062632           14 
 1403000   0.69089219   -6.8747828    376.58087  0.022367598  0.022044752           14 
 1404000   0.69409153   -6.8504984     377.7978  0.022423896  0.022026942           17 
 1405000   0.70159862   -6.8584901    377.80597   0.02240842  0.022009123           16 
 1406000   0.68889068   -6.8858978    376.50277  0.022315243  0.021991223           15 
 1407000   0.69175653   -6.8873357    377.59035  0.022363797  0.021973252           20 
 1408000   0.70693968   -6.9121641    377.31192  0.022331434  0.021955388           28 
 1409000   0.68173543   -6.8783282    376.52714  0.022269171  0.021937517           12 
 1410000   0.68881879   -6.8802618    377.35158  0.022302103  0.021919659           16 
 1411000   0.68401531   -6.8869182    376.41344  0.022230891  0.021901791           15 
 1412000    0.6945186   -6.8638033    377.38079  0.022272237  0.021883979           24 
 1413000   0.69271486   -6.9066279    376.65246  0.022213521  0.021866144           32 
 1414000   0.68704275   -6.8834657    378.18116  0.022287905  0.021848358           43 
 1415000    0.6877442   -6.9050208    376.76353  0.022188665  0.021830561           17 
 1416000   0.68117995   -6.8811295    376.69691  0.022169074  0.021812716           33 
 1417000   0.68467385   -6.8727605    376.57459  0.022146236  0.021794901           34 
 1418000   0.69517146   -6.8968929     376.6848  0.022137094  0.021777185           17 
 1419000   0.68594401   -6.8685138    376.26331  0.022096741  0.021759411           16 
 1420000   0.68425988   -6.8822373    377.74175  0.022167943  0.021741691           18 
 1421000   0.68045018   -6.8633798    377.37495  0.022130832  0.021723972           21 
 1422000   0.69106421   -6.9066472    376.44788   0.02206094  0.021706249           23 
 1423000   0.68539774   -6.8929714    376.90413  0.022072155  0.021688523           15 
 1424000   0.68413088   -6.9053728    377.41094  0.022086314  0.021670771           21 
 1425000   0.68787795   -6.9224404     376.3769  0.022010345  0.021653035           30 
 1426000   0.68713352   -6.9103019    376.30668  0.021990806  0.021635249           14 
 1427000   0.68933461   -6.8772237    376.91376  0.022010848  0.021617519           28 
 1428000   0.67574952   -6.9029951    377.30762  0.022018419  0.021599786           28 
 1429000   0.68274514   -6.8957677    378.05834  0.022046789  0.021582075           29 
 1430000   0.69100088    -6.915332    377.03994  0.021972024  0.021564374           28 
 1431000   0.67787571   -6.9075076    377.23828  0.021968221  0.021546683           34 
 1432000   0.68374293   -6.8920711    377.55783  0.021971475  0.021529009           15 
 1433000   0.68244324   -6.8816137    378.02489  0.021983303  0.021511386           31 
 1434000   0.69128284   -6.8823889    377.79977  0.021954891  0.021493884           15 
 1435000   0.69097223   -6.9235897    377.42728  0.021917961  0.021476391           34 
 1436000    0.6826282   -6.8964408     377.7562  0.021921785  0.021458846           40 
 1437000   0.66227655   -6.9147058    377.03819  0.021864891  0.021441359           54 
 1438000   0.66714387   -6.9027046    377.06323  0.021851138  0.021423841           39 
 1439000   0.68812059   -6.9412896     377.5556  0.021864466  0.021406415           29 
 1440000   0.68639181   -6.9170146    378.03908  0.021877261  0.021388993           26 
 1441000   0.68084511   -6.9206657    377.27245  0.021817745  0.021371599           30 
 1442000   0.68816483   -6.8680984    378.39204  0.021867316  0.021354284           30 
 1443000    0.6839548   -6.8870889    379.05364   0.02189037  0.021337036           26 
 1444000   0.67968568   -6.9133272    377.95409  0.021811755  0.021319757           19 
 1445000   0.69867132   -6.9168983    377.88271  0.021792544  0.021302491           25 
 1446000   0.67305196   -6.9184943    378.58979  0.021818222  0.021285106           43 
 1447000   0.66259157   -6.9061849    377.79887  0.021757594  0.021267683           36 
 1448000   0.67106526   -6.9193601    377.42663  0.021721146  0.021250289           37 
 1449000   0.68969756   -6.9056745     377.9313  0.021735179  0.021232935           31 
 1450000    0.6971488   -6.9134072    377.77442  0.021711173  0.021215608           53 
 1451000   0.68878801   -6.9000697    377.50894  0.021680964  0.021198305           30 
 1452000   0.66608829   -6.9224312    377.38689  0.021659027  0.021180996           58 
 1453000   0.67420796   -6.9299515    377.72251   0.02166337  0.021163692           40 
 1454000   0.67105575   -6.9101793    378.74898    0.0217073  0.021146426           44 
 1455000   0.66250752   -6.9074314    377.95597  0.021646963  0.021129204           50 
 1456000   0.67950533   -6.9218628    378.09591  0.021640105  0.021111935           28 
 1457000   0.67863364   -6.9562662    376.98891  0.021561937  0.021094665           56 
 1458000   0.66707244   -6.9442959     377.7599  0.021591215  0.021077406           74 
 1459000   0.66910407   -6.9453084    377.19003  0.021543867  0.021060082           78 
 1460000   0.65978063   -6.9528264     377.4324  0.021542945  0.021042797           65 
 1461000   0.66542661   -6.9350879    377.83461  0.021551141  0.021025528           75 
 1462000   0.67574262   -6.9617789    377.20693  0.021500623  0.021008237           69 
 1463000   0.67971026   -6.9577124    376.79497  0.021462461  0.020990931           88 
 1464000   0.67351771   -6.9689215    377.39029  0.021481688  0.020973708           67 
 1465000   0.67364471   -6.9435307    377.46775  0.021471431  0.020956509           64 
 1466000   0.67196945    -6.937641    376.94147  0.021426868  0.020939334          101 
 1467000   0.66106383   -6.9479773    377.47794  0.021442737  0.020922138           66 
 1468000   0.66521427   -6.9396746    377.12834  0.021408285  0.020904907           76 
 1469000   0.66586722   -6.9319708    378.33886  0.021462381  0.020887729           47 
 1470000   0.67676268   -6.9651231    377.46677  0.021398343  0.020870583           78 
 1471000   0.67790666   -6.9666448    376.45044   0.02132622  0.020853456           59 
 1472000   0.67777478    -6.946769    377.50421  0.021371389  0.020836337           52 
 1473000   0.66942762   -6.9542759     377.5248  0.021358045   0.02081919           69 
 1474000   0.66321519   -6.9320587    377.39348  0.021336131  0.020802105           51 
 1475000   0.66586666   -6.9303375    377.71234   0.02133968  0.020785067           31 
 1476000   0.66395678    -6.931998    377.38207  0.021306576  0.020768046           17 
 1477000   0.68088597   -6.9449187    378.21722   0.02133927  0.020751013           24 
 1478000    0.6499646    -6.928367    377.50705  0.021284791     0.020734           36 
 1479000   0.68323777   -6.9267444    379.17517  0.021364389  0.020717078           42 
 1480000   0.66470454   -6.9427794    377.64814  0.021263972  0.020700113           34 
 1481000   0.66704542   -6.9263672     377.8441  0.021260641  0.020683211           29 
 1482000   0.67009206   -6.9659516    378.04482  0.021257581  0.020666246           32 
 1483000   0.67535997   -6.9473333    377.83921  0.021231693  0.020649287           22 
 1484000    0.6695198    -6.967473      377.813  0.021215914  0.020632345           19 
 1485000   0.65174689   -6.9532759    377.17457  0.021165801  0.020615454           20 
 1486000    0.6626241   -6.9496063    378.88148  0.021247279  0.020598562           42 
 1487000   0.66042311   -6.9539959    377.51362  0.021156334  0.020581608           49 
 1488000   0.65432406   -6.9772715     377.2766  0.021128842  0.020564706           28 
 1489000   0.66102847   -6.9829849    377.75815  0.021141603  0.020547865           53 
 1490000   0.65666651   -6.9765591    377.23085  0.021097922  0.020530925           29 
 1491000   0.66315942   -6.9839241    376.89998  0.021065279  0.020513955           44 
 1492000   0.64222016   -6.9607493    377.66988  0.021094162  0.020497061           40 
 1493000    0.6656686   -6.9779463    377.92506  0.021094276  0.020480229           53 
 1494000   0.65038932   -6.9593283    377.96101  0.021082162  0.020463403          107 
 1495000   0.65791624    -6.999454    377.48303  0.021041417  0.020446604           71 
 1496000   0.66171564   -6.9685455    378.03856  0.021058298  0.020429826           40 
 1497000   0.66156459   -6.9682131    378.23207  0.021055003  0.020413056           71 
 1498000   0.65785631   -6.9858163    377.02695  0.020973907  0.020396319           76 
 1499000   0.65615326   -7.0034239    377.68942  0.020996744  0.020379563           34 
 1500000   0.65643042   -6.9996799    377.69692  0.020983162   0.02036281           52 
 1501000   0.65499128    -7.006779    377.15624  0.020939165  0.020346056           50 
 1502000   0.64633784   -6.9899529    377.35656  0.020936338  0.020329353          123 
 1503000   0.66560902   -6.9833993    378.42827  0.020981829  0.020312685           47 
 1504000   0.65754604   -6.9614831    378.69145  0.020982461  0.020296084           55 
 1505000   0.64464944   -6.9622188    378.12882  0.020937366  0.020279537           40 
 1506000   0.63857848   -6.9804033    378.31093  0.020933539   0.02026297           40 
 1507000   0.63417455   -6.9806519    378.79464  0.020946397  0.020246431           35 
 1508000   0.66080835   -7.0071651    377.93103  0.020884783  0.020229876           47 
 1509000    0.6382285    -6.975834     378.0137  0.020875508  0.020213337           65 
 1510000   0.63668659   -6.9902007    378.95527  0.020913646   0.02019676           47 
 1511000   0.65983721   -6.9838701    378.67178   0.02088417  0.020180199           69 
 1512000   0.64592922   -6.9853809    378.45095  0.020858187  0.020163669           27 
 1513000   0.63935824   -6.9818816    378.23505   0.02083251  0.020147089           62 
 1514000   0.64279151    -6.991942    377.99631  0.020805609  0.020130545           42 
 1515000   0.64673228   -6.9853168    378.07387  0.020796142  0.020114022           36 
 1516000   0.64165804   -7.0112434     377.6088   0.02075686  0.020097515           19 
 1517000   0.66947974   -6.9867852     378.6745  0.020801719  0.020081029           32 
 1518000   0.65329198   -7.0058265    377.04054  0.020698317  0.020064476           34 
 1519000   0.64907911   -6.9832313    377.88471  0.020731002  0.020047965          109 
 1520000   0.64586667   -7.0104688    378.19272   0.02073425  0.020031491           37 
 1521000   0.62914767    -7.014499    377.66504  0.020691707  0.020015039           24 
 1522000   0.63480891     -6.97681    377.73479  0.020681931  0.019998568           53 
 1523000    0.6506216   -7.0148554    378.06583  0.020686465  0.019982124           32 
 1524000   0.65516562   -7.0188548    377.34547  0.020633501  0.019965711           65 
 1525000   0.63762896   -7.0092792    377.82156  0.020645987  0.019949346           44 
 1526000   0.64694618    -7.008254    378.81918  0.020686936  0.019932993           53 
 1527000   0.64076766   -7.0031914    377.18365  0.020584133   0.01991661           91 
 1528000   0.64369761   -6.9983795    378.44643   0.02063953  0.019900273           76 
 1529000   0.64276609    -7.000383    377.96618  0.020599857   0.01988395           53 
 1530000   0.64054568   -6.9992948    378.51725  0.020616408  0.019867604           83 
 1531000   0.65443129   -6.9933553    378.11931  0.020581282   0.01985134           94 
 1532000   0.64921514   -7.0194643    378.31084  0.020578266  0.019835092           76 
 1533000   0.64256593   -7.0019685    378.01882  0.020548968  0.019818847           53 
 1534000   0.64028104    -7.024992    378.55718  0.020564819  0.019802622           70 
 1535000    0.6432301   -7.0276347    377.93241  0.020517503  0.019786382          145 
 1536000   0.63211192   -7.0180837     377.9381  0.020504454  0.019770129           87 
 1537000   0.64499369   -6.9868772    378.50893  0.020522063  0.019753957           59 
 1538000   0.63472692   -7.0255691      377.505  0.020454324  0.019737778           89 
 1539000   0.63620975   -7.0122133    377.61761  0.020447131  0.019721591           77 
 1540000   0.63410198   -7.0162235    378.30621  0.020471115  0.019705424           61 
 1541000   0.62526534   -7.0198938    377.59261  0.020419241  0.019689261           42 
 1542000   0.63576413    -6.998258     377.4403  0.020397768  0.019673086           49 
 1543000   0.63478243   -7.0526106     376.9858  0.020360002  0.019656877           66 
 1544000   0.64138096   -7.0135973     378.3801  0.020422069  0.019640669          109 
 1545000   0.62524275   -7.0347677    377.70767  0.020372582  0.019624462           53 
 1546000   0.62306055   -7.0563115    377.08122  0.020325637  0.019608262           78 
 1547000   0.65074454   -7.0183059    377.58699  0.020339743   0.01959207           75 
 1548000   0.63373519   -7.0465734    377.32542  0.020312523  0.019575887           55 
 1549000   0.62933067   -7.0325987    377.25739  0.020295749  0.019559773           47 
 1550000    0.6218609   -7.0200539    378.38247  0.020343143  0.019543621           48 
 1551000   0.63832622   -7.0388978    377.89159  0.020303653  0.019527487           60 
 1552000   0.61532496   -7.0567168    376.62347   0.02022248   0.01951139           51 
 1553000   0.63805373   -7.0453866    377.28859  0.020245149  0.019495228           54 
 1554000   0.62658565   -7.0399718    378.16568  0.020279155  0.019479155           42 
 1555000   0.65496466   -7.0355198    378.24781  0.020270515  0.019463078           47 
 1556000   0.62250387   -7.0429903     377.7453  0.020230575  0.019446972           45 
 1557000   0.63709851   -7.0551772    377.65691  0.020212851  0.019430848           39 
 1558000   0.63350746   -7.0517349    377.58217   0.02019588  0.019414763           53 
 1559000   0.64110902   -7.0585948    376.83354  0.020142909  0.019398709           44 
 1560000    0.6355407   -7.0499968     377.1751  0.020148242  0.019382623           65 
 1561000    0.6272329   -7.0556609    377.05542  0.020128946  0.019366543           58 
 1562000    0.6408873   -7.0494074    377.60931   0.02014561  0.019350489           48 
 1563000   0.63074467   -7.0570262    376.78813  0.020088939  0.019334437          102 
 1564000   0.63660213   -7.0505592    377.84315  0.020132308  0.019318424           32 
 1565000   0.63796387   -7.0665842      376.358  0.020040362  0.019302439           45 
 1566000   0.62035906    -7.084878    376.87115  0.020054872  0.019286419           79 
 1567000    0.6389493   -7.0611047    376.31486   0.02001249  0.019270387           39 
 1568000   0.62202585   -7.0706318    377.22714  0.020048211  0.019254423           59 
 1569000   0.63325858   -7.0741091    377.93626  0.020073097  0.019238531           74 
 1570000   0.62384499   -7.0687442    376.36956  0.019977153  0.019222612           53 
 1571000   0.63040546   -7.0653988    378.34668  0.020069313  0.019206688           45 
 1572000    0.6269697   -7.0815804    376.92179  0.019981011  0.019190788           87 
 1573000   0.62830667   -7.0736051    377.20045  0.019983071  0.019174893           42 
 1574000   0.62302629   -7.0528043    376.86839  0.019952795   0.01915901           51 
 1575000   0.62679722   -7.0576186    377.74948  0.019986745  0.019143165           40 
 1576000   0.61668499   -7.0589531    377.50042  0.019960894  0.019127315           27 
 1577000   0.62422671   -7.0850117    377.44652  0.019945388  0.019111498           29 
 1578000   0.63297766    -7.053417    376.64919  0.019890641  0.019095667           49 
 1579000   0.61928822   -7.0818914     376.6367  0.019877386  0.019079839           67 
 1580000   0.62368881   -7.0740759    376.79493   0.01987315  0.019063988          115 
 1581000   0.60558257   -7.0650573    377.92043  0.019919905  0.019048163           53 
 1582000   0.60332721   -7.0824342    376.11131  0.019812016  0.019032346          121 
 1583000   0.61623332   -7.0578246    377.25397  0.019859653  0.019016541          106 
 1584000   0.61886543   -7.0880879    377.38529  0.019854024  0.019000737           44 
 1585000   0.60891233   -7.0680489    376.97168  0.019819752  0.018984978           66 
 1586000   0.61615146   -7.0631833    377.98994  0.019860758  0.018969276          117 
 1587000   0.60858193   -7.0776747    376.98034  0.019795229   0.01895354          160 
 1588000   0.62827136   -7.0777367    377.13491  0.019790875   0.01893786          104 
 1589000   0.61843134   -7.0811889    377.31888  0.019788068  0.018922184          104 
 1590000   0.62422364   -7.0682531    377.48483   0.01978432  0.018906525           55 
 1591000   0.62799373    -7.090592     377.4608  0.019770626  0.018890841          135 
 1592000   0.63019744   -7.0886889    376.88081  0.019727848  0.018875211           35 
 1593000    0.6149064   -7.1003892    376.33829  0.019687083  0.018859539           52 
 1594000   0.62434104   -7.0840941    377.32528  0.019726332  0.018843879          115 
 1595000   0.61403581   -7.0731535    376.29963  0.019660378  0.018828223          116 
 1596000   0.61859412   -7.0786691    377.07563  0.019688577  0.018812626           42 
 1597000   0.61880952   -7.1049186    377.20295  0.019682892  0.018796998           78 
 1598000   0.61502565   -7.0929019    377.10859  0.019665654  0.018781403           57 
 1599000   0.61580978   -7.0774058    377.29944  0.019663302  0.018765873          127 
 1600000   0.61774937   -7.1137077    376.10712  0.019588912  0.018750336           83 
 1601000   0.60987786   -7.0915626    376.80116  0.019612803   0.01873478           73 
 1602000   0.62254382   -7.1068892    377.36402  0.019629839  0.018719251          112 
 1603000    0.6078305   -7.1041117    376.73972  0.019585138  0.018703725           76 
 1604000   0.61471191    -7.095451    377.33031  0.019603611  0.018688198          189 
 1605000   0.61910485   -7.0929188    377.91567   0.01962179  0.018672677           54 
 1606000   0.62113818    -7.106396    376.43038  0.019532502  0.018657209           78 
 1607000   0.60425537   -7.1092433    376.57286  0.019527736  0.018641724          102 
 1608000    0.6094257   -7.1060129    377.54004  0.019565715  0.018626218           70 
 1609000   0.62061734   -7.1297614    375.96949  0.019472213  0.018610691           82 
 1610000   0.60770053   -7.0981662    376.92794  0.019509728  0.018595266           93 
 1611000   0.60132623   -7.1200015    377.46774   0.01952554  0.018579856           65 
 1612000   0.61450471   -7.0860666     377.3509  0.019507387    0.0185645           80 
 1613000   0.60695069   -7.1067061    376.84787  0.019469305  0.018549158           90 
 1614000   0.60101038   -7.1113764    377.19533  0.019475182  0.018533817           68 
 1615000   0.60998261   -7.1154102    376.84315  0.019444951   0.01851846           78 
 1616000   0.60403093   -7.1081441    376.94186  0.019438009  0.018503144           36 
 1617000   0.60334375   -7.1198885     376.9334  0.019425551  0.018487866          120 
 1618000   0.60534213   -7.1126081    376.75813  0.019404518  0.018472599          142 
 1619000    0.6079992   -7.1023702    377.04532  0.019407315  0.018457326          129 
 1620000   0.60349726   -7.0972468     377.1533   0.01940089  0.018442059           74 
 1621000    0.5942538    -7.116637    377.00776  0.019381439  0.018426843           77 
 1622000    0.6012866   -7.1003951     377.4199  0.019390665  0.018411667           94 
 1623000   0.60489199   -7.0837541    376.83563  0.019348718  0.018396489           70 
 1624000   0.59945368    -7.089567    377.29713  0.019360485  0.018381295           74 
 1625000   0.59554863   -7.1198718    376.60967  0.019313316  0.018366092           83 
 1626000   0.60464711   -7.0847515    376.71713  0.019306946  0.018350873           87 
 1627000   0.60606926    -7.110295    377.20362  0.019319997  0.018335651          109 
 1628000   0.62352999   -7.0953981    377.92002  0.019344801  0.018320483           71 
 1629000   0.60035207   -7.1148211    376.39326  0.019254822  0.018305306           82 
 1630000   0.59583743   -7.0947841    376.89428  0.019268623  0.018290144          109 
 1631000    0.6084952   -7.1247188    377.05606  0.019265076  0.018274975          151 
 1632000   0.60102916   -7.1367207    376.29855  0.019214591  0.018259793          178 
 1633000   0.60113397   -7.1131371     376.5249  0.019214375  0.018244614          360 
 1634000   0.60687538   -7.1219194     376.5321  0.019202983  0.018229445          117 
 1635000   0.59969017   -7.1162736    376.94555  0.019212311  0.018214295          145 
 1636000    0.5965631   -7.1214917    376.12196  0.019158616  0.018199157          119 
 1637000    0.5870237   -7.1276635     376.4916   0.01916573  0.018184025          128 
 1638000   0.58918523   -7.1376435    377.01003  0.019180404  0.018168921          216 
 1639000   0.59820241   -7.1139316    376.66404   0.01915111  0.018153819          105 
 1640000   0.59168681     -7.13204    376.05224  0.019108345  0.018138718          216 
 1641000   0.58653452   -7.1246383    376.28184  0.019108361  0.018123604          118 
 1642000   0.58947651   -7.1400341    376.48888  0.019107231  0.018108503          260 
 1643000   0.58664856    -7.142553     376.3238  0.019087228  0.018093433          173 
 1644000   0.58070063   -7.1361195      376.117  0.019065136  0.018078387          160 
 1645000   0.59932443   -7.1489825    376.29014  0.019062317  0.018063344          367 
 1646000   0.60268278   -7.1496701    376.72888  0.019072949  0.018048317          117 
 1647000   0.59995967   -7.1203993    376.57074  0.019053367  0.018033301          179 
 1648000   0.59078589   -7.1404342    376.31893  0.019029072  0.018018336          177 
 1649000   0.60105121   -7.1272538     376.6359  0.019033551   0.01800333           79 
 1650000   0.58228508   -7.1379341    376.66309  0.019023388  0.017988345          132 
 1651000   0.59555437   -7.1326594    377.04859  0.019031324  0.017973428          202 
 1652000   0.61569473   -7.1179438    375.79632  0.018956634  0.017958499          245 
 1653000   0.59687923   -7.1089723     377.0508  0.019008409  0.017943564          130 
 1654000   0.58335364   -7.1293892     376.8651   0.01898756  0.017928649          131 
 1655000   0.59947983   -7.1326858    375.67855  0.018916342  0.017913716          135 
 1656000   0.60277752   -7.1383852    376.88409  0.018965584   0.01789879          222 
 1657000   0.57712909   -7.1431165    375.34154  0.018876561   0.01788389          186 
 1658000   0.59601225   -7.1488722    375.76036  0.018886226  0.017868956          271 
 1659000   0.56813462   -7.1473882     376.4802  0.018911001  0.017854011          259 
 1660000   0.59335037   -7.1583621     375.6063  0.018855738  0.017839057          287 
 1661000   0.58437817   -7.1662885    376.08469  0.018868387  0.017824124          255 
 1662000   0.58616622   -7.1610594     375.4597  0.018825697  0.017809224          375 
 1663000   0.59210963   -7.1577383    375.22597  0.018802664  0.017794318          305 
 1664000   0.57997273   -7.1526953    375.23627   0.01879188  0.017779447          371 
 1665000    0.5876393    -7.175974    375.38501  0.018788039  0.017764569          379 
 1666000   0.59504897   -7.1688334    375.66102  0.018790567  0.017749695          180 
 1667000   0.59228886    -7.169769    375.03166  0.018747833  0.017734838          258 
 1668000   0.58362843   -7.1780103     375.2327  0.018746638  0.017720009          461 
 1669000   0.57688893   -7.1832748    375.48044  0.018747775  0.017705161          398 
 1670000   0.59105746   -7.1847721    375.04778  0.018714959  0.017690321          303 
 1671000   0.58961678   -7.1756893    375.66872  0.018734726  0.017675475          391 
 1672000   0.59152303   -7.1676141    375.98084  0.018739077  0.017660657          432 
 1673000   0.57275591   -7.1938478    375.10295  0.018684148  0.017645852          485 
 1674000   0.57777546   -7.1910638    374.93567  0.018664659  0.017631041          372 
 1675000    0.5818753   -7.1958181    375.84981  0.018698995  0.017616245          440 
 1676000   0.58346211   -7.1773602    375.74806  0.018682779  0.017601444          477 
 1677000   0.57291529   -7.1958306    375.03808  0.018636359  0.017586663          483 
 1678000   0.58611262   -7.1869313    375.50658  0.018648519  0.017571909          541 
 1679000   0.57725597   -7.1665753    375.89441  0.018656661  0.017557199          457 
 1680000   0.56859284   -7.2070544    375.17918  0.018610078   0.01754249          549 
 1681000   0.57438471   -7.2069038    375.13798  0.018596965  0.017527769          540 
 1682000   0.59277307   -7.1665276     375.9449  0.018625887   0.01751307          536 
 1683000   0.57715264   -7.1981259    375.76594  0.018605959  0.017498382          441 
 1684000   0.58506821   -7.1838328    375.46973  0.018580252  0.017483739          474 
 1685000   0.58969239   -7.1977142    375.94962  0.018592958  0.017469089          494 
 1686000   0.58444715   -7.1924382    375.16328  0.018543065  0.017454481          380 
 1687000   0.58403172   -7.2047172     375.3519   0.01854139  0.017439863          328 
 1688000   0.56512772   -7.2070696    375.38604  0.018532091  0.017425274          473 
 1689000   0.58577759    -7.197984    375.85161   0.01854409  0.017410699          479 
 1690000   0.58431628   -7.1842098    375.31557  0.018506685   0.01739612          416 
 1691000   0.57538428   -7.2065846    375.26569  0.018493282  0.017381566          445 
 1692000   0.57453969   -7.2234117    374.54078   0.01844665  0.017367003          583 
 1693000   0.59418336   -7.1984269    375.13646  0.018465075  0.017352455          446 
 1694000   0.56952146   -7.2032412    375.14667  0.018454677  0.017337878          595 
 1695000   0.56947838   -7.1939906    374.61523  0.018417661  0.017323332          528 
 1696000    0.5680338   -7.2237438    375.06575  0.018428938  0.017308806          533 
 1697000   0.56490694   -7.2157072    375.23664   0.01842647  0.017294307          539 
 1698000   0.57767179   -7.2074822    375.26375  0.018416949  0.017279812          517 
 1699000   0.57993932   -7.2152321    375.07419  0.018396812   0.01726533          524 
 1700000   0.57946545   -7.2176367    375.08534  0.018386536  0.017250866          549 
 1701000   0.57872253   -7.2172547    374.55941  0.018349961  0.017236405          480 
 1702000   0.57400709   -7.2065982    375.32975  0.018376897   0.01722196          566 
 1703000   0.56560997   -7.2253041    375.15166  0.018357392  0.017207539          568 
 1704000   0.58229723   -7.2068403    375.45592  0.018361498  0.017193123          572 
 1705000   0.56416292   -7.1926208    375.38409  0.018347219  0.017178729          540 
 1706000   0.57261241   -7.2010623    374.91973  0.018313781  0.017164324          613 
 1707000    0.5627871   -7.2219091    375.13193  0.018313412  0.017149948          576 
 1708000   0.57688855   -7.2265876    374.26722  0.018260501   0.01713555          652 
 1709000    0.5587725   -7.2218577    375.05095  0.018288031  0.017121143          559 
 1710000   0.57773109    -7.223597    374.24028   0.01823783  0.017106726          557 
 1711000   0.57245717   -7.2267508    374.53797   0.01824167  0.017092373          591 
 1712000   0.56582215   -7.2471675    374.85163  0.018246282  0.017078028          689 
 1713000   0.56914721   -7.2056539    374.95975  0.018240891  0.017063698          607 
 1714000    0.5672495   -7.2384436    374.75047  0.018220073   0.01704937          729 
 1715000   0.57202488   -7.2160992    374.98692  0.018220939  0.017035093          599 
 1716000   0.56644534   -7.2263506    375.47696  0.018234118  0.017020832          571 
 1717000   0.57182445   -7.2461686    374.48024  0.018175123  0.017006586          659 
 1718000   0.57850482   -7.2231395    374.89469  0.018184647  0.016992342          730 
 1719000   0.55765236   -7.2215133     375.3476  0.018196025  0.016978108          641 
 1720000   0.56279965   -7.2308338    374.60932  0.018149676  0.016963885          707 
 1721000   0.57359199   -7.2294232    375.33343  0.018174193  0.016949655          650 
 1722000   0.56156221   -7.2355042    375.17981  0.018156205   0.01693545          682 
 1723000   0.55845528   -7.2317804    374.56226  0.018115799  0.016921206          668 
 1724000   0.56156793   -7.2364182    374.62853  0.018108494  0.016906995          803 
 1725000   0.56525758   -7.2338049    374.13002  0.018073914  0.016892807          792 
 1726000    0.5682626   -7.2434761    373.48149  0.018032131  0.016878602          722 
 1727000   0.55976358   -7.2392924    374.35086  0.018063639  0.016864418          808 
 1728000   0.55500575   -7.2273245    374.55927  0.018063236  0.016850255          814 
 1729000   0.55557935   -7.2327083    374.19388  0.018035178  0.016836101          794 
 1730000     0.573278   -7.2462271    374.43109   0.01803618  0.016821969          833 
 1731000   0.56630248   -7.2248856     374.6847  0.018037969  0.016807845          707 
 1732000    0.5728842   -7.2127619    374.13156  0.018000941  0.016793748          764 
 1733000   0.55367292   -7.2485018    374.22708  0.017995147  0.016779683          844 
 1734000   0.56609537   -7.2411564    374.17685  0.017982355  0.016765612          811 
 1735000   0.55654687    -7.243165     374.1021    0.0179684  0.016751548          741 
 1736000   0.56097638   -7.2563476    373.63775   0.01793576  0.016737485          718 
 1737000   0.56460363   -7.2530495    374.23679  0.017954174  0.016723448          751 
 1738000   0.55359516   -7.2286753    374.43983  0.017953578  0.016709446          795 
 1739000   0.57391249   -7.2447562     374.6238   0.01795207  0.016695444          881 
 1740000   0.56228684    -7.228485    374.51424  0.017936506  0.016681459          825 
 1741000   0.54580138   -7.2669876    374.49906  0.017925477  0.016667479          733 
 1742000   0.55862767   -7.2567154    373.80656  0.017882059  0.016653525          798 
 1743000    0.5515475   -7.2514692    374.15818  0.017888611  0.016639563          791 
 1744000   0.57122729   -7.2539142    374.16399  0.017878631  0.016625642          813 
 1745000   0.55856844   -7.2507302    374.13209  0.017866862  0.016611693          807 
 1746000   0.55421176   -7.2501372    374.48614  0.017873527  0.016597765          869 
 1747000   0.55833729   -7.2667319    373.48659  0.017815617  0.016583846          750 
 1748000   0.54686035    -7.261871    374.48992  0.017853257  0.016569934          820 
 1749000   0.55807775   -7.2511075    373.66179  0.017803592  0.016556042          840 
 1750000    0.5648647   -7.2649807    373.30912  0.017776625  0.016542158          877 
 1751000   0.53423298   -7.2457311    373.93759  0.017796383  0.016528283          790 
 1752000   0.56050524   -7.2362087    374.14626   0.01779615   0.01651443          810 
 1753000    0.5581406   -7.2403268    373.90005  0.017774294  0.016500593          752 
 1754000     0.549917   -7.2673991    373.67815  0.017753618  0.016486734          926 
 1755000   0.54580977   -7.2689074    373.64998  0.017742164  0.016472886          799 
 1756000   0.54246574   -7.2355266    373.76488  0.017737513  0.016459054          810 
 1757000   0.55236328   -7.2672759     373.1311  0.017697358  0.016445224          819 
 1758000   0.53918357   -7.2371251    374.62578  0.017758143  0.016431406          806 
 1759000   0.54712454   -7.2612943    373.49717  0.017694579  0.016417587          809 
 1760000   0.54604536   -7.2580286    372.94792  0.017658519  0.016403788          848 
 1761000   0.54025149   -7.2408983    373.89903  0.017693499  0.016390001          817 
 1762000   0.54896982   -7.2494398    374.09318   0.01769264  0.016376245          847 
 1763000   0.55296124   -7.2730195    373.67717  0.017662941  0.016362469          901 
 1764000    0.5463805   -7.2921287    374.36337  0.017685345  0.016348701          949 
 1765000   0.53881079   -7.2659167    373.18015  0.017619459  0.016334946          888 
 1766000   0.54523307   -7.2793701    373.16354  0.017608698  0.016321209          952 
 1767000   0.54567196     -7.27446    374.11018  0.017643378  0.016307472          942 
 1768000   0.55847091   -7.2651533    373.82971  0.017620179  0.016293764          962 
 1769000    0.5516551   -7.2714134    374.09225  0.017622586  0.016280093          910 
 1770000    0.5542367   -7.2817508    373.20165  0.017570699   0.01626643          935 
 1771000    0.5345218   -7.2889752    373.42608  0.017571338  0.016252747          974 
 1772000   0.53819348   -7.2777222    374.00653  0.017588719  0.016239091          955 
 1773000   0.54755916    -7.263853    373.79372  0.017568797  0.016225449          971 
 1774000   0.54752983   -7.2835775    373.16025  0.017529136  0.016211837         1065 
 1775000   0.54700569   -7.2723828    373.41946   0.01753143  0.016198217          963 
 1776000    0.5557741   -7.2792048    373.41066  0.017521146  0.016184626         1022 
 1777000   0.54126167   -7.3014562    373.79845  0.017529471   0.01617102          929 
 1778000   0.55298477   -7.2702874     373.3771  0.017499864  0.016157445          989 
 1779000   0.54458968   -7.2893072    373.68987  0.017504678  0.016143867          975 
 1780000   0.53898527      -7.2926     373.3998  0.017481264  0.016130309          978 
 1781000   0.54080342   -7.2627842     373.1231  0.017458502  0.016116761          982 
 1782000   0.54138326   -7.2880904    372.96992  0.017441541  0.016103222          966 
 1783000   0.54342906    -7.262968    373.93714  0.017476965  0.016089713          965 
 1784000    0.5479054   -7.2895019    372.56916  0.017403268  0.016076211          967 
 1785000    0.5403026   -7.3166724    373.05661  0.017416275  0.016062717          999 
 1786000   0.53687332   -7.2819692    373.46047  0.017425367  0.016049232          933 
 1787000   0.54107118    -7.278629    373.11575  0.017399541  0.016035758          980 
 1788000   0.54403498   -7.2745684    373.60631  0.017412673  0.016022312         1000 
 1789000   0.54072138   -7.2982169    373.48665  0.017397366   0.01600888          915 
 1790000   0.53932843   -7.2706257    372.94525  0.017362442  0.015995456          917 
 1791000   0.53197866   -7.2956704     373.6822  0.017387037  0.015982024          962 
 1792000   0.54592426   -7.3054875    372.81034   0.01733679  0.015968598         1017 
 1793000   0.54247825   -7.3001325    372.81356  0.017327271  0.015955196          947 
 1794000   0.53469387   -7.2968485    373.32801  0.017341509    0.0159418          966 
 1795000   0.54429371    -7.303882    373.34092  0.017332448  0.015928427          917 
 1796000   0.56120822   -7.3072877    373.12708  0.017312875  0.015915071          999 
 1797000    0.5407417   -7.2966414    372.58957  0.017278314  0.015901737          935 
 1798000   0.53674976   -7.3069952    372.97537  0.017286585  0.015888419         1031 
 1799000   0.53473253   -7.2836067    373.05635  0.017280728  0.015875101          909 
 1800000   0.52873109   -7.3167565    371.83402  0.017214538  0.015861794          986 
 1801000   0.53443702   -7.2982076    372.54172  0.017237725  0.015848494          900 
 1802000   0.52842012   -7.2939569    372.51581  0.017226961  0.015835211          990 
 1803000   0.54244303   -7.3049646    373.09426  0.017244142  0.015821941          947 
 1804000   0.52721573   -7.2976003    373.10845  0.017235239  0.015808668          888 
 1805000   0.52755567   -7.3127636    372.82734  0.017212712  0.015795425          974 
 1806000   0.54253122   -7.3006561    373.23804  0.017222132  0.015782202         1003 
 1807000   0.52844252   -7.2648717    373.27534  0.017214321   0.01576899          885 
 1808000   0.51532562   -7.2965164    373.77884  0.017228007   0.01575579          909 
 1809000   0.53502245   -7.2983456    373.02676  0.017183838  0.015742605         1040 
 1810000   0.52564464   -7.3139961    372.60394  0.017154877   0.01572946         1011 
 1811000   0.53989148   -7.3054597    373.05185  0.017166016  0.015716292          873 
 1812000   0.52381769   -7.3140862    372.60241  0.017135872  0.015703152          962 
 1813000   0.52942967   -7.2966438    372.99991  0.017144692  0.015690026          913 
 1814000   0.52050869   -7.3111591    373.39068  0.017153192  0.015676905          980 
 1815000   0.52588029   -7.2860722    372.70052  0.017112053  0.015663804          964 
 1816000   0.53554047   -7.3070979    373.44361   0.01713673  0.015650716          957 
 1817000   0.53642446   -7.3089155    371.87027   0.01705514  0.015637645          966 
 1818000   0.52476429   -7.3027013    373.19459  0.017106462  0.015624578          883 
 1819000     0.521884   -7.3159404     372.5187  0.017066094  0.015611503          954 
 1820000   0.52180923   -7.3099684    372.33417  0.017048268  0.015598453          938 
 1821000   0.53644233   -7.3336759    372.14031  0.017030034  0.015585412          882 
 1822000   0.52370319   -7.3162045    373.14551  0.017066663  0.015572404          984 
 1823000   0.52742445   -7.3224338    372.43165  0.017024668  0.015559396          960 
 1824000   0.52517695   -7.3292289    372.19586  0.017004562  0.015546398          883 
 1825000   0.52734457   -7.3222621    372.37862   0.01700359  0.015533427         1051 
 1826000   0.53001806   -7.3068219    372.96167  0.017020887  0.015520458          956 
 1827000   0.52601245   -7.3248746    373.06024  0.017016067  0.015507504          914 
 1828000    0.5240818   -7.3161257    372.19443  0.016967288  0.015494563          901 
 1829000   0.52654476   -7.3071245    372.30983  0.016963269   0.01548164          869 
 1830000   0.52850676   -7.3231482    373.12456    0.0169911  0.015468741          910 
 1831000   0.52311501   -7.3177661    373.10555  0.016980955  0.015455863          838 
 1832000   0.52505431   -7.3296135    372.56861  0.016947262   0.01544297          920 
 1833000   0.52831399    -7.334097    372.69219  0.016943635  0.015430095          948 
 1834000   0.51434189   -7.3337531    372.64194  0.016932113  0.015417235          845 
 1835000   0.52357121   -7.3291919      372.169  0.016901408  0.015404386          900 
 1836000   0.51521261   -7.3342042    373.31839  0.016944371   0.01539154         1009 
 1837000   0.51670224   -7.3268184    372.57393  0.016901376  0.015378736         1043 
 1838000   0.52156105   -7.3089146    372.34038  0.016881592  0.015365921          920 
 1839000   0.51736741   -7.3137298    372.22457  0.016867164  0.015353112          918 
 1840000   0.52783967   -7.3339352    372.48454  0.016869771  0.015340295          975 
 1841000   0.52142111   -7.3388354    371.40034  0.016811531  0.015327501         1017 
 1842000    0.5267021   -7.3485751     372.1104  0.016834528  0.015314717          978 
 1843000   0.51683309   -7.3319897    371.95015  0.016818147  0.015301966          979 
 1844000   0.50726909   -7.3339018    373.25632  0.016868055  0.015289212          871 
 1845000   0.51352757   -7.3351421    372.19366  0.016810915   0.01527649          972 
 1846000   0.52398058   -7.3321554    372.32795  0.016807871   0.01526376          996 
 1847000   0.51071057   -7.3513614    372.64933  0.016813271  0.015251041         1021 
 1848000   0.51132362   -7.3286437    372.47656  0.016796382  0.015238325          902 
 1849000   0.51510389   -7.3425604    372.40298  0.016783981  0.015225647          878 
 1850000   0.52206712   -7.3450896    372.61604  0.016784506  0.015212977          988 
 1851000   0.51301684   -7.3314724    372.30039  0.016761228  0.015200316          909 
 1852000   0.50657368   -7.3391624    372.40017  0.016756667  0.015187649         1027 
 1853000   0.52309356   -7.3470896    372.50602  0.016752384  0.015175022          999 
 1854000   0.50920744      -7.3359    372.51754  0.016743867  0.015162403          893 
 1855000    0.5026111    -7.352466    372.57224  0.016737297  0.015149787          887 
 1856000   0.50453122    -7.342612    372.45306  0.016722928  0.015137183         1023 
 1857000   0.51624529   -7.3478621    372.44801  0.016713696  0.015124568          904 
 1858000   0.50301193   -7.3439439    372.27353  0.016696875   0.01511197         1052 
 1859000   0.50142831   -7.3418749    372.06382  0.016678493  0.015099396          980 
 1860000   0.50984846   -7.3428894    372.39837  0.016684515   0.01508682         1031 
 1861000   0.51779597   -7.3286163    372.27301  0.016669936  0.015074276          976 
 1862000   0.51029185   -7.3432091    372.49523  0.016670929  0.015061749          964 
 1863000   0.50695501   -7.3335848    371.59453  0.016621691  0.015049228          995 
 1864000   0.50104053   -7.3488542    371.97894   0.01662996  0.015036738          981 
 1865000   0.51595691   -7.3511738    373.21021  0.016676059  0.015024263         1000 
 1866000   0.51397775   -7.3327099    371.82878  0.016605429  0.015011792         1003 
 1867000   0.50808922   -7.3445242    372.24073  0.016614923  0.014999341          993 
 1868000   0.50237546   -7.3517678    372.46946  0.016616232  0.014986875          989 
 1869000    0.5040342    -7.344622    371.95235  0.016584285  0.014974436          948 
 1870000   0.49669655    -7.334753    371.75347  0.016566554  0.014962032          956 
 1871000   0.51224946   -7.3388956     372.0577   0.01657125  0.014949636         1059 
 1872000   0.50708463   -7.3569044    372.12757  0.016565508  0.014937228          998 
 1873000   0.50494479   -7.3415303    371.63313  0.016534665  0.014924855         1002 
 1874000   0.51037698   -7.3440196    371.91874  0.016538542  0.014912492         1002 
 1875000   0.50120959   -7.3443213    372.18425  0.016541522   0.01490012          999 
 1876000   0.50290126   -7.3542769    371.69871  0.016511137  0.014887783         1048 
 1877000    0.5147246     -7.34213    372.08573  0.016519523  0.014875449         1101 
 1878000   0.51064791   -7.3596669     371.3496  0.016478062  0.014863117         1112 
 1879000   0.50691274   -7.3534767    372.04142  0.016499974    0.0148508         1079 
 1880000   0.50736954    -7.352046    371.78558  0.016479857  0.014838509         1027 
 1881000   0.50697555   -7.3577704    371.77177  0.016470484  0.014826221         1197 
 1882000    0.5024405   -7.3483023    372.10347   0.01647642  0.014813943         1074 
 1883000   0.50440435   -7.3583437    371.33338  0.016433589  0.014801669         1056 
 1884000   0.50179639    -7.371229    371.70469   0.01644129   0.01478942         1021 
 1885000   0.49180613    -7.359294    372.27418  0.016457744  0.014777178         1000 
 1886000   0.49622531   -7.3623235    371.64436  0.016421189  0.014764939         1067 
 1887000   0.49672491   -7.3558862    372.41993  0.016446738  0.014752723         1120 
 1888000   0.49521042   -7.3614953    372.36477  0.016435592  0.014740518         1045 
 1889000    0.4963387   -7.3718793    371.37793  0.016383357   0.01472832         1110 
 1890000    0.5018519   -7.3735402    371.74967  0.016391079  0.014716148         1084 
 1891000   0.50533399   -7.3840335    371.65107  0.016378066  0.014703976         1048 
 1892000   0.50608332   -7.3786923    372.20908  0.016393987  0.014691819         1172 
 1893000   0.49777903   -7.3525347    371.55722   0.01635663  0.014679664         1202 
 1894000   0.50658851   -7.3445493    371.20031  0.016332291  0.014667524         1228 
 1895000   0.49922272   -7.3692789     371.4907  0.016336442  0.014655402         1147 
 1896000    0.4962056   -7.3633602    371.84705  0.016343489  0.014643287         1095 
 1897000   0.49531242   -7.3622801    371.62106  0.016324946  0.014631185         1084 
 1898000   0.48787783     -7.38711    371.82312  0.016325216  0.014619083         1181 
 1899000   0.49284594   -7.3795478    371.18003  0.016288399  0.014606985         1162 
 1900000     0.490189    -7.380582    371.01548  0.016272609  0.014594893         1195 
 1901000   0.48321285   -7.3901385    370.79012   0.01625417  0.014582793         1194 
 1902000   0.49408056   -7.3591224    372.15998  0.016305642  0.014570721         1205 
 1903000   0.49614964   -7.3838813    371.49409  0.016267914  0.014558658         1254 
 1904000   0.50203518   -7.3783483    371.58885  0.016263517  0.014546594         1244 
 1905000   0.49898671    -7.377032    371.87963  0.016267701  0.014534539         1284 
 1906000   0.49658096   -7.3889626    371.62233  0.016247916  0.014522515         1285 
 1907000   0.48206879   -7.3848272    371.35995   0.01622793  0.014510484         1243 
 1908000   0.49391678   -7.3772532    371.44537  0.016223155  0.014498468         1260 
 1909000    0.4984059   -7.3860913    371.13155  0.016200958  0.014486474         1244 
 1910000   0.48886537   -7.3902453    370.64925  0.016171433  0.014474495         1261 
 1911000   0.49835078   -7.3770441    370.96124  0.016176576  0.014462521         1310 
 1912000   0.48864933   -7.3813969    371.74854   0.01620243  0.014450544         1336 
 1913000   0.50122386   -7.3677816    371.43907  0.016180479  0.014438583         1267 
 1914000   0.48234558   -7.3790051     371.1493  0.016159409  0.014426637         1295 
 1915000   0.49779763   -7.3699252    370.67569  0.016130361  0.014414712         1317 
 1916000   0.48687902   -7.3737364    370.73385  0.016124472  0.014402778         1259 
 1917000   0.49809495   -7.3906114    371.55377  0.016151703  0.014390869         1243 
 1918000   0.49253126   -7.3990193    371.12551  0.016124675  0.014378984         1262 
 1919000   0.50343716   -7.3908797    370.86996  0.016105175  0.014367083         1234 
 1920000    0.4866385   -7.3810431    371.13389  0.016108242  0.014355209         1257 
 1921000   0.48113572   -7.3943232    370.31446  0.016064309  0.014343332         1285 
 1922000   0.47932551   -7.3986148    370.80732  0.016077321  0.014331464         1312 
 1923000   0.49586376     -7.39832    370.70162   0.01606438  0.014319615         1304 
 1924000    0.4786156   -7.4068176    371.21796  0.016078394  0.014307786         1273 
 1925000   0.48141568   -7.3797233    370.52622  0.016040096  0.014295967         1345 
 1926000   0.48905033   -7.4025051    370.11556     0.016014  0.014284158         1320 
 1927000   0.48510144    -7.386452    371.14226  0.016050089  0.014272348         1340 
 1928000   0.47570253   -7.3842015    371.06759  0.016038537   0.01426055         1251 
 1929000   0.48644247   -7.4068011       369.96  0.015982374  0.014248779         1432 
 1930000   0.48679285   -7.3924813    370.80436  0.016010551  0.014237009         1335 
 1931000    0.4797355   -7.3998771    371.63929  0.016038292  0.014225259         1362 
 1932000   0.47957482   -7.4047433    370.35851  0.015974746  0.014213512         1362 
 1933000   0.48574929   -7.4049124    370.55968  0.015975154  0.014201771         1446 
 1934000   0.47431645    -7.396796    370.50772  0.015964655  0.014190047         1387 
 1935000    0.4825435   -7.4170681    370.60911  0.015960771  0.014178333         1413 
 1936000   0.48164553   -7.4166846    370.47772  0.015946872  0.014166631         1384 
 1937000   0.48798544   -7.4038063      370.506  0.015939856  0.014154948         1318 
 1938000   0.48405897   -7.4169591    370.56411  0.015934129  0.014143269         1306 
 1939000   0.48414402   -7.4051376    370.46118  0.015921488  0.014131626         1307 
 1940000   0.46813549    -7.422354     370.7572  0.015925997  0.014119973         1375 
 1941000   0.46695811   -7.4082524    370.24906  0.015895976  0.014108347         1348 
 1942000   0.47877753   -7.4029781    370.55666   0.01590099  0.014096749         1323 
 1943000   0.47448767   -7.4206814    370.72354  0.015899963  0.014085147         1312 
 1944000   0.48276193   -7.4125122    370.41619  0.015878609  0.014073554         1369 
 1945000   0.48089442   -7.4088841    370.77327  0.015885744  0.014061964         1318 
 1946000   0.47125556   -7.4116663    370.38821  0.015861092   0.01405039         1343 
 1947000   0.47638352   -7.4195883    370.45568  0.015855833  0.014038819         1343 
 1948000   0.47679684   -7.4087196    370.33292  0.015842442  0.014027255         1363 
 1949000   0.46674854   -7.4251053    370.35088  0.015835081  0.014015709         1425 
 1950000   0.47089631    -7.416056    370.96543  0.015853223  0.014004155         1395 
 1951000   0.47063968   -7.4165259    370.55731  0.015827666  0.013992632         1342 
 1952000   0.46469286   -7.4073471    370.21103  0.015804774  0.013981104         1288 
 1953000   0.46606458    -7.411466    371.12642  0.015835741  0.013969599         1401 
 1954000   0.46973037   -7.4165206    369.80273  0.015771184  0.013958093         1302 
 1955000   0.46868042   -7.3958014    370.33124  0.015785645  0.013946607         1380 
 1956000   0.47266952   -7.4081276    370.95327  0.015804076  0.013935133         1371 
 1957000     0.473534   -7.4232854    370.41123  0.015772919  0.013923669         1301 
 1958000   0.47540174   -7.4078149    370.34394  0.015761999  0.013912214         1279 
 1959000   0.48162599   -7.4057781    370.45048  0.015758486  0.013900777         1337 
 1960000   0.47019146   -7.4103724    370.13217  0.015736912  0.013889343         1441 
 1961000   0.47704275   -7.4102688    370.22443  0.015732808   0.01387793         1358 
 1962000   0.46891963   -7.4233692    370.39011  0.015731826  0.013866515         1355 
 1963000   0.46704034   -7.4361368    369.91816  0.015703776   0.01385511         1363 
 1964000   0.47498066   -7.4161982    370.17651  0.015706743  0.013843708         1356 
 1965000   0.47728005   -7.4281047    370.56366  0.015715168  0.013832328         1435 
 1966000   0.47888705   -7.4273458    370.44409  0.015702106  0.013820965         1386 
 1967000   0.45617649   -7.4331528    370.15087  0.015681701  0.013809598         1252 
 1968000   0.46687637   -7.4207491    369.90999  0.015663533  0.013798242         1348 
 1969000   0.46341975   -7.4273279    370.02845  0.015660591  0.013786898         1471 
 1970000   0.46267667   -7.4258464    370.50449  0.015672779  0.013775575         1347 
 1971000   0.46135426   -7.4364465    370.75108  0.015675253  0.013764254         1376 
 1972000   0.46197255     -7.41564      370.311  0.015648707  0.013752959         1286 
 1973000   0.46738538   -7.4162042    370.39891  0.015644489  0.013741673         1417 
 1974000   0.44820085   -7.4154284    369.94777  0.015617518  0.013730385         1372 
 1975000   0.46342136   -7.4128383    369.79179  0.015603029  0.013719115         1400 
 1976000   0.45973023   -7.4266136    370.53913   0.01562665  0.013707862         1343 
 1977000   0.47108168   -7.4258131    369.58504   0.01557853  0.013696617         1361 
 1978000   0.45352026   -7.4436461    370.10539  0.015592576  0.013685381         1264 
 1979000   0.46726512   -7.4324711    369.92596  0.015577142   0.01367416         1380 
 1980000    0.4679031   -7.4409154    369.58183  0.015554791  0.013662941         1446 
 1981000   0.45277113   -7.4345446    369.91128  0.015560798   0.01365174         1353 
 1982000   0.46010862    -7.442271    369.87884  0.015551582  0.013640548         1309 
 1983000   0.45787046   -7.4291326    369.83773  0.015542013  0.013629365         1411 
 1984000    0.4581291   -7.4394374    370.57579  0.015565179  0.013618197         1349 
 1985000    0.4653661   -7.4445819    370.38663  0.015549397  0.013607041         1386 
 1986000   0.45684648   -7.4432933    369.59244  0.015508243  0.013595895         1350 
 1987000   0.45127984   -7.4374518    369.74619  0.015506886  0.013584761         1343 
 1988000   0.45487072   -7.4311227    369.58588  0.015492366   0.01357363         1363 
 1989000   0.45774153   -7.4372286     369.6417  0.015486916  0.013562506         1346 
 1990000   0.46666325    -7.442351    369.09022  0.015456039  0.013551401         1381 
 1991000   0.44822836   -7.4506983    370.06001  0.015488867  0.013540316         1384 
 1992000   0.45252751   -7.4411805     369.6047  0.015462044  0.013529241         1339 
 1993000   0.45604004   -7.4399468    370.14605  0.015476921  0.013518172         1294 
 1994000   0.46125182   -7.4354811    370.65028  0.015490233  0.013507122         1441 
 1995000   0.45353412    -7.463648    369.95862  0.015453577  0.013496089         1421 
 1996000   0.45715088   -7.4429025    369.92488  0.015444425  0.013485053         1270 
 1997000    0.4528723   -7.4486569    369.57031  0.015421896  0.013474028         1437 
 1998000   0.44858035   -7.4399161    368.85892  0.015384506  0.013463021         1389 
 1999000   0.45300178   -7.4342751    370.23306  0.015434095  0.013452028         1421 
 2000000   0.46134057   -7.4590622    369.26321  0.015385967  0.013441052         1358 
 2001000   0.45613492   -7.4376618    369.94697  0.015406754  0.013430077         1428 
 2002000   0.45113226   -7.4407365    369.82587  0.015394017  0.013419125         1344 
 2003000     0.453246   -7.4506736    369.54299  0.015374563  0.013408184         1357 
 2004000   0.44797131   -7.4471207     369.2631  0.015355252  0.013397231         1385 
 2005000   0.46248266   -7.4541999     370.1702  0.015385295  0.013386314         1287 
 2006000   0.45631427   -7.4497157    369.73592  0.015359585  0.013375398         1384 
 2007000   0.44821011   -7.4405655     369.7767  0.015353625  0.013364486         1284 
 2008000   0.45203954   -7.4351087    370.05601   0.01535757  0.013353589         1317 
 2009000   0.44616451   -7.4420815    369.51028  0.015327289  0.013342706         1378 
 2010000   0.44722428    -7.455205    369.12464  0.015303675  0.013331827         1368 
 2011000   0.44807657   -7.4746268    369.23234  0.015300528   0.01332096         1356 
 2012000   0.44625181   -7.4546874    369.64128  0.015309861  0.013310094         1412 
Loop time of 5197.17 on 48 procs for 2000000 steps with 4000 atoms

Performance: 66497.676 tau/day, 384.825 timesteps/s
99.4% CPU use with 48 MPI tasks x no OpenMP threads

MPI task timing breakdown:
Section |  min time  |  avg time  |  max time  |%varavg| %total
---------------------------------------------------------------
Pair    | 367.91     | 396.57     | 427.89     |  63.0 |  7.63
Neigh   | 36.174     | 37.652     | 39.876     |  13.3 |  0.72
Comm    | 333.27     | 361.39     | 389.87     |  67.6 |  6.95
Output  | 4.9684     | 4.9704     | 5.0255     |   0.4 |  0.10
Modify  | 4334.1     | 4346.5     | 4358.5     |   9.8 | 83.63
Other   |            | 50.04      |            |       |  0.96

Nlocal:        83.3333 ave          90 max          76 min
Histogram: 2 2 5 4 4 14 5 8 1 3
Nghost:        2418.65 ave        2434 max        2397 min
Histogram: 1 0 3 4 8 8 10 6 6 2
Neighs:        16756.7 ave       19490 max       14519 min
Histogram: 2 9 8 5 4 3 6 4 5 2
FullNghs:      33512.9 ave       36378 max       30345 min
Histogram: 2 2 3 7 6 10 8 6 1 3

Total # of neighbors = 1608618
Ave neighs/atom = 402.15450
Neighbor list builds = 106958
Dangerous builds = 2

#clear
#
#next RN
#
#jump SELF
Total wall time: 1:26:42
