
units lj                  # Use reduced LJ style units
atom_style atomic         # Uncharged point particles
atom_modify map hash      # Needed for indexing of clusters etc
                          # Used to be able to find where atoms are in relation to each other.

lattice fcc 1.0 spacing 1 1 1
Lattice spacing in x,y,z = 1.5874011 1.5874011 1.5874011
region box block 0 10 0 10 0 10 units lattice
create_box 2 box
Created orthogonal box = (0.0000000 0.0000000 0.0000000) to (15.874011 15.874011 15.874011)
  3 by 4 by 4 MPI processor grid
create_atoms 1 box
Created 4000 atoms
  using lattice units in orthogonal box = (0.0000000 0.0000000 0.0000000) to (15.874011 15.874011 15.874011)
  create_atoms CPU = 0.002 seconds
set type 1 type/fraction 2 0.1 78393
Setting atom values ...
  435 settings made for type/fraction
mass 1 1.0
mass 2 1.0
pair_style lj/cut  3.5
pair_modify tail  yes
pair_coeff 1  1  1.0  1.0   # Intearaction between 1 and 1 set with epsilon = 1 and sigma = 1
pair_coeff 1  2  1.5  0.8
pair_coeff 2  2  0.5  0.88

write_data data.0
System init for write_data ...
Neighbor list info ...
  update every 1 steps, delay 10 steps, check yes
  max neighbors/atom: 2000, page size: 100000
  master list distance cutoff = 3.8
  ghost atom cutoff = 3.8
  binsize = 1.9, bins = 9 9 9
  1 neighbor lists, perpetual/occasional/extra = 1 0 0
  (1) pair lj/cut, perpetual
      attributes: half, newton on
      pair build: half/bin/atomonly/newton
      stencil: half/bin/3d
      bin: standard
WARNING: Not all mixed pair coeffs generated from mixing. Use write_data with 'pair ij' option to store all pair coeffs. (../write_data.cpp:312)


#############################
#   M E L T   S Y S T E M   #
#############################

velocity all create 2.4 6583654 mom yes dist gaussian # Assign velocities
                                                    # Temperature 2.4, random number seed, zero linear momentum
                                                                                # Gaussian distribution

timestep 0.002   # simulation timestep
thermo 1000       # output thermodynamic data every 1000 steps bf 100

# Define a fix  in this case with index 1 applied to all
# particles in the simulation. This fix is for simulations
# in the anisotropic NPT ensemble. Note that we use the MTK
# correction.
fix 1 all npt temp 2.4 2.4 0.1 iso 5.68 5.68 0.5 mtk yes tchain 5 pchain 5 # Use NPT ensemble
                                                                         # Set temperature and pressure and damping
                                                                         # Numbers of thermostats in chain and in barostat
run 10000          # run for 10000 steps
Per MPI rank memory allocation (min/avg/max) = 3.642 | 3.644 | 3.648 Mbytes
Step Temp E_pair E_mol TotEng Press Volume 
       0          2.4   -7.6732445            0   -4.0741445   -3.0506691         4000 
    1000     2.359519   -4.6294458            0   -1.0910522    5.8263983    4801.3271 
    2000    2.3930762   -4.6157411            0   -1.0270241    5.5340423    4845.0367 
    3000    2.4338904   -4.6071985            0  -0.95727552    5.8213906    4817.4469 
    4000    2.4498428   -4.5797648            0   -0.9059193    5.6640109    4859.0721 
    5000    2.3643276   -4.5831459            0    -1.037541    5.6192882    4849.7892 
    6000    2.3645199   -4.6080055            0   -1.0621124    5.6655168    4824.2254 
    7000    2.3436064   -4.6329671            0   -1.1184363    5.5577798    4824.4174 
    8000    2.3667375   -4.6040627            0    -1.054844    5.6596767    4839.3681 
    9000    2.3931468   -4.6051656            0   -1.0163428    5.6399388    4840.9253 
   10000    2.4142595   -4.6140577            0  -0.99357374    5.8008316    4830.5553 
Loop time of 2.17204 on 48 procs for 10000 steps with 4000 atoms

Performance: 795565.183 tau/day, 4603.965 timesteps/s
99.6% CPU use with 48 MPI tasks x no OpenMP threads

MPI task timing breakdown:
Section |  min time  |  avg time  |  max time  |%varavg| %total
---------------------------------------------------------------
Pair    | 0.89672    | 0.96641    | 1.0581     |   3.8 | 44.49
Neigh   | 0.18764    | 0.19839    | 0.21752    |   1.5 |  9.13
Comm    | 0.6356     | 0.76001    | 0.83959    |   5.5 | 34.99
Output  | 0.00024947 | 0.00025369 | 0.00031884 |   0.0 |  0.01
Modify  | 0.20725    | 0.23254    | 0.29178    |   4.9 | 10.71
Other   |            | 0.01443    |            |       |  0.66

Nlocal:        83.3333 ave          93 max          75 min
Histogram: 2 2 8 7 4 14 6 2 1 2
Nghost:        1447.42 ave        1471 max        1428 min
Histogram: 3 4 4 9 6 9 8 4 0 1
Neighs:        7886.00 ave        8869 max        6856 min
Histogram: 1 3 5 5 12 6 7 3 4 2

Total # of neighbors = 378528
Ave neighs/atom = 94.632000
Neighbor list builds = 906
Dangerous builds = 206

# Equilibrate just above the melting temperature to avoid step fn in T

fix 1 all npt temp 1.25 1.25 0.1 iso 5.68 5.68 0.5 mtk yes tchain 5 pchain 5
run 2000
Per MPI rank memory allocation (min/avg/max) = 3.642 | 3.644 | 3.648 Mbytes
Step Temp E_pair E_mol TotEng Press Volume 
   10000    2.4142595   -4.6140577            0  -0.99357374    5.8008316    4830.5553 
   11000    1.2648478   -6.1831624            0    -4.286365    5.7359186    3982.9616 
   12000    1.2391806    -6.185502            0   -4.3271958     5.768787     3979.777 
Loop time of 0.473463 on 48 procs for 2000 steps with 4000 atoms

Performance: 729941.147 tau/day, 4224.196 timesteps/s
99.6% CPU use with 48 MPI tasks x no OpenMP threads

MPI task timing breakdown:
Section |  min time  |  avg time  |  max time  |%varavg| %total
---------------------------------------------------------------
Pair    | 0.20442    | 0.22509    | 0.24084    |   1.8 | 47.54
Neigh   | 0.031453   | 0.033549   | 0.035652   |   0.5 |  7.09
Comm    | 0.14309    | 0.16176    | 0.18224    |   2.4 | 34.17
Output  | 4.878e-05  | 4.9764e-05 | 6.4456e-05 |   0.0 |  0.01
Modify  | 0.043824   | 0.048673   | 0.0559     |   1.4 | 10.28
Other   |            | 0.004343   |            |       |  0.92

Nlocal:        83.3333 ave          93 max          74 min
Histogram: 1 1 2 6 14 16 3 4 0 1
Nghost:        1645.48 ave        1676 max        1623 min
Histogram: 3 4 7 7 10 8 6 2 0 1
Neighs:        9581.69 ave       10953 max        8216 min
Histogram: 1 2 1 8 14 10 7 2 2 1

Total # of neighbors = 459921
Ave neighs/atom = 114.98025
Neighbor list builds = 144
Dangerous builds = 10

#############################
# L I N E A R  Q U E N C H  #
#############################

# Define solid atoms. This closely follows ten Wolde  Ruiz-Montero and Frenkel  Faraday Discuss  1996  104  93-110
# Compute components of the per-atom q6 vector
compute q6 all orientorder/atom degrees 1 6 components 6 nnn NULL cutoff 1.3 # compute the Q6 parameter.
                                                                             # Use all neighbours within 1.3 unit cell.

# get number of connections
compute coord_number all coord/atom orientorder q6 0.5

# An atom is solid if it has 8 or more connections (of a possible 14)
variable is_solid atom c_coord_number>=8
group solid dynamic all var is_solid    # Must be dynamic to update
dynamic group solid defined

# do clustering
compute cluster solid cluster/atom 1.3 # Create a cluster where all atoms within are solid and max 1.3 units from another member

# define chunks one chunk per cluster
compute clus_chunks solid chunk/atom c_cluster nchunk every compress yes  # Says which atoms are in which chunk

# count the size of each chunk
compute size_chunks solid property/chunk clus_chunks count


# Find the maximum entry in the vector of chunk sizes
variable max_n equal max(c_size_chunks)


# Thermo style which includes this variable
# thermo_style custom step temp pe vol v_max_n

thermo ${N}  # Print the thermo information every 100 steps
thermo 1000  

# Reset the npt fix at a lower temperature (below freezing)
fix 1  all npt temp  ${temp} ${temp}  0.1  iso  5.68  5.68  0.5  mtk yes tchain  5  pchain  5
fix 1  all npt temp  0.45 ${temp}  0.1  iso  5.68  5.68  0.5  mtk yes tchain  5  pchain  5
fix 1  all npt temp  0.45 0.45  0.1  iso  5.68  5.68  0.5  mtk yes tchain  5  pchain  5

dump dmp2 all dcd ${N} traj.dcd
dump dmp2 all dcd 1000 traj.dcd


compute msd all msd com yes
variable twopoint equal c_msd[4]/6/(step*dt+1.0e-6)
fix 9 all vector 10 c_msd[4]
variable fit equal slope(f_9)/6/(10*dt)
thermo_style custom step temp pe c_msd[4] v_twopoint v_fit v_max_n

fix 1 all npt temp 1.25 ${temp} 0.1 iso 5.68 5.68 0.5 mtk yes tchain 5 pchain 5
fix 1 all npt temp 1.25 0.45 0.1 iso 5.68 5.68 0.5 mtk yes tchain 5 pchain 5
run 2000000 # 5000000  # Run for this many steps
Neighbor list info ...
  update every 1 steps, delay 10 steps, check yes
  max neighbors/atom: 2000, page size: 100000
  master list distance cutoff = 3.8
  ghost atom cutoff = 3.8
  binsize = 1.9, bins = 9 9 9
  4 neighbor lists, perpetual/occasional/extra = 1 3 0
  (1) pair lj/cut, perpetual
      attributes: half, newton on
      pair build: half/bin/atomonly/newton
      stencil: half/bin/3d
      bin: standard
  (2) compute orientorder/atom, occasional
      attributes: full, newton on
      pair build: full/bin/atomonly
      stencil: full/bin/3d
      bin: standard
  (3) compute coord/atom, occasional
      attributes: full, newton on
      pair build: full/bin/atomonly
      stencil: full/bin/3d
      bin: standard
  (4) compute cluster/atom, occasional
      attributes: full, newton on
      pair build: full/bin/atomonly
      stencil: full/bin/3d
      bin: standard
Per MPI rank memory allocation (min/avg/max) = 9.751 | 9.755 | 9.760 Mbytes
Step Temp PotEng c_msd[4] v_twopoint v_fit v_max_n 
   12000    1.2391806    -6.185502            0            0 8.3333333e+20            2 
   13000    1.2687919   -6.2304121   0.53722158 0.0034437279  0.044013709            4 
   14000    1.2451602   -6.1960581    1.0526099 0.0062655347  0.043121083            2 
   15000    1.2515389   -6.2278353    1.6161837 0.0089787982  0.043903811            2 
   16000    1.2498475   -6.2205919    2.1481035  0.011188039  0.044609126            3 
   17000    1.2425388   -6.2467728    2.6565766  0.013022434  0.044313533            1 
   18000    1.2393383   -6.2318025    3.1771045  0.014708817  0.043946212            4 
   19000    1.2647277   -6.2268687    3.7427568  0.016415599  0.044139747            2 
   20000    1.2681747   -6.2353331    4.3271351  0.018029729  0.044406407            3 
   21000    1.2588431   -6.1937106     4.819683  0.019125726  0.044486392            3 
   22000    1.2234535   -6.2257442    5.3485602  0.020259697  0.044549321            4 
   23000    1.2349185   -6.2354608     5.769711   0.02090475  0.044409787            2 
   24000    1.2338967   -6.2457832    6.2257611  0.021617226  0.043978061            2 
   25000    1.2382277   -6.2411295    6.7504008  0.022501335   0.04351643            2 
   26000    1.2744097   -6.1740019    7.2716991  0.023306728  0.043282598            5 
   27000    1.2594412   -6.2215682    7.7402936  0.023889794  0.043077981            2 
   28000    1.2631685    -6.182546     8.315047  0.024747163  0.043004184            1 
   29000    1.2326691   -6.2306803    8.7499572  0.025143555  0.042928428            2 
   30000    1.2119449   -6.2268815    9.3103504  0.025862084  0.042816899            3 
   31000    1.2471597   -6.2054886     9.902808  0.026620451  0.042805071            2 
   32000    1.2542767   -6.2141661    10.564257  0.027511086  0.042909502            1 
   33000    1.2258402   -6.2259011    11.152962  0.028164044  0.043138951            2 
   34000    1.2390991   -6.2362066     11.68116  0.028630294  0.043365522            1 
   35000    1.2384477   -6.2188321    12.345675  0.029394464  0.043584718            4 
   36000    1.2178312   -6.2187864    12.899883   0.02986084  0.043819555            2 
   37000    1.2455353   -6.2134144    13.532951  0.030479618  0.044073768            3 
   38000    1.2332288   -6.2425883    14.107653  0.030937835  0.044305386            2 
   39000    1.2506516    -6.195683    14.802383  0.031629024  0.044566302            2 
   40000    1.2239997   -6.2456056    15.373962  0.032029087  0.044833764            3 
   41000    1.2509981   -6.2431306    16.010046  0.032540744  0.045092862            2 
   42000    1.2369926   -6.2063625    16.552228  0.032841721  0.045337868            4 
   43000    1.2340833   -6.2403895    17.188601  0.033311241  0.045588152            3 
   44000    1.2562723   -6.2348044    17.747534  0.033612753  0.045776993            1 
   45000    1.2448767   -6.2182395     18.27672  0.033845778  0.045930741            4 
   46000    1.2400341   -6.2485137    18.756641  0.033979422  0.046063769            2 
   47000    1.2448712   -6.2636102    19.236823  0.034107843  0.046138116            3 
   48000    1.2562794   -6.2414808    19.801239  0.034377151  0.046186386            3 
   49000    1.2310823   -6.2125904    20.237862  0.034418132  0.046192274            2 
   50000    1.2199588   -6.2458866    20.464464  0.034107439  0.046150804            1 
   51000    1.2093751   -6.2860307     20.95004  0.034232091  0.046030634            2 
   52000      1.24401   -6.2257844    21.501198  0.034457048   0.04591437            1 
   53000    1.2225319   -6.2841112     21.92013  0.034465612  0.045805913            3 
   54000     1.218598   -6.2264059     22.51367  0.034743318    0.0456958            3 
   55000    1.2398375   -6.2645931    22.854812  0.034628502  0.045586407            1 
   56000    1.2328532    -6.229685    23.322302  0.034705806  0.045449239            4 
   57000    1.2374685   -6.2555435    23.883566  0.034917494  0.045335719            3 
   58000     1.233488   -6.2532546    24.336143  0.034965723  0.045207805            2 
   59000    1.2202103   -6.2130084    24.702714  0.034890838  0.045066955            3 
   60000    1.2403644   -6.2416164    25.148215  0.034928077  0.044923438            1 
   61000    1.2515663   -6.2284368    25.851811  0.035316681  0.044797281            3 
   62000    1.2422359   -6.2599924    26.310865  0.035364066   0.04469415            2 
   63000    1.2060246   -6.2437825    26.948784  0.035646539  0.044608344            1 
   64000    1.2146313   -6.2484051    27.438659   0.03572742  0.044543439            2 
   65000    1.2512769   -6.2730302    27.803004  0.035644877  0.044461019            4 
   66000    1.2619027   -6.2080127    28.338021   0.03578033  0.044375613            2 
   67000    1.2248579   -6.2462815    28.752988  0.035762423   0.04428169            4 
   68000    1.2107786   -6.2185761    29.464927  0.036108979  0.044186826            2 
   69000    1.2116139   -6.2741685    29.825641  0.036021305  0.044117832            3 
   70000    1.2501048   -6.2507573    30.183421  0.035932644  0.044018773            3 
   71000    1.2353603   -6.2321814     30.60596  0.035922488  0.043929544            2 
   72000    1.2442194   -6.2993274    30.920918    0.0357881  0.043828488            2 
   73000    1.2561462   -6.2661383    31.614586   0.03608971  0.043740034            1 
   74000    1.2268351   -6.2560244    32.353843  0.036434508  0.043681385            3 
   75000    1.2181589   -6.2400847    32.935455  0.036594949  0.043635944            4 
   76000    1.2214967   -6.2671532    33.394136  0.036616377  0.043583317            3 
   77000    1.2376288    -6.254419     33.76012  0.036536926  0.043543112            4 
   78000     1.219602   -6.2769072    34.292526  0.036637314   0.04349802            2 
   79000    1.2095803   -6.2827972     34.84693  0.036758365  0.043451609            1 
   80000    1.2466212   -6.2875447    35.371691  0.036845511  0.043416166            3 
   81000    1.2267957   -6.2633348    35.856023  0.036888912  0.043382467            4 
   82000     1.230106   -6.2310188    36.355701   0.03694685  0.043348259            2 
   83000    1.2309906   -6.2691597    36.799603  0.036947392  0.043307435            2 
   84000     1.204908   -6.2511165    37.509445  0.037211751  0.043277445            3 
   85000    1.2178279   -6.2735164    37.825487  0.037083811  0.043252662            4 
   86000    1.2058441   -6.2856324    38.515173  0.037320903  0.043228503            3 
   87000    1.2322444   -6.2407226    38.941538  0.037300324  0.043207761            2 
   88000    1.1918458   -6.2921327    39.558082  0.037460305  0.043180654            1 
   89000    1.2481943   -6.2509963    40.157922   0.03760105  0.043166177            3 
   90000    1.1907589   -6.2442638    40.770595  0.037750551  0.043163593            2 
   91000    1.2181432   -6.2758612     41.12956  0.037664432  0.043154718            3 
   92000    1.2206257   -6.2915543    41.586844  0.037669243  0.043139205            4 
   93000    1.1901737   -6.2691565    41.865953  0.037514295  0.043117042            3 
   94000    1.2272968   -6.2854649    42.467524  0.037648514   0.04309198            2 
   95000    1.2356646   -6.3192836    42.988301  0.037709036  0.043073294            3 
   96000    1.2014664   -6.3034621    43.531685   0.03778792  0.043057408            1 
   97000    1.2157291   -6.2547774    43.984425  0.037787307  0.043036319            6 
   98000    1.2164751   -6.2867565    44.541083  0.037875071  0.043008547            5 
   99000    1.2055982   -6.3029159    45.005911  0.037883764  0.042994493            2 
  100000    1.2171137   -6.3090363    45.275934  0.037729945  0.042974219            4 
  101000    1.1932443   -6.3102581    45.927376  0.037893875  0.042951822            3 
  102000    1.2309894   -6.2931556    46.307616   0.03783302  0.042926512            1 
  103000    1.2140168   -6.3026852    46.629666  0.037726267  0.042893254            9 
  104000    1.1978172   -6.2984252    46.962638  0.037630319  0.042854088            2 
  105000     1.253604   -6.3181893    47.715349  0.037869325   0.04281451            3 
  106000    1.2095705   -6.2676631    47.908789  0.037664142  0.042773112            3 
  107000    1.2062422   -6.2888922    48.483416  0.037759669  0.042731298            2 
  108000    1.2186222   -6.2657467    49.002657  0.037810692  0.042694187            2 
  109000    1.2112467   -6.3236999    49.326709  0.037711551  0.042651781            2 
  110000     1.198823    -6.307918    49.977136  0.037861467  0.042613041            2 
  111000    1.2139511    -6.274181    50.604833  0.037991617   0.04258319            4 
  112000    1.2076233    -6.288934    51.254704   0.03813594   0.04255588            4 
  113000    1.1943052   -6.3137143    51.650468  0.038090315  0.042538859            4 
  114000    1.2486456    -6.291871    52.388366  0.038295589  0.042520666            2 
  115000    1.2021189   -6.2740165    52.687658  0.038179462  0.042511307            4 
  116000    1.1878585   -6.2786326    53.564255  0.038480068  0.042495559            3 
  117000    1.2002666   -6.3021783    53.810078  0.038326266  0.042477891            2 
  118000    1.2203438   -6.3133915    54.482549  0.038476376  0.042463284            2 
  119000    1.1878599   -6.2760503    55.059789  0.038557275  0.042454156            1 
  120000    1.1996675   -6.3057144    55.666565  0.038657337  0.042452459            3 
  121000    1.1981227    -6.285748    56.342624   0.03880346  0.042452573            2 
  122000    1.2128611   -6.2957463     56.82549  0.038815225  0.042451885            3 
  123000     1.226032   -6.3066042    57.115269  0.038695981  0.042453345            2 
  124000     1.202161    -6.281346    57.813586  0.038853216  0.042452731            1 
  125000    1.1953221   -6.3367131    58.082506   0.03872167  0.042447938            2 
  126000    1.1847246    -6.304964    58.442565   0.03865249  0.042431827            1 
  127000    1.1936251   -6.3286105    58.599042  0.038450815  0.042414651            3 
  128000    1.2005993   -6.2812359    59.263332  0.038582899   0.04239685            2 
  129000    1.2092958   -6.3163821    59.942553   0.03872258  0.042386592            1 
  130000    1.2095558   -6.3260986    60.263015  0.038630138  0.042377704            4 
  131000     1.220497   -6.3475869    60.363207  0.038398987  0.042359338            3 
  132000    1.1674269   -6.3141795    60.811375   0.03839102  0.042331061            2 
  133000    1.1692195   -6.3017942    61.107216  0.038287729  0.042297216            2 
  134000    1.2029919   -6.2843188    61.779815  0.038420283  0.042265904            3 
  135000    1.2076926   -6.3216923    62.483498   0.03857006  0.042240747            3 
  136000    1.2358334   -6.3077483     62.95896  0.038577794  0.042221925            3 
  137000    1.2120073   -6.3272297    63.308913  0.038509071  0.042200535            6 
  138000     1.217594   -6.3074067     63.91191  0.038594148  0.042181343            3 
  139000    1.1989524   -6.3260314    64.380587  0.038597474  0.042158617            5 
  140000    1.2008594   -6.3176889     64.77297  0.038555339  0.042134727            4 
  141000     1.215215   -6.3113044    65.442231  0.038677441  0.042115088            2 
  142000    1.1985519   -6.3135275    65.456915  0.038413683   0.04209203            2 
  143000    1.2010318   -6.2885393    65.913789  0.038411299  0.042059957            4 
  144000    1.1906057    -6.295471    66.259925  0.038344864  0.042027555            2 
  145000    1.1944532   -6.2978451    66.648917  0.038303975  0.041993768            1 
  146000    1.1986963   -6.3209695    67.234422  0.038375812  0.041957747            5 
  147000    1.2160815   -6.3219455    67.612694  0.038329192   0.04192288            1 
  148000    1.1744249   -6.3297427    68.052424  0.038317806  0.041886833            7 
  149000    1.1923445   -6.2918735    68.563121  0.038346264   0.04184869            2 
  150000    1.1766164   -6.3058882     69.03801   0.03835445  0.041811467            3 
  151000    1.2051119   -6.2819437    69.361235  0.038278827  0.041776322            3 
  152000    1.1818602   -6.2951697    69.667674  0.038194996  0.041740961            2 
  153000    1.1993236    -6.289659    70.337233   0.03831004  0.041704949            5 
  154000    1.1819637   -6.3187819     70.54781  0.038175222   0.04167125            2 
  155000    1.1843602   -6.3290684    70.865803  0.038099894  0.041632667            3 
  156000    1.1771254   -6.3559965    71.221864  0.038045868  0.041591717            3 
  157000    1.1973948   -6.3017107    71.866589  0.038145748  0.041551464            3 
  158000    1.2061853   -6.3053463    72.301339  0.038133618  0.041510728            2 
  159000    1.2023827   -6.3252418      72.5281  0.038012631  0.041471495            3 
  160000    1.2114004   -6.2868423     72.88748  0.037962229  0.041432759            1 
  161000    1.2027564   -6.2946701    73.392029  0.037987593  0.041391178            2 
  162000    1.1860004   -6.3318954    73.641044  0.037881196  0.041345229            2 
  163000    1.1626822    -6.323906    73.938165  0.037800698  0.041296809            3 
  164000    1.1993233   -6.3341871     74.39965    0.0378047  0.041248561            4 
  165000    1.1820704   -6.3541997    74.709859  0.037732252  0.041199786            2 
  166000    1.1861231   -6.3387964    75.075005  0.037688255  0.041152604            5 
  167000    1.1682459   -6.3120632    75.646957  0.037747982  0.041106592            2 
  168000    1.1877567   -6.3052721    76.138989  0.037767355  0.041060259            4 
  169000    1.1967118   -6.3183834    76.347113  0.037646506  0.041015546            4 
  170000    1.1725853   -6.3149916    76.925109  0.037708387  0.040970335            2 
  171000    1.2296545   -6.3495814    77.319098  0.037679872  0.040926198            3 
  172000    1.1788522   -6.3156744    77.938325  0.037760816  0.040885373            3 
  173000    1.1735058   -6.3150605    78.642499  0.037881743  0.040847355            1 
  174000    1.1801089   -6.2943649    79.303694  0.037980696  0.040810654            3 
  175000     1.188133   -6.3522075    79.458858  0.037837551  0.040772374            2 
  176000     1.191507   -6.3207723    79.663755  0.037719581  0.040734953            2 
  177000     1.180465   -6.3072658    79.739751  0.037542255  0.040694632            2 
  178000    1.1873046       -6.369    80.020483  0.037462773  0.040651767            3 
  179000      1.19794   -6.3712215    80.366165  0.037414416  0.040607266            2 
  180000    1.1778469    -6.338672    81.266876  0.037623554  0.040563574            2 
  181000    1.1584237   -6.3430085    81.886499  0.037700966  0.040523793            3 
  182000     1.181472    -6.294566    82.409431  0.037733256  0.040483208            3 
  183000    1.1625702   -6.3863922    82.672011  0.037646635  0.040446062            3 
  184000    1.1620103   -6.3036262    83.085479  0.037629293  0.040411478            2 
  185000    1.1964122   -6.3457439    83.669539  0.037688982  0.040375174            2 
  186000    1.1951373    -6.319742    83.986618  0.037628413  0.040339745            3 
  187000    1.1801147   -6.3413486    84.119777  0.037486532  0.040304879            3 
  188000    1.1756538   -6.3253556    84.707974  0.037547861  0.040267799            4 
  189000     1.161069   -6.3465057    85.145403  0.037542065   0.04023079            4 
  190000    1.1673681   -6.3488005    85.568053  0.037529848  0.040198503            3 
  191000    1.1746752   -6.3031428    86.448665  0.037717567  0.040166361            3 
  192000    1.2118472   -6.3836952    86.466546  0.037528883  0.040134172            2 
  193000    1.1844368    -6.316379    87.555791  0.037804745  0.040103208            2 
  194000    1.1777967   -6.3541849    87.547828  0.037606455  0.040074827            5 
  195000    1.1701067   -6.3394201    88.445525  0.037797233  0.040047205            2 
  196000      1.17855   -6.3318742    88.764601  0.037740051  0.040021722            2 
  197000    1.1787852   -6.3562793     89.08017  0.037681967  0.039997842            1 
  198000    1.1914591    -6.335926    89.786802  0.037789058  0.039973876            3 
  199000     1.179479   -6.3498666    90.417718  0.037863366  0.039951053            3 
  200000    1.1718244   -6.3043649    90.688608   0.03778692  0.039930682            2 
  201000    1.1680167   -6.3472986    90.721649  0.037612624  0.039908625            2 
  202000    1.2120139   -6.3649453    91.408267  0.037709681  0.039885438            2 
  203000    1.1528896   -6.3712024     91.88989   0.03772163  0.039864135            2 
  204000    1.1728249   -6.3695077    92.381386  0.037737494  0.039844301            3 
  205000    1.1628303   -6.3640334    92.823381  0.037733082  0.039824045            2 
  206000    1.1776884   -6.3465245    93.065522  0.037647865  0.039802678            3 
  207000    1.1703097   -6.3545426    93.174497  0.037509862   0.03977729            2 
  208000    1.1705034   -6.3090432    94.064825  0.037686228  0.039749566            3 
  209000    1.1821323   -6.3516034     94.47404  0.037669075  0.039725941            2 
  210000    1.1639932   -6.3166068    94.549068  0.037519471  0.039700409            1 
  211000    1.1808444   -6.3548472    95.035604  0.037533809  0.039676906            4 
  212000    1.1907592   -6.3624424    95.593967  0.037576245  0.039655502            3 
  213000     1.151532   -6.3619546    95.889781  0.037515564  0.039632585            3 
  214000    1.1796179    -6.364436     96.57876  0.037608551  0.039611251            4 
  215000    1.1520799   -6.3639399    97.224344  0.037683854   0.03959047            1 
  216000    1.1907608   -6.3770072    97.110468  0.037465458  0.039568923            2 
  217000    1.1669698   -6.3576321    97.848516  0.037576235  0.039543972            3 
  218000    1.2151423   -6.3369871    98.089248   0.03749589  0.039519805            1 
  219000    1.1609287   -6.3557323    98.622756  0.037527685  0.039494722            2 
  220000    1.1617728   -6.3807932    98.773282  0.037414122  0.039469327            2 
  221000    1.1532525    -6.349428    99.714547  0.037599754  0.039445313            3 
  222000    1.1520481   -6.3943575    99.877855  0.037491687  0.039422633            5 
  223000    1.1538539   -6.3615661    100.68507  0.037625213  0.039400601            2 
  224000     1.189605   -6.4053657    100.56018  0.037410783  0.039377324            5 
  225000    1.1854646   -6.4162487    101.02721  0.037417486  0.039353049            3 
  226000    1.1616163   -6.3723996    101.45757  0.037410607  0.039329484            6 
  227000    1.1799748   -6.3565857    101.80865  0.037374687  0.039305514            2 
  228000    1.1632726   -6.3428933    102.38562  0.037421646  0.039283128            2 
  229000    1.1861215    -6.334275    102.72627  0.037382194  0.039258868            4 
  230000    1.1451382   -6.3684096    102.79936  0.037246145   0.03923306            1 
  231000    1.1781668   -6.4109498    103.12823  0.037203547  0.039206366            3 
  232000    1.1591493   -6.3861418    103.35817  0.037125779  0.039177941            2 
  233000    1.1453954   -6.3718277    103.88237  0.037153925  0.039148848            2 
  234000    1.1529264   -6.3330431    104.57218  0.037240806  0.039120866            3 
  235000    1.1576813   -6.3720322     104.6856  0.037122552  0.039094337            3 
  236000    1.1749267   -6.4010126    105.24549  0.037162955  0.039067333            3 
  237000    1.1350421   -6.3819487    105.91752  0.037242448  0.039039524            7 
  238000    1.1516279   -6.3922507    106.03632  0.037127562  0.039014584            2 
  239000    1.1558521   -6.3418582    106.72237  0.037211426  0.038990419            1 
  240000    1.1416747   -6.3404794    107.25714  0.037242062  0.038967581            4 
  241000    1.1629688   -6.3911192    107.64725  0.037222425  0.038944875            1 
  242000    1.1529602   -6.4102451    107.94673   0.03717174  0.038921212            4 
  243000    1.1542058   -6.3799304    108.41195   0.03717831  0.038899335            6 
  244000    1.1463516   -6.3733084     109.4776  0.037389891  0.038878886            4 
  245000    1.1646491   -6.3607727    109.53544  0.037256951  0.038858525            3 
  246000    1.1586791   -6.3690595    110.13705  0.037309297  0.038838168            2 
  247000    1.1409106   -6.3442988    110.51817  0.037286833  0.038819752            3 
  248000    1.1462009   -6.3671254    111.30025  0.037399278  0.038801032            1 
  249000    1.1305647   -6.4096582    110.74508  0.037063281   0.03878154            3 
  250000    1.1550435   -6.3744578     111.6238  0.037207932  0.038760743            4 
  251000     1.140935   -6.3992955     112.2886   0.03728041   0.03874104            2 
  252000    1.1470352   -6.4032622    112.41528  0.037174366  0.038721211            4 
  253000    1.1524989   -6.3687734    112.58364  0.037082885  0.038700783            3 
  254000    1.1371323   -6.4242044    113.58146  0.037264259   0.03868162            3 
  255000    1.1358617   -6.4068158    113.70097   0.03715718  0.038661586            1 
  256000    1.1406235   -6.3883841    114.64027  0.037317797  0.038643832            5 
  257000    1.1560587   -6.3431072    115.00727  0.037291593  0.038625448            3 
  258000    1.1292224   -6.4011046    114.64948  0.037031485  0.038605926            2 
  259000    1.1435901   -6.3887911    115.50079  0.037162417  0.038587124            2 
  260000    1.1528645   -6.3741809    115.97496  0.037171462  0.038569096            3 
  261000    1.1484409   -6.3980485    116.01156  0.037040726  0.038550024            4 
  262000    1.1539422   -6.3791535    116.57608  0.037078907   0.03852988            3 
  263000    1.1583932   -6.4347513    116.57339   0.03693707  0.038508326            3 
  264000    1.1437319   -6.3963184    117.37524  0.037050266  0.038487914            4 
  265000    1.1687362     -6.33905    117.95367  0.037092348  0.038468049            4 
  266000    1.1509487   -6.4121606    117.70296  0.036874359   0.03844777            2 
  267000    1.1269582   -6.3802794     118.0163  0.036834051  0.038425225            4 
  268000    1.1340596   -6.4187322    118.64362  0.036891674   0.03840324            2 
  269000    1.1684576   -6.4393413    118.83066  0.036812471  0.038382083            2 
  270000    1.1464989   -6.3947862    119.85853  0.036993373  0.038360473            7 
  271000    1.1207987   -6.4394964    119.97267  0.036891965  0.038341296            1 
  272000    1.1329314    -6.406869    120.44011  0.036899543  0.038322276            3 
  273000     1.130163   -6.4343472    120.87216  0.036896263     0.038303            3 
  274000    1.1703256   -6.3997274    121.16967  0.036852089  0.038282641            3 
  275000     1.144825   -6.3864008    121.82698  0.036917268   0.03826141            2 
  276000    1.1354498   -6.4125877    121.75778  0.036762614   0.03823954            3 
  277000    1.1224645   -6.3677319    122.49544  0.036851818  0.038219958            2 
  278000    1.1213408   -6.3962554    123.10029  0.036900567  0.038199794            3 
  279000    1.1594925   -6.3808816    122.88999  0.036705492  0.038179178            3 
  280000    1.1530203   -6.4008057    123.27812  0.036689916  0.038157653            2 
  281000    1.1548069    -6.409927    124.07085   0.03679444     0.038137            3 
  282000    1.1344534   -6.4031449    124.82451  0.036886675  0.038118248            2 
  283000    1.1576037   -6.4152004    125.45265  0.036941299  0.038101612            1 
  284000    1.1380197   -6.4635366    125.67608  0.036876785  0.038086281            2 
  285000    1.1538565   -6.4410103    125.96774  0.036832671  0.038069552            4 
  286000    1.1161711   -6.4234532     126.6549  0.036904108  0.038053901            2 
  287000    1.1733627    -6.406767    126.72291  0.036795269  0.038036715            2 
  288000    1.1366251   -6.4276269    127.20652  0.036807441  0.038020059            1 
  289000    1.1313611    -6.390776    128.12309  0.036944374  0.038003068            4 
  290000    1.1437654   -6.4059899    127.80693   0.03672613  0.037987066            2 
  291000    1.1296153   -6.4266398    128.61921  0.036832534   0.03796956            3 
  292000    1.1309563    -6.403628    128.76194   0.03674713  0.037953583            3 
  293000    1.1090553   -6.4091756    129.31504  0.036779021  0.037936605            3 
  294000    1.1301956   -6.4165971    129.67487  0.036755917   0.03791947            4 
  295000    1.1371481   -6.3858157     130.1297  0.036759801  0.037902186            3 
  296000    1.1625163   -6.4256343    130.18282  0.036650569  0.037884301            2 
  297000    1.1158129   -6.4055576     130.7132  0.036675983  0.037866842            5 
  298000    1.1253846   -6.4157976    131.01484   0.03663726  0.037848891            3 
  299000    1.1298778   -6.4207447    131.86913  0.036752824  0.037830667            3 
  300000    1.1301036   -6.4142693    132.09826  0.036693962  0.037813146            4 
  301000    1.1262699   -6.3793172    131.92611  0.036524393  0.037794324            3 
  302000    1.1154113   -6.4213197    131.89733  0.036395509  0.037773691            3 
  303000    1.1510946   -6.4619242    132.45393  0.036428474  0.037752481            5 
  304000    1.1337002   -6.4294722    132.65091   0.03636264  0.037731168            5 
  305000    1.1356364   -6.4035408    133.44123  0.036459352  0.037710756            4 
  306000    1.1277081   -6.4637904     133.0731   0.03623995  0.037688903            3 
  307000    1.1365264   -6.4704771    133.41157  0.036213781  0.037665361            5 
  308000    1.1390322   -6.4350088     133.9399  0.036239151  0.037642141            2 
  309000    1.1217962   -6.4066659    134.73098  0.036335216  0.037620031            2 
  310000    1.1321592   -6.4626178    135.45982  0.036413929  0.037598863            3 
  311000     1.152918   -6.4523925     135.6818  0.036356325  0.037578719            2 
  312000    1.1383382   -6.4514953    136.54121   0.03646934  0.037560078            2 
  313000    1.1450303    -6.422097    136.57076  0.036360692  0.037541976            2 
  314000    1.1227084   -6.4407379    137.07952  0.036379915  0.037522982            2 
  315000    1.1424138   -6.4464942    137.33944  0.036333186  0.037503856            3 
  316000    1.1082707    -6.439813    138.02466  0.036398907  0.037483523            3 
  317000     1.143445   -6.4401275    138.32556  0.036363186  0.037464654            5 
  318000    1.0998613   -6.4210544    138.21619  0.036220174  0.037445046            3 
  319000    1.1317179   -6.4283361    138.92313  0.036291309  0.037425194            4 
  320000     1.107697   -6.4588113    138.65021  0.036106825  0.037404215            3 
  321000    1.1365237   -6.4282162    139.26064  0.036152814  0.037382549            2 
  322000    1.1153495   -6.4701078    140.11479  0.036261593  0.037361446            2 
  323000    1.1307096    -6.443597    140.13393  0.036154264  0.037341239            4 
  324000    1.1156563   -6.4232586    140.57596  0.036156368  0.037320618            2 
  325000    1.1335329   -6.4319517    141.06102  0.036169493  0.037301134            2 
  326000    1.1329544    -6.443996    141.63497  0.036205258  0.037281348            4 
  327000    1.1275099   -6.4481261    142.15804  0.036227839  0.037263106            4 
  328000    1.0970539   -6.4508563    142.74606  0.036266783   0.03724551            2 
  329000    1.1274529   -6.5006991    142.93281  0.036203852  0.037227773            2 
  330000    1.1382369   -6.4852315     143.0725  0.036129419  0.037209114            3 
  331000    1.1130204   -6.4620036    143.26076  0.036067664  0.037191064            2 
  332000    1.1215998   -6.4589281    144.30335  0.036220719  0.037173932            5 
  333000    1.1071192   -6.4317166    144.78747    0.0362331  0.037156715            2 
  334000    1.1058736    -6.474612    145.04471    0.0361888  0.037140194            9 
  335000    1.1038378   -6.4591998    145.76001  0.036258709   0.03712491            3 
  336000    1.1179753   -6.4192773    146.72323   0.03638969  0.037109027            2 
  337000    1.1273152   -6.4704301    146.48312  0.036222335  0.037093101            3 
  338000    1.1227766   -6.4499819    146.52623  0.036125796  0.037077833            2 
  339000    1.1237407   -6.4832094    147.30677  0.036211103  0.037062629            3 
  340000    1.0980742   -6.4931035    147.64359  0.036187154  0.037047584            2 
  341000     1.121942   -6.4756172     147.5384  0.036055326  0.037031579            3 
  342000    1.1199712   -6.4524959    148.86347  0.036272776  0.037016195            4 
  343000    1.1250575   -6.4382966    149.05948  0.036214645  0.037001522            2 
  344000    1.1117482   -6.4170638    149.15596  0.036132742  0.036985661            3 
  345000     1.121668   -6.4816283    149.33147  0.036070404  0.036969799            3 
  346000    1.1215732    -6.482887    149.63413  0.036039048  0.036953092            3 
  347000    1.1093496   -6.4159901    150.14298  0.036057393  0.036937351            3 
  348000    1.1025673   -6.4171336    150.41024  0.036017778  0.036920614            2 
  349000    1.1154897   -6.4559949    150.73335  0.035991725  0.036904593            3 
  350000    1.1111887   -6.4824614    151.32077  0.036028755   0.03688735            2 
  351000    1.1199106   -6.4584437    151.15121  0.035885853  0.036869646            2 
  352000    1.1368668   -6.4845521    151.62951  0.035897138  0.036852871            3 
  353000    1.1281607   -6.4813031    152.29729  0.035953091  0.036836574            3 
  354000    1.1187314   -6.4767493    152.51569   0.03590294  0.036820618            7 
  355000    1.1133439   -6.4352712    153.44556  0.036020085  0.036804861            3 
  356000    1.1177478   -6.4575525    153.63637   0.03596357  0.036789276            9 
  357000    1.1149796   -6.4455083     154.1663  0.035986531  0.036772859            2 
  358000    1.1214168     -6.44431    154.68641  0.036007079  0.036756726            1 
  359000    1.1224946   -6.4603762    154.61956  0.035891263  0.036740001            2 
  360000    1.0835968    -6.497278    154.73281  0.035817779  0.036722729            4 
  361000    1.1143814    -6.466975     154.9265  0.035763274   0.03670445            2 
  362000      1.13754   -6.4801659    155.59378  0.035818089  0.036686824            4 
  363000    1.1272598   -6.4864569    156.09539  0.035834572  0.036670537            3 
  364000     1.081652   -6.4323722    156.19291  0.035758449  0.036654605            2 
  365000    1.0881594   -6.4269375    156.73253  0.035783682  0.036637387            2 
  366000    1.0804531   -6.4438014    157.16484  0.035784345  0.036620918            2 
  367000     1.093555   -6.4864197    157.27482  0.035711812  0.036604734            4 
  368000    1.1338224   -6.4958051    157.97279  0.035772824  0.036588859            2 
  369000    1.0871146   -6.4391599    159.30309  0.035976308  0.036574084            2 
  370000    1.0788197   -6.4779538      158.818   0.03576982  0.036560403            4 
  371000    1.1262067   -6.4612421    159.75665  0.035884244  0.036546042            2 
  372000    1.0996025   -6.4974681    159.85718  0.035810301  0.036531786            3 
  373000    1.1118842   -6.4699322    160.69274   0.03590097  0.036517778            6 
  374000     1.088261   -6.5010445    160.48837  0.035759441   0.03650258            4 
  375000    1.1127069   -6.5042776    160.91423  0.035758717  0.036487445            2 
  376000    1.1131594    -6.503044    160.78651  0.035635307  0.036471624            4 
  377000    1.1111175   -6.4877218    161.60582  0.035721889  0.036456545            2 
  378000    1.0991989   -6.4567695    161.82439   0.03567557  0.036441886            5 
  379000    1.0996887   -6.4973132    162.03089  0.035626844  0.036426256            6 
  380000    1.0923704   -6.5021121    162.47844  0.035631237  0.036410243            2 
  381000     1.111867   -6.4815347    163.03402  0.035659234  0.036395012            4 
  382000    1.1182319    -6.505905      163.118  0.035584206  0.036379586            3 
  383000    1.1095991   -6.4711437    163.68996  0.035615744  0.036364976            2 
  384000    1.0710124   -6.4683604    164.57592   0.03571526  0.036350482            2 
  385000    1.0819786    -6.483018    164.20841  0.035542946  0.036335731            2 
  386000     1.110493    -6.493177      164.787  0.035575778  0.036321071            2 
  387000    1.0972382   -6.4471305    165.61972   0.03566316  0.036307186            2 
  388000    1.0969852   -6.4920356    166.25304  0.035707268  0.036293045            2 
  389000    1.1109742   -6.5027929    166.24955  0.035614727  0.036279232            5 
  390000    1.1066187   -6.4952367    166.06825  0.035484668   0.03626469            3 
  391000    1.0999271   -6.5167919    166.75746  0.035540806  0.036250111           11 
  392000    1.0927827   -6.4636822    167.10451  0.035523918  0.036235565            3 
  393000    1.0946617   -6.4916136    167.43368  0.035503325  0.036221364            4 
  394000    1.1047117   -6.4980104    168.34322  0.035605588  0.036207155            3 
  395000     1.117641   -6.4996183    168.73443  0.035597981  0.036192294            5 
  396000    1.0962702   -6.5010064     168.9901   0.03556189  0.036178123            3 
  397000    1.0986429   -6.4960426    168.95109  0.035464125  0.036163068            2 
  398000    1.1208135   -6.4743346    169.16582  0.035419979  0.036148594            3 
  399000     1.086216   -6.5021026    169.84547  0.035473156  0.036134388            4 
  400000    1.0826209   -6.4685901    169.99986  0.035416638  0.036120655            3 
  401000    1.0984115   -6.4586272    170.65986  0.035465475  0.036106057            5 
  402000    1.0815419   -6.5033699    171.01843  0.035451582  0.036090863            2 
  403000    1.0935759    -6.482268    171.01402  0.035362701  0.036075881            3 
  404000    1.0866831   -6.4965571     171.5806  0.035392039   0.03606045            4 
  405000    1.1048263   -6.4927566    171.62036   0.03531283  0.036044944            4 
  406000    1.0980654   -6.4887462    172.55118  0.035416909  0.036029729            6 
  407000    1.0570359   -6.4712027    172.69671  0.035359687  0.036014983            6 
  408000    1.0849671   -6.5111247    172.69214  0.035272087  0.035999986            2 
  409000    1.0893359   -6.4805081    173.29486  0.035308652   0.03598515            3 
  410000    1.1146047   -6.4871216    173.98141  0.035362076  0.035971057            6 
  411000     1.086226   -6.5103085    174.17837  0.035315971  0.035956927            3 
  412000    1.0811699   -6.4788605    174.76677  0.035349265  0.035943618            2 
  413000    1.0940695   -6.5049769    174.98285  0.035307273  0.035930263            7 
  414000    1.0931105    -6.528246    175.76127  0.035378678  0.035917312            3 
  415000    1.1166143   -6.5271809    176.54146  0.035450092  0.035904315            2 
  416000    1.0813667   -6.5296611    176.41977  0.035340499  0.035891726            6 
  417000    1.0745279   -6.5348594    176.34544  0.035240895  0.035878077            2 
  418000    1.0788326   -6.4756523    177.18657  0.035324276  0.035864338            4 
  419000    1.0638168   -6.5472149    177.10044   0.03522284  0.035850168            2 
  420000    1.0874564   -6.4912333    177.35178  0.035188845  0.035835039            2 
  421000    1.0869621   -6.5049295    177.82078  0.035198095   0.03582035            3 
  422000    1.0969919   -6.4947934    178.25932  0.035201287  0.035805838            2 
  423000    1.0810363   -6.5242224    178.34786  0.035135513  0.035791554            3 
  424000    1.0659995   -6.4955994    179.22223  0.035224495  0.035776778            4 
  425000     1.090632   -6.5313723    178.72175   0.03504348  0.035762275            2 
  426000    1.1059504   -6.5350295     179.5924  0.035131534  0.035747726            4 
  427000    1.0799939   -6.5042648    179.83427  0.035096462  0.035733112            6 
  428000    1.0708461   -6.5498332    179.99509  0.035045774  0.035718166            1 
  429000    1.0685412   -6.4921342    181.19788  0.035197724   0.03570367            4 
  430000    1.0842542   -6.5390289     180.9891  0.035075406   0.03568935            5 
  431000    1.0525816   -6.4940516    181.60342  0.035112803  0.035675687            6 
  432000    1.0866462   -6.4894706    182.47573  0.035199793  0.035662353            3 
  433000    1.0869062   -6.5425141    182.65218   0.03515246  0.035649327            3 
  434000    1.0780047   -6.5183337    182.96236  0.035131021  0.035635631            3 
  435000    1.0735147   -6.5384774     183.4207  0.035138065   0.03562235            2 
  436000    1.0502395   -6.5479567    183.92332   0.03515354  0.035609565            3 
  437000    1.0591408   -6.5329092    184.11056  0.035108802  0.035596468            2 
  438000    1.0736363   -6.5259351    184.26122  0.035057311  0.035583452            4 
  439000    1.1035133   -6.5396131    183.93805  0.034916106  0.035569527            3 
  440000    1.1100989   -6.5475736     184.5339  0.034949603   0.03555535            3 
  441000    1.0617289    -6.530566    184.64887  0.034892076  0.035540688            5 
  442000     1.086203   -6.5466605    185.46618  0.034967228  0.035526656            2 
  443000    1.0620769   -6.5315639    185.78247  0.034947793  0.035512944            3 
  444000    1.0795613   -6.5142996    186.42383  0.034989458  0.035498827            2 
  445000    1.0583402   -6.5566163    186.81216  0.034983551  0.035484501            5 
  446000    1.0842374   -6.5155512    186.79765    0.0349024  0.035469946            3 
  447000    1.0781216   -6.5658601    187.17844   0.03489531    0.0354556            4 
  448000    1.0740795   -6.5438243    187.79818  0.034932697  0.035441554            3 
  449000    1.0797716   -6.5257109    188.13323   0.03491708  0.035427274            3 
  450000     1.083062   -6.5056628    188.02117  0.034818736  0.035412653            3 
  451000    1.0961968   -6.5204673    188.42351  0.034815874  0.035398139            6 
  452000    1.0760788   -6.5467628    188.81952  0.034811859   0.03538312            5 
  453000    1.0450893   -6.5529055    188.27069  0.034634049  0.035367613            2 
  454000    1.0828893   -6.5111222    189.24023  0.034735725  0.035352285            2 
  455000    1.0746533   -6.5227843    189.60115  0.034725486  0.035337197            3 
  456000    1.0704969   -6.5226172    190.12975  0.034745933  0.035321881            3 
  457000    1.0778612   -6.5998094    189.72211  0.034595571  0.035305811            2 
  458000    1.0705615   -6.5706021    190.10796   0.03459024  0.035289843            5 
  459000     1.081893   -6.5674027    190.99938   0.03467672  0.035274906            3 
  460000    1.0708285   -6.5495922    191.16655  0.034631621   0.03525952            4 
  461000    1.0466774   -6.5766037    191.03932    0.0345335  0.035244166           10 
  462000     1.069704   -6.5603938    191.53151  0.034547531   0.03522834            4 
  463000    1.0814834   -6.5631139    192.04915  0.034566081  0.035212305            5 
  464000    1.0791968   -6.5770345    192.29007  0.034534855  0.035195892            1 
  465000    1.0789447   -6.5376387     192.7188  0.034537419  0.035179783            3 
  466000    1.0619635   -6.5671359    192.61229  0.034444257   0.03516356            4 
  467000    1.0631518   -6.5491171    193.89338  0.034599104  0.035147917            2 
  468000    1.0752597   -6.5439223    194.05363  0.034553708  0.035132786            3 
  469000    1.0509356   -6.5650308    194.37654   0.03453741  0.035117763            3 
  470000    1.0852329     -6.56927    194.72405   0.03452554  0.035103154            7 
  471000    1.0528045   -6.5603148    195.22287  0.034540494  0.035088675            4 
  472000    1.0782947   -6.5333147    196.14158  0.034629516  0.035074669            4 
  473000     1.076467   -6.5838237    196.52932  0.034624616  0.035061229            2 
  474000    1.0770822   -6.5944965     197.1357  0.034658175  0.035048104            2 
  475000    1.0684201    -6.587846     197.1696  0.034591158   0.03503485            3 
  476000    1.0882656   -6.5519783    197.27896  0.034537633  0.035021661            2 
  477000     1.053242   -6.5802722    197.26133  0.034462147  0.035007406            6 
  478000    1.0975919   -6.5649227    197.61842  0.034452304  0.034992725            3 
  479000    1.0623475   -6.5640368    197.99802   0.03444642  0.034977996            3 
  480000    1.0512911   -6.5705011    197.85253  0.034349397   0.03496259            4 
  481000     1.046099   -6.5192693    198.45304  0.034382024  0.034947396            4 
  482000    1.0562025    -6.625447    198.49472  0.034317897  0.034931695            6 
  483000    1.0669327   -6.5590938    198.89478  0.034315869  0.034915774            3 
  484000    1.0369182   -6.5462615    199.82161  0.034404547  0.034900381            2 
  485000    1.0571205   -6.5588404    200.06608  0.034375616  0.034885421            6 
  486000    1.0329803   -6.5368673    200.38341  0.034359296  0.034870301            1 
  487000    1.0480059   -6.5282689    200.87103  0.034372181   0.03485477            3 
  488000    1.0685951   -6.5383022    201.09016  0.034339167  0.034839512            4 
  489000    1.0596559   -6.5657251    201.26608  0.034298924  0.034824743            5 
  490000    1.0606564    -6.550862    202.01502  0.034356295   0.03481007            4 
  491000    1.0698169   -6.5409926    201.37336   0.03417742  0.034795125            3 
  492000    1.0536882   -6.5985615    201.36487  0.034106516  0.034779387            6 
  493000    1.0701133   -6.5889055    201.64172   0.03408413  0.034762383            3 
  494000    1.0474418   -6.5814964    201.71442  0.034027398  0.034745527            6 
  495000    1.0549101   -6.5492733     202.7476  0.034132592  0.034728973            3 
  496000    1.0517608   -6.5615163    202.81748  0.034075517  0.034713029            4 
  497000    1.0627314    -6.540419    203.75034  0.034163371   0.03469679            3 
  498000    1.0590476   -6.5413292    204.02972   0.03414152  0.034680538            2 
  499000    1.0443615   -6.5551694    204.20865   0.03410298  0.034664495           12 
  500000    1.0617247   -6.5928178    204.02037  0.034003395  0.034649034            9 
  501000    1.0604942   -6.5788076    204.60286  0.034032412  0.034632695            2 
  502000    1.0764091   -6.5596894     204.9277  0.034018542  0.034616056            5 
  503000    1.0613601   -6.5475664    204.79716  0.033929285  0.034600411            2 
  504000    1.0613056   -6.5747549    205.27244  0.033940549  0.034584108            4 
  505000    1.0791884   -6.5548908    206.00433  0.033994114  0.034567347            4 
  506000    1.0684694   -6.5737238    205.80334   0.03389383  0.034550645            6 
  507000    1.0535224   -6.6254941    206.41936  0.033928231  0.034533743            2 
  508000     1.072569   -6.5936458    205.90859  0.033777656  0.034516813            4 
  509000     1.071434   -6.5876568    206.95876  0.033883229  0.034499903            4 
  510000    1.0460303   -6.5554468    206.94213  0.033814074  0.034482492            4 
  511000    1.0568369   -6.5860399    207.46314  0.033832868  0.034465102            3 
  512000    1.0453167   -6.5792428    207.10541  0.033708563  0.034448024            3 
  513000    1.0374922   -6.5627553    208.41985  0.033856376  0.034430417            3 
  514000    1.0432684   -6.5842329    207.98751  0.033720413  0.034413287            2 
  515000    1.0437998   -6.5660098    208.59761  0.033753659  0.034396203            3 
  516000    1.0525703   -6.5915111    207.99313  0.033590622  0.034378901            2 
  517000    1.0398742    -6.577135    208.75339  0.033648193  0.034361627            2 
  518000    1.0386356   -6.6054742    208.93074  0.033611766  0.034343969            3 
  519000    1.0438959   -6.6012248    208.86777  0.033536893  0.034326289            2 
  520000    1.0370513   -6.5944137    208.91421  0.033479841   0.03430844            6 
  521000    1.0520648   -6.6016111    208.46915  0.033344394  0.034290037            7 
  522000    1.0321408   -6.5632629    210.35028  0.033580823  0.034272315            2 
  523000    1.0667907   -6.5981483    210.30904  0.033510045  0.034254603            5 
  524000    1.0425129   -6.5925049    210.53401  0.033481871  0.034236831            7 
  525000    1.0448754   -6.6038346     210.9203  0.033479412  0.034218024           12 
  526000    1.0493926   -6.6020447    211.34975  0.033483801  0.034199297            1 
  527000    1.0383971   -6.5622895    211.70231  0.033476013  0.034180799            5 
  528000    1.0392857   -6.5852055    212.18369  0.033488587  0.034162631            4 
  529000    1.0718994   -6.6057771    212.55863  0.033484347  0.034144359            5 
  530000    1.0524091   -6.6010058    212.48328  0.033409321  0.034126356            1 
  531000    1.0573061   -6.5621161    213.19862  0.033458666  0.034108728            3 
  532000     1.034845   -6.5682621    213.77952  0.033486767  0.034091266            3 
  533000    1.0484102   -6.6015753     213.8646  0.033437242  0.034073682            4 
  534000    1.0587113   -6.6188929    214.10653  0.033412379  0.034055978            5 
  535000    1.0337649   -6.6463056    214.70043  0.033442434  0.034038901            4 
  536000    1.0331074   -6.6171702    214.11311   0.03328873  0.034021754            4 
  537000    1.0233966   -6.5765203    214.99008  0.033362831  0.034004676            4 
  538000    1.0505013    -6.557469    215.56051  0.033389175  0.033988227            4 
  539000    1.0691208   -6.5954087    216.48398  0.033470004  0.033971839            2 
  540000    1.0576767   -6.5800181      217.157  0.033511883  0.033956181            3 
  541000    1.0264941   -6.6046093    217.41337  0.033489428  0.033941224            6 
  542000    1.0279109   -6.5972078     217.7102  0.033473279  0.033925811            5 
  543000    1.0326855   -6.5928696    217.98342  0.033453563  0.033910213            4 
  544000    1.0461621   -6.6169543    217.78962   0.03336238  0.033894492            3 
  545000    1.0359113   -6.5973038    218.28802  0.033377374  0.033878417            4 
  546000    1.0429721   -6.5918141    217.95368  0.033265213  0.033862523            7 
  547000    1.0483754   -6.6206686    218.70408   0.03331872  0.033846592            2 
  548000    1.0456082   -6.6517235    219.23423  0.033338539  0.033830429            6 
  549000    1.0360354   -6.6269802    219.64284  0.033339835  0.033814524            5 
  550000    1.0363633   -6.5903842    220.51505  0.033411371  0.033798758            6 
  551000    1.0550273     -6.60023    220.13877  0.033293825  0.033783341            2 
  552000    1.0346137   -6.5938366    220.59863  0.033302933  0.033767589            3 
  553000    1.0401614   -6.6170646    221.02096  0.033306354  0.033752101            3 
  554000    1.0160466   -6.6333668     220.9775  0.033239696  0.033736191            4 
  555000    1.0390164   -6.6199259    221.64516  0.033280055  0.033720245            4 
  556000     1.054438    -6.622096    221.20555  0.033154309  0.033704732            5 
  557000    1.0170829   -6.6267303    222.03073  0.033218242  0.033688884            3 
  558000    1.0549932   -6.5892485    222.09006  0.033167571  0.033672881            4 
  559000    1.0355029   -6.6049482    222.37925   0.03315135  0.033656925            4 
  560000    1.0383868   -6.6135463    222.17592  0.033061893  0.033640946            3 
  561000    1.0087009   -6.6065355    223.42232  0.033188104  0.033624642            5 
  562000    1.0568389    -6.623753     222.6231  0.033010543  0.033608027            6 
  563000    1.0224337   -6.6179064    224.07751  0.033167186  0.033592011            5 
  564000    1.0279801   -6.6030129     223.6352  0.033043026  0.033575589            4 
  565000    1.0195574   -6.6265086    224.08657  0.033051116  0.033558949            3 
  566000    1.0228234   -6.6330986    224.98942   0.03312565  0.033542971            4 
  567000    1.0429507   -6.6407955    224.98113   0.03306601   0.03352671            3 
  568000    1.0423243   -6.6608666    225.23806   0.03304549  0.033511002           11 
  569000    1.0313326   -6.6158692    225.80515  0.033070467  0.033495569            4 
  570000    1.0105062   -6.6146229     225.9444  0.033032808  0.033480535            6 
  571000    1.0389434   -6.6010663    226.77926  0.033096798  0.033465935            2 
  572000    1.0490932    -6.633186    226.84378  0.033048336   0.03345092            5 
  573000    1.0240148   -6.6062267    226.80931  0.032985647  0.033435533            2 
  574000    1.0129404   -6.6505602    227.52378  0.033031908  0.033420266            3 
  575000    1.0171688   -6.6548168    227.14006  0.032918849  0.033404661            5 
  576000    1.0212345    -6.669428    227.25992  0.032879039  0.033388596           10 
  577000    1.0119082   -6.6102676    227.41953  0.032845109   0.03337232            2 
  578000    1.0014052   -6.6501796    227.22079   0.03275963  0.033355604            4 
  579000    1.0268591   -6.6111064    227.17186  0.032696008  0.033338386            6 
  580000   0.98455944   -6.6267151    228.50966  0.032831848  0.033321771            3 
  581000    1.0003658   -6.6603257    227.73237  0.032663852  0.033304918            5 
  582000    1.0114437   -6.6435401    228.74379  0.032752548  0.033287605            4 
  583000    1.0156115    -6.646462    228.63154  0.032680323  0.033270306           12 
  584000    1.0193521   -6.5992087    230.21023  0.032849633  0.033253411            2 
  585000    0.9987379   -6.6294765     229.1174  0.032637806  0.033236272            2 
  586000     1.042861    -6.655162    229.52628  0.032640256  0.033219077            8 
  587000   0.98622828   -6.6548271    230.01352  0.032653822  0.033202179            3 
  588000    1.0277458   -6.6343475    230.36377  0.032647927   0.03318506            4 
  589000    1.0355455   -6.6440705    229.89358  0.032525973  0.033167684            3 
  590000    1.0305311   -6.6275911    230.51213  0.032558211  0.033150561            3 
  591000    1.0330918   -6.6565018    230.30687  0.032474179  0.033133036            2 
  592000    1.0267068   -6.6980166    230.06579  0.032385387  0.033114934            7 
  593000    1.0221108   -6.6616075    230.32045  0.032366561  0.033096426            6 
  594000    1.0336698   -6.6525736    230.68523  0.032363247  0.033077618            4 
  595000    1.0243064    -6.637049    230.50233   0.03228324  0.033058947           11 
  596000    1.0234446   -6.6554226    231.90439  0.032425111  0.033041098            7 
  597000    1.0133605   -6.6559721    231.30219  0.032286738  0.033023402            3 
  598000    1.0149039   -6.5988992    232.45341  0.032393172  0.033005263            4 
  599000    1.0158626   -6.6710725    232.60776  0.032360568  0.032987513            4 
  600000    1.0197834   -6.6474732     232.9374  0.032352416  0.032969831            4 
  601000    1.0289423    -6.669523    232.73266  0.032270197  0.032951782            3 
  602000    1.0227817   -6.6398533    232.51585  0.032186579  0.032933503            4 
  603000   0.99984895   -6.6149989    234.31989  0.032382516  0.032915085            3 
  604000    1.0271181    -6.661197    233.43938   0.03220742  0.032896685            5 
  605000    1.0033445   -6.6612044    233.18037  0.032118508  0.032878026            4 
  606000    1.0239652   -6.6819281    233.53505   0.03211428  0.032859735            6 
  607000    1.0493363   -6.6727777    233.74909  0.032090759  0.032840842            2 
  608000    1.0072421   -6.6566875    234.49452  0.032140148  0.032822099            4 
  609000    1.0168305   -6.6566592    235.08242  0.032167819  0.032803214            3 
  610000    1.0051909   -6.6760355     234.7003  0.032062883  0.032784335            2 
  611000    1.0222568   -6.6792684    235.20912  0.032079803  0.032765434            5 
  612000   0.99931934   -6.6327193    235.93932  0.032126814  0.032746728            3 
  613000    1.0110064   -6.6435698    235.81382  0.032057344  0.032728225            4 
  614000   0.99632961   -6.6621112    236.74897  0.032132054  0.032710162            6 
  615000    1.0032086   -6.6568565    236.35221  0.032026044   0.03269237            6 
  616000    1.0050523   -6.6784968    236.22515  0.031956865   0.03267401            3 
  617000   0.99105501   -6.6405006    236.70123  0.031969371  0.032655893            3 
  618000    1.0300626   -6.6720816    237.67531   0.03204899  0.032637522            3 
  619000    1.0079249   -6.6672291    237.78816  0.032012407  0.032619479            2 
  620000    1.0353471   -6.6562552    238.05039  0.031996021  0.032601759            4 
  621000    1.0191142       -6.667    238.15817  0.031958961  0.032583977            4 
  622000    1.0154374   -6.6713259    238.41466  0.031941942  0.032566219            3 
  623000    1.0087655   -6.6471627    238.44987  0.031895382  0.032548211            3 
  624000    1.0056426   -6.6611707    238.83751  0.031896035  0.032529985            3 
  625000    1.0136986   -6.6754422    239.23182  0.031897576   0.03251166            3 
  626000    1.0018126   -6.6901596    239.18704  0.031840661  0.032493723            4 
  627000     1.013656   -6.6463676    239.93821  0.031889714  0.032475693            7 
  628000    1.0028358   -6.6497849    240.03134  0.031851293  0.032457672            3 
  629000    1.0036243   -6.6443051    240.78012  0.031899856  0.032440022            2 
  630000   0.98228332   -6.6684059    241.19532  0.031904143  0.032422784            4 
  631000   0.97481285   -6.7010446    240.95516  0.031821865  0.032405217            3 
  632000    1.0216966   -6.6710111    241.41318  0.031831907   0.03238776            6 
  633000    1.0142175   -6.6706485    242.54093  0.031930085  0.032370542            3 
  634000    1.0012259   -6.6934082    241.62865  0.031759812  0.032353294            4 
  635000    1.0146898   -6.7007497    242.06334  0.031766843  0.032336023           11 
  636000   0.98637596   -6.6793083    242.93576  0.031831206  0.032318583            4 
  637000   0.98626504   -6.6752147    243.49092  0.031853862  0.032301248            3 
  638000     1.011196   -6.7291199    242.89685  0.031726339  0.032283722            4 
  639000   0.99453871   -6.6765268    243.02497  0.031693398  0.032265856            3 
  640000   0.98685733   -6.6658958    243.94439  0.031763593  0.032248052            3 
  641000   0.98000154   -6.6736913    243.55365  0.031663241  0.032230159            5 
  642000   0.98192469   -6.6496581    244.36386  0.031719089   0.03221234            6 
  643000    1.0181348   -6.6748454    244.11039   0.03163691   0.03219449            3 
  644000   0.98608483   -6.6716457    244.31393  0.031614121  0.032176147            2 
  645000    1.0081021   -6.6854815    244.15723  0.031544862  0.032157912            8 
  646000   0.99031417   -6.6719141    244.52173  0.031543051  0.032139591            4 
  647000   0.98661742   -6.6724367    245.15597  0.031575988  0.032121668            8 
  648000   0.98954224   -6.6807708    245.52692  0.031574964  0.032103527            3 
  649000   0.99838721   -6.6801224    245.66988  0.031544669  0.032085198            3 
  650000    0.9893384   -6.6926444    245.70654  0.031500838  0.032067598            4 
  651000    1.0148709   -6.7281342     246.0458  0.031495878  0.032050102            5 
  652000    1.0237316   -6.6604291    246.67277  0.031527706  0.032032669            5 
  653000    0.9926903   -6.6811865    247.61755  0.031599994  0.032015334            5 
  654000    1.0047498     -6.69774    247.74315  0.031567679  0.031998341            6 
  655000   0.99763591   -6.6864958    248.08333  0.031562764  0.031981446            3 
  656000   0.99592941   -6.7046344    247.41419  0.031429648  0.031964213            6 
  657000    1.0007965   -6.6983308    247.86905  0.031439504  0.031946717            6 
  658000   0.99267855    -6.692537    247.72994  0.031374106   0.03192904            3 
  659000   0.98128825   -6.6982195    248.48356  0.031421796  0.031911288            4 
  660000   0.98568766   -6.6919405    248.20685  0.031339249  0.031893406            4 
  661000   0.98740913   -6.7157362    248.27905  0.031300939  0.031875346            4 
  662000   0.99182505   -6.7095779    248.47012  0.031277709  0.031857121            5 
  663000    1.0065769    -6.695007    249.82192  0.031400442  0.031839184            4 
  664000   0.97242071    -6.678839     249.3277  0.031291127  0.031821348            7 
  665000   0.98608303   -6.7072373    249.69055  0.031289542  0.031803398            3 
  666000   0.96081232   -6.7427934    249.19753  0.031180872  0.031785533            4 
  667000   0.98387629   -6.7217362    250.19616  0.031258891   0.03176767            6 
  668000   0.98182485   -6.6996382    250.16849  0.031208645   0.03175006            4 
  669000    1.0120223   -6.6814519    250.65995  0.031223212  0.031732268            2 
  670000   0.99153274   -6.6891197    251.05293  0.031225489  0.031714417            3 
  671000   0.99943326   -6.6991511    250.22754  0.031076446  0.031696207            7 
  672000   0.99087873   -6.6664642    251.64545  0.031206032  0.031678364            4 
  673000   0.98793273   -6.6951192    252.05499  0.031210375  0.031660636            5 
  674000    0.9951484   -6.7187752    251.02529  0.031036757   0.03164237            6 
  675000   0.97307692   -6.6855503    251.76505  0.031082105  0.031623892            5 
  676000     1.006363   -6.6682083     252.1004  0.031077466   0.03160562            2 
  677000   0.96318954    -6.749267    251.54685  0.030963423  0.031587368            6 
  678000   0.98998768   -6.6764253    251.91563  0.030963082  0.031568872            4 
  679000   0.98968951    -6.698031     252.1533   0.03094665  0.031550261            4 
  680000   0.99161725   -6.7199935    252.00333  0.030882761  0.031531322            7 
  681000    0.9884347   -6.7366633    252.14216    0.0308544   0.03151235            8 
  682000   0.99545852    -6.708166    251.85806  0.030774445  0.031493211            4 
  683000   0.96231941   -6.7619299    252.82708  0.030847618  0.031473755            6 
  684000   0.97092256   -6.7310394     252.9735  0.030820358  0.031454625            3 
  685000   0.97242077   -6.7182205    253.27622  0.030812193  0.031435609            6 
  686000   0.98243464   -6.7388808    253.11197  0.030747323  0.031416316            4 
  687000   0.97757969   -6.7501809    253.09999  0.030701115  0.031397044            2 
  688000   0.98013811   -6.7220955      253.354  0.030687257  0.031377906            7 
  689000   0.97245336   -6.7230871    254.71677  0.030807543  0.031358877            9 
  690000   0.97350691   -6.6923804    254.46981  0.030733068  0.031340127            7 
  691000   0.97141089   -6.7175518    254.62251  0.030707008  0.031321416            3 
  692000    0.9843747   -6.7062974    254.51141  0.030649255  0.031302053            7 
  693000   0.96960226   -6.7411263    254.28456  0.030577749  0.031282703            4 
  694000   0.96543781   -6.7247063    254.76078  0.030590871   0.03126328            3 
  695000   0.98280135   -6.7389436    254.23681   0.03048403  0.031243567            3 
  696000   0.98242497   -6.7218494    254.94821  0.030525408  0.031223812            2 
  697000    0.9816959   -6.7154284    255.07345  0.030496587  0.031204249            6 
  698000   0.97374607   -6.7433983    255.76027  0.030534894  0.031184955            7 
  699000   0.97993881   -6.7180796    256.29932  0.030555474  0.031165791            9 
  700000   0.96704317   -6.7302209    256.58594  0.030545945  0.031146447            4 
  701000   0.98069732   -6.7398443    256.78647  0.030526209  0.031127366            5 
  702000   0.99111914   -6.6859675     257.5975     0.030579  0.031108353            3 
  703000   0.96813942   -6.7565441    256.47588  0.030402546  0.031089323            4 
  704000    1.0140735   -6.7044471    258.06863  0.030547897  0.031070459            5 
  705000   0.99310949   -6.7311945    257.85406  0.030479203  0.031051747            4 
  706000   0.97321518   -6.7234528    257.17245  0.030355578  0.031032879            6 
  707000   0.94537517   -6.7727315    257.73006  0.030378367  0.031013759            6 
  708000   0.97094554   -6.7359795    257.23674  0.030277394   0.03099475            8 
  709000    0.9945238   -6.7361246    258.23478  0.030351995  0.030975728           10 
  710000   0.97221146   -6.7637806    258.07708  0.030290737  0.030956417            3 
  711000   0.97144036   -6.7489611    258.30077  0.030274352  0.030937179            5 
  712000    0.9823593   -6.7299542    258.37075  0.030240023  0.030917589            2 
  713000   0.97410222    -6.717982    258.70788  0.030237012  0.030898128            4 
  714000   0.96682018   -6.7432651    259.66301   0.03030614  0.030878678            3 
  715000   0.97227586   -6.7227719    259.59745  0.030256113  0.030859467            5 
  716000   0.97130434   -6.7343798    259.73453   0.03022981   0.03084027            3 
  717000   0.98607971   -6.7488414    259.82194  0.030197807  0.030821073            3 
  718000   0.95571921    -6.774897    259.63096  0.030133584   0.03080181            4 
  719000     0.969788   -6.7221467    260.19442   0.03015698   0.03078264            3 
  720000      0.96295   -6.7246277    260.42988  0.030142347  0.030763513            6 
  721000   0.95532889   -6.7365023    261.21047  0.030190762  0.030744804            6 
  722000   0.96887474   -6.7344346    261.17722  0.030145108  0.030725759            7 
  723000   0.97266954   -6.7393993    261.59816  0.030151932  0.030706676            7 
  724000   0.98345267   -6.7345506    261.05353  0.030047598   0.03068733            2 
  725000   0.96332476   -6.7533895    261.76865  0.030088351  0.030668065            3 
  726000   0.97133074   -6.7303254    262.25281   0.03010248  0.030648819            3 
  727000   0.96181001   -6.7477247    261.38715  0.029961847  0.030629487            3 
  728000   0.95415704   -6.7382411     261.8363  0.029972104  0.030610196            6 
  729000   0.97060941   -6.7362962    261.79095  0.029925806  0.030590899            3 
  730000   0.97027763   -6.7483484    262.62529  0.029980056  0.030571294            4 
  731000   0.95336824   -6.7419603     262.0353  0.029871785  0.030551695            4 
  732000   0.95606423   -6.7591618     262.1994  0.029849658  0.030531915            5 
  733000    0.9685133   -6.7383526    262.17672  0.029806358  0.030512101            3 
  734000   0.95536431   -6.7551223    262.24416  0.029773405  0.030491911            3 
  735000   0.92391654   -6.7348421     262.0497  0.029710851  0.030471812            3 
  736000   0.94968847   -6.7678809    262.15886  0.029682842  0.030451278            6 
  737000   0.95708707   -6.7628062    262.35443   0.02966468   0.03043064            2 
  738000   0.94310272   -6.7624664    262.06778  0.029592116  0.030409923            4 
  739000   0.98306242   -6.7892039    261.79838  0.029521694  0.030389197            4 
  740000   0.95872558   -6.7561141    262.99999  0.029617116  0.030368253            4 
  741000   0.95946853   -6.7540779    262.59602  0.029531716  0.030347177            3 
  742000   0.93811833   -6.7484167    263.28143  0.029568893  0.030326158            4 
  743000   0.95459666   -6.7617672    262.57766  0.029450164  0.030305093            4 
  744000   0.95282655    -6.727058    263.53086  0.029517345  0.030284111            5 
  745000   0.95936623   -6.7525541     263.7074  0.029497472  0.030263242            3 
  746000   0.95532744   -6.7461558    263.40184  0.029423798  0.030242518            9 
  747000   0.94120773   -6.7340391    264.34727  0.029489878  0.030221718            5 
  748000     0.953565   -6.7499067    264.30872  0.029446159  0.030201081            9 
  749000   0.96335295   -6.7674985    264.52193  0.029430567  0.030180018            7 
  750000   0.94137969   -6.7483591     263.8979  0.029321989  0.030158975            2 
  751000   0.95759892     -6.73248     264.1945  0.029315856  0.030137855           11 
  752000   0.95033595   -6.7209611    265.11682   0.02937908  0.030117062            5 
  753000    0.9581208    -6.769832    264.79493  0.029304441  0.030096149            7 
  754000   0.93542685   -6.7635957    264.68467   0.02925339  0.030074946            7 
  755000   0.95817642   -6.7463502    264.26878   0.02916874  0.030053646            7 
  756000   0.95215536    -6.764735    264.71009  0.029178802  0.030032254            5 
  757000   0.96568131   -6.7636598    265.35771  0.029211549  0.030011263            6 
  758000   0.94166326   -6.7925583     265.6601  0.029206255  0.029990357            5 
  759000   0.95954081   -6.7851847    265.97438  0.029202281  0.029969411            4 
  760000   0.93905693   -6.7955912    265.44822  0.029106165  0.029948236            4 
  761000   0.94285352   -6.7866616    265.64263  0.029089206  0.029926893            3 
  762000   0.94464077   -6.7986917    266.53052  0.029148132  0.029905555            5 
  763000   0.96560909   -6.7800508    266.65098  0.029123087   0.02988425            3 
  764000   0.95503156   -6.7660668    266.68574  0.029088758   0.02986331            6 
  765000   0.96623088   -6.7912207    267.15987  0.029102382  0.029842133            2 
  766000   0.93453785   -6.7672634    266.31821  0.028972826  0.029820682            7 
  767000   0.93821805   -6.8089392    266.94488  0.029003138   0.02979941            3 
  768000   0.95637496   -6.7643106    267.99098  0.029078882  0.029778337            3 
  769000   0.94590565   -6.7989101    266.50583  0.028880129   0.02975711            3 
  770000   0.94283704   -6.8150167    267.14883  0.028912211   0.02973586            4 
  771000   0.95749911   -6.7695394    268.22642  0.028991182  0.029714598            5 
  772000   0.92563045   -6.7688029    268.00947  0.028930211  0.029693535            6 
  773000   0.94798568   -6.7990521    267.85754  0.028876405  0.029672642            5 
  774000   0.94424716   -6.7723634    269.19391  0.028982979  0.029651666            8 
  775000   0.93753202   -6.7877475    268.97862  0.028922432  0.029631054            4 
  776000   0.93089975   -6.7840326    269.13084  0.028901508  0.029610478            7 
  777000   0.93509426   -6.7963388     269.2511  0.028877209  0.029589657            9 
  778000   0.94496185   -6.7990182    269.97875  0.028918033  0.029569022            5 
  779000   0.94169337    -6.797118    270.16006  0.028900306  0.029548776            5 
  780000   0.93121516   -6.8136626    270.04175  0.028850614  0.029528573            5 
  781000   0.93496625   -6.7988118    270.92913  0.028908358   0.02950823            4 
  782000   0.94832493   -6.7935165    269.78008  0.028748943  0.029487721            4 
  783000   0.96064961    -6.791655    270.98625  0.028840597   0.02946741           11 
  784000   0.96422009   -6.7990299    272.00768  0.028912381  0.029447344            2 
  785000    0.9372691   -6.8347841    270.63252  0.028729566  0.029427196            5 
  786000   0.96504356   -6.8095092    271.07801  0.028740247  0.029406866            2 
  787000   0.94105872   -6.8116133     271.5327  0.028751875  0.029386376            4 
  788000   0.95078978   -6.8198513     271.6728  0.028730203  0.029366036            4 
  789000   0.93873175   -6.7903095    271.98181  0.028726427  0.029345802            3 
  790000   0.92751037     -6.81582    271.49494  0.028638707  0.029325482            6 
  791000   0.94252872   -6.7873178    271.06923  0.028557651  0.029305036            8 
  792000   0.94613539    -6.815382    271.88299  0.028607217  0.029284501            4 
  793000   0.92617157   -6.8140402    271.11268  0.028490194  0.029264175            4 
  794000   0.93478444    -6.823474    272.21063  0.028569545  0.029243714            3 
  795000   0.95501582   -6.7872259    272.52784   0.02856686  0.029223357            4 
  796000   0.91851611   -6.8135908    272.91889  0.028571911  0.029202899            5 
  797000   0.94914326   -6.8308513    273.05296  0.028550079  0.029182521            8 
  798000   0.93003308   -6.7870969    272.23055   0.02842842  0.029162148            9 
  799000   0.91563031   -6.8041643    273.36673   0.02851134  0.029141851            7 
  800000   0.92552325   -6.8013125    273.73739  0.028514311  0.029121527            7 
  801000   0.92123367    -6.778335    274.00096  0.028506134  0.029101404            3 
  802000   0.95002887   -6.8060057    273.95481  0.028465795  0.029081188            4 
  803000   0.94859762   -6.8133704    273.94078   0.02842889  0.029060891            2 
  804000   0.93687424   -6.8379692     273.5545  0.028353493  0.029040627            6 
  805000   0.91740913   -6.8215254    273.05789  0.028266862  0.029020187           10 
  806000   0.91070787    -6.837285    274.28718   0.02835889  0.028999837            3 
  807000    0.9302028   -6.8360458    274.55228  0.028351123  0.028979434            6 
  808000   0.92379335   -6.8141328    274.11875  0.028271323  0.028959201            5 
  809000   0.92320976   -6.8133157    274.84073  0.028310747  0.028938857            4 
  810000   0.93331402    -6.772485    275.21981  0.028314795  0.028918632            3 
  811000   0.92246782   -6.7950069    274.93517  0.028250634  0.028898181            5 
  812000    0.9456203   -6.8146376    274.87576  0.028209746  0.028877701            8 
  813000   0.91801822   -6.8407409    275.28392  0.028216884  0.028857344            5 
  814000   0.91752992    -6.791331    274.91808  0.028144766  0.028836742            2 
  815000   0.93950791   -6.8232161    275.27869  0.028147106  0.028816305            4 
  816000   0.90678084   -6.8319411     276.3959  0.028226706  0.028796085            3 
  817000   0.93951852   -6.8138428    276.76213  0.028229511  0.028776078            4 
  818000   0.94673224   -6.8313567    275.85135  0.028102215   0.02875582            3 
  819000   0.93332208     -6.83754    275.78308  0.028060956  0.028735394            7 
  820000    0.9115632   -6.8670097    275.69914  0.028018206  0.028714898            5 
  821000   0.93294865   -6.8009229    276.54166  0.028069596  0.028694449            5 
  822000   0.92350345   -6.8112754    276.56493  0.028037807  0.028673839            7 
  823000   0.94021869   -6.8487817    275.86398  0.027932764  0.028653199            9 
  824000   0.93914731   -6.8580728    276.62817   0.02797615  0.028632666            3 
  825000   0.92529689   -6.8015065    276.74045  0.027953581  0.028612082            9 
  826000   0.92328085   -6.8237029    277.37942  0.027984203  0.028591541            3 
  827000   0.90824818   -6.8493048    276.94451   0.02790654   0.02857097            4 
  828000   0.91867019   -6.8326315    277.03765  0.027882212  0.028550618            7 
  829000   0.90422712   -6.8093117    277.36623  0.027881608  0.028529987            3 
  830000   0.91307245   -6.7948253    278.37255  0.027949051  0.028509617            5 
  831000   0.90854222   -6.8084438    278.10195  0.027888282  0.028489462            3 
  832000   0.90123719   -6.8322811     277.7278  0.027817287  0.028469223            5 
  833000   0.92056275   -6.8178025    279.02337  0.027913503  0.028448908            4 
  834000   0.93133232   -6.8005952    279.16695  0.027894379  0.028428945            5 
  835000   0.92020423   -6.8410919    278.48344  0.027792759  0.028408978            5 
  836000   0.91897562   -6.8049984    278.94037  0.027805061  0.028389024            6 
  837000   0.91744824     -6.83905    278.31105  0.027709185  0.028368922            5 
  838000   0.91316425   -6.8409112      279.356  0.027780032  0.028348713            3 
  839000   0.92446156   -6.7975263     279.6486  0.027775984  0.028328775           11 
  840000   0.92071214   -6.8448131    280.15636   0.02779329  0.028308903            4 
  841000   0.91868178   -6.8171626     280.6389  0.027808056  0.028289022            3 
  842000   0.92440351   -6.8741388    279.51823  0.027664116  0.028269003            7 
  843000   0.91531205   -6.8535307    279.86022  0.027665107  0.028249024            4 
  844000   0.92382198   -6.8563319     279.8464  0.027630964  0.028228809           14 
  845000   0.89752927   -6.8603483    280.15291  0.027628492  0.028208721            6 
  846000   0.91596542   -6.8386566    280.39021  0.027619209  0.028188584            4 
  847000   0.92588509   -6.8356992    280.30437  0.027578155  0.028168312            5 
  848000   0.89967368   -6.8423356    281.23142  0.027636736  0.028148111            4 
  849000   0.93152443   -6.8366029     281.2242  0.027603474  0.028128058            4 
  850000   0.91506109   -6.8631189    280.65002  0.027514708   0.02810787            5 
  851000   0.93611878   -6.8593895    280.76776  0.027493905  0.028087758            4 
  852000   0.90695973   -6.8306066    280.96858  0.027481277  0.028067544           10 
  853000   0.88747903   -6.8573226    281.31255  0.027482664   0.02804722            5 
  854000   0.91859164   -6.8647979    280.84363  0.027404726  0.028026748            5 
  855000    0.9107901   -6.8725812    281.05443  0.027393219  0.028006195            5 
  856000   0.92098856   -6.8691055      281.074  0.027363123  0.027985695            3 
  857000   0.89668465   -6.8448947    282.00419  0.027421644  0.027965479            5 
  858000   0.92848406   -6.8469557    281.70764  0.027360882  0.027945191            7 
  859000   0.91011781   -6.8644549    282.12927  0.027369933   0.02792507            9 
  860000   0.90236549   -6.8355819    282.95728  0.027418341   0.02790507            4 
  861000    0.8954633   -6.8278062    282.38906    0.0273315  0.027885004            5 
  862000   0.90631951   -6.8570367    282.96223  0.027355204  0.027865028            7 
  863000   0.90849013   -6.8525663    282.90924  0.027318389  0.027845427           11 
  864000   0.90364451   -6.9020824    283.92097  0.027384353  0.027825557            6 
  865000   0.91327243   -6.8699806    283.42699  0.027305105  0.027805763            4 
  866000   0.91166044    -6.836628    283.52957  0.027283446  0.027786248            6 
  867000   0.91080577   -6.8524947    283.55387  0.027254313  0.027766681           10 
  868000    0.9005711   -6.9067082    283.31877  0.027200343  0.027746983            5 
  869000   0.90517159    -6.872958    284.84004  0.027314925  0.027727537           11 
  870000   0.89466397   -6.8773063    283.72777  0.027176989  0.027707811            4 
  871000   0.89475282    -6.868544    284.95851  0.027263539  0.027688242            4 
  872000   0.89904097   -6.8354423    284.68248  0.027205894  0.027668862           13 
  873000   0.91293932   -6.8468835    284.35232  0.027143215  0.027649373            9 
  874000   0.92071485   -6.8667314    284.53215  0.027129305  0.027629787            4 
  875000   0.92194199   -6.8731427    285.24444  0.027166137  0.027610207            9 
  876000   0.89138157   -6.8782701    285.21928  0.027132732  0.027590614            5 
  877000   0.91762658   -6.8604605    284.81368  0.027063254  0.027570864            6 
  878000   0.91726607   -6.8887863    285.47436  0.027095137  0.027551133            7 
  879000   0.91479491   -6.8690698    285.48839  0.027065642  0.027531088            3 
  880000   0.91135698   -6.8410139    285.67574  0.027052627  0.027511326            4 
  881000   0.90383751   -6.8777272    285.90589   0.02704369  0.027491778            8 
  882000   0.90369443   -6.8316238    285.29455  0.026955267  0.027472172            5 
  883000   0.89403245   -6.8891002    285.41588  0.026936191  0.027452411            6 
  884000   0.89540393   -6.9120871    285.45857  0.026909744  0.027432381            2 
  885000   0.88979424   -6.8450123    285.76893  0.026908562  0.027412326            6 
  886000   0.88790748   -6.8294096    285.96457  0.026896592  0.027392447            5 
  887000   0.90140438   -6.8851978    286.43802  0.026910749  0.027372807            5 
  888000   0.91422921   -6.8857931     286.9451  0.026928031  0.027353128            4 
  889000    0.9016377   -6.8700172    287.10885  0.026913091  0.027333583           13 
  890000   0.90458679   -6.8884297    286.48012  0.026823981  0.027313942            7 
  891000   0.88066716   -6.8904795    286.90527  0.026833639  0.027294199           20 
  892000   0.90990764   -6.9006211    287.16752  0.026828056  0.027274606            4 
  893000   0.90892063   -6.8776642    287.55444  0.026834121  0.027255085            4 
  894000   0.88819596   -6.8855165    287.23718  0.026774532  0.027235686           12 
  895000   0.89283141   -6.8803063    288.06109   0.02682133  0.027216368           13 
  896000   0.88980626   -6.9058942    287.64885  0.026753056  0.027197045            6 
  897000    0.8950973    -6.915605    287.93837  0.026750127  0.027177574            7 
  898000   0.91278697   -6.9058001    287.63711  0.026692382  0.027157946            6 
  899000   0.88034536   -6.8945859    288.71029   0.02676217  0.027138566            6 
  900000   0.89724942   -6.8992462    288.80273  0.026740993  0.027119317           14 
  901000   0.90215253   -6.8805825    289.35809   0.02676268  0.027100083            3 
  902000   0.88720223   -6.8897585     289.2143  0.026719725  0.027080788            3 
  903000   0.88145871   -6.8758732    288.62778  0.026636008  0.027061531            5 
  904000   0.88142933   -6.8853395    289.46292  0.026683529  0.027042169            4 
  905000   0.88436134   -6.8750974    289.26236  0.026635577  0.027022768            5 
  906000   0.88980088   -6.8857927    288.51473  0.026537411  0.027003206            4 
  907000   0.88151628   -6.8758775    288.55442  0.026511799  0.026983683            3 
  908000    0.8974612   -6.9067376    288.73213  0.026498911  0.026964192           16 
  909000   0.88028257   -6.8760854    289.75345   0.02656339  0.026944909            5 
  910000   0.88574481   -6.9231983    289.60743  0.026520827  0.026925504            6 
  911000   0.90216599   -6.9129423    289.54332   0.02648585  0.026906234            8 
  912000   0.88389719   -6.8786458    290.02383  0.026500715  0.026887035            6 
  913000   0.89275973   -6.8876015    290.37195  0.026503464  0.026867884            3 
  914000   0.88678796   -6.8763858    290.94693   0.02652689   0.02684888            8 
  915000   0.87800015   -6.8615721      291.841  0.026579326  0.026829869            3 
  916000   0.88467336   -6.8881249    291.04581  0.026477966  0.026811043            2 
  917000   0.89995572   -6.9102254    291.47663  0.026488244  0.026792165            7 
  918000   0.89741299   -6.9037927    291.39171   0.02645168  0.026773299            6 
  919000   0.90569865   -6.9532249    290.72583  0.026362517  0.026754259            6 
  920000   0.89290965   -6.9193869    291.05342  0.026363534  0.026735184            5 
  921000   0.88057261   -6.9151808    291.66518  0.026390263  0.026716197            7 
  922000   0.87154062   -6.9109996    291.64613  0.026359917  0.026697239            6 
  923000   0.90181981   -6.9162212     291.4984  0.026318021  0.026678266            4 
  924000   0.89504226   -6.8705965    291.95222  0.026330467  0.026659602            4 
  925000   0.89462315   -6.9126513    292.47516  0.026349114  0.026640913            3 
  926000   0.89247506   -6.9067332    293.32409  0.026397056  0.026622361            6 
  927000   0.89184461   -6.9165291    292.17524  0.026265304  0.026603584            8 
  928000   0.87239556   -6.9043572    292.35541   0.02625318  0.026584781            8 
  929000   0.87061001    -6.901355    293.55711  0.026332716  0.026566126           23 
  930000   0.87814822   -6.9291094    292.67742  0.026225575  0.026547448            5 
  931000   0.88765538   -6.9241312     293.3628  0.026258754  0.026528775           10 
  932000   0.86749473   -6.9275664    293.17503   0.02621379  0.026510028            8 
  933000   0.88383656   -6.8911741    293.52784  0.026217206  0.026491361            9 
  934000   0.86295858   -6.8701462    293.84491  0.026217426  0.026472812            6 
  935000   0.87317062   -6.9272333     293.6477  0.026171809  0.026454324            3 
  936000   0.85545116   -6.8831092    293.45155  0.026126384  0.026435541            5 
  937000   0.87653049   -6.9369449    292.99691  0.026058067   0.02641658            9 
  938000   0.88785192   -6.9126523    293.53795  0.026078354  0.026397637            6 
  939000   0.88718409   -6.9237749    293.30509  0.026029915  0.026378868            7 
  940000   0.89060837   -6.9169031    293.81443  0.026047379  0.026360143            4 
  941000   0.88685305   -6.9207614    294.17563  0.026051685  0.026341377            5 
  942000   0.88758388   -6.9194964    293.52609  0.025966569  0.026322445            9 
  943000   0.86004993   -6.8859825    294.79597  0.026051252  0.026303653            3 
  944000   0.86231735   -6.9311628    294.27233   0.02597743   0.02628504            4 
  945000    0.8604266   -6.9395332    294.53713  0.025973292  0.026266282            6 
  946000   0.87529252   -6.9449836    294.11914  0.025909015  0.026247538            9 
  947000   0.86648782   -6.9215192     295.3144  0.025986836  0.026228772            6 
  948000   0.85988355   -6.9389074    294.68717  0.025904287  0.026210157            6 
  949000   0.84184495   -6.9278736     295.2154  0.025923376  0.026191561            6 
  950000     0.874047   -6.9712003    295.25064  0.025899179  0.026173013            8 
  951000   0.85934924   -6.9284768    296.04367  0.025941436  0.026154365           10 
  952000   0.88499669   -6.9421762    295.37447  0.025855608  0.026135913            3 
  953000   0.87981937   -6.9517108    295.30293  0.025822222  0.026117352            4 
  954000   0.88184952   -6.9578177    296.10974   0.02586563   0.02609875            6 
  955000   0.87398009   -6.9192474    296.31458   0.02585642  0.026080339            8 
  956000    0.8737537   -6.9314933    296.37016  0.025834219  0.026061904            6 
  957000   0.87987548   -6.9293853    295.33681  0.025717242  0.026043484            4 
  958000   0.87938032   -6.9579765    297.09435   0.02584328  0.026025092            6 
  959000   0.85216608   -6.9505764    296.32952  0.025749872  0.026006712            4 
  960000   0.88157059   -6.9087906    296.85658    0.0257688  0.025988315            9 
  961000   0.85620528   -6.9386791    296.46721  0.025708222  0.025970091           10 
  962000   0.87866689   -6.9082331    298.13631  0.025826084  0.025951937           11 
  963000    0.8625535   -6.9409703    297.67976  0.025759758  0.025933992           10 
  964000    0.8637391   -6.9149769    297.23751  0.025694806  0.025915888            4 
  965000   0.86280009   -6.9199755    298.42728  0.025770923  0.025897943           11 
  966000   0.87383222   -6.9323683    298.88781  0.025783973  0.025880146            5 
  967000   0.87356402   -6.9385065    298.11594  0.025690791  0.025862292            4 
  968000   0.87557199   -6.9382435    299.17483  0.025755409  0.025844415            6 
  969000   0.88204321   -6.9584219    298.29798  0.025653421  0.025826516           10 
  970000   0.87531359    -6.924548     298.8574  0.025675034  0.025808618            5 
  971000   0.84949773   -6.9398741    298.61895  0.025628128  0.025790871            5 
  972000   0.85607173   -6.9343949    299.49412  0.025676793  0.025773104           15 
  973000   0.88624666   -6.9477706    299.38387  0.025640962  0.025755366           11 
  974000   0.88550512   -6.9433602    299.38694  0.025614899  0.025737545           26 
  975000   0.85526448   -6.9472337    299.54336  0.025601997  0.025719813           12 
  976000   0.86660181   -6.9468915    299.97409  0.025612542  0.025702041            6 
  977000   0.86899194    -6.953638    300.34026  0.025617559    0.0256843            5 
  978000    0.8503859   -6.9372874    300.04976  0.025566612  0.025666686            8 
  979000   0.84300244   -6.9419533    300.71152  0.025596827  0.025649222           10 
  980000   0.86598091   -6.9691921    299.92661  0.025503963  0.025631705            5 
  981000   0.86847439   -6.9637504    301.08602  0.025576454  0.025614175            4 
  982000   0.86606096   -6.9406293    300.14665  0.025470693  0.025596538            3 
  983000   0.87608516   -6.9637139    300.50513  0.025475172  0.025578899            6 
  984000   0.85999521   -6.9784135    300.81036  0.025475132   0.02556116            6 
  985000   0.89282533   -6.9756202    301.28637  0.025489541  0.025543439            5 
  986000   0.84164521   -6.9464291    300.79834  0.025422442  0.025525676            8 
  987000   0.86954123   -6.9573066    300.63119  0.025382573  0.025507914            4 
  988000   0.86296319   -6.9643579      301.371  0.025419281  0.025490231            3 
  989000   0.86422217    -6.991614    300.47015  0.025317673  0.025472542            5 
  990000   0.85136652    -6.982321    301.42042  0.025372089  0.025454698            5 
  991000    0.8529635   -6.9569691    301.15544  0.025324205  0.025436829            8 
  992000   0.86138008   -6.9382371    301.90477  0.025361624  0.025419054           10 
  993000   0.86498422   -6.9595356    301.25385  0.025281458  0.025401284            5 
  994000    0.8631333   -6.9845122     300.8428  0.025221563   0.02538338            5 
  995000   0.85714906   -6.9858344    301.77263  0.025274089  0.025365512            3 
  996000   0.85201577   -6.9784102    301.26426  0.025206179  0.025347565            4 
  997000   0.84774902   -6.9552772    301.84492  0.025229432  0.025329695            6 
  998000   0.82495818   -6.9826604    301.38342  0.025165616  0.025311789            6 
  999000   0.86424398    -7.008259    300.50042  0.025066768  0.025293799            4 
 1000000   0.87101406   -6.9645794    301.68519  0.025140433  0.025275799            9 
 1001000   0.85715776    -6.973963    300.87258  0.025047667  0.025257846            9 
 1002000   0.87143725   -6.9897338    301.66233  0.025088351  0.025239983           14 
 1003000   0.86971653    -6.975866    301.87378  0.025080906  0.025221966            6 
 1004000   0.84720006   -6.9900934    302.03773  0.025069532  0.025203954            5 
 1005000   0.86677571   -6.9667621    301.80001  0.025024877  0.025185994            8 
 1006000   0.85406238   -6.9907351    301.72247  0.024993578  0.025167968            3 
 1007000   0.84849617   -6.9584401    302.91538  0.025067476  0.025150063            3 
 1008000   0.83715316    -6.967122    302.97408   0.02504746  0.025132224            5 
 1009000   0.87718548    -6.958546    302.81439  0.025009448  0.025114405            7 
 1010000   0.85536338   -6.9644144    302.82298  0.024985394  0.025096606            6 
 1011000   0.85190621   -6.9714358    302.88859  0.024966089  0.025078877            5 
 1012000   0.86603589   -6.9833983    302.77759  0.024932278  0.025061152            8 
 1013000   0.84658549   -7.0017816    303.73252  0.024986222  0.025043437            6 
 1014000   0.85382881   -7.0124027    303.24366  0.024921405  0.025025626            9 
 1015000   0.86569778   -7.0105668    303.11111   0.02488597  0.025007794           11 
 1016000   0.84129459   -6.9988343    302.68133  0.024826225  0.024990015            7 
 1017000   0.85703421    -6.970293    304.13694  0.024921087  0.024972297            8 
 1018000   0.85032558   -6.9999916    304.20614  0.024902271  0.024954754            6 
 1019000   0.85879154   -6.9699837    304.61677  0.024911414  0.024937276           10 
 1020000   0.84394483   -6.9993796    303.64519  0.024807614  0.024919784            3 
 1021000   0.84683232   -6.9675146    304.97828  0.024892122  0.024902332            8 
 1022000   0.84821135   -6.9711988    305.27595  0.024892038  0.024885069            5 
 1023000   0.84999832    -6.952457    305.33353  0.024872396  0.024867852            4 
 1024000   0.84656365   -6.9678261    305.33546  0.024848263  0.024850625           16 
 1025000   0.85027806   -6.9945243    305.29524  0.024820751  0.024833294            5 
 1026000   0.84330274   -6.9985969    305.10788  0.024781342  0.024815905            8 
 1027000    0.8373349   -6.9739339    305.00513  0.024748874   0.02479862            9 
 1028000   0.84660008   -7.0018014    305.20414  0.024740932  0.024781342            9 
 1029000   0.85431626   -6.9914478    306.27553  0.024803655  0.024764023            7 
 1030000   0.84328459   -7.0029285    305.53889  0.024719975  0.024746684            5 
 1031000   0.85617656   -7.0076805    305.61289  0.024701979  0.024729174            4 
 1032000   0.82654865   -6.9686583    305.55107  0.024673051  0.024711711            7 
 1033000   0.83120745   -6.9824838      304.961  0.024601565  0.024694205            4 
 1034000    0.8487609   -6.9886343    305.55881  0.024625952   0.02467682            9 
 1035000   0.82081037   -7.0144342    306.18727  0.024652759  0.024659528            9 
 1036000   0.81399307   -6.9831306    306.65247  0.024666382  0.024642322            6 
 1037000   0.83882712   -6.9963224    306.01435  0.024591317  0.024625044           10 
 1038000   0.84078997   -6.9987017    306.88401  0.024637445   0.02460784            5 
 1039000   0.82555803   -6.9981714    306.99972  0.024623012  0.024590629           12 
 1040000    0.8361079   -7.0047631      306.771   0.02458101  0.024573611            8 
 1041000   0.84400605   -6.9680335      307.248  0.024595581  0.024556597            5 
 1042000   0.84248626   -6.9939556    307.19847  0.024568016  0.024539527            2 
 1043000   0.85242271   -6.9794468     307.6654  0.024581767  0.024522528            3 
 1044000   0.82501714   -6.9931721    306.94643  0.024500833  0.024505463           13 
 1045000   0.83986914    -7.014866    307.18329  0.024496275  0.024488357            4 
 1046000   0.83616281   -6.9993812    306.90117   0.02445038  0.024471218           12 
 1047000   0.83693326   -7.0232584    307.17214  0.024448594  0.024454153            5 
 1048000   0.83624744   -6.9984966    307.52858  0.024453609  0.024436989           16 
 1049000   0.84757098   -6.9753619    307.49473  0.024427608  0.024419762            7 
 1050000   0.83494132   -7.0219771    306.91125  0.024358036  0.024402432           12 
 1051000   0.82360488   -7.0160824    306.74074   0.02432134  0.024385084            4 
 1052000    0.8400129    -7.027154    307.56921  0.024363847  0.024367774            7 
 1053000    0.8388998   -7.0053764      307.858  0.024363564  0.024350494            4 
 1054000   0.83976507   -7.0266126    307.64836  0.024323874  0.024333268            5 
 1055000   0.82648332   -7.0132134    307.63059  0.024299415  0.024316061            9 
 1056000   0.84239339   -7.0008495    307.96138  0.024302508   0.02429887            9 
 1057000   0.83334347   -7.0285115     307.4437  0.024238702  0.024281691            5 
 1058000   0.85368785   -7.0482297    308.51317  0.024300029  0.024264453            7 
 1059000   0.83154644   -7.0389812    307.91579  0.024230075  0.024247163            9 
 1060000    0.8320525   -7.0145668    309.23563  0.024310977  0.024230016           14 
 1061000   0.81670815   -7.0400878    307.59957  0.024159564  0.024212851           12 
 1062000   0.83498514   -7.0410301    307.95951  0.024165059  0.024195641            6 
 1063000   0.83176849   -7.0305956    308.53265  0.024187257  0.024178419            4 
 1064000   0.82945925   -6.9944555    308.66691   0.02417504  0.024161324            6 
 1065000   0.83845086   -7.0072597    309.09064  0.024185496   0.02414425            2 
 1066000   0.81585273   -7.0268843    309.46094  0.024191755   0.02412724           10 
 1067000   0.83945233   -7.0287315    309.65175  0.024183985  0.024110278            6 
 1068000   0.83367987   -6.9989541    309.27852  0.024132219  0.024093344           24 
 1069000   0.82286575   -7.0282789    308.92244  0.024081886  0.024076461            9 
 1070000   0.80528911   -6.9974594    310.33727  0.024169569  0.024059565            3 
 1071000   0.81730987   -7.0427295    308.21864  0.023982154  0.024042613            3 
 1072000   0.82501002   -7.0341986      309.442  0.024054882  0.024025519            8 
 1073000   0.81615595    -7.013897    309.42134  0.024030859  0.024008447            4 
 1074000   0.81748244   -7.0496958    309.63501  0.024025063  0.023991498            3 
 1075000   0.81659862   -7.0356968    309.42888  0.023986735   0.02397441            5 
 1076000   0.83069575   -7.0491141    309.20355  0.023946991  0.023957231            8 
 1077000    0.8364651   -7.0421884     309.1591  0.023921317  0.023940074           12 
 1078000   0.82091211   -7.0279685    308.94001   0.02388219  0.023922991            7 
 1079000   0.83117961   -7.0591013    309.56571   0.02390838  0.023905888            6 
 1080000   0.81460633   -7.0371931    309.90726  0.023912597  0.023888813            5 
 1081000   0.84168927   -7.0677862    309.32174  0.023845339  0.023871643           12 
 1082000   0.81580009   -7.0598226    310.02978  0.023877833  0.023854521            6 
 1083000   0.82198518   -7.0566003    310.30783   0.02387718  0.023837551            9 
 1084000   0.82071544   -7.0286385    310.65431  0.023881789  0.023820566           11 
 1085000   0.84008949   -7.0199185    310.31514  0.023833728    0.0238036            8 
 1086000   0.83108214      -7.0452    310.90611  0.023857129  0.023786699            7 
 1087000   0.82956537   -7.0419212    311.13025  0.023852365  0.023769679            6 
 1088000   0.83165175   -7.0433897    310.32708  0.023768925  0.023752717            9 
 1089000   0.82234434   -7.0294458    310.77014  0.023781003  0.023735802           15 
 1090000   0.82771455   -7.0717505    310.88059  0.023767629  0.023718953            8 
 1091000   0.81043678   -7.0752264    310.66626  0.023729473  0.023702147            7 
 1092000   0.81494476   -7.0389169    311.05481  0.023737394  0.023685318           10 
 1093000   0.84062643   -7.0293584     311.3075  0.023734942  0.023668609            4 
 1094000   0.81583073   -7.0474068     311.2974  0.023712477  0.023651925            8 
 1095000   0.83548466   -7.0126907    312.01336  0.023745309  0.023635222            6 
 1096000   0.81727758   -7.0430027    311.87282  0.023712957  0.023618446            3 
 1097000   0.83063174   -7.0572786    311.76666  0.023683277  0.023601577            5 
 1098000   0.82271326   -7.0507261    311.36965  0.023631577  0.023584675            5 
 1099000   0.80956098   -7.0534889    312.42181  0.023689855  0.023567939            7 
 1100000   0.81812578   -7.0871695    311.57671  0.023604297  0.023551146           10 
 1101000   0.82194302   -7.0538207    312.05137  0.023618784  0.023534333            6 
 1102000   0.82320795   -7.0200837    311.62037  0.023564758  0.023517656            3 
 1103000   0.80151344   -7.0420984    312.96451  0.023644946  0.023500973            7 
 1104000   0.80934448   -7.0591769    312.45239  0.023584872   0.02348436            6 
 1105000   0.80991355   -7.0579933    311.65781  0.023503605  0.023467744            6 
 1106000   0.79728678    -7.055888    312.38126  0.023536864  0.023451148           11 
 1107000   0.81377243   -7.0696694    312.58266  0.023530764  0.023434604           13 
 1108000   0.79515996   -7.0471264    312.62433   0.02351266  0.023417993            5 
 1109000   0.80612967   -7.0508729    313.01026  0.023520458  0.023401463           10 
 1110000   0.80710182   -7.0784298    312.55733  0.023465265  0.023384818           18 
 1111000   0.83179465   -7.0709165    313.21359  0.023493368   0.02336821           16 
 1112000    0.8135372   -7.0618692    312.24681  0.023399791  0.023351587            6 
 1113000   0.83044877    -7.056959     313.1429   0.02344586  0.023334927            5 
 1114000   0.80560761   -7.0602956    313.54192  0.023454662   0.02331824            9 
 1115000   0.81067081   -7.0648548    312.82694   0.02338019  0.023301596            3 
 1116000    0.8047894   -7.0634099    313.91155  0.023440229  0.023284919            9 
 1117000   0.80951051   -7.0727871    313.40489  0.023381445  0.023268227            8 
 1118000    0.8136555    -7.045124     313.0629   0.02333504  0.023251502            6 
 1119000   0.81174715   -7.1074261    312.56995  0.023277476  0.023234791           12 
 1120000   0.82729499   -7.0842104    313.28565  0.023309944  0.023218034            4 
 1121000   0.81380433   -7.0170109    313.40421  0.023297964  0.023201465            4 
 1122000    0.8145438   -7.0738681    313.95161  0.023317856   0.02318498            8 
 1123000   0.81764606   -7.0590659    313.24162  0.023244406  0.023168391            8 
 1124000   0.81124866   -7.0696276    313.47025  0.023240677  0.023151736            7 
 1125000   0.81497099    -7.061572    314.67492  0.023309253  0.023135086            4 
 1126000   0.79413472   -7.0677924     313.2111  0.023180218  0.023118522            7 
 1127000   0.81673678   -7.0687002     313.1703  0.023156633  0.023101952            7 
 1128000   0.80114258   -7.0860325    313.67246  0.023173201  0.023085341           16 
 1129000   0.79998265   -7.0665141    313.94436  0.023172746  0.023068751            6 
 1130000   0.81748136   -7.0571637    313.92927  0.023151126  0.023052209            9 
 1131000   0.79398506   -7.1076009    313.80505  0.023121504  0.023035581           10 
 1132000   0.80175977   -7.0775796    314.13898  0.023125661  0.023018971           12 
 1133000   0.80534777   -7.0684224    314.28938  0.023116312  0.023002384            6 
 1134000   0.81407697   -7.0645263    314.74245  0.023129222  0.022985857            6 
 1135000   0.79474205   -7.0544096    313.66206   0.02302952  0.022969357           14 
 1136000   0.78235353   -7.0736593    315.08821  0.023113865  0.022952901           13 
 1137000   0.79956863   -7.1081222    314.32393   0.02303752  0.022936348            9 
 1138000   0.79115297   -7.0686915    314.79651  0.023051882  0.022919813            7 
 1139000   0.80102376   -7.0892003     315.1296  0.023056014  0.022903351           21 
 1140000   0.80864602   -7.0810662    314.46472  0.022987187  0.022886854           12 
 1141000   0.80396962   -7.1000105     315.3015  0.023028155   0.02287032            8 
 1142000    0.7897119   -7.0665054    315.58117  0.023028398  0.022853859            9 
 1143000   0.81467657   -7.0823683    314.67865  0.022942451  0.022837518            9 
 1144000   0.79966091   -7.0778519    316.19603  0.023032928   0.02282126           20 
 1145000   0.79027811   -7.0811627    316.14061  0.023008778  0.022804992            6 
 1146000   0.79951325   -7.0652018    315.37375  0.022932937  0.022788704            6 
 1147000   0.79872277   -7.1125606     315.2295  0.022902463  0.022772355           11 
 1148000   0.81404973   -7.0671023    315.79397  0.022923488   0.02275607            7 
 1149000   0.79909538   -7.0935621    315.05945  0.022850265  0.022739714            5 
 1150000   0.79735726   -7.1004896    315.27194  0.022845793  0.022723465           20 
 1151000   0.79478265   -7.0839128     316.1952  0.022892789   0.02270719            6 
 1152000   0.78050738   -7.0679341    316.01885   0.02286016  0.022690948            6 
 1153000   0.79647992   -7.0711039    315.90302  0.022831961  0.022674742            8 
 1154000   0.80535469   -7.0781081    316.41564  0.022849194  0.022658468            6 
 1155000   0.79182292   -7.1120408    316.13877  0.022809435  0.022642259            3 
 1156000    0.7843045   -7.1199195    315.76914  0.022763058  0.022625981            5 
 1157000   0.80078188   -7.1247255    315.98768  0.022759124  0.022609703            9 
 1158000   0.77852435   -7.0936452    315.42255  0.022698802   0.02259336           14 
 1159000   0.80186959   -7.1116019     315.8984  0.022713431  0.022576981            7 
 1160000   0.80442724   -7.1068115    315.85389  0.022690653  0.022560745            9 
 1161000   0.79273277   -7.0985518    316.74242  0.022734885  0.022544567            6 
 1162000   0.78907788   -7.0660349    316.41573  0.022691891  0.022528439            8 
 1163000   0.78266699   -7.0898319    317.15743  0.022725525  0.022512251           11 
 1164000   0.79564684   -7.0986068    317.40531  0.022723748   0.02249588            8 
 1165000   0.79627387   -7.1172278    317.10169  0.022682524  0.022479695           11 
 1166000   0.80258477   -7.1305792    317.60082  0.022698743  0.022463524            6 
 1167000   0.79754994   -7.0836208     317.2714   0.02265577  0.022447539           18 
 1168000   0.80533471   -7.1110645    317.81519  0.022675171  0.022431568           14 
 1169000   0.77183622   -7.1258598    318.19679  0.022682976  0.022415626           12 
 1170000   0.79079771    -7.105843    317.46188  0.022611245  0.022399627            8 
 1171000   0.78717314   -7.1410132    317.62971  0.022603879  0.022383583            7 
 1172000   0.78977041    -7.146339    317.46454  0.022572849  0.022367516            9 
 1173000   0.78826578   -7.1337701    316.99625  0.022520336  0.022351424            8 
 1174000   0.80260413   -7.1169004    318.02572  0.022574228  0.022335363            4 
 1175000   0.76380892   -7.1160438    317.26304  0.022500925  0.022319378            7 
 1176000   0.78730055   -7.1034427    318.35003  0.022558817  0.022303439            8 
 1177000   0.77103251   -7.1200232    317.85387  0.022504522  0.022287461            4 
 1178000   0.79800977   -7.0975161    318.44292  0.022527088  0.022271501            7 
 1179000   0.79192171   -7.0971575    318.17946  0.022489359  0.022255698            6 
 1180000   0.79379978   -7.1248463    317.67899  0.022434957  0.022239837            8 
 1181000   0.78988414   -7.1310091    317.99596  0.022438326  0.022223919           20 
 1182000   0.77835863   -7.0987514    318.52549  0.022456676  0.022208067           11 
 1183000   0.76911521   -7.1533627    319.21119  0.022485995  0.022192165           12 
 1184000   0.76664279   -7.1116949    318.83641  0.022440625  0.022176263            5 
 1185000   0.77312958   -7.1433942    318.93463  0.022428596  0.022160388           12 
 1186000   0.78256015   -7.1403637    318.19776  0.022357909  0.022144471            5 
 1187000   0.77662569   -7.0980426     318.0694  0.022330062  0.022128623            9 
 1188000   0.77973967   -7.1155646    319.11386   0.02238453  0.022112864           32 
 1189000   0.77671739    -7.108491    318.95913  0.022354859  0.022097099           18 
 1190000   0.76917874   -7.1274228    319.29257  0.022359424  0.022081271           28 
 1191000   0.78296563   -7.0689431    319.11626  0.022328314  0.022065458           16 
 1192000   0.78392237   -7.1117435    318.63706  0.022276081  0.022049676           15 
 1193000   0.78117464   -7.1217915    320.47523  0.022385808  0.022033916           22 
 1194000   0.76144759   -7.1274249    318.59318  0.022235705  0.022018155           10 
 1195000    0.7792167   -7.1029865    319.32379  0.022268047  0.022002386           15 
 1196000    0.7652356   -7.1419143    319.84791  0.022285947   0.02198664           20 
 1197000   0.77018643   -7.1480551    319.60498  0.022250417  0.021970761            9 
 1198000   0.76975323   -7.1148673    319.44945  0.022221025  0.021954866           31 
 1199000   0.78621678   -7.1125005     319.4272  0.022200945  0.021939088           17 
 1200000   0.76482905   -7.1249803    320.34824  0.022246405  0.021923305           10 
 1201000   0.76833386   -7.1222106    319.51693  0.022170201  0.021907477           11 
 1202000   0.77946074   -7.1164158    318.33758  0.022069993  0.021891579           10 
 1203000   0.75550263    -7.109865    319.83857  0.022155622  0.021875709            7 
 1204000   0.77712209   -7.1306795    318.76879  0.022063178  0.021859791            9 
 1205000   0.76512969   -7.1453575    320.01285  0.022130902  0.021843742           15 
 1206000   0.76444007   -7.1528711    318.39981  0.022001093  0.021827832            7 
 1207000   0.77788402   -7.1566498    319.56199  0.022063103  0.021811919           40 
 1208000   0.77223299   -7.1286442    318.98424  0.022004984  0.021795905           26 
 1209000   0.77540886   -7.1405394    319.42244  0.022016986   0.02177998            8 
 1210000   0.77863571   -7.1595615    318.91651  0.021963947  0.021763969           13 
 1211000   0.75783125   -7.1499473    319.64306  0.021995806  0.021747942            9 
 1212000   0.76534785    -7.169701    319.11639  0.021941446  0.021731948           15 
 1213000   0.79380688   -7.1568053    319.08807  0.021921412  0.021715968            9 
 1214000   0.76105231   -7.1553437    319.60979  0.021939167  0.021700029            5 
 1215000   0.75864549   -7.1613318    319.61037   0.02192115  0.021684194            7 
 1216000   0.75530762   -7.1533562     319.4432  0.021891667  0.021668263           15 
 1217000   0.78227597   -7.1798321     319.0488  0.021846672  0.021652292            8 
 1218000   0.77561554   -7.1484276     319.8774  0.021885427  0.021636355           16 
 1219000   0.76806317   -7.1390472     319.8855  0.021868027  0.021620427           23 
 1220000   0.76304696   -7.1533507    319.63519  0.021833005  0.021604499           10 
 1221000   0.75292568   -7.1462405     319.5735  0.021810913  0.021588558           14 
 1222000   0.77421792   -7.1212208    320.06039  0.021826268  0.021572711            7 
 1223000   0.76770009   -7.1401812    319.31409   0.02175757  0.021556827            5 
 1224000   0.76414608   -7.1530827    320.26048  0.021804227  0.021541045            7 
 1225000   0.76916188   -7.1606038     320.5428  0.021805632  0.021525226           11 
 1226000   0.76579592   -7.1547434    320.17353  0.021762746  0.021509435           12 
 1227000   0.76576633   -7.1877924    320.55043  0.021770608  0.021493617            9 
 1228000   0.76011527   -7.1606707    320.31255  0.021736737  0.021477899            8 
 1229000   0.78518544   -7.1523836    320.72233  0.021746836  0.021462168            8 
 1230000   0.76913701   -7.1678874     321.0918  0.021754187  0.021446391            5 
 1231000   0.77417858   -7.1367178    320.69449  0.021709619  0.021430566           15 
 1232000   0.75498786   -7.1813703     320.1917  0.021657988  0.021414711            8 
 1233000   0.76506623   -7.1550495    321.25508  0.021712293  0.021398896            6 
 1234000   0.76570272   -7.1466023     321.2744  0.021696002  0.021383162            9 
 1235000   0.74206194   -7.1648249    321.02498  0.021661605  0.021367357            8 
 1236000   0.74365843    -7.148386    320.47491  0.021606992  0.021351626           23 
 1237000   0.75166687   -7.1548631    320.78183  0.021610201  0.021335927            6 
 1238000   0.77647651   -7.1796037    320.03665  0.021542585  0.021320192           10 
 1239000   0.75760006   -7.1805043    320.21424  0.021537143  0.021304441            6 
 1240000     0.763172   -7.1515737    321.05185  0.021576065  0.021288706           23 
 1241000   0.74519449   -7.1917438    321.20574  0.021569013  0.021273054           16 
 1242000   0.76322524   -7.1742931     321.1578   0.02154843  0.021257392           17 
 1243000   0.75950185   -7.1845006    320.82276  0.021508632  0.021241769           17 
 1244000   0.76146194   -7.1762171    321.35397  0.021526927  0.021226112           19 
 1245000   0.74354779   -7.1827588    321.22077  0.021500721  0.021210431           17 
 1246000   0.75331462   -7.1983725    320.93165  0.021464128  0.021194714            9 
 1247000   0.74346484   -7.2041973     320.9355  0.021447173  0.021178886           10 
 1248000   0.76430503   -7.1956749    321.28663  0.021453434  0.021163118           10 
 1249000   0.75869746   -7.1648746    321.41845  0.021445053  0.021147468           10 
 1250000   0.75345763   -7.1602637    320.87002  0.021391335  0.021131952            9 
 1251000   0.74959527   -7.1691565    321.19171  0.021395664  0.021116375            8 
 1252000   0.75640019   -7.1942731    320.75341  0.021349402  0.021100763           10 
 1253000   0.75258258   -7.1874376    321.09758  0.021355253   0.02108516           12 
 1254000    0.7602816   -7.1780821    321.08194  0.021337184  0.021069492            7 
 1255000   0.75122135   -7.1743237    321.06988  0.021319381  0.021053926           13 
 1256000   0.75157693   -7.1642072    321.99077  0.021363506  0.021038324           18 
 1257000   0.76583805   -7.1926245    321.27604  0.021299128  0.021022714           26 
 1258000   0.74395995   -7.1608625    321.64577  0.021306689  0.021007109           17 
 1259000   0.76450017   -7.1759664    321.70461  0.021293659  0.020991502            8 
 1260000   0.74728736   -7.1940966    321.05756  0.021233966  0.020975948           14 
 1261000   0.75281632   -7.1899558     322.0223  0.021280881   0.02096027           10 
 1262000   0.75156246   -7.1826366    321.12273  0.021204618   0.02094467           13 
 1263000   0.74588421   -7.1788233    321.32017  0.021200856  0.020929095           15 
 1264000   0.75492774   -7.2090089    321.31245  0.021183574  0.020913445           13 
 1265000   0.73974706   -7.1725342    322.02893  0.021214027  0.020897831            5 
 1266000   0.76488401   -7.1909094    322.16461  0.021206201    0.0208822           14 
 1267000   0.75448993   -7.1905504     322.0543  0.021182209  0.020866629            5 
 1268000    0.7539396   -7.1901216    321.26381  0.021113552  0.020851103            8 
 1269000   0.74436072   -7.2086186    321.56128  0.021116449  0.020835468           15 
 1270000    0.7517802   -7.2065167    322.22709   0.02114351  0.020819938            9 
 1271000   0.73788941    -7.215599     321.5136  0.021080095  0.020804404            8 
 1272000   0.75191718   -7.2039677    322.82057  0.021149146  0.020788828            7 
 1273000    0.7621435   -7.2193343    321.63745  0.021055083   0.02077327           17 
 1274000   0.72916567   -7.1910005    321.65793  0.021039896  0.020757705            9 
 1275000   0.73959492   -7.2164281    322.34976  0.021068612  0.020742162           12 
 1276000   0.75175513   -7.1871574    322.79617  0.021081254  0.020726679           13 
 1277000   0.73875426   -7.1961275    322.05286   0.02101624  0.020711155           19 
 1278000   0.74943178    -7.199691    322.22002  0.021010695  0.020695675            7 
 1279000    0.7532618   -7.1533323    321.71169  0.020961147  0.020680208            9 
 1280000   0.74146143   -7.1616062    321.69274  0.020943537  0.020664714            6 
 1281000   0.75537538   -7.1962393    322.19959  0.020960161  0.020649161            6 
 1282000   0.75629732   -7.2041759    322.27565  0.020948755  0.020633689            7 
 1283000   0.73694884   -7.2187151    322.04915  0.020917715  0.020618226            5 
 1284000   0.73251065   -7.2147979    321.32548  0.020854458  0.020602744           10 
 1285000   0.73146825   -7.2161961     322.4607  0.020911848  0.020587284           10 
 1286000   0.74130952    -7.209919    323.14547  0.020939961  0.020571839            9 
 1287000   0.75342865   -7.1904523     322.9416   0.02091049  0.020556471            9 
 1288000   0.74672985   -7.1893484    322.72114  0.020879991  0.020541157            8 
 1289000   0.73877903   -7.1836974    323.48154  0.020912952  0.020525824            9 
 1290000   0.74154292   -7.1993157    322.83394  0.020854906  0.020510516           25 
 1291000   0.74413142   -7.2092114    322.99623  0.020849228  0.020495212           12 
 1292000    0.7350659   -7.1691314    323.21352  0.020847105  0.020480005           30 
 1293000   0.72328431   -7.1975379    323.00458  0.020817516  0.020464799           27 
 1294000   0.73988391   -7.2321939    323.25394  0.020817487  0.020449547            8 
 1295000   0.73317945    -7.210232    323.88978  0.020842328  0.020434344           10 
 1296000    0.7490751   -7.2099022    323.90643  0.020827317  0.020419172           15 
 1297000   0.71338591   -7.2294816    323.36791  0.020776658  0.020404042           12 
 1298000    0.7400752   -7.1913206    323.63264  0.020777648  0.020388931           10 
 1299000   0.73811739   -7.2191758    323.05573  0.020724643  0.020373861           16 
 1300000   0.74827796   -7.2255824      324.126  0.020777308  0.020358857           15 
 1301000   0.73766388   -7.2322741    323.69513  0.020733739  0.020343811           12 
 1302000   0.72092303   -7.2178015     324.0544  0.020740809    0.0203288           11 
 1303000     0.725497   -7.2207101    323.18794  0.020669477  0.020313783           12 
 1304000   0.73690266   -7.2146514    324.64865  0.020746974  0.020298758            7 
 1305000   0.74053776   -7.2384751    323.74068  0.020673096  0.020283704           10 
 1306000   0.72132292   -7.2235389    324.06702   0.02067809  0.020268634           17 
 1307000   0.72745604   -7.2303249    324.03529  0.020660245  0.020253501            8 
 1308000   0.73726286   -7.2443045    323.55592   0.02061391  0.020238368            9 
 1309000   0.72455869   -7.2383036    323.45334  0.020591631  0.020223225           18 
 1310000   0.72611003   -7.2294811    323.44635  0.020575468  0.020208082            5 
 1311000   0.73136474   -7.2225838    323.69734  0.020575727   0.02019297           18 
 1312000    0.7151297   -7.2404909    324.25244  0.020595303  0.020177847            7 
 1313000   0.72245039   -7.2455832    324.12816  0.020571729  0.020162709           12 
 1314000   0.71754091   -7.2457536    324.17021   0.02055874  0.020147565           16 
 1315000   0.74364675   -7.2485585    323.85437  0.020523091  0.020132439           15 
 1316000   0.73612521   -7.1963199    323.89446  0.020510034  0.020117336           15 
 1317000   0.72731818   -7.2200599    324.78392  0.020550741   0.02010226           12 
 1318000    0.7062352   -7.2296531    323.53111  0.020455938    0.0200872           10 
 1319000   0.72495679   -7.2136356    324.51761  0.020502756  0.020072211            9 
 1320000   0.72099303    -7.226755    324.42649  0.020481471  0.020057241           10 
 1321000   0.74404778   -7.2294397    324.18486  0.020450723  0.020042316            6 
 1322000   0.71722509    -7.235788    324.14095  0.020432485  0.020027325            9 
 1323000   0.72219886   -7.2174937    324.23933  0.020423238   0.02001239           13 
 1324000   0.73648763   -7.2391145     324.4635  0.020421922  0.019997423           10 
 1325000   0.73202322   -7.2341843    324.67651  0.020419906  0.019982428           11 
 1326000   0.73502633   -7.2460992    323.97795  0.020360605   0.01996741            5 
 1327000   0.71721128   -7.2500651    323.74003  0.020330321  0.019952459            7 
 1328000   0.73125792   -7.2489543    324.65279  0.020372289  0.019937464            9 
 1329000   0.73297591   -7.2419958    324.08798  0.020321544  0.019922441           13 
 1330000   0.71888751   -7.2320107    324.04422  0.020303523  0.019907419            6 
 1331000   0.71478663   -7.2210199    324.26068  0.020301821  0.019892429            9 
 1332000   0.72372121   -7.2476279    324.62105  0.020309125   0.01987743           13 
 1333000   0.71275681   -7.2551745    324.72103  0.020300139  0.019862472           18 
 1334000   0.71526449   -7.2582602    323.36097  0.020199961  0.019847461           30 
 1335000   0.71925494   -7.2727062    324.56113  0.020259746  0.019832454           17 
 1336000   0.72439671   -7.2564013    324.81162  0.020260206  0.019817514           29 
 1337000   0.72926953   -7.2416528    325.07262   0.02026132  0.019802596           21 
 1338000   0.73877467   -7.2721833    325.01191  0.020242396   0.01978767           18 
 1339000   0.71801646   -7.2546983    324.22535  0.020178327   0.01977271           16 
 1340000   0.71463297   -7.2337567    323.86584   0.02014091  0.019757763           11 
 1341000     0.727947   -7.2568769    324.40429  0.020159352  0.019742801            7 
 1342000   0.72068217   -7.2475241    324.50726  0.020150724  0.019727877           14 
 1343000   0.71307594   -7.2563752    324.56395  0.020139237  0.019712965           10 
 1344000   0.71528826   -7.2487343    324.98312  0.020150243  0.019698054           10 
 1345000   0.70989292   -7.2538201     324.2053  0.020087069  0.019683164            8 
 1346000   0.71176141   -7.2637815    324.66837  0.020100815  0.019668234           13 
 1347000   0.70675488    -7.232818    323.97105  0.020042753  0.019653329           14 
 1348000    0.7132649   -7.2515583    324.50849  0.020061108  0.019638381            5 
 1349000   0.71965257   -7.2787989    324.01828  0.020015955  0.019623429            9 
 1350000   0.72177994   -7.2754081    324.05208  0.020003215  0.019608454           12 
 1351000    0.7274517   -7.2512025      324.089  0.019990686  0.019593534           31 
 1352000    0.7267646    -7.254378    325.01198  0.020032789  0.019578674           23 
 1353000   0.71497782   -7.2565874     325.0013  0.020017326  0.019563808           13 
 1354000   0.72388913   -7.2697477    325.24855  0.020017759  0.019548983           15 
 1355000    0.7230303   -7.2556897    325.00937  0.019988276  0.019534191           17 
 1356000    0.6969754   -7.2720192     324.8342   0.01996277  0.019519381            7 
 1357000   0.72203364   -7.2688458    325.42842  0.019984551  0.019504607           10 
 1358000   0.70816431   -7.2566326    325.59003  0.019979751  0.019489879           11 
 1359000   0.71318725   -7.2694076    325.93943  0.019986475  0.019475194           16 
 1360000   0.70317068   -7.2709759    325.59468  0.019950654  0.019460514            9 
 1361000   0.70153199   -7.2651388    325.07533  0.019904196    0.0194458           19 
 1362000   0.69450842   -7.2686592    325.77753  0.019932546  0.019431091           12 
 1363000   0.73091375   -7.2290033    325.56623  0.019905003  0.019416419            7 
 1364000   0.71690592    -7.245883    325.44888   0.01988324  0.019401815            7 
 1365000   0.70755038   -7.2899466    325.67069  0.019882215  0.019387214            6 
 1366000    0.7134958   -7.2734772    325.47249  0.019855569  0.019372593           11 
 1367000   0.71442374   -7.2595319    326.22966  0.019887202  0.019357978           13 
 1368000   0.71461367   -7.2660537    325.63258  0.019836292  0.019343406            5 
 1369000   0.69394519   -7.2981289    325.80555  0.019832332   0.01932877           10 
 1370000   0.71264951   -7.3065431    325.43395  0.019795252  0.019314193           12 
 1371000   0.71595915   -7.2787372    325.73836  0.019799317  0.019299669            8 
 1372000   0.71295801   -7.2921963    325.89335    0.0197943  0.019285165            9 
 1373000   0.70569134   -7.2759606    325.76715  0.019772223  0.019270697           14 
 1374000   0.71893603   -7.2887041    325.63204  0.019749638  0.019256229           13 
 1375000    0.7119434   -7.3017627    326.21008  0.019770308  0.019241787           12 
 1376000   0.68975711   -7.3236794    325.71619  0.019726029  0.019227291           12 
 1377000   0.70888952   -7.3052248    325.98245  0.019727817  0.019212809            5 
 1378000   0.70740808   -7.2807116    326.99528  0.019774751   0.01919833           10 
 1379000   0.71267276   -7.2646691    326.39766  0.019724297  0.019183911            7 
 1380000   0.69427836   -7.2854568     325.8194  0.019675084  0.019169516            7 
 1381000   0.71179446   -7.3061357    326.33699   0.01969207  0.019155076           11 
 1382000   0.70094954   -7.2865243    326.56654  0.019691663  0.019140614           15 
 1383000   0.69979472   -7.2979279    326.00417  0.019643539   0.01912614           13 
 1384000   0.69326439   -7.2831645    326.49958  0.019659175  0.019111717           23 
 1385000   0.70159834   -7.2980553    326.99688  0.019674903  0.019097302            7 
 1386000   0.70708813   -7.3057264    326.56352  0.019634651  0.019082946           19 
 1387000   0.70614482   -7.2746563    327.07073  0.019650969  0.019068642            7 
 1388000   0.68794298   -7.3073558    325.76223  0.019558251  0.019054352            7 
 1389000    0.7050433   -7.3062031     325.7064  0.019540821  0.019040021            7 
 1390000   0.70738207    -7.297283    326.89726  0.019598157  0.019025726           24 
 1391000   0.70808955   -7.2985034    326.49597  0.019560027  0.019011409           23 
 1392000    0.7054465   -7.3098394    326.40391  0.019540464  0.018997064           20 
 1393000   0.69487989   -7.3122983    327.32592  0.019581594  0.018982777            9 
 1394000   0.68176621   -7.3001615     326.6862  0.019529304  0.018968519           11 
 1395000   0.69643665    -7.311062    326.43367  0.019500219  0.018954233           20 
 1396000   0.69252993   -7.3027532     326.8147  0.019508996  0.018940001           24 
 1397000    0.7023377   -7.3008145    327.03255  0.019508026  0.018925759            9 
 1398000   0.68544764    -7.306613    326.49824  0.019462222  0.018911498           19 
 1399000    0.7018722   -7.2992849    326.38428  0.019441522  0.018897256           13 
 1400000   0.71849834   -7.3240223    326.61585   0.01944142  0.018883002            8 
 1401000   0.69540491   -7.3107537    326.92075  0.019445679  0.018868743           11 
 1402000   0.71384733    -7.309347    326.77743   0.01942329  0.018854537           10 
 1403000   0.68997028   -7.3190743      327.423   0.01944779  0.018840334           11 
 1404000   0.68776245   -7.3240978    326.86083  0.019400571  0.018826098           12 
 1405000   0.68804472   -7.3044481    326.59881  0.019371223  0.018811922           17 
 1406000    0.6822061   -7.3316757      326.644  0.019360123  0.018797763           14 
 1407000   0.69899214   -7.3073705    326.79074  0.019355054    0.0187836           12 
 1408000     0.691085    -7.304848    326.32496   0.01931374   0.01876945           19 
 1409000   0.68683348   -7.3200184    326.75294  0.019325345  0.018755281           10 
 1410000   0.70903292   -7.2891209     327.4127  0.019350632  0.018741169           15 
 1411000   0.69799865   -7.3167858    326.63281  0.019290858  0.018727058            7 
 1412000   0.69251551   -7.3066077     327.6698  0.019338397  0.018712979           15 
 1413000   0.70074169   -7.2734941    326.63599  0.019263741  0.018698899           12 
 1414000   0.70375891   -7.3091289    327.66432  0.019310721  0.018684845           18 
 1415000   0.67397671   -7.3034527    327.54647  0.019290134  0.018670771           24 
 1416000   0.68199949   -7.3010643    327.48731  0.019273029  0.018656726           14 
 1417000   0.69139251   -7.3375693     326.4631  0.019199194  0.018642667           10 
 1418000   0.70031135   -7.2977699    327.45451  0.019243918  0.018628619           16 
 1419000   0.68393562   -7.3170911    327.81458  0.019251502  0.018614594            9 
 1420000   0.68574576    -7.305277    327.88162  0.019241879  0.018600614           13 
 1421000   0.65528287   -7.3185132    327.51679  0.019206943  0.018586652           42 
 1422000   0.68792332   -7.3227265    327.79851  0.019209946  0.018572647           32 
 1423000   0.68324812   -7.3165961    327.29336  0.019166864  0.018558615           20 
 1424000   0.70773893   -7.3131417    326.96587  0.019134238  0.018544562           15 
 1425000    0.6794856   -7.3340997    326.23542  0.019078095  0.018530539           11 
 1426000   0.68422019   -7.3323751    327.44354  0.019135317  0.018516537           36 
 1427000   0.68512804    -7.362786    327.67488  0.019135417  0.018502503           21 
 1428000   0.67087941   -7.3619214    327.17876  0.019093065  0.018488468           22 
 1429000   0.66976556     -7.34311    327.98739   0.01912686  0.018474451           20 
 1430000   0.68370986   -7.3351149    327.21096  0.019068238  0.018460445           17 
 1431000   0.69139034   -7.3606758    327.19344  0.019053892  0.018446502           37 
 1432000   0.68226186   -7.3437111    327.32189  0.019048062  0.018432502           19 
 1433000    0.6694255   -7.3304933    327.55855  0.019048532   0.01841848           17 
 1434000     0.678307   -7.3529211    327.92372  0.019056469  0.018404492           32 
 1435000   0.68304503   -7.3511543    327.03338  0.018991485  0.018390486           36 
 1436000   0.69304111   -7.3310631    327.22221  0.018989218  0.018376549           36 
 1437000   0.67430756   -7.3396016    327.57009  0.018996178  0.018362641           23 
 1438000   0.69531079   -7.3426935    327.07471   0.01895426  0.018348702           24 
 1439000   0.68178233    -7.353308    327.04771  0.018939525  0.018334771           25 
 1440000   0.67397349   -7.3677508    327.51148  0.018953211  0.018320865           15 
 1441000   0.67043319   -7.3422756    327.65274  0.018948227  0.018306926           13 
 1442000   0.67396515   -7.3668995    327.87996  0.018948218  0.018293019           14 
 1443000   0.67716237   -7.3472403    327.28107  0.018900501  0.018279126           11 
 1444000    0.6820016   -7.3613717    327.96401  0.018926824   0.01826518           29 
 1445000   0.67412925   -7.3627544    327.49736  0.018886814  0.018251232           15 
 1446000   0.66342339   -7.3680725    327.33032  0.018864126  0.018237356           25 
 1447000   0.67358685   -7.3522764    327.71471  0.018873227    0.0182235           32 
 1448000   0.67509021    -7.355095    327.38193  0.018841041  0.018209616           14 
 1449000   0.68181153   -7.3510675    327.45424  0.018832197  0.018195743           27 
 1450000   0.68664927   -7.3455739    327.44721  0.018818805  0.018181876           27 
 1451000   0.67240506   -7.3504667    327.49795   0.01880875  0.018168042           42 
 1452000   0.68344153   -7.3610354    328.03586  0.018826668  0.018154211           31 
 1453000   0.67849518   -7.3602015    327.95041   0.01880881  0.018140361           19 
 1454000   0.67918452   -7.3698778    327.86467   0.01879096  0.018126551           33 
 1455000   0.67751266   -7.3731401    327.76153  0.018772138  0.018112751           41 
 1456000   0.67514306   -7.3792829    327.57476  0.018748555  0.018098913           37 
 1457000   0.66239523   -7.3758663    327.30956  0.018720519  0.018085083           38 
 1458000   0.65508432   -7.3696472    327.03589  0.018692037  0.018071206           38 
 1459000   0.66685803   -7.3903213    326.73015  0.018661763  0.018057343           30 
 1460000   0.67116508   -7.3712364    327.26199  0.018679337  0.018043481           41 
 1461000   0.66620923   -7.3566398    327.87799  0.018701688  0.018029646           42 
 1462000   0.69220282   -7.3830047    327.87962  0.018688989  0.018015835           15 
 1463000   0.64898875   -7.3794491    327.62449  0.018661682  0.018002047           50 
 1464000   0.68097679   -7.3718133    327.51085  0.018642466  0.017988206           26 
 1465000   0.66619221   -7.3853769    327.97685  0.018656249  0.017974453           20 
 1466000   0.65630866   -7.3695994    327.07172  0.018592071  0.017960714           57 
 1467000   0.65966832   -7.3701941    327.42659  0.018599556  0.017947015           44 
 1468000   0.66769499   -7.3730873    327.55708  0.018594294  0.017933314           28 
 1469000   0.66584321   -7.3614685    327.84156  0.018597774  0.017919623           22 
 1470000   0.67163388    -7.353069    327.99059  0.018593571  0.017905922           17 
 1471000   0.68294989   -7.3836913     327.8291  0.018571782  0.017892209           15 
 1472000   0.66647665   -7.3912314    328.03924  0.018571062  0.017878502           22 
 1473000   0.65495262   -7.3931591     327.6524  0.018536569  0.017864778           24 
 1474000   0.65874075    -7.386163    327.50862  0.018515865  0.017851083           23 
 1475000   0.66781866   -7.3607988    327.92367  0.018526761  0.017837408           20 
 1476000    0.6560352   -7.3611007    328.00365  0.018518725  0.017823736           10 
 1477000    0.6569643   -7.3745625    327.93862  0.018502517  0.017810074           19 
 1478000    0.6591974   -7.3722254    328.27657  0.018509053   0.01779642           62 
 1479000   0.66784985   -7.3600433    327.98553   0.01848014  0.017782809           37 
 1480000   0.66901696   -7.3869696    328.27523  0.018483965  0.017769227           18 
 1481000   0.66812609   -7.3930178    328.18641  0.018466487  0.017755641           16 
 1482000   0.66258015   -7.3834058    327.61234  0.018421746  0.017742075           14 
 1483000   0.66688705   -7.3640229    327.94394  0.018427958  0.017728549           29 
 1484000   0.65988608   -7.3714872    328.77786  0.018462369  0.017715028           24 
 1485000   0.67209749   -7.3737802     328.5278  0.018435904  0.017701517           51 
 1486000   0.66278662   -7.3794599    328.37149  0.018414731  0.017688002           54 
 1487000   0.66078456   -7.3768098    327.69135  0.018364232  0.017674525           28 
 1488000   0.66689602    -7.336346    328.59377  0.018402429  0.017661094           37 
 1489000   0.66202923   -7.3520322    328.34693  0.018376255  0.017647671           31 
 1490000   0.63867279   -7.3791468    328.46176  0.018370344  0.017634236           30 
 1491000   0.65758176   -7.3858855    328.34191  0.018351325  0.017620779           37 
 1492000    0.6548671   -7.3630651    327.20512  0.018275532  0.017607298           54 
 1493000   0.65432664    -7.380388    327.78326   0.01829556  0.017593843           44 
 1494000   0.66054627   -7.3906836    328.30222  0.018312261  0.017580446           43 
 1495000   0.65997367   -7.3874386    327.75205  0.018269345  0.017567023           47 
 1496000   0.67054218   -7.3970778    327.96552  0.018269024  0.017553614           68 
 1497000   0.65488185   -7.3805391    328.61399  0.018292918  0.017540234           41 
 1498000   0.63861331   -7.3719359    328.24517   0.01826019  0.017526846           58 
 1499000   0.64825967   -7.3897853    328.95129  0.018287263  0.017513473          119 
 1500000   0.65527922   -7.3725278    328.60185  0.018255658  0.017500097          138 
 1501000   0.65578332   -7.3949159    328.73032  0.018250628   0.01748674           46 
 1502000   0.65845357   -7.3894362    328.04831  0.018200639  0.017473406           72 
 1503000   0.66550864   -7.3804398    328.05987   0.01818917  0.017460089          149 
 1504000    0.6553804   -7.3911756    327.64521  0.018154101  0.017446725           64 
 1505000   0.65844402   -7.3952024    328.10986  0.018167767  0.017433368           25 
 1506000    0.6518711   -7.4089862    328.06816  0.018153395  0.017420011           33 
 1507000   0.64631615   -7.4057857    328.45867  0.018162943  0.017406683           74 
 1508000   0.64036919   -7.4172841    327.76786  0.018112724  0.017393369           83 
 1509000   0.64719051   -7.4082224    329.04187  0.018171077  0.017380031           87 
 1510000   0.64966456   -7.3931013    329.01194  0.018157392  0.017366698           73 
 1511000   0.64866086   -7.4149119     328.5454  0.018119645  0.017353384           82 
 1512000    0.6460671   -7.4032051     328.3779  0.018098429  0.017340076           49 
 1513000   0.65536007   -7.3952742    328.67552   0.01810286  0.017326785           46 
 1514000   0.65419873   -7.3889183    328.83511  0.018099687  0.017313536           26 
 1515000   0.64234855   -7.4020407    328.07303  0.018045821  0.017300281           53 
 1516000   0.64714254   -7.4284132    328.38785  0.018051223  0.017287026           44 
 1517000   0.65246931   -7.4237208     327.9669    0.0180162  0.017273773          115 
 1518000   0.65107237   -7.4119317    328.31561  0.018023474  0.017260541           63 
 1519000   0.64412825   -7.4308608    328.19986  0.018005259  0.017247316           41 
 1520000   0.64513708   -7.4191995    328.50468  0.018010125  0.017234102           86 
 1521000   0.65503853   -7.4175643    328.74299  0.018011341  0.017220915           81 
 1522000   0.64319355   -7.4410722    328.37157   0.01797917  0.017207734           68 
 1523000   0.63994475    -7.401885    327.92214  0.017942774  0.017194533           75 
 1524000   0.63388426   -7.4367786    328.43257  0.017958911  0.017181329           46 
 1525000    0.6377383   -7.4257746    328.93141  0.017974394  0.017168155           48 
 1526000   0.64720129   -7.4111983    328.58071  0.017943464  0.017155011           46 
 1527000   0.63628343   -7.4266218    328.59106  0.017932278  0.017141844           67 
 1528000   0.64120703   -7.4078598    328.04247  0.017890623  0.017128731           54 
 1529000   0.63653546   -7.4206522    328.68496   0.01791394  0.017115649           20 
 1530000   0.64902335   -7.4162519     328.7952  0.017908235  0.017102549           42 
 1531000   0.63868195   -7.4244962    328.44518  0.017877486  0.017089448           22 
 1532000   0.65628391   -7.4273809    328.43157  0.017865077  0.017076358           67 
 1533000   0.63493371   -7.4266504    328.82081  0.017874582  0.017063263           27 
 1534000   0.64045301   -7.4229717    329.18075  0.017882483  0.017050158           19 
 1535000   0.61115181   -7.4177409    328.47421  0.017832476   0.01703707           56 
 1536000   0.63976626    -7.408996    328.53463  0.017824144  0.017024024           27 
 1537000    0.6383921   -7.4186306    328.86896  0.017830674   0.01701102           33 
 1538000   0.63820265   -7.4067602    328.76241  0.017813308  0.016998027           42 
 1539000   0.64262083    -7.402541    328.77886  0.017802624  0.016985067           37 
 1540000   0.64998943   -7.4350707    328.61714  0.017782313  0.016972118           53 
 1541000    0.6395019   -7.4175727    328.97124  0.017789922  0.016959155           77 
 1542000   0.64459786   -7.4141736    329.04743  0.017782503  0.016946225           18 
 1543000   0.65118592   -7.4031528    328.72285  0.017753448  0.016933275           80 
 1544000   0.64054025   -7.4094378    328.66565  0.017738863   0.01692033           20 
 1545000   0.64133863    -7.432707    329.12825  0.017752333  0.016907397           29 
 1546000   0.62880163   -7.4232632    329.09952  0.017739301  0.016894493           26 
 1547000   0.65213195   -7.4005722    328.66906  0.017704646  0.016881571           22 
 1548000   0.63620573   -7.4505018    328.21925  0.017668995  0.016868628           25 
 1549000   0.63006399    -7.391008    328.84425  0.017691212  0.016855704           20 
 1550000   0.63503829   -7.4138149    329.04852  0.017690781  0.016842821           47 
 1551000   0.63611059   -7.4280873    328.88524  0.017670602  0.016829962           20 
 1552000   0.64162955    -7.442005    329.54016  0.017694381  0.016817095           37 
 1553000   0.62029764    -7.448487    328.62184  0.017633711   0.01680428           35 
 1554000   0.63506854   -7.4026929    329.54259  0.017671739  0.016791446           15 
 1555000   0.63640683    -7.424136    328.49822  0.017604406    0.0167786           22 
 1556000   0.64833165    -7.437525    328.57533  0.017597222  0.016765738           22 
 1557000   0.63145458    -7.415102    328.55671  0.017584923  0.016752891           22 
 1558000   0.62624746   -7.4400412    329.08644   0.01760197  0.016740054           11 
 1559000   0.62922321   -7.4445305    328.30374  0.017548842  0.016727199           62 
 1560000   0.63559353   -7.4448397    328.78343  0.017563217   0.01671433           30 
 1561000    0.6360389   -7.4354807    328.51311  0.017537535  0.016701471           20 
 1562000   0.61921545   -7.4591559     328.5349   0.01752747   0.01668861           26 
 1563000   0.62391726   -7.4558933    328.40095  0.017509114  0.016675733           17 
 1564000   0.62886675   -7.4389691    328.82677  0.017520608  0.016662858           14 
 1565000   0.63417703   -7.4515948    328.21983  0.017477094  0.016649964           23 
 1566000   0.61174456   -7.4722895    327.96279  0.017452256  0.016637082           25 
 1567000   0.62439932    -7.457601    328.25574  0.017456697  0.016624235           44 
 1568000   0.62088958   -7.4635762    328.38734  0.017452558  0.016611386           22 
 1569000    0.6170918   -7.4528939     328.7429   0.01746032  0.016598541           31 
 1570000   0.63659803   -7.4654026    328.79615  0.017452025  0.016585709           25 
 1571000   0.62010592   -7.4666642    328.38021  0.017418852  0.016572863           52 
 1572000   0.61573973   -7.4587936    328.57187  0.017417932  0.016560015           21 
 1573000   0.61306662   -7.4855957    328.88997  0.017423711  0.016547176           18 
 1574000   0.61937079   -7.4655856    328.34882  0.017383991  0.016534387           33 
 1575000   0.62648116   -7.4566844    327.65179  0.017336074  0.016521578           52 
 1576000   0.61604571   -7.4561432    328.56307  0.017373259  0.016508805           23 
 1577000   0.62071129   -7.4452795    328.71113  0.017370066  0.016496045           11 
 1578000   0.62652422   -7.4382618    328.68887  0.017357883   0.01648332           30 
 1579000   0.62313205   -7.4469479     328.4134  0.017332352   0.01647059           14 
 1580000   0.61640536   -7.4611034    327.97935  0.017298489  0.016457807           19 
 1581000   0.62504027   -7.4689052    327.90665  0.017283716  0.016445034           60 
 1582000   0.62312527   -7.4691779    328.27362  0.017292121  0.016432256           43 
 1583000   0.62922727   -7.4696598    328.05874  0.017269885   0.01641949           28 
 1584000   0.63416161   -7.4716738    328.26014  0.017269578  0.016406781           31 
 1585000   0.62878494   -7.4964036    327.79694  0.017234329  0.016394026           59 
 1586000   0.61622457   -7.4978695    328.55534  0.017263311  0.016381299           26 
 1587000   0.61001298   -7.4625056    328.52291   0.01725073    0.0163686           37 
 1588000    0.6235006   -7.4676446    327.89002  0.017206655  0.016355876           42 
 1589000   0.60521523   -7.4635997    328.46974   0.01722623  0.016343161           38 
 1590000   0.60837894    -7.485073     328.9102   0.01723848  0.016330444           59 
 1591000   0.62053283   -7.4687224    327.99306  0.017179607   0.01631775           21 
 1592000   0.60174658   -7.4813508     328.3851  0.017189337  0.016305071           24 
 1593000   0.61145827   -7.4791451    328.27185  0.017172622  0.016292412           76 
 1594000   0.62017007   -7.4745867    328.08053  0.017151847  0.016279749           33 
 1595000   0.61519144   -7.4734077    328.19396   0.01714702  0.016267082           24 
 1596000   0.62454929   -7.4594895    328.28734  0.017141152  0.016254427           35 
 1597000    0.6109193   -7.4732142    328.28266  0.017130174  0.016241818           29 
 1598000   0.62525726   -7.4698135    327.33511  0.017070041  0.016229186           32 
 1599000   0.62622308   -7.4780224    327.88699  0.017088128  0.016216531           35 
 1600000   0.63300376   -7.4918222    327.73983  0.017069783   0.01620391           34 
 1601000   0.61224498   -7.4834175    327.39982  0.017041423  0.016191269           63 
 1602000   0.61690631   -7.4878281     327.9841  0.017061179  0.016178637           33 
 1603000   0.61922508   -7.4744776    328.19911  0.017061713  0.016166027           45 
 1604000   0.60905014   -7.4752563    328.07883  0.017044827   0.01615343           37 
 1605000     0.611172   -7.4840479     327.2818  0.016992824  0.016140835           26 
 1606000   0.60469303   -7.4804022    328.10558  0.017024988  0.016128257           52 
 1607000   0.61069996   -7.4811611     328.0939  0.017013789  0.016115695           40 
 1608000   0.61042393   -7.4887666    328.96675  0.017048443  0.016103161           25 
 1609000      0.61652   -7.4886343    327.94813  0.016985091  0.016090626           29 
 1610000   0.61638551   -7.4994452      328.253  0.016990321  0.016078084           55 
 1611000   0.62296045   -7.4759152     328.2322  0.016978699  0.016065527           58 
 1612000   0.60495627   -7.4919555     328.3508  0.016974297  0.016053016           57 
 1613000   0.61503351   -7.4875038    327.67368  0.016928791   0.01604052           48 
 1614000   0.59644207   -7.4984461    328.11688  0.016941185  0.016028033           55 
 1615000   0.60937926   -7.5149549    328.31891   0.01694112  0.016015546           44 
 1616000   0.61704734   -7.5044653    328.19705  0.016924353  0.016003088           34 
 1617000   0.60880094   -7.4850659     327.7655  0.016891646  0.015990646           28 
 1618000   0.62158773   -7.4833306    328.01307  0.016893957  0.015978214           15 
 1619000   0.60528086   -7.4960575    328.17281  0.016891744  0.015965778           55 
 1620000   0.60088823   -7.5163461    328.57788  0.016902154  0.015953359           35 
 1621000   0.60595463   -7.5053034    328.42188  0.016883707  0.015940972           20 
 1622000   0.59931598   -7.4971557    328.31687  0.016867903  0.015928577           21 
 1623000    0.6094619   -7.5089271    328.06953   0.01684481  0.015916205           28 
 1624000   0.59693644    -7.493414    328.58595  0.016860938  0.015903826           24 
 1625000   0.60398433   -7.4986598     327.9335  0.016817102  0.015891465           14 
 1626000   0.61982383   -7.5137295    327.95918  0.016808076  0.015879098           14 
 1627000   0.61804598   -7.5066191    328.57644  0.016829361  0.015866729           20 
 1628000    0.6110819   -7.4997887    328.18576  0.016799025  0.015854383           21 
 1629000     0.596303   -7.4965577    328.54012  0.016806841  0.015842048           33 
 1630000   0.60387737   -7.5044994    328.19783   0.01677903  0.015829727           30 
 1631000   0.59997001   -7.4992005    328.61263  0.016789936  0.015817417           23 
 1632000   0.60844886   -7.5041279     328.8758  0.016793086  0.015805145           16 
 1633000   0.60153316   -7.4999314    328.01318  0.016738782  0.015792894           26 
 1634000   0.58902752   -7.5117605    328.66273  0.016761665  0.015780637           22 
 1635000   0.58336667   -7.5034285    328.79952  0.016758386  0.015768369           21 
 1636000   0.60894142   -7.4965298    328.21859  0.016718551   0.01575611           19 
 1637000   0.61161899   -7.5148657    328.76301  0.016736052  0.015743896           19 
 1638000   0.60650811   -7.5172004    328.41738  0.016708251  0.015731685           25 
 1639000   0.60307472   -7.4912181    328.52461  0.016703509  0.015719447           14 
 1640000   0.60032608   -7.5060068    328.65403    0.0166999  0.015707217           31 
 1641000   0.60416032   -7.5178392    328.45693  0.016679714  0.015695042           18 
 1642000   0.61010525    -7.516862    328.08115  0.016650485  0.015682846           26 
 1643000   0.62037607   -7.5392188    327.97934  0.016635187  0.015670635           26 
 1644000   0.60383823   -7.5185033     328.2904  0.016640836  0.015658441           19 
 1645000   0.59397773    -7.514796    328.56828  0.016644797  0.015646286           17 
 1646000   0.59302263   -7.5285112    328.71232  0.016641977  0.015634145           21 
 1647000    0.5909958   -7.5112101    328.49134  0.016620691  0.015622011           17 
 1648000   0.59943767   -7.5292846    328.52732  0.016612425  0.015609896           21 
 1649000   0.59403039   -7.5128655    328.16318  0.016583949   0.01559777           22 
 1650000    0.5738154   -7.5206626     328.5045  0.016591137  0.015585617           28 
 1651000   0.59812364   -7.5148991    328.48449  0.016580077  0.015573487           17 
 1652000   0.58972347   -7.5099866    328.26011  0.016558722  0.015561361           18 
 1653000   0.60011312    -7.507322    328.83136  0.016577504  0.015549249           25 
 1654000   0.59148516   -7.5221534    328.57821  0.016554726  0.015537128           33 
 1655000   0.60587974   -7.5058221    328.64341  0.016548007  0.015525014           36 
 1656000   0.59419493   -7.5137697    327.95684  0.016503464  0.015512947           21 
 1657000   0.59474223   -7.5259358    327.64352  0.016477747   0.01550087           48 
 1658000    0.5933798   -7.5012838    328.08421  0.016489959  0.015488797           63 
 1659000    0.5984258   -7.5168746    327.87196  0.016469357    0.0154767           44 
 1660000   0.58575908   -7.5131769    327.47557  0.016439537  0.015464613           43 
 1661000   0.59492761   -7.5106221    328.12431  0.016462187  0.015452541           51 
 1662000   0.59413016    -7.541373    327.75093  0.016433561  0.015440478           66 
 1663000   0.58585586   -7.5381756    327.83739  0.016428011  0.015428407           82 
 1664000     0.593971   -7.5478283    327.90647  0.016421598  0.015416359           37 
 1665000   0.57742915   -7.5460611    327.76544  0.016404677  0.015404321           66 
 1666000   0.59317823   -7.5466384     327.3886   0.01637598  0.015392296           65 
 1667000    0.5890238   -7.5375596    327.80967  0.016387206  0.015380258           28 
 1668000   0.58089093   -7.5456427     327.4784  0.016360831  0.015368214           65 
 1669000   0.59215303   -7.5682913    327.82638  0.016368403  0.015356178           65 
 1670000   0.57854355   -7.5543612    328.37572  0.016386014  0.015344154           59 
 1671000   0.57715515   -7.5493038    327.99379  0.016357161  0.015332149           52 
 1672000   0.58481848    -7.567626    327.49276  0.016322406  0.015320124           84 
 1673000   0.58549594   -7.5271188    327.18695  0.016297417   0.01530811           67 
 1674000   0.59375952    -7.553572    327.63598  0.016310035  0.015296111           61 
 1675000   0.58146335    -7.532962    327.09715   0.01627349  0.015284119           90 
 1676000   0.58649845   -7.5388991    328.14557  0.016315909  0.015272149           55 
 1677000   0.58087229   -7.5542608    328.00604  0.016299247   0.01526018           77 
 1678000   0.58291937   -7.5433923    328.04711  0.016291573  0.015248229           67 
 1679000   0.58754445    -7.543576     328.2703  0.016292947  0.015236317           52 
 1680000   0.58416154   -7.5642102    327.86301  0.016263046  0.015224405           73 
 1681000   0.58225436   -7.5447317    327.95992  0.016258176  0.015212511           62 
 1682000   0.58063107   -7.5566213    328.08513  0.016254713  0.015200618           62 
 1683000   0.58031454    -7.564855    327.78945  0.016230415  0.015188739           59 
 1684000   0.57785945   -7.5762108    327.30057  0.016196584  0.015176867           33 
 1685000   0.58339091   -7.5580099    328.02409  0.016222754  0.015165011           59 
 1686000   0.58703786   -7.5486792    328.12987   0.01621836  0.015153168           70 
 1687000   0.58301171   -7.5613318    327.83422  0.016194142  0.015141334           55 
 1688000   0.59091298   -7.5887293    328.15485  0.016200378  0.015129489           61 
 1689000   0.58733028   -7.5469633    327.93969   0.01618017  0.015117648           72 
 1690000   0.56861417   -7.5626714    327.53146  0.016150466  0.015105819           49 
 1691000   0.57725769   -7.5858402    328.08057  0.016167976  0.015093977           45 
 1692000   0.58261542   -7.5644105    327.72403   0.01614086   0.01508213           55 
 1693000   0.57500287   -7.5572796    327.99492   0.01614466  0.015070313           53 
 1694000   0.57901833   -7.5670713     327.1864  0.016095356  0.015058491           38 
 1695000   0.58315073   -7.5512676     327.4717  0.016099887   0.01504669           36 
 1696000   0.58423911   -7.5749909    327.12055   0.01607314   0.01503489           71 
 1697000   0.57651378   -7.5467323    327.31638  0.016073285  0.015023074           41 
 1698000    0.5698078    -7.571739    327.23977  0.016060059   0.01501128           48 
 1699000   0.57443886   -7.5515143    327.65345  0.016070897  0.014999499          122 
 1700000   0.57036683   -7.5789896    327.22363  0.016040374   0.01498773           67 
 1701000   0.57935546   -7.5680237    327.54085  0.016046485  0.014975955           61 
 1702000   0.56994628   -7.5814298    327.26679  0.016023638  0.014964199           64 
 1703000   0.57102156   -7.5821251    327.54325  0.016027758  0.014952456           48 
 1704000   0.57837485   -7.5873265    327.46437  0.016014494  0.014940705           83 
 1705000   0.56937257   -7.5564054    327.40747   0.01600232  0.014928974           53 
 1706000   0.56372725   -7.5758229     327.9966  0.016021717   0.01491726           38 
 1707000   0.56472251   -7.5611055    326.75423  0.015951681  0.014905543           58 
 1708000   0.59018447   -7.5753104    327.41996  0.015974822  0.014893826          110 
 1709000   0.57011072   -7.5789588    327.31023  0.015960124  0.014882123          103 
 1710000   0.56432544   -7.5596922    327.38568  0.015954468  0.014870446           47 
 1711000   0.56132901   -7.5715232    327.02446   0.01592755  0.014858778           55 
 1712000   0.56952454   -7.5708381    327.27026  0.015930211  0.014847119          101 
 1713000   0.55429066   -7.5639927    327.38375  0.015926433  0.014835443           44 
 1714000   0.57053786   -7.5867732    326.76094   0.01588686  0.014823767           42 
 1715000   0.56189672   -7.5652601    327.30666  0.015904114  0.014812107          130 
 1716000   0.56257518   -7.5912828    327.06176  0.015882953  0.014800438           61 
 1717000   0.56073072   -7.5820404    327.32387  0.015886424  0.014788794           46 
 1718000   0.57438676    -7.588983    326.58733   0.01584145  0.014777149           59 
 1719000    0.5785931   -7.5880874    327.09603  0.015856895  0.014765508           42 
 1720000   0.56980377   -7.5952065    327.36494  0.015860704  0.014753885           49 
 1721000   0.56240121   -7.5848364    327.04109  0.015835807  0.014742268           58 
 1722000   0.56587918   -7.5863306    327.15278  0.015832016  0.014730659           64 
 1723000   0.56599179   -7.5819086    327.29934  0.015829916  0.014719056           55 
 1724000   0.55632713   -7.5877429    326.80249  0.015796718  0.014707456           55 
 1725000   0.56376903   -7.5906706    327.11579  0.015802695  0.014695878           50 
 1726000   0.55927733   -7.5890982    326.82812   0.01577965  0.014684329           34 
 1727000   0.55833752   -7.5754781    327.67402  0.015811331  0.014672787           29 
 1728000   0.56826984   -7.5976796    327.17474  0.015778103  0.014661248           49 
 1729000   0.56813518   -7.5927487    327.25906  0.015773041  0.014649719           41 
 1730000   0.55254336   -7.5789201    326.53513  0.015729052  0.014638189           95 
 1731000   0.56359885   -7.6006792    327.04201  0.015744368  0.014626682           35 
 1732000    0.5741001   -7.5869312    327.10412  0.015738266  0.014615185           32 
 1733000   0.56416046   -7.5805978     327.1542  0.015731592  0.014603719           27 
 1734000   0.56440596   -7.5956151    327.07061  0.015718503  0.014592247           37 
 1735000   0.56762006   -7.5914819    327.10473  0.015711082  0.014580777           44 
 1736000   0.55312297   -7.5888588    327.21726  0.015707434  0.014569329           19 
 1737000   0.55434152   -7.5848797    327.53188  0.015713485  0.014557871           37 
 1738000   0.56433595   -7.6045571    327.39144   0.01569771   0.01454643           21 
 1739000   0.55722741      -7.6004    327.07407  0.015673475  0.014534995           32 
 1740000   0.55250972   -7.5931162    327.25258  0.015673016  0.014523562           96 
 1741000   0.55419817   -7.5948192    327.26104  0.015664419  0.014512136           35 
 1742000   0.55644394    -7.582278    327.09314  0.015647395   0.01450074           62 
 1743000    0.5487672   -7.5729224    327.08852  0.015638197  0.014489352          100 
 1744000    0.5524184   -7.6073667     327.5597  0.015651744  0.014477965           16 
 1745000   0.55776013   -7.5868468    327.02133  0.015617065  0.014466596           24 
 1746000   0.55427733   -7.5978149    327.46364  0.015629231  0.014455235           48 
 1747000   0.55689265   -7.6094175     327.0764  0.015601813  0.014443873           33 
 1748000   0.54935628   -7.5872777    326.95817  0.015587251  0.014432539           38 
 1749000   0.56300553   -7.6050812    327.19715  0.015589725    0.0144212           30 
 1750000   0.55444117   -7.5866914    327.24569  0.015583128  0.014409865           36 
 1751000   0.55683092   -7.5983659    327.52678  0.015587606   0.01439854           74 
 1752000   0.55942759   -7.6042002    326.74382  0.015541468   0.01438723           60 
 1753000   0.54452779   -7.6051137    327.29027  0.015558579  0.014375938           58 
 1754000   0.54423345   -7.6074532    326.71269  0.015522267  0.014364672           49 
 1755000   0.55659111   -7.6030448    327.42678   0.01554733  0.014353385           43 
 1756000   0.54152705   -7.5884172    326.89579  0.015513278  0.014342121           39 
 1757000   0.55150744   -7.5933016    326.91362  0.015505294  0.014330868           45 
 1758000   0.56098393    -7.596014     327.0409  0.015502508  0.014319618           66 
 1759000   0.55656508   -7.6014342    326.80845  0.015482682  0.014308379           38 
 1760000   0.55655341    -7.604065    326.63422  0.015465636  0.014297155           68 
 1761000   0.54201268   -7.6190499    327.17818  0.015482594  0.014285933           58 
 1762000   0.54447253   -7.6265386     327.1496  0.015472455  0.014274713           56 
 1763000   0.54533179   -7.6095751    327.00253  0.015456728  0.014263511           49 
 1764000   0.54742592    -7.600962    327.35124  0.015464439  0.014252319           78 
 1765000   0.54745622   -7.6238641    326.71589  0.015425679  0.014241129           53 
 1766000   0.54296559   -7.6094381    327.36559  0.015447602  0.014229942           41 
 1767000   0.54989762   -7.6069599    327.41971  0.015441413  0.014218769           51 
 1768000   0.55182719   -7.6016941    327.01663   0.01541368  0.014207623           34 
 1769000   0.55130516   -7.6100867    327.51945  0.015428653  0.014196481           55 
 1770000    0.5490302   -7.6117678    327.45178   0.01541675   0.01418536           40 
 1771000   0.54921417   -7.6135508    327.62525  0.015416208   0.01417427           46 
 1772000   0.54950074   -7.6232716    327.58388  0.015405563  0.014163154           36 
 1773000   0.55062521   -7.6186113    326.96557  0.015367812  0.014152055           47 
 1774000   0.54867916   -7.6178955    327.13455  0.015367087  0.014140954           72 
 1775000   0.55123964    -7.628354    327.37575  0.015369754  0.014129865           47 
 1776000   0.54347887   -7.6244164    326.92904  0.015340139  0.014118783           69 
 1777000   0.54044374     -7.60546    326.54302  0.015313404  0.014107716           69 
 1778000   0.53590131   -7.6065179    326.99645  0.015326043  0.014096661           42 
 1779000   0.54685472   -7.6260699    326.96185  0.015315807  0.014085608           70 
 1780000   0.54379157   -7.6243554    326.91445  0.015304983   0.01407457           57 
 1781000   0.54519707   -7.6147923    326.73185  0.015287846  0.014063531           46 
 1782000   0.53726703   -7.6168706    326.38147  0.015262882  0.014052479           83 
 1783000   0.53692265   -7.6280295    326.52992   0.01526126  0.014041412           51 
 1784000   0.54123028   -7.6378538    326.77674  0.015264235  0.014030356           87 
 1785000   0.54365306   -7.6117153    326.30769  0.015233786  0.014019321           52 
 1786000   0.54850837    -7.631509    326.08655  0.015214938  0.014008286           51 
 1787000    0.5526212   -7.6304778    326.65922  0.015233129  0.013997256           58 
 1788000   0.53596734   -7.6069771    326.87586  0.015234706   0.01398625          124 
 1789000   0.55065072   -7.6292523    326.62865  0.015214675  0.013975242           80 
 1790000   0.53331295   -7.6403412    326.50915  0.015200612   0.01396425           58 
 1791000   0.52818697   -7.6347604    325.93402  0.015165365  0.013953251           47 
 1792000    0.5351237   -7.6276686    326.24716  0.015171464  0.013942276           57 
 1793000   0.53480676   -7.6201609    326.55953  0.015177521  0.013931308           73 
 1794000   0.53866588   -7.6469976    326.58917  0.015170437  0.013920354          114 
 1795000   0.55403199   -7.6232197    326.39589  0.015153012  0.013909412           84 
 1796000   0.54656658   -7.6482081    326.35741   0.01514279  0.013898488           33 
 1797000   0.53866741   -7.6199461     326.4585  0.015139051  0.013887567           87 
 1798000   0.53803229   -7.6411609    326.53266  0.015134068  0.013876646           59 
 1799000   0.53189146   -7.6331793    326.23806  0.015112009  0.013865713           84 
 1800000   0.53521495    -7.623988    326.52064  0.015116696  0.013854802           60 
 1801000   0.51955043   -7.6453173    326.80257  0.015121348  0.013843906           49 
 1802000   0.53009452   -7.6227568    326.48433  0.015098239  0.013833021           54 
 1803000   0.53228203    -7.640778    326.68995  0.015099369  0.013822138           79 
 1804000   0.52863377   -7.6251634    326.49786  0.015082126  0.013811277           83 
 1805000   0.54387127   -7.6573886    326.37772  0.015068223  0.013800418          113 
 1806000   0.52974712   -7.6433046    326.29746  0.015056177  0.013789579           90 
 1807000   0.54036543   -7.6492308    326.66024  0.015064575  0.013778734           50 
 1808000   0.53961339   -7.6497258    326.03547  0.015027446  0.013767903          112 
 1809000   0.54041127   -7.6392525     326.2209  0.015027681  0.013757088           52 
 1810000   0.53719577   -7.6191552     326.5375  0.015033955  0.013746285           53 
 1811000   0.52201784   -7.6508384    326.23012  0.015011509  0.013735488           99 
 1812000   0.53398801   -7.6315154    326.29614  0.015006261  0.013724691           52 
 1813000   0.53253274   -7.6505692    326.34684  0.015000315  0.013713891           46 
 1814000   0.53414004   -7.6709174    326.34385  0.014991908  0.013703119           74 
 1815000   0.52862535   -7.6579013     325.9114  0.014963792  0.013692356           70 
 1816000    0.5314984   -7.6543993    326.21347  0.014969414  0.013681609           45 
 1817000   0.53773698   -7.6513346    326.60119  0.014978958  0.013670865           67 
 1818000   0.52755803   -7.6302645    325.96478  0.014941547  0.013660133           87 
 1819000   0.53128389   -7.6360708     326.2015  0.014944177  0.013649404           63 
 1820000   0.53206366   -7.6587947    326.37858  0.014944074  0.013638699           52 
 1821000   0.52861276   -7.6626677     326.2379   0.01492943  0.013627997           85 
 1822000   0.51470887   -7.6369732    326.15493  0.014917441  0.013617301           82 
 1823000   0.52923564   -7.6350879    326.59058  0.014929173  0.013606624           35 
 1824000   0.51661034   -7.6294425    326.30155  0.014907783  0.013595961          134 
 1825000   0.52434226   -7.6490688     326.4795   0.01490774  0.013585295           74 
 1826000   0.51963531   -7.6495087    326.62658  0.014906288  0.013574659           70 
 1827000   0.52921356   -7.6639242    326.26697  0.014881726  0.013564037           48 
 1828000   0.52713073   -7.6485486     326.1837  0.014869789  0.013553416           57 
 1829000   0.52397666   -7.6507832    326.08764  0.014857283  0.013542795           90 
 1830000   0.53818301   -7.6626525    325.63578  0.014828587  0.013532187           94 
 1831000   0.50878683   -7.6432247     326.3264  0.014851921  0.013521591           71 
 1832000   0.51403067   -7.6579608    325.94089  0.014826278  0.013511005           66 
 1833000   0.51937115   -7.6514739    326.25967  0.014832682  0.013500413          138 
 1834000    0.5068109   -7.6659837    326.28474  0.014825734  0.013489827          126 
 1835000   0.52364137    -7.654067    326.15296  0.014811669  0.013479238          116 
 1836000   0.51574221   -7.6651223    325.86324  0.014790452   0.01346866          100 
 1837000   0.51588485   -7.6589867    325.79435  0.014779276  0.013458091           93 
 1838000    0.5217628   -7.6689837    326.39538  0.014798485  0.013447538           80 
 1839000   0.52281888   -7.6446034    326.66005  0.014802431  0.013436993          104 
 1840000   0.52956664   -7.6561007    325.66986  0.014749541  0.013426457          150 
 1841000    0.5133582   -7.6543556    326.33991  0.014771859  0.013415932           82 
 1842000   0.51354486   -7.6703832    325.71711  0.014735664  0.013405406           96 
 1843000   0.52587447   -7.6650814    326.54726  0.014765204  0.013394894           98 
 1844000   0.51322384   -7.6585796    326.44743  0.014752686  0.013384391          118 
 1845000   0.50485297   -7.6612503    325.45909  0.014700049  0.013373895          131 
 1846000   0.52390332   -7.6675404    325.94466  0.014714006    0.0133634          102 
 1847000   0.52440695   -7.6615062    325.80655  0.014699808  0.013352923           95 
 1848000   0.51331753   -7.6804563    326.30289  0.014714236  0.013342468           75 
 1849000   0.50666698   -7.6563302    325.80732  0.014683943  0.013332011           73 
 1850000   0.50922701   -7.6616787    326.06199  0.014687477  0.013321565          103 
 1851000   0.51750333   -7.6648115    326.46456  0.014697666  0.013311132          116 
 1852000   0.51240271   -7.6602704    326.09195  0.014672964    0.0133007           76 
 1853000   0.50867243   -7.6635665    326.19361  0.014669617   0.01329028          164 
 1854000   0.51085356   -7.6837358    325.90882  0.014648904  0.013279858          108 
 1855000   0.51367613   -7.6666387    325.97386  0.014643929   0.01326945          122 
 1856000    0.5125954   -7.6714279    325.88048  0.014631846  0.013259057           98 
 1857000    0.5109835   -7.6622237    326.35453   0.01464524  0.013248669          116 
 1858000   0.49890654   -7.6587003    325.86003  0.014615179  0.013238295           82 
 1859000   0.52907373   -7.6755799    325.77784  0.014603633  0.013227931          129 
 1860000   0.51857818    -7.665365    325.72707  0.014593507  0.013217563           48 
 1861000   0.51081419   -7.6609965    325.82821  0.014590194  0.013207215          166 
 1862000   0.51324204   -7.6881785    326.24923  0.014601201  0.013196884           87 
 1863000   0.51893694   -7.6836639    326.47433  0.014603432   0.01318656           85 
 1864000   0.51034883   -7.6769046    325.79809  0.014565365  0.013176245          159 
 1865000   0.51593608   -7.6703919    326.15743  0.014573612  0.013165932          140 
 1866000   0.50530002   -7.6843243    325.90092  0.014554346  0.013155641           65 
 1867000   0.51335561   -7.6843018     325.7961  0.014541872  0.013145349          120 
 1868000   0.50188249   -7.6729498    325.75696  0.014532341  0.013135069           75 
 1869000   0.50435375   -7.6656463    325.42411  0.014509725  0.013124805           84 
 1870000   0.50232462   -7.6581137    325.42743  0.014502114  0.013114532           96 
 1871000   0.50172777    -7.679279    325.86818  0.014513994  0.013104286           93 
 1872000   0.50980703   -7.6774109    325.86741  0.014506206  0.013094039           83 
 1873000   0.51787782   -7.6902354    325.64109  0.014488392  0.013083798          136 
 1874000   0.50450837   -7.6777014    325.07462  0.014455471  0.013073572          105 
 1875000    0.5084063   -7.6863002    326.05866  0.014491496  0.013063354          168 
 1876000   0.50263992   -7.6825171    326.14443  0.014487581  0.013053155          130 
 1877000   0.51371989   -7.6864138    325.25528  0.014440387  0.013042951          121 
 1878000   0.50203835   -7.7000599    325.46825  0.014442148  0.013032763           88 
 1879000   0.51441448   -7.6817343    325.97751  0.014457047  0.013022578          119 
 1880000   0.49807849   -7.6863061    325.88018  0.014445044  0.013012396           74 
 1881000   0.51117365   -7.6717772    325.50906  0.014420922   0.01300223          118 
 1882000   0.50231291   -7.6986206    325.56252  0.014415627  0.012992064           82 
 1883000   0.50711324   -7.6772058     325.7872  0.014417915  0.012981919          106 
 1884000   0.49927715   -7.6784559    325.33941  0.014390455  0.012971781           88 
 1885000   0.49322563   -7.6874984    325.47852  0.014388971  0.012961656          103 
 1886000   0.49176203   -7.6881572     325.9843   0.01440369  0.012951533          106 
 1887000   0.51045996    -7.687133     326.0005  0.014396772  0.012941422          140 
 1888000   0.49822431   -7.6998903    325.82011  0.014381184  0.012931326          116 
 1889000   0.49471161   -7.7037903    325.53854   0.01436115  0.012921224           90 
 1890000   0.50507853   -7.6743738    325.23438   0.01434014  0.012911144           91 
 1891000   0.49362711   -7.6871417    325.68401  0.014352371  0.012901082          114 
 1892000    0.5008814   -7.6891867    325.76875  0.014348518  0.012891021          105 
 1893000      0.50136   -7.6884079    325.50657  0.014329396  0.012880973           85 
 1894000   0.48677197   -7.6860674    325.35533  0.014315176  0.012870924          118 
 1895000   0.49443595   -7.6893619    325.40813  0.014309944   0.01286087           96 
 1896000   0.49656762   -7.6859397    326.23926  0.014338927  0.012850848           99 
 1897000   0.49329574   -7.6703425    325.19344  0.014285426  0.012840819           96 
 1898000   0.49941014   -7.6807831    325.54785   0.01429346  0.012830807          141 
 1899000   0.49222362   -7.7059483    325.80369   0.01429716  0.012820799          109 
 1900000    0.4905201   -7.6987084    325.48976  0.014275867  0.012810803           96 
 1901000   0.48859224   -7.7056731    325.45454  0.014266813  0.012800821           85 
 1902000   0.49933446   -7.6897625    325.81466   0.01427509  0.012790842          163 
 1903000   0.48071031    -7.686297    325.56316  0.014256575  0.012780867           91 
 1904000   0.47950874   -7.7132876    325.52313  0.014247336  0.012770897          141 
 1905000   0.48834619   -7.6872297    325.02612  0.014218115  0.012760938          111 
 1906000   0.48922217   -7.6991595    325.39139  0.014226626  0.012750991          117 
 1907000   0.49695328   -7.7072836    326.15835  0.014252681  0.012741054          106 
 1908000   0.49370947   -7.7011434    325.10156  0.014199055  0.012731126          106 
 1909000   0.49061881   -7.7114849    325.38881  0.014204156  0.012721204           93 
 1910000   0.48547182   -7.7065706    325.84631   0.01421668   0.01271129           87 
 1911000   0.48131552   -7.6967895    325.06933  0.014175359  0.012701387          143 
 1912000   0.48954713   -7.6927038    325.31613  0.014178702   0.01269148          116 
 1913000    0.4775201   -7.6831943    325.43154  0.014176317  0.012681588          205 
 1914000   0.49306486   -7.7030527    325.41145  0.014168036  0.012671704          106 
 1915000   0.48769026   -7.6980601    325.10793  0.014147429  0.012661824          114 
 1916000   0.49521223   -7.7017973    324.45562  0.014111674  0.012651969          101 
 1917000   0.49482018   -7.7064969    325.18965  0.014136222  0.012642116          115 
 1918000   0.48651458   -7.7109032    324.89607  0.014116096  0.012632266           88 
 1919000   0.47813923   -7.7139728     325.5286  0.014136208  0.012622432           97 
 1920000   0.47922179   -7.7137827    325.49322   0.01412731  0.012612606           73 
 1921000   0.50247195   -7.6892909     324.9863  0.014097965  0.012602787           83 
 1922000   0.48905636   -7.6926012    325.80573  0.014126159  0.012592976           73 
 1923000   0.47999156   -7.7069434     324.9047  0.014079767  0.012583167           78 
 1924000   0.48208021    -7.716792    324.72007  0.014064452   0.01257337          114 
 1925000   0.48715491   -7.7054509    325.33297  0.014083678  0.012563586           68 
 1926000   0.49443568   -7.7021806    325.26229  0.014073308  0.012553812          120 
 1927000   0.49154635   -7.7044714    325.08827  0.014058479  0.012544038          103 
 1928000    0.4755403   -7.7242703    325.14894   0.01405381  0.012534271          132 
 1929000   0.48832715   -7.7192729    324.75891  0.014029675  0.012524511          126 
 1930000   0.48312214   -7.7202373    325.39732  0.014049971   0.01251476           77 
 1931000   0.47105347   -7.7195948    325.11058   0.01403032  0.012505009          109 
 1932000   0.48568412   -7.7210623    325.11565  0.014023277   0.01249527           67 
 1933000   0.46957357    -7.716558    324.80934  0.014002817  0.012485546           80 
 1934000   0.48552753   -7.7267087    324.95575  0.014001885   0.01247583          100 
 1935000   0.45979799   -7.7301668    325.17999  0.014004306  0.012466135          113 
 1936000   0.47809185   -7.7439521    325.10442   0.01399382  0.012456422          113 
 1937000   0.48588859    -7.717334     324.8711  0.013976557  0.012446733           98 
 1938000    0.4714228   -7.7232476    325.21598  0.013984175  0.012437049          118 
 1939000   0.48162968   -7.7196657    325.06969  0.013970676  0.012427375          115 
 1940000    0.4824266   -7.7055137    325.63964  0.013987957  0.012417718          175 
 1941000   0.47749796   -7.7240439    324.79476  0.013944477  0.012408061           98 
 1942000   0.48021022   -7.7291147    325.37038  0.013961997  0.012398409          187 
 1943000   0.47930208   -7.7171648    324.87323  0.013933489  0.012388768          120 
 1944000   0.46646152   -7.7312408    325.43697  0.013950488  0.012379135          198 
 1945000   0.47783893   -7.7328366    325.04671  0.013926594  0.012369509          162 
 1946000   0.47571901   -7.7208964    324.56789  0.013898933  0.012359889          231 
 1947000   0.46907244   -7.7296053      324.679   0.01389655  0.012350279           91 
 1948000   0.47446826   -7.7295957    325.42543  0.013921348  0.012340684          128 
 1949000    0.4720161   -7.7498134    325.00009  0.013896019  0.012331095          202 
 1950000   0.48488558   -7.7380199    324.38865  0.013862763  0.012321504          128 
 1951000   0.47250066   -7.7453928    324.63263  0.013866078  0.012311924          134 
 1952000   0.47404402   -7.7420758    325.20867  0.013883567  0.012302355           97 
 1953000   0.47825625   -7.7302094    325.21961  0.013876925  0.012292795          136 
 1954000   0.47240339   -7.7384003    324.86113  0.013854535  0.012283246           85 
 1955000   0.47051635   -7.7325665     324.5702  0.013835047  0.012273702          173 
 1956000   0.46826261   -7.7425035    324.73209  0.013834871   0.01226416          242 
 1957000   0.46770845   -7.7385958     325.0495  0.013841317  0.012254626          265 
 1958000   0.46542888   -7.7421177     325.0838  0.013835708  0.012245101          119 
 1959000   0.47988611   -7.7407255    324.74796  0.013814359   0.01223559          206 
 1960000   0.48050741   -7.7261068    324.56374  0.013799479  0.012226082          113 
 1961000   0.47138588   -7.7359705    324.57595  0.013792961  0.012216589          132 
 1962000   0.46748848   -7.7490198    325.16679  0.013811026  0.012207092          114 
 1963000   0.46737202   -7.7371251    324.37058  0.013770189  0.012197614          229 
 1964000   0.46926764   -7.7400268    324.48846   0.01376818  0.012188151          289 
 1965000   0.47255006   -7.7367733    324.07327  0.013743565  0.012178688          137 
 1966000   0.48066998    -7.748824    324.87574  0.013770589  0.012169241          178 
 1967000   0.47824587   -7.7524783    324.44617  0.013745389  0.012159806          116 
 1968000   0.46280482   -7.7621109    324.77509  0.013752333  0.012150368           99 
 1969000   0.47366311   -7.7541704    324.78685  0.013745846  0.012140939          170 
 1970000   0.46122183   -7.7454589    324.55171  0.013728922  0.012131523          267 
 1971000   0.46939375   -7.7529939    324.83446  0.013733911  0.012122115          137 
 1972000   0.46452441   -7.7543444    325.09204  0.013737831  0.012112716          204 
 1973000   0.46105924   -7.7419105    324.72047  0.013715175   0.01210333          125 
 1974000   0.46554406   -7.7281539    324.84774  0.013713599   0.01209396          105 
 1975000   0.46762306   -7.7373001    324.83837   0.01370626  0.012084583          211 
 1976000   0.45430574    -7.774594    324.83335  0.013699112  0.012075218          116 
 1977000   0.46145273   -7.7494881    324.38816  0.013673418  0.012065865          146 
 1978000   0.45373255   -7.7409639     324.6057   0.01367567   0.01205652          248 
 1979000   0.46154252   -7.7382758    324.75719  0.013675138  0.012047178           96 
 1980000   0.45765613   -7.7470034    324.79332  0.013669752  0.012037853          232 
 1981000   0.46014888   -7.7389853    324.75617  0.013661289  0.012028533          102 
 1982000   0.46330179   -7.7634358    324.38987  0.013638995  0.012019212          120 
 1983000   0.47433058   -7.7369596    324.57465  0.013639883   0.01200991          200 
 1984000   0.46246692   -7.7465861    324.43997  0.013627351  0.012000608          218 
 1985000   0.46355404   -7.7667239     324.5468  0.013624971  0.011991312          306 
 1986000   0.46196009   -7.7435691    324.83338  0.013630135   0.01198204          164 
 1987000   0.45456568   -7.7385988      324.665  0.013616214  0.011972774          184 
 1988000   0.46115168   -7.7676512    324.79688  0.013614893  0.011963504          150 
 1989000   0.46383133   -7.7684905    324.20102  0.013583083  0.011954249          165 
 1990000   0.46042123   -7.7481537    324.34998  0.013582495  0.011945004          254 
 1991000    0.4498888   -7.7449612    323.95482  0.013559134  0.011935761          206 
 1992000   0.46029196   -7.7514848    324.99415  0.013595806  0.011926542          237 
 1993000   0.44951757    -7.771649    324.25737  0.013558177  0.011917319          180 
 1994000    0.4509007   -7.7581421    324.75679   0.01357225  0.011908114          170 
 1995000   0.46264379   -7.7582687    324.24684  0.013544145  0.011898911          316 
 1996000    0.4559303   -7.7461385    324.47371  0.013546832  0.011889709          111 
 1997000   0.45131161    -7.777221    324.57179  0.013544141  0.011880525          185 
 1998000   0.45088113   -7.7549036    324.20753  0.013522169  0.011871345          152 
 1999000   0.45823488   -7.7663161    324.54193  0.013529345  0.011862178          227 
 2000000   0.45217359   -7.7552586    324.07414  0.013503089  0.011853016          144 
 2001000   0.45095082   -7.7629941    324.28139  0.013504972  0.011843867          204 
 2002000   0.44217759    -7.756651    324.08692  0.013490132  0.011834715          111 
 2003000   0.45860902   -7.7661896    324.71163  0.013509387  0.011825583          113 
 2004000    0.4423713   -7.7711549    324.16876  0.013480071   0.01181646          291 
 2005000   0.44748425   -7.7666265    324.62968  0.013492505  0.011807335          117 
 2006000   0.46343799   -7.7582702    324.16859  0.013466625  0.011798224          140 
 2007000   0.44978343   -7.7657636    324.90112  0.013490331   0.01178912          234 
 2008000   0.44746659   -7.7716242    324.28587  0.013458079  0.011780037          227 
 2009000    0.4463475   -7.7822304    324.35999  0.013454455  0.011770951          118 
 2010000   0.45433581   -7.7782335    324.26647  0.013443884   0.01176188          165 
 2011000   0.45378046    -7.770243    324.18307  0.013433742  0.011752814          143 
 2012000   0.45726501   -7.7667257    324.25733  0.013430141  0.011743759          160 
Loop time of 4350.96 on 48 procs for 2000000 steps with 4000 atoms

Performance: 79430.705 tau/day, 459.668 timesteps/s
99.4% CPU use with 48 MPI tasks x no OpenMP threads

MPI task timing breakdown:
Section |  min time  |  avg time  |  max time  |%varavg| %total
---------------------------------------------------------------
Pair    | 267.74     | 292.08     | 309.3      |  47.1 |  6.71
Neigh   | 27.373     | 28.01      | 28.998     |   6.3 |  0.64
Comm    | 241.04     | 260.28     | 288.43     |  56.6 |  5.98
Output  | 3.9577     | 3.9597     | 3.9917     |   0.2 |  0.09
Modify  | 3703       | 3718.9     | 3735.3     |  12.8 | 85.47
Other   |            | 47.71      |            |       |  1.10

Nlocal:        83.3333 ave          91 max          76 min
Histogram: 2 0 8 7 9 2 14 1 2 3
Nghost:        1815.35 ave        1850 max        1792 min
Histogram: 2 7 8 8 11 5 2 1 3 1
Neighs:        11173.6 ave       12829 max        9886 min
Histogram: 2 7 5 6 9 7 6 3 2 1
FullNghs:      22346.9 ave       24832 max       20249 min
Histogram: 2 3 9 7 6 9 7 2 1 2

Total # of neighbors = 1072649
Ave neighs/atom = 268.16225
Neighbor list builds = 107777
Dangerous builds = 0

#clear
#
#next RN
#
#jump SELF
Total wall time: 1:12:33
