
units lj                  # Use reduced LJ style units
atom_style atomic         # Uncharged point particles
atom_modify map hash      # Needed for indexing of clusters etc
                          # Used to be able to find where atoms are in relation to each other.

lattice fcc 1.0 spacing 1 1 1
Lattice spacing in x,y,z = 1.5874011 1.5874011 1.5874011
region box block 0 10 0 10 0 10 units lattice
create_box 2 box
Created orthogonal box = (0.0000000 0.0000000 0.0000000) to (15.874011 15.874011 15.874011)
  3 by 4 by 4 MPI processor grid
create_atoms 1 box
Created 4000 atoms
  using lattice units in orthogonal box = (0.0000000 0.0000000 0.0000000) to (15.874011 15.874011 15.874011)
  create_atoms CPU = 0.002 seconds
set type 1 type/fraction 2 0.61 78393
Setting atom values ...
  2454 settings made for type/fraction
mass 1 1.0
mass 2 1.0
pair_style lj/cut  3.5
pair_modify tail  yes
pair_coeff 1  1  1.0  1.0   # Intearaction between 1 and 1 set with epsilon = 1 and sigma = 1
pair_coeff 1  2  1.5  0.8
pair_coeff 2  2  0.5  0.88

write_data data.0
System init for write_data ...
Neighbor list info ...
  update every 1 steps, delay 10 steps, check yes
  max neighbors/atom: 2000, page size: 100000
  master list distance cutoff = 3.8
  ghost atom cutoff = 3.8
  binsize = 1.9, bins = 9 9 9
  1 neighbor lists, perpetual/occasional/extra = 1 0 0
  (1) pair lj/cut, perpetual
      attributes: half, newton on
      pair build: half/bin/atomonly/newton
      stencil: half/bin/3d
      bin: standard
WARNING: Not all mixed pair coeffs generated from mixing. Use write_data with 'pair ij' option to store all pair coeffs. (../write_data.cpp:312)


#############################
#   M E L T   S Y S T E M   #
#############################

velocity all create 2.4 6229865 mom yes dist gaussian # Assign velocities
                                                    # Temperature 2.4, random number seed, zero linear momentum
                                                                                # Gaussian distribution

timestep 0.002   # simulation timestep
thermo 1000       # output thermodynamic data every 1000 steps bf 100

# Define a fix  in this case with index 1 applied to all
# particles in the simulation. This fix is for simulations
# in the anisotropic NPT ensemble. Note that we use the MTK
# correction.
fix 1 all npt temp 2.4 2.4 0.1 iso 5.68 5.68 0.5 mtk yes tchain 5 pchain 5 # Use NPT ensemble
                                                                         # Set temperature and pressure and damping
                                                                         # Numbers of thermostats in chain and in barostat
run 10000          # run for 10000 steps
Per MPI rank memory allocation (min/avg/max) = 3.642 | 3.644 | 3.648 Mbytes
Step Temp E_pair E_mol TotEng Press Volume 
       0          2.4   -4.6675525            0   -1.0684525   -4.0420614         4000 
    1000    2.3802952   -4.3713715            0  -0.80182123    5.8991754    3611.5563 
    2000      2.39408   -4.3555523            0  -0.76533003    5.5203409    3660.3453 
    3000    2.3480475   -4.4206042            0  -0.89941353    5.3376572    3650.0057 
    4000    2.3723394   -4.3936723            0  -0.83605279    5.9540566    3597.3904 
    5000    2.3892212   -4.3683283            0  -0.78539247    5.7071201    3633.0838 
    6000    2.4042937   -4.4617809            0  -0.85624194    5.6535167    3597.0304 
    7000    2.4067851   -4.3740045            0  -0.76472934    5.8735692    3612.3312 
    8000    2.4049358   -4.4491347            0  -0.84263286    5.3305526    3629.8417 
    9000     2.371324    -4.437053            0  -0.88095616    5.6646035    3605.5896 
   10000    2.4251019   -4.4217361            0   -0.7849926    5.6299051    3615.6967 
Loop time of 2.65776 on 48 procs for 10000 steps with 4000 atoms

Performance: 650171.575 tau/day, 3762.567 timesteps/s
99.6% CPU use with 48 MPI tasks x no OpenMP threads

MPI task timing breakdown:
Section |  min time  |  avg time  |  max time  |%varavg| %total
---------------------------------------------------------------
Pair    | 1.1855     | 1.262      | 1.347      |   2.7 | 47.48
Neigh   | 0.21588    | 0.22211    | 0.23815    |   0.8 |  8.36
Comm    | 0.80024    | 0.89211    | 0.97572    |   3.7 | 33.57
Output  | 0.00024194 | 0.00024598 | 0.00031434 |   0.0 |  0.01
Modify  | 0.23857    | 0.26568    | 0.3156     |   3.3 | 10.00
Other   |            | 0.01562    |            |       |  0.59

Nlocal:        83.3333 ave          92 max          74 min
Histogram: 2 4 2 4 4 13 6 10 1 2
Nghost:        1749.08 ave        1785 max        1703 min
Histogram: 2 0 3 4 9 13 4 6 3 4
Neighs:        10564.2 ave       12112 max        8994 min
Histogram: 2 5 1 4 9 11 9 4 1 2

Total # of neighbors = 507083
Ave neighs/atom = 126.77075
Neighbor list builds = 901
Dangerous builds = 188

# Equilibrate just above the melting temperature to avoid step fn in T

fix 1 all npt temp 1.25 1.25 0.1 iso 5.68 5.68 0.5 mtk yes tchain 5 pchain 5
run 2000
Per MPI rank memory allocation (min/avg/max) = 3.644 | 3.646 | 3.650 Mbytes
Step Temp E_pair E_mol TotEng Press Volume 
   10000    2.4251019   -4.4217361            0   -0.7849926    5.6299051    3615.6967 
   11000    1.2200046   -6.4297952            0   -4.6002457    5.6425875    2776.3875 
   12000    1.2541819   -6.5763815            0    -4.695579    5.2328396    2750.1056 
Loop time of 0.644554 on 48 procs for 2000 steps with 4000 atoms

Performance: 536185.026 tau/day, 3102.923 timesteps/s
99.7% CPU use with 48 MPI tasks x no OpenMP threads

MPI task timing breakdown:
Section |  min time  |  avg time  |  max time  |%varavg| %total
---------------------------------------------------------------
Pair    | 0.29726    | 0.32026    | 0.35002    |   2.1 | 49.69
Neigh   | 0.040766   | 0.043084   | 0.046101   |   0.6 |  6.68
Comm    | 0.20237    | 0.23397    | 0.25964    |   2.8 | 36.30
Output  | 4.7713e-05 | 4.9136e-05 | 6.4154e-05 |   0.0 |  0.01
Modify  | 0.037705   | 0.042402   | 0.046587   |   1.2 |  6.58
Other   |            | 0.004789   |            |       |  0.74

Nlocal:        83.3333 ave          91 max          76 min
Histogram: 2 3 2 5 12 10 7 2 3 2
Nghost:        2113.85 ave        2138 max        2094 min
Histogram: 2 4 7 8 7 8 5 4 1 2
Neighs:        13911.6 ave       15550 max       12255 min
Histogram: 3 2 3 10 5 8 5 5 6 1

Total # of neighbors = 667755
Ave neighs/atom = 166.93875
Neighbor list builds = 142
Dangerous builds = 15

#############################
# L I N E A R  Q U E N C H  #
#############################

# Define solid atoms. This closely follows ten Wolde  Ruiz-Montero and Frenkel  Faraday Discuss  1996  104  93-110
# Compute components of the per-atom q6 vector
compute q6 all orientorder/atom degrees 1 6 components 6 nnn NULL cutoff 1.3 # compute the Q6 parameter.
                                                                             # Use all neighbours within 1.3 unit cell.

# get number of connections
compute coord_number all coord/atom orientorder q6 0.5

# An atom is solid if it has 8 or more connections (of a possible 14)
variable is_solid atom c_coord_number>=8
group solid dynamic all var is_solid    # Must be dynamic to update
dynamic group solid defined

# do clustering
compute cluster solid cluster/atom 1.3 # Create a cluster where all atoms within are solid and max 1.3 units from another member

# define chunks one chunk per cluster
compute clus_chunks solid chunk/atom c_cluster nchunk every compress yes  # Says which atoms are in which chunk

# count the size of each chunk
compute size_chunks solid property/chunk clus_chunks count


# Find the maximum entry in the vector of chunk sizes
variable max_n equal max(c_size_chunks)


# Thermo style which includes this variable
# thermo_style custom step temp pe vol v_max_n

thermo ${N}  # Print the thermo information every 100 steps
thermo 1000  

# Reset the npt fix at a lower temperature (below freezing)
fix 1  all npt temp  ${temp} ${temp}  0.1  iso  5.68  5.68  0.5  mtk yes tchain  5  pchain  5
fix 1  all npt temp  0.45 ${temp}  0.1  iso  5.68  5.68  0.5  mtk yes tchain  5  pchain  5
fix 1  all npt temp  0.45 0.45  0.1  iso  5.68  5.68  0.5  mtk yes tchain  5  pchain  5

dump dmp2 all dcd ${N} traj.dcd
dump dmp2 all dcd 1000 traj.dcd


compute msd all msd com yes
variable twopoint equal c_msd[4]/6/(step*dt+1.0e-6)
fix 9 all vector 10 c_msd[4]
variable fit equal slope(f_9)/6/(10*dt)
thermo_style custom step temp pe c_msd[4] v_twopoint v_fit v_max_n

fix 1 all npt temp 1.25 ${temp} 0.1 iso 5.68 5.68 0.5 mtk yes tchain 5 pchain 5
fix 1 all npt temp 1.25 0.45 0.1 iso 5.68 5.68 0.5 mtk yes tchain 5 pchain 5
run 500000 # 5000000  # Run for this many steps
Neighbor list info ...
  update every 1 steps, delay 10 steps, check yes
  max neighbors/atom: 2000, page size: 100000
  master list distance cutoff = 3.8
  ghost atom cutoff = 3.8
  binsize = 1.9, bins = 8 8 8
  4 neighbor lists, perpetual/occasional/extra = 1 3 0
  (1) pair lj/cut, perpetual
      attributes: half, newton on
      pair build: half/bin/atomonly/newton
      stencil: half/bin/3d
      bin: standard
  (2) compute orientorder/atom, occasional
      attributes: full, newton on
      pair build: full/bin/atomonly
      stencil: full/bin/3d
      bin: standard
  (3) compute coord/atom, occasional
      attributes: full, newton on
      pair build: full/bin/atomonly
      stencil: full/bin/3d
      bin: standard
  (4) compute cluster/atom, occasional
      attributes: full, newton on
      pair build: full/bin/atomonly
      stencil: full/bin/3d
      bin: standard
Per MPI rank memory allocation (min/avg/max) = 9.849 | 9.851 | 9.854 Mbytes
Step Temp PotEng c_msd[4] v_twopoint v_fit v_max_n 
   12000    1.2541819   -6.5763815 1.8171411e-30 1.2619035e-32 8.3333333e+20            2 
   13000    1.2510022   -6.5976793   0.50042128 0.0032078286  0.041483749            3 
   14000    1.2594912   -6.5477904     1.012274 0.0060254405  0.040799216            3 
   15000    1.2306239   -6.5374757    1.4652151 0.0081400835  0.041011589            2 
   16000    1.2437384   -6.5442824     1.926791  0.010035369  0.040265889            4 
   17000    1.2680034   -6.5793972    2.3862846  0.011697473  0.039594914            2 
   18000    1.2367964   -6.6039406    2.9146259  0.013493638  0.039702006            3 
   19000    1.2356558   -6.5697654    3.4485921  0.015125403  0.040184269            1 
   20000    1.2288525   -6.5957664    3.8189691  0.015912371  0.040061391            1 
   21000    1.2169084   -6.5918765    4.2727968  0.016955543  0.039685404            2 
   22000    1.2060765   -6.6045094    4.7576723  0.018021486  0.039481853            3 
   23000    1.2703948   -6.5846979    5.2034761  0.018853174   0.03930581            3 
   24000    1.2643251   -6.6263726    5.5986955  0.019439915  0.039009761            2 
   25000    1.2244182   -6.6270369    5.9923304  0.019974434  0.038625791            3 
   26000    1.2270892   -6.6073936    6.4055263  0.020530533  0.038238276            2 
   27000    1.2299999   -6.5821867    6.9212822  0.021361982   0.03794559            1 
   28000    1.2013357   -6.5915722    7.3848512  0.021978723  0.037893792            3 
   29000    1.2233174   -6.6498288    7.8507498  0.022559625  0.037888116            3 
   30000    1.1993649   -6.5800026    8.3110312  0.023086197   0.03789375            2 
   31000    1.2353212   -6.6633705    8.7235807  0.023450485  0.037853142            2 
   32000     1.232988   -6.5895597    9.2641497  0.024125389  0.037899585            1 
   33000    1.1923627     -6.62777    9.7209941  0.024547965  0.037936726            3 
   34000    1.2094714   -6.6507399    10.051619   0.02463632  0.037891125            2 
   35000     1.205252   -6.6220199     10.41178  0.024789952  0.037766917            3 
   36000    1.2195994   -6.6177782    10.818788  0.025043492  0.037607463            1 
   37000    1.2260301   -6.6165084    11.174248  0.025167225   0.03743522            3 
   38000    1.1854864   -6.6057884    11.667795   0.02558727  0.037275485            2 
   39000    1.2077964   -6.6384305    12.123597  0.025905121   0.03720607            2 
   40000    1.2240424   -6.6697214     12.50261  0.026047105  0.037097328            1 
   41000    1.2005748   -6.7205296    12.909253  0.026238318  0.036973267            2 
   42000    1.1979806   -6.6456601    13.454897  0.026696224   0.03689958            3 
   43000    1.2027485   -6.6780692    13.832568  0.026807303   0.03687005            2 
   44000    1.2005613   -6.6933265    14.103798  0.026711738  0.036786572            2 
   45000    1.1857352   -6.6785204    14.626252  0.027085652  0.036668307            1 
   46000    1.2024466   -6.6635861    14.992111  0.027159621  0.036582134            2 
   47000    1.1857292   -6.7061932    15.403932  0.027311936  0.036498885            4 
   48000    1.2075106   -6.7008717    15.741446  0.027328899  0.036395395            2 
   49000    1.2032821    -6.724129    16.143951  0.027455698  0.036281849            2 
   50000    1.1692651   -6.6875461    16.577381  0.027628968  0.036188971            2 
   51000    1.2040766   -6.6990032    16.978377  0.027742447  0.036093359            8 
   52000     1.177152   -6.6785144    17.477922   0.02800949  0.036014968            2 
   53000    1.1585394   -6.6970162    17.830772  0.028035805   0.03597042            3 
   54000    1.1757761   -6.6973558    18.252732  0.028167795  0.035909905            2 
   55000     1.178978   -6.7193744    18.521379  0.028062696  0.035808104            3 
   56000    1.1872852   -6.7331298    18.823471  0.028011117  0.035694868            3 
   57000    1.1646178   -6.7051875    19.184091  0.028046916  0.035573245            3 
   58000    1.1653584    -6.766276    19.468856  0.027972494  0.035445783            5 
   59000    1.1987956   -6.7688478    19.855236  0.028044118  0.035318852            2 
   60000    1.1758297   -6.7425123    20.178273  0.028025379  0.035193936            3 
   61000    1.1473988   -6.7626037    20.536092   0.02805477  0.035076548            7 
   62000     1.153871   -6.7505441    20.934245  0.028137425  0.034958708            4 
   63000    1.1446013   -6.7668456    21.285312  0.028155175  0.034848919            7 
   64000    1.1709896   -6.7664782    21.671572  0.028218192  0.034736507            4 
   65000    1.1704267   -6.7721718    22.125849  0.028366473    0.0346444            2 
   66000    1.1584294   -6.7652041    22.595896  0.028530171  0.034569204            2 
   67000    1.1778994   -6.7748503    23.017599  0.028628854  0.034500325            2 
   68000    1.1482892   -6.7673276    23.420359   0.02870142  0.034430522            3 
   69000    1.1822255   -6.8022633    23.864794  0.028822214  0.034377158            3 
   70000    1.1615388   -6.7718542    24.317701  0.028949644  0.034328586            6 
   71000    1.1880193   -6.8111866    24.638344  0.028918244  0.034287457            3 
   72000     1.163611   -6.7949173    25.027482  0.028966992  0.034242004            3 
   73000    1.1439549   -6.7301337    25.204447    0.0287722  0.034178339            5 
   74000    1.1661534   -6.8041305    25.526929  0.028746542  0.034104551            3 
   75000     1.133383   -6.8266386    25.873611  0.028748456  0.034025359            2 
   76000     1.160719   -6.8385845    26.259367  0.028793165   0.03395244            2 
   77000     1.134445   -6.7771549    26.681092   0.02887564  0.033882698            3 
   78000    1.1298032   -6.8500909     27.16219  0.029019433  0.033821994            3 
   79000    1.1183946   -6.8025748    27.460755  0.028967041    0.0337684            5 
   80000    1.1508153   -6.8566877    27.866897  0.029028017  0.033710361            3 
   81000    1.1100719    -6.835603    28.198327  0.029010625  0.033649897            1 
   82000    1.1079924   -6.8898951    28.363491  0.028824686  0.033581139            3 
   83000    1.1567177   -6.8284585    28.649647  0.028764706  0.033503741            3 
   84000     1.156547   -6.8447016    28.765975  0.028537674  0.033418194            2 
   85000    1.1146417   -6.8684786    29.040492   0.02847107  0.033320793            5 
   86000    1.1445383   -6.8351332    29.400136  0.028488504  0.033228088            3 
   87000    1.1607872   -6.8617269    29.653085  0.028403338  0.033133294            3 
   88000    1.1163918   -6.8854406    30.048497  0.028455016  0.033038724            3 
   89000    1.1420448   -6.8420568    30.439467  0.028501373  0.032942845            1 
   90000    1.1151582   -6.8696987    30.685638  0.028412627  0.032851389            3 
   91000    1.1213076   -6.9031653    30.781864   0.02818852  0.032742597            2 
   92000    1.1195018   -6.9432343    30.846939  0.027941067   0.03262412            3 
   93000    1.1397932   -6.9125546    31.066952  0.027837771  0.032493618            4 
   94000    1.1033429   -6.9099376    31.363365  0.027804402  0.032363938            2 
   95000    1.1108848   -6.8621333     31.61249  0.027730254  0.032237398            3 
   96000    1.1215222   -6.8509017    31.965323  0.027747676  0.032111592            2 
   97000     1.104669   -6.8993586     32.29681    0.0277464  0.031987308            2 
   98000    1.1072764   -6.9164979    32.432324  0.027578507  0.031861894            4 
   99000    1.1174942   -6.9146673    32.700012  0.027525262  0.031731955            2 
  100000    1.1204889   -6.9163471    32.913334  0.027427778  0.031604967            3 
  101000    1.1037974   -6.9033559    33.355153  0.027520753  0.031483735            8 
  102000    1.0968035   -6.9217764    33.587448  0.027440726  0.031362209            5 
  103000    1.0990561   -6.9104315    33.894206  0.027422497   0.03124818            3 
  104000    1.0921742   -6.9215755     34.14549  0.027360168  0.031136925            2 
  105000    1.1006145   -6.9269404    34.459315  0.027348663   0.03103185            3 
  106000    1.0659786   -6.9312116    34.678054  0.027262621  0.030924915           10 
  107000    1.1051954   -6.9510422    34.988028  0.027249243   0.03081541            2 
  108000    1.0832954   -6.9664143    35.250316  0.027199318  0.030707251            2 
  109000    1.0927825   -6.9602442    35.390401  0.027056881  0.030595245            2 
  110000    1.1126815   -6.9148136    35.713877  0.027055967  0.030486273            2 
  111000    1.1180591   -6.9283029    35.961164   0.02699787  0.030377387            5 
  112000    1.1154668   -6.9430008    36.227378  0.026954894  0.030270435            4 
  113000    1.0884732   -6.9967228    36.412073  0.026852561  0.030165567            3 
  114000    1.0952147   -6.9820681    36.626148    0.0267735  0.030061761            3 
  115000     1.100045   -7.0211217    36.753237   0.02663278  0.029955688            4 
  116000    1.0871333   -6.9721552    37.178731  0.026708858  0.029848434            3 
  117000    1.0600098   -7.0186399    37.263024  0.026540615  0.029743523            4 
  118000     1.095799   -7.0116439    37.543574  0.026513824  0.029634546            3 
  119000    1.0899407    -6.996844     37.87332  0.026521933  0.029526946            2 
  120000    1.0963359   -6.9411161    38.243412  0.026557925  0.029422509            3 
  121000    1.0758128    -6.978128    38.245778  0.026340067   0.02932189            4 
  122000     1.065285    -6.997484    38.653763  0.026402843  0.029220094            4 
  123000    1.0467869   -7.0158073    38.681671  0.026207094  0.029118165            6 
  124000    1.0558575     -7.02256    39.037131  0.026234631  0.029012861            2 
  125000    1.0841046   -7.0467283    39.215631  0.026143754  0.028907088            3 
  126000     1.065215   -6.9647724    39.515441  0.026134551  0.028805616            3 
  127000    1.0611344    -7.009583    39.896129  0.026178562  0.028708515            1 
  128000    1.0652909   -7.0652079    39.964262    0.0260184  0.028617945            5 
  129000    1.0864736   -7.0602192    40.345142  0.026062753  0.028527133            3 
  130000    1.0551623   -7.0600824    40.681557  0.026077921  0.028437382            3 
  131000    1.0672455   -7.0619639      40.8081  0.025959351  0.028349334            3 
  132000    1.0694838   -7.0546837    41.061718  0.025922802  0.028260916            8 
  133000    1.0642376   -7.0481221    41.350262  0.025908685  0.028174548            5 
  134000    1.0637025   -7.0726566    41.521161  0.025821618  0.028087537            6 
  135000    1.0356217   -7.0713826    41.685454  0.025731761  0.028000967            3 
  136000    1.0385437   -7.1091508    41.849197   0.02564289  0.027915701            2 
  137000    1.0482703   -7.0760089    42.016038  0.025557201  0.027827895            5 
  138000    1.0397116   -7.0733517    42.174834  0.025467895  0.027737904            3 
  139000    1.0255251   -7.1031056    42.237894  0.025322478  0.027644386            5 
  140000     1.067886   -7.0775086     42.50447   0.02530028    0.0275501            4 
  141000    1.0374626   -7.0369832    42.763674  0.025274039  0.027455861           11 
  142000      1.06668   -7.0933291    42.768812  0.025099068  0.027363344            6 
  143000    1.0338157   -7.0695106    43.171922  0.025158463   0.02727146            3 
  144000    1.0282964   -7.0901828    43.329065   0.02507469  0.027181049            5 
  145000    1.0185684   -7.1041491    43.633138  0.025076516  0.027092893            2 
  146000    1.0391404   -7.1151665    43.759837  0.024977076  0.027003753            3 
  147000    1.0378819   -7.1134128    43.996689  0.024941434  0.026914792            3 
  148000    1.0525684    -7.146374    43.982729   0.02476505  0.026823442            3 
  149000     1.010947   -7.1073041    44.325707  0.024790664  0.026733165            4 
  150000    1.0520082    -7.130204    44.570173  0.024761207  0.026645227            5 
  151000    1.0211696   -7.1539431    44.683123   0.02465956  0.026553582            6 
  152000     1.021806   -7.1092572    44.910755  0.024622125  0.026463959            4 
  153000    1.0396841   -7.1044296    45.054448  0.024539459  0.026378276            3 
  154000    1.0288093   -7.1845385    45.207177  0.024462758  0.026290202            3 
  155000    1.0034288   -7.1490383    45.403885  0.024410691  0.026204198            3 
  156000    1.0215771   -7.1223012     45.91134  0.024525288  0.026122155            2 
  157000     1.023233   -7.0955178    45.896077  0.024360975  0.026039807            4 
  158000    1.0103517   -7.1966556     45.82928  0.024171561  0.025955672            6 
  159000   0.99078435   -7.1676259    46.159125  0.024192413  0.025870692            4 
  160000    1.0143908   -7.1658864    46.322867  0.024126493  0.025789989            4 
  161000    1.0155609   -7.2125123    46.346751  0.023989001  0.025704746            6 
  162000    1.0204501   -7.1768307    46.752292  0.024049533  0.025620873            4 
  163000    1.0179301   -7.2008876    46.919231  0.023987337  0.025538049            4 
  164000     1.016491   -7.2005372    46.995722   0.02387994  0.025455582            6 
  165000    1.0138995   -7.1561946    47.334128  0.023906125  0.025372846            7 
  166000    1.0209821   -7.2620391    47.334101  0.023762099  0.025291483            5 
  167000    0.9938721   -7.1748399    47.905139   0.02390476  0.025213677            3 
  168000   0.99322264   -7.1992351    47.952353  0.023785889  0.025138249            4 
  169000    0.9973067   -7.2388191    48.101927  0.023718899  0.025061817            2 
  170000   0.98491978   -7.2279675    48.365258   0.02370846  0.024985661            2 
  171000     1.015173   -7.2282265    48.529876  0.023650037  0.024910622            5 
  172000   0.99781922    -7.264326    48.736992  0.023612884  0.024836586            5 
  173000    1.0155369   -7.2573168    48.781933  0.023498041  0.024762242            3 
  174000   0.99605101   -7.2211254      49.0352  0.023484291  0.024688269            6 
  175000   0.98456807   -7.2308343    49.239952  0.023447596  0.024615384            3 
  176000   0.97716439    -7.251412    49.104077  0.023250036  0.024539977            2 
  177000   0.98737828   -7.2499395    49.314721  0.023217853  0.024464026            3 
  178000    1.0000317   -7.2697665    49.413199   0.02313352  0.024388017            4 
  179000    0.9926034   -7.2703945    49.629344  0.023104909  0.024310691            5 
  180000   0.95663909   -7.2492477    49.906288  0.023104763  0.024233958            3 
  181000   0.97537649   -7.3030787    50.125294  0.023077944  0.024160428            4 
  182000   0.99747491   -7.2868282    50.188685  0.022980167  0.024087304            4 
  183000   0.97911232   -7.3481695    50.132944   0.02282921  0.024012439            4 
  184000   0.96682939   -7.2766592    50.545434  0.022891954  0.023937503            9 
  185000   0.97269056   -7.2976531    50.410507  0.022707436  0.023863488            9 
  186000   0.98383557   -7.3169337    50.553695  0.022649505  0.023788077            5 
  187000   0.96638418   -7.2741061    50.589452  0.022544319  0.023711485            3 
  188000    0.9728865   -7.2638373    50.836616  0.022533961  0.023635436            7 
  189000   0.96136967   -7.3346276     50.99615  0.022485075  0.023560537            2 
  190000   0.97944826   -7.3335927    51.144932  0.022431988  0.023486699            6 
  191000   0.96080069   -7.3548352    51.546643  0.022489809  0.023413686            2 
  192000   0.97427587   -7.3161533    51.530439  0.022365642  0.023342892            6 
  193000    0.9690872   -7.3441662    51.720303  0.022331737   0.02327138            6 
  194000   0.93212644   -7.3508223    51.775924  0.022240517  0.023199139           10 
  195000   0.95498129   -7.3543487    51.858047  0.022161558  0.023126535            8 
  196000   0.96285528   -7.3728604    52.166517  0.022179642  0.023055477           12 
  197000   0.95529173   -7.3608753     52.16694  0.022067233  0.022984967            6 
  198000    0.9548542   -7.3467174    52.350318  0.022032962  0.022913751            4 
  199000   0.96001287   -7.3271023    52.481972  0.021977375  0.022841706            3 
  200000   0.93195501   -7.3372152    52.483781  0.021868242  0.022771065            5 
  201000   0.96740399   -7.3377209    52.944621  0.021950506  0.022701037            8 
  202000   0.94684376   -7.3590036    52.885785  0.021817568  0.022632007            4 
  203000   0.92764508   -7.3509468    52.825614  0.021685391  0.022560935            7 
  204000   0.93892036   -7.3884234    52.982743  0.021643278  0.022487646            4 
  205000   0.95920966   -7.4116219    53.083104  0.021578498  0.022416357            9 
  206000   0.94083669   -7.4368237    53.110736  0.021484925  0.022345275            4 
  207000   0.92824197   -7.4373337    53.290859  0.021453647  0.022274507            7 
  208000    0.9317526    -7.419878    53.312889   0.02135933  0.022202642           11 
  209000   0.92338157   -7.4464529     53.44612  0.021310255  0.022130758           24 
  210000   0.94039757   -7.4412877    53.489521     0.021226  0.022057894            5 
  211000   0.95905767   -7.4668678    53.571044    0.0211576  0.021985037            6 
  212000   0.93604806   -7.4379122    53.835617  0.021161799  0.021913863           16 
  213000   0.95030425   -7.4291751    53.778383  0.021040056  0.021842379            9 
  214000   0.93310838   -7.4387073    53.996967  0.021026856  0.021771502            8 
  215000   0.93303905   -7.4455848    54.198152  0.021007036  0.021701787           14 
  216000   0.91475587   -7.4460986    54.308324  0.020952286  0.021632912           10 
  217000   0.90463826   -7.4385263    54.386503  0.020885754  0.021564171           11 
  218000   0.94442523   -7.4302394    54.536854  0.020847421  0.021495493           12 
  219000   0.93309404   -7.4282254    54.587447  0.020771479  0.021426772            7 
  220000   0.91652424   -7.4511526    54.506679  0.020646469  0.021355964            3 
  221000   0.90985392   -7.4702661    54.526933  0.020560684  0.021284007            3 
  222000   0.90193934   -7.4706439    54.611054  0.020499645  0.021211514            3 
  223000   0.92619577   -7.4639753    54.724874  0.020450252  0.021140026            2 
  224000   0.89832923   -7.4741945    54.873529  0.020414259   0.02107041            8 
  225000   0.91228399   -7.5013655    54.684309  0.020253448   0.02100021            4 
  226000   0.94260221   -7.4923425    55.158202   0.02033857  0.020930235            8 
  227000   0.90094878   -7.4404373    55.162906    0.0202507  0.020860537            6 
  228000   0.90682919   -7.5080437    55.335081   0.02022481    0.0207911            4 
  229000   0.88720058   -7.5223519    55.309618  0.020127226  0.020722084            6 
  230000   0.90313328   -7.4774035    55.473028  0.020098923  0.020652872            6 
  231000   0.90789448   -7.5089079    55.326704  0.019959128  0.020583946           11 
  232000   0.90109849    -7.530931    55.526639  0.019944914  0.020514889            7 
  233000   0.88971488   -7.5219747    55.549247  0.019867399  0.020445818            4 
  234000   0.91072526   -7.4992741    55.790382   0.01986837  0.020376871            5 
  235000      0.89708   -7.4994227    55.842616  0.019802346  0.020309062            4 
  236000   0.88892005   -7.5452858    55.819094  0.019710132  0.020239907            7 
  237000   0.89130414   -7.4997391    56.003677  0.019691869  0.020171096            3 
  238000   0.86508945   -7.5465885    56.131957  0.019654047   0.02010349            7 
  239000   0.90201807   -7.5531255     56.14915  0.019577807  0.020036112            6 
  240000   0.90079658   -7.5343045    56.194023  0.019511813  0.019968466            6 
  241000   0.88196507   -7.5140691    56.437196  0.019514936  0.019901352            4 
  242000   0.86787301   -7.5593187    56.354955  0.019405976  0.019834062            6 
  243000   0.88449014   -7.5728211    56.504161  0.019377284  0.019767077            9 
  244000   0.88100716   -7.6137438    56.372187  0.019252796  0.019700482            8 
  245000   0.86903164   -7.6033485    56.433695  0.019195134  0.019633182            7 
  246000   0.89595981   -7.6100657    56.575936   0.01916529  0.019566068            9 
  247000   0.86732044   -7.6379679    56.432523  0.019039313  0.019498749            6 
  248000   0.87015168   -7.6123085    56.615334   0.01902397   0.01943158            4 
  249000   0.86068322   -7.5845477     56.72748    0.0189851  0.019365186            5 
  250000   0.87735823   -7.5871181    56.786287  0.018928762  0.019298737            6 
  251000   0.87213851   -7.6023199     56.74833  0.018840747  0.019232006           10 
  252000   0.86926957   -7.5971991    56.779719  0.018776362  0.019165653            7 
  253000   0.88859604   -7.6198273     56.97446  0.018766291  0.019099835            9 
  254000   0.86329822   -7.6268255    56.992958  0.018698477  0.019033765            8 
  255000   0.84721144   -7.6204971    57.145396  0.018674966  0.018968257            6 
  256000   0.86014536   -7.6511126    57.004102  0.018556023  0.018902487            7 
  257000   0.85659143     -7.63745    57.165436  0.018536134  0.018836165           11 
  258000   0.84652427   -7.6743175    57.135797  0.018454715  0.018770375           10 
  259000   0.84015735   -7.6769296    57.018599  0.018345753  0.018704039            6 
  260000   0.84951507   -7.6609343    57.205464  0.018335085  0.018637774            7 
  261000    0.8668961   -7.6436572    57.253203  0.018280077  0.018571332            6 
  262000   0.85165123   -7.6679002    57.247977  0.018208644  0.018505436            6 
  263000    0.8437638   -7.7180619    57.115901   0.01809756  0.018438667            7 
  264000   0.84494812   -7.7006838    57.194231  0.018053734  0.018371766           13 
  265000   0.84461831   -7.7476338    57.274323  0.018010793  0.018305133           15 
  266000   0.84246802   -7.7300347      57.3328  0.017961403  0.018238553           15 
  267000   0.84602399   -7.7474278    57.386185  0.017910794  0.018171721           18 
  268000   0.85303072    -7.711647    57.520551  0.017885743  0.018105668           14 
  269000   0.84128869   -7.7197596    57.228143  0.017728669  0.018039808           12 
  270000   0.83433757   -7.7059693    57.602351  0.017778503  0.017974032            7 
  271000   0.82940863   -7.7104338    57.510809   0.01768475  0.017909076            6 
  272000   0.82441796   -7.7199003    57.387914  0.017582082   0.01784372            8 
  273000   0.83179555   -7.7186631    57.596067  0.017581217  0.017778681            4 
  274000   0.81855756   -7.7462827    57.453376  0.017473654   0.01771367           10 
  275000   0.81573558   -7.7598904    57.522429  0.017431039  0.017648805           14 
  276000   0.82821406   -7.7770264    57.529677  0.017370072  0.017583921           14 
  277000   0.81704534   -7.7829278    57.718495  0.017364168  0.017520244            8 
  278000   0.85416349    -7.738268    57.869703  0.017347033  0.017456519           14 
  279000   0.82390264   -7.7552254    57.740402  0.017246237  0.017393215           14 
  280000   0.82926404   -7.7921002    57.760742  0.017190697    0.0173298           13 
  281000   0.80435938   -7.8416093    57.666613  0.017101605  0.017266507           21 
  282000   0.81953396    -7.802303    57.917775  0.017115182  0.017203602           19 
  283000   0.83903798   -7.8158944    57.819549   0.01702578  0.017140372           13 
  284000   0.80584551   -7.8271741    57.948263  0.017003598  0.017077693           18 
  285000   0.82929465   -7.8232168    57.874004  0.016922223  0.017014694           17 
  286000   0.80330291    -7.826672    57.918486  0.016876016  0.016951983           36 
  287000   0.82863613   -7.8100342    57.952359   0.01682705  0.016888773           20 
  288000   0.81968803   -7.8443042    57.855766  0.016740673  0.016825776           11 
  289000   0.81274087   -7.8323529    57.838378  0.016677733  0.016762698           11 
  290000   0.81050492   -7.8190643    57.922606  0.016644427  0.016699806           20 
  291000   0.80729193   -7.8609216    57.781466  0.016546812  0.016636928           38 
  292000    0.8217018   -7.8508247    57.900812  0.016524204  0.016574529           44 
  293000    0.7937508   -7.8398265    57.974636  0.016488804  0.016512605           37 
  294000   0.79722637   -7.8588708    58.032918   0.01644924  0.016450994           18 
  295000   0.79410254   -7.8614494    58.023474  0.016390812   0.01638965           38 
  296000   0.78869644   -7.8832774    58.071895   0.01634907  0.016328156           37 
  297000   0.79937708   -7.8916749    57.919291  0.016251204  0.016266481           41 
  298000   0.79138676   -7.9002167    57.911586  0.016194515  0.016204687           29 
  299000   0.80104453   -7.9121166    57.943907  0.016149361  0.016142916           53 
  300000   0.80121027   -7.8814547     58.03532  0.016120922  0.016081643           24 
  301000    0.7941861   -7.9529948    57.998314  0.016057119  0.016020521           22 
  302000   0.80289349   -7.9110802    58.102904   0.01603281  0.015959491           37 
  303000   0.75605258   -7.9231042    58.122003  0.015985149  0.015898559           46 
  304000   0.78953619   -7.9476641    57.923352  0.015878112  0.015837603           27 
  305000   0.78962962   -7.9407236    57.990246  0.015844329  0.015776688           38 
  306000   0.77812429   -7.9515389    58.078141  0.015816487  0.015715739           21 
  307000   0.77331366   -7.9125644    58.038276  0.015754146   0.01565496           69 
  308000   0.76901564   -7.9629219    57.890944  0.015663134   0.01559444           33 
  309000   0.77279998   -7.9625648    58.046841  0.015654488  0.015534173           54 
  310000   0.78822243   -7.9452717    58.109738  0.015620897  0.015474214           30 
  311000   0.76876076   -7.9561037    58.027081  0.015548521  0.015414647           32 
  312000   0.75811658   -7.9830414    57.972642  0.015484146   0.01535505           32 
  313000   0.77390835   -7.9677013    58.007588   0.01544398  0.015295518           55 
  314000    0.7636232   -7.9862841    58.022778  0.015398826  0.015236124           65 
  315000    0.7693805   -7.9860916    57.832108    0.0152995  0.015176826           44 
  316000    0.7605047   -7.9782218    58.010612  0.015298157  0.015117714           65 
  317000   0.74248456   -8.0049751    58.015856  0.015251276  0.015058925           31 
  318000   0.75639844   -7.9991393    57.957089  0.015187916   0.01500039           45 
  319000   0.77920355   -7.9788588    58.031289  0.015159689  0.014942032           30 
  320000   0.76577668   -7.9862617    58.133467  0.015138924   0.01488414           53 
  321000   0.75924127   -8.0273972     57.99729   0.01505641  0.014826437           60 
  322000   0.75720676   -8.0138079    57.972112  0.015003135  0.014768887           64 
  323000   0.75308444   -8.0031445     58.06733  0.014981251  0.014711117           60 
  324000   0.74946848   -8.0172717    58.020221  0.014922896   0.01465355          128 
  325000   0.76575075   -8.0502762    57.934479  0.014854995  0.014596193           67 
  326000   0.74999691   -8.0316876    58.089753  0.014849119  0.014539225           83 
  327000   0.74271586   -8.0365513    57.998162  0.014780368  0.014482553           59 
  328000   0.75026983   -8.0266744    57.972616  0.014728815  0.014426131           89 
  329000   0.75663761   -8.0336852    58.133109  0.014724698  0.014370101           91 
  330000   0.74546905   -8.0430018    57.884627   0.01461733  0.014313657          113 
  331000   0.75766523   -8.0450357    58.082946  0.014623098  0.014257836           81 
  332000   0.73208632   -8.0593259    58.067018  0.014575055   0.01420225           85 
  333000   0.73935247   -8.0760843    58.031829   0.01452248  0.014146525           94 
  334000   0.74757432    -8.091122    57.993201  0.014469362  0.014091295          123 
  335000   0.75051511   -8.0791023    57.993988  0.014426365  0.014036026          130 
  336000   0.73033272   -8.0726652    57.940853  0.014370251  0.013981012           97 
  337000    0.7159743   -8.0828479     58.02208  0.014347695  0.013926327           97 
  338000   0.71771547   -8.1152414    57.909728  0.014277546  0.013871582           98 
  339000   0.71323201   -8.1065458    57.958666   0.01424746  0.013816995          124 
  340000   0.71831792   -8.0938577    57.914664  0.014194771  0.013762841          100 
  341000   0.71220885   -8.1106218     57.95379  0.014162705  0.013708977          123 
  342000    0.7140602   -8.0997564     58.09691  0.014156167  0.013655414          133 
  343000   0.71304504   -8.0990339    58.014343  0.014094836  0.013602006          106 
  344000   0.71157961   -8.0959248    57.900581  0.014026304  0.013548875          149 
  345000   0.70318063    -8.092042    58.017048   0.01401378  0.013495734          114 
  346000    0.7329992   -8.1237172    57.885319  0.013941551  0.013442818          117 
  347000    0.7134686   -8.1298901    57.881616  0.013900484   0.01338994          123 
  348000    0.7149332   -8.1355501    57.829373   0.01384803  0.013337104          137 
  349000    0.7138833   -8.1165344    57.894206  0.013823831  0.013284554           89 
  350000   0.71085422   -8.1465131    57.898253  0.013785298  0.013232186          133 
  351000   0.70013502   -8.1566822    57.811135  0.013725341  0.013180057          124 
  352000   0.69545381   -8.1461285    57.917738  0.013711586  0.013128207          107 
  353000   0.70913505   -8.1596021    57.944942  0.013679165   0.01307665          166 
  354000   0.70181746   -8.1379606    57.913227  0.013633057  0.013025296          104 
  355000   0.69979818   -8.1455114    57.873366  0.013585297  0.012974007          147 
  356000   0.70106374   -8.1483955    57.735922  0.013514963  0.012922834          140 
  357000   0.69518451   -8.1749604    57.940512  0.013524863  0.012872066          170 
  358000   0.70512971   -8.1877797    57.883714  0.013473863  0.012821597          419 
  359000   0.68661194   -8.1710855    57.981665  0.013459068  0.012771525          203 
  360000   0.69889293   -8.1844526    57.911215  0.013405374   0.01272179          150 
  361000   0.69463072   -8.1798748    57.988893  0.013386171   0.01267218          167 
  362000   0.69803327   -8.1767279    57.868006  0.013321364  0.012622488          163 
  363000   0.68429107   -8.1888059    57.949566   0.01330339   0.01257295          142 
  364000   0.68705077   -8.1710583    57.892847  0.013253857  0.012523821          181 
  365000   0.68579803   -8.1755534    57.945049  0.013229463  0.012475167          119 
  366000   0.67340315   -8.1885721    57.979279  0.013201111  0.012426631          359 
  367000   0.68726012   -8.1823746    57.778259  0.013119496  0.012378158          131 
  368000    0.6792379   -8.2208322    57.863047  0.013103045  0.012329825          158 
  369000   0.68081207   -8.1832624    57.829034  0.013059854  0.012281754          198 
  370000   0.68158617    -8.199617    57.886792  0.013037566  0.012233994          166 
  371000   0.65634006   -8.1818929    57.866719  0.012997915  0.012186597          150 
  372000   0.66837226   -8.1880667    57.942331  0.012979913  0.012139375          446 
  373000   0.68110048   -8.2231389    57.827214  0.012919395   0.01209234          166 
  374000   0.67758387   -8.2225591    57.792215  0.012877053  0.012045568          395 
  375000   0.65065087   -8.2470047    57.751531  0.012833673  0.011998691          214 
  376000   0.67024685   -8.2563018     57.73877  0.012796713  0.011951915          346 
  377000   0.66406672   -8.2144422    57.854477  0.012788346  0.011905469          184 
  378000   0.65747019   -8.2212309    57.687971  0.012717807  0.011859265          166 
  379000   0.66054663   -8.2473444    57.699026  0.012686681  0.011813324          427 
  380000   0.68060223   -8.2337845    57.745115  0.012663402  0.011767551          368 
  381000   0.66623565   -8.2566777     57.67615  0.012615081  0.011721603          160 
  382000   0.65618521   -8.2730824    57.718555  0.012591308  0.011676047          193 
  383000   0.65302668   -8.2512292    57.722215  0.012559229  0.011630476          470 
  384000   0.65499767   -8.2781214    57.637147  0.012508061  0.011585313          366 
  385000   0.65813443    -8.281611    57.566633   0.01246031  0.011540166          157 
  386000   0.65744463   -8.3025931    57.570184  0.012428796  0.011495258          189 
  387000   0.64776215   -8.2851003    57.521065  0.012386104  0.011450419          275 
  388000    0.6476191    -8.271565    57.607543  0.012372754  0.011405829          243 
  389000   0.65191628   -8.2644541      57.5846  0.012336033  0.011361315          160 
  390000   0.66435314   -8.2900065    57.492241  0.012284667   0.01131712          187 
  391000   0.63801901   -8.2920922    57.539468  0.012263314   0.01127301          180 
  392000   0.63650737   -8.3067506    57.464494  0.012216091  0.011229255          285 
  393000   0.64567347   -8.3103012    57.531392  0.012199193  0.011185603          161 
  394000   0.63100622   -8.2892372    57.640804  0.012191371   0.01114218          229 
  395000   0.63020289   -8.3094658    57.495068  0.012129761   0.01109888          219 
  396000   0.65070877   -8.3091965    57.475001  0.012094908   0.01105581          248 
  397000   0.63284956   -8.3225714    57.503224  0.012070366  0.011012911          170 
  398000   0.64142524   -8.3247526    57.504991  0.012040409  0.010970183          253 
  399000   0.63065841   -8.3114836    57.448123  0.011998355  0.010927641          200 
  400000   0.62375767   -8.3263254    57.576147  0.011995031  0.010885393          472 
  401000   0.63208955   -8.3415091    57.497899  0.011948857  0.010843461          473 
  402000    0.6197401   -8.3444248    57.523898  0.011924523  0.010801524          334 
  403000   0.61318728   -8.3368361    57.500485  0.011890092  0.010759754          310 
  404000    0.6407389   -8.3472149    57.417065  0.011843454  0.010718193          372 
  405000   0.62972335   -8.3310348    57.558017  0.011843213  0.010676722          216 
  406000   0.61055777   -8.3606695     57.31087  0.011763315  0.010635388          186 
  407000   0.61851285   -8.3458249    57.485571  0.011770182  0.010594315          219 
  408000   0.61216846   -8.3512401    57.450931  0.011734259  0.010553444          293 
  409000    0.6213856   -8.3344485    57.384163  0.011691965  0.010512834          182 
  410000    0.6110035   -8.3627143    57.524538  0.011691979  0.010472398          221 
  411000   0.62134846   -8.3472982    57.444819  0.011647368  0.010432158          253 
  412000   0.60770633    -8.345593    57.362313   0.01160241  0.010392075          282 
  413000    0.5943869   -8.3386245    57.401872  0.011582299  0.010352207          347 
  414000   0.63077414   -8.3922471    57.373471  0.011548605   0.01031246          170 
  415000   0.61325825    -8.369091    57.411284   0.01152837  0.010272959          243 
  416000     0.593752   -8.3938213    57.263424  0.011471038  0.010233572          522 
  417000   0.60419237   -8.3827621    57.352546   0.01146134  0.010194403          220 
  418000   0.62058466   -8.3667972    57.421768  0.011447721  0.010155457          267 
  419000    0.5936857   -8.3888892     57.35321  0.011406764  0.010116729          252 
  420000   0.59502929   -8.3955375    57.298244  0.011368699  0.010078039          317 
  421000   0.59274241   -8.4068114    57.377698  0.011357422  0.010039616          297 
  422000   0.58883549   -8.4074773    57.255188  0.011306317  0.010001512          461 
  423000   0.58998999   -8.4058482    57.239182  0.011276435 0.0099634765          445 
  424000   0.58918055   -8.3983759    57.338233  0.011269307 0.0099256264          252 
  425000   0.59181134   -8.4109221     57.22161  0.011219923 0.0098879422          557 
  426000   0.58274925   -8.4187384    57.329958  0.011214781 0.0098505193          465 
  427000   0.59038078    -8.410537    57.245577  0.011172049  0.009813168          227 
  428000   0.58764553      -8.4127    57.243104  0.011145464 0.0097760038          297 
  429000   0.58686467   -8.4078198    57.328239  0.011136021  0.009739007          226 
  430000   0.58727777   -8.4063717    57.258793  0.011096665 0.0097021868          258 
  431000   0.59522752    -8.425246    57.288803  0.011076721 0.0096655255          332 
  432000   0.57381799   -8.4227409    57.244584  0.011042551 0.0096289327          232 
  433000   0.57915159   -8.4276223    57.273477  0.011022609  0.009592548          248 
  434000   0.57235094   -8.4477328    57.263099  0.010995219 0.0095564231          353 
  435000   0.56736814   -8.4460984    57.174673  0.010953002 0.0095204558          446 
  436000   0.57619112   -8.4304061    57.177051  0.010928335 0.0094845933          482 
  437000   0.58056254    -8.452676    57.124775  0.010893359 0.0094488312          301 
  438000   0.56447686   -8.4389444    57.157344  0.010874685 0.0094133308          478 
  439000   0.55905413   -8.4576971    57.174444  0.010853159 0.0093778845          422 
  440000   0.56448904   -8.4587707    57.145954  0.010823097 0.0093426219          390 
  441000   0.57217398   -8.4576343    57.156928  0.010800629 0.0093076098          316 
  442000   0.56338593   -8.4395198    57.158047  0.010776404 0.0092727479          318 
  443000   0.56382902    -8.468332    57.162816  0.010752975 0.0092380787          526 
  444000   0.55786443   -8.4644278     57.21338  0.010738247 0.0092035713          298 
  445000   0.55104237   -8.4500739    57.111381  0.010695015 0.0091692293          296 
  446000   0.55224309   -8.4652225    57.132387   0.01067496  0.009135061          313 
  447000   0.55732061   -8.4790115    57.117351  0.010648276  0.009101056          347 
  448000   0.55613176   -8.4590855    57.217008  0.010643045 0.0090672193          267 
  449000   0.54874332   -8.4716733    57.150817  0.010607056 0.0090335148          253 
  450000    0.5532285    -8.481832    57.183443  0.010589526 0.0089999761          220 
  451000   0.54334768    -8.476387    57.094073  0.010549533 0.0089666073          342 
  452000   0.55493114   -8.4970758    57.103873     0.010528 0.0089333674          368 
  453000    0.5396716   -8.4964162    57.037084  0.010492473 0.0089002369          224 
  454000   0.56770185   -8.4901992    57.006178  0.010463689 0.0088673232          425 
  455000   0.55003145   -8.4980272    57.105168  0.010458822 0.0088345657          245 
  456000   0.54219787   -8.5021003    57.085943  0.010432373 0.0088019239          259 
  457000   0.54879484   -8.5025932    57.043195   0.01040175 0.0087694711          281 
  458000   0.55308162   -8.5127564    57.025074  0.010375741 0.0087371804          379 
  459000   0.53309164   -8.5030393    57.052077  0.010358039 0.0087049901          516 
  460000   0.52862077   -8.5165966    56.988449  0.010323994 0.0086729904          472 
  461000   0.53455926   -8.5103754    56.998099  0.010303344 0.0086411076          404 
  462000   0.53468223   -8.5214628    56.923025  0.010267501 0.0086093726          471 
  463000   0.54045063   -8.5186026    56.978723   0.01025535 0.0085777988          278 
  464000   0.52810259   -8.5331889    56.901656  0.010219407 0.0085463819          333 
  465000   0.51644241   -8.5433146    56.878404  0.010193262 0.0085150523          262 
  466000   0.51495962   -8.5324735    56.944843  0.010183269 0.0084838571          504 
  467000    0.5277636     -8.52798    56.925582  0.010158027 0.0084528039          321 
  468000   0.51930377   -8.5154313     57.03752  0.010156254 0.0084219802          318 
  469000   0.51337851    -8.537861    56.946628  0.010118448 0.0083912636          295 
  470000   0.51537086    -8.541569     56.97289  0.010101576 0.0083607069          196 
  471000   0.51307825   -8.5553787    56.893971  0.010066166 0.0083302339          433 
  472000    0.5042735   -8.5563569    56.912851  0.010048173 0.0082998391          514 
  473000   0.51195084   -8.5589052    56.906259  0.010025768 0.0082696661          595 
  474000   0.51784442      -8.5472    56.835717 0.0099922147 0.0082396135          324 
  475000   0.50865608    -8.547073    56.907517  0.009983775 0.0082097105          662 
  476000   0.49799227   -8.5527724     56.77117 0.0099389304  0.008179977          534 
  477000   0.51244078   -8.5577743    56.846935 0.0099313303 0.0081503549          320 
  478000   0.50696888   -8.5658351    56.930889 0.0099251898 0.0081208827          448 
  479000   0.50156659   -8.5569274    56.916971 0.0099020478 0.0080915413          322 
  480000   0.49507536   -8.5698938     56.90174 0.0098787744 0.0080623651          300 
  481000    0.5052276   -8.5643858    56.936798 0.0098643101  0.008033351          424 
  482000   0.49719086   -8.5533861     56.84932 0.0098287205 0.0080044757          369 
  483000   0.49432878   -8.5808466    56.806909  0.009801054 0.0079757186          262 
  484000   0.49448206    -8.575148    56.800597 0.0097797172 0.0079470232          482 
  485000    0.4973407   -8.5854236    56.776941 0.0097554881 0.0079185312          379 
  486000    0.4990764   -8.5725381    56.829006 0.0097443425 0.0078901279          344 
  487000   0.48648059   -8.5721763    56.819294 0.0097226718 0.0078618506          337 
  488000    0.4864307   -8.5921159    56.906303 0.0097176064 0.0078337481          264 
  489000   0.48763075   -8.5819155    56.748548   0.00967085 0.0078057827          570 
  490000   0.49106211   -8.5904752     56.80174 0.0096601599 0.0077778893          290 
  491000   0.48206195   -8.5995126    56.741595 0.0096302775 0.0077501499          363 
  492000   0.47789715     -8.60003    56.793453 0.0096194873 0.0077225076          270 
  493000   0.46971735   -8.6025458    56.823088 0.0096049844 0.0076949558          602 
  494000   0.47663014   -8.5961139    56.769615 0.0095765208 0.0076676569          343 
  495000   0.47317024   -8.6095627    56.772143 0.0095575997 0.0076403857          409 
  496000    0.4741334    -8.600089     56.82776 0.0095476747 0.0076132978          271 
  497000   0.46691317   -8.6052507    56.766028 0.0095181134 0.0075863296          296 
  498000   0.46872279    -8.609705    56.788383 0.0095027415 0.0075594393          337 
  499000   0.46847577   -8.6006761    56.687462 0.0094668439 0.0075327043          386 
  500000   0.47353976   -8.6153551    56.704343 0.0094507238 0.0075060925          360 
  501000    0.4588248   -8.6121461    56.692961 0.0094299668 0.0074795759          659 
  502000   0.46143229   -8.6177515    56.643573 0.0094029835 0.0074531804          338 
  503000    0.4599791   -8.6159699    56.667453  0.009388246  0.007426947          634 
  504000   0.45666376   -8.6139604    56.625984 0.0093627619 0.0074008388          274 
  505000   0.45821981   -8.6350328    56.634839  0.009345683  0.007374815          322 
  506000   0.45967972   -8.6458167    56.658837 0.0093311656 0.0073489535          326 
  507000   0.45764467   -8.6302404    56.732428 0.0093248566 0.0073232013          411 
  508000    0.4615909   -8.6329262    56.637141 0.0092908696 0.0072975625          654 
  509000   0.46319826   -8.6294897    56.639726 0.0092730396 0.0072720311          628 
  510000   0.44050944   -8.6307343    56.708834 0.0092661493 0.0072466223          601 
  511000   0.44766118   -8.6353661    56.745151 0.0092539385 0.0072213048          249 
  512000   0.44757497   -8.6551482    56.623194 0.0092160146 0.0071961085          399 
Loop time of 1309.24 on 48 procs for 500000 steps with 4000 atoms

Performance: 65992.608 tau/day, 381.902 timesteps/s
99.4% CPU use with 48 MPI tasks x no OpenMP threads

MPI task timing breakdown:
Section |  min time  |  avg time  |  max time  |%varavg| %total
---------------------------------------------------------------
Pair    | 94.15      | 100.05     | 107.83     |  31.2 |  7.64
Neigh   | 9.1952     | 9.4917     | 9.8703     |   5.3 |  0.72
Comm    | 84.709     | 92.479     | 98.58      |  32.8 |  7.06
Output  | 1.087      | 1.0878     | 1.1097     |   0.3 |  0.08
Modify  | 1089.2     | 1093.7     | 1097.3     |   5.9 | 83.54
Other   |            | 12.41      |            |       |  0.95

Nlocal:        83.3333 ave          90 max          78 min
Histogram: 4 4 9 2 9 7 4 6 1 2
Nghost:        2416.19 ave        2436 max        2395 min
Histogram: 1 3 4 5 7 14 5 4 3 2
Neighs:        16721.1 ave       19073 max       14403 min
Histogram: 3 3 7 3 8 6 8 5 1 4
FullNghs:      33441.9 ave       36260 max       31114 min
Histogram: 2 5 9 5 8 5 5 6 1 2

Total # of neighbors = 1605212
Ave neighs/atom = 401.30300
Neighbor list builds = 26644
Dangerous builds = 0

#clear
#
#next RN
#
#jump SELF
Total wall time: 0:21:52
