
units lj                  # Use reduced LJ style units
atom_style atomic         # Uncharged point particles
atom_modify map hash      # Needed for indexing of clusters etc
                          # Used to be able to find where atoms are in relation to each other.

lattice fcc 1.0 spacing 1 1 1
Lattice spacing in x,y,z = 1.5874011 1.5874011 1.5874011
region box block 0 10 0 10 0 10 units lattice
create_box 2 box
Created orthogonal box = (0.0000000 0.0000000 0.0000000) to (15.874011 15.874011 15.874011)
  3 by 4 by 4 MPI processor grid
create_atoms 1 box
Created 4000 atoms
  using lattice units in orthogonal box = (0.0000000 0.0000000 0.0000000) to (15.874011 15.874011 15.874011)
  create_atoms CPU = 0.011 seconds
set type 1 type/fraction 2 0.84 78393
Setting atom values ...
  3354 settings made for type/fraction
mass 1 1.0
mass 2 1.0
pair_style lj/cut  3.5
pair_modify tail  yes
pair_coeff 1  1  1.0  1.0   # Intearaction between 1 and 1 set with epsilon = 1 and sigma = 1
pair_coeff 1  2  1.5  0.8
pair_coeff 2  2  0.5  0.88

write_data data.0
System init for write_data ...
Neighbor list info ...
  update every 1 steps, delay 10 steps, check yes
  max neighbors/atom: 2000, page size: 100000
  master list distance cutoff = 3.8
  ghost atom cutoff = 3.8
  binsize = 1.9, bins = 9 9 9
  1 neighbor lists, perpetual/occasional/extra = 1 0 0
  (1) pair lj/cut, perpetual
      attributes: half, newton on
      pair build: half/bin/atomonly/newton
      stencil: half/bin/3d
      bin: standard
WARNING: Not all mixed pair coeffs generated from mixing. Use write_data with 'pair ij' option to store all pair coeffs. (../write_data.cpp:312)


#############################
#   M E L T   S Y S T E M   #
#############################

velocity all create 2.4 9622624 mom yes dist gaussian # Assign velocities
                                                    # Temperature 2.4, random number seed, zero linear momentum
                                                                                # Gaussian distribution

timestep 0.002   # simulation timestep
thermo 1000       # output thermodynamic data every 1000 steps bf 100

# Define a fix  in this case with index 1 applied to all
# particles in the simulation. This fix is for simulations
# in the anisotropic NPT ensemble. Note that we use the MTK
# correction.
fix 1 all npt temp 2.4 2.4 0.1 iso 5.68 5.68 0.5 mtk yes tchain 5 pchain 5 # Use NPT ensemble
                                                                         # Set temperature and pressure and damping
                                                                         # Numbers of thermostats in chain and in barostat
run 10000          # run for 10000 steps
Per MPI rank memory allocation (min/avg/max) = 3.642 | 3.644 | 3.648 Mbytes
Step Temp E_pair E_mol TotEng Press Volume 
       0          2.4   -3.4880302            0   0.11106983   -3.0192302         4000 
    1000    2.4211027    -2.676825            0   0.95392106    5.5437444    3918.0215 
    2000    2.4669625   -2.7441916            0   0.95532695    5.6585242    3863.1844 
    3000      2.41167    -2.666668            0   0.94993263     5.853105    3897.3957 
    4000    2.4006729   -2.7006425            0   0.89946659     5.814521    3865.8538 
    5000    2.4066972   -2.7369717            0   0.87217157    5.6989529    3857.1567 
    6000    2.3940236   -2.7117666            0   0.87837107    5.6586703    3882.2782 
    7000    2.3992072   -2.6802914            0   0.91761962    5.8358578    3874.3826 
    8000    2.3833032   -2.7430662            0   0.83099492    5.5444256    3873.7618 
    9000    2.3740884   -2.7247241            0   0.83551813    5.5299884    3883.7195 
   10000    2.3403069   -2.7078409            0   0.80174179    5.8481148    3844.3601 
Loop time of 2.54358 on 48 procs for 10000 steps with 4000 atoms

Performance: 679358.415 tau/day, 3931.472 timesteps/s
99.6% CPU use with 48 MPI tasks x no OpenMP threads

MPI task timing breakdown:
Section |  min time  |  avg time  |  max time  |%varavg| %total
---------------------------------------------------------------
Pair    | 1.1074     | 1.1926     | 1.2679     |   2.8 | 46.89
Neigh   | 0.21091    | 0.21959    | 0.2411     |   1.2 |  8.63
Comm    | 0.79059    | 0.86996    | 0.9655     |   4.0 | 34.20
Output  | 0.00026079 | 0.00026659 | 0.00032396 |   0.0 |  0.01
Modify  | 0.21989    | 0.24605    | 0.26744    |   2.7 |  9.67
Other   |            | 0.0151     |            |       |  0.59

Nlocal:        83.3333 ave          95 max          74 min
Histogram: 3 4 8 6 8 7 7 0 4 1
Nghost:        1684.54 ave        1713 max        1647 min
Histogram: 2 1 4 4 6 8 8 5 8 2
Neighs:        9923.06 ave       11835 max        8642 min
Histogram: 3 4 11 6 9 6 6 2 0 1

Total # of neighbors = 476307
Ave neighs/atom = 119.07675
Neighbor list builds = 913
Dangerous builds = 242

# Equilibrate just above the melting temperature to avoid step fn in T

fix 1 all npt temp 1.25 1.25 0.1 iso 5.68 5.68 0.5 mtk yes tchain 5 pchain 5
run 2000
Per MPI rank memory allocation (min/avg/max) = 3.643 | 3.645 | 3.649 Mbytes
Step Temp E_pair E_mol TotEng Press Volume 
   10000    2.3403069   -2.7078409            0   0.80174179    5.8481148    3844.3601 
   11000     1.267799   -4.0431877            0   -2.1419647    5.7056622    2975.1824 
   12000    1.2634254   -4.0485733            0    -2.153909    5.6834118    2976.0685 
Loop time of 0.617171 on 48 procs for 2000 steps with 4000 atoms

Performance: 559974.131 tau/day, 3240.591 timesteps/s
99.7% CPU use with 48 MPI tasks x no OpenMP threads

MPI task timing breakdown:
Section |  min time  |  avg time  |  max time  |%varavg| %total
---------------------------------------------------------------
Pair    | 0.27747    | 0.30305    | 0.33141    |   2.2 | 49.10
Neigh   | 0.039095   | 0.041828   | 0.044701   |   0.6 |  6.78
Comm    | 0.19411    | 0.22423    | 0.25258    |   3.0 | 36.33
Output  | 5.1144e-05 | 5.3278e-05 | 6.7206e-05 |   0.0 |  0.01
Modify  | 0.039579   | 0.043211   | 0.046526   |   0.9 |  7.00
Other   |            | 0.004801   |            |       |  0.78

Nlocal:        83.3333 ave          93 max          73 min
Histogram: 1 0 4 7 8 9 9 5 3 2
Nghost:        2007.77 ave        2034 max        1986 min
Histogram: 2 5 3 7 12 7 7 3 1 1
Neighs:        12813.8 ave       14828 max       11472 min
Histogram: 4 5 7 10 8 5 4 1 3 1

Total # of neighbors = 615060
Ave neighs/atom = 153.76500
Neighbor list builds = 142
Dangerous builds = 8

#############################
# L I N E A R  Q U E N C H  #
#############################

# Define solid atoms. This closely follows ten Wolde  Ruiz-Montero and Frenkel  Faraday Discuss  1996  104  93-110
# Compute components of the per-atom q6 vector
compute q6 all orientorder/atom degrees 1 6 components 6 nnn NULL cutoff 1.3 # compute the Q6 parameter.
                                                                             # Use all neighbours within 1.3 unit cell.

# get number of connections
compute coord_number all coord/atom orientorder q6 0.5

# An atom is solid if it has 8 or more connections (of a possible 14)
variable is_solid atom c_coord_number>=8
group solid dynamic all var is_solid    # Must be dynamic to update
dynamic group solid defined

# do clustering
compute cluster solid cluster/atom 1.3 # Create a cluster where all atoms within are solid and max 1.3 units from another member

# define chunks one chunk per cluster
compute clus_chunks solid chunk/atom c_cluster nchunk every compress yes  # Says which atoms are in which chunk

# count the size of each chunk
compute size_chunks solid property/chunk clus_chunks count


# Find the maximum entry in the vector of chunk sizes
variable max_n equal max(c_size_chunks)


# Thermo style which includes this variable
# thermo_style custom step temp pe vol v_max_n

thermo ${N}  # Print the thermo information every 100 steps
thermo 1000  

# Reset the npt fix at a lower temperature (below freezing)
fix 1  all npt temp  ${temp} ${temp}  0.1  iso  5.68  5.68  0.5  mtk yes tchain  5  pchain  5
fix 1  all npt temp  0.45 ${temp}  0.1  iso  5.68  5.68  0.5  mtk yes tchain  5  pchain  5
fix 1  all npt temp  0.45 0.45  0.1  iso  5.68  5.68  0.5  mtk yes tchain  5  pchain  5

dump dmp2 all dcd ${N} traj.dcd
dump dmp2 all dcd 1000 traj.dcd


compute msd all msd com yes
variable twopoint equal c_msd[4]/6/(step*dt+1.0e-6)
fix 9 all vector 10 c_msd[4]
variable fit equal slope(f_9)/6/(10*dt)
thermo_style custom step temp pe c_msd[4] v_twopoint v_fit v_max_n

fix 1 all npt temp 1.25 ${temp} 0.1 iso 5.68 5.68 0.5 mtk yes tchain 5 pchain 5
fix 1 all npt temp 1.25 0.45 0.1 iso 5.68 5.68 0.5 mtk yes tchain 5 pchain 5
run 500000 # 5000000  # Run for this many steps
Neighbor list info ...
  update every 1 steps, delay 10 steps, check yes
  max neighbors/atom: 2000, page size: 100000
  master list distance cutoff = 3.8
  ghost atom cutoff = 3.8
  binsize = 1.9, bins = 8 8 8
  4 neighbor lists, perpetual/occasional/extra = 1 3 0
  (1) pair lj/cut, perpetual
      attributes: half, newton on
      pair build: half/bin/atomonly/newton
      stencil: half/bin/3d
      bin: standard
  (2) compute orientorder/atom, occasional
      attributes: full, newton on
      pair build: full/bin/atomonly
      stencil: full/bin/3d
      bin: standard
  (3) compute coord/atom, occasional
      attributes: full, newton on
      pair build: full/bin/atomonly
      stencil: full/bin/3d
      bin: standard
  (4) compute cluster/atom, occasional
      attributes: full, newton on
      pair build: full/bin/atomonly
      stencil: full/bin/3d
      bin: standard
Per MPI rank memory allocation (min/avg/max) = 9.830 | 9.838 | 9.844 Mbytes
Step Temp PotEng c_msd[4] v_twopoint v_fit v_max_n 
   12000    1.2634254   -4.0485733 5.9164568e-34 4.1086504e-36 8.3333333e+20            2 
   13000    1.2538177   -4.0374261   0.87117676 0.0055844662  0.073944258            3 
   14000    1.2231995   -4.0480897    1.7674946  0.010520801  0.074478497            2 
   15000    1.2448688   -4.0285466    2.6831233   0.01490624  0.074957297            3 
   16000     1.231752   -4.0601227    3.5434835  0.018455643    0.0746343            1 
   17000    1.2320521   -4.0470329    4.4598164  0.021861844  0.074331498            1 
   18000    1.2568215   -4.0323023    5.3102794  0.024584626  0.074277151            1 
   19000    1.2459294   -4.0599496     6.139194  0.026926289  0.073796787            3 
   20000    1.2489992   -4.0379819    7.1040244  0.029600101  0.073511214            2 
   21000    1.2262129   -4.0740468    7.9656866  0.031609867  0.073613315            2 
   22000    1.2599182   -4.0589717    8.9768187    0.0340031  0.074039448            2 
   23000    1.2252865   -4.0655625    9.9627891  0.036097061  0.074553891            2 
   24000     1.222757   -4.0401377    10.918968  0.037913082  0.074987678            4 
   25000    1.2326831   -4.0884339      11.6977  0.038992332  0.075312827            3 
   26000    1.2184882   -4.0849444    12.672212  0.040616063  0.075510307            2 
   27000    1.2340506   -4.1218605    13.565363  0.041868402  0.075668631            2 
   28000    1.2506438   -4.0762849    14.607161  0.043473691  0.075901485            3 
   29000    1.2291525   -4.0641845    15.594514   0.04481182  0.076210074            2 
   30000    1.2103114   -4.0683795    16.427566  0.045632128  0.076421432            2 
   31000    1.1842717   -4.0718828    17.220336  0.046291226  0.076404865            4 
   32000    1.2331202   -4.1055849    17.946655   0.04673608  0.076273878            1 
   33000     1.238818    -4.105445    18.854708  0.047612899  0.076084511            2 
   34000    1.1841887   -4.0663041    19.859198  0.048674505  0.075949782            6 
   35000    1.2400453   -4.0830159    20.813099  0.049554997  0.075910144            2 
   36000    1.1756782   -4.1068994    21.683394  0.050193042  0.075824023            2 
   37000    1.1949122   -4.1056077     22.70297  0.051132814  0.075815934            2 
   38000    1.1909393   -4.1054067    23.521665  0.051582598  0.075805507            3 
   39000     1.198738   -4.1021977    24.373608  0.052080359  0.075764753            2 
   40000    1.2167774   -4.0921647    25.200355  0.052500739  0.075676191            2 
   41000    1.2342411   -4.1071034    25.920909  0.052684774  0.075569824            2 
   42000    1.1953077   -4.0804975    27.009266  0.053589813  0.075449369            2 
   43000    1.2203132   -4.0838102    27.984287  0.054233114  0.075403603            1 
   44000    1.2077581   -4.1219575    28.823247  0.054589482  0.075374385            3 
   45000    1.2005251   -4.1180306    29.762519  0.055115775  0.075376971            1 
   46000    1.2093605   -4.1162687    30.444552  0.055153174  0.075303865            4 
   47000    1.2089612   -4.1118841    31.274235  0.055450772  0.075185747            4 
   48000    1.1933447   -4.1044091    31.807498   0.05522135  0.074993024            2 
   49000    1.2051386   -4.1648579    32.615743   0.05546895  0.074794431            2 
   50000    1.1808598   -4.1163928    33.635059  0.056058431  0.074612138            1 
   51000    1.1877923   -4.1251247    34.456214  0.056301002  0.074429839            2 
   52000    1.2305893   -4.1782752    35.202882  0.056414874  0.074274453            2 
   53000    1.1881796   -4.1645397     35.92231  0.056481619  0.074090659            3 
   54000    1.1678137   -4.1376438    36.576174  0.056444713  0.073855324            1 
   55000    1.1887435   -4.1672853    37.488376  0.056800568   0.07364391            1 
   56000    1.1743343   -4.1636064    38.237914  0.056901657  0.073436531            3 
   57000    1.1608902   -4.1712485    39.003615  0.057022829  0.073232403            2 
   58000    1.1624089   -4.1774292    39.615061  0.056918191  0.073012551            2 
   59000    1.1748483   -4.1366554    40.213831  0.056799196  0.072755038            3 
   60000    1.1774173   -4.1644173    41.104109   0.05708904  0.072508356            1 
   61000    1.1776582   -4.1296517    41.785592  0.057084141  0.072254148            2 
   62000    1.2056328   -4.1341703    42.594932  0.057251252  0.072028822            2 
   63000    1.1780092   -4.1611668    43.432669   0.05745062  0.071814659            3 
   64000    1.1798852   -4.2009035    44.075693  0.057390225  0.071605591            3 
   65000    1.1756162   -4.1429541    45.280538  0.058051972  0.071407204            1 
   66000    1.1440382   -4.1473548    45.891552  0.057943879  0.071241225            3 
   67000    1.1620979   -4.1858082    46.283414  0.057566435  0.071046574            4 
   68000    1.1689712   -4.1441248    47.052265  0.057662089  0.070847784            4 
   69000    1.1750919    -4.186708    47.663976  0.057565188  0.070622758            3 
   70000    1.1287289    -4.206981    48.834748  0.058136604  0.070442198            2 
   71000    1.1390982    -4.174552    49.621944  0.058241718  0.070282305            3 
   72000    1.1289991   -4.1689122    50.476363  0.058421716  0.070142638            3 
   73000    1.1194507   -4.1548665    51.400835  0.058676752  0.070003403            5 
   74000    1.1511871   -4.1986811    52.019092  0.058580058  0.069866129            1 
   75000    1.1342744   -4.1797142    52.469763  0.058299736  0.069728684            3 
   76000    1.1504792   -4.2401555    52.959063  0.058069148  0.069557014            4 
   77000    1.1502817   -4.2348437    53.511023  0.057912362  0.069388213            1 
   78000    1.1547503   -4.1770532    54.744781  0.058488014  0.069228357            2 
   79000    1.1395189   -4.2023727    55.403716  0.058442738  0.069064077            1 
   80000    1.1278111   -4.2170714     55.95547  0.058286948  0.068903884            3 
   81000    1.1463763   -4.2081951    56.601404  0.058231896  0.068739617            1 
   82000    1.1056268   -4.2269218    56.885684  0.057810654  0.068566971            2 
   83000     1.138581   -4.2131451    57.806004  0.058038157  0.068377397            4 
   84000    1.1186602   -4.2209495     58.41589  0.057952272  0.068191028            1 
   85000    1.1182069   -4.1933638    59.378144  0.058213867  0.068015927            1 
   86000    1.1401367   -4.2048983    59.826479  0.057971394  0.067849108            4 
   87000    1.1208114   -4.2228406    60.695401  0.058137357  0.067670488            2 
   88000    1.1267955   -4.2246268    60.998367  0.057763605  0.067498334            2 
   89000     1.153083   -4.2052713     61.59596   0.05767412  0.067296778            2 
   90000    1.1264211   -4.2400942    62.194777  0.057587756  0.067086036            1 
   91000    1.1012749   -4.2132937    62.785297  0.057495693  0.066879013            3 
   92000    1.1215896   -4.2278853    63.315987  0.057351437  0.066677914            2 
   93000    1.1015213   -4.2306549    63.932156  0.057286878  0.066482103            2 
   94000    1.0989348   -4.2118977    64.455868  0.057141727  0.066287283            3 
   95000    1.1343741    -4.200925    65.704688  0.057635691  0.066105787            2 
   96000    1.0771483   -4.2331836    66.360194  0.057604335   0.06594112            2 
   97000    1.1079027   -4.2449535    66.828504  0.057412804  0.065776153            2 
   98000    1.1288975   -4.2629517    67.443424   0.05734985  0.065605298            2 
   99000    1.1336332   -4.2763462    68.209209  0.057415159   0.06544683            3 
  100000     1.090013   -4.2490971    68.863741  0.057386451  0.065287605            2 
  101000    1.1259277   -4.2416193    69.692471  0.057502038  0.065132304            2 
  102000    1.0888742   -4.2570239    70.267398  0.057408005   0.06497876            2 
  103000    1.0928844    -4.263715    71.053134  0.057486354  0.064836631            2 
  104000    1.1034915   -4.2894601    71.847293  0.057569946  0.064693219            5 
  105000    1.0904742   -4.2571266    72.566767  0.057592672  0.064567467            2 
  106000    1.0984122   -4.2531216    73.467181  0.057757217  0.064447124            3 
  107000    1.0662276   -4.2552448    74.121486  0.057727014   0.06433739            3 
  108000    1.0973815   -4.2542302    74.612822  0.057571622  0.064227296            3 
  109000    1.1027919   -4.2904232    75.473149  0.057701184  0.064110346            2 
  110000      1.12153   -4.2684673     76.13226  0.057675955   0.06400271            5 
  111000    1.0849657   -4.2547178    77.047944  0.057843802  0.063905011            5 
  112000      1.09143   -4.2835703    77.663238  0.057785147  0.063818693            3 
  113000    1.0760486    -4.304336    78.123556  0.057613241  0.063729593            2 
  114000    1.0882797   -4.3178961    78.711824  0.057537883  0.063636907            4 
  115000    1.0917069     -4.28207    79.766196  0.057801591  0.063550238            3 
  116000    1.1008516    -4.319357     80.11264  0.057552184  0.063463358            3 
  117000    1.0891045   -4.3213409    80.928438  0.057641337  0.063376114            2 
  118000    1.0942596   -4.3070274    81.559434   0.05759847  0.063290778            2 
  119000    1.0640852   -4.3232307    82.295618  0.057629985  0.063194814            2 
  120000    1.0751658   -4.3345307    82.942289  0.057598812  0.063117157            3 
  121000    1.0811286   -4.3049448    83.715013  0.057654967  0.063028099            2 
  122000    1.0765276   -4.2844218    84.313976  0.057591514  0.062942755            2 
  123000    1.0867047    -4.311575    84.969066  0.057567118  0.062856216            2 
  124000    1.0929559   -4.3107266    85.422009  0.057407264    0.0627596            2 
  125000    1.0852165    -4.311629    85.769569  0.057179713  0.062663319            1 
  126000     1.079885   -4.3211777     86.60193  0.057276408  0.062566676            9 
  127000    1.0891815   -4.3051858    87.231013  0.057238197  0.062473735            6 
  128000    1.0624113   -4.3619023    87.483222  0.056955222  0.062379089            4 
  129000    1.0625309   -4.3246463    88.313688  0.057050186  0.062277339            4 
  130000    1.0710229   -4.3273203    89.584121  0.057425718  0.062185317            4 
  131000    1.0465977   -4.2937124    89.971859  0.057234007  0.062092034            4 
  132000     1.050692   -4.3403122    90.346618  0.057037006  0.061995513            3 
  133000     1.041787   -4.3436902    90.745021  0.056857783  0.061893013            1 
  134000    1.0587809   -4.3564261    91.230968  0.056735676  0.061790682            5 
  135000    1.0451913    -4.330137    92.343959  0.057002444  0.061685888            3 
  136000    1.0597882   -4.3294007    92.085308  0.056424821  0.061579438            3 
  137000    1.0478421   -4.3085559    92.740241  0.056411339  0.061464353            3 
  138000    1.0726575   -4.3748925    93.256298   0.05631419  0.061355797            3 
  139000    1.0406519    -4.344301    93.780996  0.056223618  0.061246034            2 
  140000    1.0401032    -4.359718    94.322217  0.056144177  0.061132599            2 
  141000    1.0540258   -4.4065182    94.480855  0.055839749  0.061017061            5 
  142000    1.0505462    -4.394997    95.133545  0.055829545  0.060895466            3 
  143000    1.0278308   -4.3837688    96.306646  0.056122754  0.060778547            2 
  144000    1.0517377   -4.4113363    96.278373  0.055716651  0.060658429           11 
  145000    1.0436047   -4.4195207    96.613841  0.055525196  0.060537388            3 
  146000    1.0397453   -4.3915039    96.844467  0.055276522  0.060412576            1 
  147000    1.0091762   -4.3660135    97.406197  0.055218932  0.060275622            4 
  148000    1.0454897   -4.3744051    97.517674    0.0549086  0.060133451            3 
  149000    1.0313516   -4.3655843    98.107202    0.0548698  0.059992741            2 
  150000    1.0163956   -4.4220559     98.21761  0.054565339  0.059846599            2 
  151000    1.0268166   -4.3611948    98.923781  0.054593698  0.059700193            3 
  152000    1.0249356   -4.3926948    99.221116  0.054397542  0.059555431            1 
  153000    0.9971176   -4.3725402    99.992472  0.054462131  0.059406387            2 
  154000    1.0185002   -4.3770464    100.17288  0.054206106  0.059251705            2 
  155000     1.049215   -4.3878748    100.73578  0.054159023  0.059103095            5 
  156000    1.0365969   -4.3835003    101.51181  0.054226395  0.058960051            8 
  157000    1.0148616   -4.3732093    101.88411  0.054078613  0.058823262            3 
  158000    1.0119772   -4.3967374    102.72125  0.054177872   0.05868273            2 
  159000    1.0215859   -4.4124471    102.46622  0.053703471  0.058546958            2 
  160000    1.0323397   -4.4014005    103.79681  0.054060841  0.058414887            3 
  161000   0.99443953   -4.4416057    104.34843  0.054010577  0.058285291            6 
  162000   0.97988719   -4.3870091    104.96875  0.053996271  0.058159019            2 
  163000    1.0199116   -4.4347276    105.25799  0.053812876  0.058032515            6 
  164000   0.99822319   -4.4581738    105.73108  0.053725141   0.05791033            2 
  165000    1.0066283   -4.4252819    106.22299  0.053647972  0.057787306            5 
  166000   0.99266762   -4.4399735    106.72065  0.053574625   0.05766517            5 
  167000   0.99729976   -4.4589142    107.48165  0.053633557  0.057543088            3 
  168000    1.0259582   -4.4300963    107.57539  0.053360807  0.057417928            4 
  169000   0.98621198   -4.4327334    108.04517  0.053276711  0.057290885            3 
  170000   0.99326725    -4.446915    108.84191  0.053353878    0.0571703            2 
  171000    1.0002584   -4.4511635    109.33806  0.053283657  0.057049488            6 
  172000    1.0268107   -4.4638093    109.11218  0.052864428  0.056926848            2 
  173000   0.97528957   -4.4473581    109.72193  0.052852565  0.056802392            9 
  174000   0.98880725   -4.4599167    110.76391   0.05304785  0.056680846            4 
  175000    1.0080515   -4.4679904    111.10698  0.052908085  0.056560181            3 
  176000   0.98836262   -4.4890707    111.45764  0.052773502  0.056438549            4 
  177000   0.99215184   -4.4808332    112.00663  0.052733817  0.056317609            3 
  178000   0.96698264   -4.4736111     112.1595  0.052509129  0.056195699            3 
  179000   0.96623326   -4.4819327    112.82129  0.052523876  0.056071456            3 
  180000   0.98179487    -4.506278    113.12194  0.052371268  0.055950646            6 
  181000   0.97542867   -4.4946965    113.11818  0.052080192  0.055830896            8 
  182000   0.96980964   -4.4793083    114.01119  0.052202926  0.055710017            4 
  183000   0.98504397   -4.4947093     115.0274  0.052380417  0.055591623            3 
  184000   0.97032588   -4.5281368     114.6453   0.05192269  0.055474371            2 
  185000   0.96277338   -4.4950858    115.47174  0.052014296  0.055353568            3 
  186000   0.98469748    -4.479572    116.36239  0.052133686  0.055239733            3 
  187000   0.95162562   -4.4917972    116.67241   0.05199305  0.055125474            5 
  188000   0.98269715   -4.4997489    117.16369  0.051934259  0.055011352            3 
  189000    0.9495639   -4.5009397    117.55645  0.051832648  0.054899294            2 
  190000   0.95965753   -4.4717398     118.6094  0.052021668  0.054789715            2 
  191000   0.95993499   -4.5180225    118.97921   0.05191065  0.054683376            4 
  192000   0.96855941   -4.5312299    118.99332  0.051646405  0.054578308            4 
  193000   0.96471806   -4.5006008    120.17516    0.0518891   0.05447227            2 
  194000   0.96601314   -4.5266037    119.99376  0.051543713  0.054367794            5 
  195000     0.955639   -4.5364486    120.91677  0.051673834  0.054266809            8 
  196000   0.96246476   -4.5160896    121.80382  0.051787337  0.054167809            4 
  197000   0.96148233   -4.5245763     121.5148  0.051402199  0.054071039            7 
  198000    0.9512283   -4.5206459    122.01879  0.051354709  0.053971552            3 
  199000   0.96639926   -4.5416389    122.15678  0.051154429  0.053869256            4 
  200000    0.9525145   -4.5272593     122.9209   0.05121704  0.053764869            3 
  201000   0.94162132   -4.5217235     123.0583  0.051019196  0.053662762            3 
  202000   0.93243287    -4.550929    123.71586  0.051037898  0.053559532            3 
  203000   0.94630676   -4.5387342    123.66397  0.050765177   0.05345269            4 
  204000   0.92459101    -4.541283     124.2276  0.050746569  0.053347905            3 
  205000   0.93265817   -4.5720656    124.22352  0.050497364   0.05324019            3 
  206000   0.95717242   -4.5413904    124.93503  0.050540059  0.053131133            6 
  207000   0.95134138   -4.5397898    125.29614  0.050441279  0.053024459            3 
  208000   0.94238989    -4.553146    126.08254  0.050513839  0.052918588            4 
  209000   0.93610984   -4.6045211    125.76245  0.050144518  0.052812555            3 
  210000   0.94016621   -4.5958795    126.67178  0.050266579  0.052705657            4 
  211000   0.92378375   -4.5533273    127.37184  0.050304834  0.052601907            3 
  212000   0.93950394   -4.5596038    127.59349  0.050154674  0.052500149            4 
  213000   0.93141814   -4.5699985    127.68088  0.049953396  0.052394923            5 
  214000   0.91634033   -4.5520878    128.44018  0.050015646  0.052291328            2 
  215000   0.92641154   -4.5662719    128.41343  0.049772646  0.052188486            3 
  216000   0.90098476   -4.5472131    129.60231  0.050000892  0.052085927            3 
  217000   0.93725902   -4.5823226    129.56504  0.049756161  0.051984058            3 
  218000   0.90660678   -4.6168974    129.43013  0.049476348  0.051879911            5 
  219000   0.90287359   -4.6116421    130.04324  0.049483728  0.051776052            4 
  220000   0.93425165   -4.5832211    130.49294  0.049429143  0.051673311            5 
  221000   0.90922407    -4.580074    130.57723  0.049237266  0.051567588            7 
  222000   0.92568914   -4.6135768    131.09815  0.049211019  0.051460171            6 
  223000   0.91432097   -4.6037173     131.5892  0.049173842  0.051355425            3 
  224000   0.90242095   -4.5801313    131.73755  0.049009504  0.051251026            3 
  225000   0.90108997   -4.6120961    131.93041  0.048863113  0.051144288            8 
  226000   0.91423546   -4.6338814    132.47734  0.048848575  0.051038158            7 
  227000   0.89236915   -4.5756179    133.16716  0.048886622  0.050933307            3 
  228000   0.91568692   -4.6096548    133.17215  0.048674032  0.050829068            3 
  229000   0.89831076   -4.5963318    133.63974  0.048631636  0.050724725            2 
  230000   0.90893272   -4.6233878    133.64306  0.048421398  0.050620033            3 
  231000   0.88218401   -4.6465363    133.84914  0.048286124  0.050515571            5 
  232000   0.88398062   -4.6370266    134.56985  0.048336872  0.050409399            3 
  233000   0.88921468   -4.6083782    134.92222  0.048255442  0.050305373            5 
  234000   0.90435174   -4.6160633    134.72295  0.047978258  0.050200674            7 
  235000    0.8896569   -4.6397884    135.33656  0.047991689  0.050093094            5 
  236000    0.9105559   -4.6424747    135.21627  0.047745858  0.049984926            6 
  237000   0.87666134   -4.6132594    136.33073  0.047936262  0.049877357            4 
  238000   0.88746285   -4.6385011     136.4262  0.047768279   0.04977018            3 
  239000   0.89311881   -4.6467804    136.26916  0.047513654  0.049661464            5 
  240000   0.87000652   -4.6602156    136.33802   0.04733959   0.04955342            5 
  241000   0.89227669   -4.6800419    136.24629  0.047111441  0.049444144            3 
  242000   0.88619143   -4.6419159    136.55646  0.047023574  0.049333134            7 
  243000   0.88348208   -4.6566905     137.2336  0.047062276    0.0492214            4 
  244000   0.88193859   -4.6808841    136.90283  0.046756431  0.049107614            6 
  245000   0.88699364   -4.6654253    137.37194  0.046725149   0.04899353            4 
  246000   0.86512474   -4.6675677    137.58412  0.046607087   0.04887963            3 
  247000   0.89094714   -4.6822222       138.05  0.046575575  0.048764142            7 
  248000   0.88003749   -4.6893982    137.82295  0.046311475  0.048649137            6 
  249000   0.87094839   -4.6954384    138.51516   0.04635715  0.048535109            3 
  250000   0.85950215   -4.6682874    138.92323  0.046307743  0.048420006            3 
  251000   0.87447041   -4.6617507    139.28815  0.046244407  0.048308765           10 
  252000   0.85070612   -4.6899863    138.95951  0.045952219  0.048196142            6 
  253000   0.85988309   -4.6886752    139.50142  0.045949084  0.048082097            6 
  254000   0.86061642   -4.6898773    140.20827  0.046000089  0.047965688            3 
  255000     0.859764   -4.7083598    139.69453  0.045651809  0.047850034            4 
  256000   0.86767133   -4.7165802    140.17249  0.045629065  0.047734968            7 
  257000   0.86154666   -4.7218752    139.83536  0.045342204  0.047620122            5 
  258000   0.87577261   -4.7210559    140.44446  0.045363199   0.04750547            4 
  259000   0.85490324   -4.7016125    140.37216  0.045164787  0.047389813            6 
  260000   0.85700868   -4.7253548    140.58919  0.045060638  0.047275092            5 
  261000   0.85116227   -4.7280439    140.64189  0.044904816  0.047158443            4 
  262000   0.85362515   -4.7050275      141.564  0.045026719  0.047043201            6 
  263000    0.8467943   -4.6973141    141.37158  0.044794545   0.04692661           13 
  264000   0.85279527   -4.7138517     141.4265  0.044642205  0.046809642            5 
  265000   0.84465458   -4.7317441    141.62582   0.04453642   0.04669318            3 
  266000   0.85407295    -4.720051    142.21031  0.044552103  0.046577442            7 
  267000   0.83625817   -4.7234654    142.48901  0.044472224  0.046461588            3 
  268000   0.83857287   -4.7308443    142.57654    0.0443335  0.046346736            3 
  269000    0.8308809   -4.7744357    143.20294  0.044362744  0.046232028            4 
  270000     0.843036   -4.7538968    143.44619  0.044273514   0.04612005            4 
  271000   0.84277367   -4.7503387    143.89114  0.044246968  0.046008323            6 
  272000   0.83530584     -4.74854    143.92592  0.044094949  0.045896245            7 
  273000   0.83636202   -4.7575809    143.84395  0.043908411  0.045782939           12 
  274000    0.8389389   -4.7346195     144.3823  0.043911892  0.045670563            3 
  275000   0.83235838   -4.7820206    144.29319  0.043725208  0.045558956            3 
  276000   0.84275626   -4.7842859    144.75643  0.043706651  0.045446531            4 
  277000   0.82197808   -4.7642506    144.69744  0.043531118  0.045334372            9 
  278000   0.82865667   -4.7672389     144.9391  0.043446973  0.045223043            5 
  279000   0.81013618   -4.7528385    145.47145  0.043450253  0.045113444            5 
  280000   0.83663453   -4.7575131    146.20041  0.043512028  0.045003782            3 
  281000   0.81235321    -4.753341     146.2891  0.043383481   0.04489513            5 
  282000   0.84089254   -4.7641028    146.72267  0.043357763  0.044787504            8 
  283000   0.82035903    -4.806074    146.04644  0.043005431  0.044678645            5 
  284000    0.8078102   -4.7473533    147.04037  0.043145648  0.044570208            5 
  285000   0.83750063    -4.800968    147.06482  0.043001411  0.044463263           13 
  286000   0.78350447   -4.8062962    147.57878   0.04300081  0.044356411            3 
  287000   0.80209826   -4.7941795    147.56723  0.042847627  0.044250003            9 
  288000   0.83176963   -4.7945864    148.12486  0.042860201  0.044145388            4 
  289000   0.80697144   -4.8052522    148.35509  0.042778285  0.044040171            3 
  290000    0.8277509   -4.8044859    148.08459  0.042553044  0.043933501           12 
  291000   0.78815867   -4.8024181    148.05021  0.042396968  0.043827979            4 
  292000   0.82213918   -4.8053028    148.00577   0.04223909   0.04372119           15 
  293000   0.79289681   -4.8101876    148.71205  0.042295805   0.04361544            7 
  294000    0.7960406   -4.8431732    148.82229  0.042183189  0.043511073            6 
  295000   0.78994976   -4.8578806     149.1292  0.042126892  0.043405971            7 
  296000   0.78577944    -4.829634    149.64259  0.042129108  0.043302668            4 
  297000   0.78683983   -4.8189386    150.16173  0.042132922  0.043200944            4 
  298000    0.7834354   -4.8206372    150.26684  0.042020928  0.043099847           10 
  299000   0.78546615   -4.8583696    149.50548  0.041668194  0.042997183            8 
  300000   0.78058478   -4.8580285    150.07027  0.041686186  0.042893891           10 
  301000   0.79176403   -4.8600016    150.51428  0.041670621  0.042792144            8 
  302000   0.79398994    -4.816562    151.63255  0.041841212  0.042691551            6 
  303000   0.77939345    -4.837564    151.49686  0.041665802  0.042593056            5 
  304000   0.79771424   -4.8481305    150.91783  0.041370019  0.042492831            7 
  305000   0.80786943   -4.8316277    152.27729  0.041605817  0.042393735            9 
  306000   0.78578848   -4.8506922    152.25677  0.041464261  0.042295281            5 
  307000   0.77525386   -4.8509795    152.33298  0.041349886  0.042197107            9 
  308000   0.77533023    -4.857837    152.40181  0.041234255  0.042099034            8 
  309000   0.78754959   -4.8897232    152.61539  0.041158411   0.04200069            7 
  310000   0.77470473   -4.8717306    153.17885  0.041177109  0.041902213            9 
  311000   0.74880283   -4.8894337    152.84369  0.040954901  0.041804558            7 
  312000    0.7563354   -4.8544703    153.09419  0.040890541  0.041706691            6 
  313000   0.76725254   -4.8833643    153.23993  0.040798705  0.041609913           13 
  314000   0.77556566   -4.8732743    153.57598  0.040757955  0.041513193            6 
  315000   0.76912072   -4.8703713    153.96919  0.040732591    0.0414165            9 
  316000   0.76223765     -4.92408     153.9104  0.040588185  0.041321032            6 
  317000   0.75834791   -4.8750852      154.289  0.040559675  0.041225526            6 
  318000   0.76123701   -4.9178649    153.69956  0.040277662  0.041129242            4 
  319000   0.74863028   -4.8861969      154.305  0.040309562  0.041032689            6 
  320000   0.75227233   -4.8982957    154.42517  0.040214889  0.040937338           11 
  321000   0.76207221   -4.8968863    154.73603  0.040170309  0.040841661           10 
  322000   0.75632146    -4.918133     155.0408  0.040124431    0.0407465            9 
  323000   0.75708751   -4.9143547     154.8524  0.039951599  0.040650742            9 
  324000    0.7587432   -4.9074099    155.15378  0.039905807  0.040554521           11 
  325000   0.73823647   -4.9205794    155.34866   0.03983299  0.040459109            7 
  326000   0.75663322   -4.9163349    155.61174  0.039778053  0.040363438            5 
  327000   0.74345109   -4.9257054    155.55912  0.039642998  0.040267266            6 
  328000   0.74728306   -4.9386024     155.4692  0.039499288  0.040170788            3 
  329000   0.73851993   -4.9408025    155.59384    0.0394108  0.040073929            4 
  330000   0.75689468   -4.9464216    155.78048  0.039338506  0.039977561            8 
  331000    0.7406457    -4.916363    156.15222  0.039313247  0.039882582            5 
  332000   0.72971039   -4.9314792    156.76731  0.039349224  0.039789134            9 
  333000   0.73137389   -4.9453664     156.7251  0.039220494  0.039696252            9 
  334000    0.7462424   -4.9561144     156.8653  0.039138049  0.039602471            5 
  335000   0.73205668   -4.9729242    156.97187  0.039047729  0.039508714            9 
  336000   0.74025469   -4.9311841    156.88771  0.038910643  0.039414575            8 
  337000   0.73424353   -4.9615267    156.76198   0.03876409  0.039321067            8 
  338000   0.73044557   -4.9548468    157.09977  0.038732685  0.039227079            7 
  339000   0.72727401   -4.9883589    157.10305  0.038619235   0.03913363           10 
  340000   0.72160788   -4.9497852    157.86732   0.03869297   0.03904069            8 
  341000   0.72902879   -4.9614757    157.97881  0.038606748  0.038948631            6 
  342000   0.71241524   -4.9597214     157.7119  0.038428825   0.03885698            6 
  343000   0.70892552   -4.9846446    158.10673  0.038412713  0.038764644           11 
  344000   0.72035801   -4.9879045    157.54197  0.038164237  0.038671659            6 
  345000   0.72423609   -4.9869764    158.19923  0.038212375  0.038579334            8 
  346000   0.72515733   -5.0141633    158.43998  0.038159918  0.038488201            8 
  347000   0.70549245   -5.0112797    157.81849  0.037900694  0.038396964            9 
  348000   0.71742271   -5.0052377    158.48219  0.037950717   0.03830451            7 
  349000   0.68977972   -5.0059932    158.96224    0.0379566  0.038212411           16 
  350000   0.69958954   -4.9978384    158.96473  0.037848744  0.038121316           15 
  351000   0.71804735   -5.0041539    158.89339  0.037723977  0.038030343            4 
  352000   0.68305149   -4.9936692    158.74272  0.037581137   0.03793905            9 
  353000   0.71541732   -4.9914521    159.23989  0.037592042  0.037847912            6 
  354000   0.71863224   -5.0103343    159.28616  0.037496743  0.037757583            6 
  355000   0.70089993   -5.0221888    159.36236  0.037409006  0.037667152           19 
  356000   0.67899345   -5.0160972     159.9591  0.037443609  0.037576796            9 
  357000   0.70270592   -5.0164288    160.10775  0.037373424  0.037486438           10 
  358000   0.71476713   -5.0228877    159.60274  0.037151476  0.037395597            5 
  359000    0.6721128   -5.0400885    159.50473  0.037025239  0.037304402            7 
  360000   0.69030081   -5.0364614    159.89298  0.037012265   0.03721246            9 
  361000   0.68670999   -5.0337911    159.55666  0.036832101  0.037120839            9 
  362000   0.68676641   -5.0440372    159.55094  0.036729037  0.037029619           19 
  363000   0.70377527    -5.050232    160.11948  0.036758375  0.036938542           11 
  364000    0.6883249   -5.0637093    159.90355  0.036607956  0.036848154           12 
  365000   0.68255685   -5.0391382    160.05262  0.036541693  0.036757723           11 
  366000   0.66742356   -5.0841881    160.57445  0.036560666    0.0366681            6 
  367000   0.66046985   -5.0656628    160.76661  0.036504681  0.036578838            7 
  368000   0.68520558    -5.076153    160.83416   0.03642078   0.03649008           19 
  369000    0.6900793   -5.0638705    160.62681  0.036275251  0.036402047            9 
  370000   0.67160745   -5.0713267    161.08843  0.036281177   0.03631504           16 
  371000   0.67319914   -5.0701898    161.50865  0.036277774  0.036227808            7 
  372000   0.68243928    -5.062908    161.89546  0.036266904  0.036141094            9 
  373000    0.6740453   -5.0842081    161.43161  0.036066042  0.036054687            7 
  374000   0.66396047   -5.0806634    161.43577  0.035970538  0.035967896            6 
  375000   0.67660885   -5.0733753    162.03908  0.036008684  0.035881068           10 
  376000    0.6718395   -5.0905715    161.13464  0.035712465  0.035793344           10 
  377000   0.67739094   -5.1080079    161.43323  0.035683738  0.035705391           25 
  378000   0.66420105   -5.0864336    161.47536  0.035598624  0.035616961           12 
  379000   0.65938892   -5.1002074    161.38341  0.035484478  0.035528625           11 
  380000   0.65667827   -5.0952689    161.47993  0.035412265  0.035440367           10 
  381000   0.66420244   -5.0676974    161.89698  0.035410539  0.035353148           13 
  382000   0.65772994   -5.0842261    161.87153  0.035312288  0.035265973           13 
  383000    0.6646256   -5.0966471    162.01134  0.035250508  0.035179325            9 
  384000   0.63665025   -5.1151436    162.22983  0.035206126   0.03509291           26 
  385000   0.65323623   -5.1303016    162.35028  0.035140754  0.035006499            8 
  386000   0.64781218   -5.1127128    162.20141  0.035017575  0.034920105            9 
  387000     0.652952   -5.1432881    161.85403  0.034852289  0.034834044            6 
  388000   0.66269955   -5.1356068    162.42888  0.034885927  0.034747635           11 
  389000   0.64962266   -5.1390108    162.35615  0.034780666   0.03466092           21 
  390000   0.65706847   -5.1422296    162.35592  0.034691436  0.034573984           14 
  391000   0.63556372   -5.1289556    162.79979  0.034697313  0.034487308           10 
  392000   0.64982916   -5.1137996    162.46429  0.034537477   0.03440123           12 
  393000   0.62747058   -5.1437836    162.98897  0.034560851  0.034314925            7 
  394000   0.65442836   -5.1438156    163.04328  0.034484619  0.034228586           16 
  395000   0.65539711   -5.1576889    162.61698  0.034307379  0.034142472            9 
  396000   0.64981218   -5.1274598    163.03701  0.034309134  0.034056802           10 
  397000   0.63534303   -5.1468719    162.56922  0.034124521  0.033971427            7 
  398000    0.6208347   -5.1529234    162.49612  0.034023475  0.033886018           10 
  399000   0.62750295   -5.1690291    162.36047  0.033909873  0.033800743           12 
  400000   0.64663756   -5.1628135    162.94769  0.033947435  0.033715328           21 
  401000   0.62350813   -5.1705197    162.81985  0.033836212  0.033629405            9 
  402000   0.61372783   -5.1958599    162.74674  0.033736887  0.033543783            7 
  403000    0.6218904    -5.179252    163.02478  0.033710665  0.033458513           14 
  404000   0.61750879   -5.1790531    162.78325  0.033577402  0.033373534            9 
  405000   0.62539107   -5.1975944     162.9806  0.033535103  0.033288773           10 
  406000   0.61849188    -5.185112    163.05921   0.03346864  0.033204335            8 
  407000   0.62819512   -5.1808106    163.23515  0.033422431  0.033119631            8 
  408000   0.62094033   -5.2034252    162.82829  0.033257412  0.033035482            8 
  409000   0.61158406     -5.20403    163.08451  0.033228303  0.032951344           10 
  410000   0.60942879   -5.1955511     163.2875  0.033188516  0.032867074           12 
  411000   0.60998147   -5.1940004    163.41425  0.033133465  0.032783321           12 
  412000   0.61094565   -5.2271717    163.06631  0.032982668  0.032699516           23 
  413000     0.606391   -5.2136844    163.21342   0.03293249  0.032615891            7 
  414000   0.60582693   -5.1917336    163.32852   0.03287611  0.032532336            5 
  415000   0.60688262   -5.2017654    163.28466  0.032788084   0.03244881           21 
  416000   0.59780159   -5.2358095    163.51004  0.032754414  0.032365102            8 
  417000   0.60217333     -5.24174    163.36351  0.032646584  0.032281768           15 
  418000   0.60363854   -5.2203611     163.4049  0.032576735  0.032198771            9 
  419000   0.60447819   -5.2649371    163.23099  0.032464398  0.032115676           10 
  420000   0.59252039   -5.2372035    163.73789  0.032487677  0.032033076            7 
  421000   0.59329444   -5.2352992    163.47174  0.032357826  0.031950339           21 
  422000   0.59505861    -5.247571     163.6435  0.032315067  0.031867752           20 
  423000   0.57469481   -5.2504668    163.60201  0.032230498  0.031785645           27 
  424000   0.57985399   -5.2655022    163.61245  0.032156535  0.031703248            8 
  425000   0.59506364   -5.2642765    163.93762  0.032144631  0.031620998           19 
  426000   0.58614848   -5.2671485    163.67674  0.032018141  0.031539423           24 
  427000   0.58289195   -5.2677698    163.93226  0.031993026  0.031458552           12 
  428000   0.57705907   -5.2517493    164.01261  0.031933919  0.031377738            8 
  429000   0.56591667   -5.2869829     164.2939  0.031914122  0.031297176           26 
  430000   0.57952017    -5.275465    163.98601  0.031780234  0.031216516           31 
  431000   0.56745166   -5.2758696    163.85512  0.031681191  0.031136095           26 
  432000   0.58200556    -5.276583     163.9157   0.03161954  0.031055522           14 
  433000   0.58445339   -5.2879416    164.46917  0.031653035  0.030974986           12 
  434000   0.56695344   -5.3002528    164.12616  0.031514239  0.030895237           14 
  435000   0.57347261   -5.3122678    163.97382   0.03141261  0.030815704           16 
  436000    0.5824188   -5.3000869     163.6829  0.031284958   0.03073622           18 
  437000   0.57902133   -5.3336983    163.66213  0.031209407  0.030656927           17 
  438000   0.55756942    -5.312108    164.12258  0.031225757  0.030577561           14 
  439000   0.57895993   -5.3051841    164.46749  0.031220101  0.030498561           17 
  440000   0.55922455   -5.3005752     164.0551  0.031071042  0.030419266           35 
  441000   0.55059228   -5.2895663    164.36017  0.031058234  0.030340395           29 
  442000   0.55298899   -5.3314695    164.15648  0.030949562  0.030261897           32 
  443000   0.57953109   -5.3394926    164.21134  0.030890018  0.030183106           62 
  444000   0.56198453   -5.3375084    164.12418  0.030804088  0.030104131           32 
  445000   0.54844663   -5.3471653    164.00421    0.0307124  0.030024929           28 
  446000    0.5463139   -5.3363171    163.82484  0.030610023  0.029945563           15 
  447000   0.55397679   -5.3311558     163.7402  0.030525764  0.029866431           16 
  448000   0.55758412   -5.3372534    164.08929  0.030522562  0.029787508           19 
  449000   0.55651779   -5.3576448      163.534  0.030351522  0.029708441           11 
  450000   0.55141344    -5.352652    164.01594  0.030373322  0.029629392           21 
  451000   0.54673659   -5.3552632    163.96634  0.030296811  0.029550978           17 
  452000   0.55014942   -5.3674781    163.39768  0.030124942  0.029472559           19 
  453000   0.54859995   -5.3520921    164.27427  0.030219697  0.029394665           23 
  454000   0.55127724   -5.3717549     163.6536  0.030039206  0.029317003           39 
  455000   0.55282457   -5.3644263    164.35803  0.030102203  0.029239443           40 
  456000   0.53548292   -5.3795411    163.94481  0.029960674   0.02916227           36 
  457000   0.53654156   -5.3613819    164.30937  0.029961591  0.029085389           18 
  458000   0.54397864   -5.3694401    163.72194   0.02978929  0.029008774           18 
  459000   0.53699537   -5.3717681    164.20283  0.029811697  0.028932252           61 
  460000   0.53402885   -5.3901641    164.16427  0.029739905  0.028855932           10 
  461000   0.52560942   -5.3799433    164.32983   0.02970532  0.028779458           24 
  462000   0.53513566   -5.3769956    164.42552  0.029658282  0.028703249           23 
  463000   0.52055376   -5.4100446    164.08586  0.029533093  0.028627249           89 
  464000   0.53395674   -5.4151818    163.94361  0.029443896  0.028551472           65 
  465000   0.51790328   -5.4121255    164.17698  0.029422398  0.028475701           65 
  466000   0.52085617   -5.4160213    163.99581  0.029326862  0.028400432           37 
  467000   0.52544607   -5.4107121      164.136  0.029289079  0.028325275           18 
  468000   0.51689205    -5.437069     164.1766  0.029233726  0.028250036           18 
  469000    0.5213612   -5.4043376    163.96443  0.029133695  0.028175152           56 
  470000   0.51178713   -5.4218458    164.10128  0.029095971  0.028100405           38 
  471000   0.51685362   -5.4219469    163.86319  0.028992073  0.028025609           45 
  472000   0.52623181   -5.4272427    163.97119  0.028949717  0.027950833           42 
  473000   0.51672831    -5.422477    164.31905  0.028949798  0.027876427           20 
  474000   0.51384219   -5.4479866    163.89736  0.028814584   0.02780208           43 
  475000   0.51148811   -5.4251016     163.8383  0.028743562  0.027727951           33 
  476000   0.51178479   -5.4263648    164.13285  0.028734742  0.027654173           27 
  477000   0.49869137   -5.4538749    163.96618  0.028645385   0.02758045           60 
  478000   0.49142775   -5.4307461    164.26774  0.028638031   0.02750708           33 
  479000   0.50305862   -5.4361417    163.95438  0.028523726     0.027434           64 
  480000   0.49609299   -5.4394084    164.10152  0.028489847  0.027361024           57 
  481000   0.49988103   -5.4696092    164.27135   0.02846004  0.027288059           59 
  482000   0.49773519   -5.4631634    163.83966  0.028326359   0.02721547           77 
  483000   0.50958033   -5.4494465    163.97711  0.028291428  0.027142808           75 
  484000   0.49267313   -5.4773751    164.08211  0.028251051  0.027070581           63 
  485000   0.49060559   -5.4486058    164.27231  0.028225483   0.02699831           63 
  486000   0.49773001   -5.4632628    164.20315  0.028155547  0.026926256           72 
  487000   0.49144541   -5.4703378    163.83489  0.028034718  0.026854569           49 
  488000    0.5009339   -5.4741687    163.73619  0.027960415  0.026782666           78 
  489000   0.48815256   -5.4998859    163.59475  0.027879132  0.026711073           55 
  490000   0.48703575   -5.4871908    164.28469  0.027939573  0.026639624           83 
  491000   0.47986016   -5.4929802    163.92249  0.027821197  0.026568238           57 
  492000   0.48143345   -5.5079455    163.41088  0.027677995  0.026496959           27 
  493000   0.48714459   -5.5007866    163.84946  0.027695986  0.026425816           53 
  494000   0.47959836   -5.4917266    163.67101   0.02760982  0.026354796           25 
  495000   0.46363679   -5.5146339    163.66862   0.02755364  0.026283818           35 
  496000   0.47918962   -5.5082774    163.78718  0.027518008   0.02621304           57 
  497000    0.4765025   -5.5158861    163.69139  0.027446578  0.026142363           15 
  498000   0.48504396   -5.5068906    163.55413  0.027368496  0.026072004           18 
  499000   0.47906991   -5.5167933    163.69705  0.027337517   0.02600178           18 
  500000   0.47842882   -5.5244009    163.69727  0.027282879  0.025931884           24 
  501000   0.47113656   -5.5439577    163.68265   0.02722599  0.025862202           33 
  502000   0.45623821   -5.5328884    163.76526  0.027185467  0.025792657           25 
  503000   0.47116641   -5.5055487    163.59973  0.027103997  0.025723223           55 
  504000    0.4697261   -5.5363778    163.74014  0.027073435  0.025654164           33 
  505000   0.46110091   -5.5491256    163.48635  0.026977945  0.025584941           36 
  506000   0.45507386   -5.5405508    163.66171  0.026953509  0.025515914           45 
  507000   0.45559657   -5.5499443    163.55154  0.026882239  0.025447072           37 
  508000   0.46099774   -5.5504456    163.51741  0.026823722  0.025378503           72 
  509000   0.45818474    -5.553919    163.43578  0.026757659  0.025310019           31 
  510000    0.4460419    -5.529092    163.62229  0.026735668  0.025241787           37 
  511000    0.4503097   -5.5528141    163.35428  0.026639641  0.025173749           57 
  512000   0.44861198   -5.5365952    163.51945  0.026614493    0.0251058           47 
Loop time of 1268.85 on 48 procs for 500000 steps with 4000 atoms

Performance: 68093.000 tau/day, 394.057 timesteps/s
99.4% CPU use with 48 MPI tasks x no OpenMP threads

MPI task timing breakdown:
Section |  min time  |  avg time  |  max time  |%varavg| %total
---------------------------------------------------------------
Pair    | 86.189     | 92.276     | 97.92      |  29.8 |  7.27
Neigh   | 8.5909     | 8.9117     | 9.3761     |   6.4 |  0.70
Comm    | 79.83      | 86.052     | 92.446     |  29.2 |  6.78
Output  | 0.8982     | 0.8992     | 0.92878    |   0.5 |  0.07
Modify  | 1064.7     | 1068.8     | 1074.7     |   6.4 | 84.23
Other   |            | 11.9       |            |       |  0.94

Nlocal:        83.3333 ave          90 max          76 min
Histogram: 2 1 4 6 6 12 5 10 0 2
Nghost:        2320.17 ave        2339 max        2289 min
Histogram: 1 0 4 3 7 5 4 10 11 3
Neighs:        15735.6 ave       16901 max       14420 min
Histogram: 3 2 7 4 9 4 3 6 5 5
FullNghs:      31471.9 ave       34143 max       28708 min
Histogram: 2 3 2 8 7 13 3 6 2 2

Total # of neighbors = 1510651
Ave neighs/atom = 377.66275
Neighbor list builds = 26933
Dangerous builds = 0

#clear
#
#next RN
#
#jump SELF
Total wall time: 0:21:12
