
units lj                  # Use reduced LJ style units
atom_style atomic         # Uncharged point particles
atom_modify map hash      # Needed for indexing of clusters etc
                          # Used to be able to find where atoms are in relation to each other.

lattice fcc 1.0 spacing 1 1 1
Lattice spacing in x,y,z = 1.5874011 1.5874011 1.5874011
region box block 0 10 0 10 0 10 units lattice
create_box 2 box
Created orthogonal box = (0.0000000 0.0000000 0.0000000) to (15.874011 15.874011 15.874011)
  3 by 4 by 4 MPI processor grid
create_atoms 1 box
Created 4000 atoms
  using lattice units in orthogonal box = (0.0000000 0.0000000 0.0000000) to (15.874011 15.874011 15.874011)
  create_atoms CPU = 0.002 seconds
set type 1 type/fraction 2 0.16 78393
Setting atom values ...
  677 settings made for type/fraction
mass 1 1.0
mass 2 1.0
pair_style lj/cut  3.5
pair_modify tail  yes
pair_coeff 1  1  1.0  1.0   # Intearaction between 1 and 1 set with epsilon = 1 and sigma = 1
pair_coeff 1  2  1.5  0.8
pair_coeff 2  2  0.5  0.88

write_data data.0
System init for write_data ...
Neighbor list info ...
  update every 1 steps, delay 10 steps, check yes
  max neighbors/atom: 2000, page size: 100000
  master list distance cutoff = 3.8
  ghost atom cutoff = 3.8
  binsize = 1.9, bins = 9 9 9
  1 neighbor lists, perpetual/occasional/extra = 1 0 0
  (1) pair lj/cut, perpetual
      attributes: half, newton on
      pair build: half/bin/atomonly/newton
      stencil: half/bin/3d
      bin: standard
WARNING: Not all mixed pair coeffs generated from mixing. Use write_data with 'pair ij' option to store all pair coeffs. (../write_data.cpp:312)


#############################
#   M E L T   S Y S T E M   #
#############################

velocity all create 2.4 9580093 mom yes dist gaussian # Assign velocities
                                                    # Temperature 2.4, random number seed, zero linear momentum
                                                                                # Gaussian distribution

timestep 0.002   # simulation timestep
thermo 1000       # output thermodynamic data every 1000 steps bf 100

# Define a fix  in this case with index 1 applied to all
# particles in the simulation. This fix is for simulations
# in the anisotropic NPT ensemble. Note that we use the MTK
# correction.
fix 1 all npt temp 2.4 2.4 0.1 iso 5.68 5.68 0.5 mtk yes tchain 5 pchain 5 # Use NPT ensemble
                                                                         # Set temperature and pressure and damping
                                                                         # Numbers of thermostats in chain and in barostat
run 10000          # run for 10000 steps
Per MPI rank memory allocation (min/avg/max) = 3.642 | 3.644 | 3.648 Mbytes
Step Temp E_pair E_mol TotEng Press Volume 
       0          2.4   -7.2871769            0   -3.6880769   -3.4159639         4000 
    1000    2.3573553   -4.7424268            0   -1.2072778    5.5175601    4636.2166 
    2000    2.3672173   -4.7523729            0   -1.2024346    5.7892609    4590.8466 
    3000    2.4010518   -4.7907274            0   -1.1900501    5.6673295    4590.5235 
    4000    2.4189644   -4.7122926            0   -1.0847532     5.857411    4621.7321 
    5000    2.3675869   -4.7293243            0   -1.1788318    5.4688897    4648.0603 
    6000     2.378223   -4.7747699            0   -1.2083271    5.9489197    4564.9072 
    7000     2.442116   -4.7855605            0   -1.1233023     5.472721    4613.7481 
    8000    2.3754974    -4.787098            0   -1.2247427    5.6881582    4584.9135 
    9000    2.4511808   -4.8214846            0   -1.1456326    5.7003713    4577.7218 
   10000    2.3880994   -4.7700948            0   -1.1888413    5.6822612    4593.2568 
Loop time of 2.35017 on 48 procs for 10000 steps with 4000 atoms

Performance: 735265.491 tau/day, 4255.009 timesteps/s
99.5% CPU use with 48 MPI tasks x no OpenMP threads

MPI task timing breakdown:
Section |  min time  |  avg time  |  max time  |%varavg| %total
---------------------------------------------------------------
Pair    | 0.93638    | 1.0067     | 1.0653     |   2.7 | 42.84
Neigh   | 0.19351    | 0.2024     | 0.20925    |   0.8 |  8.61
Comm    | 0.69203    | 0.77867    | 0.87801    |   5.1 | 33.13
Output  | 0.00023852 | 0.00024323 | 0.00030811 |   0.0 |  0.01
Modify  | 0.30357    | 0.34782    | 0.3813     |   4.6 | 14.80
Other   |            | 0.01433    |            |       |  0.61

Nlocal:        83.3333 ave          93 max          75 min
Histogram: 1 2 7 7 7 14 6 3 0 1
Nghost:        1500.00 ave        1526 max        1477 min
Histogram: 2 3 5 8 14 6 3 0 3 4
Neighs:        8301.75 ave        9441 max        7445 min
Histogram: 6 1 6 9 7 8 6 3 0 2

Total # of neighbors = 398484
Ave neighs/atom = 99.621000
Neighbor list builds = 912
Dangerous builds = 228

# Equilibrate just above the melting temperature to avoid step fn in T

fix 1 all npt temp 1.25 1.25 0.1 iso 5.68 5.68 0.5 mtk yes tchain 5 pchain 5
run 2000
Per MPI rank memory allocation (min/avg/max) = 3.642 | 3.644 | 3.648 Mbytes
Step Temp E_pair E_mol TotEng Press Volume 
   10000    2.3880994   -4.7700948            0   -1.1888413    5.6822612    4593.2568 
   11000    1.2494186   -6.3732542            0   -4.4995948    5.8964025     3776.732 
   12000    1.2348891    -6.417818            0   -4.5659474    5.4167865    3790.3321 
Loop time of 0.481306 on 48 procs for 2000 steps with 4000 atoms

Performance: 718046.594 tau/day, 4155.362 timesteps/s
99.7% CPU use with 48 MPI tasks x no OpenMP threads

MPI task timing breakdown:
Section |  min time  |  avg time  |  max time  |%varavg| %total
---------------------------------------------------------------
Pair    | 0.22095    | 0.23497    | 0.26484    |   1.9 | 48.82
Neigh   | 0.030974   | 0.032947   | 0.035997   |   0.5 |  6.85
Comm    | 0.1276     | 0.16009    | 0.17492    |   2.5 | 33.26
Output  | 4.9251e-05 | 5.057e-05  | 6.2851e-05 |   0.0 |  0.01
Modify  | 0.043375   | 0.048807   | 0.055416   |   1.3 | 10.14
Other   |            | 0.004439   |            |       |  0.92

Nlocal:        83.3333 ave          89 max          76 min
Histogram: 3 2 4 6 2 8 9 4 4 6
Nghost:        1699.33 ave        1724 max        1661 min
Histogram: 1 1 2 6 2 10 10 4 7 5
Neighs:        10062.8 ave       11306 max        9043 min
Histogram: 5 4 6 6 4 10 6 4 2 1

Total # of neighbors = 483014
Ave neighs/atom = 120.75350
Neighbor list builds = 140
Dangerous builds = 9

#############################
# L I N E A R  Q U E N C H  #
#############################

# Define solid atoms. This closely follows ten Wolde  Ruiz-Montero and Frenkel  Faraday Discuss  1996  104  93-110
# Compute components of the per-atom q6 vector
compute q6 all orientorder/atom degrees 1 6 components 6 nnn NULL cutoff 1.3 # compute the Q6 parameter.
                                                                             # Use all neighbours within 1.3 unit cell.

# get number of connections
compute coord_number all coord/atom orientorder q6 0.5

# An atom is solid if it has 8 or more connections (of a possible 14)
variable is_solid atom c_coord_number>=8
group solid dynamic all var is_solid    # Must be dynamic to update
dynamic group solid defined

# do clustering
compute cluster solid cluster/atom 1.3 # Create a cluster where all atoms within are solid and max 1.3 units from another member

# define chunks one chunk per cluster
compute clus_chunks solid chunk/atom c_cluster nchunk every compress yes  # Says which atoms are in which chunk

# count the size of each chunk
compute size_chunks solid property/chunk clus_chunks count


# Find the maximum entry in the vector of chunk sizes
variable max_n equal max(c_size_chunks)


# Thermo style which includes this variable
# thermo_style custom step temp pe vol v_max_n

thermo ${N}  # Print the thermo information every 100 steps
thermo 1000  

# Reset the npt fix at a lower temperature (below freezing)
fix 1  all npt temp  ${temp} ${temp}  0.1  iso  5.68  5.68  0.5  mtk yes tchain  5  pchain  5
fix 1  all npt temp  0.45 ${temp}  0.1  iso  5.68  5.68  0.5  mtk yes tchain  5  pchain  5
fix 1  all npt temp  0.45 0.45  0.1  iso  5.68  5.68  0.5  mtk yes tchain  5  pchain  5

dump dmp2 all dcd ${N} traj.dcd
dump dmp2 all dcd 1000 traj.dcd


compute msd all msd com yes
variable twopoint equal c_msd[4]/6/(step*dt+1.0e-6)
fix 9 all vector 10 c_msd[4]
variable fit equal slope(f_9)/6/(10*dt)
thermo_style custom step temp pe c_msd[4] v_twopoint v_fit v_max_n

fix 1 all npt temp 1.25 ${temp} 0.1 iso 5.68 5.68 0.5 mtk yes tchain 5 pchain 5
fix 1 all npt temp 1.25 0.45 0.1 iso 5.68 5.68 0.5 mtk yes tchain 5 pchain 5
run 5000000 # 5000000  # Run for this many steps
Neighbor list info ...
  update every 1 steps, delay 10 steps, check yes
  max neighbors/atom: 2000, page size: 100000
  master list distance cutoff = 3.8
  ghost atom cutoff = 3.8
  binsize = 1.9, bins = 9 9 9
  4 neighbor lists, perpetual/occasional/extra = 1 3 0
  (1) pair lj/cut, perpetual
      attributes: half, newton on
      pair build: half/bin/atomonly/newton
      stencil: half/bin/3d
      bin: standard
  (2) compute orientorder/atom, occasional
      attributes: full, newton on
      pair build: full/bin/atomonly
      stencil: full/bin/3d
      bin: standard
  (3) compute coord/atom, occasional
      attributes: full, newton on
      pair build: full/bin/atomonly
      stencil: full/bin/3d
      bin: standard
  (4) compute cluster/atom, occasional
      attributes: full, newton on
      pair build: full/bin/atomonly
      stencil: full/bin/3d
      bin: standard
Per MPI rank memory allocation (min/avg/max) = 9.762 | 9.770 | 9.774 Mbytes
Step Temp PotEng c_msd[4] v_twopoint v_fit v_max_n 
   12000    1.2348891    -6.417818 1.1229435e-30 7.7982184e-33 8.3333333e+20            2 
   13000    1.2713936   -6.4866308   0.53627391 0.0034376531  0.044683779            2 
   14000    1.2373835   -6.4315629    1.0435193 0.0062114244  0.042805212            1 
   15000    1.2350482   -6.4040621    1.5958616 0.0088658975  0.043311165            3 
   16000      1.24621   -6.4073013    2.1043473  0.010960142   0.04379738            1 
   17000    1.2484019   -6.4032862    2.6442695  0.012962105  0.043801875            5 
   18000    1.2512985   -6.4278673    3.2060821  0.014842972  0.043934066            2 
   19000    1.2392038    -6.412727    3.7583253  0.016483882  0.044491448            2 
   20000    1.2394589   -6.4720658    4.3130024  0.017970843  0.044700129            1 
   21000    1.2369551   -6.4107243    4.8964758  0.019430459  0.044949802            2 
   22000    1.2587156   -6.4334159    5.4448765  0.020624532  0.045231402            2 
   23000    1.2448724   -6.4232033    5.8869773  0.021329628  0.045247284            1 
   24000    1.2496398   -6.4453811    6.3518343   0.02205498  0.044880466            2 
   25000    1.2759299   -6.4146044    6.9293491   0.02309783  0.044674748            3 
   26000    1.2489415   -6.4559358    7.4253044  0.023799052  0.044532643            1 
   27000    1.2257001   -6.4654099     8.021398  0.024757401  0.044534787            6 
   28000    1.2468512   -6.4463197    8.6625505    0.0257814  0.044641967            1 
   29000    1.2099196   -6.4126857    9.0806915  0.026093941  0.044718378            2 
   30000    1.2974497   -6.4092093    9.6572374  0.026825659  0.044713934            3 
   31000    1.2373573   -6.4608287    10.170644  0.027340442  0.044725707            2 
   32000    1.2218018   -6.4636888    10.733717  0.027952389   0.04473314            1 
   33000     1.220881    -6.418064     11.29237  0.028516087  0.044752568            3 
   34000    1.2330359   -6.3749792    11.788117  0.028892444  0.044704563            3 
   35000    1.2761588   -6.3979022    12.279916  0.029237894   0.04465286            1 
   36000    1.2749701    -6.447888    12.773242   0.02956769  0.044564245            3 
   37000    1.2527345   -6.4884169    13.206613  0.029744623  0.044475445            2 
   38000    1.2475077   -6.4411587    13.846967  0.030366156  0.044386904            2 
   39000     1.233608   -6.4228933    14.585233  0.031165027  0.044410918            1 
   40000    1.2702456   -6.4606192    15.178697  0.031622285   0.04456953            1 
   41000    1.2847256     -6.41156    15.709839  0.031930567  0.044677136            3 
   42000    1.2127549   -6.4647162    16.267484  0.032276753  0.044788876            1 
   43000    1.2361541   -6.4475729    16.778706  0.032516872  0.044849989            4 
   44000    1.2705183   -6.4219196    17.317778  0.032798821  0.044898585            2 
   45000    1.2677639   -6.4532232    17.759294  0.032887582  0.044926957            1 
   46000    1.2507333   -6.4727517    18.287989  0.033130415  0.044933064            4 
   47000    1.2457612   -6.4647359    18.828202  0.033383337  0.044923751            5 
   48000    1.2220921   -6.4159247     19.36257  0.033615573  0.044925793            2 
   49000    1.2460727   -6.4800339    19.926761   0.03388905  0.044954369            5 
   50000    1.2409819   -6.4414034    20.535889  0.034226481  0.044991276            4 
   51000    1.2270813   -6.4490186    21.172331  0.034595311  0.045055623            1 
   52000    1.2461889   -6.4462555    21.596026  0.034609015  0.045103726            1 
   53000    1.2739609    -6.465107    22.207427  0.034917338   0.04512942            2 
   54000     1.236721   -6.4246546     22.85113  0.035264089  0.045164043            9 
   55000    1.2337498   -6.4534181    23.229303  0.035195914  0.045187695            2 
   56000    1.2246813    -6.417935    23.733175  0.035317224  0.045184288            7 
   57000    1.2281518   -6.4492691    24.277544  0.035493485  0.045160749            2 
   58000    1.2049067   -6.4336755    24.825484  0.035668799  0.045141997            3 
   59000    1.2729824   -6.4299358    25.332859  0.035780873  0.045130126            1 
   60000    1.2588365   -6.4385722    26.069637  0.036207829  0.045145017            2 
   61000     1.240883   -6.4719851    26.549461  0.036269755  0.045166379            2 
   62000    1.2367652   -6.4125708    26.953872  0.036228322  0.045162339            2 
   63000    1.2459977   -6.4349451    27.221447  0.036007204  0.045120181            5 
   64000    1.2618512   -6.4488511    27.603484  0.035942037  0.045052797            2 
   65000    1.2251238   -6.4700148    28.027471  0.035932655  0.044966084            2 
   66000    1.2509162   -6.4406805    28.764478  0.036318785  0.044897504            8 
   67000    1.2382283    -6.436837    29.219873  0.036343126  0.044855497            2 
   68000    1.2271588   -6.4064334     29.80728  0.036528529  0.044809773            2 
   69000    1.2283087   -6.4276782    30.254822   0.03653964  0.044761336            2 
   70000    1.2136612   -6.4596329    30.782368  0.036645676  0.044699496            2 
   71000    1.2642016   -6.3915522    31.331112  0.036773606  0.044650113            2 
   72000    1.2265976   -6.5163039    31.528035  0.036490781   0.04458698            4 
   73000    1.2498648   -6.4369956    32.181342  0.036736691  0.044514704            1 
   74000    1.2517427   -6.4624816    32.828679  0.036969233   0.04446371            1 
   75000    1.2294087    -6.433088    33.305712  0.037006347  0.044408255            3 
   76000    1.2580361   -6.4919338    33.833934  0.037098611  0.044366816            3 
   77000    1.2570431   -6.4731352    34.583345  0.037427863  0.044332673            2 
   78000    1.2457499   -6.3991062    35.331438  0.037747263  0.044335111            3 
   79000    1.2294604    -6.454996    35.413848  0.037356379   0.04432598            3 
   80000    1.2423772   -6.4234345    36.101876  0.037606121  0.044298788            1 
   81000    1.2372785   -6.4404876      36.6782  0.037734773  0.044286621            2 
   82000    1.2548643   -6.4455473    37.175435  0.037779913  0.044277331            1 
   83000    1.2512306   -6.4581475    37.424686  0.037574986    0.0442544            2 
   84000    1.2077366   -6.4558675    38.058776  0.037756722   0.04422087            2 
   85000    1.2084237   -6.4310255     38.70474  0.037945823  0.044197695            2 
   86000    1.2556666   -6.4858406    39.113022  0.037900215  0.044173842            3 
   87000    1.2430537   -6.4115142    39.695155  0.038022179  0.044159166            4 
   88000    1.2230492   -6.3976007    40.364094  0.038223573  0.044146615            2 
   89000    1.2497079   -6.4324654    40.738652  0.038144805  0.044134396            3 
   90000    1.2185505   -6.4282074    41.319681  0.038258964  0.044122951            5 
   91000    1.2435387   -6.4615655     41.80926  0.038286868  0.044106104            2 
   92000      1.20658   -6.4471759     42.43259  0.038435317  0.044091967            2 
   93000    1.2616907   -6.4477531    42.876755  0.038420031  0.044085163            3 
   94000    1.2242467   -6.4936027    43.630294  0.038679339  0.044086247            2 
   95000    1.2399535   -6.4712136    44.034758   0.03862698  0.044086987            2 
   96000    1.2515582   -6.4135695    44.713645  0.038813928  0.044083392            4 
   97000    1.2333752   -6.4707785    45.048329  0.038701314  0.044083404            1 
   98000     1.238123   -6.4829826    45.537361  0.038722246  0.044079446            2 
   99000    1.2323371   -6.4666012    46.132553  0.038832115  0.044073495            1 
  100000    1.2411869   -6.4535638    46.687692   0.03890641  0.044073236            2 
  101000    1.2371833   -6.4715204    47.000504  0.038779294  0.044068588            1 
  102000    1.2383141   -6.4431873    47.601438  0.038890063  0.044065284            4 
  103000    1.2546468   -6.4574868    48.039812  0.038867161  0.044056789            2 
  104000    1.2216842   -6.4632791    48.777554  0.039084578  0.044050937            2 
  105000    1.2292527   -6.4272008    49.424555  0.039225837  0.044044887            1 
  106000    1.2335476   -6.4314722    49.668125  0.039047268  0.044046258            3 
  107000    1.2262917   -6.4587486    50.176653   0.03907839  0.044039164            3 
  108000     1.225144   -6.4530368    50.971551    0.0393299  0.044030549            1 
  109000    1.2019129   -6.3927905    51.459063  0.039341791  0.044028138            4 
  110000    1.2417652   -6.4608776    51.866182  0.039292562  0.044020574            1 
  111000    1.2051767   -6.4739632    52.140117  0.039144232  0.044009085            2 
  112000    1.2104593   -6.5026271    52.544841  0.039095864  0.043995299            5 
  113000    1.2155539    -6.448931    53.392449  0.039374962  0.043979447            2 
  114000    1.2390295   -6.4744565    53.508084  0.039114096  0.043959723            3 
  115000    1.2243718   -6.4764379    54.191789  0.039269412  0.043945055            4 
  116000    1.2283807   -6.4448113    54.869482  0.039417731  0.043928679            2 
  117000    1.2337394   -6.4936526    55.097004  0.039242881  0.043916799            1 
  118000    1.2329136   -6.4609424    55.541331  0.039224104  0.043900637            1 
  119000    1.2243927   -6.4798763    56.191579  0.039349845  0.043883431            4 
  120000    1.2123917    -6.413484    57.045207  0.039614727   0.04387024            2 
  121000    1.2379145   -6.4565424    57.337181  0.039488417   0.04385648            3 
  122000    1.2271901   -6.5165985    58.015889  0.039628339   0.04384489            1 
  123000    1.2533963   -6.4362269    58.727673  0.039788396  0.043842555            4 
  124000    1.2246781   -6.4428028    59.260582  0.039825659  0.043845113            2 
  125000    1.2254693   -6.5035535    59.795257  0.039863504  0.043840798            2 
  126000    1.2546985   -6.4231564    60.359437  0.039920263  0.043838938            5 
  127000    1.2215696   -6.4103773    60.699902  0.039829332  0.043833956            4 
  128000    1.2116664    -6.483452    60.652067  0.039487022  0.043824904            1 
  129000     1.229662   -6.4747705    61.284605  0.039589538  0.043809649            3 
  130000    1.2557103   -6.4738561    61.551764  0.039456259  0.043788284            1 
  131000    1.2589872   -6.4803115    62.242182  0.039594263  0.043765295            2 
  132000    1.2528537   -6.4766478    62.582037  0.039508862   0.04374279            1 
  133000    1.2482006   -6.4690474    63.118145   0.03954771  0.043719638            2 
  134000    1.2286668   -6.4478038     63.19332  0.039299328  0.043688042            1 
  135000    1.2337085   -6.4574358    63.637367  0.039282325  0.043653338            2 
  136000    1.2230565   -6.4951776    63.931189  0.039173522  0.043615817            1 
  137000    1.2236712   -6.4658864     64.57363  0.039278364  0.043574868            1 
  138000    1.2523099   -6.4614543    64.854928  0.039163604  0.043530605            2 
  139000    1.2249102   -6.4683801    65.428201   0.03922554  0.043490695            2 
  140000     1.241764   -6.4550841    66.061143  0.039322109  0.043449874            2 
  141000    1.2286598   -6.5033888    66.424884  0.039258205  0.043411393            2 
  142000    1.2184283   -6.4255342    66.919437   0.03927197  0.043375548            1 
  143000    1.2110368   -6.4630923    67.640855  0.039417748  0.043343591            1 
  144000    1.2422193   -6.4671103    67.986431  0.039343999  0.043309788            3 
  145000    1.2114434   -6.4713393    68.525711  0.039382592  0.043276129            2 
  146000    1.2157982   -6.4301582    68.979767  0.039372013  0.043247597            2 
  147000    1.2397947   -6.4942819    69.378765  0.039330366  0.043217048            1 
  148000    1.2449824    -6.455674    70.154978  0.039501677  0.043189726            2 
  149000     1.217897   -6.4433008    70.697818  0.039540167  0.043164287            7 
  150000    1.2258182    -6.448908    71.515138  0.039730632  0.043139489            1 
  151000    1.2363039   -6.5102689    71.850532  0.039652611   0.04311918            1 
  152000    1.2162551   -6.5084132    72.235196  0.039602629  0.043096643            2 
  153000    1.2337014   -6.5027643    72.590817  0.039537482  0.043073137            4 
  154000    1.2208166    -6.481715    73.259496  0.039642584  0.043051164            2 
  155000    1.2073017   -6.4465161    73.874888  0.039717682  0.043033167            2 
  156000    1.2324511   -6.4717455    74.138501    0.0396039  0.043015396            2 
  157000    1.2249427   -6.4759286    74.262342  0.039417379  0.042993702            2 
  158000    1.2382159   -6.4600382    75.198097  0.039661443  0.042972195            2 
  159000    1.2207226   -6.4553143    75.716803  0.039683859  0.042951398            2 
  160000    1.2336527   -6.4741027    75.741992  0.039448954  0.042925964            1 
  161000    1.2537569   -6.4758205    76.474509  0.039583079  0.042901881            3 
  162000    1.2208977   -6.4638556    76.971139  0.039594207  0.042878819            3 
  163000    1.2323615   -6.4575065    77.638992  0.039692736  0.042858339            2 
  164000    1.2406506   -6.4901615    78.099886  0.039684901  0.042840077            2 
  165000    1.2315261   -6.5301106    78.763925   0.03977976  0.042822014            2 
  166000     1.249675   -6.4646862    79.079196  0.039698391  0.042805794            3 
  167000    1.2163326   -6.4899152    79.553308  0.039697259  0.042789828            1 
  168000    1.2150217   -6.5186574    80.080608  0.039722524   0.04277173            2 
  169000    1.2559733   -6.4397341    80.447825  0.039668553  0.042752144            3 
  170000    1.2151137    -6.475642    80.887558  0.039650764  0.042736645            4 
  171000    1.2174654   -6.4994281    81.441826  0.039688999  0.042716018            1 
  172000    1.2049326   -6.4800328    82.306974   0.03987741  0.042699976            2 
  173000    1.2284308   -6.5181414    82.494086  0.039737035  0.042683673            3 
  174000    1.2184481   -6.5001373    83.000211  0.039751059  0.042668931            1 
  175000    1.2239509   -6.4809942    83.664947  0.039840451  0.042653143            3 
  176000      1.21246   -6.4538565    84.222559  0.039878105  0.042639592            1 
  177000    1.2214936   -6.4853555    84.547813  0.039805938  0.042624037            4 
  178000    1.2383432   -6.4831697    85.159916  0.039868874  0.042608045            3 
  179000    1.2225492   -6.4657576     85.45011  0.039781243   0.04259574            1 
  180000    1.2175434   -6.4850444    86.150377  0.039884434  0.042582838            3 
  181000    1.2165482   -6.4540637    86.575388  0.039859755  0.042572408            3 
  182000    1.2269526   -6.5145955    87.042934  0.039854823   0.04255761            2 
  183000    1.2219204   -6.4544422    87.386743  0.039793599  0.042543382            2 
  184000    1.1894533   -6.4963804    88.051674  0.039878475  0.042530196            1 
  185000    1.2303005   -6.4496453    88.926046  0.040056777  0.042518354            6 
  186000    1.2587298    -6.442854     89.30739  0.040012271  0.042510864            2 
  187000    1.2299255   -6.4788897    89.845051  0.040037901  0.042502491            1 
  188000    1.2246171   -6.5088382    90.361321  0.040053777  0.042495135            5 
  189000    1.2089335   -6.5038447    91.071355  0.040154918  0.042489625            1 
  190000     1.238164   -6.4732534    91.838677  0.040280122  0.042484915            2 
  191000    1.2163087   -6.4945273    92.023251   0.04014976  0.042481057            3 
  192000    1.2105795   -6.4828662    92.543195  0.040166317  0.042477781            2 
  193000    1.2395347   -6.4913448    93.059166  0.040180987  0.042474467            3 
  194000    1.2194414   -6.5015753    93.431386  0.040133757  0.042467956            4 
  195000    1.2356044   -6.5074791    93.724761  0.040053316  0.042461832            4 
  196000    1.2429383    -6.474939    94.516041  0.040185392  0.042452937            1 
  197000    1.2213748   -6.4766138    94.823043   0.04011127  0.042445753            1 
  198000    1.2046945   -6.4528137    95.510088  0.040197848  0.042437996            5 
  199000    1.2018824   -6.4776145    95.901359  0.040159698  0.042430453            4 
  200000    1.2283767   -6.4734363    96.184082  0.040076701  0.042421704            2 
  201000    1.2229398   -6.4600964    96.976765  0.040205955  0.042413315            3 
  202000    1.2186781   -6.4827833    97.453457  0.040203571  0.042406403            3 
  203000    1.2334242   -6.5339331    97.809565   0.04015171   0.04239697            2 
  204000    1.2321203   -6.4756609    98.382615  0.040188977  0.042389152            3 
  205000    1.1924368   -6.5200991    98.188704  0.039914107  0.042378252            3 
  206000    1.2320814   -6.4935226    98.895373  0.040006219  0.042366832            2 
  207000    1.2126626   -6.4979006    99.242242  0.039952593  0.042357118            2 
  208000    1.2182432   -6.5320194    100.12643  0.040114755    0.0423489            3 
  209000     1.217841   -6.5051831    100.52996  0.040083714  0.042339034            2 
  210000    1.2221266   -6.4671596     100.9771  0.040070279  0.042330772            3 
  211000     1.224958    -6.477312    101.70642  0.040168411  0.042321802            1 
  212000     1.218874   -6.4812604     101.8085  0.040019066  0.042313526            5 
  213000    1.1992573     -6.49049    102.39158  0.040059302  0.042304725            3 
  214000    1.2199494   -6.5045426    103.24296  0.040203646   0.04229512            2 
  215000    1.2228494   -6.4814586    103.37817  0.040069058  0.042287084            3 
  216000    1.2115829    -6.494514    103.82148  0.040054584  0.042278822            4 
  217000    1.2116527   -6.4937591    104.54996  0.040149753  0.042270886            1 
  218000    1.2279344   -6.4582746    104.85075  0.040080562  0.042264086            2 
  219000    1.2069075   -6.4676156    105.81295  0.040263681  0.042256276            1 
  220000    1.2171998   -6.4613283    106.17252  0.040216865  0.042250813            1 
  221000     1.230732   -6.5180883    106.81907  0.040278685  0.042246766            2 
  222000    1.2245382    -6.527283    107.18457   0.04023445  0.042241182            3 
  223000    1.2257525   -6.4837308    108.08951  0.040392194  0.042238283            1 
  224000    1.2099133   -6.4339625    108.69759  0.040438093  0.042237746            2 
  225000    1.2107283   -6.5033154    109.25482  0.040464748   0.04223536            3 
  226000    1.2128911   -6.4888929    109.49927  0.040375837  0.042234682            1 
  227000    1.1952596   -6.5062665    110.23052  0.040466418  0.042235259            2 
  228000    1.2014798   -6.4799144    110.83179  0.040508694  0.042238061            1 
  229000    1.2142019   -6.5118501    110.92551  0.040365907  0.042239908            3 
  230000    1.1933031   -6.4713826     111.9183  0.040550109  0.042241166            1 
  231000    1.2321227   -6.4652393    112.33768   0.04052586  0.042242745            2 
  232000    1.2178548    -6.452499     113.0681  0.040613542  0.042243833            3 
  233000    1.2300546   -6.4749462    113.42057  0.040565297  0.042245437            1 
  234000    1.1861435   -6.4836633    114.43766  0.040754153  0.042248192            2 
  235000    1.1851219   -6.5019813    114.22959  0.040506947  0.042250792            5 
  236000    1.1786681   -6.5010475    115.21066  0.040681731  0.042250361            2 
  237000    1.1880572   -6.4625201    116.18627   0.04085312  0.042253362            2 
  238000    1.2110788   -6.5074682    115.97909  0.040608924  0.042257541            4 
  239000    1.2304852   -6.4856508    116.53971  0.040634487  0.042260335            1 
  240000    1.2500924   -6.5054974    117.15727  0.040679608  0.042263458            2 
  241000     1.224194   -6.4655995    117.64723  0.040680232  0.042265523            1 
  242000     1.224169   -6.4683492    117.75811  0.040550314  0.042268243            3 
  243000    1.2319715   -6.4891189    118.68165  0.040700154   0.04226994            3 
  244000    1.2062201   -6.5134015    118.63054  0.040515894   0.04227187            6 
  245000    1.2201497    -6.536796    119.28085  0.040571718  0.042271339            2 
  246000    1.2080023    -6.498777    119.73637    0.0405611  0.042269709            2 
  247000    1.2073956   -6.5167586    120.09282  0.040517147  0.042268058            2 
  248000     1.215747   -6.4896954     120.8135  0.040595934  0.042266265            1 
  249000    1.2113221   -6.5045548    121.21771  0.040568175  0.042263771            2 
  250000    1.2396866   -6.4916853    121.48649  0.040495497  0.042260317            3 
  251000    1.2244343   -6.5061333    121.88332  0.040465911  0.042257367            2 
  252000    1.2047981   -6.5633705    122.43709  0.040488456  0.042254157            1 
  253000    1.1955421   -6.4963729    123.22883  0.040589207  0.042250245            3 
  254000    1.2189692   -6.4841232    123.00127  0.040354748  0.042246878            2 
  255000    1.2022953   -6.5406871     124.1025  0.040556371  0.042243607            2 
  256000    1.2159561   -6.5057412    125.00334   0.04069119  0.042241556            1 
  257000     1.223243   -6.4850422    125.81987  0.040797622   0.04224298            2 
  258000    1.2256717   -6.4860876    125.91039  0.040668731   0.04224487            1 
  259000    1.2005169   -6.4850855    126.84372  0.040812006   0.04224597            2 
  260000    1.2229418   -6.4960224     126.9363  0.040684713  0.042245211            2 
  261000    1.2274787   -6.5321347    127.25914  0.040631908  0.042244789            3 
  262000    1.2107492   -6.5221672    127.96756   0.04070215  0.042244883            2 
  263000     1.220652   -6.4935281    128.79695  0.040810186  0.042245867            1 
  264000    1.2083866   -6.5171318    129.30822   0.04081699  0.042246978            2 
  265000    1.2076821   -6.5181035    129.73631  0.040797582  0.042250501            1 
  266000    1.2120458    -6.519207    130.33184  0.040830778  0.042251495            3 
  267000    1.2001116   -6.4871942    130.71331  0.040796914  0.042254893            3 
  268000    1.1830197   -6.5084406    131.89351  0.041011663  0.042257939            2 
  269000    1.2028319   -6.4768478    132.02684  0.040900509  0.042261374            1 
  270000     1.232793   -6.5282752    132.62951  0.040935033  0.042267004            4 
  271000    1.2121547   -6.4837606    133.26911  0.040980662  0.042271311            2 
  272000    1.1828848   -6.4725729    133.34031  0.040851809  0.042274315            2 
  273000    1.1832684   -6.5080028    134.54192  0.041068963  0.042278282            2 
  274000    1.2296228   -6.4537918    135.49603  0.041209255  0.042285126            2 
  275000    1.2052973   -6.5321941    134.94843  0.040893463  0.042291085            2 
  276000    1.2101102   -6.5024732    135.09269  0.040788857  0.042293954            2 
  277000    1.1967798    -6.498579    136.20772  0.040977051  0.042295752            1 
  278000    1.1762794   -6.4966158    136.69566  0.040975917  0.042298147            1 
  279000    1.2316546   -6.4687778    137.28041  0.041003708  0.042301348            1 
  280000    1.1831401   -6.4710445    137.54802   0.04093691  0.042303573            2 
  281000     1.211776   -6.4909832    138.09925  0.040954701  0.042305932            3 
  282000    1.1945473     -6.50308    138.76608  0.041006525  0.042308302            4 
  283000    1.1942633   -6.5103361    138.55696  0.040800047  0.042308609            1 
  284000     1.203895   -6.5403299    138.94854  0.040771286  0.042307255            1 
  285000     1.216879   -6.4769945    140.20159  0.040994616  0.042307632            4 
  286000    1.2076226   -6.5100284    139.98466  0.040788071  0.042308356            2 
  287000    1.2332251   -6.5423206    140.31451  0.040741728  0.042307479            1 
  288000    1.2153677   -6.5181462    140.73921  0.040723152  0.042305105            3 
  289000    1.2029661   -6.4862151    141.22202  0.040721459  0.042301634            2 
  290000    1.1900107   -6.4990137    141.47779  0.040654538  0.042296909            5 
  291000    1.2064169    -6.480675    141.97397   0.04065692   0.04229311            1 
  292000    1.1915447   -6.5307614    142.23652  0.040592613  0.042287819            4 
  293000    1.1866019   -6.5106983    143.06588  0.040689955  0.042281662            1 
  294000    1.1881056   -6.5099876    143.41885  0.040651601  0.042276339            2 
  295000    1.2060119   -6.5378122    143.62608  0.040572338  0.042271045            1 
  296000    1.2013409   -6.5489521    144.26969  0.040616468  0.042264839            2 
  297000    1.2133734   -6.5191655    145.36296  0.040786464  0.042260372            1 
  298000    1.1957172   -6.5144562    145.26372  0.040621844  0.042256414            5 
  299000    1.2011211   -6.5053038    145.94622  0.040676204  0.042252058            2 
  300000    1.2023847    -6.528713    146.70437  0.040751213  0.042250573            2 
  301000     1.213296   -6.5124965    147.24483  0.040765455   0.04224803            1 
  302000    1.2052058   -6.5133216    147.67347  0.040748749  0.042245072            2 
  303000    1.2012205   -6.4888252    148.18013  0.040753612  0.042243198            2 
  304000    1.2163836   -6.4902575    148.26205  0.040642009  0.042240812            5 
  305000    1.1981019   -6.5458075    148.76386  0.040645864  0.042236595            3 
  306000    1.2039656   -6.5273573    149.49998  0.040713501   0.04223187            1 
  307000    1.1820465   -6.4813507     150.6272  0.040886861  0.042228743            4 
  308000    1.1758676   -6.5241086    150.20004  0.040638538  0.042224636            1 
  309000    1.2082197   -6.5137258    151.06655   0.04074071  0.042219644            2 
  310000    1.1850564   -6.5033016    151.75205  0.040793562  0.042215268            2 
  311000    1.2027959   -6.4919739    152.33055  0.040817402  0.042211331            3 
  312000    1.1933793   -6.5161179    152.69996  0.040785245  0.042207533            2 
  313000    1.2037643   -6.5107386    153.07646  0.040755182  0.042203317            2 
  314000    1.1795087   -6.5023704    153.05528  0.040619767  0.042198781            1 
  315000      1.18789   -6.5049413    153.64664   0.04064726  0.042193201            2 
  316000    1.1909855     -6.48227    154.08815  0.040635059  0.042186927            1 
  317000     1.192068   -6.5357882    154.16859  0.040528021  0.042179785            1 
  318000    1.2223982   -6.5172559     155.2426  0.040682022  0.042172718            2 
  319000    1.2214605   -6.4982619      155.006  0.040492685  0.042165686            1 
  320000    1.2253418   -6.5066854    155.62803  0.040528134  0.042158554            1 
  321000    1.1961319   -6.5137798    155.96849  0.040490261  0.042151138            1 
  322000    1.1807198   -6.5842592     156.3412  0.040460973  0.042143138            4 
  323000    1.1878114   -6.5398104    156.75743  0.040443095  0.042134489            2 
  324000    1.2078093   -6.4943628    157.37108  0.040476101  0.042126201            2 
  325000    1.2224035   -6.5171563    157.49064  0.040382215  0.042118397            3 
  326000    1.2122425   -6.5463627    157.90826  0.040365098  0.042110332            1 
  327000    1.1988982   -6.5126453    158.72465  0.040449708  0.042102052            1 
  328000    1.2007177   -6.5420047    159.21369  0.040450633  0.042094099            3 
  329000    1.1930215   -6.5151163    159.61368  0.040428997  0.042084842            8 
  330000    1.1960488   -6.4997702    160.57726  0.040549812  0.042077311            4 
  331000    1.2140273   -6.5433913    160.22461  0.040338523  0.042069142            2 
  332000    1.2014464   -6.5019272    161.45654  0.040526239  0.042059106            1 
  333000    1.2004284   -6.5380781    161.62465   0.04044661  0.042049485            1 
  334000    1.2113903   -6.5069606     162.6257  0.040575275  0.042040824            1 
  335000    1.2181494   -6.5321788    162.89961  0.040522291  0.042032914            3 
  336000     1.199389   -6.5228645    162.87433  0.040395419  0.042024312            4 
  337000    1.2051759   -6.5127012    163.69082  0.040477453   0.04201591            2 
  338000    1.2013378   -6.5283037    163.27179  0.040254385  0.042007383            2 
  339000    1.2306332   -6.5030862    164.33553  0.040397131  0.041996699            1 
  340000    1.1967533   -6.5476245    164.74684  0.040379127  0.041986175            3 
  341000    1.2066613   -6.5571873     164.8575  0.040287756  0.041976073            2 
  342000    1.1750133   -6.5374791    166.08243  0.040468428  0.041966103            3 
  343000    1.2001445   -6.5332748    165.93725  0.040315173  0.041957732            2 
  344000    1.2106336    -6.547971    166.33371  0.040294018  0.041948731            1 
  345000    1.2029704   -6.5129535    167.99853  0.040579355  0.041940201            2 
  346000    1.2076729   -6.5217463    167.38066  0.040313261  0.041931419            2 
  347000       1.1926   -6.5035273    168.88264  0.040557791  0.041922368            1 
  348000    1.1917588   -6.5343871    167.68853  0.040155299  0.041913805            1 
  349000    1.1974822   -6.5147634    169.19604  0.040400201  0.041903575            2 
  350000    1.1815734   -6.5298613    169.72648  0.040411067   0.04189591            3 
  351000    1.1842771   -6.4786202    170.86165  0.040565443   0.04188746            2 
  352000     1.210017   -6.5484489     170.2166  0.040297491  0.041880154            3 
  353000    1.1822579   -6.5283235    171.21016  0.040417886  0.041871981            1 
  354000    1.1937387   -6.5243818    171.01602  0.040258008  0.041863012            3 
  355000    1.1905249   -6.4994684    172.08562  0.040395685  0.041854267            2 
  356000    1.1897332   -6.5041682    172.63192  0.040410094  0.041845195            1 
  357000     1.203662   -6.5553268     173.2361  0.040437931  0.041837559            1 
  358000    1.2321353   -6.5595372    173.58834   0.04040697  0.041829333            2 
  359000     1.189205   -6.5088755    173.77495  0.040337733  0.041821025            3 
  360000     1.189994   -6.5196454     174.5555  0.040406365  0.041812577            2 
  361000    1.2155819   -6.5222866    174.81316  0.040353915  0.041802907            2 
  362000    1.1718532   -6.5333104    174.52221  0.040175462  0.041793372            2 
  363000     1.188023   -6.5522771    175.72663  0.040341282  0.041784021            2 
  364000    1.2014615   -6.5971998    174.90479  0.040042306   0.04177413            2 
  365000    1.1865708   -6.5553771    175.91994  0.040164369  0.041763819            2 
  366000      1.19365   -6.5382307    176.60953  0.040211641  0.041753956            3 
  367000    1.2006695   -6.5364117    176.88073  0.040163652  0.041743803            1 
  368000    1.1819436   -6.5270501    177.43521  0.040180075  0.041732277            2 
  369000    1.1938809   -6.4838487    177.71392  0.040134129  0.041720961            2 
  370000    1.2206945   -6.5521233    177.69448  0.040021279  0.041709594            5 
  371000    1.1961252   -6.5264327    178.14935  0.040015576  0.041696885            2 
  372000    1.1898371   -6.5257304    179.00544  0.040099785  0.041683706            2 
  373000    1.2209218   -6.5353009    178.04232  0.039777104  0.041670042            2 
  374000    1.2010744    -6.508164    179.52613  0.040001366   0.04165531            3 
  375000     1.196928   -6.5408361    179.51374  0.039891942  0.041641203            2 
  376000    1.2012093   -6.5157263    180.39395  0.039980929  0.041627654            1 
  377000    1.1990406   -6.5284115     181.7374  0.040171838  0.041615097            2 
  378000    1.1910874   -6.5764012    181.12244  0.039929992  0.041602711            5 
  379000    1.1930353   -6.5395726    181.65075  0.039940798   0.04159007            2 
  380000    1.1653184   -6.5574233    182.59326  0.040042382   0.04157729            2 
  381000    1.1917363   -6.5310156    182.37716  0.039890018  0.041565051            2 
  382000     1.201855   -6.5477678    183.33729  0.039995045  0.041552824            4 
  383000    1.2048321   -6.5483777     183.8998  0.040013012  0.041540997            1 
  384000    1.1892182   -6.4968837    184.13199  0.039959198  0.041529339            2 
  385000    1.1881677   -6.5445357    185.84302  0.040225762  0.041519123            2 
  386000    1.1866161   -6.5397023    186.38303  0.040238133  0.041509503            3 
  387000    1.1753546   -6.5209977    186.15037  0.040084059  0.041499757            2 
  388000    1.1739447   -6.5335046     186.4156  0.040037714  0.041489804            2 
  389000    1.1758376   -6.4946852    187.99727  0.040273623  0.041481019            1 
  390000    1.2030723   -6.5467617    187.54072  0.040072803  0.041472506            3 
  391000    1.1748297   -6.5490531    188.38835  0.040150969  0.041463314            3 
  392000    1.1890294   -6.5023935    189.44897  0.040274015  0.041455155            1 
  393000    1.1914802   -6.5491808    189.45506  0.040172829  0.041446972            1 
  394000    1.1678421   -6.5198787    190.06942  0.040200808  0.041439637            2 
  395000     1.203912   -6.5883997    190.54829  0.040200061  0.041433617            1 
  396000    1.1774376   -6.5245064    191.61649  0.040323336  0.041427147            2 
  397000    1.1797626   -6.5467371    191.58502   0.04021516  0.041420304            3 
  398000    1.1424034   -6.5458522    192.23425  0.040250052  0.041414396            2 
  399000    1.2001034   -6.5770273    192.05019  0.040110733  0.041407025            3 
  400000    1.2117523   -6.5503431    192.63143  0.040131548  0.041399606            3 
  401000    1.2168009   -6.5496122    192.51256  0.040006767  0.041390719            2 
  402000    1.1693666   -6.5431217    193.59747  0.040132146   0.04138089            1 
  403000    1.1790032   -6.5322373    193.65361  0.040044171   0.04137167            2 
  404000    1.1957676   -6.5190173    193.67277  0.039949003  0.041361828            2 
  405000    1.1886112   -6.5656733    194.64923  0.040051282  0.041351099            1 
  406000    1.1913558   -6.5535045    193.78645  0.039775545  0.041340067            2 
  407000    1.2169279   -6.5425883    195.26726  0.039981011  0.041327942            1 
  408000     1.206861   -6.5447575     195.7487  0.039981351  0.041316027            3 
  409000    1.2019187   -6.5283979    195.97753  0.039930222  0.041305019            2 
  410000    1.1686222   -6.5675125    196.76618  0.039993127  0.041294112            3 
  411000    1.1842323   -6.5393795    196.71811  0.039886073  0.041282351            2 
  412000    1.1723386   -6.5055637    197.43092  0.039933439  0.041271976            2 
  413000    1.1893438   -6.5083111    198.00866  0.039953321   0.04126255            4 
  414000    1.1813247   -6.5315979    198.91665  0.040039582  0.041252538            3 
  415000    1.1478941   -6.5406516    199.50708  0.040061662  0.041242641            1 
  416000    1.1622941   -6.5772956    198.89664  0.039843077  0.041232061            1 
  417000    1.2018742   -6.5321331    200.25753   0.04001949  0.041222511            2 
  418000    1.1800863   -6.5630539    200.19972  0.039912224  0.041212609            2 
  419000    1.1762215   -6.5114433    201.32197   0.04004017  0.041203566            2 
  420000    1.1974999   -6.4874588    201.61578  0.040003131  0.041194326            1 
  421000    1.1712209   -6.5509287    201.93651  0.039971597  0.041185371            1 
  422000    1.1768552   -6.5552323    202.81689  0.040050729  0.041176352            4 
  423000    1.1996516   -6.5254329    203.22044  0.040035548  0.041168338            2 
  424000    1.1743207   -6.5430433    202.36806  0.039773596  0.041158998            1 
  425000     1.172694    -6.535131    203.98616  0.039997286  0.041148702            2 
  426000      1.18254   -6.5682111    204.00711  0.039907495  0.041139503            2 
  427000    1.1963983   -6.4999281    204.70995    0.0399512   0.04112934            3 
  428000    1.1854433   -6.5425236    204.97722  0.039909895  0.041119611            1 
  429000    1.1758812   -6.5512924    205.91756  0.039999526  0.041110452            1 
  430000    1.2110456     -6.56606    206.41108  0.040002147  0.041101713            2 
  431000     1.186186   -6.5337928    206.70928  0.039966991    0.0410935            3 
  432000     1.166938   -6.5679702    205.76903  0.039693099  0.041084252            2 
  433000    1.1764618   -6.5430397    207.23217   0.03988302   0.04107535            2 
  434000    1.1851258   -6.5352434    207.67298  0.039875763  0.041066277            2 
  435000    1.1732052   -6.5268213     208.9481  0.040028372  0.041059111            2 
  436000    1.1782995   -6.5745745    209.52139  0.040046137  0.041051936            3 
  437000    1.1838669   -6.5008491    210.15357  0.040075051  0.041045454            2 
  438000    1.1658157    -6.559443    209.91708  0.039938562  0.041038301            2 
  439000    1.2013838   -6.5261907    210.88372  0.040031078   0.04103082            3 
  440000    1.1530136   -6.5405096    211.74349  0.040102934  0.041024278            1 
  441000    1.2020758   -6.5597809    211.47894  0.039962007  0.041018125            2 
  442000    1.1674194   -6.5012748     213.0217  0.040162461  0.041011716            2 
  443000    1.1777507   -6.5567143    213.01495  0.040070533  0.041006031            2 
  444000    1.1695487   -6.5750597    212.64576  0.039910991  0.040999281            2 
  445000    1.1755663   -6.5671518    213.90661  0.040057417  0.040993374            5 
  446000    1.1687471   -6.5373443    213.75492  0.039939259  0.040986483            3 
  447000    1.1741462   -6.6044968    213.96589  0.039889242  0.040978301            7 
  448000    1.1831027   -6.5633625    214.88156  0.039970528  0.040970126            2 
  449000    1.1632333   -6.5638633    214.58194  0.039825898  0.040961707            3 
  450000    1.1610626   -6.5448757    215.86022  0.039974114  0.040954279            1 
  451000    1.1983896   -6.5831352    215.77324  0.039869408  0.040946237            2 
  452000    1.1826817   -6.5861051    215.64238  0.039757076  0.040937535            1 
  453000    1.1777952   -6.5604133    216.40856  0.039810258  0.040929815            2 
  454000    1.1724522   -6.5802411    216.67138  0.039770812  0.040921693            3 
  455000    1.1926782   -6.5434312    217.77268  0.039885106  0.040913635            3 
  456000    1.1912345   -6.5025253    218.22912  0.039881052  0.040905556            2 
  457000    1.1727791   -6.5612244    217.99843   0.03975172  0.040897349            6 
  458000    1.1925328    -6.587646    219.23582  0.039890069  0.040888993            2 
  459000    1.1598405   -6.5790097     219.0611  0.039771442  0.040880649            2 
  460000    1.1693429   -6.5430448    220.03382  0.039861199  0.040872686            3 
  461000    1.2008799   -6.5753237    219.91363  0.039753007  0.040864812            2 
  462000    1.1782804   -6.5867081    220.57033  0.039785413  0.040856868            1 
  463000    1.1794794   -6.5674995    221.12292  0.039798942   0.04084908            2 
  464000    1.1785151   -6.5750143    222.19528  0.039905762  0.040841069            3 
  465000    1.1801252    -6.539097    221.83883  0.039756063   0.04083286            2 
  466000    1.1575649   -6.5213138    222.92271  0.039864577  0.040824457            2 
  467000    1.1516304   -6.5650655    222.29814  0.039667762  0.040815015            5 
  468000    1.1832529   -6.5981739    222.53917   0.03962592  0.040805662            6 
  469000    1.1582967   -6.5587497    223.39151  0.039692877  0.040797598            3 
  470000    1.1619393   -6.5550237    224.38604  0.039784758  0.040789151            5 
  471000     1.172998   -6.5520138    225.73044  0.039938152  0.040781313            2 
  472000    1.1682079   -6.5592043    226.00283  0.039901629  0.040774251            1 
  473000    1.1786501    -6.580965      225.733  0.039769733  0.040768256            2 
  474000     1.194353   -6.5636895     226.8277  0.039878287  0.040761799            3 
  475000    1.1998601   -6.5646576    226.90629  0.039808122  0.040755736            3 
  476000    1.1762226   -6.5564182    227.99286  0.039914716  0.040750169            3 
  477000    1.1649633   -6.5294221    229.13921  0.040031309   0.04074469            1 
  478000    1.1891005   -6.5614638    228.73213  0.039876593  0.040739126            5 
  479000    1.1765783   -6.5526373    229.42366  0.039913649  0.040733225            3 
  480000    1.1595539   -6.5721534    229.78859  0.039893852  0.040727197            2 
  481000    1.1549624   -6.5856184    230.14374  0.039872443  0.040721233            4 
  482000    1.1791722    -6.592281    229.94206  0.039754851  0.040714781            3 
  483000    1.1868551   -6.5674152    230.25954  0.039727319  0.040708545            3 
  484000    1.1980384   -6.5835899    231.48361  0.039855993  0.040703309            3 
  485000    1.1679191   -6.5596987    230.87348  0.039668983   0.04069764            2 
  486000    1.1713615   -6.5343657    231.70535  0.039729999  0.040691082            1 
  487000    1.1446866   -6.5765524    232.82139   0.03983939  0.040683892            6 
  488000    1.1551913   -6.6082825    232.35128  0.039677473  0.040676748            2 
  489000    1.2072385   -6.5605602    233.25481  0.039750308  0.040669264            4 
  490000    1.1926654   -6.5608184    234.24881  0.039838233  0.040661219            1 
  491000    1.1702257   -6.5794735    233.74251  0.039671165  0.040653297            3 
  492000    1.1468829   -6.5294089    234.32786  0.039689678  0.040644927            4 
  493000    1.1626454   -6.5382639    235.00209  0.039723138  0.040636407            2 
  494000    1.1556615   -6.5693804    234.10423  0.039491267  0.040627613            2 
  495000    1.1752489   -6.5787517    234.21983  0.039430948  0.040617896            2 
  496000    1.1621003   -6.5878566    235.55157  0.039575197  0.040608182            1 
  497000    1.1728885   -6.5630687    234.79758  0.039369144  0.040598382            1 
  498000     1.153956   -6.5854876    236.15745  0.039517645  0.040588412            7 
  499000    1.1618292   -6.6014019    235.36602  0.039306282  0.040577891            3 
  500000    1.1631769    -6.554343    237.47762  0.039579603  0.040568058            2 
  501000    1.1793719   -6.6049027    236.91743  0.039407424  0.040558295            2 
  502000    1.1736325   -6.5519118    238.38296  0.039572204  0.040548455            2 
  503000    1.2015661    -6.575386    238.18067  0.039460018   0.04053835            3 
  504000    1.1779951   -6.5605537     239.0539  0.039526107  0.040527762            1 
  505000    1.1628383   -6.5604868    239.36477  0.039499137   0.04051759            1 
  506000    1.1747858    -6.555778    239.64975  0.039468009  0.040508654            2 
  507000    1.1875766      -6.5389    241.07849  0.039624998  0.040500492            2 
  508000    1.1487228   -6.5849117    240.77792  0.039497691  0.040492046            2 
  509000    1.1767171   -6.5765879    241.30975  0.039507163  0.040483686            2 
  510000    1.1678694   -6.5724095    241.53272  0.039466131  0.040475367            2 
  511000    1.1580478   -6.6527908    241.72471  0.039420207  0.040466369            3 
  512000    1.1879826   -6.5911842    243.06806  0.039561859  0.040458246            3 
  513000    1.1972628   -6.5679402     242.6161  0.039411322  0.040449747            2 
  514000    1.1514107   -6.5933991    242.17572  0.039263249  0.040440622            2 
  515000    1.1494698   -6.5711095    243.70855   0.03943504  0.040431649            3 
  516000    1.1453847   -6.5725369     244.1011  0.039422013  0.040422273            2 
  517000    1.1637349   -6.5453051    245.71443  0.039605808  0.040413249            2 
  518000    1.1936429   -6.6223925    245.03313  0.039419743  0.040405129            2 
  519000    1.1562513   -6.5874369    245.51021  0.039420393  0.040396297            2 
  520000    1.1437418   -6.5860447    246.15246  0.039447509  0.040387526            2 
  521000    1.1682106   -6.6059881    246.57596  0.039439532  0.040378915            4 
  522000    1.1518787   -6.6241165    246.28528  0.039317573  0.040370173            2 
  523000    1.1840151   -6.5705884    246.15953   0.03922236   0.04036077            1 
  524000     1.145632   -6.5821356    247.03814  0.039287236  0.040351756            2 
  525000    1.1862152   -6.5870092    247.71001  0.039319049  0.040342922            3 
  526000    1.1887154   -6.5737859    248.75829  0.039410376  0.040334464            2 
  527000    1.1622852   -6.5816586    249.09267  0.039388468  0.040326452            4 
  528000    1.1786949   -6.5647611    249.52503  0.039382106  0.040318283            4 
  529000    1.1575828   -6.5607387    250.27165  0.039425276  0.040310223            2 
  530000    1.1733313   -6.5896432    249.92114  0.039295777  0.040301745            2 
  531000    1.1850419   -6.5703887    250.06232   0.03924393  0.040292791            2 
  532000    1.1422381   -6.5740691    251.00638  0.039318042  0.040284213            4 
  533000    1.1703875   -6.5812834    252.22193  0.039434323  0.040276086            2 
  534000    1.1788992   -6.5642707    253.10617  0.039498467   0.04026904            6 
  535000    1.1438486   -6.5790017     252.8939  0.039391574  0.040261085            2 
  536000    1.1579236   -6.5831219    253.37877  0.039393465  0.040252562            3 
  537000    1.1711718   -6.6204655    253.41277  0.039325384  0.040243988            2 
  538000    1.1726299   -6.5713457    253.26907  0.039230029  0.040235187            3 
  539000    1.1400934   -6.5908972    254.63333  0.039368171  0.040226682            1 
  540000    1.1701643   -6.5751437    254.38437  0.039256848  0.040217701            2 
  541000    1.1770849   -6.5596999    254.51068   0.03920374  0.040208651            2 
  542000    1.1619485    -6.610183    255.24066  0.039243644  0.040199586            1 
  543000    1.1732309   -6.5560444    256.52764  0.039368883  0.040190616            3 
  544000    1.1525149    -6.562748    256.41887  0.039279852  0.040182026            2 
  545000    1.1706458   -6.5675329    257.01105  0.039298326  0.040173284            1 
  546000    1.1296899    -6.579693    256.53984  0.039154433  0.040164012            1 
  547000    1.1506165   -6.5455085    258.40772  0.039367417  0.040154762            1 
  548000     1.176668   -6.6004542    257.45821  0.039151188  0.040145698            2 
  549000    1.1646759   -6.6037227    257.92666   0.03915098   0.04013663            3 
  550000    1.1753123   -6.5939886    258.20539  0.039122028   0.04012735            3 
  551000    1.1681325   -6.6117316    259.12417  0.039189984  0.040118434            2 
  552000    1.1857526    -6.567787    259.11472   0.03911756  0.040108814            3 
  553000    1.1425653   -6.5680084    259.26146  0.039068937  0.040099323            1 
  554000    1.1743376   -6.5606304    260.73297  0.039219761  0.040089878            2 
  555000    1.1903489   -6.6006219    261.00997  0.039190686  0.040080759            3 
  556000     1.162174   -6.6255181    259.74505  0.038930612  0.040071028            5 
  557000    1.1645726   -6.5758999    261.24834  0.039085629  0.040061379            6 
  558000    1.1652524    -6.557269    261.45515  0.039046468    0.0400521            2 
  559000    1.1926227   -6.5883754    262.12701  0.039076776  0.040042721            2 
  560000    1.1647105   -6.5457041    261.80882  0.038959645  0.040033069            2 
  561000    1.1529089   -6.5925829    263.32115  0.039114847  0.040022933            3 
  562000    1.1413634   -6.6017262    262.98791  0.038995835  0.040012738            5 
  563000    1.1621896   -6.6440204    263.37852  0.038984387  0.040002518            1 
  564000    1.1560056   -6.5815431    263.63179  0.038952687  0.039992426            1 
  565000    1.1741219    -6.574407    264.39142  0.038995785  0.039982337            2 
  566000    1.1593678   -6.6126792    264.11895  0.038886772  0.039972228            3 
  567000    1.1613833   -6.6278348    264.95843  0.038941568  0.039962129            4 
  568000    1.1502918   -6.5866899    265.67905  0.038978734  0.039952262            1 
  569000    1.1617954    -6.613962    266.33826  0.039006774   0.03994297            2 
  570000    1.1288409   -6.5648336    266.53696  0.038967392  0.039933305            4 
  571000    1.1417808   -6.5935405     267.4097  0.039026517  0.039923381            2 
  572000    1.1654844    -6.546687    267.75479  0.039008564  0.039913932            2 
  573000     1.135297   -6.5906541    268.03879   0.03898179  0.039905003            1 
  574000    1.1453339   -6.5990154    268.72862  0.039014027  0.039895636            3 
  575000    1.1722892    -6.585911     269.4066  0.039044435  0.039886798            1 
  576000    1.1394306   -6.6096553    269.13464  0.038937304  0.039877261            2 
  577000    1.1693056   -6.6139083    269.14808  0.038871762  0.039867406            1 
  578000    1.1511279   -6.6116239    269.98849  0.038925676  0.039857484            4 
  579000    1.1459743   -6.6109584    269.03746  0.038721568  0.039847175            2 
  580000    1.1556588   -6.6255054    269.17262  0.038674227  0.039836141            5 
  581000    1.1542157   -6.5991381    271.31376  0.038914768   0.03982476            2 
  582000    1.1706951   -6.6186563    270.90956  0.038790028  0.039813687            2 
  583000    1.1619398    -6.616938    270.91116  0.038723723  0.039802232            2 
  584000    1.1553387   -6.6019961    270.40891  0.038585747  0.039791238            2 
  585000    1.1382579    -6.575954    271.82436  0.038721419    0.0397795            1 
  586000    1.1395559   -6.6309603    271.75337  0.038645246  0.039767879            3 
  587000    1.1519009    -6.583525    272.30402  0.038657583  0.039756557            2 
  588000    1.1659018   -6.5997904     272.9965   0.03868998  0.039745001            4 
  589000    1.1642678   -6.6151029    273.32002  0.038670064  0.039733694            2 
  590000    1.1717756   -6.6011551    274.55627  0.038779135   0.03972336            1 
  591000    1.1644936   -6.5875957     274.9281  0.038765947  0.039713594            4 
  592000    1.1508591   -6.6077201    275.18531  0.038736671  0.039703646            2 
  593000    1.1576671   -6.6126014    276.19427  0.038813135  0.039693805            2 
  594000    1.1814177   -6.6072415    276.17776  0.038745477  0.039684279            1 
  595000    1.1421846   -6.6420708    276.34633  0.038703967   0.03967422            2 
  596000    1.1454954   -6.6059094    277.30578  0.038773179  0.039664361            2 
  597000    1.1332406   -6.5773915    277.70608   0.03876411  0.039655273            2 
  598000    1.1367393    -6.614099     277.8186  0.038714967  0.039645972            2 
  599000     1.164721   -6.5871976    278.24675  0.038709898  0.039636685            2 
  600000    1.1425811   -6.6156075    278.72317  0.038711551  0.039627452            2 
  601000    1.1574238   -6.6346087    278.59894  0.038629914  0.039617595            2 
  602000    1.1605161   -6.5765931    280.00686   0.03876064  0.039608392            2 
  603000    1.1461508    -6.581474    280.66135  0.038786809  0.039599494            1 
  604000    1.1497899    -6.581129    280.98151  0.038766764  0.039591026            3 
  605000    1.1610185   -6.6175557    281.94817  0.038835836  0.039582373            2 
  606000     1.155946   -6.5606225    281.86368  0.038760132  0.039574061            1 
  607000    1.1442742   -6.6122029     282.2938  0.038755326  0.039565155            2 
  608000    1.1813273   -6.6343248    282.66698  0.038742733  0.039556418            3 
  609000    1.1564575   -6.6112593    283.78234  0.038831738  0.039547222            1 
  610000    1.1739563   -6.6218296    283.13983  0.038680304  0.039538756            2 
  611000    1.1233238   -6.6238373    283.35118  0.038645824  0.039530275            4 
  612000     1.145504   -6.5960328    284.51086  0.038740585  0.039521743            2 
  613000      1.15674   -6.5995539     285.3641   0.03879338  0.039513641            2 
  614000    1.1665703   -6.5361186    286.50104  0.038884506  0.039505756            2 
  615000    1.1637592   -6.5818372    286.33713  0.038799069  0.039498082            3 
  616000    1.1475824   -6.5889636    287.26525  0.038861641  0.039489893            2 
  617000    1.1560847   -6.6136835    286.98644  0.038760999  0.039481765            1 
  618000    1.1410697   -6.5983946    287.25238   0.03873414  0.039473322            1 
  619000    1.1457895   -6.6307543    287.38258  0.038689093  0.039465125            3 
  620000    1.1356333   -6.5768404     288.4076  0.038764463  0.039456895            1 
  621000    1.1574821    -6.576663    289.64217   0.03886771  0.039449388            1 
  622000    1.1500419   -6.6314047    289.33575  0.038764168  0.039441457            2 
  623000    1.1691718   -6.6362026    289.53782  0.038728975  0.039433904            2 
  624000    1.1477794   -6.6020244    290.53792   0.03880047  0.039425932            7 
  625000    1.1247627   -6.6161469    289.83139  0.038644186  0.039417464            2 
  626000    1.1510469   -6.6494712    290.06986  0.038614198  0.039408653            2 
  627000     1.164859   -6.6249997    289.84823  0.038523157  0.039399885            3 
  628000    1.1225175   -6.6354251    290.68138   0.03857237  0.039390987            1 
  629000    1.1307912   -6.6664169    290.78653  0.038524977  0.039381782            4 
  630000    1.1561736   -6.6113922    291.76037  0.038592641   0.03937317            3 
  631000    1.1378952   -6.5778197    292.05225  0.038570027  0.039364439            3 
  632000    1.1577771   -6.6356608    292.26739  0.038537367  0.039355071            2 
  633000    1.1376193   -6.6232209    292.29404  0.038479994  0.039345812            3 
  634000    1.1308474   -6.6037545    293.81689  0.038619465  0.039337386            1 
  635000    1.1779092   -6.6622923    293.13805  0.038469561  0.039328349            1 
  636000    1.1467031   -6.6442966    293.13275  0.038408379  0.039319128            5 
  637000    1.1483566   -6.6164076    294.59941  0.038539954  0.039310222            3 
  638000    1.1443381   -6.6025809    295.50029  0.038597216   0.03930128            3 
  639000    1.1340438   -6.6073513    295.13445  0.038489104  0.039292508            7 
  640000    1.1484578   -6.6272803    294.86038  0.038393278  0.039283562            5 
  641000    1.1586561   -6.6285296    296.18788  0.038505964  0.039274708            2 
  642000    1.1448079   -6.5988544     296.4934  0.038485644  0.039265486            2 
  643000    1.1248123   -6.6167703    295.82261  0.038338855  0.039256104            2 
  644000    1.1424326   -6.6206568    296.88455  0.038416738  0.039246055            8 
  645000       1.1786   -6.5931328    297.62992  0.038453479  0.039236792            1 
  646000    1.1776953   -6.5919982    297.88387  0.038426712  0.039227289            2 
  647000    1.1810917   -6.5786756    297.86096  0.038364369  0.039218072            3 
  648000    1.1209819   -6.5721523    300.03696  0.038584999  0.039209003            2 
  649000    1.1143206   -6.6219456    299.64115  0.038474723  0.039200358            3 
  650000    1.1633899   -6.6099533    300.00407   0.03846206  0.039191559            7 
  651000    1.1534324   -6.6262537     300.6648  0.038487558  0.039182885            2 
  652000    1.1306144   -6.6186624     302.1862  0.038622981  0.039174659            2 
  653000    1.1404605   -6.6217793    301.63841  0.038493927  0.039166351            2 
  654000    1.1508251   -6.5909496    302.28029  0.038516856  0.039158018            2 
  655000    1.1620471   -6.6120491    302.70186  0.038511687  0.039149892            4 
  656000     1.169105    -6.651711    303.21266  0.038517868  0.039141959            3 
  657000    1.1427556   -6.6287833    303.65258  0.038515041  0.039133747            3 
  658000    1.1480947   -6.6286448    303.80584  0.038475917  0.039125344            3 
  659000    1.1439302   -6.6525131    303.59939  0.038391425  0.039117127            5 
  660000     1.133913   -6.6325502    304.17033  0.038405344  0.039109274            2 
  661000    1.1366518   -6.6601077    305.00282  0.038452196  0.039101168            3 
  662000    1.1437331   -6.6007928    305.69554  0.038481312  0.039092462            2 
  663000    1.1462769   -6.6542381     305.4123  0.038387669    0.0390842            3 
  664000    1.1730431   -6.5982075    306.59687  0.038478523  0.039076272            2 
  665000    1.1484527   -6.5719799    305.96335  0.038341272  0.039068534            2 
  666000    1.1494561   -6.6617755    305.65213  0.038244761  0.039059887            3 
  667000    1.1465777   -6.6269603    307.16401  0.038376313  0.039051264            2 
  668000    1.1388909   -6.5990814    307.80606  0.038398959  0.039043139            2 
  669000    1.1428883   -6.6138028    306.62677  0.038194665  0.039034872            4 
  670000    1.1711949   -6.6465321    307.80782  0.038284554  0.039026145            3 
  671000    1.1484972   -6.6184852    308.71498  0.038340162  0.039017155            5 
  672000    1.1431334   -6.6301436     308.2796  0.038229117  0.039007756            2 
  673000    1.1373032    -6.631148    308.72703  0.038227715   0.03899867            2 
  674000    1.1408309   -6.6332477    308.58769   0.03815377  0.038989423            4 
  675000    1.1746601   -6.6187074    308.28406   0.03805976  0.038979713            4 
  676000    1.1635384   -6.6510171    309.64575   0.03817132  0.038970322            3 
  677000    1.1362801   -6.6757559    310.75195  0.038251102  0.038961457            4 
  678000    1.1367539   -6.5900945    311.56647  0.038294798  0.038952576            3 
  679000     1.138715   -6.6189748    311.25965  0.038200743  0.038943764            2 
  680000    1.1516082   -6.6081802    312.21745  0.038261942  0.038935114            2 
  681000    1.1262933   -6.6564917    312.25492  0.038210343   0.03892621            5 
  682000    1.1479894   -6.6192012    313.39456  0.038293568  0.038917414            3 
  683000    1.1372517   -6.6217613    314.05393  0.038317952  0.038909091            5 
  684000    1.1542007   -6.6131777    314.28804  0.038290453  0.038900452            2 
  685000    1.1427527   -6.6454819    314.69885  0.038284532  0.038892026            1 
  686000    1.1194597   -6.6249846    314.31325  0.038181881  0.038883739            3 
  687000     1.134464    -6.598509    314.32896  0.038128209  0.038874729            1 
  688000    1.1597139   -6.6340117    315.28092  0.038188096  0.038865636            3 
  689000    1.1283445   -6.6341618    315.08374  0.038108822    0.0388565            4 
  690000    1.1409088   -6.6312879    315.99905  0.038164137  0.038847515            2 
  691000     1.117035   -6.6603879    315.30552  0.038025267  0.038838733            3 
  692000    1.1411168   -6.5639479    317.05347  0.038180813   0.03882982            1 
  693000    1.1506078   -6.5912082    317.82846  0.038218911   0.03882141            3 
  694000    1.1219976   -6.6272219    316.92073  0.038054842  0.038812763            2 
  695000    1.1404022   -6.6671199    317.49397  0.038068821  0.038804031            1 
  696000    1.1512037   -6.6355036    319.01674  0.038196449   0.03879518            2 
  697000    1.1351864    -6.629575    318.38726  0.038066387  0.038786527            2 
  698000    1.1269505   -6.6035745    319.49443  0.038144035  0.038778214            3 
  699000    1.1168822   -6.6516953    319.39926  0.038078119  0.038769513            1 
  700000    1.1595769    -6.617426    319.34643  0.038017432  0.038761074            2 
  701000    1.1318541   -6.6994613     319.4972  0.037981122  0.038752744            3 
  702000    1.1503119    -6.635301    322.01263  0.038225621  0.038744444            1 
  703000    1.1482892   -6.6585163    321.48255   0.03810841  0.038736925            4 
  704000    1.1336102   -6.6206673    323.22184  0.038260161   0.03872958            1 
  705000    1.1480758   -6.6238212    321.96596  0.038057442  0.038721964            2 
  706000    1.1277643   -6.6420752    322.30682   0.03804377  0.038713791            1 
  707000    1.1287226   -6.6611818     322.0566  0.037960467  0.038705532            2 
  708000    1.1245957   -6.6352359    324.25707  0.038165851  0.038697513            2 
  709000     1.132016   -6.6750653    324.01121  0.038083123  0.038689639            5 
  710000    1.1439193   -6.6509887    324.69976    0.0381103  0.038681614            5 
  711000    1.1316328   -6.6479579    324.94836  0.038085837   0.03867407            2 
  712000    1.1249897   -6.6521001    326.82598  0.038252104   0.03866657            3 
  713000    1.1540811   -6.6170742    326.44834  0.038154318  0.038659675            2 
  714000    1.1342229   -6.6173272    326.94231  0.038158533  0.038652623            2 
  715000    1.1631804   -6.6503365    327.27239  0.038143635  0.038645599            3 
  716000    1.1399963   -6.6748721    328.48437  0.038231422   0.03863837            1 
  717000    1.1560141   -6.6411211    328.85694  0.038221402  0.038631233            2 
  718000    1.1450574   -6.6602353    328.77281  0.038158404  0.038623685            2 
  719000    1.1103082   -6.6938475    328.08224  0.038025294  0.038616189            2 
  720000    1.1339287    -6.613137    329.96682  0.038190604  0.038608856            4 
  721000    1.1672949   -6.6498521    329.60887  0.038096264  0.038602217            1 
  722000    1.1386655   -6.6137122    330.17073  0.038108348  0.038595471            2 
  723000    1.1329876   -6.6059035    331.19374  0.038173553  0.038588195            1 
  724000    1.1389959   -6.6607837    331.71391  0.038180699  0.038581309            4 
  725000    1.1494373   -6.6302785     332.9307  0.038267896   0.03857512            3 
  726000    1.1460137   -6.6600722    331.19735  0.038016224  0.038568557            2 
  727000    1.1543471   -6.6196572    333.71019   0.03825197  0.038562174            2 
  728000    1.1410816   -6.6307392    333.41554  0.038165698  0.038555917            2 
  729000    1.1368276   -6.6353866    334.52292  0.038239931  0.038549587            2 
  730000    1.1476611   -6.6513856    333.79407  0.038104346  0.038542633            4 
  731000    1.1346071   -6.6335288    334.54433  0.038137749  0.038535757            8 
  732000    1.1467108   -6.6555715    333.71761  0.037991531  0.038529179            2 
  733000    1.1310049   -6.5982775     336.2821  0.038231253  0.038522681            3 
  734000    1.1123795   -6.6251429    335.22523  0.038059177  0.038515938            3 
  735000    1.1634553   -6.6193191    337.29077  0.038241584  0.038509566            2 
  736000    1.0997016   -6.6436528    337.78519  0.038245606  0.038503325            4 
  737000    1.1266159   -6.6473525    337.42348  0.038152813  0.038496794            3 
  738000     1.145344   -6.6817776    336.29774     0.037974  0.038489885            3 
  739000     1.119374   -6.6360866    338.07783  0.038123346  0.038482771            2 
  740000    1.1370023   -6.5994356    337.15321  0.037967703  0.038475975            1 
  741000    1.1437649    -6.642021    338.03055  0.038015131  0.038469122            4 
  742000    1.1384363   -6.6427724    338.35171  0.037999967  0.038462329            2 
  743000    1.1519788   -6.6100621    340.37039  0.038175234  0.038455971            2 
  744000    1.1420217   -6.6628904    340.00581  0.038083088  0.038449709            3 
  745000    1.1181877   -6.6561976    339.74468   0.03800276  0.038443747            4 
  746000    1.1306868   -6.7199708    339.17358  0.037888022  0.038437074            2 
  747000    1.1352789   -6.6449428    340.66017  0.038003143  0.038430207            2 
  748000     1.119598   -6.6471462    340.45125   0.03792906  0.038423583            2 
  749000    1.1282098   -6.6572343    341.91573  0.038041359  0.038416585            5 
  750000    1.1432994   -6.6318538    341.92069  0.037991188  0.038409863            2 
  751000    1.1452026   -6.6170568    343.09667   0.03807109  0.038403085            2 
  752000    1.1308897   -6.6399518    342.70855  0.037977455  0.038396292            2 
  753000    1.1326103   -6.6586039    343.29254  0.037991649  0.038389794            2 
  754000    1.1447521   -6.6170197    344.02445  0.038022154  0.038383656            2 
  755000    1.1344098   -6.6283685    344.57313  0.038032354  0.038377433            3 
  756000    1.1229064   -6.6632013    344.84272  0.038011763  0.038370968            1 
  757000     1.138952    -6.661195    344.33574   0.03790574   0.03836404            2 
  758000    1.1422885   -6.6607298    345.79746  0.038016431  0.038356883            2 
  759000    1.1232022    -6.616503    347.22723  0.038123323  0.038350047            1 
  760000    1.0992651   -6.6350381     346.5413   0.03799795  0.038343747            3 
  761000    1.1445345   -6.6562207    347.11768  0.038011135  0.038336979            1 
  762000    1.1499731   -6.6144839     347.4815  0.038001039  0.038330692            6 
  763000    1.1310061   -6.6248206    347.03955  0.037902965  0.038324214            6 
  764000    1.1264165   -6.6875988    347.01869  0.037851079  0.038317339            3 
  765000     1.114513   -6.6955345    348.47118  0.037959823  0.038310683            2 
  766000    1.1394757   -6.6575153    348.44916  0.037907872  0.038304075            4 
  767000    1.1265693   -6.6319431    349.60996  0.037984568  0.038297567            2 
  768000    1.1347823   -6.6684528    349.70138  0.037945028  0.038291137            4 
  769000    1.1462586   -6.6945001    348.80182  0.037798203  0.038284855            2 
  770000    1.1290673   -6.6318748    350.64059  0.037948116   0.03827853            6 
  771000    1.1307869    -6.640198      350.342  0.037866624  0.038272425            3 
  772000    1.1155944   -6.6602387    351.17948  0.037907975  0.038266011            1 
  773000    1.1153563   -6.6454164    351.82346  0.037928359  0.038259485            1 
  774000    1.1104578   -6.6409463    351.80071  0.037876907  0.038253449            2 
  775000    1.1145445   -6.6861727    352.86626  0.037942609   0.03824708            1 
  776000    1.1135845    -6.685205    353.10185  0.037919013  0.038240562            5 
  777000    1.1242619   -6.6538481    354.58509  0.038029289   0.03823436            3 
  778000    1.1055027    -6.634286    353.64583  0.037879802  0.038228213            4 
  779000     1.117982    -6.681247    353.14553  0.037777656  0.038221992            3 
  780000    1.1262888   -6.6651068    354.93551   0.03792046  0.038216122            3 
  781000    1.1038616   -6.6426963    355.54694  0.037937146  0.038210063            1 
  782000    1.1137456   -6.6575657    357.00244  0.038043738  0.038204078            1 
  783000    1.1484424   -6.6294276    357.32431  0.038029407  0.038198236            3 
  784000    1.1178198   -6.6633793    356.34919  0.037877252  0.038192514            4 
  785000    1.1281462   -6.6871882    357.45164  0.037946034  0.038186398            5 
  786000    1.1375386   -6.6937047    356.29055  0.037774655  0.038180517            2 
  787000    1.1237064   -6.6874415    356.91653   0.03779294  0.038174243            6 
  788000    1.1074508   -6.6756665    357.72383  0.037830354  0.038168163            3 
  789000    1.1126435   -6.6542526    357.17976  0.037724943  0.038161708            2 
  790000    1.1176879   -6.6652865    357.04633  0.037663115  0.038154997            2 
  791000    1.1204106   -6.6942646    358.71657  0.037791463  0.038148187            2 
  792000    1.1242055   -6.6767285      360.215   0.03790141  0.038141642            2 
  793000    1.1163964   -6.6562803    359.01454  0.037727464   0.03813474            2 
  794000    1.1301319    -6.661288    358.87343  0.037665138  0.038127941            2 
  795000    1.1233359   -6.6834406    358.60283  0.037589395  0.038120927            5 
  796000    1.1267656   -6.6568061    360.27284  0.037717006  0.038113458            2 
  797000    1.1193861   -6.6460617    359.23231  0.037560886  0.038106627            1 
  798000    1.1420384   -6.6434214    359.96045  0.037589855  0.038099612            1 
  799000    1.1448022   -6.6704929    360.40608  0.037589287  0.038091946            2 
  800000     1.124758   -6.6628042    361.59737  0.037666393  0.038084377            2 
  801000    1.1022407   -6.7009517    360.25387  0.037479595   0.03807662            2 
  802000    1.1290744   -6.6808336    362.16516  0.037631459  0.038069106            1 
  803000    1.1355759   -6.7308784    361.02063  0.037465819  0.038061725            3 
  804000    1.1219679    -6.679186    361.54265  0.037473326  0.038054236            3 
  805000    1.1199108   -6.6543219    363.79054  0.037659476  0.038046853            3 
  806000    1.1227507   -6.6475227    363.95161  0.037629406  0.038039188            2 
  807000    1.1205687   -6.6858587    363.69716  0.037556502  0.038031129            7 
  808000    1.1363518   -6.6780274    364.38816  0.037581287  0.038023083            4 
  809000    1.0845003   -6.6525629    365.47471  0.037646757  0.038015347            3 
  810000    1.1194442   -6.6537826    364.57368   0.03750758  0.038007805            4 
  811000    1.1345839   -6.6521614    364.06849  0.037409421  0.038000209            3 
  812000    1.1063596   -6.6274286     365.3232  0.037492118  0.037992534            2 
  813000    1.1083454   -6.6294926    364.63353  0.037375311   0.03798486            1 
  814000    1.1247118   -6.6691015    364.69853   0.03733605  0.037976754            3 
  815000    1.0980917   -6.6523565    365.38129   0.03736005  0.037968495            3 
  816000    1.1419404   -6.6507173    365.24277  0.037300119  0.037960282            2 
  817000    1.1216694   -6.6663844    365.31931  0.037262271  0.037952377            4 
  818000    1.1472837   -6.6495324    366.55486  0.037342589  0.037943967            2 
  819000    1.1223039   -6.6938366    367.08749   0.03735119   0.03793522            2 
  820000    1.1371628   -6.6776664    368.78633  0.037478285  0.037926654            1 
  821000     1.137872   -6.6869144    366.87002  0.037238127   0.03791806            3 
  822000    1.1320086    -6.631349    367.49729  0.037256416  0.037909496            2 
  823000    1.1287389   -6.6290882    368.28817  0.037291229  0.037901225            2 
  824000    1.1123623   -6.6555144    369.12455  0.037330557  0.037892835            2 
  825000    1.1205263    -6.700618    370.13718  0.037387594  0.037884369            2 
  826000    1.1173392   -6.6608537    369.61375  0.037289523  0.037876026            2 
  827000     1.124861   -6.6530519    370.56369  0.037340154    0.0378676            1 
  828000    1.1241102   -6.6345649     370.7391  0.037312711   0.03785927            4 
  829000     1.112456   -6.6786567    370.50814  0.037244485  0.037850987            4 
  830000    1.1258088   -6.6833402    369.61871  0.037110312  0.037842129            2 
  831000    1.1193263   -6.6776089    371.02671   0.03720685  0.037833368            3 
  832000    1.1200748   -6.6703782      370.369  0.037096254  0.037824661            4 
  833000    1.1202421   -6.6998441    371.73424  0.037188299  0.037815963            2 
  834000    1.1247429   -6.6655855    373.16601  0.037286771  0.037807644            2 
  835000    1.0954066   -6.6910684    373.10279  0.037235807  0.037799573            3 
  836000    1.0919321   -6.6652906    373.74171  0.037254955  0.037791362            2 
  837000    1.1075313    -6.626654    373.54252  0.037190613  0.037783061            4 
  838000    1.1254405   -6.6640895    373.60833  0.037152778  0.037774771            2 
  839000    1.1407807   -6.6612619    374.40504  0.037187628  0.037766315            3 
  840000    1.1143444   -6.6601893    376.08236  0.037309758  0.037758138            1 
  841000    1.1197481   -6.6581139    375.33827  0.037191664  0.037750146            2 
  842000    1.1212687   -6.6519569    375.77264  0.037190483  0.037742007            3 
  843000    1.1082742   -6.6841637    376.28966  0.037197475  0.037733962            2 
  844000    1.1026568   -6.6634294    378.12622  0.037334738  0.037725918            2 
  845000    1.1166238   -6.6972482    376.81501  0.037161244  0.037717932            4 
  846000     1.096229   -6.6736071    376.88573  0.037124284  0.037709985            4 
  847000    1.1267283   -6.6404392    377.29762  0.037120978  0.037701714            1 
  848000    1.1125145   -6.6429102    379.08244  0.037252598  0.037693772            2 
  849000    1.1024377   -6.6777185    378.66251  0.037167502  0.037685758            3 
  850000    1.1326639   -6.7104362    378.05813  0.037064523  0.037677681            4 
  851000     1.104353   -6.6843437    380.08609  0.037219555  0.037669745            3 
  852000    1.0830819   -6.6808011    378.19481  0.036990885  0.037661268            3 
  853000       1.1023   -6.6792305    379.29374  0.037054879  0.037653016            2 
  854000    1.1236486   -6.6791355     379.7982  0.037060714  0.037644838            2 
  855000     1.125478   -6.6977062    380.40027   0.03707605  0.037636613            2 
  856000    1.0878321   -6.7029728    379.44627  0.036939863   0.03762816            5 
  857000    1.1089594   -6.6419079    381.64882  0.037110932  0.037619838            6 
  858000    1.1177605   -6.6758945    382.04883  0.037106529  0.037611639            3 
  859000    1.1236782   -6.7068181    382.54945  0.037111899   0.03760329            2 
  860000    1.1238975   -6.6816821      382.228  0.037037597  0.037595323            2 
  861000    1.1128722   -6.6869779    381.80819  0.036953948  0.037586896            2 
  862000    1.1253901   -6.6684193    382.56411  0.036984156  0.037578674            3 
  863000     1.130479   -6.6990193    384.46886  0.037125228  0.037570567            4 
  864000    1.1189408   -6.7084319    383.49452  0.036988283  0.037562126            3 
  865000    1.0987446   -6.6230255    384.32745  0.037025766  0.037553741            2 
  866000    1.1196121   -6.6851025    383.70913  0.036923511  0.037545221            4 
  867000    1.1181134   -6.6664109    384.51652  0.036958528   0.03753669            2 
  868000    1.1162888   -6.6971721    384.68584  0.036932204   0.03752829            2 
  869000    1.1105528   -6.6811008    386.08312  0.037023698  0.037519673            3 
  870000    1.1072787   -6.6586834    386.08567  0.036981386  0.037511064            2 
  871000    1.1134437   -6.6626177    385.88464  0.036919694  0.037502344            6 
  872000      1.11118   -6.6428493     385.8161  0.036870805   0.03749333            3 
  873000    1.1013016   -6.7120602    385.53576   0.03680181  0.037484181            1 
  874000    1.1181447   -6.7027541    385.00822  0.036709404  0.037474975            3 
  875000    1.1174906   -6.6819905    385.26366  0.036691777  0.037465511            3 
  876000    1.1014104   -6.6701106      386.775  0.036793664  0.037456202            2 
  877000    1.0910065   -6.6988972    387.29462  0.036801085  0.037446918            2 
  878000    1.1226394   -6.7253434    385.81283  0.036618529  0.037437207            2 
  879000    1.1192817   -6.7097339    387.59359  0.036745694  0.037427733            2 
  880000    1.1196227   -6.7051969    388.56184  0.036795629  0.037417942            1 
  881000    1.0898874   -6.6823559    388.71909  0.036768738  0.037408545            4 
  882000    1.1260843   -6.7289052    387.88801  0.036648527  0.037398866            3 
  883000    1.1079498   -6.6785885    389.28967  0.036739304  0.037389066            1 
  884000    1.1101962    -6.695682    388.13299  0.036588706  0.037379421            2 
  885000    1.0900454   -6.6789555    389.83093  0.036707243  0.037369736            2 
  886000    1.1002643   -6.6918815    389.66379  0.036650093  0.037359599            2 
  887000    1.1050117   -6.7123816    388.46939   0.03649656  0.037349726            2 
  888000     1.127973   -6.6448832    390.17567  0.036615584  0.037340167            2 
  889000    1.1205582   -6.6630395    391.57282  0.036705364  0.037330705            1 
  890000    1.1097258   -6.6461916    391.33404  0.036641764  0.037321145            2 
  891000    1.1171064   -6.7092272    391.15068  0.036583491  0.037311478            5 
  892000    1.1095141   -6.7169696    390.39468   0.03647185  0.037301633            2 
  893000    1.1261703   -6.7145736    391.30972  0.036516398   0.03729229            3 
  894000    1.1188894   -6.6589996    394.19514  0.036744514  0.037283003            1 
  895000     1.099573   -6.6739754    392.15883  0.036513857  0.037273586            1 
  896000    1.1069234   -6.7143496    392.67273  0.036520901  0.037263859            4 
  897000    1.0936441   -6.7483167    393.56517  0.036563097  0.037254163            1 
  898000    1.1149909   -6.7003164    393.93633  0.036556823  0.037244397            3 
  899000    1.0828895   -6.6903647    393.44533  0.036470646  0.037234513            2 
  900000    1.0989439   -6.7111547     394.3329  0.036512306  0.037224791            3 
  901000    1.0958151   -6.7043407    395.74689  0.036602561  0.037215131            7 
  902000    1.1163916   -6.7294327    393.98965  0.036399635  0.037205643            2 
  903000    1.1053794   -6.7141389    396.49407  0.036590446  0.037196253            3 
  904000    1.0945247   -6.6714045    397.73105  0.036663998  0.037186901            2 
  905000    1.1036893   -6.6752938     396.6684  0.036525635  0.037177636            3 
  906000    1.0944703    -6.714787    397.04657  0.036520104  0.037168305            4 
  907000    1.0942545   -6.7204961    397.38429  0.036510868  0.037159002            2 
  908000    1.1245251    -6.702737    397.52828  0.036483873   0.03714968            2 
  909000    1.1175228   -6.6972042    398.09837     0.036496   0.03714065            3 
  910000    1.0928965   -6.7257285    397.73501   0.03642262  0.037131475            4 
  911000    1.1215676   -6.7202984    396.78546   0.03629578   0.03712213            3 
  912000    1.0960383   -6.7182646    399.28408  0.036484291  0.037112672            8 
  913000    1.1258631   -6.6843641    400.09339  0.036518199  0.037103601            2 
  914000    1.1327328   -6.7367302    399.07711  0.036385586  0.037094283            5 
  915000    1.1030639   -6.6822664    400.87951  0.036509974  0.037084943            3 
  916000    1.1154785   -6.7154856    399.74014  0.036366461  0.037075544            1 
  917000    1.0845679   -6.7147351    401.26139  0.036465048  0.037066581            4 
  918000    1.0972284   -6.7211101    400.72739  0.036376851  0.037057557            3 
  919000    1.1017986    -6.700944    401.90931  0.036444442   0.03704808            3 
  920000    1.1143783   -6.7234645    400.44208  0.036271927  0.037038807            1 
  921000    1.1024185   -6.6837857    402.93985  0.036458546  0.037029208            3 
  922000    1.1125692   -6.7144651    401.69136   0.03630616  0.037019976            5 
  923000     1.099373    -6.690901    403.29065  0.036411218   0.03701052            2 
  924000    1.1079845   -6.6805493    402.63633    0.0363128  0.037000955            2 
  925000    1.1258836   -6.7333008    402.67682  0.036277191   0.03699158            1 
  926000    1.1160621   -6.7177788     403.0541  0.036271968  0.036982031            3 
  927000    1.1053948   -6.6559226    405.49116   0.03645192  0.036973129            2 
  928000    1.1144902   -6.6847012    404.71424  0.036342874  0.036964189            4 
  929000    1.0920115   -6.6763315    405.42506  0.036367515  0.036955094            3 
  930000    1.0854799   -6.7025015    405.62423  0.036346257  0.036946233            2 
  931000    1.1080165    -6.688649    406.90882    0.0364222  0.036937471            1 
  932000    1.1190451   -6.7363227    405.73954  0.036278571  0.036928709            1 
  933000    1.1229936   -6.7679947    406.83129    0.0363372  0.036919817            2 
  934000    1.1012887   -6.6950536    407.23611  0.036334414  0.036910758            5 
  935000    1.1187811   -6.7103333    408.28073  0.036388657  0.036902622            3 
  936000    1.0885869     -6.67352     408.8768  0.036402849  0.036893929            3 
  937000    1.1063768   -6.7023954    409.62114  0.036430197  0.036885394            3 
  938000    1.0871647    -6.711932    408.69331  0.036308929  0.036876532            2 
  939000     1.103762   -6.6911743    408.85402  0.036284524  0.036868046            3 
  940000    1.0909677   -6.7047983    410.15087  0.036360893  0.036859543            2 
  941000    1.1192243   -6.7128443    410.79688  0.036379462  0.036850963            3 
  942000    1.1140146   -6.7028288    411.80759  0.036430254  0.036842161            2 
  943000     1.109737   -6.6940616    410.03702  0.036235155  0.036833262            3 
  944000    1.1072778   -6.7082795    411.14045  0.036294178  0.036824412            3 
  945000    1.0761071   -6.7188818    409.71547  0.036130112  0.036815257            2 
  946000    1.0979078   -6.6876275    409.03026  0.036031559  0.036805964            4 
  947000    1.1053629      -6.7039    412.09808  0.036263471  0.036796817            2 
  948000    1.0988715   -6.6783256    412.92839  0.036298206  0.036787266            1 
  949000    1.0994552   -6.7266452    411.29447   0.03611648  0.036777972            2 
  950000    1.0957054   -6.6731642    411.30868  0.036079709   0.03676841            2 
  951000    1.1182241   -6.7400308    412.27901  0.036126797  0.036758632            3 
  952000    1.0751865   -6.7392378    411.53742  0.036023933  0.036748655            3 
  953000    1.0902082    -6.698993    411.53817  0.035986198  0.036738561            2 
  954000    1.1136526   -6.7040929    413.42543  0.036113333  0.036728993            3 
  955000    1.0832904   -6.7483693    412.05543  0.035955971  0.036719221            2 
  956000     1.083252     -6.70944    412.92496  0.035994156  0.036709491            5 
  957000    1.1041801   -6.7042118    414.26558  0.036073283   0.03669996            3 
  958000    1.1010881   -6.7469629    412.25231    0.0358605  0.036690138            1 
  959000    1.1069959    -6.704464    414.88248  0.036051658  0.036680121            2 
  960000    1.0746953    -6.725094    415.11453  0.036034248  0.036670381            1 
  961000    1.1014897   -6.7171781    415.37207  0.036019083  0.036660686            2 
  962000    1.1018038   -6.7178008    414.57139  0.035912283  0.036651128            4 
  963000    1.0828204   -6.6973433    415.62636  0.035966283  0.036641548            3 
  964000    1.0787119   -6.7471796    416.82382  0.036032488    0.0366321            3 
  965000    1.0968648   -6.7337279    415.75275  0.035902655  0.036622797            1 
  966000     1.116289    -6.711622    418.47974  0.036100736  0.036613483            3 
  967000    1.0861016   -6.7365515    417.76975  0.036002219  0.036604337            1 
  968000    1.1039669   -6.7019028    419.15306  0.036084113  0.036595293            2 
  969000    1.0961269   -6.7094381    417.49554  0.035904329  0.036586126            3 
  970000    1.1030502   -6.7426026    419.34832  0.036026488   0.03657655            3 
  971000    1.1244089   -6.6980685    418.49325  0.035916002  0.036567289            6 
  972000    1.0969833   -6.7451698    418.93161  0.035916633  0.036557705            6 
  973000    1.0977847   -6.6776326    420.85933  0.036044821   0.03654808            2 
  974000    1.1204784   -6.7366879    419.31816  0.035875955  0.036538587            3 
  975000    1.0996827   -6.6924191    420.08256  0.035904492  0.036528957            3 
  976000    1.0936388   -6.7222274    421.69819  0.036005652  0.036519509            3 
  977000    1.0914242   -6.7257741    420.11403  0.035833677  0.036509915            4 
  978000    1.0958528   -6.7264929    421.08311   0.03587961  0.036500508            2 
  979000    1.0831068    -6.750913    421.75256  0.035899946  0.036491115            2 
  980000    1.0830731   -6.7741341    421.35077  0.035829147  0.036481555            2 
  981000    1.1065258   -6.7374059    420.68677  0.035736219  0.036471888            4 
  982000    1.1106623   -6.7373313    422.23739  0.035831414  0.036462362            4 
  983000    1.0738071    -6.701381    421.55085  0.035736762  0.036452951            2 
  984000    1.1037838    -6.738178    422.52266  0.035782746  0.036443668            2 
  985000    1.1064985   -6.7241264    424.06298  0.035876732  0.036434538            5 
  986000    1.0964397   -6.7555804     423.1964  0.035767106  0.036425082            3 
  987000    1.0936891   -6.7283149    424.00577  0.035799204  0.036415774            5 
  988000    1.0959396   -6.7108897    423.86902  0.035751436  0.036406511            2 
  989000    1.1091062   -6.7021404    425.53187  0.035855399  0.036397285            2 
  990000    1.0953722   -6.7133224    426.12742  0.035869312  0.036388024            2 
  991000    1.0847368   -6.7027819     426.8734  0.035895846  0.036378928            5 
  992000    1.0629823   -6.7066253    427.04695   0.03587424  0.036369663            4 
  993000    1.0950478   -6.6858663    426.86206  0.035822596  0.036360504            2 
  994000    1.0958925   -6.7255803    426.99351  0.035797578  0.036351436            1 
  995000    1.0963917   -6.7270539    428.28874  0.035870079  0.036342234            3 
  996000    1.0752971   -6.6940626    428.07799  0.035816432  0.036333116            3 
  997000    1.0937932   -6.7166259    428.28808  0.035798067   0.03632413            2 
  998000    1.0827142   -6.7059432      428.309  0.035763944  0.036315155            3 
  999000    1.0748008    -6.735827    427.12091  0.035629038  0.036305845            3 
 1000000    1.0764996   -6.7435263    428.03387  0.035669489  0.036296347            3 
 1001000    1.1059937   -6.7134228    429.56128  0.035761013   0.03628684            2 
 1002000    1.1035533   -6.7882207    428.50101  0.035637143   0.03627736            2 
 1003000    1.1069198   -6.7517306    429.89846  0.035717718  0.036267841            3 
 1004000    1.1077955   -6.7205093    431.97906  0.035854836  0.036258946            3 
 1005000    1.1011373   -6.7383509    430.23074  0.035674191  0.036249878            2 
 1006000    1.1046249   -6.7377543    430.94514  0.035697908  0.036240458            1 
 1007000    1.1038915   -6.7455866    430.36789  0.035614688  0.036231059            2 
 1008000    1.1048729   -6.7339192    430.72134  0.035608576  0.036221644            3 
 1009000       1.0704   -6.7424474    430.66123  0.035568321  0.036212093            4 
 1010000    1.0874961   -6.7006643    431.29017  0.035584998  0.036202475            2 
 1011000    1.0800982   -6.7025849    431.96116  0.035605107  0.036192983            5 
 1012000     1.096754   -6.7493247    431.66717  0.035545716  0.036183352            3 
 1013000    1.0944367    -6.707026     432.5518  0.035583399  0.036173854            4 
 1014000    1.0840965   -6.7126086    433.10677  0.035593916  0.036164496            3 
 1015000    1.1018752   -6.7161236    433.33639    0.0355777  0.036154967            1 
 1016000    1.0895062   -6.7101754    434.62668  0.035648514  0.036145638            4 
 1017000     1.080972    -6.695282    433.51798  0.035522614   0.03613617            3 
 1018000    1.1023916   -6.7184582    434.17729  0.035541691  0.036126803            9 
 1019000    1.1053132   -6.7251934    434.29376  0.035516337  0.036117422            3 
 1020000    1.0768747   -6.7258003    435.23008  0.035558013  0.036108136            4 
 1021000     1.100667   -6.7146468    435.27937   0.03552721  0.036098816            2 
 1022000    1.0886761   -6.7461618    435.06949  0.035475334  0.036089543            3 
 1023000    1.0995386   -6.7051036    435.28123  0.035457904  0.036080315            1 
 1024000     1.082574   -6.7389151    437.19506  0.035579025  0.036071217            3 
 1025000    1.0792373     -6.76168    436.55108  0.035491958   0.03606172            3 
 1026000    1.0896464   -6.7166822    438.00373  0.035575352  0.036052394            4 
 1027000    1.1029409   -6.7470243    436.88426  0.035449875  0.036043024            4 
 1028000    1.0881049   -6.7210604    437.68872  0.035480603  0.036033929            2 
 1029000    1.1003653   -6.7102901    437.59407  0.035438457    0.0360247            2 
 1030000    1.0839841   -6.7040275    438.76179  0.035498526  0.036015505            3 
 1031000    1.0685035   -6.7605735    439.52074   0.03552544  0.036006408            3 
 1032000     1.117435   -6.7047472    440.23162  0.035548419   0.03599729            2 
 1033000    1.0922661     -6.73862    439.08087  0.035421174  0.035988311            2 
 1034000    1.0970925    -6.723367    440.83047  0.035527923  0.035979568            3 
 1035000    1.0683961   -6.7390215    439.92756  0.035420899  0.035970601            4 
 1036000    1.0738017   -6.7257578    439.40223  0.035344452  0.035961617            2 
 1037000    1.0583389   -6.7205788    442.20438   0.03553555  0.035952862            3 
 1038000    1.0812134   -6.7344031    440.47029  0.035362098  0.035944094            2 
 1039000    1.0520348   -6.7186395    442.22699  0.035468959  0.035935376            4 
 1040000    1.0734927     -6.71574    443.06919  0.035502339  0.035926514            4 
 1041000     1.087378   -6.7811766    441.54523   0.03534624  0.035917485            3 
 1042000    1.0648976   -6.7608703     441.2732  0.035290563  0.035908627            8 
 1043000     1.068344    -6.750173    442.76639   0.03537603   0.03589974            3 
 1044000     1.118952   -6.7748578    443.50692  0.035401255  0.035890968            2 
 1045000     1.073606   -6.7319608    444.81186   0.03547144  0.035882069            3 
 1046000    1.0890852   -6.7687305    442.31362  0.035238497  0.035872914            3 
 1047000    1.0927442    -6.726566    444.77905  0.035401071  0.035864198            2 
 1048000     1.063041   -6.7648494     444.2404  0.035324459  0.035855229            2 
 1049000    1.0737771   -6.7519992    444.83912  0.035338347  0.035846041            7 
 1050000    1.0746152     -6.75251     446.0397  0.035399976  0.035837005            2 
 1051000    1.1025803   -6.7340732     445.1892  0.035298859  0.035828005            3 
 1052000    1.0646537   -6.7575801    446.02696  0.035331666  0.035818735            5 
 1053000    1.0777506   -6.7001224    446.12444  0.035305828  0.035809642            1 
 1054000     1.088818    -6.709772    447.39025  0.035372411  0.035800952            3 
 1055000    1.0945429   -6.7571727    447.68598  0.035362242  0.035792246            4 
 1056000    1.0640335   -6.7214423    449.14734  0.035444077  0.035783623            2 
 1057000    1.0621171   -6.7713917    448.34448  0.035347247  0.035774948            2 
 1058000    1.0892318   -6.7570531    448.94115  0.035360834  0.035766303            4 
 1059000    1.0774422   -6.7191338    450.24529  0.035430067  0.035757748            3 
 1060000    1.0784657   -6.7247028    450.17391   0.03539103  0.035749117            3 
 1061000    1.0772351   -6.7406403    448.29783  0.035210323  0.035740397            3 
 1062000    1.0923119   -6.7266153    450.57608  0.035355939  0.035731763            3 
 1063000    1.0883475   -6.7246777    451.31596  0.035380681  0.035723297            1 
 1064000    1.0960208   -6.7435055    450.55268  0.035287647  0.035714454            2 
 1065000     1.086941   -6.7286989    449.95006   0.03520736  0.035705627            4 
 1066000    1.0689209   -6.7534562    449.97473  0.035176261  0.035696585            4 
 1067000    1.0677404   -6.7106932    451.62189  0.035271938  0.035687696            8 
 1068000    1.0761216   -6.7404859    451.26629  0.035211165  0.035678776            3 
 1069000    1.0678202    -6.727145    453.02506   0.03531533  0.035669999            2 
 1070000    1.0697999   -6.7624635    450.99484  0.035124208  0.035661494           10 
 1071000    1.0958865    -6.776576    451.94902  0.035165657   0.03565233            3 
 1072000    1.0586818   -6.7591293    452.82329  0.035200815  0.035643487            2 
 1073000     1.070761    -6.719463    454.21096  0.035275782  0.035634884            1 
 1074000     1.067981   -6.7757696    452.35338  0.035098804  0.035626273            4 
 1075000    1.1044945   -6.7243798    454.04521  0.035197303  0.035617148            2 
 1076000    1.0784931   -6.7329091    452.15532  0.035018225  0.035608067            3 
 1077000    1.0496845   -6.7640194    454.57178  0.035172685  0.035599039            2 
 1078000    1.0710099   -6.7712055     453.4577  0.035053934  0.035589947            2 
 1079000      1.07229   -6.7474855    453.41219  0.035017932  0.035580859            1 
 1080000    1.0898431   -6.7872883    453.83888  0.035018432   0.03557127            2 
 1081000    1.0697718    -6.745126    454.20028  0.035013898   0.03556189            8 
 1082000    1.1011387   -6.7324306    454.61701  0.035013633    0.0355526            3 
 1083000    1.0624207    -6.766117    455.38784  0.035040616  0.035543543            2 
 1084000    1.0728453     -6.76561    454.97731  0.034976731  0.035534098            5 
 1085000    1.0867144   -6.7387818    457.76547  0.035158639  0.035525028            2 
 1086000    1.0757878   -6.7591478    454.39745  0.034867822   0.03551584            3 
 1087000    1.0715681   -6.7492177    457.90707  0.035104804  0.035506823            7 
 1088000    1.0752979   -6.7631887     456.9197  0.034996914  0.035497657            4 
 1089000    1.0896052   -6.7687863    456.03402  0.034897002  0.035488489            4 
 1090000     1.095511   -6.7838544    456.18177  0.034876282  0.035479176            4 
 1091000    1.0865156   -6.7416749    457.99396  0.034982735  0.035469645            3 
 1092000    1.0958538   -6.7577407    456.54937  0.034840459  0.035460335            2 
 1093000    1.0841685   -6.7583358    457.71399  0.034897376  0.035450926            2 
 1094000    1.0727803   -6.7791949    456.84151  0.034799018  0.035441326            3 
 1095000     1.049299   -6.7681076    459.50118  0.034969649  0.035431853            2 
 1096000    1.0752457   -6.7970032    459.30466    0.0349228  0.035422508            2 
 1097000    1.0697418   -6.7417112    460.07179   0.03494924  0.035413127            3 
 1098000    1.0790293   -6.7475809    460.30604  0.034935188  0.035404056            5 
 1099000    1.0654704     -6.74442    461.12174  0.034965252  0.035394977            3 
 1100000     1.084274   -6.7334432    459.10036   0.03478033  0.035385745            3 
 1101000    1.0924601   -6.7267678    461.34075  0.034918313  0.035376458            2 
 1102000    1.0732292   -6.7860215    460.48863  0.034822189  0.035367228            2 
 1103000    1.0834327   -6.7650369    460.88504  0.034820568  0.035357965            3 
 1104000    1.0889986   -6.7479104    462.73484  0.034928656  0.035349133            2 
 1105000    1.0731457   -6.7782827    462.22402  0.034858524  0.035340072            3 
 1106000     1.069869   -6.7547055    463.54249  0.034926348  0.035331197            3 
 1107000    1.0605225   -6.7563128    463.43224  0.034886498   0.03532258            5 
 1108000    1.0671673   -6.7706325    464.02656  0.034899711  0.035313861            3 
 1109000     1.064696   -6.7376746    463.92611  0.034860693   0.03530507            2 
 1110000    1.0827765   -6.8029907    462.33896  0.034710132  0.035296069            2 
 1111000    1.0815966    -6.719044    465.89001  0.034945245  0.035287295            1 
 1112000    1.0738833   -6.7752432    464.23893  0.034790088  0.035278419            1 
 1113000    1.0920018   -6.7325194     466.8945  0.034957659  0.035269459            1 
 1114000    1.0912861   -6.7726344    464.09322  0.034716728  0.035260491            2 
 1115000    1.0795244   -6.8118816    466.03504   0.03483072  0.035251356            2 
 1116000    1.0722611   -6.7470024    464.94084  0.034717805  0.035242214            5 
 1117000     1.060564   -6.7800878    466.80814  0.034826032  0.035233324            2 
 1118000    1.0831223   -6.7612277    465.81505  0.034720859  0.035224254            3 
 1119000    1.0744091   -6.7387429    468.11861   0.03486138  0.035215428            3 
 1120000     1.054365   -6.7246377    466.73519  0.034727321  0.035206359            3 
 1121000    1.0503377   -6.7948192    467.84686  0.034778982  0.035197149            2 
 1122000    1.0848479   -6.7495765    467.59717  0.034729439  0.035187707            7 
 1123000    1.0510974   -6.7651557    467.26159  0.034673612  0.035178549            2 
 1124000    1.0963971   -6.7687333    467.89233  0.034689526  0.035169309            3 
 1125000    1.0732889   -6.7804798     467.3385  0.034617667  0.035160089            2 
 1126000    1.0658654   -6.8119659    467.67438  0.034611781  0.035150852            6 
 1127000    1.0711512   -6.7608908    469.15692  0.034690692  0.035141638            1 
 1128000     1.083731   -6.7824557    469.37951  0.034676383   0.03513268            5 
 1129000    1.0658708   -6.7782525    470.25371  0.034710194  0.035123574            1 
 1130000    1.0733701   -6.7590241    470.44846  0.034693839  0.035114974            2 
 1131000    1.0745258   -6.7176018    471.57068   0.03474585  0.035106335            2 
 1132000    1.0633733   -6.7814909    471.50926  0.034710634  0.035098009            2 
 1133000    1.0921257   -6.7731882     472.6783  0.034765983  0.035089425            5 
 1134000    1.0610705   -6.7664658    472.57323  0.034727604  0.035080978            2 
 1135000      1.07532   -6.7375832    473.37708  0.034756027  0.035072666            4 
 1136000    1.0782959   -6.7416199    473.41039  0.034727875  0.035064321            6 
 1137000    1.0633074   -6.8436875     472.5097  0.034631317   0.03505592            4 
 1138000     1.064511   -6.7877314    473.99044  0.034709318  0.035047493            2 
 1139000     1.047013   -6.7829205    474.06984  0.034684653  0.035039196            2 
 1140000     1.070651   -6.7789675    474.72541   0.03470215  0.035031182            2 
 1141000    1.0472946   -6.8109514    475.39929  0.034720953   0.03502283            2 
 1142000    1.0754122   -6.7704559     474.8679  0.034651773  0.035014466            8 
 1143000    1.0721237   -6.7735702    475.64583  0.034678174  0.035006214            4 
 1144000    1.0664001   -6.7682494    477.33209  0.034770694  0.034998012            4 
 1145000    1.0706972   -6.7689954    475.66603  0.034619071  0.034989637            3 
 1146000    1.0735529   -6.7612893    477.11439  0.034694182  0.034981517            2 
 1147000     1.042986   -6.7928613    476.98639  0.034654634  0.034973148            4 
 1148000    1.0375791   -6.7572499    477.22308  0.034641629  0.034964798            4 
 1149000    1.0552529   -6.7575459    477.52679  0.034633507    0.0349566            2 
 1150000    1.0766111    -6.763793    477.40749  0.034594745  0.034948322            4 
 1151000    1.0755806   -6.7353551    479.43516  0.034711494  0.034939792            2 
 1152000    1.0659343   -6.7876445    478.56017  0.034618068  0.034931344            5 
 1153000    1.0677296   -6.7507469    478.05644  0.034551636  0.034922869            5 
 1154000    1.0662159   -6.7763771    479.09967   0.03459703  0.034914684            2 
 1155000    1.0670214   -6.7977953    478.72797  0.034540257    0.0349063            2 
 1156000    1.0847495   -6.7832081    479.71661  0.034581647  0.034898198            4 
 1157000    1.0806609    -6.779411    479.68064  0.034549167  0.034889848            2 
 1158000    1.0621222   -6.7709585     478.9001  0.034463162  0.034881486            2 
 1159000    1.0788077   -6.7809853    480.17755  0.034525277  0.034872999            4 
 1160000    1.0938597   -6.7805385    480.41147  0.034512318  0.034864721            2 
 1161000    1.0487819   -6.7734198     481.2358   0.03454176  0.034856282            5 
 1162000    1.0527126   -6.7618288    481.42428  0.034525551  0.034848042            3 
 1163000    1.0731046   -6.7582478     482.7037   0.03458754  0.034839803            8 
 1164000    1.0549565   -6.7845957    483.42812  0.034609688  0.034831462            2 
 1165000    1.0760368   -6.8116371    482.50421  0.034513892  0.034823298            3 
 1166000     1.056026    -6.742551    484.08554  0.034597309  0.034815028            3 
 1167000    1.0841761   -6.7436628    482.95941  0.034487248  0.034806934            3 
 1168000    1.0706199   -6.7874273    484.08071  0.034537722  0.034798516            2 
 1169000    1.0610684   -6.7748695    483.37269  0.034457705  0.034790393            1 
 1170000    1.0527124   -6.7759874    483.69328  0.034451088  0.034782006            7 
 1171000    1.0849036   -6.8376973    483.01334  0.034373281  0.034773398            4 
 1172000    1.0495163   -6.7918601    484.36934  0.034440369  0.034764901            4 
 1173000    1.0626197   -6.8321471    483.33513  0.034337534  0.034756479            2 
 1174000    1.0772456   -6.7591815    485.46776  0.034459665  0.034747972            4 
 1175000    1.0654711   -6.7982368    484.70495  0.034376237   0.03473952            3 
 1176000    1.0620669   -6.7750575    486.26305  0.034457416  0.034731033            2 
 1177000    1.0451979   -6.7839759    487.28829  0.034500729  0.034722944            2 
 1178000    1.0520314   -6.7689361     486.9684  0.034448811  0.034714781            2 
 1179000    1.0527896   -6.8323251      485.913  0.034344996  0.034706573            2 
 1180000    1.0758155   -6.7651528    487.42984  0.034423011  0.034698457            4 
 1181000    1.0505579   -6.8241966    486.19225  0.034306537  0.034690177            6 
 1182000    1.0376953   -6.7623648    487.92122  0.034399409  0.034681937            5 
 1183000    1.0754349   -6.8156542    488.21359  0.034390927  0.034673745            3 
 1184000    1.0647272   -6.7790735    489.78007  0.034472133  0.034665569            6 
 1185000    1.0518381   -6.7573727    489.20459  0.034402573  0.034657466            4 
 1186000    1.0553376   -6.7664038    488.84291  0.034348152  0.034649347            3 
 1187000    1.0909654   -6.7862701    489.25142  0.034347896  0.034641097            2 
 1188000    1.0628897   -6.7652311    490.58326  0.034412406     0.034633            2 
 1189000    1.0651182   -6.7941678    489.71822  0.034322836  0.034624924            1 
 1190000    1.0610133   -6.8064103    491.00285  0.034383953  0.034616823            5 
 1191000    1.0500795    -6.790286    490.83395  0.034343265  0.034608584            2 
 1192000    1.0541885   -6.7737553    492.02464  0.034397696  0.034600357            4 
 1193000    1.0569923   -6.7539618    492.00541   0.03436752  0.034592309            2 
 1194000    1.0491149   -6.7765918     493.6255  0.034451808  0.034584218            2 
 1195000     1.057665   -6.8193794    491.26196  0.034258156  0.034576204            3 
 1196000    1.0867535   -6.7881684    494.34038  0.034444006   0.03456831            2 
 1197000     1.063504   -6.8124119    492.98373  0.034320783  0.034560329            3 
 1198000    1.0712973   -6.8004282    492.30412  0.034244861  0.034552381            3 
 1199000    1.0439753   -6.7682225     496.0478  0.034476494  0.034544527            3 
 1200000    1.0777895   -6.8080753     493.7655  0.034289271   0.03453667            2 
 1201000    1.0513248   -6.7364847    496.69548  0.034464022  0.034528824            4 
 1202000    1.0604007    -6.817637    494.62217  0.034291609  0.034520876            5 
 1203000    1.0662958   -6.7574132    494.69052  0.034267839  0.034512933            5 
 1204000    1.0711264   -6.7872075    494.68972  0.034239322  0.034505119            4 
 1205000    1.0867776   -6.7825945    496.15141  0.034311993  0.034497428            5 
 1206000     1.080882    -6.802486    497.33678  0.034365449  0.034489819            2 
 1207000    1.0581004    -6.799443    496.54873  0.034282569   0.03448205            4 
 1208000    1.0615253   -6.7953911     497.9536  0.034351104  0.034474145            2 
 1209000    1.0588145   -6.7901818    497.47481  0.034289689  0.034466301            3 
 1210000    1.0556625   -6.7817344    496.73733   0.03421056  0.034458468            2 
 1211000    1.0747251   -6.8072843    496.44133  0.034161941  0.034450499            5 
 1212000    1.0731791    -6.787296     497.7167  0.034221445  0.034442398            2 
 1213000    1.0588229   -6.7775381    499.03843  0.034284036  0.034434405            7 
 1214000    1.0487201   -6.7727686    498.85007  0.034242866  0.034426252            3 
 1215000    1.0357348   -6.8070785    497.13074  0.034096759  0.034418132            4 
 1216000    1.0333019   -6.8414417    496.59837  0.034032235   0.03441017            5 
 1217000    1.0739871   -6.7808896    501.65905  0.034350797  0.034402145            3 
 1218000    1.0616759   -6.8307382    499.66909  0.034186446  0.034394437            4 
 1219000    1.0490427   -6.8511584    499.02103  0.034114098  0.034386739            1 
 1220000    1.0349971   -6.7642926    501.49911  0.034255404  0.034378974            2 
 1221000    1.0630933   -6.8013842    503.01947  0.034331113  0.034371504            3 
 1222000    1.0554199   -6.7941424    502.04306  0.034236434  0.034363873            2 
 1223000    1.0445277   -6.8025834    502.55618  0.034243403   0.03435632            2 
 1224000    1.0587942   -6.7802859    501.13797   0.03411887  0.034348613            2 
 1225000    1.0585827   -6.7897255    503.07147  0.034222549  0.034340843            2 
 1226000    1.0614815    -6.802318     501.9746  0.034120079   0.03433317            3 
 1227000    1.0513477   -6.8440869    502.23556  0.034109995  0.034325584            3 
 1228000    1.0489745   -6.7958677    501.87724  0.034057902  0.034317645            2 
 1229000    1.0571707   -6.8010092     504.2184  0.034188934  0.034310106            2 
 1230000    1.0270882   -6.8076515    502.97581  0.034076952  0.034302239            3 
 1231000    1.0469112   -6.7426244     504.7043  0.034166281  0.034294541            5 
 1232000     1.045735   -6.8029176    502.74704  0.034006158  0.034286645            2 
 1233000    1.0571465   -6.7564737    504.74117  0.034113353  0.034278664            3 
 1234000    1.0536304   -6.8117327    504.11567  0.034043468  0.034270777            2 
 1235000    1.0387911   -6.8103994    503.90963  0.034001999  0.034262763            3 
 1236000    1.0594629   -6.7908127    504.55039  0.034017691  0.034254625            3 
 1237000    1.0524645   -6.7535074     504.9936  0.034020049  0.034246684            4 
 1238000    1.1008292   -6.8078955    504.42304  0.033954162  0.034238814            2 
 1239000    1.0593138   -6.7817252    507.62275  0.034141966  0.034231039            2 
 1240000    1.0565997   -6.8123062     505.6302  0.033980524  0.034223221            3 
 1241000    1.0579461   -6.7682116    507.41198  0.034072789   0.03421549            1 
 1242000     1.050105   -6.8089707    508.48533  0.034117373  0.034207774            6 
 1243000    1.0408835   -6.8166803    507.32169  0.034011913  0.034200158            2 
 1244000    1.0578846   -6.7991067    507.94067  0.034026036  0.034192507            2 
 1245000    1.0758991   -6.8093556    509.03527  0.034071973  0.034184828            2 
 1246000    1.0598564   -6.8059187    508.67338  0.034020424  0.034177352            9 
 1247000    1.0507646   -6.8327827    509.57108  0.034053133  0.034169833            2 
 1248000    1.0593983   -6.7656158    508.66393  0.033965273  0.034162304            2 
 1249000    1.0550222   -6.7989863    511.56283  0.034131494  0.034154837            4 
 1250000    1.0509935   -6.7691309    511.71316  0.034114211  0.034147521            2 
 1251000    1.0513293   -6.8600205    510.24824  0.033989358  0.034140304            5 
 1252000    1.0639421   -6.8029722    511.41438  0.034039828  0.034132984            2 
 1253000    1.0488273   -6.8161531    511.23046   0.03400043  0.034125661            2 
 1254000    1.0357555   -6.8070531    513.15942  0.034101503  0.034118519            4 
 1255000    1.0604753   -6.8498069    511.18676  0.033943344  0.034111239            2 
 1256000    1.0684109   -6.8194794    513.05118   0.03404002  0.034103842            1 
 1257000    1.0594745   -6.8250925    512.49893  0.033976328  0.034096468            3 
 1258000    1.0336333    -6.841335    512.01064  0.033916974  0.034089155            3 
 1259000    1.0537295   -6.7745216    514.14593   0.03403137  0.034081933            3 
 1260000    1.0475551   -6.7616074     515.1287  0.034069358  0.034074903            2 
 1261000    1.0713765   -6.8327556    513.17252  0.033913066   0.03406752            2 
 1262000    1.0550528   -6.8510085    512.52333  0.033843326   0.03406013            2 
 1263000    1.0471163   -6.8415174    511.96888  0.033779947  0.034052608            1 
 1264000    1.0633199   -6.8171295    513.27386  0.033839258  0.034044877            2 
 1265000    1.0506683    -6.802911    513.91574  0.033854792   0.03403728            2 
 1266000    1.0644059   -6.7996994    516.98666  0.034030191  0.034029667            2 
 1267000    1.0634928   -6.8145524    514.31285   0.03382747  0.034021979            4 
 1268000    1.0690486   -6.8217934    515.64116  0.033888089  0.034014435            4 
 1269000    1.0420167     -6.79642    515.45409    0.0338491  0.034006925            4 
 1270000    1.0417372   -6.8309219    516.18995  0.033870731  0.033999414            2 
 1271000     1.040495   -6.7990817    517.66522  0.033940809  0.033991914            4 
 1272000    1.0465739   -6.8459548    517.91199  0.033930293  0.033984551            9 
 1273000    1.0220154   -6.7888989    516.13875  0.033787559  0.033977203            3 
 1274000    1.0472584   -6.8571998    517.20009  0.033830461  0.033969815            3 
 1275000    1.0349554   -6.7694217    518.22406  0.033870854  0.033962545            2 
 1276000    1.0379988   -6.8526504    518.70223  0.033875538  0.033955259            2 
 1277000    1.0485284   -6.8027264     517.4959  0.033770289  0.033947757            3 
 1278000    1.0519965   -6.8134455    518.27029  0.033794359  0.033940189            2 
 1279000    1.0638932   -6.8214673    519.55101  0.033851382  0.033932697            2 
 1280000    1.0269329    -6.826147    519.56656  0.033825948  0.033925241            6 
 1281000    1.0634724   -6.8065046    519.79296   0.03381427  0.033917697            2 
 1282000    1.0396023    -6.797203    520.08436  0.033806836  0.033910337            3 
 1283000    1.0569111   -6.8151368    519.92751  0.033770298  0.033902974            2 
 1284000    1.0776437   -6.8508583    520.40652  0.033775085  0.033895478            2 
 1285000    1.0310571   -6.7828261    521.33376  0.033808934  0.033887963            2 
 1286000    1.0317598   -6.8297638    521.28724  0.033779629  0.033880623            2 
 1287000    1.0530023   -6.8364502    521.87064  0.033791157  0.033873234            3 
 1288000    1.0395082    -6.802484    521.65129   0.03375073  0.033865974            2 
 1289000    1.0532658   -6.8465054    522.28659  0.033765619  0.033858851            4 
 1290000    1.0499717   -6.8311113    523.84189  0.033839915  0.033851541            3 
 1291000    1.0461253    -6.809031    524.81292  0.033876382  0.033844464            4 
 1292000    1.0767741    -6.838216     523.2886  0.033751845  0.033837368            3 
 1293000    1.0357554   -6.8288674    525.08349  0.033841421  0.033830378            4 
 1294000    1.0592226   -6.8341245    525.42384  0.033837187  0.033823399            4 
 1295000    1.0607118   -6.8041389    526.56336  0.033884386  0.033816606            3 
 1296000    1.0419824   -6.8238049    525.67601  0.033801184   0.03380995            3 
 1297000    1.0316012   -6.8127293    524.64271  0.033708732  0.033802953            2 
 1298000    1.0344614   -6.8073657    526.78482  0.033820289   0.03379606            4 
 1299000     1.053048   -6.8230786    525.47041  0.033709931  0.033789003            4 
 1300000    1.0126587     -6.86437    526.27343  0.033735476  0.033781766            3 
 1301000    1.0253587   -6.8173144    528.00017  0.033820149  0.033774783            2 
 1302000    1.0365131   -6.8244531    529.00083   0.03385822  0.033767991            4 
 1303000    1.0458242    -6.839501    529.00515  0.033832512  0.033761287            2 
 1304000    1.0597843   -6.8534801    528.02374  0.033743849  0.033754497            3 
 1305000    1.0217787   -6.8295029    528.07694  0.033721389  0.033747695            2 
 1306000    1.0393808   -6.7989247    529.34758  0.033776645  0.033741046            2 
 1307000    1.0316477   -6.8089248    529.70685  0.033773709  0.033734312            7 
 1308000    1.0452507   -6.8086045    530.24246  0.033782012  0.033727684            2 
 1309000    1.0188943   -6.8225079    530.53652  0.033774925  0.033721195            5 
 1310000    1.0582046   -6.8058501    530.48052   0.03374558   0.03371462            2 
 1311000    1.0481336   -6.8187089    531.99906  0.033816365  0.033708193            2 
 1312000    1.0383234   -6.8308028    529.89384  0.033656875  0.033701769            6 
 1313000    1.0533451    -6.839299    532.19624   0.03377737   0.03369515            2 
 1314000     1.054553   -6.8056708    533.26548  0.033819475  0.033688445            3 
 1315000    1.0290256   -6.8393782    533.14418   0.03378607  0.033681888            4 
 1316000    1.0492392   -6.8405552    533.42061  0.033777901  0.033675295            3 
 1317000    1.0537095   -6.8342526     533.3834  0.033749899  0.033668715            2 
 1318000    1.0815929   -6.8365499    531.89078  0.033629918  0.033662042            3 
 1319000    1.0214621   -6.8097611    534.12578  0.033745627  0.033655459            3 
 1320000    1.0479732    -6.807468    533.91964  0.033707048  0.033648915            4 
 1321000    1.0465731   -6.7870529    535.74535  0.033796704  0.033642492            8 
 1322000    1.0532117   -6.8480911    535.52469   0.03375723   0.03363608            5 
 1323000    1.0259601   -6.8129057    537.15294  0.033834274  0.033629655            3 
 1324000    1.0473469   -6.8071726    535.21767  0.033686913  0.033623196            1 
 1325000    1.0392832   -6.8536242     534.7767  0.033633755   0.03361657            3 
 1326000    1.0513733   -6.8404714    535.25409  0.033638391  0.033609968            5 
 1327000    1.0700328   -6.8402076    534.71645   0.03357928  0.033603311            3 
 1328000    1.0377207   -6.8240421     537.4901  0.033728043  0.033596689            2 
 1329000     1.064903   -6.8308773    536.15871  0.033619182  0.033590202            3 
 1330000    1.0172156   -6.8371246    535.75033  0.033568316  0.033583551            1 
 1331000     1.045106   -6.8246244    536.66155  0.033600147  0.033576899            3 
 1332000    1.0395285   -6.7910352    539.19277  0.033733281  0.033570409            5 
 1333000    1.0660961   -6.8237713    535.83468  0.033498042  0.033563848            3 
 1334000     1.021318   -6.7892609    539.60085  0.033708199  0.033557317            2 
 1335000    1.0394465   -6.7970939    539.15892  0.033655363  0.033550891            2 
 1336000    1.0256936   -6.8290782    538.90886  0.033614575  0.033544447            3 
 1337000    1.0184132   -6.8315018    537.70667  0.033514502  0.033537953            4 
 1338000    1.0417358   -6.7984756    541.01863  0.033695729   0.03353142            3 
 1339000    1.0389228    -6.821181    541.09219  0.033675142  0.033524894            2 
 1340000    1.0454237   -6.8400788    539.57665  0.033555762  0.033518353            1 
 1341000    1.0319478   -6.8403274    539.01472  0.033495819  0.033511649            2 
 1342000    1.0167756    -6.854897    539.65875  0.033510851  0.033505005            3 
 1343000    1.0268924   -6.8336244    540.73714  0.033552813   0.03349844            4 
 1344000    1.0504698   -6.8367297    540.47307  0.033511475  0.033491965            6 
 1345000    1.0315748   -6.8235455    544.10581  0.033711637  0.033485491            3 
 1346000    1.0434001   -6.8507281    542.64026  0.033595856  0.033479109            3 
 1347000    1.0254775   -6.8591105    542.83431  0.033582919  0.033472684            4 
 1348000    1.0413887   -6.8190049    542.71922  0.033550891  0.033466275            2 
 1349000    1.0292391   -6.8072356    544.21135  0.033618195  0.033459974            7 
 1350000    1.0413781   -6.8417567    543.89004  0.033573459  0.033453565            3 
 1351000    1.0316129   -6.8724648    543.44905  0.033521407  0.033447043            2 
 1352000    1.0164515   -6.8138264    544.53816  0.033563742  0.033440491            3 
 1353000    1.0487023   -6.8779906    542.58236  0.033418475   0.03343386            2 
 1354000    1.0421113   -6.8129629    546.03893  0.033606532  0.033427278            3 
 1355000    1.0608607    -6.821808    544.35631  0.033478248  0.033420951            5 
 1356000     1.028916   -6.8588173    545.55644  0.033527313   0.03341455            6 
 1357000    1.0590762   -6.8399454    545.05865  0.033472037  0.033408177            3 
 1358000    1.0319408    -6.869395    545.03226   0.03344577  0.033401668            2 
 1359000    1.0314209   -6.8469941    546.12889  0.033488404  0.033395274            3 
 1360000    1.0499896   -6.8387293    544.29932  0.033351674  0.033388706            2 
 1361000    1.0473353   -6.8296175    545.47662  0.033399254  0.033382175            4 
 1362000    1.0340962   -6.8427725    548.74325  0.033574599  0.033375729            2 
 1363000    1.0573959   -6.8066133    548.08303    0.0335096  0.033369266            2 
 1364000    1.0368493   -6.8445637    548.56809  0.033514668   0.03336285            2 
 1365000    1.0320771   -6.8096135    549.02381  0.033517937  0.033356515            3 
 1366000    1.0321791   -6.8679234     547.5015  0.033400531  0.033350201            2 
 1367000    1.0388136   -6.8589604    547.87214  0.033398692  0.033343817            1 
 1368000     1.035096   -6.8700381    550.47217  0.033532661  0.033337473            5 
 1369000     1.044858   -6.8317329    549.00093   0.03341861  0.033331054            6 
 1370000    1.0381837   -6.8280559    550.95494  0.033513074  0.033324699            7 
 1371000    1.0295058   -6.8282837    550.31714  0.033449863  0.033318536            2 
 1372000    1.0171233   -6.8670261    550.31883  0.033425585  0.033312288            2 
 1373000    1.0310808   -6.8545139    552.95996  0.033561542  0.033305932            2 
 1374000    1.0444958   -6.8368703     552.5842  0.033514326  0.033299584            2 
 1375000    1.0374612   -6.8405677     551.4109  0.033418843  0.033293182            4 
 1376000    1.0623091      -6.8188    552.33121  0.033450291  0.033286915            2 
 1377000    1.0177577   -6.8655378    551.40434  0.033369907  0.033280419            2 
 1378000    1.0456636   -6.8451347    551.44194  0.033347964  0.033274074            2 
 1379000    1.0313352   -6.8473158    551.86044  0.033349072   0.03326749            3 
 1380000    1.0284332   -6.8390879    554.48575  0.033483439  0.033260913            7 
 1381000    1.0179047   -6.8882643    551.10648  0.033255279  0.033254319            2 
 1382000    1.0474254   -6.8828207    552.16705  0.033295167   0.03324752            3 
 1383000    1.0405552   -6.8696705    552.04477  0.033263724  0.033240871            4 
 1384000    1.0272497    -6.868753    553.59275  0.033332897  0.033234182            5 
 1385000    1.0234155   -6.8253927    554.39458  0.033357074  0.033227599            2 
 1386000   0.99697845   -6.8374219    553.69456  0.033290919   0.03322111            2 
 1387000     1.024504   -6.8264286    555.90632  0.033399803  0.033214767            1 
 1388000    1.0166409   -6.8613438    556.41882   0.03340651   0.03320849            1 
 1389000    1.0458829   -6.8617742    555.05238  0.033300479  0.033202255            3 
 1390000    1.0030043   -6.8394094    556.64549  0.033372032  0.033195951            2 
 1391000    1.0361161   -6.8527592    555.35395  0.033270665  0.033189774            3 
 1392000    1.0373277   -6.8628159    555.20086  0.033237599   0.03318326            2 
 1393000    1.0296614   -6.8555717    555.60636  0.033237997  0.033176751            2 
 1394000    1.0348256   -6.8688575    555.70021  0.033219764  0.033170035            1 
 1395000    1.0332068   -6.8735623    556.46849  0.033241845   0.03316343            5 
 1396000    1.0317093   -6.8713587    556.69562  0.033231591  0.033156792            2 
 1397000    1.0074584   -6.8631815      557.825  0.033275173  0.033150364            4 
 1398000    1.0252435   -6.8768246    556.18527  0.033153628  0.033143902            2 
 1399000    1.0155086   -6.8392221    559.78743  0.033344498  0.033137503            2 
 1400000    1.0412752   -6.8869261     557.9181   0.03320941  0.033131103            4 
 1401000    1.0323629   -6.8561877    559.24739  0.033264775    0.0331246            3 
 1402000    1.0363304    -6.864072    558.50969    0.0331972  0.033118057            3 
 1403000     1.025017   -6.8202859    558.41781  0.033168081  0.033111562            3 
 1404000    1.0454533   -6.8218835    560.75216   0.03328301  0.033105185            3 
 1405000    1.0377864   -6.7952989    561.35827  0.033295271  0.033098614            3 
 1406000    1.0385013   -6.8056396    562.14478  0.033318206  0.033092503            3 
 1407000    1.0270249   -6.8794482    559.34501  0.033128703  0.033086109            2 
 1408000    1.0141887   -6.8817087    560.18161  0.033154688  0.033079702            1 
 1409000    1.0274754   -6.9070214    560.73868  0.033164104  0.033073137            5 
 1410000    1.0260553   -6.8823354    561.77688  0.033201943  0.033066781            2 
 1411000    1.0277294   -6.8810765    561.42262   0.03315749  0.033060381            5 
 1412000    1.0210275   -6.8647208    561.96442  0.033165983  0.033053827            3 
 1413000    1.0094488   -6.8835078    561.63863  0.033123298  0.033047406            3 
 1414000     1.020332   -6.8689147    561.68862  0.033102818  0.033040924            3 
 1415000    1.0270656   -6.8363745    563.94696  0.033212424  0.033034468            6 
 1416000    1.0353017   -6.8286708    563.72024  0.033175626  0.033028125            3 
 1417000    1.0487683   -6.8608151    564.79539  0.033215443  0.033021877            3 
 1418000    1.0191232   -6.8388085    564.06805  0.033149274  0.033015405            3 
 1419000    1.0025661   -6.8204749    564.49948  0.033151249  0.033009123            1 
 1420000     1.020144   -6.8573054    563.15134  0.033048788  0.033002843            4 
 1421000    1.0362161   -6.8707141    564.87428   0.03312657  0.032996557            4 
 1422000    1.0225981    -6.873169    564.72757  0.033094677  0.032990108            3 
 1423000    1.0267933   -6.8621908    564.54374  0.033060655  0.032983651            2 
 1424000     1.001352   -6.8270324    565.49732  0.033093242  0.032977328            2 
 1425000    1.0191706    -6.864205    565.57769  0.033074719  0.032970727            3 
 1426000    1.0075223   -6.8345943    566.98899  0.033133999  0.032964143            5 
 1427000    1.0191882   -6.8659924    565.84056  0.033043714  0.032957633            2 
 1428000    1.0043324   -6.8665553    565.74751  0.033015144  0.032951053            5 
 1429000    1.0381938   -6.8405101    564.56233  0.032922925  0.032944424            3 
 1430000     1.019281    -6.889736     565.0827  0.032930227  0.032937763            2 
 1431000    1.0203146   -6.8791148    566.66588  0.032999411  0.032931251            2 
 1432000    1.0311426   -6.8674873    566.01455  0.032938463  0.032924632            5 
 1433000    1.0491647   -6.8776423    565.44436  0.032882319  0.032918041            3 
 1434000    1.0249257   -6.8880437    567.45608  0.032976295  0.032911432            4 
 1435000    0.9887807   -6.8705362    569.31896  0.033061496  0.032904991            3 
 1436000    1.0344878   -6.8746894    568.74283  0.033005039  0.032898663            2 
 1437000    1.0118127    -6.859763    571.00497  0.033113255   0.03289252            3 
 1438000    1.0196229   -6.8552976     570.9151   0.03308502  0.032886417            5 
 1439000    1.0237251    -6.858873    572.09429  0.033130316  0.032880204            3 
 1440000    1.0027812   -6.8645941     570.0242  0.032987512  0.032873975            2 
 1441000    1.0097697   -6.8729815    570.41217  0.032987056  0.032867744            4 
 1442000    1.0260624   -6.8876412    569.76236  0.032926627  0.032861384            3 
 1443000    1.0191752   -6.8460565    568.47285   0.03282934  0.032854944            4 
 1444000    1.0378313    -6.886491    571.36611  0.032973575  0.032848564            3 
 1445000    1.0239247   -6.8772223    571.06324   0.03293329  0.032842219            1 
 1446000    1.0350732   -6.9025767    570.85956  0.032898776  0.032835908            2 
 1447000   0.99797628   -6.8872328    572.42721  0.032966322  0.032829704            2 
 1448000     1.039578   -6.8959368    572.04472  0.032921542  0.032823582            2 
 1449000    1.0373015   -6.8719527    574.29328  0.033028139  0.032817599            4 
 1450000    1.0444928   -6.8813305    574.36326  0.033009383  0.032811525            3 
 1451000    1.0361663    -6.859361     573.6246  0.032944211  0.032805446            3 
 1452000    1.0034402   -6.8952051    574.75661   0.03298649  0.032799382            2 
 1453000    1.0385348   -6.8849112    574.63261  0.032956677  0.032793581            2 
 1454000    1.0382593   -6.8704588    575.47203   0.03298212  0.032787589            4 
 1455000    1.0243284   -6.8645459     576.7873  0.033034782  0.032781657            6 
 1456000    1.0112589   -6.8645586    577.54415  0.033055412  0.032775784            3 
 1457000    1.0254013   -6.8502523    576.13975  0.032952399  0.032769927            2 
 1458000    1.0036258   -6.8626361    576.74306  0.032964281  0.032763891            4 
 1459000    1.0092382   -6.8862225    573.87804  0.032778046   0.03275781            3 
 1460000    1.0117359   -6.8697002    578.62199  0.033026369  0.032751778            1 
 1461000    1.0289351   -6.8681214    578.63486  0.033004498  0.032745717            2 
 1462000    1.0296941   -6.8781935    578.43906  0.032970763  0.032739798            3 
 1463000    1.0059166   -6.8616753    578.61798  0.032958417  0.032733892            6 
 1464000    1.0401807   -6.8772331    579.35448  0.032977828  0.032728047            5 
 1465000    1.0104531   -6.8364716    579.92524  0.032987784  0.032722298            3 
 1466000    1.0154291   -6.8691909    578.82671  0.032902837  0.032716389            2 
 1467000    1.0237698   -6.8782285    580.24959  0.032961236  0.032710369            2 
 1468000    1.0064346   -6.8856106    579.70845  0.032908064  0.032704512            3 
 1469000    1.0291178   -6.8795981    579.26601  0.032860564  0.032698555            2 
 1470000    1.0100913   -6.8347967    580.82135   0.03292638  0.032692508            2 
 1471000    1.0067615   -6.8620714    579.33058  0.032819543  0.032686586            3 
 1472000    1.0099895    -6.881412    580.93827  0.032888263  0.032680596            3 
 1473000    1.0089846   -6.9176268    579.42992  0.032780602    0.0326746            2 
 1474000    1.0025445   -6.8765735    581.55976  0.032878775   0.03266854            2 
 1475000    1.0261753   -6.9053109    580.67273  0.032806369  0.032662442            3 
 1476000    1.0227708   -6.8570638    584.07426  0.032976189  0.032656561            1 
 1477000     1.018704   -6.8709306    583.39189  0.032915362  0.032650712            4 
 1478000    1.0247017   -6.8804838    583.94869  0.032924486  0.032644772            2 
 1479000     1.041549   -6.8606412    585.37308  0.032982481  0.032639059            2 
 1480000    1.0178028   -6.8770134    583.02078  0.032827746  0.032633398            5 
 1481000    1.0195593   -6.9129806    584.68432  0.032899185  0.032627625            3 
 1482000    1.0032374   -6.8677882    584.64954   0.03287503  0.032621742            2 
 1483000    1.0094275   -6.9241099    584.23049  0.032829315   0.03261601            2 
 1484000    1.0172151   -6.8868683     586.1756  0.032916419   0.03261017            3 
 1485000    1.0155376   -6.8338674    586.56333  0.032916012  0.032604544            3 
 1486000    1.0226764   -6.8790396    584.64607  0.032786343  0.032598653            5 
 1487000    1.0111019    -6.878207    585.57241  0.032816208  0.032592998            3 
 1488000    1.0108173    -6.855455     587.3181  0.032891919  0.032587136            2 
 1489000    1.0184731   -6.8305822    586.48173   0.03282302  0.032581377            4 
 1490000   0.99897082   -6.8756429    585.89107  0.032767957  0.032575482            3 
 1491000    1.0256333   -6.8934177    586.83155  0.032798544  0.032569582            3 
 1492000    1.0273982   -6.8823868    586.68601  0.032768432  0.032563654            3 
 1493000    1.0426806   -6.8761334    587.31338  0.032781501  0.032557612            5 
 1494000    1.0314496   -6.9125665    587.30624  0.032759161  0.032551573            5 
 1495000    1.0187027   -6.8789937    586.26554  0.032679239   0.03254542            3 
 1496000    1.0250041   -6.9011017    586.43087  0.032666604  0.032539297            3 
 1497000    1.0196761   -6.8788456    588.15044  0.032740505   0.03253323            2 
 1498000   0.99256129   -6.8801673    586.97878   0.03265347  0.032527136            2 
 1499000    1.0071954   -6.8283998    588.14874  0.032696728  0.032521141            3 
 1500000    1.0076695   -6.9018414    587.60728  0.032644849   0.03251509            1 
 1501000    1.0306709   -6.8892688    590.79736  0.032800209  0.032509062            3 
 1502000    1.0044658   -6.8811377    590.77274  0.032777005  0.032503213            3 
 1503000    1.0239197   -6.8890785    588.77759  0.032644577  0.032497279            2 
 1504000    1.0075364   -6.8814918    588.38455  0.032601094  0.032491211            3 
 1505000    0.9885576   -6.8732706    589.37992  0.032634547  0.032485129            8 
 1506000    1.0146501   -6.8595621    590.24608  0.032660806     0.032479            2 
 1507000    1.0317048   -6.9391153    589.98918  0.032624927  0.032472834            2 
 1508000    1.0243553   -6.8568187    592.42457  0.032737874  0.032466662            3 
 1509000    1.0089074   -6.8958333    591.02124  0.032638681  0.032460685            2 
 1510000     1.024327   -6.8767585    593.29204  0.032742387  0.032454487            3 
 1511000    1.0102767   -6.9053171     590.5421  0.032569055  0.032448325            4 
 1512000   0.98397431   -6.9123563    590.26226  0.032532091  0.032442136            2 
 1513000   0.99337575   -6.8897399    592.04425  0.032608738   0.03243582            1 
 1514000    1.0038906   -6.8751769    591.94376  0.032581669  0.032429623            4 
 1515000    1.0138121   -6.8632429    591.92276  0.032559008  0.032423338            4 
 1516000    0.9937832   -6.8925514    592.34795  0.032560903  0.032416957            5 
 1517000   0.99822312   -6.8660014    593.40134  0.032597305  0.032410708            1 
 1518000    1.0188757   -6.8668747    593.81211  0.032598381  0.032404469            2 
 1519000    1.0256092   -6.9247848    591.02242  0.032423877  0.032398096            2 
 1520000    1.0001443    -6.896583    592.14958  0.032464341  0.032391668            5 
 1521000   0.98506652   -6.9178939    592.17514  0.032444397  0.032385249            3 
 1522000    1.0290198   -6.9019008    592.22135   0.03242561  0.032378755            3 
 1523000   0.99597646   -6.8755078    593.10126  0.032452466  0.032372329            4 
 1524000     1.009264   -6.8879873    595.59867  0.032567731  0.032365987            2 
 1525000    1.0298879   -6.8636487     591.7834   0.03233789  0.032359417            2 
 1526000    1.0180095   -6.8951512    593.86062  0.032430134  0.032352809            4 
 1527000    1.0015942   -6.8947601    593.69359  0.032399781  0.032346161            4 
 1528000    1.0004439   -6.9511718    592.40078   0.03230807  0.032339529            2 
 1529000   0.99163463    -6.906975     593.5086  0.032347318  0.032332846            3 
 1530000    1.0227956   -6.9009611    593.22366  0.032310657  0.032326257            2 
 1531000    1.0073367   -6.9001278    594.42207  0.032354783  0.032319728            5 
 1532000    1.0006349   -6.9119469    595.00568  0.032365409  0.032313217           11 
 1533000    1.0115969   -6.9033991     594.7157  0.032328534  0.032306646            4 
 1534000     1.001197   -6.9172253    595.73974  0.032363089  0.032300209            3 
 1535000    0.9978693   -6.9258493    596.44724  0.032380415  0.032293564            2 
 1536000    1.0199889   -6.9333652    596.20021  0.032345932  0.032287002            2 
 1537000    1.0396157   -6.8832995    596.02209   0.03231523  0.032280485            2 
 1538000    1.0012851   -6.8922482    597.80111   0.03239061  0.032273966            3 
 1539000     1.000497   -6.9439794    594.93482  0.032214361  0.032267343            3 
 1540000   0.99553967   -6.9119707    596.84157  0.032296622  0.032260609            3 
 1541000    1.0145632   -6.9168797    595.84155  0.032221585  0.032253909            3 
 1542000    1.0166199   -6.8936042    596.54203  0.032238545  0.032247217            5 
 1543000   0.99398582   -6.9490672    597.80144  0.032285669  0.032240455            3 
 1544000    1.0051401   -6.8979906    597.00195  0.032221608  0.032233769            4 
 1545000    1.0077295   -6.8941383    599.45246  0.032332927  0.032227121            3 
 1546000    1.0188369    -6.938886    598.48861  0.032260059  0.032220521            3 
 1547000    1.0148175   -6.8858888    599.56732  0.032297313  0.032214058            2 
 1548000     1.006853   -6.9014112    600.20212  0.032310622  0.032207586            2 
 1549000    1.0235315   -6.8952126    599.62277  0.032258596  0.032201118            4 
 1550000    1.0210319   -6.8716971    598.49275   0.03217703  0.032194523            2 
 1551000    1.0071162   -6.8593729    600.25158  0.032250784  0.032187906            2 
 1552000     1.000862   -6.9311998    598.55689  0.032139008  0.032181184            1 
 1553000     1.003028   -6.9050009    598.96746  0.032140344  0.032174447            3 
 1554000   0.99735833   -6.9317152    598.85696  0.032113736  0.032167737            3 
 1555000   0.99530717   -6.8841965      600.226  0.032166452  0.032161069            2 
 1556000    1.0016894   -6.9216116    601.15928  0.032195762  0.032154437            3 
 1557000    1.0124917   -6.8893628    600.56859   0.03214347  0.032147602            3 
 1558000   0.99779609   -6.8693138    600.85838  0.032138339  0.032140957            2 
 1559000    0.9915264   -6.9095788    599.49958  0.032045092  0.032134331            3 
 1560000   0.99390201   -6.8920905    601.09917  0.032109999  0.032127579            3 
 1561000    1.0267011   -6.9069795    600.45829  0.032055215  0.032120876            2 
 1562000   0.99197432   -6.9051237      602.227  0.032129055  0.032114151            3 
 1563000   0.97753247   -6.9231674    601.57508  0.032073741  0.032107436            5 
 1564000   0.98341809   -6.9110036     601.1726  0.032031788  0.032100715            6 
 1565000     1.007881   -6.8945057    602.80478  0.032098231  0.032093968            2 
 1566000   0.99896635   -6.9004455    602.53787  0.032063531  0.032087366            2 
 1567000   0.99345411   -6.9011573    602.96021  0.032065529  0.032080579            2 
 1568000   0.98644443   -6.8992693    604.37588  0.032120317   0.03207394            7 
 1569000   0.98579558   -6.9471829    604.05922  0.032083027  0.032067054            3 
 1570000    1.0161913   -6.9058856    604.56987  0.032089696  0.032060307            3 
 1571000   0.99601496   -6.8812778    604.82921  0.032083026  0.032053708            4 
 1572000   0.99914157   -6.9085128    605.71807  0.032109736  0.032047034            3 
 1573000    1.0156568   -6.9248112     606.0041  0.032104476  0.032040271            4 
 1574000   0.98046126   -6.9230676    604.41568  0.031999983  0.032033496           13 
 1575000    1.0098332   -6.9080088    606.45097  0.032087353  0.032026732            2 
 1576000   0.97363574   -6.8963935    606.19289  0.032053346  0.032020018            4 
 1577000    1.0024798   -6.9226651    604.23587  0.031929606  0.032013254            2 
 1578000    0.9756713   -6.9103893    606.24875  0.032015671  0.032006393            4 
 1579000    1.0105872   -6.9175725    606.44243  0.032005617  0.031999757            2 
 1580000   0.99400446   -6.9129634    607.15521  0.032022954  0.031993069            2 
 1581000    1.0115721   -6.9207471    608.15435  0.032055363  0.031986404            2 
 1582000    1.0161949   -6.9381708    606.44866  0.031945252  0.031979719            2 
 1583000    1.0023749   -6.9155797    608.16681   0.03201552  0.031973001            2 
 1584000    1.0072252   -6.8952169    607.48763  0.031959577  0.031966293            5 
 1585000   0.98832612   -6.9134034    607.56526  0.031943494   0.03195955            2 
 1586000   0.98884183   -6.9088497    608.35525  0.031964862  0.031952788            2 
 1587000   0.98778172   -6.9107162    609.38933   0.03199902  0.031945953            3 
 1588000   0.98869516   -6.9266309    607.82427   0.03189674  0.031939125            3 
 1589000    1.0114075   -6.8998337    610.73825  0.032029487  0.031932312            2 
 1590000   0.98159825   -6.9579192    609.75538  0.031957829  0.031925373            5 
 1591000    1.0100308   -6.8936332    609.20314  0.031908817  0.031918531            4 
 1592000    1.0000167   -6.9246253     609.8432  0.031922278  0.031911694            4 
 1593000   0.98054724   -6.9199017    608.30354  0.031821696  0.031904745            6 
 1594000    0.9809032   -6.9053533    609.44057  0.031861176  0.031897719            4 
 1595000   0.99368934   -6.9446253    608.43775  0.031788806  0.031890612            4 
 1596000    1.0022913   -6.9022991     607.9011  0.031740868  0.031883617            3 
 1597000   0.98495876    -6.930476    610.22125  0.031842061  0.031876718            5 
 1598000   0.99444599   -6.9356795    610.59982  0.031841876  0.031869727            1 
 1599000    1.0097878   -6.9288763    611.84272  0.031886737   0.03186268            2 
 1600000    1.0330726   -6.9156831    610.44085  0.031793794  0.031855605            4 
 1601000   0.98669963   -6.9097261     611.5578  0.031832074  0.031848663            3 
 1602000    1.0091575   -6.9156603    611.44364  0.031806265  0.031841515            2 
 1603000   0.97907082   -6.9019397    611.21203  0.031774383  0.031834433            3 
 1604000    1.0117679   -6.9025928    611.50554  0.031769822   0.03182737            5 
 1605000    0.9969583    -6.936837     611.8147   0.03176608  0.031820174            4 
 1606000    0.9896221   -6.9073219    611.23189  0.031716059   0.03181297            3 
 1607000   0.96859171   -6.9089329    611.36089  0.031703013   0.03180579            3 
 1608000    1.0011763   -6.9189847    610.80246  0.031654356  0.031798623            4 
 1609000   0.98644812    -6.934565     611.7379  0.031683131   0.03179138            4 
 1610000   0.99877293    -6.947967    610.65653  0.031607481  0.031784055            4 
 1611000     1.004456   -6.9331687    612.23769  0.031669651  0.031776786            3 
 1612000   0.99468579   -6.9046095    613.63716  0.031722351  0.031769654            4 
 1613000   0.96954126   -6.9310323    611.38098  0.031586122  0.031762367            4 
 1614000    1.0016168   -6.9177803    612.73338  0.031636379  0.031755133            2 
 1615000   0.99236422   -6.9099936    611.04943  0.031529899  0.031747922            1 
 1616000   0.97711811    -6.897281    613.43625   0.03163347  0.031740635            3 
 1617000    1.0076028   -6.9355066    616.03243  0.031747703  0.031733443            4 
 1618000   0.99661557   -6.9314589    612.98289  0.031571018  0.031726332            4 
 1619000   0.96885217    -6.915401    614.02832  0.031605329  0.031719097            2 
 1620000    1.0112044   -6.9373018     615.0897  0.031640417  0.031711869            3 
 1621000   0.98323089   -6.9168592    613.34435  0.031531171  0.031704545            3 
 1622000   0.99629828   -6.9429382    614.57399  0.031574907  0.031697112            3 
 1623000   0.99099738   -6.9338538     616.2272  0.031640337  0.031689762            3 
 1624000    1.0038564   -6.9169027    614.41009  0.031527612   0.03168249            4 
 1625000   0.99213504   -6.9171014     615.9002  0.031584626  0.031675267            2 
 1626000   0.98422135   -6.9543114    615.96609  0.031568578  0.031667963            5 
 1627000   0.98378859   -6.9305882    614.32837  0.031465292  0.031660721            5 
 1628000   0.97709857   -6.9221157    615.08376  0.031484631  0.031653346            3 
 1629000   0.99457325   -6.9022828    617.35465  0.031581474  0.031645997            1 
 1630000   0.97047574   -6.9460578    616.01727  0.031493725  0.031638695            3 
 1631000   0.97302878   -6.9463813    616.37163  0.031492522   0.03163133            2 
 1632000   0.97176728   -6.9411321    616.95778  0.031503154    0.0316241            3 
 1633000   0.98964775   -6.9008806    617.54317  0.031513736  0.031616823            3 
 1634000   0.99821124   -6.9025626    619.61536  0.031600131  0.031609673            6 
 1635000   0.99454221   -6.9147216    619.42362   0.03157103  0.031602528            3 
 1636000   0.97298984   -6.9251361    618.43171  0.031501208  0.031595405            3 
 1637000   0.98085687    -6.894297    620.12737  0.031568284  0.031588329            4 
 1638000    0.9839946   -6.9143495    618.90668  0.031486909  0.031581275            3 
 1639000   0.99661585   -6.9335994    617.72116  0.031407421  0.031574124            3 
 1640000   0.99285246   -6.9486013    620.38843  0.031523803  0.031566974            3 
 1641000    1.0135982   -6.9328128    620.99789  0.031535542  0.031559918            4 
 1642000    1.0110827   -6.9175252    620.50864  0.031491506  0.031552857            3 
 1643000   0.98753026   -6.9017377    621.79783  0.031537727   0.03154576            6 
 1644000   0.99225936   -6.9624547    620.42328  0.031448869  0.031538778            1 
 1645000   0.98634459   -6.9233681    619.93795  0.031405165  0.031531738            2 
 1646000   0.97079031   -6.9270682    621.49484  0.031464907  0.031524655            3 
 1647000   0.98363806   -6.9518699     621.6841  0.031455378  0.031517656            3 
 1648000    0.9983263   -6.8918373    623.62818  0.031534596  0.031510679            4 
 1649000    0.9971606   -6.9345053    622.15193   0.03144087  0.031503643            3 
 1650000   0.99580942    -6.907746    623.59801  0.031494849  0.031496617            4 
 1651000   0.97465298   -6.9761254     622.2024   0.03140533   0.03148956            3 
 1652000   0.98651353   -6.9512404    622.53701  0.031403199  0.031482447            2 
 1653000   0.99514228   -6.9035117    624.81513  0.031499049  0.031475412            2 
 1654000   0.96407152   -6.8971948    624.32025  0.031455071  0.031468398            2 
 1655000   0.98240932   -6.9491008    623.78738  0.031409233  0.031461374            3 
 1656000   0.96915212   -6.9447877    624.23226  0.031412654  0.031454448            3 
 1657000   0.97790495   -6.9519018    624.02352  0.031383199  0.031447518            3 
 1658000   0.99349697   -6.9032437    625.57621   0.03144231  0.031440531            4 
 1659000    1.0026377   -6.9150919    623.46835  0.031317478  0.031433604            4 
 1660000   0.98007339   -6.9189984     625.3953  0.031395346  0.031426525            2 
 1661000   0.97806911   -6.9109659    623.16624  0.031264612  0.031419347            3 
 1662000   0.98866968   -6.9549834    624.13508  0.031294378  0.031412152            3 
 1663000   0.99344377   -6.9300528    626.64209  0.031401187  0.031404949            3 
 1664000   0.98177888   -6.9300144    625.28284  0.031314245  0.031397805            1 
 1665000     0.995385   -6.9199494    624.26563  0.031244526  0.031390642            5 
 1666000   0.97809206   -6.9561536     624.5712  0.031241056  0.031383413            2 
 1667000    1.0002252   -6.9713723     625.9971  0.031293596  0.031376144            5 
 1668000    1.0120741     -6.95707    625.64661  0.031257324    0.0313688            2 
 1669000   0.97022961   -6.9815041    625.07764  0.031210187  0.031361512            6 
 1670000   0.99534827   -6.9646905    625.12031  0.031193628  0.031354265            2 
 1671000   0.99720274   -6.9470778     627.2677  0.031282052  0.031346998            4 
 1672000    0.9686572   -6.9510598    627.82502   0.03129112  0.031339792            2 
 1673000   0.97033285   -6.9338965    627.48118  0.031255289  0.031332564            6 
 1674000   0.98496842   -6.9268527     628.4018  0.031282447  0.031325428            2 
 1675000   0.99173906    -6.941814    627.69249  0.031228482  0.031318286            4 
 1676000    0.9822591   -6.9646249    627.45615  0.031198098   0.03131107            2 
 1677000   0.97704693   -6.9598485     627.8731  0.031200213  0.031303854            1 
 1678000   0.98004172   -6.9680455    627.23105  0.031149734  0.031296684            3 
 1679000   0.98515475   -6.9437093    628.11245  0.031174928  0.031289422            3 
 1680000    0.9772393    -6.921756    630.35141  0.031267431  0.031282227            2 
 1681000   0.97632207   -6.9369154    629.25196  0.031194327  0.031275061            2 
 1682000   0.99659569   -6.9442904    627.89031  0.031108319  0.031267833            5 
 1683000   0.99988645   -6.9263997    629.78846  0.031183821  0.031260612            3 
 1684000   0.98132003   -6.9621408    628.72888   0.03111287  0.031253381            4 
 1685000   0.98414287     -6.93277    630.39059  0.031176587  0.031246054            4 
 1686000   0.98865277   -6.9295864    631.48439  0.031212159  0.031238826            2 
 1687000   0.99115712   -6.9725227    631.60747  0.031199737  0.031231552            3 
 1688000   0.95362943   -6.9229882    632.66638   0.03123353  0.031224394            1 
 1689000   0.99157178   -6.9460529    631.24976  0.031145143  0.031217209            3 
 1690000   0.98907442   -6.9579406     630.6209  0.031095705  0.031209913            4 
 1691000   0.96722579   -6.9744038    629.72138  0.031032987  0.031202518            4 
 1692000   0.97331715   -6.9678502    629.27976  0.030992896  0.031195124            2 
 1693000   0.98564616   -6.9687613    629.24941  0.030973096  0.031187607            4 
 1694000   0.96169521   -6.9659552    631.65103  0.031072955  0.031180176            3 
 1695000   0.97264996   -6.9652762    629.74213  0.030960773  0.031172768            4 
 1696000   0.98646944   -6.9404757    629.94796  0.030952632  0.031165301            4 
 1697000   0.98827284    -6.939831     630.9996  0.030986034  0.031157792            6 
 1698000   0.98212605   -6.9114426    632.74673   0.03105353  0.031150408            3 
 1699000   0.96285238   -6.9472725    631.00829  0.030949985  0.031143023            4 
 1700000   0.98408548   -6.9548991    630.27638  0.030895901   0.03113552            3 
 1701000     0.967468   -6.9294599    630.28941  0.030878376  0.031127949            4 
 1702000    0.9616657    -6.934404    632.14264  0.030950972   0.03112041            3 
 1703000   0.99974622    -6.931743    632.10127  0.030930772  0.031112889            2 
 1704000   0.97144248   -6.9698346    631.90758  0.030903149  0.031105365            3 
 1705000   0.98578212   -6.9501596    632.26096  0.030902295  0.031097837            3 
 1706000   0.96817359   -6.9475426    631.83501  0.030863375  0.031090348            2 
 1707000   0.97947709   -6.9952436    632.27259  0.030866656  0.031082774            3 
 1708000   0.98568577   -6.9471666    632.51817  0.030860566  0.031075101            4 
 1709000   0.97367057   -6.9543875    631.77742  0.030806389  0.031067393            2 
 1710000   0.98388606   -6.9597568    631.91749  0.030795199  0.031059635            2 
 1711000   0.97790058   -6.9543199    633.56999  0.030857685   0.03105191            5 
 1712000   0.97948524   -6.9484602    632.80493  0.030802421  0.031044068            2 
 1713000   0.96622631   -6.9585431    632.10778  0.030750524  0.031036281            4 
 1714000   0.95863394   -6.9564334    632.62825  0.030757889  0.031028356            3 
 1715000   0.97686842   -6.9874302    631.54588  0.030687361  0.031020463            2 
 1716000   0.96493489   -6.9575991    633.36977   0.03075805  0.031012557            6 
 1717000   0.95967205   -6.9272757     632.8166  0.030713288  0.031004608            2 
 1718000   0.97435536   -6.9598478    632.65155  0.030687406  0.030996675            5 
 1719000   0.99435557   -6.9231966    631.31622   0.03060482  0.030988596            4 
 1720000   0.99152466   -6.9781608    632.71919     0.030655  0.030980539            4 
 1721000   0.97812786   -6.9461784     635.1251  0.030753685  0.030972577            4 
 1722000   0.97012975   -6.9716719    632.80843  0.030623714   0.03096455            2 
 1723000   0.97923173    -6.947084    633.96178  0.030661723  0.030956477            3 
 1724000   0.97427706   -6.9557816    633.95586  0.030643652    0.0309485            4 
 1725000   0.98049594   -6.9683899    634.04507  0.030630197  0.030940501            3 
 1726000   0.97806028   -6.9637831    635.09332  0.030663061  0.030932442            2 
 1727000   0.97658703   -6.9728302    635.19882  0.030650397  0.030924554            8 
 1728000   0.97451593   -6.9705858    636.15607  0.030678823  0.030916608            2 
 1729000    0.9831274   -6.9656426    635.39951  0.030624615  0.030908816            5 
 1730000   0.97803352    -6.954412    635.25192  0.030599803   0.03090087            4 
 1731000   0.98929619   -6.9399282    636.28567  0.030631892  0.030892985            3 
 1732000   0.99010746   -6.9729137    633.67705  0.030488696  0.030885119            2 
 1733000   0.98410518   -6.9558457    637.21262  0.030641115  0.030877118            3 
 1734000   0.96714845   -6.9549669    636.46112  0.030587328  0.030869137            4 
 1735000   0.97689644   -6.9825532    635.39847  0.030518659  0.030861117            2 
 1736000    0.9603063   -6.9522901    636.37289  0.030547854  0.030853195            3 
 1737000   0.97833172   -6.9580249    637.46036  0.030582439  0.030845176            3 
 1738000   0.98124972   -6.9846198    638.83816  0.030630905  0.030837286            4 
 1739000   0.95865394    -6.968411    639.39148  0.030639806  0.030829307            4 
 1740000   0.97660281   -6.9566363     638.8556  0.030596533  0.030821445            2 
 1741000    0.9711363   -6.9461645      636.479  0.030465202  0.030813426            4 
 1742000   0.95945082   -6.9442827    637.68914  0.030505604  0.030805404            2 
 1743000   0.95738825   -6.9566039    636.84173  0.030447587    0.0307973            2 
 1744000   0.98612695   -6.9583748    637.73898  0.030473002  0.030789216            7 
 1745000   0.95753637    -6.958399    636.91405  0.030416144  0.030780985            3 
 1746000   0.96113953   -6.9430968    636.39277  0.030373844  0.030772805            5 
 1747000   0.96692911   -6.9346608    638.76328  0.030469532  0.030764762            4 
 1748000   0.95419861   -6.9669443    637.43159  0.030388615  0.030756608            2 
 1749000    0.9601606   -6.9535718    637.38343  0.030368945  0.030748396            3 
 1750000   0.95422902   -6.9531198    637.15661  0.030340791  0.030740166            5 
 1751000   0.97827534   -6.9582323    637.73023  0.030350763  0.030731906            4 
 1752000   0.96092431   -6.9704499    638.24522  0.030357935  0.030723645            3 
 1753000   0.97831525   -6.9760431    637.94978  0.030326573  0.030715372            2 
 1754000   0.97350417   -6.9612192    639.58686  0.030387061  0.030707051            3 
 1755000   0.96271619   -6.9688694    639.05716  0.030344594  0.030698788            4 
 1756000   0.95123754   -6.9826617    638.75365   0.03031291  0.030690541            3 
 1757000   0.97230437   -7.0012191    640.29429  0.030368729  0.030682177            7 
 1758000   0.96762577   -6.9740234    637.86095  0.030236109  0.030673869            2 
 1759000   0.97648901   -6.9588965     640.1481  0.030327274   0.03066557            4 
 1760000   0.98925932   -6.9524407    639.97046  0.030301632  0.030657371            4 
 1761000    0.9766639   -7.0136164    639.89717  0.030280957  0.030649097            3 
 1762000   0.97047164   -6.9804263    639.40181  0.030240343  0.030640937            2 
 1763000   0.94241467   -7.0062573     640.4709  0.030273724  0.030632662            4 
 1764000   0.97487109    -6.967498    638.75982  0.030175728  0.030624433            3 
 1765000   0.96849834   -6.9723952    641.84437  0.030304267  0.030616115            5 
 1766000   0.97111042    -6.969197    641.03782  0.030249048  0.030607671            2 
 1767000   0.95985643   -6.9191402     642.5353  0.030302552  0.030599425            3 
 1768000   0.99378911   -6.9585314    640.72215   0.03019995    0.0305911            3 
 1769000    0.9465078   -6.9680224    641.69726  0.030228814  0.030582809            3 
 1770000   0.95442561   -6.9506406    643.08731   0.03027718  0.030574588            1 
 1771000   0.99510538   -6.9611168    641.22309  0.030172364  0.030566319            2 
 1772000   0.97959791   -6.9478938    642.44301  0.030212708  0.030558144            6 
 1773000   0.96867402   -6.9845709     642.6535   0.03020556  0.030550018            4 
 1774000   0.97039747   -6.9715002    643.51342  0.030228928  0.030541809            3 
 1775000   0.95996066   -6.9778611    644.84999  0.030274647  0.030533596            3 
 1776000   0.96456152   -6.9752792    643.28455  0.030184148  0.030525495            3 
 1777000   0.95897613   -6.9694673     643.3832  0.030171788  0.030517437            5 
 1778000   0.94393656   -6.9710037    642.76719  0.030125946  0.030509199            4 
 1779000   0.99101811    -7.018357    642.57037  0.030099793  0.030501042            3 
 1780000   0.97217806   -6.9706574    644.07963  0.030153541  0.030492861            4 
 1781000   0.97753112   -6.9722913    643.54962  0.030111811  0.030484643            4 
 1782000   0.97302193   -7.0193601    643.54614   0.03009475  0.030476309            4 
 1783000   0.95607773   -6.9593066    645.08156  0.030149633  0.030468075            5 
 1784000   0.94153826   -6.9954677    645.15326  0.030136083  0.030459908            3 
 1785000   0.95409122   -6.9915779    644.99906  0.030112001  0.030451683            4 
 1786000   0.96308748   -6.9730622    645.24579  0.030106653  0.030443463            3 
 1787000   0.96570393   -6.9518709    645.34198  0.030094291  0.030435225            3 
 1788000   0.95445449   -6.9893327    644.76516  0.030050576  0.030426997            2 
 1789000   0.96102157   -6.9882169    645.25348  0.030056525  0.030418781            5 
 1790000    0.9738678   -6.9662233    646.67727  0.030106018  0.030410511            4 
 1791000    0.9758146   -6.9639722    645.60358  0.030039251  0.030402268            4 
 1792000   0.96302782    -6.952285    645.97416  0.030039721  0.030393908            6 
 1793000   0.99258947   -7.0152507    644.07756  0.029934819  0.030385503            4 
 1794000      0.95894   -6.9768911     644.7347  0.029948658  0.030377111            4 
 1795000    0.9602328   -7.0012369    645.43065  0.029964283  0.030368686            2 
 1796000    0.9624782   -6.9475481    646.92958  0.030017148  0.030360223            2 
 1797000   0.94198473   -6.9934937    646.92233  0.030000108  0.030351759            2 
 1798000   0.96889005   -6.9727304    645.20071  0.029903629  0.030343286            3 
 1799000   0.96051491   -6.9910127     643.6461  0.029814995  0.030334813            3 
 1800000   0.97418721   -7.0032023    644.58278  0.029841795  0.030326225            4 
 1801000   0.98309429   -6.9866172    641.48321  0.029681807  0.030317624            5 
 1802000   0.95060557   -7.0182722    645.89918  0.029869551  0.030308956            2 
 1803000   0.94638797   -6.9668385    645.79137  0.029848002  0.030300451            4 
 1804000   0.95107442   -6.9745604    646.50283  0.029864321  0.030291897            3 
 1805000   0.95108542   -6.9844778    645.87562  0.029818819  0.030283348            3 
 1806000   0.98700641   -6.9964856    646.49864  0.029831056  0.030274812            2 
 1807000   0.97176574   -7.0139764    645.75306  0.029780163  0.030266334            2 
 1808000   0.95253737   -7.0377141    646.01414  0.029775725  0.030257794            3 
 1809000   0.94846254   -6.9869398    646.81767  0.029796281  0.030249302            2 
 1810000   0.98353088   -7.0197171    646.71539   0.02977511  0.030240731            4 
 1811000   0.95481172   -7.0070796    646.25249  0.029737369  0.030232169            3 
 1812000   0.96168722   -7.0112632    646.67374   0.02974033  0.030223574            5 
 1813000   0.96112081   -6.9768664    648.75689  0.029819677  0.030214947            5 
 1814000   0.98582678   -6.9931099    647.76117  0.029757496  0.030206385            3 
 1815000   0.96193465   -7.0014267     648.4741  0.029773834  0.030197806            4 
 1816000   0.96557839   -6.9469362    648.08726  0.029739687  0.030189262            2 
 1817000   0.95151228   -7.0130324    649.13652  0.029771442  0.030180656            3 
 1818000    0.9782163   -7.0071405    648.42807  0.029722592  0.030172012            2 
 1819000   0.94344181   -7.0030606    647.73607   0.02967455  0.030163409            3 
 1820000   0.95535914   -7.0431254    648.17775  0.029678468  0.030154771            3 
 1821000   0.95221889   -6.9796748     646.9965  0.029608114  0.030146131            7 
 1822000   0.95279961   -6.9922565    648.32342  0.029652553  0.030137534            3 
 1823000   0.95826623   -6.9860708    648.33727   0.02963692  0.030128916            2 
 1824000   0.96679348   -7.0324751     648.3513  0.029621313  0.030120284            2 
 1825000   0.95846773   -7.0058827    648.35059   0.02960505  0.030111624            7 
 1826000   0.97489889   -6.9510663    648.06051  0.029575598  0.030103005            1 
 1827000   0.96433619   -6.9774396    651.14733  0.029700207  0.030094452            3 
 1828000    0.9253292   -6.9904394    650.04707  0.029633802  0.030085905            3 
 1829000   0.94304046   -6.9919313    650.39589  0.029633492  0.030077269            5 
 1830000   0.94077636    -7.000481      650.633  0.029628097  0.030068565            3 
 1831000   0.95414954   -7.0059615    648.30746  0.029506074  0.030059871            3 
 1832000    0.9423156   -6.9881738    650.47403   0.02958852  0.030051201            3 
 1833000   0.97500947   -7.0083768     651.4845  0.029618317  0.030042576           13 
 1834000   0.93943328   -7.0075495    650.26548  0.029546778  0.030033909            2 
 1835000   0.95393656   -6.9786692    650.88781  0.029558938   0.03002534            4 
 1836000   0.95651915   -6.9748628    653.26384  0.029650683  0.030016823            4 
 1837000   0.95412579   -6.9561888    652.86036  0.029616238  0.030008239            4 
 1838000   0.96390215   -6.9744943    653.40179  0.029624673  0.029999733            2 
 1839000   0.95835211   -7.0088218    652.30404   0.02955882  0.029991316            8 
 1840000   0.94718177   -7.0188259    652.41332  0.029547705  0.029982776            5 
 1841000   0.96012756   -7.0185354    650.57306  0.029448355  0.029974198            3 
 1842000   0.95845212   -6.9885418    650.90871  0.029447553  0.029965497            4 
 1843000   0.94341694   -7.0266965    651.00241  0.029435812  0.029956795            7 
 1844000   0.95642763   -7.0209663    651.31797  0.029434109  0.029948131            3 
 1845000   0.94959565   -7.0043202     652.5214  0.029472511  0.029939467            3 
 1846000    0.9540154   -7.0516032    652.20235  0.029442143   0.02993079            6 
 1847000   0.95064354   -7.0046371    653.21519    0.0294719  0.029922194            3 
 1848000    0.9433558   -6.9684941    654.82968  0.029528756  0.029913612            2 
 1849000   0.97766665   -7.0030907    653.83666   0.02946803  0.029905084           11 
 1850000    0.9660776    -6.996262    654.81017  0.029495954  0.029896545           17 
 1851000   0.97456376   -7.0089109    654.18822  0.029452018  0.029887969            3 
 1852000   0.94960018   -7.0102115    653.17117  0.029390352   0.02987942            2 
 1853000   0.95794396   -7.0004659     655.2936  0.029469941  0.029870787            5 
 1854000   0.96005185   -7.0190467       654.71  0.029427814  0.029862242            7 
 1855000   0.92799288   -7.0387734      654.278  0.029392543  0.029853682            5 
 1856000   0.99327694   -7.0246243    653.78612  0.029354621  0.029845091            3 
 1857000   0.97728747   -7.0012929    655.05924  0.029395945  0.029836516            3 
 1858000    0.9653736   -7.0097282    655.73955  0.029410637  0.029827926            3 
 1859000   0.98521956    -7.029874    655.77029  0.029396194  0.029819254            4 
 1860000   0.96580148   -6.9711385    655.96931  0.029389306  0.029810812            5 
 1861000   0.94309004   -7.0273621    655.53543  0.029354085  0.029802398            4 
 1862000   0.92347643   -7.0005897     656.6082  0.029386332  0.029793876            3 
 1863000   0.96512545   -7.0400137    655.62121  0.029326409  0.029785323            4 
 1864000   0.96788137   -7.0089709    653.65952  0.029222976  0.029776725            4 
 1865000   0.94140117   -6.9846972    657.79557  0.029392116  0.029768201            6 
 1866000   0.92825049   -7.0305471     656.8794   0.02933545  0.029759652            2 
 1867000   0.94869297   -7.0044424    657.73712  0.029358022   0.02975113            4 
 1868000   0.94748127   -7.0227033    656.33279  0.029279657  0.029742599            6 
 1869000   0.94328263   -7.0482886    657.25082  0.029304923   0.02973409           10 
 1870000   0.94798254   -7.0254252    656.64683  0.029262337  0.029725635            3 
 1871000   0.93887873   -7.0054376    657.69691  0.029293467  0.029717165            2 
 1872000    0.9466578   -6.9940298    658.61666  0.029318762  0.029708633            3 
 1873000   0.97523875    -7.009959    659.28716   0.02933294  0.029700161            9 
 1874000   0.94509213   -6.9885132    658.46119  0.029280558  0.029691692            3 
 1875000   0.95791406   -7.0360618    657.73851  0.029232822  0.029683159            3 
 1876000    0.9374863   -6.9774958    659.28225  0.029285814  0.029674548            2 
 1877000    0.9348685   -7.0085691    658.85118  0.029251073  0.029666048            4 
 1878000   0.94522673   -7.0251262    657.61895   0.02918082  0.029657451            2 
 1879000   0.95162662   -7.0085813    659.09529  0.029230765  0.029648977            5 
 1880000     0.952576   -7.0063255    658.82248  0.029203124  0.029640469            8 
 1881000   0.96121514   -6.9882178    660.02202  0.029240742  0.029632045            4 
 1882000   0.95135144   -7.0342456    660.17167  0.029231831  0.029623579            2 
 1883000   0.93718307   -7.0348679    658.23878  0.029130766  0.029615053            3 
 1884000   0.92632021   -7.0372663    658.28552  0.029117371  0.029606503            3 
 1885000   0.96045218   -7.0376968    658.98515  0.029132854  0.029597892            3 
 1886000   0.93737571   -7.0145282    660.63819  0.029190447  0.029589351            8 
 1887000   0.95274247   -7.0390328    660.05074  0.029149035  0.029580813            5 
 1888000   0.95705487   -7.0111732    660.54921  0.029155597  0.029572239            3 
 1889000   0.94181702   -7.0041314    660.40437  0.029133773  0.029563675            5 
 1890000   0.96879696   -7.0174797    659.66212  0.029085632  0.029555116            4 
 1891000   0.93864389   -6.9857118    661.22169  0.029138978  0.029546587            4 
 1892000   0.94182423   -7.0394729    660.22206  0.029079548  0.029537999            2 
 1893000   0.96896099   -7.0226038    662.38942  0.029159598  0.029529349            3 
 1894000   0.92998137     -7.04604    660.54163  0.029062902  0.029520729            3 
 1895000   0.93209512   -6.9997162    661.24293  0.029078405  0.029512066            1 
 1896000   0.96606119   -6.9967772    661.86783  0.029090534  0.029503455            5 
 1897000   0.93333882   -7.0201518    660.96802  0.029035671  0.029494873            3 
 1898000   0.95551834    -6.996212    661.08405  0.029025467  0.029486294            4 
 1899000   0.95876389   -6.9780113    662.70005  0.029081097  0.029477803            3 
 1900000   0.92066359   -7.0023463     662.1516  0.029041737   0.02946933            3 
 1901000   0.93974522   -7.0183481    662.49096  0.029041336  0.029460751            3 
 1902000   0.95819818   -7.0246435    664.12228  0.029097541   0.02945219            3 
 1903000   0.93060716   -7.0055828    664.05502  0.029079306  0.029443716            3 
 1904000   0.93535048   -7.0004382     663.6181   0.02904491  0.029435231            3 
 1905000   0.96473189   -6.9965797    663.01862  0.029003439  0.029426732            3 
 1906000   0.93982822   -7.0159134    662.46473  0.028964005  0.029418141            3 
 1907000   0.94478112    -7.033934    662.35364  0.028943962  0.029409564            3 
 1908000   0.93197861   -6.9682306    663.39043  0.028974075  0.029401006            4 
 1909000   0.91547669   -6.9865307     661.8022  0.028889567  0.029392436            6 
 1910000   0.95757577   -7.0296555    661.57992  0.028864743  0.029383801            2 
 1911000   0.95241288   -7.0290279    663.63511   0.02893926    0.0293751            5 
 1912000   0.97002943   -7.0055999     663.8982  0.028935591  0.029366495            4 
 1913000   0.94073922   -7.0257557    663.67399  0.028910698  0.029357854            2 
 1914000   0.95071222   -7.0107717    663.25854  0.028877505  0.029349156            5 
 1915000   0.94580337   -7.0153911    664.16228  0.028901753  0.029340537            3 
 1916000    0.9396472   -6.9922272    663.92062  0.028876158   0.02933195            3 
 1917000   0.94293227   -7.0338624    663.82401  0.028856895   0.02932333            2 
 1918000    0.9587174   -7.0417698    662.97887   0.02880513  0.029314639            3 
 1919000   0.94510937   -6.9902342    664.32736  0.028848678  0.029305951            3 
 1920000   0.93379125   -7.0368105    663.20046  0.028784742  0.029297165            5 
 1921000   0.93542861   -7.0310157    665.72409  0.028879233  0.029288558            3 
 1922000    0.9436098   -7.0465353    663.91269   0.02878567  0.029279881            4 
 1923000   0.94442907   -7.0494547    665.23034  0.028827801  0.029271201            5 
 1924000   0.96238804   -7.0332089    663.16563   0.02872339  0.029262552            4 
 1925000   0.95142227   -7.0108558    666.65818  0.028859661  0.029253858            2 
 1926000   0.95715453   -7.0540333    666.12443  0.028821583   0.02924526            3 
 1927000   0.93457266   -7.0418332    665.44729  0.028777343  0.029236581            3 
 1928000   0.94971177   -7.0306443    666.37328  0.028802441  0.029227893            4 
 1929000   0.92915652   -7.0095655    667.65121  0.028842717  0.029219201            2 
 1930000   0.94508613   -7.0494946     665.4395  0.028732275  0.029210494            6 
 1931000   0.92878743   -6.9877118    666.30317  0.028754668  0.029201778            5 
 1932000   0.94583312   -7.0321451    664.36377  0.028656132   0.02919317            3 
 1933000   0.94815205   -7.0344328    664.16403  0.028632697  0.029184569            4 
 1934000   0.93150298   -7.0273727    667.59811  0.028765861  0.029175948            2 
 1935000   0.94818319   -7.0327137    667.79656  0.028759542  0.029167367            2 
 1936000   0.92208528   -7.0136586    666.23834  0.028677614  0.029158782            6 
 1937000   0.94758839   -7.0348633    667.98893  0.028738123  0.029150192            2 
 1938000    0.9388466   -7.0110468    666.61753  0.028664324  0.029141628            5 
 1939000    0.9611838   -7.0178788    668.55767  0.028732924  0.029133062            3 
 1940000    0.9400166   -6.9961451     670.2656  0.028791478  0.029124463            9 
 1941000    0.9418495   -7.0279128    668.83745  0.028715329  0.029115998            4 
 1942000   0.93879254   -7.0308755    668.17165  0.028671973  0.029107561            7 
 1943000   0.92493968   -7.0244438    671.05906  0.028781054  0.029099025            4 
 1944000   0.91527468   -7.0633822    667.29339  0.028604826  0.029090362            6 
 1945000   0.94386087    -7.020119    669.84536  0.028699458   0.02908171            3 
 1946000   0.94276439   -7.0356407    669.75883  0.028681005   0.02907311            5 
 1947000   0.94604932   -7.0313091    668.89546  0.028629321  0.029064515            5 
 1948000   0.95350583   -7.0161033    667.55896   0.02855745  0.029055917            4 
 1949000   0.95461689   -7.0710181    669.91314  0.028643456  0.029047302            5 
 1950000   0.91694492   -7.0236458    670.46162  0.028652206  0.029038622            9 
 1951000   0.93640456   -7.0355167    670.89648  0.028656094  0.029030073            4 
 1952000   0.93782107   -7.0540519    669.73458  0.028591811  0.029021603            3 
 1953000   0.91938716   -7.0289829    670.99956  0.028631147  0.029013172            3 
 1954000   0.95791898   -7.0131908     671.7744  0.028649539  0.029004792            3 
 1955000   0.93149576   -7.0312458    670.63523  0.028586327  0.028996353            4 
 1956000   0.92462291    -7.050302    671.82226  0.028622284  0.028987853            5 
 1957000   0.92284201   -7.0297297    672.52364  0.028637525  0.028979412            4 
 1958000   0.94824324   -7.0394309     673.0567  0.028645586  0.028970942            2 
 1959000   0.94804699   -7.0168479    673.14698  0.028634804  0.028962567            2 
 1960000   0.94812158   -7.0350536    672.19253  0.028579614  0.028954174            2 
 1961000   0.94147795   -7.0081647    672.71452  0.028587223  0.028945798            4 
 1962000   0.93093204   -7.0292289    671.83745    0.0285354  0.028937367            3 
 1963000   0.94683056   -7.0742217    672.64681  0.028555222  0.028928958            4 
 1964000   0.95496096   -7.0147867    673.55805  0.028579347  0.028920535            2 
 1965000   0.93234607   -7.0523989    672.98025  0.028540299  0.028912132            2 
 1966000   0.94297809   -7.0228167    674.08877  0.028572769  0.028903658            3 
 1967000    0.9569441   -7.0382321     675.6319  0.028623619  0.028895256            2 
 1968000   0.93701362   -7.0195007    673.25229  0.028508312  0.028886821            4 
 1969000   0.92884148   -7.0211843    673.40404  0.028500256  0.028878452            9 
 1970000   0.95833449    -7.033034    674.57596  0.028535362  0.028870113            2 
 1971000   0.94421425   -7.0484245    674.23175  0.028506332  0.028861737            2 
 1972000   0.92693765   -7.0427768    674.82327  0.028516872  0.028853349            2 
 1973000   0.94291579    -7.037887    674.30643  0.028480589  0.028844942            5 
 1974000   0.94957384   -7.0160608    674.59002  0.028478133  0.028836541            2 
 1975000   0.95064763   -7.0526635    676.80226  0.028557057  0.028828226            2 
 1976000   0.92577454   -7.0657928    675.09911  0.028470779  0.028820003            3 
 1977000   0.93886882   -7.0469003    678.07361  0.028581757  0.028811753            2 
 1978000   0.92616634   -7.0262137    675.62677  0.028464222   0.02880343            7 
 1979000   0.93637691   -7.0098106    675.64498  0.028450606  0.028795097            2 
 1980000   0.94479215   -7.0310225    677.18642  0.028501112  0.028786741            4 
 1981000   0.93349818   -7.0657464    675.59653  0.028419844  0.028778395            2 
 1982000    0.9111224   -7.0309706    677.43629  0.028482858  0.028770119            4 
 1983000   0.92592671     -7.02869    678.05118  0.028494334  0.028761831            2 
 1984000   0.93299146   -7.0178114    679.65141  0.028547186  0.028753618           11 
 1985000   0.91390655   -7.0781565    677.16242  0.028428313  0.028745395            5 
 1986000   0.93281228   -7.0474246    677.33233  0.028421128  0.028737107            6 
 1987000   0.94749873   -7.0627963    676.95823  0.028391135  0.028728788            3 
 1988000   0.92494803   -7.0381491    676.74285  0.028367826  0.028720491            3 
 1989000   0.94448437   -7.0828046    676.72705  0.028352901  0.028712179            2 
 1990000   0.91919598   -7.0727905     677.2649  0.028361177  0.028703812            6 
 1991000   0.92226931   -7.0543293    677.11987  0.028340862  0.028695456            6 
 1992000   0.92961512    -7.053403    678.94743  0.028403088  0.028687129            3 
 1993000   0.93286981   -7.0445417     679.4386  0.028409374   0.02867888            3 
 1994000   0.92562472   -7.0164122    679.23584  0.028386653  0.028670694            2 
 1995000   0.94491764   -7.0715003    679.40296  0.028379405   0.02866246            2 
 1996000   0.94193972   -7.0586716    678.98498  0.028347736  0.028654297            3 
 1997000   0.93343821   -7.0608204    679.44271  0.028352642  0.028646089            4 
 1998000   0.95266452    -7.025354    680.43892  0.028380002  0.028637912            4 
 1999000   0.92686129   -7.0593174    680.94151  0.028386756   0.02862989            8 
 2000000   0.94867126   -7.0454526     679.9815  0.028332563   0.02862185            3 
 2001000   0.93468644   -7.0470871    681.84551  0.028396032  0.028613807            5 
 2002000   0.94145216   -7.0742198    680.50908  0.028326219  0.028605717            8 
 2003000   0.92821557   -7.0138276    681.52828   0.02835448  0.028597612            5 
 2004000   0.93823167   -7.0465985    681.45812  0.028337414  0.028589572            3 
 2005000   0.94046252   -7.0360244    683.85757  0.028423008  0.028581584            3 
 2006000    0.9315299   -7.0197448    682.79262  0.028364599  0.028573666            3 
 2007000   0.93537365   -7.0651249    681.83176   0.02831057  0.028565697            5 
 2008000   0.92916313   -7.0126399    683.88614  0.028381729  0.028557698            3 
 2009000   0.90820374   -7.0418243    683.93236  0.028369519  0.028549667            4 
 2010000   0.94496291   -7.0671967    682.35113  0.028289848  0.028541551            3 
 2011000   0.92786567   -7.0581433    683.79222  0.028335497  0.028533488            4 
 2012000   0.93562862   -7.0318182    684.14377  0.028335975  0.028525473            2 
 2013000   0.90586278   -7.0875506    681.99693  0.028233024    0.0285174            3 
 2014000   0.92255541   -7.0313644    683.49251  0.028280889  0.028509276            4 
 2015000   0.93066455    -7.059585    682.55713  0.028228169  0.028501276            5 
 2016000   0.94136482     -7.07387    684.60289   0.02829873  0.028493214            4 
 2017000   0.90407709   -7.0713635    684.51753  0.028281174  0.028485134            5 
 2018000   0.93775692   -7.0897839    682.78615  0.028195662   0.02847704            4 
 2019000   0.91576472   -7.0210453    683.96171  0.028230218  0.028468885            3 
 2020000   0.94386307   -7.0505579    684.43098  0.028235602  0.028460832            3 
 2021000   0.89804781   -7.0672868    684.00209  0.028203946  0.028452745            5 
 2022000   0.91423264   -7.0861408    683.75012  0.028179613  0.028444617            3 
 2023000   0.95550854   -7.0809498    685.21319  0.028225951  0.028436426            5 
 2024000   0.92936285   -7.0519284    684.63765  0.028188309  0.028428265            5 
 2025000   0.93730445   -7.0796455    685.05409  0.028191526  0.028420223            4 
 2026000   0.94073136   -7.0486943    684.98795  0.028174891  0.028412107            2 
 2027000   0.91786777   -7.0048024    685.78387  0.028193713  0.028404131            2 
 2028000   0.92615256   -7.0524637    685.44607   0.02816593  0.028396085            2 
 2029000    0.9341917   -7.0688113    686.20188   0.02818309  0.028388008            5 
 2030000   0.91197816   -7.0574817    686.17069  0.028167926  0.028380034            2 
 2031000    0.9115023   -7.0525577    685.41434  0.028123024  0.028372106            3 
 2032000   0.92329543   -7.0427716    688.03057  0.028216477  0.028364214            4 
 2033000   0.91475095   -7.0460475    688.82497   0.02823516  0.028356313            5 
 2034000   0.93266411    -7.033926    688.16572  0.028194269  0.028348509            4 
 2035000   0.91942789   -7.0686254    688.58745  0.028197684  0.028340733            5 
 2036000   0.92170508   -7.0686997    689.46233  0.028219643   0.02833282            4 
 2037000   0.92369059   -7.0611158    688.33356  0.028159612  0.028324986           11 
 2038000   0.93054481   -7.0699107    688.78098   0.02816409  0.028317049            3 
 2039000   0.94327526   -7.0560602    688.77987  0.028150232  0.028309206            4 
 2040000   0.93469096   -7.0890295     687.1469  0.028069726  0.028301351            2 
 2041000   0.91229906   -7.0529626    689.67759  0.028159301  0.028293567            5 
 2042000   0.90949916   -7.0641186     687.7999  0.028068883  0.028285703            6 
 2043000   0.93254516   -7.0815995    689.52118  0.028125354  0.028277803            5 
 2044000   0.93037146   -7.0515509    689.23953  0.028100111  0.028269851            3 
 2045000    0.9399258   -7.1007253    690.46777  0.028136421   0.02826193            4 
 2046000     0.937936   -7.0901389    689.91748  0.028100256  0.028253969            4 
 2047000   0.92179595    -7.038725    689.92763  0.028086941  0.028246024            3 
 2048000   0.93669848   -7.0929067    689.30638  0.028047948  0.028238157            2 
 2049000   0.91191573   -7.0585638    689.29344  0.028033734  0.028230276            2 
 2050000   0.93023571   -7.0656699     689.9479  0.028046662  0.028222468            7 
 2051000   0.91555761   -7.0846914    690.33691  0.028048794  0.028214607            5 
 2052000   0.92353818   -7.0691064    690.40114  0.028037733  0.028206836            4 
 2053000   0.91936182   -7.0438752    691.79009  0.028080455  0.028199008            3 
 2054000   0.92516307   -7.0853134     689.2689  0.027964496  0.028191205            4 
 2055000    0.9314957   -7.0414632     691.6727  0.028048366  0.028183419            1 
 2056000     0.919225   -7.0717674    690.02579  0.027967971  0.028175591           10 
 2057000   0.92813068   -7.0712932    691.00318  0.027993971  0.028167678            5 
 2058000   0.92615302   -7.0767053    690.83977  0.027973752   0.02815972            4 
 2059000   0.91217925   -7.0854079    692.16283  0.028013713  0.028151826            2 
 2060000   0.94229554   -7.0572491    693.35114  0.028048185  0.028144002            3 
 2061000   0.94780425   -7.0811594    690.44114  0.027916915  0.028136115            5 
 2062000   0.90405316   -7.0997419     690.7944  0.027917653  0.028128212           10 
 2063000   0.92343564   -7.1285943    691.17455  0.027919476  0.028120247            3 
 2064000   0.90609852   -7.0634832    693.06963  0.027982462  0.028112307            3 
 2065000   0.91793663   -7.0663545    695.60191  0.028071102  0.028104448            4 
 2066000    0.9081508    -7.095363       692.25  0.027922314   0.02809661            6 
 2067000   0.90813541   -7.0763587    693.43511  0.027956584  0.028088811            3 
 2068000   0.91849896   -7.0447035    693.41898  0.027942416  0.028081012            3 
 2069000   0.92638261   -7.0439549    692.92023  0.027908822  0.028073191            8 
 2070000   0.94775497   -7.0702968    694.06647  0.027941484  0.028065424            4 
 2071000   0.93993888   -7.0833816    692.17643  0.027851941  0.028057712            5 
 2072000   0.91796856   -7.0642842    694.06247  0.027914353  0.028050012            8 
 2073000   0.92741509   -7.0638803    694.95958  0.027936951  0.028042364            4 
 2074000   0.92437841   -7.0780037    694.22434  0.027893938  0.028034685            2 
 2075000   0.91748564   -7.0457944    695.87268  0.027946694  0.028027004            5 
 2076000   0.92236155   -7.0636345    696.08638  0.027941811  0.028019364            3 
 2077000   0.94197847   -7.0746918    696.06331  0.027927432  0.028011663           12 
 2078000   0.90775546   -7.0824767    696.95499  0.027949751  0.028003969            6 
 2079000   0.92804407   -7.0713044    697.01045   0.02793853  0.027996363            5 
 2080000   0.90947558   -7.0831186    696.73681  0.027914135  0.027988784            2 
 2081000   0.91479414    -7.082785    696.15244   0.02787732  0.027981103            3 
 2082000   0.92554528   -7.0573152    696.20112  0.027865879  0.027973421            3 
 2083000    0.9156212   -7.0820909    696.63316  0.027869785  0.027965701            3 
 2084000    0.9016416   -7.0949839    696.42502  0.027848089  0.027958073            3 
 2085000   0.92683855   -7.1041432    697.32162  0.027870568   0.02795042            2 
 2086000   0.91973965   -7.0803383    696.70122  0.027832423  0.027942799            2 
 2087000   0.92708021   -7.0978211    698.17995  0.027878132  0.027935171            3 
 2088000   0.93569177   -7.0863487    696.26272  0.027788263  0.027927535            5 
 2089000   0.91246774   -7.0775207    698.19891  0.027852198  0.027919968            5 
 2090000   0.91808241   -7.1169485    698.04958  0.027832918  0.027912358            4 
 2091000   0.93318707   -7.0807414    698.46288  0.027836079  0.027904701            6 
 2092000   0.92898684     -7.08825    697.82925  0.027797532  0.027897057            5 
 2093000   0.94591052   -7.1167635     696.9751  0.027750243  0.027889389            3 
 2094000   0.91203006    -7.047474    699.87348  0.027852335  0.027881757            5 
 2095000   0.90851188   -7.0721519    698.64339  0.027790111  0.027874139            2 
 2096000   0.93044172   -7.1204025    696.93036  0.027708745  0.027866505            2 
 2097000    0.9136697   -7.0924396    697.54928  0.027720127  0.027858764            5 
 2098000    0.9190155   -7.0908831     697.7809  0.027716115  0.027851102            4 
 2099000   0.92576585   -7.1191414    699.01465  0.027751892  0.027843471            3 
 2100000   0.90943545   -7.0827886    697.94152  0.027696092  0.027835794            5 
 2101000   0.91306008   -7.0983687    698.91411  0.027721486  0.027828046            3 
 2102000   0.92528627   -7.0831636    698.72466  0.027700787  0.027820285            2 
 2103000   0.88805175   -7.1101393    698.39107  0.027674397  0.027812519            3 
 2104000   0.90380452   -7.1135063    700.14211  0.027730597  0.027804774            5 
 2105000   0.93351981   -7.0920086    699.56821  0.027694703  0.027797167            4 
 2106000   0.91323826   -7.0708448    698.22595   0.02762844  0.027789465            2 
 2107000    0.9098841   -7.0825387    700.25353   0.02769552  0.027781755            2 
 2108000   0.90484223   -7.1174551    700.80838  0.027704316  0.027774141            3 
 2109000    0.8996878   -7.0651044    701.87859  0.027733467  0.027766508            3 
 2110000   0.91965979   -7.0755138    699.73111   0.02763551  0.027758864            5 
 2111000   0.92313253   -7.0512732    701.16573  0.027679051   0.02775124            9 
 2112000   0.91381257   -7.0953782    701.88518  0.027694333  0.027743595            2 
 2113000   0.89936675   -7.0643523    700.66449  0.027633085  0.027736042            4 
 2114000   0.92030619   -7.0644687      701.278  0.027644197  0.027728521            3 
 2115000   0.91682409   -7.0755308    700.77255  0.027611212  0.027720864            3 
 2116000    0.9140753   -7.0662205    700.51064  0.027587848  0.027713197            6 
 2117000   0.90085354   -7.0840099     703.1658  0.027679334  0.027705612            6 
 2118000   0.91520763   -7.0934193    701.10353  0.027585125  0.027697944            6 
 2119000    0.9164379     -7.11199    701.54813  0.027589592  0.027690267            3 
 2120000   0.91060465    -7.101197    702.36547  0.027608705  0.027682592            2 
 2121000   0.90358489   -7.0782011    703.00484  0.027620809  0.027674953            5 
 2122000   0.93747747   -7.1136069    702.99327  0.027607339  0.027667325            2 
 2123000   0.92216686   -7.1043075    701.80511  0.027547696  0.027659669           13 
 2124000   0.91004704   -7.1153797    700.90859  0.027499552  0.027652066            3 
 2125000   0.90455936   -7.0722318     704.4289  0.027624663  0.027644461            6 
 2126000   0.90833774   -7.0652486    705.76133  0.027663896  0.027636905            3 
 2127000   0.92095498   -7.0898036    702.91891  0.027539528  0.027629354            3 
 2128000   0.91323305    -7.107539    703.58985  0.027552861  0.027621763            4 
 2129000   0.89742699   -7.1116605    701.91588  0.027474396  0.027614206            5 
 2130000   0.89773001   -7.1215546    703.53646    0.0275249  0.027606601            6 
 2131000    0.9081506   -7.0865683    704.52718  0.027550726  0.027598956            3 
 2132000   0.90356478   -7.1299114    703.15362  0.027484116  0.027591333            4 
 2133000   0.90435199   -7.0929891    702.49573  0.027445528  0.027583722            4 
 2134000   0.91267185   -7.0718267    704.31135  0.027503567  0.027576109            2 
 2135000   0.92767541   -7.1123304    705.07586  0.027520525  0.027568586            4 
 2136000   0.90717743   -7.0719137    704.80253  0.027496978  0.027560993            3 
 2137000   0.87818173   -7.0680372    704.98296  0.027491147  0.027553391            5 
 2138000   0.90193086   -7.0822776     704.9208  0.027475865  0.027545842            2 
 2139000   0.90891117   -7.1193191    704.56319  0.027449088  0.027538265            3 
 2140000   0.91065323   -7.0805282    706.10861  0.027496441  0.027530617            4 
 2141000   0.87625964   -7.0581356    705.66474  0.027466322  0.027523004            8 
 2142000   0.89585829   -7.0694824    706.26058   0.02747668  0.027515479            4 
 2143000   0.92421995   -7.0892606    706.11566  0.027458223  0.027507928            7 
 2144000   0.91721936   -7.0853535    705.86809  0.027435793   0.02750037            2 
 2145000   0.90557457   -7.1010918    705.88421  0.027423629  0.027492784            3 
 2146000   0.90303721    -7.073521    705.07264  0.027379335  0.027485167            3 
 2147000   0.91394625   -7.0825188    707.04659    0.0274432  0.027477625            2 
 2148000   0.89213964   -7.0905216    706.38454  0.027404739  0.027470051            3 
 2149000    0.9041382   -7.0670364    707.03081  0.027417047  0.027462572            6 
 2150000   0.91876006   -7.1250908    707.92948  0.027439127  0.027455038            3 
 2151000   0.90772219   -7.1121653    705.46126  0.027330748  0.027447536            3 
 2152000    0.9151777   -7.1095227    707.77058  0.027407473  0.027440011            2 
 2153000   0.91819736   -7.0764251    707.19279  0.027372379   0.02743251            3 
 2154000   0.90671949   -7.0886433    706.83446  0.027345809  0.027425001            5 
 2155000   0.92090137    -7.108686    707.95174  0.027376324  0.027417429            2 
 2156000   0.91860123   -7.1048532    708.58379  0.027388056  0.027409877            7 
 2157000   0.90746674   -7.1052435    707.49784  0.027333404  0.027402376            6 
 2158000   0.90487162   -7.0820532    707.02326  0.027302412  0.027394843            5 
 2159000   0.90686941   -7.0901197    708.69056  0.027354121  0.027387264            5 
 2160000   0.90014073   -7.1023309    709.87054  0.027386981  0.027379727            4 
 2161000   0.90129645   -7.0942581    709.98038  0.027378543  0.027372145            2 
 2162000   0.90332636   -7.1141803    708.83032  0.027321551  0.027364594            3 
 2163000   0.89117536    -7.086767    708.64348  0.027301722  0.027357088            4 
 2164000   0.89794004   -7.1234363    709.20611  0.027310771  0.027349523            4 
 2165000   0.91132189   -7.1103153    708.42291   0.02726801  0.027341912            5 
 2166000   0.88157248   -7.1222715    709.19338  0.027285064  0.027334346            5 
 2167000   0.88814193   -7.1242625    708.86976  0.027260028  0.027326793            4 
 2168000   0.91866734   -7.1193777    710.05177  0.027292888  0.027319302            5 
 2169000   0.90439079   -7.1546215    710.07594  0.027281233  0.027311774            3 
 2170000   0.89131586   -7.1461609     708.3025  0.027200557  0.027304153            5 
 2171000   0.90240343   -7.1182067    709.12082  0.027219439  0.027296531            5 
 2172000    0.9026722    -7.105848    707.27326  0.027136021  0.027288953            6 
 2173000   0.89788774   -7.1356036    707.54205  0.027133841   0.02728135            3 
 2174000   0.91769852    -7.073951     711.2058  0.027261799   0.02727378            5 
 2175000   0.92253226   -7.1335713    708.36314   0.02714035  0.027266193            5 
 2176000   0.90900325   -7.1277197    710.01371  0.027191089  0.027258542            6 
 2177000   0.91839695   -7.1194192    709.83179  0.027171635  0.027250901            4 
 2178000   0.91815515   -7.1085436     709.4867  0.027145956  0.027243279            5 
 2179000   0.89350405   -7.1288169     710.5744  0.027175096  0.027235618            8 
 2180000   0.87721269   -7.1450187    709.58542  0.027124825  0.027227995            2 
 2181000   0.90732444   -7.1005131    710.75422  0.027157046  0.027220377           10 
 2182000   0.91202621   -7.1450869    709.73566    0.0271057  0.027212714            7 
 2183000   0.89661129   -7.1079399    709.84824  0.027097581  0.027205086            8 
 2184000   0.89019147   -7.1310124    711.01791  0.027129804   0.02719745            2 
 2185000   0.90863461   -7.1149367    710.32622  0.027091008  0.027189793            4 
 2186000   0.91294876   -7.0967367    712.17327  0.027149027  0.027182129            2 
 2187000   0.88741475    -7.099203    711.68032   0.02711783  0.027174487            3 
 2188000   0.90024959   -7.1218441     710.7212  0.027068906  0.027166875            3 
 2189000   0.89164726   -7.1297046    711.26391  0.027077201  0.027159259            3 
 2190000   0.90861694   -7.1559363    710.27445  0.027027186  0.027151598            3 
 2191000   0.91023817   -7.1230758    712.31558  0.027092484  0.027143905            7 
 2192000   0.90827466   -7.0878561    711.94137  0.027065897  0.027136307            6 
 2193000   0.88894172   -7.1182234    710.96461  0.027016439  0.027128661            6 
 2194000   0.90126017    -7.108984    714.36263   0.02713319  0.027121051            2 
 2195000   0.91502853   -7.1365452    712.54535  0.027051835  0.027113476            5 
 2196000   0.89945059    -7.110674    712.75312  0.027047401  0.027105859            5 
 2197000    0.8780345   -7.1206761    712.75001  0.027034972  0.027098239            4 
 2198000    0.9040888   -7.1481188    711.75598  0.026984986  0.027090528            6 
 2199000   0.87796407   -7.1387765    712.58407  0.027004095  0.027082825            2 
 2200000   0.91340198   -7.0893738    713.51432  0.027027058  0.027075232            6 
 2201000   0.88991717   -7.0894435    713.79154  0.027025274  0.027067593            3 
 2202000   0.91480148   -7.1134383    712.04512  0.026946909  0.027059931            5 
 2203000   0.88996682   -7.1038387    714.26442  0.027018627  0.027052329            8 
 2204000   0.89757515   -7.0953209     713.4105  0.026974081   0.02704482            9 
 2205000   0.89029842   -7.0998859    714.30268  0.026995566  0.027037311            6 
 2206000   0.89228113   -7.1343184    715.15872  0.027015667   0.02702977            5 
 2207000   0.91724471     -7.12817     714.4155  0.026975362  0.027022154            5 
 2208000   0.90977443   -7.1056708    714.72024  0.026974647  0.027014554            6 
 2209000   0.89386317   -7.1138277    715.18847  0.026980099  0.027006947            4 
 2210000   0.90616074   -7.1637851    712.85896  0.026880051  0.026999285            2 
 2211000   0.89689464   -7.1073901    715.67492  0.026974028  0.026991639            6 
 2212000   0.89224188   -7.1333383    712.66587  0.026848473  0.026983993            3 
 2213000   0.88772552    -7.143705    713.12811  0.026853747  0.026976333            5 
 2214000   0.88436661   -7.1180944    715.14118  0.026917389   0.02696867            4 
 2215000   0.90875616   -7.1297878    714.27865  0.026872786  0.026961032            8 
 2216000   0.89760459   -7.1086225    716.24512  0.026934609  0.026953384            6 
 2217000   0.89431961   -7.1195925    714.97319   0.02687465  0.026945759            3 
 2218000   0.89637166   -7.1417402    714.90387  0.026859929  0.026938164            3 
 2219000   0.88688506   -7.1303172    715.29458  0.026862497  0.026930598            4 
 2220000   0.87753807   -7.1230015    716.62161  0.026900211   0.02692305            3 
 2221000   0.89442312   -7.1128327    715.50676  0.026846269  0.026915567            2 
 2222000   0.91695383   -7.1220509    716.53274  0.026872665  0.026908041            5 
 2223000   0.89896537   -7.1244286    715.76349   0.02683174  0.026900543            3 
 2224000   0.91419346   -7.1214463    716.54823  0.026849079  0.026893034            2 
 2225000    0.8992772   -7.1398938     716.3003  0.026827727  0.026885464            2 
 2226000   0.90312965   -7.1388474    716.59731  0.026826794  0.026877902            7 
 2227000   0.90037039   -7.1420645    715.56275  0.026776035  0.026870389            2 
 2228000   0.90380313   -7.1391404    717.52037  0.026837237  0.026862855            6 
 2229000   0.89916615   -7.1563463    718.50414  0.026861976  0.026855377            6 
 2230000   0.90066907   -7.1317841    719.60514  0.026891074  0.026847886            4 
 2231000   0.87318568   -7.1139386    719.51216  0.026875548  0.026840395            2 
 2232000   0.87927466   -7.1145877    719.13231  0.026849325  0.026832913            3 
 2233000   0.89101807   -7.1395035     717.9014  0.026791364  0.026825418            4 
 2234000   0.88118379   -7.1203435    718.99396  0.026820127  0.026817938            4 
 2235000   0.90662274   -7.0993354    719.20783  0.026816101  0.026810472            2 
 2236000   0.90496752   -7.1354742     718.4426  0.026775589  0.026802999            7 
 2237000   0.89401701   -7.1067884    718.40675  0.026762284  0.026795489            3 
 2238000   0.89728311   -7.1001967    719.17694  0.026779004  0.026788056            2 
 2239000   0.88121551   -7.1233588    716.17475  0.026655306  0.026780524            7 
 2240000   0.92367997   -7.1525409    717.70686  0.026700404  0.026772975            5 
 2241000    0.8734252   -7.1414058    718.89122  0.026732531  0.026765405            3 
 2242000   0.91275033   -7.1225267    718.92243  0.026721768  0.026757848            3 
 2243000   0.88944553   -7.0939089    719.42912  0.026728679  0.026750328            3 
 2244000   0.87500418   -7.1149522    717.25511  0.026636034  0.026742767            2 
 2245000   0.89922723   -7.0887298    719.03961  0.026690409  0.026735221            3 
 2246000   0.90074869   -7.1241696    720.78233  0.026743185  0.026727668            4 
 2247000   0.91046909   -7.1238584    722.95296  0.026811785  0.026720099            5 
 2248000   0.89100819   -7.1528327    719.50869  0.026672179  0.026712479            4 
 2249000    0.8955722   -7.1256819    720.93347  0.026713112  0.026704884            3 
 2250000   0.89608137   -7.1319277    719.14317  0.026634932  0.026697335            3 
 2251000   0.89650329   -7.1746006    717.92606  0.026578042  0.026689743            4 
 2252000       0.8749   -7.1258611    721.33548  0.026692402  0.026682142            4 
 2253000    0.8775702   -7.1404137    719.44354  0.026610576  0.026674512            3 
 2254000   0.88233802    -7.138724      719.613  0.026605035  0.026666897            4 
 2255000   0.88490555   -7.1280945     720.2032  0.026615048  0.026659258            3 
 2256000   0.88792793   -7.1665486    719.12691  0.026563494  0.026651654            3 
 2257000   0.88824739   -7.1544874    720.53007  0.026603532  0.026643994            3 
 2258000   0.88637651   -7.1239854    719.82774   0.02656583  0.026636394            5 
 2259000   0.89912178   -7.1492605     721.8353  0.026628128  0.026628939            5 
 2260000   0.88953247   -7.1475122    722.48942  0.026640466  0.026621424            3 
 2261000    0.8645868   -7.1501182    723.22275  0.026655711  0.026613952            6 
 2262000   0.90548408   -7.1422599    721.23992  0.026570878  0.026606457            2 
 2263000   0.90474374   -7.1373347    721.05639  0.026552378  0.026598984            3 
 2264000   0.87173442   -7.1380439    723.66935  0.026636828  0.026591493            5 
 2265000   0.90863131   -7.1358843     720.7563  0.026517892  0.026583989            2 
 2266000   0.88707139   -7.1412596    721.77756  0.026543747  0.026576484            3 
 2267000   0.89402593    -7.136422    723.96057  0.026612284  0.026568978            6 
 2268000   0.90291117   -7.1708308     719.7973  0.026447578  0.026561447            3 
 2269000   0.91665421   -7.1683061    722.83208  0.026547381  0.026553884            3 
 2270000   0.86571564   -7.1414256    723.41807  0.026557198   0.02654643            2 
 2271000   0.87948932   -7.1218739    723.29271  0.026540904  0.026538921            5 
 2272000   0.89151083   -7.1236781    722.70334  0.026507605  0.026531464           12 
 2273000   0.88296523   -7.1806324    721.17054  0.026439747  0.026523942            3 
 2274000   0.90059688   -7.1307345    722.42158  0.026473966  0.026516369            7 
 2275000   0.89305011    -7.149622    724.92324  0.026553965  0.026508843            5 
 2276000   0.91864685   -7.1427987    722.10739  0.026439198  0.026501355            8 
 2277000   0.89463647   -7.1518812    725.34416  0.026546046  0.026493986            5 
 2278000   0.89543836   -7.1538138    724.95485  0.026520151  0.026486614            5 
 2279000   0.88875315   -7.1319146    725.01717  0.026510793  0.026479157            4 
 2280000   0.87755532   -7.1408658    725.10231  0.026502277  0.026471781            4 
 2281000   0.89832763   -7.1679009    724.84061  0.026481098  0.026464416            2 
 2282000   0.86911088   -7.1314728    725.14185  0.026480494  0.026456991            6 
 2283000   0.89519392   -7.1399412     725.4169  0.026478935  0.026449631            2 
 2284000    0.8617242   -7.1405395    725.74557  0.026479333  0.026442216            4 
 2285000   0.92878555   -7.1428474    724.86261  0.026435544  0.026434847            2 
 2286000    0.8769036   -7.1530128    724.89214  0.026425056   0.02642747            2 
 2287000   0.90702109   -7.1331729     726.0814  0.026456836  0.026420037            3 
 2288000   0.90608733   -7.1507166    726.00886  0.026442631  0.026412676            6 
 2289000   0.88562163   -7.1734403    722.94124  0.026319399  0.026405196            6 
 2290000   0.87101978   -7.1485093    724.44182  0.026362512  0.026397669            3 
 2291000   0.89993856   -7.1382954    723.40868  0.026313425  0.026390203            5 
 2292000    0.9088824   -7.1834759    725.19126  0.026366756   0.02638272           10 
 2293000   0.89820948   -7.1431985    727.82695  0.026451045  0.026375215            7 
 2294000   0.88130794   -7.1325648    726.10178  0.026376845  0.026367749            3 
 2295000   0.88151516   -7.1347332    726.79134   0.02639039  0.026360294            8 
 2296000   0.88789354   -7.1546214    726.20078  0.026357461  0.026352829            8 
 2297000   0.89575464   -7.1548421    728.39725  0.026425673  0.026345422            3 
 2298000   0.89348653   -7.1442312    726.97197  0.026362488  0.026338038            5 
 2299000   0.89518198   -7.1111195    729.64808  0.026448024  0.026330676            3 
 2300000   0.88304247   -7.1386412    729.12337  0.026417513  0.026323331            5 
 2301000   0.88874532    -7.149887    728.43231  0.026381005  0.026315965            4 
 2302000   0.87108093    -7.147289    726.50465  0.026299763  0.026308505            3 
 2303000   0.89141463   -7.1410348     727.9071   0.02633909  0.026301054            7 
 2304000   0.88132948   -7.1676291    727.83043  0.026324885  0.026293641            4 
 2305000   0.87316128   -7.1858025    727.28608  0.026293785   0.02628626            3 
 2306000   0.88040599   -7.1564157    726.49183   0.02625368  0.026278843            4 
 2307000   0.88937484   -7.1557662    728.68506  0.026321524  0.026271417            4 
 2308000    0.9052032   -7.1087889    730.14315  0.026362765  0.026263987            4 
 2309000   0.87608484   -7.1935138    728.14658  0.026279291  0.026256583            2 
 2310000   0.88398756    -7.171538    727.45925  0.026243119  0.026249153            4 
 2311000   0.90532919   -7.1256429     728.9961  0.026287181  0.026241766            4 
 2312000    0.9029968    -7.135681    729.08202  0.026278908  0.026234403            3 
 2313000   0.90523529   -7.1791691    727.68689  0.026217282  0.026227027           10 
 2314000   0.88782881   -7.1707929     727.1968  0.026188303  0.026219562            4 
 2315000   0.86815018   -7.1650055    728.26178  0.026215327  0.026212077            4 
 2316000   0.89103583   -7.1479262      728.622  0.026216969  0.026204627            2 
 2317000   0.91394033   -7.1505915    728.63624  0.026206166  0.026197217            1 
 2318000   0.85986682   -7.1614311    730.11781  0.026248124  0.026189775            4 
 2319000   0.87016338   -7.1462917    728.83044  0.026190543  0.026182299            4 
 2320000   0.86105745   -7.1525329    727.77121  0.026141207  0.026174796            5 
 2321000   0.88055738   -7.1607197     727.2956  0.026112868  0.026167284            5 
 2322000   0.88699852   -7.1614047    727.05823  0.026093103  0.026159807            5 
 2323000   0.86710772   -7.1549702    728.46976  0.026132507  0.026152339            4 
 2324000   0.87862793   -7.1601246    728.37032  0.026117696  0.026144873            5 
 2325000    0.8801258   -7.1651072    729.16874   0.02613508  0.026137399            3 
 2326000    0.8792738   -7.1532808    728.42801  0.026097306  0.026129906            3 
 2327000   0.87354561   -7.1718801    727.01091  0.026035343   0.02612241            3 
 2328000    0.8701468    -7.154507     728.6613  0.026083237  0.026114889            3 
 2329000   0.86802109   -7.1726765    727.99771  0.026048294  0.026107353            4 
 2330000   0.85913631   -7.1514122    730.06927  0.026111204   0.02609984            6 
 2331000   0.88785673   -7.1677513    727.44067   0.02600603  0.026092329            5 
 2332000   0.88451895   -7.1609469    727.92759  0.026012278   0.02608477            3 
 2333000   0.87430726   -7.1839785    728.66608  0.026027507  0.026077186            4 
 2334000   0.89636695   -7.1368198    730.18443  0.026070567  0.026069634            3 
 2335000   0.88095005   -7.1469055    729.54657  0.026036637  0.026062146            4 
 2336000   0.87992778   -7.1664886    728.01586  0.025970885  0.026054594            4 
 2337000   0.88051003   -7.1594521    730.61004  0.026052277  0.026047072            3 
 2338000    0.8704309   -7.1335369    731.33857    0.0260671  0.026039632            4 
 2339000   0.88025971   -7.1708655    729.65104  0.025995833  0.026032183            3 
 2340000   0.88551799   -7.1533844    730.33099  0.026008938  0.026024797            4 
 2341000   0.87717672   -7.1761429    732.36076  0.026070083  0.026017358            3 
 2342000   0.89711877   -7.1425325    730.59953  0.025996283  0.026009921            3 
 2343000   0.87824613    -7.169177    731.52092  0.026017958   0.02600247            3 
 2344000   0.86755953    -7.157164    730.70558  0.025977872  0.025995004            3 
 2345000    0.8729511   -7.1600462    731.35991  0.025990047  0.025987501            6 
 2346000    0.8746741   -7.1441178    732.05734  0.026003742  0.025980092            4 
 2347000   0.87682225   -7.1374897    731.76823  0.025982397  0.025972648            4 
 2348000   0.85880969   -7.1441657    729.50146  0.025890881   0.02596518            3 
 2349000   0.88617717   -7.1669571    730.17182  0.025903641  0.025957708            3 
 2350000   0.88086242   -7.1717569    731.73721  0.025948128  0.025950253            2 
 2351000   0.87717765   -7.1701314    731.44693  0.025926802  0.025942757            4 
 2352000   0.88520297   -7.1654327    732.13001  0.025939981  0.025935266            3 
 2353000   0.86484512   -7.1359124    731.98919  0.025923969  0.025927775            5 
 2354000   0.87559215   -7.1626249    732.92525  0.025946093  0.025920295            6 
 2355000   0.85312389   -7.1806481    732.92566  0.025935091  0.025912839            4 
 2356000   0.85817911   -7.2059062    731.13862  0.025860874  0.025905339            3 
 2357000    0.8726988   -7.1647347    731.87999  0.025876113  0.025897804            9 
 2358000   0.86990952   -7.1717242    732.38937  0.025883141  0.025890278            5 
 2359000   0.86086596   -7.1869863    729.79534  0.025780533  0.025882721            6 
 2360000   0.87590134   -7.2047767    731.06536  0.025814455  0.025875153            4 
 2361000   0.85812018   -7.1889732     731.5408  0.025820302  0.025867576            3 
 2362000   0.86874533   -7.1966775    731.52727  0.025808893  0.025859983            5 
 2363000    0.8762865   -7.2103298    731.94748   0.02581279  0.025852374            2 
 2364000   0.84949183   -7.1786462    732.41235  0.025818258  0.025844786            4 
 2365000   0.86829671   -7.2129895    730.34906  0.025734639  0.025837206           14 
 2366000   0.85318458   -7.1836911    733.42905  0.025832243  0.025829689            5 
 2367000   0.86747351   -7.2005723    731.57007  0.025755882  0.025822181            8 
 2368000   0.89784219   -7.1447345    733.56796  0.025815314  0.025814717            9 
 2369000   0.86892577   -7.1756049    733.81717  0.025813183   0.02580728            3 
 2370000   0.88093532   -7.1731067    734.24143  0.025817209  0.025799836            4 
 2371000   0.87497187   -7.1822954    733.09129  0.025765897  0.025792393            8 
 2372000   0.88267447   -7.1932878    733.99053  0.025786626  0.025784956            6 
 2373000   0.88114107   -7.1600571    735.48692  0.025828309  0.025777561           10 
 2374000   0.85838712    -7.180604    734.91267  0.025797271  0.025770173            5 
 2375000    0.8709233   -7.1852441    731.36643   0.02566198   0.02576273            4 
 2376000   0.87616755   -7.1744905    736.30923  0.025824538  0.025755299            4 
 2377000   0.87626439   -7.1901724    734.85819  0.025762803  0.025747864            4 
 2378000   0.86101111   -7.1765497    735.36746  0.025769816   0.02574042            4 
 2379000   0.86980267   -7.1807095    733.89282  0.025707329  0.025732954            2 
 2380000   0.86351159   -7.1908955    735.88155  0.025766161  0.025725559            4 
 2381000   0.86418523   -7.1863119    733.57054  0.025674455  0.025718128            7 
 2382000   0.88514114   -7.1924127    736.18455  0.025755127    0.0257107            4 
 2383000   0.87639336   -7.1646624    737.98619  0.025807322  0.025703352            4 
 2384000   0.87719245   -7.1762145    736.27408   0.02573665  0.025695964            4 
 2385000   0.88188342   -7.1722991    737.44742  0.025766856  0.025688614            4 
 2386000   0.87617713   -7.1510728    737.85235  0.025770199  0.025681264            5 
 2387000   0.87978173   -7.2049288    736.58984  0.025715327   0.02567394            3 
 2388000   0.86652323   -7.1468591    737.22406  0.025726691  0.025666629            6 
 2389000   0.89890083   -7.1581054    734.13767  0.025608263  0.025659345            5 
 2390000   0.88112539   -7.1717081    735.72135  0.025652767  0.025652065            5 
 2391000   0.87119751   -7.1661565    737.34127  0.025698497  0.025644688            5 
 2392000   0.85586331   -7.1778611    735.78346  0.025633482  0.025637262            3 
 2393000    0.8462098   -7.1951993    738.78883  0.025727428  0.025629869            4 
 2394000   0.87362229   -7.1948243    738.23309  0.025697337  0.025622502            2 
 2395000   0.87417571    -7.158456    739.66954  0.025736588  0.025615212            2 
 2396000   0.87465054   -7.1598381    737.85772  0.025662831   0.02560796            4 
 2397000   0.86498405   -7.1956658    738.66706  0.025680262  0.025600667            6 
 2398000   0.87847741    -7.202058    737.67147  0.025634955  0.025593362            4 
 2399000   0.87217993   -7.1845861    738.61676  0.025657106  0.025586047            3 
 2400000   0.87169687   -7.1689482    739.94982  0.025692702  0.025578763            4 
 2401000   0.88288811   -7.1981523    738.30184  0.025624803  0.025571506            2 
 2402000    0.8461916   -7.1631934    737.65725  0.025591773   0.02556424            4 
 2403000   0.85855979   -7.1794843    739.38612  0.025641078  0.025556901            5 
 2404000   0.85354236   -7.1997755    735.66194  0.025501315  0.025549533            8 
 2405000   0.86985571   -7.2001952    736.90347  0.025533731  0.025542147            5 
 2406000    0.8598881   -7.1841662     738.2031  0.025568132  0.025534782            8 
 2407000   0.87922555   -7.2091839    738.40124  0.025564369  0.025527422            7 
 2408000   0.87226888   -7.1574658    739.13185  0.025579037  0.025520142            5 
 2409000   0.83665824   -7.1873754    740.72184   0.02562342  0.025512892            5 
 2410000   0.86347279   -7.1860733    741.14607  0.025627458  0.025505571            3 
 2411000   0.88341621   -7.2052352    738.74233  0.025533746  0.025498273            7 
 2412000   0.85897682   -7.1950933    739.69849  0.025556194  0.025490958           10 
 2413000   0.88478556   -7.1697984    741.22956  0.025598479  0.025483704            5 
 2414000   0.87576697   -7.1966535    741.60018  0.025600669  0.025476515            7 
 2415000   0.86423834   -7.1999065    740.22123  0.025542485  0.025469248            3 
 2416000    0.8734999   -7.2144613    740.81607  0.025552431  0.025462081            2 
 2417000   0.87724467   -7.1819407    741.41818  0.025562618  0.025454807            3 
 2418000   0.86248485   -7.2076174    741.22236  0.025545298  0.025447579            3 
 2419000   0.87287343   -7.1772014    740.09294   0.02549583  0.025440348            4 
 2420000   0.87176667   -7.1772376    741.77094  0.025543076  0.025433146            4 
 2421000   0.87332897   -7.1975319    741.35098   0.02551807   0.02542598            4 
 2422000   0.84822555   -7.1773251    743.15252   0.02556952   0.02541887            2 
 2423000   0.86248506   -7.1952255    742.49016  0.025536187  0.025411717            3 
 2424000    0.8655771   -7.2338445    741.42201  0.025488931  0.025404528            4 
 2425000    0.8532898    -7.202853    742.19921  0.025505128   0.02539736            6 
 2426000    0.8517716    -7.176202    741.74684  0.025479075  0.025390154            4 
 2427000   0.85167744   -7.1602889    743.45058  0.025527077   0.02538299            7 
 2428000   0.85596207   -7.2219559    741.98637  0.025466309  0.025375801           12 
 2429000   0.87265523   -7.1835927    744.74207  0.025550366  0.025368608            9 
 2430000   0.88252146   -7.1823022    743.84512  0.025509092   0.02536145            3 
 2431000    0.8669577   -7.2002607    743.89505   0.02550031  0.025354301            2 
 2432000   0.88028473   -7.1910692     743.4484   0.02547452  0.025347164            4 
 2433000   0.87220012   -7.2008071    742.08408   0.02541732  0.025340012            5 
 2434000   0.86665174      -7.2066    742.31064  0.025414634  0.025332854           10 
 2435000   0.87039378   -7.2079164    744.69187   0.02548569  0.025325689            3 
 2436000   0.86402926   -7.1685439    745.42774  0.025500402  0.025318542           12 
 2437000   0.85524595   -7.1996521     743.3963  0.025420473  0.025311401            7 
 2438000   0.86369443   -7.1904034    742.36377  0.025374753  0.025304223            5 
 2439000   0.86266431   -7.1585616    744.45406  0.025435768  0.025297081            5 
 2440000    0.8499103   -7.1898139    745.76212  0.025470018  0.025289937            4 
 2441000   0.84388062   -7.1508458    745.04942  0.025435253  0.025282806            3 
 2442000   0.85516004    -7.227886    743.83494  0.025383393  0.025275661           10 
 2443000   0.86592589   -7.1746932    744.93008  0.025410359  0.025268449           10 
 2444000   0.84796078    -7.217772    742.69832  0.025323865  0.025261258            3 
 2445000   0.84483482   -7.2285383    744.89078  0.025388234  0.025254077            5 
 2446000   0.86024673   -7.2175329    743.86197  0.025342804   0.02524686            4 
 2447000   0.84341879   -7.1672882    744.56223  0.025356294  0.025239695            6 
 2448000    0.8617107   -7.2055933    743.51439  0.025310267  0.025232555            5 
 2449000   0.86283804   -7.2085195    746.93609  0.025416363  0.025225466            6 
 2450000   0.86620768   -7.1913447    745.02006  0.025340818  0.025218364            4 
 2451000   0.87868865   -7.1623019    746.67716   0.02538682  0.025211296            7 
 2452000   0.86789097   -7.2105436    742.80672  0.025244927  0.025204133            3 
 2453000   0.86735922   -7.1987366    745.77937  0.025335622  0.025196976            4 
 2454000   0.85585881   -7.2085684    746.04735  0.025334398  0.025189905            4 
 2455000   0.86023928   -7.1703032    750.16891  0.025463982  0.025182834            6 
 2456000   0.84671417   -7.2157068    745.08001  0.025280945  0.025175783            6 
 2457000   0.85741162   -7.2384077    746.78111  0.025328351  0.025168681            3 
 2458000   0.85195118   -7.1986436    746.55078  0.025310238  0.025161632            9 
 2459000   0.85623279   -7.1850004    747.16841  0.025320876  0.025154627            8 
 2460000   0.85646103   -7.1964278    748.48319  0.025355122  0.025147635            6 
 2461000   0.86381636   -7.1935557     748.1547  0.025333696  0.025140622            6 
 2462000   0.85832968   -7.2099507    748.31491  0.025328829  0.025133638            5 
 2463000   0.83989991   -7.2458034    746.05939  0.025242231   0.02512658            7 
 2464000   0.86028596   -7.2121644    747.18444  0.025270036  0.025119545            4 
 2465000   0.86364511   -7.2094659    748.87732  0.025317016  0.025112552            3 
 2466000   0.85910039    -7.170773    748.96666  0.025309768  0.025105555            7 
 2467000   0.85743519   -7.2010028    744.97083  0.025164533  0.025098505            5 
 2468000   0.84285166   -7.2010253    747.22684  0.025230512  0.025091436            3 
 2469000   0.84431848   -7.2033789    749.15174  0.025285262  0.025084387            4 
 2470000   0.84991572   -7.2214822    745.61457  0.025155687  0.025077286            4 
 2471000   0.83532597   -7.2067012    748.79075  0.025252622  0.025070224            3 
 2472000   0.86818909   -7.2254144    746.88472  0.025178153   0.02506313            6 
 2473000    0.8736483    -7.247069    746.54899  0.025156658  0.025056072            3 
 2474000   0.85674324   -7.2032627    749.02553  0.025229909  0.025049005            5 
 2475000    0.8502443   -7.2037371    747.94345  0.025183281  0.025041965            4 
 2476000   0.84545683   -7.2422585    747.95526  0.025173508  0.025034878            4 
 2477000   0.86506532   -7.2192475    749.30491  0.025208751  0.025027812            5 
 2478000   0.85142107   -7.2367371    748.16027  0.025160084  0.025020796            7 
 2479000   0.85821927   -7.2435091    747.90071   0.02514121  0.025013737            4 
 2480000   0.88162016   -7.2144347    748.48725  0.025150781  0.025006698            3 
 2481000   0.86563356   -7.2031581    750.24054  0.025199534  0.024999669            8 
 2482000   0.86442873   -7.2220175    750.73388  0.025205945  0.024992644           10 
 2483000   0.85154741   -7.2279473    750.42441  0.025185408  0.024985595            4 
 2484000   0.85791051   -7.2051166    750.76067   0.02518655  0.024978601            4 
 2485000    0.8516563   -7.2196831    750.18646  0.025157158   0.02497161            3 
 2486000   0.86371442    -7.198498    750.65445  0.025162726  0.024964588            3 
 2487000   0.84771085   -7.2448891    749.14901  0.025102165  0.024957574            5 
 2488000   0.87256352   -7.2272422    749.83765  0.025115141  0.024950536            6 
 2489000   0.86268896   -7.1804293     751.3228  0.025154774  0.024943493            3 
 2490000   0.84800218   -7.2170869     751.4011  0.025147293  0.024936539            3 
 2491000    0.8266493   -7.1790115    753.35025  0.025202404   0.02492958            5 
 2492000   0.85542194   -7.2014295    752.64482  0.025168701  0.024922651            3 
 2493000   0.83989959   -7.2244759    749.07665  0.025039332  0.024915656            3 
 2494000   0.83347339   -7.2224639    750.16647  0.025065707   0.02490864            4 
 2495000   0.85017356    -7.207068    750.31295  0.025060553  0.024901666            5 
 2496000    0.8476646   -7.2193366    751.05219  0.025075193  0.024894674            8 
 2497000   0.84413628   -7.2097737    751.51981  0.025080757  0.024887711            4 
 2498000   0.84879988     -7.18833    751.72433   0.02507754  0.024880729            6 
 2499000    0.8566213   -7.2183187    751.75705  0.025068596   0.02487381            3 
 2500000   0.84355361   -7.2361765    751.08354  0.025036118  0.024866848            5 
 2501000   0.84803701   -7.2156432    751.56443  0.025042131  0.024859823            4 
 2502000   0.82545753   -7.2266695    751.77332  0.025039079   0.02485284            7 
 2503000   0.85848956   -7.2399875    752.45702  0.025051838  0.024845887            3 
 2504000   0.84352571    -7.211813    754.15167  0.025098232  0.024839002            9 
 2505000   0.83661544   -7.2234719    751.37705   0.02499591  0.024832043            6 
 2506000   0.84132634   -7.2162014    752.81785  0.025033847  0.024825099            4 
 2507000   0.87380711   -7.2317037    751.67041   0.02498572  0.024818162            5 
 2508000   0.83337594   -7.2058076    752.46456  0.025002145   0.02481121            4 
 2509000    0.8298657    -7.236689    752.90749  0.025006892  0.024804305            3 
 2510000   0.83158891   -7.1888661    754.35519  0.025044993  0.024797428            6 
 2511000   0.85852246   -7.2367072    753.69388  0.025013072  0.024790541            9 
 2512000   0.84995031   -7.2147469    754.64486  0.025034662  0.024783676            4 
 2513000   0.85784065    -7.207269    755.80934  0.025063315   0.02477684            9 
 2514000   0.86231117   -7.2442721    752.85204  0.024955318   0.02477001           11 
 2515000   0.84534861   -7.1940588    754.82225  0.025010678  0.024763095            5 
 2516000   0.84118941    -7.222923    753.87116  0.024969236  0.024756185            5 
 2517000   0.83216901   -7.2381753    753.80466  0.024957114  0.024749265            6 
 2518000   0.83467347   -7.2435309    753.16236  0.024925945  0.024742358            3 
 2519000   0.83915841   -7.2349435    754.48099  0.024959673  0.024735401            6 
 2520000   0.83276392   -7.2147611     754.3643  0.024945909  0.024728464            4 
 2521000   0.83820299   -7.2285853    753.66869   0.02491302  0.024721557            3 
 2522000   0.83687018   -7.2127174    755.59163  0.024966681  0.024714683            4 
 2523000   0.83181302   -7.2401283    753.40521  0.024884569  0.024707799            7 
 2524000   0.85468548   -7.2483364    754.46876  0.024909824  0.024700871            6 
 2525000   0.85147691   -7.2284738    755.48715  0.024933569  0.024693938            4 
 2526000   0.85775973   -7.2204014    755.13825  0.024912188  0.024687043            5 
 2527000    0.8613785   -7.2170117    756.56507  0.024949382  0.024680186            3 
 2528000   0.84493702    -7.237443    756.62609  0.024941524  0.024673355            3 
 2529000   0.82559452    -7.231786    757.80423  0.024970483  0.024666537            4 
 2530000   0.85761133    -7.231929     755.9585  0.024899819  0.024659723            4 
 2531000   0.82215429   -7.2330051    757.85969  0.024952578  0.024652944            2 
 2532000   0.83130061   -7.2326932    756.03583  0.024882696  0.024646158            5 
 2533000   0.85135653   -7.2369616    754.89395  0.024835306  0.024639342            5 
 2534000   0.85392517   -7.2214349    756.62501  0.024882433  0.024632527            3 
 2535000   0.83907782   -7.2518113     758.0253  0.024918649  0.024625712            3 
 2536000   0.85150535   -7.1971269    758.51991  0.024925076  0.024618926            4 
 2537000   0.85051589   -7.2625733    755.79536  0.024825758   0.02461214            2 
 2538000   0.82809761   -7.2443471    757.00199  0.024855595    0.0246053            4 
 2539000   0.83000298   -7.2348633    756.56984  0.024831621  0.024598431            8 
 2540000   0.86125412     -7.25088    756.34707  0.024814536  0.024591572            7 
 2541000    0.8287296   -7.2322452     756.9028  0.024822996  0.024584729            4 
 2542000   0.83688332   -7.2140228    756.47644  0.024799254  0.024577885            4 
 2543000   0.87628168   -7.2182706     756.1421  0.024778546  0.024571064            5 
 2544000   0.84575458   -7.2529007    756.54309  0.024781941  0.024564216            5 
 2545000   0.83040637   -7.2365489    757.32152  0.024797692  0.024557435            3 
 2546000   0.85709037   -7.2262323    760.40686  0.024888939  0.024550607            3 
 2547000    0.8641215   -7.1798837    757.63869  0.024788597  0.024543791            8 
 2548000   0.85450328    -7.229235    756.89902  0.024754678  0.024536933            4 
 2549000    0.8563226   -7.2302525    757.14711  0.024753077  0.024530055            4 
 2550000   0.84214552   -7.2343666    757.75864  0.024763354  0.024523152            2 
 2551000   0.83835999   -7.2435544    757.35557   0.02474048  0.024516266            2 
 2552000   0.85157458   -7.2285758    757.23087  0.024726713  0.024509387            5 
 2553000   0.84369317   -7.2672633    756.66021  0.024698401  0.024502514            4 
 2554000    0.8577192   -7.2481749    756.93887  0.024697823  0.024495597            4 
 2555000   0.83233212   -7.2364713    756.20627  0.024664262  0.024488693            5 
 2556000   0.85164979   -7.2394677    759.35651   0.02475732  0.024481767            8 
 2557000   0.83343161   -7.2344385     756.1223  0.024642234  0.024474892            8 
 2558000   0.83725963   -7.2356428     757.7234   0.02468476  0.024468012            4 
 2559000     0.833023   -7.2682809    758.65815  0.024705554  0.024461097            7 
 2560000   0.83847227   -7.2454591    757.30046  0.024651708   0.02445419            4 
 2561000   0.85373709   -7.2357602    757.22535  0.024639638  0.024447239            3 
 2562000   0.85954859   -7.2778404     756.9915  0.024622414  0.024440267            3 
 2563000   0.84080109   -7.2366641    757.55092  0.024630996  0.024433343            4 
 2564000   0.81437777   -7.2153172    758.82331  0.024662744  0.024426432            4 
 2565000   0.84552828   -7.2117646    759.73465  0.024682737  0.024419551            4 
 2566000   0.84590435   -7.2170622    757.94673  0.024615054  0.024412696            2 
 2567000   0.83000282   -7.2307942    757.39603  0.024587587  0.024405814            3 
 2568000   0.82689613   -7.2211639    760.48233  0.024678165   0.02439896            3 
 2569000   0.82069953   -7.2618419    758.99075  0.024620175  0.024392118            4 
 2570000   0.82862405   -7.2477979    759.65956  0.024632281  0.024385225            4 
 2571000   0.83899596   -7.2707189    759.29779  0.024610975  0.024378256            4 
 2572000   0.86161837   -7.2426642    756.90216  0.024523787  0.024371271            9 
 2573000    0.8399694    -7.248861    759.32061  0.024592584  0.024364354            4 
 2574000   0.83924586   -7.2264241    758.62129  0.024560389  0.024357457            3 
 2575000   0.83182861   -7.2681074    757.55195  0.024516244  0.024350484            4 
 2576000   0.82605639   -7.2554701     757.4292  0.024502756  0.024343513            3 
 2577000   0.84706403    -7.262879    758.10414  0.024515074  0.024336562            4 
 2578000   0.82811944   -7.2610554    759.10515  0.024537922  0.024329647            4 
 2579000   0.85200453   -7.2800701    758.53306  0.024509922  0.024322667            5 
 2580000   0.84645973   -7.2402173    758.71836  0.024506407  0.024315661            6 
 2581000   0.84033279   -7.2502782    758.31561  0.024483908  0.024308701           17 
 2582000   0.83002432   -7.2333818    758.61622  0.024484128  0.024301731            4 
 2583000   0.82147683   -7.2636223    759.47095  0.024502224  0.024294779            2 
 2584000   0.82723546   -7.2358856    759.03977  0.024478837  0.024287804            4 
 2585000   0.84247066    -7.230867    758.52748  0.024452852  0.024280863            3 
 2586000   0.82880509   -7.2281909    758.73123  0.024449962  0.024273903            7 
 2587000    0.8300732   -7.2223962     760.3071  0.024491274  0.024266919            5 
 2588000   0.82918944   -7.2359702     757.9697  0.024406546  0.024259962            9 
 2589000   0.85686497   -7.2447593    760.02967  0.024463424  0.024252968           13 
 2590000   0.83495927   -7.2401934    760.11149  0.024456612  0.024245969            4 
 2591000   0.82269792   -7.2333956     757.2743  0.024355921  0.024238975            9 
 2592000   0.83212896   -7.2131012    763.52745  0.024547565  0.024232034            3 
 2593000   0.83687275   -7.2440676    760.21435  0.024431622  0.024225111            4 
 2594000    0.8632804   -7.2691624    759.52184  0.024399956   0.02421817            4 
 2595000   0.81687661   -7.2514907    760.50676  0.024422182  0.024211231            7 
 2596000   0.85000975   -7.2205559    761.18709  0.024434614  0.024204311           12 
 2597000   0.83939214    -7.274348    757.70799  0.024313567  0.024197365            5 
 2598000   0.82491572   -7.2169886    761.20091  0.024416247  0.024190404            3 
 2599000   0.82310744   -7.2213451    759.79254  0.024361695  0.024183464            6 
 2600000   0.81333474   -7.2426547    758.37285  0.024306822  0.024176493            4 
 2601000   0.83697128   -7.2518818    761.14572  0.024386317  0.024169521            2 
 2602000   0.83244671   -7.2558347    759.27241  0.024316949  0.024162556            3 
 2603000   0.83028197   -7.2797578    760.64641  0.024351595  0.024155531            4 
 2604000   0.83192709   -7.2571248    760.16123  0.024326716  0.024148536            3 
 2605000   0.84862728   -7.2522717    761.45135  0.024358648  0.024141582            4 
 2606000   0.83332768   -7.2780225    760.58227   0.02432151  0.024134658            5 
 2607000   0.82238298   -7.2784147    759.80077    0.0242872  0.024127674            4 
 2608000   0.83551948   -7.2587984    759.84739  0.024279377    0.0241207            6 
 2609000   0.81411105    -7.260708    760.81211  0.024300885  0.024113749            5 
 2610000   0.82303309   -7.2399708    760.74003  0.024289273  0.024106788            6 
 2611000   0.80821496   -7.2572892    761.52085  0.024304891  0.024099869            4 
 2612000   0.82258889   -7.2551831    761.60069  0.024298133  0.024092912            6 
 2613000   0.83022319   -7.2546351    762.00302  0.024301665  0.024085954            4 
 2614000     0.818632    -7.254298    762.21023  0.024298974   0.02407903            4 
 2615000   0.82610678     -7.27983    760.88199  0.024247355  0.024072077            5 
 2616000   0.84503387   -7.2499887    761.30962  0.024251708  0.024065148            7 
 2617000   0.82807916   -7.2634569    759.83011  0.024195329  0.024058183            3 
 2618000   0.83417963   -7.2385023    761.01391  0.024223768  0.024051211            4 
 2619000   0.81677565    -7.266603     762.8594   0.02427324   0.02404419            9 
 2620000   0.82579368   -7.2671393    762.80064  0.024262107   0.02403721            4 
 2621000   0.84517368   -7.2706278    760.18775  0.024169775  0.024030295            4 
 2622000   0.83555392   -7.2841279    762.53222  0.024235069  0.024023346            7 
 2623000   0.81789797   -7.2776551     764.2516  0.024280455  0.024016413            8 
 2624000   0.83930578   -7.2608249    763.77257  0.024255989  0.024009443            9 
 2625000   0.82467157   -7.2675521    763.38103  0.024234318    0.0240025            5 
 2626000   0.83383227   -7.2438432    762.55663  0.024198928  0.023995596            4 
 2627000    0.8288656   -7.2905884    761.36903  0.024152044  0.023988698            8 
 2628000   0.82439847   -7.2586804    762.45951  0.024177433  0.023981795            4 
 2629000   0.83384699   -7.2571146    765.54991  0.024266195  0.023974946            5 
 2630000   0.82601296   -7.2415647    762.90772  0.024173248  0.023968094            3 
 2631000   0.83505296   -7.2710714    765.40996  0.024243316  0.023961287            5 
 2632000   0.82500017   -7.2446862    765.00536  0.024221294  0.023954498            3 
 2633000   0.83195875   -7.2338445    764.26584   0.02418869  0.023947707            3 
 2634000   0.82728133   -7.2697994     766.7796  0.024259036   0.02394086            5 
 2635000   0.83223892   -7.2435603    765.00385   0.02419367  0.023934043            5 
 2636000   0.83929695   -7.2751612    763.70002  0.024143273  0.023927271            8 
 2637000   0.82657028    -7.274131    765.12309  0.024179089   0.02392048            4 
 2638000   0.82137484   -7.2614244    765.94189  0.024195789  0.023913684            6 
 2639000   0.82541013   -7.2633429    764.85904  0.024152426  0.023906877            6 
 2640000   0.82602106   -7.3221066     764.3366  0.024126787  0.023900095            5 
 2641000   0.81589213   -7.2599985    765.04721  0.024140074  0.023893313            3 
 2642000   0.82402843   -7.2526522    765.46627  0.024144154  0.023886508            6 
 2643000   0.83012386   -7.2499643    766.39633  0.024164344  0.023879735            7 
 2644000   0.83435671   -7.2548091    767.43095  0.024187813  0.023872975            3 
 2645000   0.82245948   -7.2723901    766.21713  0.024140426  0.023866224            4 
 2646000   0.82359254   -7.3014771    765.45073  0.024107166  0.023859438            3 
 2647000   0.81420166    -7.279195    766.44838  0.024129467  0.023852741            6 
 2648000   0.82643789   -7.2801336    767.27363  0.024146325  0.023846038            8 
 2649000   0.82667073    -7.268503    768.59216  0.024178689  0.023839331            4 
 2650000   0.82716369    -7.262728     766.7477  0.024111563  0.023832608            4 
 2651000    0.8404601   -7.2716844    766.80913  0.024104399  0.023825894            5 
 2652000    0.8242408   -7.2930038    767.64063  0.024121438  0.023819137            7 
 2653000   0.82643547   -7.2645938    766.88407  0.024088581  0.023812392            5 
 2654000   0.82425387   -7.2895963    766.18261   0.02405748  0.023805643            3 
 2655000   0.82013443   -7.2740215    767.35109  0.024085094  0.023798904            3 
 2656000    0.8271212   -7.2771812    766.71202  0.024055975   0.02379218            3 
 2657000   0.82928334   -7.2637391    767.02612  0.024056772  0.023785484            3 
 2658000    0.8366611   -7.2784528    767.76102  0.024070762  0.023778746            7 
 2659000   0.83096812   -7.2437853    768.34275  0.024079941  0.023772005            7 
 2660000   0.82655531   -7.2890318    766.41728  0.024010566  0.023765305            8 
 2661000   0.81248731   -7.2731511    767.05126  0.024021397  0.023758562            2 
 2662000   0.83852874   -7.2928687    765.15554  0.023953028  0.023751802            5 
 2663000   0.81082957   -7.3080397      768.329  0.024043341  0.023745009            3 
 2664000   0.80734936    -7.269191    769.06869  0.024057454  0.023738282            4 
 2665000   0.80582734   -7.2741741      768.167  0.024020231  0.023731583            7 
 2666000   0.83960322   -7.2750389    767.70134  0.023996666  0.023724859            5 
 2667000   0.81471049   -7.2524404    768.72086  0.024019524  0.023718115            2 
 2668000   0.81424997   -7.2717859      768.397  0.024000406  0.023711393            5 
 2669000   0.82975735   -7.2723501    767.27625  0.023956421  0.023704678            8 
 2670000   0.83390256   -7.2812684    767.68438  0.023960187  0.023697925            5 
 2671000   0.81745895   -7.2856083    771.02679  0.024055497  0.023691187            9 
 2672000   0.81084768   -7.2881655    768.64121  0.023972094    0.0236845            5 
 2673000   0.81269606    -7.296768    768.49451  0.023958552  0.023677795            3 
 2674000     0.821836   -7.2995689    769.26559  0.023973622   0.02367111            4 
 2675000    0.8257416   -7.2757501    768.63396  0.023944983  0.023664433            4 
 2676000    0.8061066   -7.2771927    768.62524  0.023935764  0.023657735            8 
 2677000   0.84328284   -7.2779084    769.68332   0.02395976  0.023651034            2 
 2678000   0.83114496   -7.2547793    769.59078  0.023947933  0.023644361            6 
 2679000   0.82651963   -7.2683229    769.69803   0.02394233  0.023637659            5 
 2680000   0.82695817   -7.2959243    768.45683  0.023894802  0.023630914            3 
 2681000   0.82590698   -7.2820591    769.94394  0.023932113  0.023624193            4 
 2682000   0.83957912   -7.2841653    768.89176  0.023890497  0.023617496            4 
 2683000   0.82612575   -7.2865217    768.56363  0.023871401  0.023610787            2 
 2684000   0.82729115   -7.2659408     770.2475  0.023914788  0.023604102            4 
 2685000   0.82059957   -7.2703723    770.41369  0.023911039  0.023597456            5 
 2686000   0.82079882   -7.2776661    771.05163   0.02392193  0.023590827            5 
 2687000   0.82081594   -7.2953579    770.06546  0.023882442  0.023584158            5 
 2688000   0.82449897   -7.2818212    770.79766  0.023896257  0.023577515            5 
 2689000   0.83148371   -7.2773737    773.26106  0.023963712  0.023570862            5 
 2690000     0.819618   -7.2850074    772.00201    0.0239158   0.02356424            3 
 2691000   0.81785874   -7.3116518     769.1321  0.023818038  0.023557575            6 
 2692000   0.82682507   -7.3070998    769.23454  0.023812362  0.023550916            4 
 2693000   0.80892248   -7.2890103    770.70544  0.023849036  0.023544249            4 
 2694000   0.82979511   -7.2873238    773.88731  0.023938608  0.023537607            4 
 2695000   0.81490073    -7.286671    770.09942  0.023812598  0.023531019            2 
 2696000   0.81907936   -7.2699614    773.58599  0.023911535  0.023524404            5 
 2697000   0.81166596   -7.2920214    773.31567  0.023894317  0.023517829            3 
 2698000   0.81316215   -7.2806045    771.50919  0.023829664  0.023511224            7 
 2699000   0.84683819   -7.2715611    771.50815  0.023820803  0.023504652            7 
 2700000   0.82915352   -7.3011815     771.3075  0.023805787   0.02349806            9 
 2701000    0.8281484   -7.2615931    773.29216  0.023858206  0.023491499            5 
 2702000   0.80919722   -7.3056366    770.53935  0.023764475  0.023484923            3 
 2703000   0.81500857   -7.3017349    771.88984  0.023797319   0.02347832            3 
 2704000     0.847318   -7.2734267    771.23968  0.023768481   0.02347173            3 
 2705000   0.80215535   -7.2828421    773.32835   0.02382404  0.023465131            6 
 2706000   0.80073848   -7.2738276    775.10166  0.023869847  0.023458553            5 
 2707000   0.82962166   -7.2860734    774.28592  0.023835917  0.023452006            9 
 2708000   0.83496869   -7.2954143     773.5401  0.023804164  0.023445451            4 
 2709000   0.83861365   -7.2745945    776.05896  0.023872861  0.023438915            5 
 2710000   0.81012412   -7.3130234    773.70095  0.023791542  0.023432423            8 
 2711000   0.81248231   -7.2696375     773.8135  0.023786226   0.02342586            7 
 2712000   0.81330677   -7.2999636    775.19317  0.023819849  0.023419326            8 
 2713000   0.82302039   -7.3190289    773.55068  0.023760618  0.023412787            3 
 2714000   0.83917139   -7.2809282    774.34308  0.023776194  0.023406254            5 
 2715000   0.81837967   -7.2985956    773.49143  0.023741296  0.023399725            3 
 2716000   0.82559206   -7.2997051    774.47851  0.023762841  0.023393201            7 
 2717000   0.80918227   -7.2978998    773.29592  0.023717824  0.023386636            5 
 2718000   0.82235732   -7.3031181    774.05445  0.023732354  0.023380051            4 
 2719000   0.81479441   -7.3131222    772.44578  0.023674322  0.023373452            5 
 2720000   0.80435452   -7.2784139    773.61434   0.02370142  0.023366873            3 
 2721000    0.8120647   -7.3094393    775.06585  0.023737163  0.023360313           12 
 2722000   0.82381752   -7.3298071    774.55261   0.02371273   0.02335372            6 
 2723000   0.83268946   -7.3127158    774.82936  0.023712491  0.023347127            5 
 2724000   0.80178393   -7.3026135     774.7843  0.023702408  0.023340552            3 
 2725000   0.82353154   -7.2912462    774.23615  0.023676946  0.023334022            4 
 2726000    0.8129239   -7.3043366    775.88191  0.023718571  0.023327504            4 
 2727000   0.82340719   -7.3117359     775.2662  0.023691058  0.023321012            5 
 2728000   0.81255431   -7.3009335    776.26907  0.023713009   0.02331452            4 
 2729000   0.81734045   -7.3104714    778.21553  0.023763758  0.023308024            3 
 2730000   0.81224526   -7.2774824    775.55656  0.023673888  0.023301516            4 
 2731000   0.82520675   -7.3258597    775.29849  0.023657344  0.023295038            8 
 2732000   0.82661377   -7.2999717    776.95278  0.023699145  0.023288559           10 
 2733000   0.82366774    -7.316189     778.0905  0.023725165    0.0232821            6 
 2734000   0.82022525   -7.3113583    776.00604  0.023652952  0.023275662            4 
 2735000   0.80023926   -7.2786548    777.34019  0.023684954  0.023269212            6 
 2736000   0.81704362   -7.3300802    777.16302  0.023670901  0.023262769            5 
 2737000    0.8086442   -7.2867934    778.78018   0.02371149  0.023256313            7 
 2738000   0.82140448   -7.3277318    776.93497  0.023646669  0.023249839            6 
 2739000   0.80755942   -7.3170626    777.21239  0.023646477  0.023243342           11 
 2740000   0.83353698   -7.2995185    776.02299  0.023601672  0.023236833           10 
 2741000   0.79707323   -7.2830863    776.70871  0.023613909  0.023230358            3 
 2742000   0.80686841    -7.287666    779.91054  0.023702606  0.023223953            2 
 2743000   0.82503741   -7.2889433    778.83502   0.02366129  0.023217542            7 
 2744000   0.78354854   -7.3187981    778.06966  0.023629424  0.023211139            4 
 2745000   0.81496001   -7.3417153     775.7333  0.023549888  0.023204664            6 
 2746000   0.81762336   -7.3279738     777.1587  0.023584568  0.023198198            5 
 2747000   0.81713752   -7.3161401    774.95569  0.023509152   0.02319176            6 
 2748000   0.80710554   -7.3230722    777.67434   0.02358304  0.023185322            5 
 2749000    0.8045093   -7.3094805    778.91501  0.023612071  0.023178888           12 
 2750000   0.82438616   -7.3084993    778.16267  0.023580687   0.02317249            6 
 2751000   0.81058921   -7.3159713    779.11047  0.023600826  0.023166071            4 
 2752000   0.81837036    -7.351254    777.56696  0.023545511  0.023159638           10 
 2753000   0.81530766   -7.2986716     779.3966  0.023592342  0.023153188            4 
 2754000    0.8193669   -7.2896483    780.82656  0.023627044  0.023146739            6 
 2755000   0.82068027   -7.2725041    780.23476  0.023600568  0.023140361            4 
 2756000   0.81906666   -7.3295284    777.68784  0.023514993  0.023133962            8 
 2757000    0.8158864   -7.2808925    778.89029  0.023542809  0.023127544            5 
 2758000   0.81926305   -7.3188177    779.83651  0.023562863  0.023121113            5 
 2759000   0.81446657   -7.3389539    778.85069  0.023524547  0.023114658            7 
 2760000   0.81330154    -7.314222    778.60447  0.023508589  0.023108199            5 
 2761000   0.80935156   -7.3154588     778.3342  0.023491917  0.023101777            4 
 2762000   0.80098924   -7.3323467    780.06116  0.023535516   0.02309537            5 
 2763000    0.8221088   -7.3149688    779.67665  0.023515401  0.023088931            4 
 2764000   0.80923845   -7.3279906    777.94263  0.023454614  0.023082518            6 
 2765000   0.80495734   -7.3002466     778.5509  0.023464463  0.023076072            6 
 2766000   0.81729638   -7.3180896    779.93049  0.023497544  0.023069662            5 
 2767000   0.81264108   -7.3120982    779.22242  0.023467727  0.023063234            4 
 2768000   0.82533372   -7.3114326    779.05696  0.023454268  0.023056804            8 
 2769000   0.78949848   -7.2873536    780.15044  0.023478706  0.023050446            6 
 2770000   0.81600805   -7.3205472    780.60354  0.023483861  0.023044082            7 
 2771000   0.80297691   -7.3062928    781.67177  0.023507511  0.023037696            4 
 2772000   0.81684181   -7.3124747    780.33451   0.02345883  0.023031316            3 
 2773000   0.79320403   -7.3136157    781.09484  0.023473219  0.023024912            4 
 2774000   0.79469884   -7.3376347    780.04483  0.023433214  0.023018503            2 
 2775000   0.82878952   -7.3024939    781.10736  0.023456677  0.023012136            7 
 2776000   0.80481866   -7.3365105    781.21984  0.023451604  0.023005785            3 
 2777000   0.80759792    -7.303447     782.0556  0.023468239  0.022999473            5 
 2778000   0.79772993    -7.340055    780.95734  0.023426846  0.022993177            3 
 2779000   0.80865398   -7.3108624    781.58134  0.023437128  0.022986887            5 
 2780000   0.81433076   -7.3002261    782.36782  0.023452273  0.022980569            5 
 2781000   0.82015412   -7.3195742    781.30404  0.023411963  0.022974241           12 
 2782000   0.81317571   -7.3259992    780.54048  0.023380676  0.022967893            5 
 2783000   0.82689249   -7.3299227    781.59999     0.023404  0.022961525            2 
 2784000   0.81336094   -7.3338755    781.91323   0.02340497  0.022955198            4 
 2785000   0.84484399   -7.3090707    783.07958  0.023431466   0.02294887            5 
 2786000   0.82407702   -7.3551946    781.58233   0.02337827  0.022942529            7 
 2787000   0.79457978   -7.3365447    782.21731  0.023388868  0.022936154            5 
 2788000   0.80767205   -7.2957994    782.02436  0.023374712   0.02292979            2 
 2789000   0.81053204   -7.3514503    782.22091  0.023372203  0.022923437            5 
 2790000   0.79958476   -7.3189126    782.55168  0.023373706  0.022917063            5 
 2791000    0.7882679   -7.3383356    783.37708  0.023389976  0.022910717            3 
 2792000    0.7963894   -7.3378476    783.16764  0.023375347  0.022904378            6 
 2793000   0.81182201   -7.3440128    782.70936  0.023353305  0.022898044            4 
 2794000   0.81026641   -7.3358475    781.86794   0.02331985  0.022891698            6 
 2795000   0.80165375   -7.3135403     783.2554  0.023352874  0.022885328            7 
 2796000   0.80149036   -7.3490549    782.22919  0.023313936   0.02287897            4 
 2797000   0.80773559   -7.3646792    780.60777  0.023257293   0.02287261            4 
 2798000   0.80625571   -7.3321486    781.20831  0.023266866  0.022866251            4 
 2799000   0.81732366   -7.3433161      781.422  0.023264916  0.022859866            7 
 2800000   0.78386346    -7.327014    782.18976  0.023279457  0.022853487            4 
 2801000   0.80373957   -7.3264534    783.46087  0.023308963  0.022847146            8 
 2802000   0.80246444   -7.3413195    785.02878  0.023347275  0.022840842            6 
 2803000   0.79597405   -7.3395533    782.99769  0.023278561  0.022834545           13 
 2804000   0.80277882    -7.302667    786.08748  0.023362086  0.022828232            6 
 2805000     0.822262   -7.3241962    783.38262  0.023273399  0.022821902            5 
 2806000   0.79401326   -7.2957375    785.84831  0.023338332   0.02281557            3 
 2807000   0.80248864   -7.3195576     781.9466  0.023214185  0.022809249            5 
 2808000   0.82226701   -7.3414439    783.35132  0.023247606  0.022802946            4 
 2809000   0.79257159   -7.3532762    784.73957  0.023280514  0.022796667            4 
 2810000   0.78656511   -7.3292916    783.53343   0.02323646  0.022790368            4 
 2811000   0.77899358   -7.3372361    785.57892  0.023288833   0.02278408            5 
 2812000   0.80873482   -7.3243623    785.08718  0.023265979  0.022777817            7 
 2813000   0.81101179   -7.3189408    784.86459  0.023251114  0.022771522            7 
 2814000   0.80103294     -7.33889    783.72842  0.023209205  0.022765242            7 
 2815000   0.80671425   -7.3167663    783.81679  0.023203576  0.022758954           10 
 2816000   0.80567145   -7.3260547    785.08625  0.023232903  0.022752683            6 
 2817000    0.8239206   -7.3516769    785.64926   0.02324131  0.022746425            7 
 2818000     0.796454   -7.3467976    785.13524  0.023217862   0.02274019            5 
 2819000   0.77209529   -7.3288195     784.2591  0.023183726  0.022733915            6 
 2820000   0.79073959   -7.3233146    783.95296  0.023166459   0.02272763            3 
 2821000   0.80591601   -7.3133326    786.73334   0.02324038  0.022721384            5 
 2822000   0.80835784   -7.3277806    787.79741  0.023263566  0.022715146            2 
 2823000   0.82242321   -7.3418464    785.89827  0.023199264  0.022708916            2 
 2824000   0.81836349   -7.3367363    785.97495  0.023193312  0.022702659            4 
 2825000   0.79078867   -7.3048465    786.85114  0.023210948  0.022696425            7 
 2826000   0.79572027    -7.311813    786.01295  0.023178018  0.022690201            4 
 2827000   0.76130323   -7.3542159    786.50378  0.023184288  0.022683946            7 
 2828000   0.78710366   -7.3556688    786.50422  0.023176103  0.022677684            7 
 2829000   0.80300943   -7.3187873     785.8654  0.023149093   0.02267145            3 
 2830000   0.79870341   -7.3245517     787.8198  0.023198463  0.022665232           11 
 2831000   0.78610617   -7.3095069    787.27145  0.023174127  0.022659013            5 
 2832000   0.78691023   -7.3256796    785.66757  0.023118749  0.022652806            3 
 2833000   0.81415898   -7.3389305    787.59193  0.023167194  0.022646637            1 
 2834000   0.81009725   -7.3452337    787.14244  0.023145802  0.022640417            5 
 2835000    0.7910182   -7.3428772    786.86394  0.023129452  0.022634192            6 
 2836000   0.80386572   -7.3444085    787.29414  0.023133937  0.022627974            6 
 2837000   0.78690066   -7.3575809    788.40905  0.023158532   0.02262176            6 
 2838000   0.78259581   -7.3461971    787.26475  0.023116771  0.022615578            6 
 2839000    0.7856543   -7.3240085    787.55222  0.023117067  0.022609373            5 
 2840000   0.80580289   -7.3365403    786.62212  0.023081635  0.022603158            4 
 2841000   0.81342142   -7.3442325    789.13493  0.023147217  0.022596988            3 
 2842000   0.79900942   -7.3700282    786.46589  0.023060811  0.022590748            5 
 2843000   0.80533914   -7.3316483    786.69017  0.023059273  0.022584497            5 
 2844000    0.7867753   -7.3716894     787.2597  0.023067854  0.022578268            2 
 2845000   0.79834031   -7.3421468    785.74135  0.023015271  0.022571991            4 
 2846000   0.78779401   -7.3523071    787.43875  0.023056885  0.022565716            4 
 2847000   0.77946428   -7.3609429     788.5384  0.023080974  0.022559495            1 
 2848000   0.78716693   -7.3519562    787.35785  0.023038327  0.022553279            6 
 2849000   0.80439147   -7.3254108    787.01278  0.023020147  0.022547049            6 
 2850000   0.78186002   -7.3303868    787.51355  0.023026712  0.022540813            3 
 2851000   0.80678026   -7.3416316    785.28873  0.022953605  0.022534571            6 
 2852000   0.80172645     -7.34446    786.87359  0.022991865  0.022528328            5 
 2853000   0.80465547   -7.3746709    786.54329  0.022974158  0.022522091            4 
 2854000   0.77894108   -7.3422189    786.20333  0.022956182   0.02251584            4 
 2855000   0.79165662   -7.3650191    790.13229  0.023062822  0.022509643           11 
 2856000   0.77513223     -7.38086    788.75871  0.023014668  0.022503418            4 
 2857000   0.79453414   -7.3224063    787.82091  0.022979259  0.022497236            8 
 2858000   0.81212948   -7.3298846     789.0609  0.023007374  0.022491086            2 
 2859000   0.80596485   -7.3547194    788.37637  0.022979374  0.022484929            3 
 2860000   0.79294775   -7.3676789     789.1622  0.022994237  0.022478768            5 
 2861000   0.80490947   -7.3682791    788.41531  0.022964445  0.022472593            2 
 2862000   0.79852681   -7.3604125    791.01491  0.023032113  0.022466444            6 
 2863000   0.79812706    -7.369046    789.18944  0.022970935  0.022460307            7 
 2864000   0.79730764   -7.3704981    790.03831  0.022987614  0.022454149            8 
 2865000   0.79373917   -7.3413763    789.07851  0.022951673  0.022447993            4 
 2866000   0.81082294   -7.3573559    789.75561  0.022963352  0.022441846            4 
 2867000    0.7979346   -7.3319518    791.22793  0.022998138  0.022435689            7 
 2868000   0.79008883   -7.3459421    790.22864  0.022961083   0.02242953           11 
 2869000   0.79286229   -7.3093783    792.13891  0.023008566  0.022423405            4 
 2870000   0.80526738   -7.3431427     790.2687  0.022946246  0.022417271            6 
 2871000   0.80360838   -7.3654516    790.77772  0.022953028  0.022411151            3 
 2872000   0.80006575   -7.3619087    789.04015  0.022894619  0.022405013            4 
 2873000   0.76133014   -7.3142489    792.33937  0.022982346  0.022398904            5 
 2874000   0.79264472   -7.3439372    792.34693  0.022974569  0.022392814            4 
 2875000   0.81484139   -7.3722112    791.66093  0.022946694  0.022386708            5 
 2876000   0.78812119    -7.348537    791.73689  0.022940916   0.02238059            3 
 2877000   0.78201079   -7.3280614    793.13867  0.022973545  0.022374509            4 
 2878000   0.79046511   -7.3539943    791.66154  0.022922792  0.022368408            6 
 2879000   0.80965602   -7.3196238    792.25812  0.022932098  0.022362327            8 
 2880000   0.79633031   -7.3591478      791.929  0.022914612  0.022356197            3 
 2881000   0.78564244    -7.364799    790.70755  0.022871328  0.022350091            5 
 2882000   0.78800049   -7.3576358    792.98969   0.02292938  0.022344018            3 
 2883000   0.80070188   -7.3434675    792.84974  0.022917382  0.022337925            3 
 2884000   0.80115182   -7.3494581    791.36516  0.022866538  0.022331832            5 
 2885000   0.80284444   -7.3640852    791.06277  0.022849878  0.022325715            9 
 2886000   0.80239789   -7.3534443     792.1362  0.022872956   0.02231963           10 
 2887000   0.78396033   -7.3445173     792.1528  0.022865512  0.022313546            5 
 2888000   0.77640627   -7.3345144    792.05038  0.022854639  0.022307452            3 
 2889000    0.7918831    -7.320652    792.42059  0.022857407  0.022301359            4 
 2890000   0.78701727   -7.3246831    792.71255  0.022857917  0.022295298            4 
 2891000   0.77526416   -7.3363648     793.7253  0.022879203  0.022289234            3 
 2892000   0.78231174   -7.3515582    792.81569  0.022845081  0.022283167            5 
 2893000   0.78582634   -7.3215279    791.61799  0.022802684  0.022277092           10 
 2894000   0.80106003   -7.3318257    792.76439  0.022827816  0.022271033           10 
 2895000   0.79419089   -7.3660992    791.15573  0.022773625  0.022264945           16 
 2896000   0.78439244   -7.3317026    793.17563  0.022823884  0.022258843            9 
 2897000   0.80369571   -7.3399336     792.1154  0.022785508  0.022252723           11 
 2898000   0.78615772   -7.3665578    793.00941  0.022803353  0.022246644            4 
 2899000   0.78792715   -7.3679755     792.4195   0.02277853  0.022240522            6 
 2900000   0.79453343   -7.3815541     793.6963  0.022807365  0.022234394            7 
 2901000   0.78611813   -7.3366542     793.6156  0.022797185  0.022228278           15 
 2902000   0.79409849   -7.3698832    792.33692  0.022752611  0.022222164            3 
 2903000   0.78150459   -7.3828888    792.50099  0.022749483  0.022216047            9 
 2904000   0.79304664   -7.3906051     791.6536  0.022717332  0.022209934            8 
 2905000   0.79616671   -7.3474266     793.6755  0.022767513  0.022203787            6 
 2906000   0.78750917   -7.3651025    793.53966  0.022755783  0.022197648            7 
 2907000   0.78920486   -7.3798124     792.7229  0.022724541  0.022191487            4 
 2908000   0.80818839    -7.385876    793.34529  0.022734562  0.022185372            4 
 2909000   0.77379282   -7.3700403    794.04851  0.022746892  0.022179264            6 
 2910000   0.79548948   -7.3661727     792.5968  0.022697503  0.022173173            3 
 2911000   0.79113654    -7.351264    793.70505  0.022721432  0.022167064            5 
 2912000   0.79639428   -7.3853636    792.45209  0.022677773  0.022160945            6 
 2913000   0.78104885   -7.3935092    793.14193  0.022689722  0.022154837            3 
 2914000   0.79255512   -7.3496223    794.95334  0.022733738  0.022148751            7 
 2915000   0.77674978   -7.3884121    792.86009  0.022666097   0.02214266            7 
 2916000   0.78976496   -7.3323099    792.89744  0.022659392  0.022136521            3 
 2917000   0.79917261   -7.3714109    793.57591  0.022671006  0.022130379            4 
 2918000    0.7904159   -7.3639228    794.57039  0.022691638  0.022124273            3 
 2919000    0.7849974   -7.3724299    792.41851  0.022622431  0.022118175            3 
 2920000   0.78111983   -7.3692971    793.09274  0.022633925   0.02211205            4 
 2921000   0.78671169   -7.3568651    793.16625  0.022628274  0.022105946            4 
 2922000   0.78710492   -7.3824796    791.39944  0.022570142   0.02209982           12 
 2923000   0.78542066   -7.3645222     793.3688  0.022618565  0.022093678            8 
 2924000   0.78061408   -7.3833439    793.40347  0.022611818  0.022087535            7 
 2925000   0.76315372   -7.3755148    792.57328  0.022580435  0.022081403            6 
 2926000   0.79366862   -7.3894499    793.64436  0.022603223  0.022075288            5 
 2927000   0.77694969   -7.3647698    792.95458  0.022575862  0.022069175            3 
 2928000   0.78266069   -7.3658554    794.51772   0.02261264  0.022063058            4 
 2929000   0.79869682    -7.407986    794.20361  0.022595983  0.022056918            6 
 2930000     0.769506   -7.3839777    793.60576  0.022571267  0.022050776            4 
 2931000   0.75249306   -7.3628281     793.3217   0.02255549  0.022044648            5 
 2932000   0.77289763   -7.3574042    794.75929  0.022588656  0.022038557            9 
 2933000    0.7744077   -7.3708748    795.47527  0.022601297  0.022032478            6 
 2934000   0.79999065   -7.3756782    795.51878   0.02259483  0.022026362            4 
 2935000   0.76780143   -7.3561574    793.56188  0.022531569  0.022020234            6 
 2936000   0.78477329     -7.36885    793.47113  0.022521319  0.022014059            6 
 2937000   0.78117548   -7.3995778    793.78908  0.022522673  0.022007882            3 
 2938000   0.77751417    -7.390912    793.87297  0.022517386  0.022001705            6 
 2939000   0.76545653   -7.3528812    793.74413  0.022506072  0.021995543            6 
 2940000   0.79585068    -7.393004    793.20554   0.02248315  0.021989397            5 
 2941000   0.78575074   -7.4032917    794.04455  0.022499279  0.021983217            4 
 2942000   0.76723641   -7.3738574    793.21669  0.022468182  0.021977072            3 
 2943000   0.78367444   -7.3594009    793.08153   0.02245672  0.021970944            6 
 2944000   0.78812503   -7.3893425    795.08157  0.022505706  0.021964808            4 
 2945000   0.79395771   -7.3710602    796.26846  0.022531649  0.021958689            5 
 2946000   0.76814237    -7.397529     793.4002  0.022442866  0.021952569            4 
 2947000   0.77952476   -7.3962551    794.99673  0.022480396  0.021946445            6 
 2948000   0.77925646   -7.4041958    794.20089  0.022450274  0.021940358            8 
 2949000    0.7992854   -7.3921253    795.97938  0.022492918  0.021934272            4 
 2950000   0.79013593   -7.3559893    796.82818  0.022509271  0.021928192            5 
 2951000   0.78336806     -7.37963    795.81969  0.022473164  0.021922133            7 
 2952000   0.78529781   -7.3609163    797.03244  0.022499786  0.021916067            5 
 2953000   0.77429726   -7.3920054    796.09841  0.022465809  0.021910013            6 
 2954000   0.76990101   -7.3784638    796.32721  0.022464658  0.021903959            6 
 2955000    0.7681654   -7.4075786    794.76896  0.022413112  0.021897868            6 
 2956000   0.79404826   -7.3698961    797.58041  0.022484788  0.021891809            6 
 2957000   0.79814094   -7.3870894    796.77437  0.022454469  0.021885729           10 
 2958000   0.78435041   -7.3902325    795.00142   0.02239693  0.021879635            6 
 2959000   0.77913486   -7.3745952     796.1369  0.022421339  0.021873539            4 
 2960000   0.78518376   -7.4065488    796.96882  0.022437185   0.02186747            9 
 2961000    0.7768137   -7.4024733    797.05229  0.022431957  0.021861414            6 
 2962000   0.77048802   -7.3971543    796.71053  0.022414768  0.021855361            4 
 2963000    0.7648249   -7.3996445     797.1415  0.022419324  0.021849296           10 
 2964000   0.78963629   -7.3887386     798.5206  0.022450534  0.021843246            4 
 2965000   0.77670566   -7.4043192    796.13337  0.022375868  0.021837211            3 
 2966000   0.77625591   -7.3931513    796.87644  0.022389201  0.021831162           10 
 2967000   0.77935458   -7.3930347    796.41817  0.022368784  0.021825139            6 
 2968000   0.77187299   -7.3828534    797.23575  0.022384202  0.021819111            4 
 2969000   0.77153902   -7.3905462    797.35273  0.022379946  0.021813089            5 
 2970000   0.77374256   -7.4079947    797.92954  0.022388595   0.02180704           11 
 2971000   0.77325026   -7.3953979    797.55581  0.022370577  0.021800995           15 
 2972000   0.78072563   -7.3816518    797.56058  0.022363184  0.021794982           10 
 2973000   0.76415718   -7.3694317    798.57712  0.022384155  0.021788983            4 
 2974000   0.74913937   -7.4051038    796.20169  0.022310068  0.021782982            7 
 2975000   0.76690883    -7.380704    800.78858  0.022431053  0.021776988            2 
 2976000   0.76308805   -7.3583723    798.22797  0.022351814  0.021770984            7 
 2977000   0.76671136   -7.3854001    797.34144  0.022319489  0.021764987            7 
 2978000   0.76771916   -7.3801656    798.57381   0.02234648  0.021758987            7 
 2979000   0.76604411    -7.393687    797.05771  0.022296568  0.021752983            3 
 2980000   0.76731096     -7.36706    799.40404  0.022354699  0.021746992            4 
 2981000   0.76660097   -7.3780099    799.27906  0.022343706  0.021741005            5 
 2982000   0.77069786   -7.3967058    796.44774  0.022257091  0.021734999            9 
 2983000   0.79084393   -7.3964717     796.4652  0.022250117  0.021728949            5 
 2984000   0.78527376   -7.3740092    799.76252  0.022334744  0.021722911            4 
 2985000   0.77489647   -7.4070122    798.25268  0.022285111    0.0217169            5 
 2986000   0.77037091   -7.4000703     796.9545  0.022241418   0.02171086            3 
 2987000   0.78057762   -7.3951763    797.23429  0.022241778  0.021704819            2 
 2988000   0.77762314   -7.4037795    796.14791  0.022204036  0.021698782            8 
 2989000    0.7670024   -7.4105416    798.25706   0.02225541  0.021692746            7 
 2990000   0.78463213   -7.3703235    798.83241  0.022264003   0.02168671            5 
 2991000   0.76178832   -7.4058988    800.55657  0.022304596   0.02168069            3 
 2992000   0.78042974   -7.4060419    799.08788  0.022256235  0.021674652            6 
 2993000   0.76254726   -7.4136711    796.83517  0.022186078  0.021668593            5 
 2994000   0.76796646   -7.3728037    797.46682  0.022196249  0.021662539            5 
 2995000   0.78040977   -7.3783569    799.89643  0.022256439  0.021656495            3 
 2996000   0.76761574    -7.400994    797.26417  0.022175795  0.021650433            6 
 2997000   0.77594722   -7.3860228    797.74052   0.02218164  0.021644405            3 
 2998000   0.76559883   -7.3925599    799.74727  0.022230022  0.021638373            3 
 2999000   0.76230806   -7.3888722    798.14297  0.022178031  0.021632347            6 
 3000000    0.7481359   -7.3996579    798.23217  0.022173116  0.021626342            6 
 3001000   0.77105658   -7.3950987    797.74244  0.022152128  0.021620342           11 
 3002000   0.76526082   -7.3672918    797.75834  0.022145191  0.021614323            4 
 3003000   0.77490557   -7.4037957     799.3626  0.022182334  0.021608318            4 
 3004000   0.77013935   -7.3932672     796.9307  0.022107487  0.021602288            6 
 3005000   0.77718224    -7.435009    797.03571  0.022103042  0.021596229            5 
 3006000   0.77290983   -7.3978897    798.63533  0.022140035  0.021590152            3 
 3007000   0.77441854   -7.4076335    799.23942  0.022149413  0.021584124            6 
 3008000   0.79734001    -7.358769    800.56952  0.022178899  0.021578175            8 
 3009000   0.76450943   -7.3832054    799.57557  0.022144001  0.021572206            5 
 3010000    0.7545555   -7.4229577    799.89819  0.022145575  0.021566188            4 
 3011000   0.75242779   -7.3969236     799.7414  0.022133881    0.0215602            5 
 3012000   0.76424613   -7.4074487    801.17427  0.022166176  0.021554227            5 
 3013000   0.77337972    -7.411158    798.83408  0.022094095  0.021548235           10 
 3014000   0.75969126    -7.407138    798.93897  0.022089664  0.021542253            4 
 3015000   0.75425297   -7.4066482    800.29478  0.022119811  0.021536275            5 
 3016000   0.77493771    -7.406921    797.61607  0.022038463  0.021530255            6 
 3017000   0.78226612   -7.4256314     799.0842   0.02207171  0.021524241            4 
 3018000   0.76322199   -7.3849135    800.03192  0.022090565  0.021518226            9 
 3019000   0.76660335   -7.4083176    800.55927  0.022097805  0.021512212            3 
 3020000   0.76437391   -7.4137794    800.51856  0.022089364  0.021506193            4 
 3021000   0.76425807   -7.3979963    799.49431  0.022053799  0.021500184           10 
 3022000   0.77243909   -7.4097069    800.24238  0.022067129  0.021494175            5 
 3023000   0.76880169   -7.4008143    800.38525  0.022063768  0.021488189            4 
 3024000   0.77472972   -7.4314395    801.18495  0.022078509   0.02148218            6 
 3025000   0.76867288   -7.4064307    800.15994  0.022042974  0.021476169            7 
 3026000   0.75945103   -7.4289345    798.64478  0.021993963  0.021470137            6 
 3027000   0.78031699   -7.4463307    801.61166  0.022068375  0.021464105            4 
 3028000    0.7832757   -7.4318616    798.27817  0.021969346  0.021458059            3 
 3029000   0.76289009   -7.4105809    800.71746  0.022029203   0.02145202            4 
 3030000   0.76905486   -7.4272562    802.67046  0.022075645  0.021446017            4 
 3031000   0.76619974   -7.4390686    799.95491  0.021993702  0.021440031            4 
 3032000   0.76705212   -7.4460343    799.54434  0.021975163  0.021433994            4 
 3033000   0.75192902   -7.4269155    800.67444  0.021998968  0.021427973            5 
 3034000   0.78152996   -7.4363649    801.35546  0.022010423  0.021421964            6 
 3035000   0.77101567   -7.4156251    801.94687  0.022019409   0.02141596            5 
 3036000   0.77141594   -7.4167124     799.6144  0.021948134   0.02140996            3 
 3037000    0.7392524   -7.4026134    802.18473  0.022011435  0.021403946            4 
 3038000    0.7561269   -7.4525484    800.05338  0.021945726  0.021397917            8 
 3039000   0.77656196   -7.4256689    801.20178  0.021969995  0.021391903            8 
 3040000   0.78197873   -7.4145224    800.75498   0.02195052  0.021385903            7 
 3041000   0.76496824   -7.4095415    800.22767  0.021928852  0.021379888            4 
 3042000    0.7434786    -7.420794    802.65203  0.021988057  0.021373888            5 
 3043000   0.77496391     -7.42888    800.11093  0.021911242  0.021367887            4 
 3044000    0.7763568   -7.4294327    800.16363  0.021905487  0.021361886           12 
 3045000   0.75826651   -7.4314012    799.46635  0.021879211  0.021355881            7 
 3046000   0.77956199   -7.4187505    801.56741  0.021929509  0.021349867           12 
 3047000   0.76469204   -7.4212496    801.34917  0.021916343  0.021343865            2 
 3048000   0.77026835   -7.4240479    800.32672  0.021881199  0.021337879            5 
 3049000   0.75721548   -7.4227952    801.99217  0.021919541  0.021331877            7 
 3050000   0.75277466   -7.3951752    802.11553  0.021915725  0.021325901            8 
 3051000   0.75158219   -7.4318073    802.39232  0.021916102  0.021319914            4 
 3052000   0.75341998   -7.3964077    801.23342  0.021877278   0.02131392            4 
 3053000   0.75894393   -7.4204468      802.019  0.021891555  0.021307897            6 
 3054000   0.77036539   -7.4109901    802.06499  0.021885641  0.021301891            3 
 3055000   0.76207014   -7.4280107    800.08574  0.021824488  0.021295874            4 
 3056000   0.76445632   -7.4205555    799.63912  0.021805168  0.021289855            7 
 3057000   0.76774929   -7.4070533    803.21235  0.021895441  0.021283837            3 
 3058000   0.75463477   -7.4219155     802.4093  0.021866397  0.021277821            8 
 3059000   0.76273258   -7.3751845     801.4872  0.021834129  0.021271824            7 
 3060000   0.77662716   -7.3865974    803.12784  0.021871673  0.021265863            7 
 3061000   0.76084056   -7.4164253    800.72872  0.021799214  0.021259888            7 
 3062000   0.77059495   -7.4053522    803.13282  0.021857523  0.021253884            7 
 3063000    0.7570686   -7.4118333    803.05365  0.021848233  0.021247886            6 
 3064000   0.75803456   -7.4186512    802.88962  0.021836641  0.021241889            3 
 3065000    0.7753923   -7.4153882    803.19502   0.02183782  0.021235906            6 
 3066000   0.76123649   -7.4313565    802.39475  0.021808946  0.021229885            4 
 3067000   0.75786316   -7.4168116    802.57994  0.021806867  0.021223873            5 
 3068000   0.74998022   -7.4076818    801.90002  0.021781291  0.021217892            8 
 3069000   0.78301268   -7.4293926    802.14912  0.021780958  0.021211903            7 
 3070000   0.76214776   -7.4415209     801.2628  0.021749805  0.021205906           10 
 3071000   0.75964558   -7.3938592    802.13826  0.021766478  0.021199937           13 
 3072000   0.76884443   -7.4141362    802.49127  0.021768969  0.021193969            8 
 3073000   0.76926472   -7.4131855    803.64561  0.021793188   0.02118802            7 
 3074000   0.76739053   -7.4597355    803.36916  0.021778604  0.021182081            4 
 3075000   0.77135721   -7.4409522    804.23818  0.021795073  0.021176149            6 
 3076000   0.75812999     -7.40945    803.90429  0.021778941  0.021170241            6 
 3077000   0.75609011   -7.4449932    802.53013  0.021734648  0.021164328            4 
 3078000   0.77704565   -7.4235552    802.97518  0.021739636  0.021158409            6 
 3079000   0.75157077   -7.4280597    804.16982  0.021764908  0.021152471            5 
 3080000   0.75862268   -7.4271414     804.3533  0.021762806  0.021146553            5 
 3081000   0.74081101   -7.4025192    804.31259  0.021754641  0.021140623            7 
 3082000   0.76128993   -7.4365421    805.85618  0.021789319  0.021134703            5 
 3083000   0.74446342   -7.4185569    804.00632   0.02173225  0.021128795            7 
 3084000   0.78094259   -7.4526417    803.51764  0.021711999  0.021122881            8 
 3085000   0.77381878    -7.419603    803.92921  0.021716078  0.021116955            3 
 3086000   0.76458117   -7.4341975     802.8228  0.021679164  0.021111061            6 
 3087000   0.76605467    -7.432098    803.37078  0.021686934  0.021105131            4 
 3088000   0.77923508   -7.4230184    804.66269  0.021714775  0.021099209            5 
 3089000   0.75490192   -7.4299406    803.47004   0.02167557  0.021093297            5 
 3090000   0.75451141   -7.4215605    806.36642  0.021746667  0.021087388            4 
 3091000   0.74171831    -7.426458    805.93565  0.021728018  0.021081484           10 
 3092000   0.76683964   -7.4359528    804.71146  0.021687997  0.021075581            6 
 3093000   0.75879504   -7.4343196    803.84605  0.021657669  0.021069656            4 
 3094000   0.77012096   -7.4441174    804.26395  0.021661925  0.021063734            9 
 3095000   0.76730106   -7.4380156    804.72295  0.021667285  0.021057808            4 
 3096000   0.75528294   -7.4511633    804.19271  0.021646014  0.021051876            4 
 3097000   0.76578624   -7.4371777    804.55443  0.021648758  0.021045923            3 
 3098000   0.75401237   -7.4432525    802.94513  0.021598481  0.021039996            4 
 3099000   0.76077375   -7.4233041    804.72674   0.02163942  0.021034035            6 
 3100000   0.75590191     -7.41879     804.5477  0.021627626  0.021028106           11 
 3101000   0.74118487   -7.4140444    805.18209    0.0216377  0.021022182           10 
 3102000   0.74647989   -7.4281147    803.13087   0.02157562  0.021016271            4 
 3103000   0.75677034    -7.426586    804.75083  0.021612172  0.021010348            4 
 3104000   0.74565652   -7.4441702    804.13875  0.021588777  0.021004404            7 
 3105000    0.7567729    -7.432618    804.57544  0.021593544  0.020998488            3 
 3106000   0.77170679   -7.4516934    805.96367  0.021623837  0.020992577           11 
 3107000   0.75883444   -7.4165883    804.24568  0.021570799  0.020986654            7 
 3108000   0.75187475   -7.4229778    806.30614  0.021619105  0.020980717            6 
 3109000   0.75624534   -7.4327573    804.01518  0.021550745  0.020974789            6 
 3110000   0.74981483   -7.4350035    805.99385  0.021596834  0.020968861            4 
 3111000   0.73822765   -7.4439637    804.11838  0.021539654  0.020962924            3 
 3112000   0.76768031   -7.4420506    806.85822  0.021606101  0.020957021            5 
 3113000   0.77200434   -7.4529815     803.5715  0.021511176  0.020951104            5 
 3114000   0.76396882   -7.4174351    805.99854  0.021569218  0.020945176            4 
 3115000   0.75375197   -7.4386854    805.28962  0.021543329  0.020939264            5 
 3116000   0.76489137   -7.4104212     806.2549   0.02156223  0.020933381            4 
 3117000   0.73887203   -7.4107157    808.04983    0.0216033  0.020927508            3 
 3118000   0.74591424   -7.4166453    804.52073  0.021502051  0.020921601            8 
 3119000   0.74616551   -7.4407922    804.79862  0.021502581   0.02091569            6 
 3120000   0.72345826   -7.4297338    806.47098  0.021540357  0.020909785           14 
 3121000   0.74717286   -7.4317066    805.89486  0.021518073  0.020903854            6 
 3122000   0.74673804   -7.4181643    803.95113  0.021459298   0.02089793            5 
 3123000   0.76036298   -7.4444934    804.85676  0.021476592  0.020892009            3 
 3124000   0.75861868   -7.4268228    805.18574  0.021478493  0.020886096            9 
 3125000   0.74238469    -7.432641    804.35778  0.021449541   0.02088018            9 
 3126000   0.75662105   -7.4349046    805.80851  0.021481353  0.020874272            6 
 3127000   0.74917987   -7.4367651    806.18981  0.021484645  0.020868362           10 
 3128000   0.73949659   -7.4263396    805.48161  0.021458909  0.020862448            6 
 3129000   0.76187213   -7.4690048    804.59268  0.021428377  0.020856506            4 
 3130000   0.73506456   -7.4551962    803.62787  0.021395843  0.020850532            5 
 3131000   0.74463149   -7.4471598    803.76625  0.021392693  0.020844549            5 
 3132000   0.73835323   -7.4255503    803.44447  0.021377301  0.020838583            3 
 3133000   0.75413257   -7.4724244    805.44091   0.02142358  0.020832622            5 
 3134000   0.73501202   -7.4224335    806.84942  0.021454197  0.020826657            7 
 3135000   0.76124873   -7.4505008    804.74059  0.021391297  0.020820689            9 
 3136000   0.72996615   -7.4649922    804.63234  0.021381599   0.02081469            5 
 3137000   0.73349942    -7.488328    803.74147  0.021351118  0.020808692            2 
 3138000   0.76073481   -7.4552192    803.94481  0.021349713  0.020802705            7 
 3139000   0.74666924   -7.4701971     804.9911  0.021370689  0.020796739            5 
 3140000    0.7484216   -7.4457967    804.59539  0.021353381  0.020790792           12 
 3141000   0.76879737   -7.4254764    805.45086  0.021369279  0.020784835           12 
 3142000   0.75353331   -7.4175543    806.75003  0.021396935  0.020778887            3 
 3143000   0.74388169   -7.4069375    806.40916  0.021381089  0.020772948            6 
 3144000   0.74766952   -7.4303758    805.71326  0.021355843  0.020767003            8 
 3145000   0.73709263   -7.4438256    805.11013  0.021333072  0.020761069            4 
 3146000   0.75459311   -7.4342311    807.14406  0.021380167  0.020755148            6 
 3147000    0.7537305   -7.4268954    806.87843  0.021366339  0.020749187            6 
 3148000    0.7473477   -7.4350127    803.91055  0.021280987  0.020743237            8 
 3149000   0.74427415   -7.4452437    805.78986  0.021323962   0.02073727            4 
 3150000   0.73247841   -7.4303879    805.17077  0.021300814  0.020731322            3 
 3151000   0.75082746   -7.4144478    806.04638  0.021317211  0.020725401            5 
 3152000   0.74622949   -7.4467094    805.61769  0.021299114   0.02071946            7 
 3153000   0.76720341   -7.4290033    805.52023  0.021289783  0.020713552            9 
 3154000    0.7447393    -7.455448    806.62292  0.021312168  0.020707639            5 
 3155000   0.73709902   -7.4887154    805.27176  0.021269724  0.020701681            7 
 3156000   0.73487361   -7.4521445    805.86699  0.021278702  0.020695724            3 
 3157000   0.75084217   -7.4417294    806.11733   0.02127857  0.020689783            3 
 3158000   0.73803042   -7.4403217    805.21574   0.02124804  0.020683862            8 
 3159000   0.76254029   -7.4466844    809.06444  0.021342842  0.020677941            7 
 3160000   0.74831934   -7.4461837    805.13342  0.021232421  0.020672016            8 
 3161000   0.73799158   -7.4164436    806.81755  0.021270103  0.020666077            5 
 3162000   0.75309511   -7.4418099    806.07871  0.021243904  0.020660135           13 
 3163000   0.75188313   -7.4775568    804.24955  0.021188996  0.020654176            8 
 3164000   0.75107179   -7.4853809    805.25872  0.021208879  0.020648223            8 
 3165000   0.73932851   -7.4345378    806.96271  0.021247043  0.020642289            8 
 3166000   0.73913843   -7.4416072    807.29873  0.021249177  0.020636402           14 
 3167000   0.74253732   -7.4602033    806.41564  0.021219231  0.020630476            9 
 3168000   0.74074434   -7.4656958    805.40607  0.021185976  0.020624535            7 
 3169000   0.76651207   -7.4446651    806.88852  0.021218274  0.020618589            8 
 3170000   0.74230695   -7.4543325    807.65294  0.021231676  0.020612656            5 
 3171000    0.7540687   -7.4543001    806.15512  0.021185618  0.020606717            2 
 3172000   0.75106094   -7.4305061    805.49171   0.02116151  0.020600806            4 
 3173000   0.74527737   -7.4693726    806.25783  0.021174961  0.020594885            4 
 3174000   0.71948403   -7.4518893    806.33413  0.021170293  0.020588946            7 
 3175000   0.75625531   -7.4627317    806.63884  0.021171623  0.020583006           10 
 3176000   0.74670118   -7.4351304    807.13968  0.021178098  0.020577065            4 
 3177000   0.74191664   -7.4555031    806.38132   0.02115154  0.020571127           13 
 3178000   0.75146977   -7.4577482    804.84609  0.021104628  0.020565174           12 
 3179000   0.73705568    -7.460202    804.27726  0.021083078  0.020559237            4 
 3180000   0.74805091   -7.4610662    804.61065  0.021085185  0.020553288            4 
 3181000   0.75487606   -7.4504847    805.12254  0.021091966  0.020547345            5 
 3182000   0.76910499   -7.4539842    805.56947  0.021097043  0.020541382            8 
 3183000   0.75900239   -7.4792571    803.73421  0.021042366  0.020535408            5 
 3184000   0.71933694   -7.4675529    805.58917  0.021084306  0.020529407            4 
 3185000   0.73432527   -7.4710522    806.11336  0.021091401  0.020523403           11 
 3186000   0.75293906   -7.4837414    805.41642  0.021066552  0.020517377            7 
 3187000   0.73397355   -7.4928711    805.47892  0.021061576  0.020511364            7 
 3188000   0.75041785   -7.5056508    803.63546  0.021006782  0.020505347            7 
 3189000   0.75059512   -7.4768964    806.46552  0.021074149  0.020499324            5 
 3190000   0.74944518   -7.4785147    803.58012  0.020992166   0.02049331            7 
 3191000   0.74789926   -7.4722959    805.17825  0.021027323  0.020487312            4 
 3192000   0.73451617   -7.4870483    806.21607   0.02104783  0.020481321            4 
 3193000   0.74357179   -7.4464788    807.00533  0.021061836  0.020475344            6 
 3194000   0.73489196   -7.4645188     806.5992  0.021044646  0.020469345            7 
 3195000   0.76736642   -7.4791618    804.27893  0.020977541  0.020463363            4 
 3196000   0.74874726   -7.4721035    806.01993  0.021016373  0.020457357            6 
 3197000    0.7530044   -7.4714159    804.61716  0.020973234  0.020451354            9 
 3198000    0.7469285   -7.4832994    804.58115  0.020965738  0.020445344            6 
 3199000   0.74013319   -7.4746983    805.81116  0.020991225  0.020439341            5 
 3200000   0.76451552   -7.4483987    806.71546  0.021008215  0.020433351            5 
 3201000   0.74742547   -7.4598054    806.04256  0.020984134   0.02042736            4 
 3202000   0.74922969   -7.4686953    806.36924  0.020986083  0.020421374            7 
 3203000    0.7382249   -7.4738416    805.35425  0.020953123  0.020415392            7 
 3204000   0.74414906   -7.4832321    805.70881  0.020955805  0.020409407           17 
 3205000   0.73597224    -7.472157    805.00273  0.020930908  0.020403426            4 
 3206000   0.74851202   -7.4524426    806.01699  0.020950743  0.020397441            6 
 3207000    0.7380828    -7.481606    805.21884   0.02092347  0.020391487            4 
 3208000   0.73946357   -7.4789457    806.95145  0.020961956  0.020385517            3 
 3209000   0.72463979   -7.4650579    807.36121  0.020966064  0.020379549            4 
 3210000   0.73657033   -7.4809342    805.37294  0.020907916  0.020373579            6 
 3211000   0.72657859   -7.4749376    806.25291  0.020924242   0.02036762            4 
 3212000   0.71991925   -7.4623372    806.69923  0.020929307  0.020361648            8 
 3213000   0.73195105   -7.4478545    808.63858  0.020973093    0.0203557            8 
 3214000     0.734906   -7.4914945    808.28378  0.020957368  0.020349771            8 
 3215000   0.73261061   -7.4820489    804.91623  0.020863562   0.02034381            7 
 3216000   0.72629394   -7.5033706    806.00479  0.020885282  0.020337825            6 
 3217000   0.74615308   -7.4857951    803.90662  0.020824438  0.020331833           12 
 3218000    0.7492856   -7.4738658    805.76142  0.020865999  0.020325864           10 
 3219000   0.73227509   -7.4521423    807.38381  0.020901517  0.020319914            7 
 3220000   0.73289822   -7.4562688    805.32816  0.020841826  0.020313954            5 
 3221000   0.73169577   -7.4819671    806.72959  0.020871613  0.020308011           14 
 3222000   0.73448988   -7.4749662    806.45767  0.020858102  0.020302056           12 
 3223000   0.73517945   -7.4732875    807.51288  0.020878914  0.020296116           10 
 3224000   0.72946543   -7.4718957    808.48697  0.020897616  0.020290191            8 
 3225000   0.71722164   -7.5019463     807.3558  0.020861907  0.020284251            5 
 3226000   0.74242811   -7.4907283     807.5687   0.02086094  0.020278324            6 
 3227000   0.72518966   -7.4797794    808.54297  0.020879635  0.020272397           13 
 3228000   0.73486846   -7.5028131    806.52507  0.020821073  0.020266454            8 
 3229000   0.73607227   -7.4825517     807.4252  0.020837855  0.020260472           10 
 3230000   0.74184338   -7.4895297    806.03912  0.020795643  0.020254501           14 
 3231000   0.74174093   -7.4827382    807.39558  0.020824192  0.020248562            8 
 3232000   0.74030577   -7.4806945     805.6283  0.020772182  0.020242613            2 
 3233000   0.75083784   -7.5000609    804.72411  0.020742451  0.020236674            5 
 3234000   0.72854988    -7.505882    806.20714  0.020774251  0.020230735           10 
 3235000   0.72260731   -7.4913222    809.15877  0.020843863  0.020224784            7 
 3236000   0.73072024    -7.459703    809.39073  0.020843395  0.020218869            3 
 3237000   0.72021503   -7.4672147    808.85679  0.020823211  0.020212969            3 
 3238000   0.73395557   -7.4926651    807.21726  0.020774585  0.020207067            9 
 3239000   0.73461266   -7.4975826    808.39191  0.020798392  0.020201154            7 
 3240000   0.74433174   -7.4941306    807.72972  0.020774941  0.020195233            3 
 3241000   0.72610835    -7.445712     808.6275  0.020791615  0.020189348            7 
 3242000   0.72736827   -7.4844852     807.9207  0.020767034  0.020183462            7 
 3243000   0.73666404   -7.4815235    808.59146  0.020777867  0.020177586            5 
 3244000    0.7261173   -7.4830809    808.59825  0.020771636  0.020171714            6 
 3245000   0.73458856   -7.4891951    808.39543  0.020760027  0.020165832           10 
 3246000   0.73205547   -7.4803772    808.70192  0.020761499  0.020159947           14 
 3247000   0.72263325    -7.499183    808.03564  0.020738005  0.020154033            6 
 3248000   0.73193202   -7.4831261    807.75461   0.02072441  0.020148134            4 
 3249000   0.74566012   -7.4731947    809.54418  0.020763932  0.020142235            7 
 3250000   0.71782702   -7.5058741    808.11126  0.020720802  0.020136335            4 
 3251000   0.74256953   -7.4620881    808.58457   0.02072656  0.020130442            6 
 3252000   0.73095134   -7.4651206    807.93507  0.020703543   0.02012455            6 
 3253000   0.73583357    -7.460625    808.25792  0.020705449  0.020118672            5 
 3254000   0.73880039   -7.4879094    807.79089  0.020687126  0.020112763            4 
 3255000   0.72938869   -7.4665995    808.41423  0.020696729  0.020106863            7 
 3256000   0.70943567   -7.4870576     807.5677  0.020668706  0.020100955            5 
 3257000   0.73922913   -7.4954159    808.75251  0.020692675  0.020095066            8 
 3258000    0.7289422   -7.4803458    809.23892  0.020698765  0.020089183            2 
 3259000   0.72004111    -7.505735    808.93428  0.020684624  0.020083305            6 
 3260000   0.72834213   -7.4826438    808.43845  0.020665604  0.020077398            4 
 3261000   0.70676435    -7.482402    806.90566  0.020620098  0.020071499            5 
 3262000   0.74718428   -7.4969275    808.41045  0.020652219  0.020065624            6 
 3263000    0.7304108   -7.4926316    809.21449  0.020666424  0.020059754            8 
 3264000   0.72449403   -7.4965676    810.12007  0.020683213  0.020053869           11 
 3265000   0.70875702   -7.4894271    808.91094  0.020646017  0.020047989            9 
 3266000   0.74667797   -7.5046578    808.90954   0.02063966  0.020042105            4 
 3267000   0.73304843   -7.5098124    808.08758  0.020612376  0.020036217            4 
 3268000   0.72707375   -7.4919762    807.66479  0.020595287  0.020030299           10 
 3269000   0.72061124   -7.5166949     807.8905  0.020594741    0.0200244            8 
 3270000   0.72728548   -7.5123653    808.63658  0.020607456  0.020018502            4 
 3271000   0.72187045   -7.5268795    808.90357  0.020607958  0.020012597            4 
 3272000   0.70381395   -7.5051892    808.61805  0.020594388   0.02000671            7 
 3273000   0.72645157   -7.5214621    808.05994  0.020573886  0.020000797            3 
 3274000   0.73030964   -7.4949121    809.67432  0.020608693  0.019994888            7 
 3275000   0.72899331   -7.5059407    809.49016  0.020597714  0.019989009            6 
 3276000   0.73115926   -7.5163097    808.93634  0.020577339  0.019983133            6 
 3277000   0.72492308   -7.4906092    810.09528  0.020600531  0.019977263            8 
 3278000   0.72221034   -7.5154906    809.05178  0.020567719  0.019971393            8 
 3279000   0.71829028   -7.4895917    808.38658   0.02054454  0.019965498            5 
 3280000   0.70144881   -7.4900317    810.56709  0.020593676  0.019959604            4 
 3281000    0.7243803   -7.4811176    809.60987  0.020563087  0.019953727            8 
 3282000   0.73480228   -7.4840122    809.48126  0.020553556  0.019947863           13 
 3283000   0.71780004   -7.4654692    812.07558  0.020613148  0.019942013            5 
 3284000   0.72583004    -7.482815     810.3935  0.020564188  0.019936173            5 
 3285000   0.71635416   -7.4623371    809.81071  0.020543143  0.019930314            4 
 3286000    0.7256763   -7.4851074    810.83966  0.020562986   0.01992448            5 
 3287000   0.72448553   -7.5057443    810.05887  0.020536935  0.019918657            6 
 3288000   0.71965946   -7.4903681    810.97155  0.020553821  0.019912825            7 
 3289000   0.71343411   -7.4919627    808.32571  0.020480534  0.019906991           10 
 3290000   0.73738031   -7.4858867    809.41967  0.020502018  0.019901169            5 
 3291000   0.72195913   -7.5131324    810.85826  0.020532216  0.019895348            3 
 3292000   0.74053229   -7.4908993    809.43418   0.02048993  0.019889502            5 
 3293000   0.72650986   -7.4789734    810.56755  0.020512389  0.019883692            8 
 3294000    0.7154629   -7.5052095    810.00779     0.020492  0.019877879            7 
 3295000   0.72646635   -7.4948462    811.26601  0.020517603  0.019872024            4 
 3296000   0.73385896    -7.479531    812.40529  0.020540182  0.019866201            4 
 3297000   0.72519362   -7.5184078    809.97256  0.020472464  0.019860389            4 
 3298000   0.72600331   -7.4716272    810.70168   0.02048468   0.01985456            6 
 3299000   0.72725763   -7.5165761    811.26363  0.020492665  0.019848769            8 
 3300000   0.72457782    -7.487635    810.96464  0.020478905  0.019842971           13 
 3301000   0.72227238   -7.4995448    812.29492  0.020506284  0.019837174           12 
 3302000   0.71650722   -7.4916933    811.31763   0.02047541   0.01983138           17 
 3303000   0.71215437   -7.5004396    812.43777  0.020497471  0.019825595            6 
 3304000   0.71879434   -7.5087086    811.46075  0.020466625  0.019819799            8 
 3305000   0.72528514    -7.513005    809.66338  0.020415113  0.019813989            9 
 3306000   0.72602401   -7.5119522    810.40576  0.020427651  0.019808181            4 
 3307000   0.71945185   -7.5017517    810.66765  0.020428073   0.01980239           11 
 3308000   0.70240595   -7.5096801    810.29254  0.020412448  0.019796608            6 
 3309000   0.72616545   -7.5237194    810.65093  0.020415305  0.019790839            8 
 3310000   0.72900477   -7.4960656    812.66799  0.020459919   0.01978507            5 
 3311000   0.71160737   -7.5030929    811.63905  0.020427843  0.019779283            5 
 3312000   0.72963395   -7.5049745    812.39217  0.020440624  0.019773499            4 
 3313000   0.71986141   -7.4987265     812.5137  0.020437511  0.019767743            6 
 3314000   0.72201212   -7.5012088    811.00779  0.020393477  0.019761983            4 
 3315000    0.7086852   -7.5065911    812.28844  0.020419518  0.019756216           15 
 3316000   0.71601315   -7.5162973    813.66452  0.020447942  0.019750484            5 
 3317000   0.72256485   -7.5189577    813.31145  0.020432907  0.019744741            4 
 3318000   0.72660427   -7.5455422    811.10719  0.020371388  0.019739007            5 
 3319000   0.71590394   -7.5168372    813.71907  0.020430829  0.019733281            5 
 3320000   0.69448786   -7.4887895    812.50953  0.020394316  0.019727558           11 
 3321000   0.72563267   -7.5013759    813.61313  0.020415867  0.019721842            6 
 3322000   0.71494124   -7.4775209    812.93596  0.020392734  0.019716142            6 
 3323000   0.71468475   -7.5098325    813.43603  0.020399138  0.019710433            7 
 3324000    0.7165788   -7.5302688     814.0145  0.020407504  0.019704714           10 
 3325000   0.71371861   -7.4868517    811.54103  0.020339374  0.019698986            4 
 3326000   0.72553505   -7.5331472    811.47148  0.020331516  0.019693243            5 
 3327000   0.71892906   -7.5316802    813.87797  0.020385682  0.019687496            5 
 3328000    0.7171496   -7.5021003    813.16803   0.02036178  0.019681753           20 
 3329000   0.72150268   -7.4867565    812.41934  0.020336921  0.019676012           11 
 3330000   0.73028687   -7.5463991    813.03126  0.020346128  0.019670265            4 
 3331000   0.70567969   -7.5057121    812.15993  0.020318221  0.019664502           17 
 3332000   0.71517907   -7.5193713    810.54222  0.020271664  0.019658761           11 
 3333000   0.70619538   -7.5008911    813.10254  0.020329597  0.019653035           11 
 3334000   0.71550407     -7.51137    812.78311  0.020315515  0.019647318            9 
 3335000   0.71764779   -7.5232355    811.67765    0.0202818  0.019641579            4 
 3336000     0.720088   -7.5217256    812.16732  0.020287953  0.019635828            9 
 3337000   0.70348658   -7.5012608    813.71998  0.020320647    0.0196301            5 
 3338000   0.72625563   -7.5007861    812.71743   0.02028953   0.01962435            5 
 3339000   0.70584071   -7.5287354     811.7097  0.020258303   0.01961861            5 
 3340000   0.73520791   -7.5295921    812.28439  0.020266577  0.019612867            6 
 3341000   0.71974225   -7.5159422    811.61423  0.020243795  0.019607137           10 
 3342000   0.72928496   -7.5270622    812.95937  0.020271279  0.019601395            5 
 3343000   0.72199729   -7.5162685    813.72159  0.020284215  0.019595676            9 
 3344000   0.72265269   -7.5221047    812.75749  0.020254124  0.019589976            5 
 3345000   0.71513742   -7.5357501    813.65876  0.020270522  0.019584267            4 
 3346000   0.72308225   -7.5006688    813.21502  0.020253412  0.019578558            4 
 3347000   0.71644475   -7.5567697    813.04525  0.020243134  0.019572833            5 
 3348000   0.71138893    -7.528947    814.18011  0.020265335  0.019567095            6 
 3349000   0.70927913   -7.5297796    814.63607   0.02027063  0.019561357           11 
 3350000   0.72243998   -7.5405752    812.17271  0.020203301  0.019555636            6 
 3351000   0.70790212   -7.5072382    813.57287  0.020232092  0.019549949            6 
 3352000   0.71156777   -7.5168615    813.49307  0.020224072  0.019544241            3 
 3353000   0.71348422   -7.5044617     814.3999  0.020240578  0.019538521            8 
 3354000   0.71297353   -7.5163749    812.48367  0.020186933   0.01953283            4 
 3355000   0.69961272   -7.5345924    814.50943  0.020231233  0.019527124            5 
 3356000    0.7203314   -7.5286806    813.63848  0.020203578  0.019521433            5 
 3357000    0.7169661   -7.5253998    813.27822  0.020188616  0.019515742            3 
 3358000   0.71327944   -7.5502088    813.45617   0.02018702  0.019510048           13 
 3359000    0.7148606   -7.5392706    813.09558  0.020172064  0.019504334            4 
 3360000   0.72600437   -7.5190748    813.82894   0.02018425  0.019498604           10 
 3361000   0.70792219   -7.5748958    812.60526  0.020147904  0.019492855           10 
 3362000   0.72010326   -7.5168279    813.00973  0.020151937  0.019487105           10 
 3363000   0.70827442    -7.524144    813.45534  0.020156986  0.019481362            8 
 3364000   0.71612972   -7.5624246     812.8057  0.020134901  0.019475624            8 
 3365000   0.72839657   -7.5439743    812.76339   0.02012787  0.019469906           10 
 3366000   0.72064641   -7.5409176    814.14335  0.020156054  0.019464216            5 
 3367000   0.72097774   -7.4947064    815.35065  0.020179949  0.019458555            5 
 3368000   0.71785334   -7.5215631    812.29543  0.020098363   0.01945289            9 
 3369000   0.72364559   -7.4924296    815.23843  0.020165193  0.019447216            8 
 3370000   0.70475725   -7.5193066    813.72186  0.020121708  0.019441554            3 
 3371000   0.70419907   -7.5171206    813.71818  0.020115648  0.019435898            7 
 3372000   0.71237219   -7.5114644    813.69507  0.020109111   0.01943025            5 
 3373000   0.71056342   -7.5485179    815.23094  0.020141095  0.019424593            5 
 3374000   0.70998655   -7.5284964    814.28473  0.020111755  0.019418927            5 
 3375000    0.7313244   -7.5401683    813.56361   0.02008799  0.019413266            4 
 3376000   0.70048086   -7.5155424    815.77483  0.020136622  0.019407616            8 
 3377000   0.70107234   -7.5057872    814.18965  0.020091542  0.019401932            5 
 3378000   0.72336115   -7.5118234    814.37287  0.020090114  0.019396266            5 
 3379000   0.72793566   -7.5243925    815.40853   0.02010971  0.019390591            4 
 3380000   0.71638659   -7.5520843    813.81533   0.02006448  0.019384904            9 
 3381000   0.69788285   -7.5271642    813.82157    0.0200587  0.019379216            4 
 3382000   0.70523547   -7.5621939     812.6624  0.020024207  0.019373516            8 
 3383000   0.70083611   -7.5536884    813.66415  0.020042964  0.019367803            9 
 3384000   0.70040945   -7.5333289    813.63565  0.020036339  0.019362105            5 
 3385000   0.72323124   -7.5462371     814.0841   0.02004146  0.019356418            6 
 3386000   0.70606696   -7.5650951    812.90302  0.020006473  0.019350728            6 
 3387000   0.71450389   -7.5378016    811.71767  0.019971402  0.019345013            4 
 3388000   0.70469721   -7.5289989    813.31567  0.020004813  0.019339314            4 
 3389000   0.70745294   -7.5488209    814.29598  0.020023015  0.019333605            8 
 3390000   0.70823952   -7.5598812    812.06181  0.019962188  0.019327882            5 
 3391000   0.71156971   -7.5556702    812.04707  0.019955939  0.019322158            7 
 3392000   0.69411564   -7.5245965    812.28771  0.019955968  0.019316466            4 
 3393000   0.71758873   -7.5497156    813.12544  0.019970661   0.01931078           16 
 3394000   0.70652779   -7.5477658    813.32353  0.019969641  0.019305088            9 
 3395000   0.71344999   -7.5325528    812.35388  0.019939958  0.019299399            7 
 3396000   0.71577994   -7.5495775     812.4794  0.019937166   0.01929372            9 
 3397000   0.70647644   -7.5180423    815.45257  0.020004233  0.019288029            5 
 3398000   0.69599799   -7.5418731    814.10983  0.019965417  0.019282353            4 
 3399000   0.72047298   -7.5419722    814.50838  0.019969314   0.01927668            6 
 3400000   0.70921845   -7.5361162    814.89034  0.019972803  0.019270988            7 
 3401000   0.72112186   -7.5483444    814.04588  0.019946238  0.019265306            4 
 3402000   0.71589634   -7.5383383    813.85373  0.019935668  0.019259628            5 
 3403000   0.71420524   -7.5576744    814.67123  0.019949829  0.019253963           10 
 3404000   0.70714308   -7.5487865    814.20142  0.019932467  0.019248285           18 
 3405000   0.71797659   -7.5522455    814.31923  0.019929497  0.019242613            9 
 3406000   0.70257209   -7.5354076    813.01612  0.019891762  0.019236927            4 
 3407000    0.7052004   -7.5355643    812.53248  0.019874094  0.019231242            6 
 3408000   0.70723621   -7.5286065    815.85664  0.019949546  0.019225568            4 
 3409000   0.71279313   -7.5362786    813.80651  0.019893579  0.019219903            3 
 3410000   0.70837479   -7.5558017    814.96967   0.01991617  0.019214214            4 
 3411000   0.69564969   -7.5531498    814.11413   0.01988943  0.019208564            8 
 3412000   0.68133324   -7.5199321    814.08418  0.019882869  0.019202929           18 
 3413000    0.7011728    -7.504544    815.97386  0.019923182  0.019197266            6 
 3414000   0.70118254    -7.529217    814.99087  0.019893353  0.019191608           10 
 3415000   0.70741327   -7.5428257    813.81366  0.019858801  0.019185958           15 
 3416000   0.69424412   -7.5095187    815.27422  0.019888618  0.019180308           21 
 3417000   0.70402648   -7.5199824    815.35203  0.019884695  0.019174686            8 
 3418000    0.6934916   -7.5104789    815.76851  0.019889031  0.019169056            9 
 3419000   0.69273883   -7.5656597    815.38218  0.019873798  0.019163399           11 
 3420000   0.71088981   -7.5723338    813.57746  0.019824012  0.019157742           11 
 3421000   0.70968827   -7.5355233    815.08155  0.019854856  0.019152094            6 
 3422000   0.69920146   -7.5305349    815.47348  0.019858598  0.019146457           10 
 3423000   0.70139329   -7.5684703    813.79182  0.019811856  0.019140813            8 
 3424000   0.71940008   -7.5435937    817.18599  0.019888678  0.019135169            9 
 3425000   0.69465111   -7.5388995     816.6805  0.019870572  0.019129542            9 
 3426000   0.70621704   -7.5432291    817.77249  0.019891333  0.019123924           13 
 3427000   0.70346525   -7.5456653     815.5009  0.019830291  0.019118296           11 
 3428000   0.69238649   -7.5326916    815.27314   0.01981897  0.019112666            9 
 3429000   0.70695422   -7.5593804    816.11506  0.019833651  0.019107053            7 
 3430000   0.70748866   -7.5406878    815.64317  0.019816404  0.019101429            4 
 3431000   0.69963492   -7.5199809    814.55122  0.019784106  0.019095801            6 
 3432000   0.69731766   -7.5474866    814.62182  0.019780056  0.019090153            6 
 3433000   0.70559905    -7.553964    814.36997  0.019768181   0.01908451            3 
 3434000   0.70596665   -7.5683082    814.17799  0.019757765  0.019078841           13 
 3435000   0.69803264   -7.5429648    815.78615  0.019791027  0.019073196            8 
 3436000   0.69298778   -7.5271393    815.41852  0.019776351   0.01906754            5 
 3437000   0.71189731   -7.5694945    814.84316  0.019756647  0.019061894            7 
 3438000   0.70361548    -7.569891    814.29685  0.019737659  0.019056232            7 
 3439000   0.72014446   -7.5775176    813.38571  0.019709841  0.019050576            9 
 3440000   0.69081406   -7.5395014    814.44149  0.019729687  0.019044913           11 
 3441000   0.69667731   -7.5484391    814.58339   0.01972739  0.019039293            8 
 3442000   0.68919953   -7.5564219    815.62413  0.019746856  0.019033665            5 
 3443000   0.69544254   -7.5524253    815.27821  0.019732748  0.019028027            5 
 3444000   0.70564942   -7.5587356    816.87109  0.019765561  0.019022406            6 
 3445000   0.69651614   -7.5684642    814.03253  0.019691159  0.019016777            6 
 3446000   0.69210552    -7.571122    816.87288  0.019754132  0.019011141            6 
 3447000   0.68628764   -7.5614754    815.95321  0.019726168  0.019005512            2 
 3448000    0.7065654   -7.5426975    815.36739  0.019706288  0.018999876            3 
 3449000    0.7065827   -7.5615085    815.58552  0.019705845  0.018994222            8 
 3450000   0.69841137   -7.5535532    815.39025  0.019695417  0.018988602            5 
 3451000   0.70257156   -7.5311872    816.61437  0.019719269  0.018982968            5 
 3452000   0.70687432   -7.5775435     813.1356  0.019629577  0.018977325            6 
 3453000   0.69943054   -7.5437423    815.38403  0.019678155  0.018971696            7 
 3454000   0.69474017   -7.5487247    814.48426  0.019650749  0.018966074            8 
 3455000   0.69432727   -7.5716462    814.99819  0.019657458  0.018960432            8 
 3456000   0.68637471    -7.555126    815.87199  0.019672839  0.018954783            4 
 3457000   0.68493319   -7.5583858    815.55012   0.01965939  0.018949133            9 
 3458000   0.69149245   -7.5754146    814.13532   0.01961961  0.018943475           17 
 3459000   0.68696672   -7.5644159    813.50445  0.019598739  0.018937809            6 
 3460000   0.70889062   -7.5666277    815.96225   0.01965227  0.018932153            7 
 3461000   0.70233301   -7.5581069    813.31203   0.01958278  0.018926514            8 
 3462000   0.70383705    -7.556382    814.77009   0.01961222  0.018920863           15 
 3463000   0.71579015   -7.5605646    814.25131  0.019594073  0.018915208            8 
 3464000   0.70093025    -7.570787    814.37278  0.019591339  0.018909558           11 
 3465000   0.70541432   -7.5435153    813.82261  0.019572453  0.018903896           19 
 3466000   0.72241663   -7.5718851    815.13284  0.019598308  0.018898257           11 
 3467000   0.68972396   -7.5561117    814.88348  0.019586662   0.01889259           14 
 3468000    0.6839266   -7.5587341    816.54147  0.019620854  0.018886952            6 
 3469000   0.69765281   -7.5520993    815.56119   0.01959165  0.018881325            7 
 3470000   0.69096222   -7.5762127    813.96856  0.019547756  0.018875693           11 
 3471000   0.68232755   -7.5484136    814.83059   0.01956282  0.018870045            7 
 3472000   0.69891011   -7.5685072    816.28881  0.019592185  0.018864408            7 
 3473000   0.69618164   -7.5705015    815.30423   0.01956292  0.018858774           11 
 3474000   0.68233393   -7.5694217    814.78512  0.019544836  0.018853141           11 
 3475000   0.68839138   -7.5812214    814.31759     0.019528  0.018847507           13 
 3476000   0.68711919    -7.583232    815.21323  0.019543854  0.018841886           12 
 3477000    0.7010856   -7.5674001     814.7315  0.019526687  0.018836257            9 
 3478000   0.69278402   -7.5628468    815.68669  0.019543959  0.018830636           10 
 3479000    0.7152922   -7.5712579    815.54469   0.01953494  0.018825011            9 
 3480000   0.68711688   -7.5855984    815.00794  0.019516474  0.018819396            7 
 3481000   0.69740647   -7.5896601    815.14194  0.019514075   0.01881378            7 
 3482000   0.68893668   -7.5812131     816.3606  0.019537637  0.018808175           13 
 3483000   0.69629575   -7.5779135    815.70264  0.019516285  0.018802559            9 
 3484000   0.69847958   -7.5901869    815.77034  0.019512302  0.018796935           12 
 3485000   0.69317095   -7.5660872    816.53019  0.019524873  0.018791332           17 
 3486000   0.69020943    -7.578129    816.48383  0.019518164   0.01878573           14 
 3487000   0.67843884   -7.5741749    815.32254  0.019484814   0.01878011            7 
 3488000   0.68041629   -7.5736188    815.77106  0.019489943  0.018774507           14 
 3489000     0.702112   -7.5756914    814.71661  0.019459172  0.018768921            5 
 3490000    0.7028001   -7.5619076    814.52986  0.019449137  0.018763343            7 
 3491000   0.70490358   -7.5360841    816.72773  0.019496031  0.018757791           15 
 3492000   0.68245185   -7.5733449    815.44758  0.019459898  0.018752221            6 
 3493000   0.68902756   -7.5887273    815.53303  0.019456366  0.018746631            6 
 3494000   0.68703879   -7.5612606    816.70495  0.019478748  0.018741036           13 
 3495000    0.6894826   -7.5649684     816.7692  0.019474707  0.018735464            8 
 3496000    0.6936487   -7.5796318    816.11881  0.019453633  0.018729881            8 
 3497000   0.71438398   -7.5605829    815.97952  0.019444751  0.018724306            6 
 3498000    0.6654217   -7.5778591    814.42503  0.019402159  0.018718728            6 
 3499000   0.68417973   -7.5598119     815.9881  0.019433841  0.018713145           15 
 3500000   0.68579921   -7.5662735    816.73032   0.01944596  0.018707598            5 
 3501000   0.69807792   -7.5721538    817.47223  0.019458065  0.018702038           10 
 3502000   0.68147013   -7.5838516    816.41465  0.019427343  0.018696462            7 
 3503000   0.69537054   -7.5526736    814.37846  0.019373357  0.018690868            4 
 3504000   0.68709041   -7.5799258     815.6648  0.019398421  0.018685267            4 
 3505000   0.69542093   -7.5765529    817.28826  0.019431485  0.018679679           11 
 3506000   0.68976522   -7.5778295    813.95161  0.019346634  0.018674092           19 
 3507000   0.69523956   -7.5656189    816.10718  0.019392339  0.018668513           12 
 3508000   0.68565705   -7.5934843    813.90646  0.019334532   0.01866294            6 
 3509000   0.69399885   -7.5932814    816.26542  0.019385044  0.018657367            7 
 3510000   0.69742173    -7.572494      817.198  0.019401662  0.018651798            5 
 3511000   0.70130682   -7.5765472    816.41608  0.019377577  0.018646232            9 
 3512000    0.6699761   -7.5804805    818.55801  0.019422884  0.018640681           16 
 3513000   0.67774504   -7.5558857    817.48617  0.019391929  0.018635126           11 
 3514000   0.69313186   -7.5618435    816.61576  0.019365769  0.018629583           12 
 3515000   0.67468279   -7.5612369    816.83128  0.019365369  0.018624041            6 
 3516000   0.69369976   -7.5562157     818.2678  0.019393909  0.018618511            5 
 3517000   0.70584319   -7.5669636    816.04287  0.019335676  0.018612972           13 
 3518000   0.69049151   -7.5788947    816.00571    0.0193293  0.018607424           13 
 3519000   0.69513101   -7.5935316    816.36197  0.019332243   0.01860188            6 
 3520000   0.67922079   -7.5974871    817.15228  0.019345461  0.018596311            7 
 3521000   0.70984919   -7.5848174    817.25254   0.01934234  0.018590765            5 
 3522000   0.70370563   -7.5716559    816.37019  0.019315971   0.01858523            7 
 3523000   0.69380661   -7.5612836    818.87478  0.019369732  0.018579714            3 
 3524000   0.69498488   -7.5624124    818.99454  0.019367067  0.018574198            9 
 3525000   0.69135321    -7.583242    818.67177  0.019353942  0.018568678           19 
 3526000   0.69887462   -7.5827744    817.81177  0.019328128  0.018563131           12 
 3527000   0.69392009   -7.5909056    815.64262  0.019271397   0.01855757            7 
 3528000   0.68765423   -7.6045844    818.21191  0.019326623  0.018552005           11 
 3529000   0.70106712   -7.5951242    816.70834  0.019285641  0.018546443           12 
 3530000   0.69621663   -7.6003245    816.86762  0.019283938  0.018540897           10 
 3531000    0.6843444   -7.5979969    816.76013   0.01927594  0.018535354           10 
 3532000   0.68378285   -7.6058531    815.24329  0.019234695  0.018529807           18 
 3533000    0.6829765   -7.5911156    815.34897  0.019231743  0.018524272           11 
 3534000   0.66370339   -7.5746196    817.68357  0.019281352  0.018518728            9 
 3535000   0.68358745   -7.5969793    818.00301  0.019283428  0.018513198            8 
 3536000    0.6935746   -7.6157579    816.81395  0.019249952  0.018507667           11 
 3537000   0.68611288   -7.5862785    817.15472  0.019252538  0.018502137            9 
 3538000   0.67458013   -7.5585349    818.32591  0.019274682  0.018496625           14 
 3539000   0.68338353   -7.5852964    816.76725  0.019232534  0.018491127            7 
 3540000   0.67756507   -7.6000515    816.76625  0.019227077  0.018485609            5 
 3541000   0.69493851   -7.5961958    817.94932   0.01924949  0.018480099           13 
 3542000   0.68498553   -7.5976389    817.95162  0.019244109  0.018474579           11 
 3543000   0.67544322   -7.5814272    816.91363  0.019214264  0.018469049            9 
 3544000   0.68174138   -7.5840325    818.48943  0.019245895  0.018463551            6 
 3545000   0.68611649   -7.5882688    816.53527  0.019194529  0.018458038            5 
 3546000   0.69189657   -7.6029535    818.97232  0.019246388  0.018452547           12 
 3547000   0.68441244   -7.5727569    817.70741  0.019211244  0.018447038            5 
 3548000   0.68344023   -7.5820655    817.30317  0.019196335  0.018441536            5 
 3549000   0.67928142   -7.5778899    816.39873  0.019169689  0.018436017            9 
 3550000   0.67681335   -7.5700393    817.20236  0.019183154  0.018430522            7 
 3551000   0.67682091   -7.5865739    818.45178  0.019207073  0.018425036            6 
 3552000   0.68371995   -7.5985023    818.78613  0.019209509  0.018419545            4 
 3553000   0.68350383   -7.6036075    817.89981  0.019183315  0.018414056            9 
 3554000     0.677317   -7.5906899    818.42172  0.019190155  0.018408576            8 
 3555000   0.68145868   -7.5781341    818.75052  0.019192464  0.018403115            9 
 3556000   0.69690961   -7.5843178      818.931  0.019191296  0.018397635            7 
 3557000   0.69779975   -7.5723726    820.20309  0.019215704  0.018392166            6 
 3558000   0.67470807   -7.5973202    819.62613   0.01919679  0.018386714            7 
 3559000   0.69188454   -7.5814665    819.32325  0.019184304  0.018381252           19 
 3560000   0.67226109   -7.5826537    817.67559  0.019140346  0.018375783            7 
 3561000   0.68210652   -7.5649187    820.33319  0.019197163  0.018370328            5 
 3562000    0.6870863   -7.5819214    819.08513  0.019162576  0.018364869            4 
 3563000    0.6929451   -7.5943109    816.71307  0.019101718  0.018359404            4 
 3564000   0.67909088   -7.5862636    819.70137  0.019166231  0.018353949           13 
 3565000    0.6867563    -7.602735    818.47029  0.019132078  0.018348511            6 
 3566000   0.68422619   -7.5959161    818.11534  0.019118418  0.018343053            6 
 3567000    0.6889572   -7.6024428    818.67483  0.019126129  0.018337589            6 
 3568000   0.66805377   -7.6214226       818.09  0.019107109  0.018332121            6 
 3569000   0.67169851    -7.613545    819.28877  0.019129746  0.018326647           11 
 3570000   0.67934778   -7.6353983    818.95966  0.019116705  0.018321187            6 
 3571000    0.6794553   -7.6046494    818.59417  0.019102823  0.018315722            9 
 3572000   0.69437905    -7.596113    817.02094  0.019060772  0.018310266            9 
 3573000   0.67434738   -7.5956916    818.78162  0.019096502  0.018304807            8 
 3574000   0.69856344    -7.623242    816.80231  0.019045008  0.018299343            9 
 3575000   0.67367078    -7.570359    817.10955  0.019046843  0.018293883            8 
 3576000    0.6694719   -7.5854642    819.16837  0.019089494  0.018288439            4 
 3577000   0.68729822   -7.6044938    819.73798  0.019097428  0.018282992           10 
 3578000   0.67275675   -7.5969727    820.11157  0.019100791  0.018277556            3 
 3579000   0.67208224   -7.6153846    819.09502  0.019071785  0.018272123            4 
 3580000   0.68110727   -7.6050926    819.60497  0.019078328  0.018266676           10 
 3581000   0.68466843     -7.59415    819.68581  0.019074882  0.018261231            3 
 3582000   0.67789919   -7.6205882    817.89067  0.019027793  0.018255803           15 
 3583000        0.674   -7.6036657     819.1012  0.019050637   0.01825036            6 
 3584000   0.68117312   -7.6231362    819.23268  0.019048379  0.018244941            7 
 3585000   0.68183301   -7.6097944     818.3048  0.019021497  0.018239504           21 
 3586000   0.65583572   -7.6079515    820.15561  0.019059203  0.018234075           12 
 3587000    0.6762466   -7.6076719    819.33582  0.019034844   0.01822864           12 
 3588000   0.69356307   -7.6196733    819.82242   0.01904084  0.018223199            6 
 3589000   0.67929957    -7.626306    818.34681  0.019001273  0.018217749           10 
 3590000   0.69220819   -7.6281189    819.44556  0.019021485  0.018212306            6 
 3591000   0.68349821   -7.5951238    817.42728  0.018969351   0.01820688            6 
 3592000   0.67049408   -7.5888528    818.36083  0.018985728  0.018201445            9 
 3593000   0.67506612   -7.5905169    818.08167   0.01897397  0.018195998            6 
 3594000   0.67849837    -7.612895    817.90162  0.018964515  0.018190551            6 
 3595000   0.67830932   -7.6197015    817.97578  0.018960959  0.018185125            6 
 3596000   0.67434415   -7.6099788    817.64418  0.018948002  0.018179707            6 
 3597000    0.6872644   -7.6282836    817.30309  0.018934832  0.018174279            8 
 3598000   0.67957308   -7.5976285    817.76062  0.018940166  0.018168848           11 
 3599000   0.68801481   -7.6168944    818.83713   0.01895983  0.018163431           10 
 3600000   0.67139936   -7.6074078     818.8982  0.018955977  0.018158012            7 
 3601000   0.67160776   -7.6076999    820.99979  0.018999347  0.018152601           12 
 3602000   0.67573711   -7.6037227    818.57743   0.01893803  0.018147205            5 
 3603000   0.68534908   -7.6099039    818.33394  0.018927143  0.018141801            7 
 3604000   0.67468713   -7.5840775    819.33777  0.018945102  0.018136382           10 
 3605000   0.68068566    -7.613056    819.37572  0.018940724  0.018130975           19 
 3606000   0.68147193   -7.6118633    819.38445  0.018935673  0.018125557           11 
 3607000   0.66501551   -7.6348644    817.36699  0.018883814  0.018120116           14 
 3608000   0.66852899   -7.6005913    818.69276  0.018909201  0.018114699           14 
 3609000   0.68213852   -7.5900962    822.07615  0.018982085  0.018109305            9 
 3610000   0.66752789   -7.6022206    821.40336  0.018961296   0.01810392            8 
 3611000    0.6877301   -7.6096441    820.26404  0.018929753  0.018098537            9 
 3612000   0.68045501   -7.6007493    819.67947  0.018911025  0.018093152            7 
 3613000   0.66504421   -7.5956619    819.95915  0.018912242  0.018087769            8 
 3614000    0.6829993   -7.6081114    819.34114  0.018892758  0.018082396            9 
 3615000   0.67553053   -7.6255199     817.8349   0.01885281  0.018077013            5 
 3616000    0.6640207   -7.6227624    819.61495  0.018888619   0.01807163           10 
 3617000   0.67690228   -7.6237857     819.3353  0.018876954  0.018066246            5 
 3618000    0.6809542   -7.6066064    819.27063  0.018870247  0.018060859            5 
 3619000   0.67684656   -7.6339839    820.70651  0.018898096  0.018055478            6 
 3620000    0.6766026   -7.5919365    818.03977  0.018831486  0.018050113            4 
 3621000   0.68107785   -7.6107754    819.57983  0.018861729  0.018044736            8 
 3622000    0.6758857   -7.6202657    820.04719  0.018867274  0.018039349           11 
 3623000   0.66317398   -7.6060822     818.5627  0.018827921  0.018033943           12 
 3624000   0.67278252   -7.5976626    817.50325  0.018798364  0.018028535           12 
 3625000   0.67496981   -7.5862088    817.77419  0.018799407  0.018023141            5 
 3626000   0.68649248   -7.6174611    819.61069  0.018836429  0.018017759           13 
 3627000   0.66642422   -7.6217976    818.63912  0.018808913  0.018012381           11 
 3628000   0.67680311   -7.6260753     819.0537  0.018813251  0.018007007            8 
 3629000   0.67016561   -7.6401129    819.32152  0.018814217  0.018001619            8 
 3630000   0.68357363   -7.6249824    821.11766  0.018850268  0.017996248            6 
 3631000   0.68194752   -7.6405071    820.05242  0.018820628  0.017990872           11 
 3632000   0.65996109   -7.6258335    820.62471  0.018828577  0.017985491           10 
 3633000   0.67257817   -7.6232187    821.41106  0.018841432   0.01798012           11 
 3634000   0.65724625   -7.6444187    818.51895  0.018769926  0.017974746            5 
 3635000   0.68015979   -7.6341417    818.95526  0.018774765  0.017969365            7 
 3636000   0.68357021   -7.6373875    820.93941  0.018815076  0.017963981            9 
 3637000   0.67594072   -7.6419102     820.6709  0.018803751  0.017958608           21 
 3638000   0.67032316    -7.649098    820.89588  0.018803736  0.017953232           15 
 3639000   0.66166986   -7.6350823    817.41986  0.018718967  0.017947845            6 
 3640000   0.67324522   -7.6353007       819.17  0.018753892  0.017942466            5 
 3641000   0.65972033   -7.6296055     821.6111  0.018804612  0.017937091            6 
 3642000   0.65716739   -7.6320769    818.63763  0.018731412  0.017931719            5 
 3643000   0.66520603   -7.6250663    820.30944  0.018764513  0.017926349            6 
 3644000   0.67720891   -7.6380209    819.50704  0.018741013  0.017920966           10 
 3645000   0.67429817   -7.6380749    819.69942   0.01874027  0.017915599            2 
 3646000   0.66440144   -7.6258842      819.806  0.018737566  0.017910241            8 
 3647000   0.67018482   -7.6123212    820.11034  0.018739383  0.017904887            4 
 3648000   0.67725602    -7.618603      820.099  0.018733987  0.017899544            4 
 3649000   0.68103872   -7.6288699    820.76104  0.018743972  0.017894192           13 
 3650000   0.67055977    -7.606547    820.69713  0.018737377   0.01788885           19 
 3651000   0.67516726   -7.6143293    819.66636  0.018708718  0.017883519           17 
 3652000   0.66530069   -7.6238655    820.78823  0.018729195  0.017878169            5 
 3653000   0.66477346   -7.6519247    819.85429  0.018702762  0.017872811           21 
 3654000   0.67388953   -7.6408611    818.05125  0.018656524  0.017867452            9 
 3655000   0.65970858   -7.6340389    820.89778   0.01871632  0.017862093            6 
 3656000   0.66381789   -7.6549696    819.19725  0.018672439  0.017856744            8 
 3657000   0.66073819   -7.6420026    820.34574  0.018693504  0.017851387           11 
 3658000   0.66544219   -7.6421542    818.83268  0.018653925  0.017846025           11 
 3659000   0.67382284   -7.6356747    820.07892   0.01867721  0.017840681           11 
 3660000   0.67593878   -7.6262927    819.19954  0.018652084   0.01783532           11 
 3661000   0.66865957   -7.6340633    819.72272  0.018658898  0.017829978            6 
 3662000   0.66207486   -7.6482906    818.75891   0.01863187   0.01782463            9 
 3663000   0.65415099   -7.6316964    820.51502  0.018666735  0.017819287           14 
 3664000   0.64096869    -7.624584    819.59062  0.018640616  0.017813937           10 
 3665000   0.66356693   -7.6456941    820.03538  0.018645643  0.017808602           18 
 3666000   0.66066906   -7.6489744    818.54117  0.018606591  0.017803255           15 
 3667000   0.65931742   -7.6234365    820.86609  0.018654352  0.017797924           25 
 3668000   0.67726527   -7.6406925    818.53911  0.018596399  0.017792598           14 
 3669000   0.68665534   -7.6284847    820.10853  0.018626977  0.017787263            7 
 3670000   0.67881287   -7.6507833    821.20701  0.018646844  0.017781921           13 
 3671000   0.65508704   -7.6441452    819.06872  0.018593224   0.01777659           10 
 3672000   0.65983957   -7.6581237    818.90064  0.018584346  0.017771241            9 
 3673000   0.67269416   -7.6699465    821.04725  0.018627989   0.01776591            6 
 3674000   0.64783557    -7.651466    820.50102  0.018610529  0.017760574           15 
 3675000   0.66632457   -7.6671329    819.77262  0.018588948  0.017755233           15 
 3676000   0.65610905   -7.6392229    818.36059  0.018551881  0.017749893           17 
 3677000    0.6623125   -7.6545671    821.18272  0.018610795  0.017744559            7 
 3678000   0.67536772   -7.6442199    818.28897  0.018540171  0.017739206            6 
 3679000   0.67844696   -7.6225556    819.84084  0.018570283  0.017733873           12 
 3680000   0.65499461   -7.6753296    819.71478  0.018562382  0.017728531            9 
 3681000   0.66455016    -7.634556    820.14093  0.018566987  0.017723195           14 
 3682000   0.66599117   -7.6662187    819.80957  0.018554444  0.017717859            9 
 3683000   0.65912019   -7.6333192    820.73445  0.018570333  0.017712525           13 
 3684000   0.66298737   -7.6744985    818.86305  0.018522961  0.017707186           14 
 3685000   0.66258826   -7.6738027    818.64731  0.018513055  0.017701841           10 
 3686000   0.66608963   -7.6459238    820.48073  0.018549483  0.017696499           15 
 3687000    0.6601824   -7.6477093    819.68502  0.018526467  0.017691161           14 
 3688000   0.67309241   -7.6644165    819.14913  0.018509335  0.017685827           14 
 3689000   0.65677053   -7.6356048    820.25564  0.018529313    0.0176805           13 
 3690000    0.6677344   -7.6586267    820.25961  0.018524381  0.017675183            9 
 3691000   0.65965945   -7.6713767    819.75596  0.018507991  0.017669866            7 
 3692000   0.65378175   -7.6529599    819.22597  0.018491016  0.017664549           40 
 3693000   0.66597568   -7.6546186    819.49642  0.018492112  0.017659234           25 
 3694000   0.65113448   -7.6414379    818.49253  0.018464459  0.017653909           43 
 3695000   0.65272698    -7.648186     818.9581  0.018469962  0.017648588           15 
 3696000   0.65546776   -7.6307319    821.36933   0.01851933  0.017643265           11 
 3697000   0.66723892   -7.6744221    820.24049  0.018488876  0.017637958           25 
 3698000   0.65657288   -7.6641698    820.53866  0.018490595   0.01763265           16 
 3699000   0.66408623   -7.6448878    821.25207  0.018501669  0.017627344           15 
 3700000   0.67397825   -7.6462575    820.94501  0.018489752  0.017622046           18 
 3701000   0.66062443   -7.6467189    819.42072  0.018450435   0.01761675           14 
 3702000   0.66360539   -7.6527401    818.89852  0.018433696  0.017611447            9 
 3703000   0.66547505   -7.6542517    820.52063  0.018465223  0.017606148            7 
 3704000   0.65117558   -7.6533038    818.61082   0.01841727  0.017600842           10 
 3705000   0.66090482   -7.6534198    818.97811   0.01842056  0.017595536           17 
 3706000   0.66052582   -7.6431826    818.81104  0.018411833  0.017590225           23 
 3707000   0.66165788   -7.6530548    820.75753  0.018450623  0.017584909           19 
 3708000   0.66923773   -7.6437211    820.43666  0.018438436  0.017579599           13 
 3709000   0.64976156   -7.6798422    818.57673  0.018391676  0.017574296            4 
 3710000   0.64680608   -7.6564577    819.98216  0.018418288  0.017568995           12 
 3711000   0.65136098   -7.6500927    819.26106  0.018397132  0.017563698           11 
 3712000   0.65415826   -7.6630547    822.37065  0.018461985  0.017558407            7 
 3713000   0.65646402   -7.6407733    820.43979  0.018413677  0.017553125           12 
 3714000   0.64639775   -7.6632002    819.73686  0.018392947   0.01754784            8 
 3715000   0.65869067   -7.6332006    819.87879   0.01839118  0.017542564            9 
 3716000   0.64905813   -7.6440821    819.59706  0.018379913  0.017537283            7 
 3717000   0.67301957   -7.6901649    819.89875  0.018381732  0.017531989            3 
 3718000   0.64897337   -7.6761586    820.42278  0.018388533  0.017526683            6 
 3719000   0.65104425   -7.6841487    819.37136  0.018360029  0.017521391            5 
 3720000   0.67095503   -7.6719855      818.174  0.018328271  0.017516097            7 
 3721000   0.65561664   -7.6518117    819.75561  0.018358766  0.017510806            7 
 3722000   0.65819366   -7.6677965    818.76641  0.018331686  0.017505512           12 
 3723000    0.6675895   -7.6464539    820.03227  0.018355096  0.017500215            8 
 3724000   0.65316177   -7.6508461    819.69437  0.018342606  0.017494916            8 
 3725000   0.66799252   -7.6562097    819.36482  0.018330309  0.017489627            8 
 3726000   0.66966228   -7.6765955    820.27298  0.018345701  0.017484347           11 
 3727000   0.66626267   -7.6642004    820.75602  0.018351579  0.017479067            6 
 3728000   0.64795793   -7.6569645    818.28662  0.018291457  0.017473773            6 
 3729000   0.64441182   -7.6701931    820.57121  0.018337606  0.017468484            9 
 3730000   0.63466686   -7.6779687    820.58087  0.018332906  0.017463189            7 
 3731000   0.64654408   -7.6733743    819.58209  0.018305684  0.017457891           16 
 3732000   0.64549585   -7.6776722    819.37569   0.01829617  0.017452608           10 
 3733000   0.65060391   -7.6799585    819.08967  0.018284884  0.017447319           19 
 3734000   0.65954767   -7.6856988    820.57081  0.018313043  0.017442037            9 
 3735000   0.64917045   -7.6630309     820.4566  0.018305591  0.017436765           16 
 3736000   0.63302919   -7.6933095    818.95378   0.01826717  0.017431477            5 
 3737000   0.65368976   -7.7019936    818.97497  0.018262755  0.017426182            9 
 3738000   0.65929075   -7.6796521    819.05819  0.018259724  0.017420888            6 
 3739000   0.65958892   -7.6687369    821.79862  0.018315918  0.017415611            9 
 3740000   0.63277851   -7.6800245    818.26202   0.01823222  0.017410315           10 
 3741000   0.63365615   -7.6793238    820.55718  0.018278472  0.017405033            8 
 3742000   0.63924417   -7.6678155     820.3771  0.018269577   0.01739975           10 
 3743000   0.64947384   -7.6474975    819.69837  0.018249585   0.01739447            5 
 3744000   0.64445201   -7.6479499    820.26578   0.01825734  0.017389206            6 
 3745000   0.66213191   -7.6772988    820.33512  0.018254008  0.017383946            4 
 3746000   0.66387914   -7.6753793    821.59737  0.018277215  0.017378662           18 
 3747000   0.65606687   -7.6702966     820.0104  0.018237043  0.017373378            5 
 3748000   0.65682246   -7.6803133    818.90791  0.018207664  0.017368092            3 
 3749000   0.64877099   -7.7010727    818.56612   0.01819521  0.017362815           12 
 3750000   0.65255971   -7.6755487     819.4551  0.018210113  0.017357529            7 
 3751000   0.64141748   -7.6889531    819.05204  0.018196304  0.017352247            6 
 3752000   0.65319041   -7.6826426    819.82551  0.018208633  0.017346951            5 
 3753000   0.64983548   -7.6859948    819.90531  0.018205553  0.017341659           13 
 3754000   0.64245871   -7.6933751    816.76797   0.01813106  0.017336367            5 
 3755000   0.64247672   -7.6961005    818.39852  0.018162417  0.017331077           11 
 3756000   0.65226115   -7.6738944    818.68014   0.01816383  0.017325787            6 
 3757000   0.65082999   -7.6758182    818.92436  0.018164412  0.017320498            6 
 3758000   0.64677206   -7.6761422    817.58952  0.018129979  0.017315214            9 
 3759000   0.64180343    -7.698354    819.93987  0.018177261  0.017309932            5 
 3760000    0.6516548   -7.6842519    818.26359  0.018135275  0.017304649           15 
 3761000   0.64476321   -7.6819996      819.986  0.018168616  0.017299367            9 
 3762000   0.65670079   -7.6695382    818.77722  0.018137011  0.017294091            8 
 3763000   0.64746801   -7.6833445    819.16624  0.018140806  0.017288819           14 
 3764000   0.64813562   -7.6483171    820.56036  0.018166852  0.017283558           13 
 3765000   0.66425186   -7.6674659    820.25282   0.01815522  0.017278309            8 
 3766000   0.65775129   -7.6786282    818.23927  0.018105843  0.017273058           12 
 3767000    0.6650097   -7.6460131     819.3372  0.018125325  0.017267828            6 
 3768000   0.65463534   -7.6672953    819.32598  0.018120267  0.017262604            8 
 3769000   0.63514824   -7.6779409    819.76285  0.018125118  0.017257378            5 
 3770000   0.64913038   -7.6614737    821.25048  0.018153194  0.017252159            4 
 3771000   0.65197782   -7.6504203    820.16901  0.018124481  0.017246936            5 
 3772000   0.65931163   -7.6429292     819.4354  0.018103469  0.017241717            7 
 3773000   0.64528718   -7.6569793    819.88521  0.018108605  0.017236481            6 
 3774000   0.65285473   -7.6506877    819.81853  0.018102335  0.017231244            5 
 3775000   0.64726564   -7.6584899    819.17475  0.018083328  0.017226018           13 
 3776000   0.64391236   -7.6676836    820.83827  0.018115251  0.017220786            7 
 3777000    0.6321543   -7.6511291    820.12335  0.018094682  0.017215538            8 
 3778000   0.65080722   -7.6567901    819.93077  0.018085644  0.017210306           11 
 3779000   0.64973803   -7.6603747     819.9388  0.018081035  0.017205061            8 
 3780000    0.6369537   -7.7034491    819.72473  0.018071533  0.017199811            6 
 3781000   0.65735728   -7.6661845     819.3597  0.018058708  0.017194566           10 
 3782000   0.65294637   -7.6685264    818.84629   0.01804262   0.01718931            8 
 3783000    0.6281944   -7.6628878    818.88585  0.018038723  0.017184048            3 
 3784000   0.64041668   -7.6761577    819.61539  0.018050022   0.01717881            6 
 3785000   0.65091723   -7.6737035    820.90225  0.018073586  0.017173561            8 
 3786000   0.65887125   -7.6691439    818.76275  0.018021719  0.017168322           12 
 3787000   0.65450037   -7.6785803    819.78168  0.018039382   0.01716308            9 
 3788000   0.65071036   -7.6572329    819.25365  0.018023004  0.017157832            8 
 3789000   0.65366385   -7.6600162    821.25065  0.018062168  0.017152596            9 
 3790000   0.64331213   -7.6763572    818.98524  0.018007591  0.017147365            5 
 3791000   0.63739643   -7.6433538    820.09089  0.018027145  0.017142125           14 
 3792000   0.65647242   -7.6899338    819.17299  0.018002219  0.017136878           17 
 3793000   0.65212889   -7.6719481    819.32006  0.018000704  0.017131632           16 
 3794000   0.64856975   -7.6934753    819.50599  0.018000044  0.017126392           14 
 3795000   0.64770001    -7.674218    818.24539  0.017967619   0.01712115           12 
 3796000   0.65058572   -7.6897713    818.85516  0.017976272  0.017115906           16 
 3797000   0.63969046   -7.6737435    819.10883  0.017977105  0.017110664           13 
 3798000   0.64574846   -7.6738832    818.92375  0.017968311  0.017105428           14 
 3799000   0.64014457   -7.6695401    818.91135  0.017963309  0.017100187           13 
 3800000   0.64119333   -7.6800767    817.94505  0.017937391  0.017094944            9 
 3801000   0.63902882   -7.6719202    819.27383  0.017961805  0.017089702            4 
 3802000   0.64030056   -7.6791399    818.80214  0.017946742  0.017084467            9 
 3803000    0.6479773     -7.68305    817.70223  0.017917921  0.017079215            7 
 3804000   0.63996068    -7.689515    818.72294  0.017935571  0.017073972            8 
 3805000   0.63870771   -7.6777922    822.08215  0.018004427  0.017068734           11 
 3806000   0.64428594    -7.681392    818.43316  0.017919801  0.017063494            6 
 3807000   0.63557267   -7.7023134     819.1928  0.017931722  0.017058268           12 
 3808000   0.64948904   -7.6969782    818.79173  0.017918236  0.017053022            7 
 3809000   0.63278047   -7.6795391    817.08859  0.017876271   0.01704777            7 
 3810000   0.64808345   -7.6726671     816.5555  0.017859919   0.01704253            7 
 3811000   0.63297165   -7.6982938    818.19684  0.017891123  0.017037286           13 
 3812000   0.64779325   -7.6621971    817.27031  0.017866175  0.017032046           12 
 3813000   0.62853822   -7.6908273    818.59701  0.017890485  0.017026807           12 
 3814000   0.64372411   -7.6860238    817.88226  0.017870177  0.017021588           20 
 3815000   0.64622649   -7.6711493    821.10184   0.01793582  0.017016373           12 
 3816000   0.64439499   -7.6926692    817.45786  0.017851543  0.017011161           10 
 3817000   0.65826883   -7.6812901    818.47579   0.01786909  0.017005953           18 
 3818000   0.63430941    -7.681685    819.96951  0.017897012   0.01700074            9 
 3819000   0.63431591   -7.6701248    819.57776  0.017883778  0.016995521           11 
 3820000   0.65188887   -7.7074464    820.35343  0.017896017  0.016990309           37 
 3821000   0.65071646    -7.690152    818.95424  0.017860818  0.016985092           14 
 3822000   0.65073886    -7.685445    818.52292  0.017846741  0.016979881           10 
 3823000   0.63040917   -7.6889959    818.84603  0.017849116  0.016974676           25 
 3824000   0.65126385   -7.6791192    819.37073  0.017855882  0.016969482            5 
 3825000   0.64297881   -7.6782918    819.20571  0.017847619  0.016964287            4 
 3826000   0.61995384   -7.7028184    820.33114  0.017867467  0.016959094            8 
 3827000   0.64135764   -7.6931929    818.17793  0.017815912  0.016953896            9 
 3828000   0.64083298   -7.6792689    817.79367  0.017802893  0.016948699            7 
 3829000   0.64002567   -7.6916194    818.20782  0.017807257  0.016943496           10 
 3830000   0.63034888   -7.6804926    820.35283  0.017849278  0.016938289            4 
 3831000   0.62901087   -7.6938215    817.85221  0.017790225  0.016933072            6 
 3832000   0.62843735   -7.6618533    820.16131  0.017835797   0.01692787            6 
 3833000    0.6487994   -7.6978603    820.03288  0.017828352  0.016922667            8 
 3834000   0.65310444   -7.6951764     820.5005  0.017833866  0.016917473           11 
 3835000   0.63651511   -7.6912738    818.59477  0.017787805  0.016912285           11 
 3836000   0.64098645   -7.7065895    820.19309  0.017817889  0.016907091           13 
 3837000    0.6430756   -7.6997582    820.86061  0.017827743  0.016901893           11 
 3838000   0.63706133   -7.6948172    817.75919  0.017755758  0.016896692           14 
 3839000     0.644037   -7.6959844     818.9236  0.017776409  0.016891494            6 
 3840000   0.64534001   -7.6820303    819.00807  0.017773613    0.0168863            6 
 3841000   0.63169541   -7.7102504    819.32877  0.017775943    0.0168811           13 
 3842000   0.64725483   -7.6843764    820.34937  0.017793453  0.016875915           14 
 3843000   0.63771403   -7.6866913    818.50623  0.017748856  0.016870736           14 
 3844000    0.6375574   -7.7044282    818.62446  0.017746802  0.016865548           18 
 3845000   0.62014575   -7.6947333    817.15211  0.017710275  0.016860359           12 
 3846000   0.61575475   -7.7085136    819.57753  0.017758223  0.016855174           23 
 3847000   0.63874053   -7.6838296    817.89171  0.017717089  0.016849986           10 
 3848000   0.64316269   -7.6824612     818.2926  0.017721167  0.016844799            6 
 3849000   0.64814149   -7.6906326    819.62279  0.017745362  0.016839598            5 
 3850000   0.64493023   -7.7019111    818.63226  0.017719313  0.016834401            7 
 3851000   0.62658283   -7.7126782    818.08335  0.017702834    0.0168292           10 
 3852000   0.63929797   -7.6985473    818.83493  0.017714498  0.016824006            6 
 3853000   0.64080502    -7.702686    819.24096  0.017718681  0.016818805            6 
 3854000   0.63375531   -7.6986897    818.76129  0.017703712  0.016813615            5 
 3855000   0.63516476   -7.6981862    818.56871  0.017694957  0.016808424            6 
 3856000   0.63457441   -7.6963424    817.02499  0.017657006  0.016803227            8 
 3857000   0.62131605   -7.7028568    817.50856  0.017662876  0.016798024            6 
 3858000   0.62627612    -7.709274    816.83699  0.017643792  0.016792814            8 
 3859000   0.63237309   -7.6782003    818.19524  0.017668551  0.016787622            3 
 3860000    0.6267516   -7.7106456    817.99071  0.017659558  0.016782422            5 
 3861000   0.62239628   -7.6740866    818.49617  0.017665893  0.016777226            8 
 3862000   0.63450333   -7.6912392    816.87331  0.017626301  0.016772026            7 
 3863000   0.62610359   -7.7120667    817.23907  0.017629629  0.016766832           13 
 3864000   0.61771649   -7.7272803    818.96342  0.017662255  0.016761644            6 
 3865000   0.63674434   -7.7204291    818.69246  0.017651843  0.016756464            7 
 3866000   0.63423055   -7.7059209    820.57369  0.017687827  0.016751276            3 
 3867000   0.62428214   -7.6935944    818.34173  0.017635155  0.016746089            7 
 3868000   0.62312862   -7.7063926    816.79714  0.017597319  0.016740896            7 
 3869000   0.63277335   -7.7221741    816.75487   0.01759186  0.016735712            4 
 3870000   0.63789193   -7.7154686    816.89833  0.017590403  0.016730516            5 
 3871000   0.64824654   -7.7220606    818.52623  0.017620904  0.016725331           10 
 3872000   0.61302424     -7.70498    819.04058  0.017627423  0.016720146            7 
 3873000   0.64344561   -7.7064747    821.58524  0.017677624  0.016714965            7 
 3874000   0.63292576   -7.7201388     817.2052  0.017578842  0.016709776           11 
 3875000   0.65098881   -7.7215084    817.24211  0.017575099  0.016704584            9 
 3876000   0.63123914   -7.7236443    818.17043  0.017590524  0.016699405            9 
 3877000   0.62716774   -7.7248899    818.36164  0.017590096  0.016694226            6 
 3878000   0.63512281   -7.7028504    816.28085  0.017540847  0.016689054            8 
 3879000    0.6360768   -7.7413937    816.28188  0.017536347  0.016683873            7 
 3880000   0.62560003   -7.7157178    817.16945   0.01755089  0.016678702            7 
 3881000   0.62203728   -7.6971963    819.21818  0.017590359  0.016673534            8 
 3882000   0.61418247   -7.7273803    817.89398  0.017557401   0.01666837            8 
 3883000   0.63089948    -7.726215     816.6083  0.017525288    0.0166632            7 
 3884000   0.61885335   -7.7064839    817.63841  0.017542877  0.016658037           17 
 3885000   0.62904925   -7.7079538    818.17552  0.017549883  0.016652868            9 
 3886000   0.63357728   -7.7155952    818.35404  0.017549195  0.016647705            9 
 3887000   0.62527174   -7.7513467    817.41532  0.017524554  0.016642526            7 
 3888000   0.63404289   -7.7343577    818.29202  0.017538838   0.01663736            8 
 3889000   0.61634184   -7.7193775    819.04437  0.017550449  0.016632195            6 
 3890000   0.62402422   -7.7375943    817.20404  0.017506513  0.016627029            8 
 3891000   0.63571984   -7.7213947    818.49293  0.017529618  0.016621862           13 
 3892000   0.63161839   -7.7017706    818.69052  0.017529345  0.016616699           10 
 3893000   0.63108742   -7.7179289    817.77006  0.017505139   0.01661154           10 
 3894000    0.6280347   -7.7256946    817.33462  0.017491325  0.016606374           17 
 3895000   0.63066192   -7.7323273    817.23922  0.017484793  0.016601216           25 
 3896000   0.62034796   -7.7226436    816.94141  0.017473935  0.016596049           15 
 3897000    0.6281805   -7.7376008    816.81358  0.017466718  0.016590891           18 
 3898000   0.63882232   -7.7226972    818.20564  0.017491997  0.016585733           16 
 3899000   0.63716755   -7.7224131    818.12571  0.017485802  0.016580578           14 
 3900000   0.61975256    -7.719022    818.68771  0.017493327   0.01657543            9 
 3901000   0.63312058   -7.7029129    817.63549  0.017466365  0.016570293            7 
 3902000   0.62229198   -7.7266903    817.16882  0.017451923  0.016565146            8 
 3903000   0.62301201    -7.714123    816.47837  0.017432709  0.016560009            9 
 3904000   0.63845983   -7.7333468    818.41408  0.017469563  0.016554864           19 
 3905000   0.62919112   -7.7138152    817.82117  0.017452436  0.016549721           16 
 3906000   0.62196606   -7.7241035    816.87106  0.017427698  0.016544574           10 
 3907000    0.6181667   -7.7303633    818.02491  0.017447848  0.016539442           14 
 3908000   0.62112122   -7.7250697    817.49566  0.017432098  0.016534309           12 
 3909000   0.61376166   -7.7324587    817.34738  0.017424477  0.016529174           24 
 3910000   0.61156035   -7.7352579    818.81145  0.017451224  0.016524029           10 
 3911000   0.63976779   -7.7341048     818.8892  0.017448419  0.016518908            7 
 3912000   0.60581595   -7.7355645     818.0788  0.017426696  0.016513777           11 
 3913000   0.62282012   -7.7350905    818.58056  0.017432928  0.016508642            8 
 3914000    0.6160889   -7.7062975    816.23482   0.01737853  0.016503517           12 
 3915000   0.61496328   -7.7301217     818.3691  0.017419521  0.016498394            9 
 3916000   0.63475841    -7.730556    817.70517  0.017400944  0.016493274           14 
 3917000   0.63373309   -7.7161618    818.45689  0.017412494  0.016488158           15 
 3918000   0.61246146    -7.703368    816.33212  0.017362858  0.016483045            7 
 3919000    0.6346132   -7.7224014    817.17361  0.017376321  0.016477929           10 
 3920000   0.61443456    -7.728416    818.08097  0.017391177  0.016472811            6 
 3921000   0.62123682   -7.7167746    818.46528   0.01739491  0.016467694            7 
 3922000   0.62875622   -7.7076226    819.00012  0.017401838  0.016462587           12 
 3923000   0.63778676   -7.7282572    817.63286  0.017368359  0.016457497            9 
 3924000   0.62025933   -7.7125397    818.01112  0.017371966  0.016452396            9 
 3925000   0.64785562   -7.7265849    817.56195  0.017358003  0.016447301           18 
 3926000   0.62589945   -7.7093049    818.78885  0.017379624  0.016442208           16 
 3927000   0.61970904   -7.7217549    815.98915  0.017315787  0.016437088           16 
 3928000   0.62762945   -7.7370263      817.316  0.017339528  0.016431964           16 
 3929000   0.60973101   -7.7478407    818.52645  0.017360788  0.016426856           13 
 3930000   0.62810164   -7.7161173    817.34633  0.017331347  0.016421743           13 
 3931000   0.62747692    -7.737381    817.04976  0.017320651  0.016416628           15 
 3932000   0.62148472   -7.7296537    817.48807  0.017325536   0.01641152            7 
 3933000   0.62005777   -7.7450542    819.33071  0.017360173  0.016406413           23 
 3934000   0.61710799    -7.752047    816.78835  0.017301905  0.016401308            6 
 3935000   0.63696531   -7.7642996    817.69274  0.017316661  0.016396204           13 
 3936000   0.61934456   -7.7289653    819.71528  0.017355083  0.016391108            8 
 3937000   0.61270253   -7.7095154    818.98012  0.017335114  0.016386028           13 
 3938000   0.62389067   -7.7413166    819.17577  0.017334852  0.016380931            8 
 3939000   0.61654824   -7.7342913    818.61948  0.017318682   0.01637583           26 
 3940000   0.61689676   -7.7142928    818.30149  0.017307561  0.016370738           13 
 3941000   0.60600139   -7.7400457     818.2566   0.01730222   0.01636564           13 
 3942000   0.61476536    -7.730169     819.4282  0.017322599  0.016360549            9 
 3943000   0.62747323    -7.744277    817.26054  0.017272393  0.016355463           10 
 3944000   0.61102404   -7.7517938    817.77279  0.017278837  0.016350363            9 
 3945000   0.63002009    -7.728014      818.782  0.017295775  0.016345266           17 
 3946000   0.61995203   -7.7214068    817.89531  0.017272667  0.016340165           27 
 3947000   0.62910264   -7.7259897    817.51315  0.017260222   0.01633507           17 
 3948000   0.62957412    -7.733228    818.46599  0.017275962  0.016329981            8 
 3949000   0.60891121    -7.735039    817.72363  0.017255922  0.016324888           30 
 3950000   0.62365258   -7.7357461    818.85895  0.017275505  0.016319794            7 
 3951000   0.63161859   -7.7478673    818.29998  0.017259343  0.016314704           13 
 3952000   0.60382369   -7.7693433    819.02644  0.017270294  0.016309605           16 
 3953000   0.62829466   -7.7438621    816.86123  0.017220281  0.016304504           17 
 3954000   0.63006239   -7.7197787    817.31208  0.017225427  0.016299418            8 
 3955000   0.61616175   -7.7370932    817.05912  0.017215742  0.016294329           11 
 3956000   0.62788018   -7.7585652    815.43162  0.017177107  0.016289233           10 
 3957000   0.63093032    -7.740717    816.42679  0.017193724  0.016284136           14 
 3958000   0.61255905   -7.7418597    817.38125  0.017209475   0.01627904           18 
 3959000   0.62028046    -7.747747    817.31323  0.017203697  0.016273942            8 
 3960000   0.61403155    -7.742081    818.25746  0.017219223  0.016268848           13 
 3961000   0.61492084   -7.7437281    817.44404  0.017197762  0.016263759            6 
 3962000   0.61619675   -7.7475035    815.76289  0.017158062  0.016258662            5 
 3963000   0.60908975   -7.7474308    817.04884  0.017180773  0.016253568            9 
 3964000   0.61202745   -7.7626823    817.16677  0.017178918  0.016248471           15 
 3965000    0.6351353     -7.74035    816.30581   0.01715649  0.016243374           12 
 3966000   0.62117969   -7.7428763    816.61122  0.017158582  0.016238284           17 
 3967000   0.60593466   -7.7286082    816.83229    0.0171589  0.016233195           11 
 3968000   0.61102912    -7.741387    817.22632  0.017162851  0.016228105           11 
 3969000   0.61275702   -7.7369025    816.62374  0.017145875  0.016223025           19 
 3970000   0.60893217   -7.7635432    817.45403  0.017158985  0.016217948           12 
 3971000   0.61586348   -7.7309595    817.51586  0.017155961  0.016212868           10 
 3972000   0.61246254   -7.7310357    816.49808  0.017130289  0.016207787           12 
 3973000   0.61094098   -7.7578718    818.57989  0.017169643  0.016202717           10 
 3974000   0.61991645   -7.7354822     816.4436  0.017120525  0.016197637            7 
 3975000   0.61715819   -7.7583903    817.29156  0.017133995  0.016192562            9 
 3976000   0.61103577   -7.7457856    816.08343  0.017104364  0.016187477           11 
 3977000   0.60884321   -7.7529696    816.24353  0.017103418  0.016182396            8 
 3978000   0.61651032   -7.7499621    817.32257  0.017121723  0.016177337            7 
 3979000    0.6154211   -7.7477262    817.37993  0.017118621  0.016172263            6 
 3980000   0.62391188   -7.7627393    816.79948  0.017102167  0.016167197            8 
 3981000   0.61637129   -7.7603029    818.41812  0.017131753   0.01616213           14 
 3982000   0.61694413   -7.7579011    816.00938  0.017077042  0.016157053            5 
 3983000   0.63304122   -7.7597484    817.27352  0.017099203  0.016151984            6 
 3984000   0.61117827   -7.7664796    816.05204  0.017069362  0.016146918           13 
 3985000   0.62063577   -7.7572102    816.05089  0.017065054  0.016141847           16 
 3986000   0.62400456   -7.7383153    816.53798  0.017070956  0.016136783           16 
 3987000   0.61780622   -7.7462576    817.31275  0.017082868  0.016131717           12 
 3988000   0.61366856   -7.7539064    816.78405  0.017067537  0.016126659            7 
 3989000   0.61247453   -7.7460024    814.95077   0.01702496  0.016121603           14 
 3990000   0.61894244    -7.771298    816.80085  0.017059333  0.016116543            5 
 3991000   0.59769332   -7.7622008     817.4833  0.017069308  0.016111479            8 
 3992000   0.62714545   -7.7549453    817.77528  0.017071127  0.016106421            7 
 3993000   0.61686423   -7.7861703    817.11186  0.017053007  0.016101364           13 
 3994000   0.61522257   -7.7573832    817.89176  0.017065009  0.016096312            6 
 3995000   0.60833194   -7.7516234    815.93794  0.017019982  0.016091257            8 
 3996000   0.60300018   -7.7650315    817.47075  0.017047688  0.016086206           10 
 3997000     0.614586   -7.7430764    816.88797  0.017031273  0.016081159            9 
 3998000   0.62064829   -7.7417143    816.12843  0.017011181  0.016076114            8 
 3999000   0.61139243   -7.7419279    816.22793  0.017009001   0.01607107           14 
 4000000   0.62222294   -7.7632288    815.66447   0.01699301  0.016066023            5 
 4001000   0.61190258   -7.7484544    816.75127  0.017011399  0.016060979            8 
 4002000   0.61597904   -7.7483974     816.5406  0.017002761  0.016055937            9 
 4003000   0.61317234   -7.7500999    817.61328  0.017020844  0.016050885            9 
 4004000    0.6016696   -7.7634231    817.12943  0.017006523  0.016045848            6 
 4005000   0.62431718   -7.7498464    816.15924   0.01698209  0.016040809           14 
 4006000   0.62773926    -7.747792    817.52114  0.017006181  0.016035769            8 
 4007000   0.58960581   -7.7588851     818.1876  0.017015797  0.016030729            8 
 4008000   0.59876498   -7.7496576    814.52505  0.016935401  0.016025685           15 
 4009000   0.61130169   -7.7463675    817.03768  0.016983406  0.016020636           12 
 4010000   0.59366915    -7.766536    814.94005  0.016935579  0.016015584            8 
 4011000   0.60483156    -7.765582    816.36835  0.016961031  0.016010534           13 
 4012000   0.61450227   -7.7717533    815.82706   0.01694556  0.016005475           15 
 4013000   0.61995694    -7.745777    816.30757  0.016951316  0.016000435            9 
 4014000    0.6131126   -7.7828209    815.34939    0.0169272  0.015995387           10 
 4015000   0.61251705   -7.7534388    814.98331  0.016915386  0.015990335            4 
 4016000   0.61238176   -7.7690395    815.73764  0.016926827  0.015985295            6 
 4017000   0.60647919   -7.7522592    815.79951  0.016923897  0.015980268            5 
 4018000   0.59917315   -7.7611872    816.22049  0.016928416   0.01597524           13 
 4019000   0.61124366   -7.7660294    816.64428  0.016932991  0.015970214            4 
 4020000   0.62066609   -7.7632056    815.10146  0.016896796  0.015965184           11 
 4021000   0.61306492   -7.7640964    815.37133  0.016898187  0.015960158            6 
 4022000   0.60309908   -7.7610181    817.01418  0.016928025  0.015955122           14 
 4023000   0.60069246   -7.7271021    816.08795  0.016904631  0.015950086            4 
 4024000   0.60200606   -7.7516553    815.48161  0.016887873  0.015945058           10 
 4025000   0.60648272   -7.7708232    814.69871  0.016867468  0.015940034            9 
 4026000   0.59634777   -7.7787243    816.82207   0.01690723  0.015935006            7 
 4027000   0.59793438   -7.7556045    816.34091  0.016893074  0.015929977           10 
 4028000   0.60574876    -7.761661    816.96108  0.016901711  0.015924954            7 
 4029000   0.59731329   -7.7504682     816.8473  0.016895162  0.015919923           12 
 4030000   0.60160149   -7.7628601    815.30948   0.01685917  0.015914898            6 
 4031000   0.60154595   -7.7597173    814.89047  0.016846326  0.015909863           12 
 4032000   0.61329196   -7.7960549     814.8217  0.016840726  0.015904839           12 
 4033000   0.60455438   -7.7485813    815.98791  0.016860648   0.01589981           14 
 4034000    0.6153778   -7.7781429    815.10529  0.016838235   0.01589478            9 
 4035000   0.60932764   -7.7712646    815.44938  0.016841169   0.01588975           12 
 4036000   0.61638388   -7.7632867    815.45189  0.016837048  0.015884727           11 
 4037000   0.59715271   -7.7862314    813.90837  0.016801015  0.015879707           15 
 4038000   0.59921115   -7.7766406    815.28239   0.01682521  0.015874697           23 
 4039000   0.60891894    -7.785375    816.21555  0.016840298  0.015869685           12 
 4040000   0.59982835   -7.7922284    814.87034  0.016808382  0.015864669           12 
 4041000   0.60087985   -7.7907573     813.7309  0.016780725  0.015859645           13 
 4042000   0.60609337   -7.7577907    815.06038  0.016803983   0.01585463           11 
 4043000   0.60005935   -7.7894908    816.26028  0.016824558   0.01584961            8 
 4044000   0.60914837    -7.784092    814.81443  0.016790604  0.015844591           10 
 4045000   0.59522773   -7.7677152     815.6563  0.016803797  0.015839569           15 
 4046000   0.60314807   -7.7884373    815.62319  0.016798962  0.015834565           12 
 4047000   0.61476368   -7.7709744    816.60674  0.016815063  0.015829559           12 
 4048000   0.60409779   -7.7772571    815.07269  0.016779329   0.01582455           14 
 4049000   0.59278931   -7.8029254    815.05881  0.016774899  0.015819551            9 
 4050000   0.60655507   -7.7837635    814.24164  0.016753943  0.015814547           14 
 4051000   0.61688817   -7.7905831    814.75171    0.0167603   0.01580955           12 
 4052000   0.59572243   -7.7810602    815.48284    0.0167712   0.01580456           12 
 4053000   0.60341378   -7.7652019    817.01306  0.016798525  0.015799572            8 
 4054000   0.61054395   -7.7779573    815.48603  0.016762992  0.015794582            7 
 4055000   0.61266819   -7.7885137    816.64983  0.016782775  0.015789591           18 
 4056000   0.60236112   -7.7889097    816.35714  0.016772624  0.015784609           12 
 4057000   0.58649897   -7.7736472    815.87028  0.016758489  0.015779623           20 
 4058000   0.59750247   -7.7856441     815.4403  0.016745529  0.015774631           11 
 4059000   0.59647846    -7.778905     815.7826  0.016748432   0.01576964           18 
 4060000   0.59860086   -7.7930264    815.81014  0.016744872  0.015764649           10 
 4061000   0.60389105   -7.7910913    814.22517  0.016708224  0.015759665           19 
 4062000   0.59387418   -7.7953817     815.5728  0.016731758  0.015754677            4 
 4063000    0.6006689   -7.8007151    815.62274  0.016728664  0.015749694           17 
 4064000     0.605376   -7.7819915    815.56179  0.016723298  0.015744703           33 
 4065000   0.60845256   -7.7965351    814.24308   0.01669215  0.015739712           22 
 4066000   0.59254661   -7.7991518    815.85366  0.016721054  0.015734731           16 
 4067000   0.59769222   -7.7909331    814.86404  0.016696665  0.015729752           25 
 4068000   0.59969051   -7.7908522    814.39508  0.016682954  0.015724772           31 
 4069000   0.60383035   -7.7962029    814.98646  0.016690965  0.015719792           18 
 4070000   0.60096938   -7.7941664    816.83952  0.016724806  0.015714815           16 
 4071000   0.59912036   -7.7766372    816.17351  0.016707064  0.015709834           19 
 4072000   0.61113934   -7.7961725    814.98633  0.016678666  0.015704858           22 
 4073000   0.59704983   -7.7748291    815.52912  0.016685676  0.015699883           27 
 4074000   0.59790108   -7.7872583    815.79042  0.016686926  0.015694917           17 
 4075000   0.60911152   -7.8153079    816.31982  0.016693657  0.015689943            7 
 4076000   0.59562026   -7.7990447     814.0537  0.016643231  0.015684972           10 
 4077000   0.60345711   -7.7919747    815.98493  0.016678623  0.015680007           13 
 4078000   0.60468018   -7.7818484    816.73102  0.016689779  0.015675048           29 
 4079000   0.59890625   -7.7900586    814.93014  0.016648896  0.015670085           39 
 4080000   0.58812198   -7.8101696    815.94027  0.016665447  0.015665112           24 
 4081000   0.59095276    -7.797907    815.63475  0.016655124  0.015660147           23 
 4082000   0.59890551   -7.8036075    816.18145  0.016662205  0.015655182           16 
 4083000   0.59927008    -7.787625     815.0433  0.016634895  0.015650217           19 
 4084000   0.61316013   -7.8137395    815.21532  0.016634332   0.01564526           15 
 4085000   0.60652777   -7.8194847    813.61123  0.016597536  0.015640304           14 
 4086000    0.5955601   -7.7976382    815.12911  0.016624431  0.015635339           11 
 4087000   0.60374119   -7.7865826    814.60669  0.016609711  0.015630371           12 
 4088000   0.59810551   -7.7866326    815.55287  0.016624936  0.015625414           17 
 4089000   0.59947678   -7.7964901    816.77675  0.016645813  0.015620458           18 
 4090000   0.60057407   -7.8036451    815.56085  0.016616969  0.015615502           18 
 4091000   0.60515684   -7.8039956    814.32884  0.016587812  0.015610543           24 
 4092000   0.58455206   -7.7996393    813.16177   0.01655999  0.015605592           15 
 4093000    0.5971356   -7.8160097    815.93264  0.016612359  0.015600648           21 
 4094000   0.58720744   -7.8005442    815.35867  0.016596618    0.0155957           19 
 4095000   0.59377115   -7.8149738     813.4357  0.016553433  0.015590748           11 
 4096000   0.59364203   -7.7874965    815.48802  0.016591146   0.01558581           10 
 4097000   0.59710518   -7.7927351     815.0681  0.016578555  0.015580873           19 
 4098000   0.60416056   -7.7922368    814.16311  0.016556107  0.015575931           21 
 4099000   0.60647721   -7.7871834    814.24721  0.016553778  0.015570989           22 
 4100000   0.59423452   -7.7894356    815.30033  0.016571145  0.015566052           25 
 4101000   0.58712888   -7.7929015    813.88945  0.016538435  0.015561118           17 
 4102000   0.60357197   -7.7932724    816.04186   0.01657813  0.015556188           29 
 4103000   0.58768112   -7.7879198    815.85294  0.016570252  0.015551257           22 
 4104000   0.58838397   -7.7957013    814.99351  0.016548764  0.015546338           22 
 4105000   0.57887396    -7.785035    814.77098  0.016540215  0.015541412           28 
 4106000   0.58639067   -7.8114319    814.59374  0.016532589  0.015536491           33 
 4107000   0.58235785    -7.804114    815.89859   0.01655504  0.015531567           25 
 4108000    0.5944139   -7.7987455    815.21667  0.016537177  0.015526649           22 
 4109000   0.59660129   -7.7926521    814.85788  0.016525876  0.015521727           20 
 4110000   0.59192507   -7.7892671    813.51187  0.016494564  0.015516806           19 
 4111000    0.5856399   -7.8084824    815.55696  0.016532007  0.015511889           17 
 4112000     0.582652   -7.7835263     813.8879  0.016494161  0.015506967           14 
 4113000   0.57829203   -7.8136528    814.77379    0.0165081  0.015502048           17 
 4114000    0.5810312   -7.8063928    813.36732  0.016475598  0.015497127           22 
 4115000   0.58020016   -7.7957297    817.10647  0.016547316  0.015492208           32 
 4116000   0.60978361     -7.80474    814.56478  0.016491836  0.015487293           17 
 4117000   0.59185012   -7.7959774    815.30861  0.016502887  0.015482377           23 
 4118000   0.59210539    -7.790423    813.95637  0.016471515  0.015477464           27 
 4119000   0.60847312    -7.796574    813.07447  0.016449674  0.015472547           31 
 4120000   0.59706872   -7.8044828    813.59426  0.016456195  0.015467635           20 
 4121000   0.60660293   -7.8219713    814.49372   0.01647039  0.015462721           19 
 4122000   0.58815075   -7.8033364    815.52725  0.016487289  0.015457807           18 
 4123000   0.58924728   -7.7906833    816.55263  0.016504015  0.015452898            8 
 4124000   0.58832045   -7.8032805    814.83393  0.016465283  0.015448004           29 
 4125000   0.59738896   -7.8113513    814.17771  0.016448034  0.015443096           13 
 4126000   0.59746857   -7.8100684    814.57579  0.016452088  0.015438202           11 
 4127000    0.5982564   -7.8142289     813.9058  0.016434573  0.015433299           15 
 4128000   0.59200208   -7.8183555    815.21304  0.016456982  0.015428399           16 
 4129000   0.59216468   -7.7997484    813.73551  0.016423176  0.015423509           14 
 4130000   0.60389835   -7.8077193    812.95658  0.016403482  0.015418614           10 
 4131000   0.59406486   -7.8214439    815.61709  0.016453181  0.015413725           16 
 4132000   0.60420475   -7.8005541    813.76935  0.016411934  0.015408834           14 
 4133000   0.59367675   -7.8136404    814.83681  0.016429486  0.015403939           13 
 4134000   0.58793592   -7.8083033    815.20596  0.016432954  0.015399049           12 
 4135000   0.59473059   -7.8120449    814.20729  0.016408853  0.015394158           11 
 4136000   0.58726381    -7.792964    814.19629  0.016404664  0.015389268            7 
 4137000   0.58838615   -7.8069479    815.64511  0.016429883   0.01538439            7 
 4138000   0.59119387   -7.7983551    813.79332   0.01638862  0.015379506           12 
 4139000    0.5809884   -7.8102013    814.95822  0.016408114   0.01537463           16 
 4140000   0.59167974   -7.8075042    816.14494  0.016428038  0.015369749            7 
 4141000   0.59081629   -7.8113067    815.00757  0.016401183  0.015364867            8 
 4142000   0.59204018   -7.7988705    815.08996  0.016398881  0.015359985           11 
 4143000   0.59472062   -7.8364451    815.25762  0.016398295   0.01535511           11 
 4144000   0.58301041   -7.8323597    814.93978  0.016387946  0.015350234            7 
 4145000   0.57154794   -7.7953212    815.71345  0.016399547  0.015345362           13 
 4146000   0.59378199   -7.7954732    815.20408  0.016385353  0.015340488           21 
 4147000   0.57510439   -7.8342562    813.76805  0.016352545  0.015335617           12 
 4148000   0.59465051    -7.823925    814.56711  0.016364656   0.01533074            7 
 4149000   0.58815417   -7.8318732    814.80684  0.016365527  0.015325863           17 
 4150000    0.5838638   -7.8234723    813.08595  0.016327027  0.015320994            3 
 4151000     0.588736   -7.8039802    814.39217  0.016349317  0.015316113           12 
 4152000   0.58251696   -7.8430457    814.45991  0.016346739   0.01531124            9 
 4153000   0.59465125    -7.798937    813.18721  0.016317265  0.015306369            8 
 4154000    0.5912933   -7.8234517    813.40985  0.016317803  0.015301498            6 
 4155000   0.58344627   -7.8177816    814.11398  0.016327998   0.01529663           10 
 4156000   0.59060877   -7.8234022    812.68432  0.016295403  0.015291772            5 
 4157000   0.59519871   -7.8126863    814.34252  0.016324724   0.01528692            9 
 4158000   0.58720466   -7.8046659    814.92416  0.016332455  0.015282065           15 
 4159000   0.59191326   -7.8008519    813.73921  0.016304785  0.015277216            8 
 4160000     0.600359   -7.8169928    814.50741  0.016316254  0.015272363           11 
 4161000    0.5864947   -7.8389502    814.73004  0.016316792  0.015267513           13 
 4162000   0.59365155   -7.8212096    813.93571  0.016296967  0.015262664            8 
 4163000   0.59040678   -7.8364588    814.39795  0.016302305  0.015257816            9 
 4164000   0.58038323   -7.7977485    814.49242  0.016300281  0.015252964            9 
 4165000   0.58996383   -7.8231036    814.31974  0.016292912  0.015248118           13 
 4166000   0.57973102   -7.8252408    814.98919  0.016302392  0.015243273            8 
 4167000   0.59766522   -7.8343808    814.28464   0.01628439  0.015238429           13 
 4168000   0.59186868   -7.8188063    813.75146  0.016269823   0.01523359            8 
 4169000    0.5892909   -7.8087038    815.10854  0.016293047  0.015228752            8 
 4170000   0.59245881   -7.8266295     815.9159  0.016305274  0.015223924            9 
 4171000   0.59148473   -7.8227306    814.64386   0.01627595  0.015219093            8 
 4172000   0.59091057   -7.8435127    813.73115  0.016253818   0.01521425           10 
 4173000   0.58665208   -7.8400396    813.37939  0.016242899  0.015209407           13 
 4174000   0.58046782   -7.8274486    814.59824  0.016263341  0.015204572           15 
 4175000    0.5813943   -7.8283944    815.50704  0.016277586  0.015199738           12 
 4176000   0.58923204   -7.8464958    813.78873  0.016239398  0.015194906            9 
 4177000   0.58240346   -7.8369045    813.82469  0.016236228  0.015190069            6 
 4178000   0.58172036   -7.8153743    814.12007  0.016238233   0.01518524           10 
 4179000   0.58290607   -7.8277017    814.20065  0.016235955  0.015180409            8 
 4180000   0.57960439   -7.8259553    813.68361  0.016221763  0.015175585           12 
 4181000   0.60188934   -7.8246454    814.66035   0.01623735  0.015170756           11 
 4182000    0.5795792   -7.8078922    814.94626  0.016239165  0.015165928           13 
 4183000   0.56549202   -7.8163861    814.21365  0.016220688  0.015161104            9 
 4184000     0.577004   -7.8424796    813.97754  0.016212108  0.015156279            8 
 4185000   0.57254312   -7.8205444    814.83564  0.016225321  0.015151446           11 
 4186000   0.58142381   -7.8223231    813.18874  0.016188659  0.015146624           10 
 4187000   0.58023834   -7.8374977    814.00609  0.016201061  0.015141808            8 
 4188000   0.57976171    -7.806072    814.07799  0.016198623  0.015136988            8 
 4189000   0.58870698   -7.8384941    813.84114  0.016190044  0.015132173            6 
 4190000   0.58928761   -7.8323572    813.90136  0.016187378   0.01512735            5 
 4191000   0.58018383   -7.8321213    813.94313  0.016184346  0.015122525            6 
 4192000   0.58156664   -7.8408045    813.56719  0.016173012  0.015117707            8 
 4193000   0.56736831   -7.8364489    812.35531  0.016145069  0.015112883            7 
 4194000    0.5835364   -7.8424655    812.92377  0.016152515  0.015108064            8 
 4195000   0.57854266   -7.8486156     813.7668  0.016165411  0.015103249            7 
 4196000   0.58856307   -7.8342833    815.09021  0.016187842  0.015098445           18 
 4197000    0.5758171   -7.8196548    813.36176  0.016149666  0.015093643            9 
 4198000   0.57276772    -7.835205    813.05139  0.016139658  0.015088836           12 
 4199000   0.57776469   -7.8434001    813.31883  0.016141121  0.015084032            9 
 4200000   0.58722812   -7.8461842    812.30527  0.016117168  0.015079221           11 
 4201000   0.56969262   -7.8417318    812.97841  0.016126684  0.015074413            8 
 4202000   0.58081486   -7.8395713    813.06635   0.01612459  0.015069614            9 
 4203000   0.59192598   -7.8227306     814.6814  0.016152776  0.015064817            7 
 4204000   0.58848462   -7.8420324    813.40594  0.016123651  0.015060023            5 
 4205000   0.57061664   -7.8412861    813.46172  0.016120922  0.015055226           10 
 4206000   0.58223794   -7.8289357    813.72896  0.016122384  0.015050429            9 
 4207000   0.56427845   -7.8327795    813.94835  0.016122897   0.01504564            5 
 4208000   0.58686775   -7.8534998    814.07731   0.01612162  0.015040859            9 
 4209000   0.59134098   -7.8444883    813.12349  0.016098905  0.015036073            6 
 4210000    0.5724626    -7.829685    812.46157  0.016081979  0.015031287           16 
 4211000   0.58695526   -7.8346342    813.61753  0.016101036  0.015026505           11 
 4212000   0.59221804   -7.8337462    814.72142  0.016119053  0.015021727           11 
 4213000   0.58665244   -7.8520365    813.62808  0.016093601  0.015016955            6 
 4214000    0.5798561   -7.8447737    812.41511  0.016065795  0.015012179            6 
 4215000   0.57379315    -7.833969    815.80228   0.01612895  0.015007407           15 
 4216000   0.58401999   -7.8341036    814.61979  0.016101751  0.015002639           15 
 4217000   0.58475733   -7.8509926    815.15336  0.016108477  0.014997869           18 
 4218000     0.582213   -7.8149087    814.22044  0.016086226  0.014993108            7 
 4219000   0.58602167   -7.8321449    815.32628  0.016104256   0.01498835            5 
 4220000    0.5669471   -7.8459983    815.01884  0.016094369  0.014983592            7 
 4221000   0.57662953   -7.8386254    813.84674  0.016067416   0.01497883            9 
 4222000   0.57212928   -7.8336845    813.48794  0.016056528  0.014974071            7 
 4223000   0.57168122   -7.8247115    814.20357  0.016066848  0.014969304            7 
 4224000   0.58196912   -7.8354261    814.97685    0.0160783  0.014964543            7 
 4225000   0.58282426   -7.8327369    814.83132  0.016071624  0.014959793            5 
 4226000   0.56795645   -7.8213555    813.62518  0.016044036   0.01495504           17 
 4227000   0.56977393   -7.8538368    814.16381   0.01605086  0.014950278            5 
 4228000   0.57794579   -7.8479646    814.01461  0.016044123   0.01494552            7 
 4229000   0.58540021   -7.8507538    813.75038  0.016035122  0.014940772            8 
 4230000   0.57184387    -7.817408    812.97854  0.016016126  0.014936024            9 
 4231000    0.5612596   -7.8388284    814.43535  0.016041033  0.014931275            8 
 4232000   0.56581282   -7.8529314    813.73642   0.01602348  0.014926522            8 
 4233000    0.5739466   -7.8356931    815.06293  0.016045809  0.014921776           12 
 4234000   0.57860246   -7.8467482    812.78539  0.015997193  0.014917025           10 
 4235000    0.5729985    -7.838334    812.88049  0.015995287  0.014912285            8 
 4236000   0.57419877   -7.8362265    813.39058  0.016001546  0.014907536            7 
 4237000     0.561907   -7.8427452    814.23401  0.016014358   0.01490279           12 
 4238000   0.57021013   -7.8407067    814.10332  0.016008009  0.014898046           13 
 4239000   0.57203846   -7.8538678    811.72651  0.015957508  0.014893306           10 
 4240000   0.57774065   -7.8314966    812.73892  0.015973642  0.014888573           18 
 4241000   0.57301508   -7.8473766    814.55253  0.016005512   0.01488384           10 
 4242000   0.56754445   -7.8525045    814.47284  0.016000174  0.014879113           22 
 4243000   0.58060466   -7.8340966    813.56954  0.015978662  0.014874383           15 
 4244000   0.57173159   -7.8412701    813.05193  0.015964733  0.014869652           11 
 4245000   0.57394687   -7.8374071    814.51555  0.015989705  0.014864921           12 
 4246000    0.5877292   -7.8247575    813.41796  0.015964397  0.014860198           14 
 4247000   0.57284516   -7.8371961    812.71906  0.015946924  0.014855477           11 
 4248000   0.56662146    -7.833856    813.36361  0.015955815   0.01485076            5 
 4249000   0.55814624   -7.8444474    814.73821  0.015979019  0.014846036           14 
 4250000   0.56534093   -7.8503984     814.0066  0.015960914  0.014841315           10 
 4251000   0.56079032   -7.8385748    815.52047  0.015986836    0.0148366            8 
 4252000   0.57747355   -7.8428332    813.44881  0.015942474  0.014831884            9 
 4253000   0.56740444   -7.8428838     813.3489  0.015936768  0.014827174           12 
 4254000   0.57152248   -7.8422993    813.47904  0.015935571  0.014822465           10 
 4255000   0.57236204   -7.8419347    815.03812   0.01596236  0.014817757           22 
 4256000   0.55742585   -7.8354189    813.57361  0.015929934  0.014813047           10 
 4257000   0.57872057   -7.8404266    814.11155  0.015936723  0.014808342            6 
 4258000   0.57276348   -7.8444123    814.90466  0.015948502  0.014803638           13 
 4259000   0.57733991   -7.8314035    814.82963  0.015943289  0.014798934           10 
 4260000   0.58460604   -7.8482169    813.42141  0.015911999  0.014794226           17 
 4261000   0.57169163   -7.8405477    813.43177  0.015908468  0.014789511           25 
 4262000   0.56289495   -7.8408661    812.93306  0.015894984  0.014784805           15 
 4263000   0.56937946   -7.8418998    813.21823   0.01589683  0.014780106           39 
 4264000   0.57023251   -7.8466523    813.41007  0.015896851  0.014775395           22 
 4265000   0.57298414   -7.8335052    814.91327  0.015922494  0.014770699           24 
 4266000   0.56133179   -7.8418841     814.1406  0.015903668  0.014765997           14 
 4267000   0.58205156   -7.8380932    813.03251  0.015878301  0.014761295           35 
 4268000   0.57513704   -7.8378484    813.59928  0.015885647  0.014756595           14 
 4269000   0.58561396   -7.8670688     813.2997  0.015876078  0.014751897           20 
 4270000   0.57972509   -7.8633189    813.85676  0.015883231  0.014747206           22 
 4271000   0.56761691   -7.8539601    813.94063  0.015881149  0.014742522           26 
 4272000   0.55757304   -7.8541971    813.52288  0.015869282  0.014737835           15 
 4273000   0.56412792   -7.8437432    814.55407  0.015885679  0.014733146           22 
 4274000   0.56282538   -7.8733744    813.00878  0.015851832   0.01472846           30 
 4275000   0.57244674    -7.851136    813.33195  0.015854424   0.01472377           33 
 4276000   0.57157134   -7.8351728    813.44284  0.015852877  0.014719087           21 
 4277000   0.55474909   -7.8439803    812.50271  0.015830853  0.014714408           22 
 4278000   0.57638587   -7.8566544    812.80401  0.015833022  0.014709727           26 
 4279000   0.56343333   -7.8670971    814.02806   0.01585316  0.014705052           23 
 4280000   0.55448257   -7.8714473    815.15413  0.015871381  0.014700369           30 
 4281000   0.57767279   -7.8515475    814.09646  0.015847085  0.014695689           18 
 4282000   0.58521079   -7.8595449    813.93139  0.015840172  0.014691017           17 
 4283000   0.57305896   -7.8600598    813.25848  0.015823381  0.014686343           27 
 4284000   0.57078306   -7.8429703    814.29307  0.015839812  0.014681669           24 
 4285000   0.57201012   -7.8536817    812.11749  0.015793806  0.014676989           40 
 4286000   0.56083368   -7.8664226     812.0072  0.015787976  0.014672312           19 
 4287000   0.56992624   -7.8800217    813.47284  0.015812784   0.01466763           24 
 4288000   0.57244433   -7.8528948    813.18059  0.015803416  0.014662955           23 
 4289000   0.56562005   -7.8718035    812.94729  0.015795199  0.014658284           18 
 4290000   0.56283906   -7.8793576    812.49254  0.015782683  0.014653614           21 
 4291000    0.5693848    -7.873803    812.81911  0.015785347   0.01464894           27 
 4292000   0.56839196    -7.872088    814.91376  0.015822339  0.014644279           36 
 4293000   0.55706692   -7.8656609      814.118  0.015803207  0.014639615           24 
 4294000   0.57503365   -7.8529165    813.61204  0.015789707  0.014634953           32 
 4295000   0.55529646   -7.8718439    812.67506  0.015767851  0.014630295           29 
 4296000    0.5703775   -7.8654731    811.84623  0.015748103  0.014625636           27 
 4297000    0.5682404    -7.843541    812.42243  0.015755613  0.014620983           23 
 4298000   0.55990861   -7.8585349    813.10968  0.015765272   0.01461633           22 
 4299000   0.57043503   -7.8641479    813.31597  0.015765604   0.01461168           24 
 4300000   0.56669025   -7.8474404    814.08849  0.015776909  0.014607042           28 
 4301000   0.56458083   -7.8529463    813.98545  0.015771244  0.014602406           23 
 4302000   0.56198908   -7.8469828    813.84833  0.015764922  0.014597762           21 
 4303000    0.5670865    -7.865558    811.24671  0.015710874  0.014593121           22 
 4304000   0.57414433   -7.8716883    812.34147  0.015728421  0.014588476           30 
 4305000   0.56154137   -7.8824204    814.05223  0.015757883  0.014583834           33 
 4306000   0.57651461   -7.8795094    813.77526  0.015748863    0.0145792           27 
 4307000   0.56011132   -7.8747127    812.80055  0.015726348  0.014574573           31 
 4308000   0.56154653   -7.8562686    813.34799  0.015733287  0.014569941           21 
 4309000   0.56285243   -7.8622435    812.33933  0.015710129  0.014565312           21 
 4310000   0.57120075   -7.8806828    813.93283  0.015737294  0.014560683           20 
 4311000   0.56548036   -7.8489056    813.19145  0.015719312  0.014556053           22 
 4312000   0.55997847   -7.8757043    812.88628  0.015709769  0.014551426           32 
 4313000   0.56683977   -7.8666333    811.62998  0.015681853  0.014546804           17 
 4314000   0.56901749   -7.8737761    813.03148   0.01570529  0.014542181           23 
 4315000   0.55306765   -7.8897241    813.03142   0.01570165  0.014537556           22 
 4316000   0.55972571   -7.8708997    813.99406  0.015716598  0.014532931           22 
 4317000   0.56494114   -7.8505897    812.72864  0.015688531  0.014528312           24 
 4318000   0.56066609    -7.875313    814.22679   0.01571381  0.014523696           22 
 4319000   0.56303303   -7.8698645    812.72533  0.015681202  0.014519072           29 
 4320000   0.56557345   -7.8711515    813.41419   0.01569086  0.014514455           19 
 4321000   0.56191619     -7.88303    812.85091  0.015676366  0.014509833           21 
 4322000   0.56545413   -7.8656194    813.90938  0.015693147   0.01450522           23 
 4323000   0.56545438   -7.8487909    814.07659   0.01569274  0.014500608           28 
 4324000   0.57185869   -7.8535202    812.91259  0.015666678  0.014495992           25 
 4325000    0.5686275   -7.8660671    812.63206  0.015657651  0.014491377           20 
 4326000   0.55376131   -7.8707707    813.11186  0.015663274  0.014486764           31 
 4327000   0.54701347   -7.8812349    812.83896  0.015654398  0.014482156           20 
 4328000    0.5658351   -7.8805757    811.17777  0.015618796  0.014477552           26 
 4329000    0.5495857   -7.8628886    812.91444  0.015648619   0.01447295           24 
 4330000     0.562762   -7.8858902    813.18872  0.015650283  0.014468348           29 
 4331000   0.56440149   -7.8709774    812.99335  0.015642911  0.014463742           37 
 4332000   0.55628609   -7.8567924    813.15748  0.015642457  0.014459138           27 
 4333000   0.56120009   -7.8938354    813.14491  0.015638605  0.014454538           29 
 4334000   0.55671942   -7.8717263    811.97646   0.01561253  0.014449935           23 
 4335000   0.56844902   -7.8834222    812.17708  0.015612785  0.014445335           40 
 4336000   0.55429256   -7.8821005    812.84996  0.015622116  0.014440738           35 
 4337000   0.56068486   -7.8666095    812.82501  0.015618035   0.01443614           23 
 4338000   0.55530018   -7.8850169    812.96625  0.015617148   0.01443154           26 
 4339000    0.5451102   -7.8685526    812.75451  0.015609482  0.014426938           28 
 4340000   0.56314722   -7.8802488     813.0414  0.015611394  0.014422344           30 
 4341000    0.5669757   -7.8690046    812.58075  0.015598955  0.014417757           29 
 4342000   0.55083099   -7.8699429    814.99334  0.015641666   0.01441317           30 
 4343000   0.55036816   -7.8785397    812.42972  0.015588873  0.014408591           29 
 4344000   0.55619019   -7.8790309    811.11211  0.015560008  0.014404012           31 
 4345000   0.55582894   -7.8875264    813.20709  0.015596607  0.014399437           22 
 4346000   0.55799822   -7.8765781    813.57568  0.015600086  0.014394864           22 
 4347000   0.56120022   -7.8752158    813.79405  0.015600683  0.014390299           20 
 4348000   0.55209103   -7.8877119    813.12953  0.015584359  0.014385732           28 
 4349000   0.54650536   -7.8629088    813.75966   0.01559285  0.014381161           26 
 4350000    0.5576943   -7.8898833    811.64967  0.015548844  0.014376586           20 
 4351000   0.54658773   -7.8700098    812.54825  0.015562481  0.014372016           26 
 4352000   0.54415084     -7.88487    811.34506  0.015535866  0.014367449           29 
 4353000   0.55274978   -7.8806119      813.108  0.015566046  0.014362883           25 
 4354000   0.55852395    -7.872327    813.27962  0.015565756  0.014358322           24 
 4355000   0.55305675   -7.8857578     812.0377  0.015538417  0.014353754           19 
 4356000   0.57341796   -7.8805108    812.75899  0.015548649  0.014349191           19 
 4357000   0.54905599   -7.8774318    813.19777  0.015553473  0.014344632           21 
 4358000   0.55411845   -7.8919148    811.53339  0.015518078  0.014340072           20 
 4359000   0.54729045   -7.8747118    811.50819  0.015514036  0.014335518           20 
 4360000   0.56632179   -7.8762735    814.03298  0.015558734  0.014330969           23 
 4361000   0.54981664   -7.8641005    813.62844  0.015547436  0.014326423           20 
 4362000   0.54849482   -7.8788867    813.17223  0.015535156  0.014321869           23 
 4363000   0.55502251   -7.8734937    814.06278  0.015548605  0.014317315           18 
 4364000   0.54661991   -7.8638545    814.92358   0.01556148  0.014312768           24 
 4365000    0.5419311   -7.8652334    813.29588   0.01552684  0.014308232           20 
 4366000   0.55841859   -7.8715176       811.35  0.015486143  0.014303688           22 
 4367000   0.56122536   -7.8577474    813.38961  0.015521518  0.014299149           26 
 4368000   0.54481185   -7.8796096    813.61244  0.015522215   0.01429461           25 
 4369000   0.54303071    -7.878875    813.43423  0.015515263  0.014290065           37 
 4370000   0.54984333   -7.8774731    812.93923  0.015502274  0.014285523           20 
 4371000   0.54471171   -7.8738176    812.57889  0.015491857  0.014280988           25 
 4372000   0.55779017   -7.8741215     812.7049  0.015490715  0.014276452           21 
 4373000   0.55909961   -7.8804276    811.83576  0.015470611  0.014271913           27 
 4374000   0.54660306   -7.8850581    812.35103   0.01547689  0.014267374           21 
 4375000   0.54590399   -7.8641032    812.14306  0.015469392   0.01426284           21 
 4376000   0.54788557   -7.8875025    813.90238   0.01549936  0.014258317           22 
 4377000    0.5584343   -7.8608724    813.03439  0.015479293  0.014253793           22 
 4378000    0.5482632    -7.871554    812.95352  0.015474218  0.014249274           25 
 4379000   0.53915942    -7.870497    812.45496  0.015461197  0.014244755           25 
 4380000    0.5567145   -7.8796993    813.16482  0.015471172  0.014240234           30 
 4381000   0.54279049   -7.8602203    811.56762   0.01543726  0.014235716           20 
 4382000   0.55798473    -7.869417    813.35097  0.015467651  0.014231201           25 
 4383000   0.55391522   -7.8936812    810.75204  0.015414709  0.014226684           34 
 4384000   0.56186682   -7.8807044    813.01138   0.01545414   0.01422217           23 
 4385000   0.55495545   -7.8760537    812.71132  0.015444913  0.014217652           18 
 4386000   0.54948647   -7.8814956    811.31389  0.015414841  0.014213137           26 
 4387000    0.5573911   -7.8951504    811.85027  0.015421516  0.014208616           26 
 4388000   0.54511556   -7.8838054    811.97507  0.015420371  0.014204104           23 
 4389000   0.54071508   -7.9001529    812.06921  0.015418645  0.014199586           25 
 4390000   0.55847553   -7.8939563    811.68264  0.015407795  0.014195071           30 
 4391000   0.55880718   -7.8967783    811.88252  0.015408079  0.014190555           39 
 4392000   0.55068508   -7.8853199    812.66062  0.015419335  0.014186044           30 
 4393000   0.54878197   -7.8735674    813.99149  0.015441071  0.014181533           30 
 4394000   0.54498323   -7.8780801    811.37576  0.015387949  0.014177025           17 
 4395000   0.55507984   -7.8911571    813.29474  0.015420833  0.014172514           25 
 4396000   0.53987066   -7.8698631    812.26707  0.015397844  0.014168011           31 
 4397000   0.54879946    -7.883146    812.09711  0.015391121   0.01416351           34 
 4398000   0.54594751   -7.8922636    812.63422  0.015397799  0.014159015           36 
 4399000   0.54764799   -7.8839077    812.64486    0.0153945  0.014154514           36 
 4400000   0.55027508   -7.8773129    813.85109  0.015413846  0.014150012           34 
 4401000    0.5392444    -7.899353    812.15081  0.015378149  0.014145516           29 
 4402000     0.550336   -7.8921162    811.76823  0.015367413  0.014141017           31 
 4403000   0.54360536   -7.8854519    810.56113  0.015341077  0.014136519           28 
 4404000   0.56373898   -7.8953519    811.69773    0.0153591  0.014132013           29 
 4405000   0.56193143   -7.8952218    812.26043  0.015366259  0.014127514           31 
 4406000   0.55723456   -7.8676487    812.15435  0.015360765  0.014123015           26 
 4407000   0.54387223   -7.8822972    812.87791  0.015370961  0.014118519           27 
 4408000   0.54479971   -7.8797113    811.15109  0.015334828  0.014114022           23 
 4409000   0.54139833     -7.89566    812.63388  0.015359376  0.014109529           37 
 4410000   0.54368523    -7.894616    811.84198  0.015340929  0.014105037           27 
 4411000   0.55629421    -7.885403    812.33209  0.015346711  0.014100545           23 
 4412000   0.55709268   -7.8901281    810.72381  0.015312855  0.014096053           22 
 4413000   0.55235717    -7.909148    811.77689  0.015329271   0.01409156           28 
 4414000   0.54792115   -7.8932621    812.11538  0.015332189  0.014087074           30 
 4415000   0.54100935   -7.8948941    812.10513  0.015328523  0.014082587           32 
 4416000   0.54547139   -7.9093794    812.33617  0.015329411  0.014078104           28 
 4417000    0.5516582   -7.8932788    811.07459  0.015302139   0.01407362           33 
 4418000    0.5351234   -7.9081408    811.77853  0.015311953  0.014069136           31 
 4419000   0.55111527   -7.8897657    811.59963  0.015305115  0.014064656           23 
 4420000   0.54613345   -7.9098912    811.25381  0.015295132  0.014060178           33 
 4421000   0.54023007   -7.8894991    810.98784  0.015286659  0.014055704           32 
 4422000   0.53534551   -7.8980415    812.86421  0.015318563  0.014051226           27 
 4423000   0.53174142   -7.9042905    811.21402  0.015284008  0.014046755           31 
 4424000   0.55299355   -7.9033935    811.39334  0.015283931  0.014042282           34 
 4425000   0.53666175   -7.8930484    812.02571  0.015292386  0.014037818           25 
 4426000   0.54259978   -7.9033719    811.63022  0.015281485  0.014033352           29 
 4427000   0.53875862   -7.8980209    810.76363   0.01526172  0.014028887           36 
 4428000   0.54671983   -7.8837753    811.04696  0.015263606   0.01402443           32 
 4429000   0.54530217   -7.8848476    811.76318  0.015273635  0.014019967           28 
 4430000    0.5538433    -7.877861     812.0133  0.015274893  0.014015506           30 
 4431000   0.54093906   -7.8920814    812.26318  0.015276145  0.014011046           29 
 4432000   0.54468523   -7.8866114    810.83106  0.015245771  0.014006588           24 
 4433000   0.55182105   -7.9092233    810.79128  0.015241584  0.014002133           32 
 4434000   0.54746572   -7.8902184    811.30666  0.015247832  0.013997673           37 
 4435000   0.54678201   -7.8944008    810.76254   0.01523417  0.013993218           29 
 4436000   0.53678871   -7.8950526    813.34223  0.015279197  0.013988762           33 
 4437000   0.55595128   -7.8859573     811.7926  0.015246649  0.013984309           25 
 4438000   0.54512819   -7.8994181    812.33355  0.015253371  0.013979858           28 
 4439000    0.5420155   -7.8988744    810.71247  0.015219503  0.013975408           31 
 4440000   0.53623907   -7.9025007    810.84471  0.015218557  0.013970961           36 
 4441000   0.53639215   -7.9007506    810.54011  0.015209414  0.013966511           33 
 4442000   0.54527246   -7.9076555    812.01194  0.015233602  0.013962069           27 
 4443000   0.54901981   -7.9047784    810.40073  0.015199954  0.013957626           31 
 4444000   0.53138888   -7.8885727    810.19122  0.015192605  0.013953181           29 
 4445000   0.54325227   -7.9031278    811.83267   0.01521996   0.01394874           21 
 4446000   0.53783243    -7.893499    811.38345  0.015208117  0.013944299           26 
 4447000   0.54127653   -7.9172731    811.57926  0.015208366  0.013939867           19 
 4448000   0.53806092   -7.8955761    811.67772  0.015206792   0.01393543           18 
 4449000   0.55056459   -7.8935334    812.06495  0.015210627  0.013930999           28 
 4450000   0.53728985   -7.9061236    811.58978   0.01519831  0.013926571           26 
 4451000   0.54199857   -7.9164787    812.21278   0.01520656   0.01392214           31 
 4452000    0.5299909   -7.8961222    812.02187  0.015199571  0.013917716           23 
 4453000    0.5415657    -7.903335    811.08532  0.015178631  0.013913291           29 
 4454000   0.54368882   -7.9133705       811.61   0.01518504  0.013908869           31 
 4455000     0.531565   -7.9127814    812.10286   0.01519085  0.013904447           18 
 4456000   0.53877859   -7.9127035    812.73225  0.015199212  0.013900022           23 
 4457000   0.53936907   -7.8891595    813.50608   0.01521027  0.013895603           18 
 4458000   0.54004689   -7.8982554    811.15466  0.015162903  0.013891183           15 
 4459000   0.53733321   -7.8932856    811.30219   0.01516226  0.013886771           25 
 4460000   0.53213777   -7.8981028    812.52644  0.015181735  0.013882359           23 
 4461000   0.55579663   -7.9173306    811.58356  0.015160718  0.013877951           25 
 4462000   0.53894467   -7.9091906    811.66492   0.01515884  0.013873543           33 
 4463000   0.53226198   -7.8997379    811.81311   0.01515821  0.013869137           27 
 4464000   0.52883236   -7.9180427    812.74121   0.01517214  0.013864729           22 
 4465000    0.5435282   -7.9069764    810.74732  0.015131529  0.013860321           27 
 4466000   0.54151448   -7.9172827    812.13633  0.015154059  0.013855917           25 
 4467000   0.54478155   -7.8931512    810.78422  0.015125443  0.013851518           17 
 4468000   0.54028726   -7.9112344      812.008  0.015144882  0.013847118           19 
 4469000   0.53283709   -7.8999657    811.44987  0.015131086  0.013842722           22 
 4470000   0.53954078   -7.9040099    811.42581  0.015127252  0.013838321           30 
 4471000   0.53863253   -7.9131701    810.42996  0.015105308   0.01383392           35 
 4472000   0.55367664    -7.923267    809.93246  0.015092659  0.013829522           27 
 4473000   0.53778494   -7.9149532    811.72743  0.015122726  0.013825123           27 
 4474000   0.53096486   -7.8996406    812.38445  0.015131583   0.01382073           21 
 4475000   0.53606656   -7.9096494    812.52819  0.015130879  0.013816336           27 
 4476000   0.52636921   -7.9260026    810.34958  0.015086937  0.013811942           15 
 4477000   0.54071578   -7.9200901    812.59536   0.01512537  0.013807553           26 
 4478000   0.54577905   -7.9102645    810.71697  0.015087036  0.013803163           26 
 4479000   0.55434168   -7.9105012    811.68435  0.015101666  0.013798777           23 
 4480000   0.52528631   -7.9302915    812.01416   0.01510443  0.013794392           26 
 4481000   0.53636616   -7.8892682    810.81187    0.0150787  0.013790009           30 
 4482000   0.53415271   -7.9153876    809.94355  0.015059191  0.013785625           25 
 4483000   0.53547733   -7.9259653    809.33665  0.015044551  0.013781237           26 
 4484000   0.53278499   -7.9163505    810.77706  0.015067965  0.013776852           31 
 4485000   0.53642227   -7.9098173    809.20753  0.015035443  0.013772471           20 
 4486000   0.53616016   -7.9154322    810.33729  0.015053078  0.013768089           22 
 4487000   0.53467987   -7.9307904     811.2669  0.015066988  0.013763707           22 
 4488000   0.53196268   -7.9213759    811.06947  0.015059965  0.013759327           22 
 4489000   0.52157525   -7.9158449    811.51601    0.0150649  0.013754947           20 
 4490000   0.53260719   -7.9225156    810.62242   0.01504496  0.013750568           20 
 4491000   0.53253176   -7.9130733    809.97386  0.015029575  0.013746192           20 
 4492000   0.53568892   -7.9301622    810.11129  0.015028779  0.013741815           25 
 4493000   0.52515331   -7.9373876    811.34607  0.015048336  0.013737442           23 
 4494000   0.53519407   -7.9118233    810.63859  0.015031868  0.013733071           25 
 4495000   0.53678226   -7.9233017    809.45315  0.015006547  0.013728699           23 
 4496000   0.54646564   -7.9273006    810.44071  0.015021514  0.013724333           25 
 4497000   0.52575741    -7.921929    810.54221  0.015020054  0.013719965           24 
 4498000   0.53102702   -7.9398668    811.23723  0.015029591  0.013715598           28 
 4499000   0.53458952   -7.9231714    811.42734  0.015029772  0.013711232           21 
 4500000   0.53994318   -7.9263283    810.55197  0.015010222  0.013706869           27 
 4501000   0.53215196   -7.9278695    810.27765  0.015001808   0.01370251           26 
 4502000    0.5321643   -7.9161304    811.64704  0.015023823  0.013698157           24 
 4503000    0.5294625   -7.9269084    811.32242   0.01501448  0.013693802           17 
 4504000   0.53137481   -7.9119497    810.68788  0.014999406  0.013689445           20 
 4505000   0.53775541   -7.9263964    811.52533  0.015011567  0.013685092           29 
 4506000   0.54097459   -7.9452629    811.42247  0.015006334  0.013680738           22 
 4507000   0.53005149   -7.9226862    809.75496  0.014972172  0.013676381           26 
 4508000   0.53031614   -7.9252123    811.28081  0.014997057   0.01367203           15 
 4509000    0.5275197   -7.9211731     809.8337  0.014966986  0.013667677           26 
 4510000   0.52788536   -7.9215628    810.90404  0.014983445  0.013663323           23 
 4511000   0.53011832   -7.9210468    809.28538  0.014950221  0.013658972           22 
 4512000   0.52276636    -7.927097    809.97312   0.01495961  0.013654623           21 
 4513000   0.52802828   -7.9237659    811.17132   0.01497842   0.01365028           16 
 4514000   0.53209334   -7.9294425    809.70892  0.014948104  0.013645938           21 
 4515000   0.53385097   -7.9346352    810.86696  0.014966168  0.013641597           25 
 4516000   0.52313945   -7.9385256    810.84091  0.014962373   0.01363726           31 
 4517000   0.52976809   -7.9174688     810.6212  0.014955007  0.013632924           23 
 4518000   0.53176055   -7.9295795    811.16215  0.014961675  0.013628585           24 
 4519000   0.54471721    -7.933428    809.96713  0.014936327   0.01362425           29 
 4520000   0.52217966   -7.9195668    810.10004  0.014935473  0.013619915           29 
 4521000   0.52278384   -7.9061517    808.59922  0.014904505  0.013615584           20 
 4522000   0.53512819   -7.9220693    809.54442  0.014918628  0.013611256           26 
 4523000   0.53392661   -7.9401442    810.73252  0.014937219  0.013606935           30 
 4524000   0.52901092   -7.9292681    810.43226  0.014928387   0.01360261           17 
 4525000   0.52634827   -7.9289357    810.14287  0.014919758  0.013598287           15 
 4526000   0.52949867   -7.9317843    809.03647  0.014896091  0.013593966           21 
 4527000   0.53316004   -7.9359507    811.21659  0.014932932  0.013589643           23 
 4528000   0.52940381   -7.9293885    810.11587  0.014909376   0.01358532           25 
 4529000   0.52119395   -7.9211906    810.11479  0.014906064  0.013580997           28 
 4530000   0.53962377   -7.9347189    810.52118   0.01491025  0.013576679           25 
 4531000   0.53690327   -7.9191338    811.17672  0.014919016  0.013572366           13 
 4532000   0.53009476   -7.9039671    810.24956  0.014898675  0.013568055           25 
 4533000   0.53188501   -7.9286941    809.62051  0.014883824  0.013563742           28 
 4534000   0.52728868   -7.9334131    810.16232    0.0148905  0.013559431           18 
 4535000   0.52154129   -7.9410645    809.90551  0.014882497  0.013555118           13 
 4536000    0.5328649   -7.9415491    811.57838   0.01490995  0.013550808           27 
 4537000   0.53193573   -7.9480952    810.86904  0.014893635  0.013546505           21 
 4538000   0.52248101   -7.9189343    810.28453  0.014879619  0.013542202           28 
 4539000   0.52198517   -7.9286296    811.11545  0.014891596  0.013537897           25 
 4540000   0.53298274   -7.9394912    808.67451  0.014843511  0.013533597           26 
 4541000   0.53374277   -7.9332519     809.9493  0.014863637  0.013529296           43 
 4542000   0.52252829   -7.9396481    809.49804  0.014852085  0.013524994           24 
 4543000   0.52673707   -7.9527611    810.12372  0.014860293  0.013520694           24 
 4544000     0.520449   -7.9377242    811.85107  0.014888701    0.0135164           23 
 4545000   0.52260709   -7.9530131    809.06355  0.014834315   0.01351211           26 
 4546000   0.52480217   -7.9408157    809.37672  0.014836793  0.013507819           27 
 4547000   0.52146942    -7.938879    809.65159  0.014838567  0.013503524           30 
 4548000   0.51612621    -7.939512    810.34308  0.014847975  0.013499234           22 
 4549000   0.52592874   -7.9472226    810.86538  0.014854279  0.013494946           23 
 4550000   0.53019218   -7.9161973     811.3953   0.01486072   0.01349066           30 
 4551000   0.52156005   -7.9332511    810.55879  0.014842137  0.013486383           24 
 4552000   0.51660546   -7.9409972    809.51556  0.014819778  0.013482102           20 
 4553000   0.52783526    -7.920365    809.58235  0.014817746   0.01347782           23 
 4554000   0.52010247   -7.9571776    809.65706  0.014815859  0.013473538           24 
 4555000   0.53024206   -7.9455278    810.66954   0.01483113  0.013469257           25 
 4556000   0.53572134   -7.9455614    810.16541  0.014818653  0.013464975           24 
 4557000   0.52113482    -7.925234      810.969  0.014830097    0.0134607           22 
 4558000   0.52124087   -7.9397477    810.98445  0.014827125  0.013456421           17 
 4559000   0.52740658   -7.9378752    810.82831  0.014821019  0.013452145           24 
 4560000   0.51356603   -7.9579127    810.51114  0.014811972  0.013447872           30 
 4561000     0.520007   -7.9284146    811.09154   0.01481933  0.013443601           24 
 4562000   0.51601832   -7.9273266    809.70201  0.014790699  0.013439333           31 
 4563000   0.51555559   -7.9277222     811.1974  0.014814767  0.013435063           30 
 4564000   0.51453224   -7.9428336    810.42628  0.014797441  0.013430796           35 
 4565000   0.52086909   -7.9533841    809.71807  0.014781272  0.013426535           29 
 4566000   0.52354843   -7.9274956    811.08337  0.014802952  0.013422271           23 
 4567000   0.52932609   -7.9670523     810.4392  0.014787957  0.013418008           35 
 4568000    0.5232122   -7.9480425    810.31812  0.014782511  0.013413743           29 
 4569000   0.52651928   -7.9374293    810.43407   0.01478139  0.013409483           19 
 4570000   0.51526801   -7.9564531    809.60766  0.014763086  0.013405225           29 
 4571000   0.51246841   -7.9485917    808.84839  0.014746015  0.013400968           26 
 4572000   0.51874495   -7.9643014    809.69102  0.014758148  0.013396714           28 
 4573000   0.52863356   -7.9509288    811.19249  0.014782282  0.013392462           30 
 4574000   0.52218194   -7.9308092    810.01052  0.014757516  0.013388204           28 
 4575000   0.51196373   -7.9614076     808.9304  0.014734616  0.013383953           24 
 4576000   0.51725362   -7.9458237    809.93716   0.01474973  0.013379702           24 
 4577000   0.52156078   -7.9475278    809.46321  0.014737878  0.013375458           36 
 4578000   0.50410268   -7.9546247    809.86299  0.014741936   0.01337121           26 
 4579000   0.50758906   -7.9457812    810.36779  0.014747903  0.013366966           30 
 4580000   0.52675908   -7.9762005     810.9515  0.014755304  0.013362723           31 
 4581000    0.5100317   -7.9384578    810.98679  0.014752725  0.013358477           24 
 4582000   0.50557129   -7.9419148    810.34976  0.014737919  0.013354232           27 
 4583000   0.51166612   -7.9473088    810.14299  0.014730944   0.01334999           34 
 4584000   0.52028209   -7.9444517    810.15878  0.014728017  0.013345754           26 
 4585000   0.51204132   -7.9564398    810.24067  0.014726294  0.013341518           13 
 4586000   0.51236104   -7.9407299    809.65528  0.014712445  0.013337281           32 
 4587000    0.5156688   -7.9493867    808.40761  0.014686571  0.013333043           25 
 4588000   0.52382317   -7.9398394    810.06329  0.014713442  0.013328806           25 
 4589000   0.50477029   -7.9521219    808.97391  0.014690454   0.01332457           26 
 4590000   0.51297259   -7.9492463    809.74707   0.01470129  0.013320336           28 
 4591000   0.50051084   -7.9540881    809.70325  0.014697293  0.013316105           30 
 4592000   0.51230064    -7.935425    808.41515  0.014670716  0.013311879           28 
 4593000   0.51730859   -7.9440808    809.23431  0.014682385  0.013307653           15 
 4594000   0.52266361   -7.9597029    809.65758  0.014686866  0.013303425           25 
 4595000   0.52182952   -7.9561392    808.82796  0.014668625  0.013299196           28 
 4596000   0.51167615   -7.9492707    809.35279  0.014674949  0.013294969           29 
 4597000   0.52371738   -7.9538337    810.87404  0.014699334  0.013290746           32 
 4598000   0.51593128     -7.95463    808.93826  0.014661053  0.013286524           13 
 4599000   0.51045214   -7.9744001    809.72992   0.01467221  0.013282306           27 
 4600000   0.51597807   -7.9657969    808.57062  0.014648018  0.013278086           27 
 4601000   0.50840439   -7.9377767     809.3892  0.014659661   0.01327387           25 
 4602000   0.51603786   -7.9517543    809.68546   0.01466184  0.013269654           33 
 4603000    0.5053234   -7.9422748    809.16505  0.014649233  0.013265439           20 
 4604000   0.50892963   -7.9573492    809.61866  0.014654262  0.013261228           36 
 4605000   0.50836415   -7.9563168    808.99998  0.014639884  0.013257018           26 
 4606000   0.51824941    -7.945647    810.10983  0.014656785  0.013252809           27 
 4607000   0.52476884   -7.9555112    808.41014  0.014622859  0.013248599           28 
 4608000   0.51496462    -7.956216    808.87493  0.014628091  0.013244388           28 
 4609000   0.52125994   -7.9452424    810.75271  0.014658869  0.013240182           27 
 4610000   0.50953315   -7.9650207     809.9498  0.014641175  0.013235978           27 
 4611000   0.51143684    -7.961581    809.42194   0.01462846  0.013231777           22 
 4612000   0.51840991   -7.9542413    808.44203  0.014607582  0.013227576           27 
 4613000   0.51793212   -7.9444632     810.0319  0.014633136  0.013223381           28 
 4614000   0.51440765   -7.9553704    809.61157  0.014622373   0.01321918           22 
 4615000   0.51449646   -7.9625367    809.29725  0.014613529  0.013214984           24 
 4616000    0.5094799   -7.9664636    808.72529  0.014600038  0.013210783           24 
 4617000   0.50760515   -7.9553551    810.09923  0.014621674   0.01320659           29 
 4618000   0.51886909   -7.9741288    808.52676  0.014590132  0.013202395           31 
 4619000   0.50560851   -7.9515147    807.76246  0.014573184  0.013198202           29 
 4620000   0.50861733   -7.9418714    809.20332  0.014596019  0.013194011           26 
 4621000   0.51712752   -7.9482814    810.32938  0.014613168  0.013189823           28 
 4622000   0.51245577   -7.9499494    808.50893  0.014577184  0.013185642           31 
 4623000   0.51808169   -7.9708782    810.16927   0.01460396  0.013181458           32 
 4624000   0.51277102   -7.9535482    808.72756  0.014574819  0.013177275           18 
 4625000   0.52485483   -7.9722735    810.24747  0.014599053  0.013173091           24 
 4626000   0.52449819   -7.9719493    808.26732  0.014560227  0.013168914           36 
 4627000   0.50536706   -7.9545406    807.95737  0.014551498  0.013164734           13 
 4628000   0.51240932   -7.9558737    809.90875  0.014583491  0.013160556           23 
 4629000   0.51242092   -7.9699984    808.09867  0.014547755   0.01315638           28 
 4630000   0.51917972   -7.9654391    808.86958  0.014558488  0.013152202           16 
 4631000   0.51402073   -7.9637473    808.88691  0.014555656  0.013148034           24 
 4632000   0.51277473   -7.9762204    809.47988  0.014563182  0.013143859           31 
 4633000   0.51936179    -7.970294    809.37356  0.014558126   0.01313969           24 
 4634000   0.49486263   -7.9653619    809.37371  0.014554987  0.013135521           31 
 4635000   0.50641336   -7.9522996    808.80004  0.014541532  0.013131356           32 
 4636000   0.50363924   -7.9803981    808.75548  0.014537595  0.013127188           25 
 4637000   0.51458071   -7.9636836    809.95618  0.014556038  0.013123022           22 
 4638000   0.52156546   -7.9513733     810.7565  0.014567279  0.013118863           23 
 4639000   0.51447279   -7.9618742    807.54871  0.014506516  0.013114705           26 
 4640000   0.50513869   -7.9607961     808.8173  0.014526173  0.013110539           33 
 4641000   0.52295443    -7.973032    809.44251  0.014534269   0.01310638           30 
 4642000   0.51300346   -7.9572183    808.76817  0.014519032  0.013102219           35 
 4643000   0.51427854   -7.9691793    809.72041  0.014532996   0.01309806           17 
 4644000   0.51015057   -7.9580273    809.03487  0.014517565  0.013093905           25 
 4645000   0.51236207   -7.9776832    809.02216  0.014514212  0.013089752           28 
 4646000   0.50613849   -7.9663355    808.51452  0.014501982  0.013085599           20 
 4647000   0.50926006   -7.9580299    808.32433  0.014495451  0.013081453           28 
 4648000   0.50091759   -7.9616243    807.97365  0.014486045  0.013077303           24 
 4649000   0.51133103   -7.9577901    808.48817  0.014492152  0.013073159           16 
 4650000   0.51033011    -7.964548    808.42687  0.014487937  0.013069013           26 
 4651000    0.5071463   -7.9768905    807.15437  0.014462022  0.013064863           24 
 4652000   0.50167804   -7.9714324    808.90164  0.014490213   0.01306072           24 
 4653000   0.50624883   -7.9702531    808.58834  0.014481487  0.013056577           35 
 4654000   0.50560496   -7.9653686    807.55718  0.014459912   0.01305244           23 
 4655000   0.51183888   -7.9597268    809.53177  0.014492155  0.013048301           13 
 4656000   0.51190066    -7.968907    809.51639  0.014488767  0.013044162           15 
 4657000   0.50462694    -7.977838    810.19322  0.014497767  0.013040027           13 
 4658000   0.50951508   -7.9657391    809.75642   0.01448684  0.013035893           23 
 4659000   0.51062299   -7.9528528    809.79926  0.014484497  0.013031762           22 
 4660000   0.49872683   -7.9701663    807.43145  0.014439046  0.013027629           28 
 4661000   0.51297589   -7.9745477    809.64228  0.014475475  0.013023496           20 
 4662000   0.50384765   -7.9600292    809.24601  0.014465287  0.013019364           31 
 4663000   0.51087355   -7.9796431    808.79987  0.014454212  0.013015237           12 
 4664000   0.50707572   -7.9792966    809.92223  0.014471166  0.013011107           30 
 4665000   0.49891377   -7.9627499    809.44816  0.014459596   0.01300698           17 
 4666000   0.49755671   -7.9479182    807.22445  0.014416782  0.013002855           24 
 4667000   0.49382655   -7.9891306    809.34191  0.014451502  0.012998728           28 
 4668000   0.50662233   -7.9669385    808.14474  0.014427034  0.012994599           24 
 4669000   0.51584038   -7.9717705    808.59819  0.014432037  0.012990476           21 
 4670000   0.50693638   -7.9760095    807.95818  0.014417526   0.01298636           27 
 4671000   0.50435061   -7.9733396     808.7839  0.014429171  0.012982242           17 
 4672000   0.51176763   -7.9633009    809.24535  0.014434313  0.012978125           31 
 4673000   0.49921375   -7.9748741    808.65212  0.014420646  0.012974008           26 
 4674000   0.49551804   -7.9776875     808.9867  0.014423526  0.012969899           38 
 4675000   0.50174519   -7.9753307    808.71896  0.014415668  0.012965788           24 
 4676000   0.50166464   -7.9786019    808.63011  0.014411001  0.012961677           21 
 4677000   0.50674458   -7.9765721    809.70839  0.014427133  0.012957567           22 
 4678000   0.50804725   -7.9677613    808.26972   0.01439842  0.012953456           33 
 4679000    0.4970156   -7.9553236    808.03886  0.014391231   0.01294935           25 
 4680000   0.51583735    -7.966716     807.8118  0.014384113  0.012945246           22 
 4681000   0.50153798   -7.9748919    809.04332  0.014402964  0.012941141           31 
 4682000    0.5095159   -7.9933171    810.29396  0.014422148  0.012937036           36 
 4683000   0.50110711   -7.9612336    807.78632  0.014374445  0.012932934           31 
 4684000   0.49189684   -7.9835106    808.67528  0.014387192  0.012928833           22 
 4685000   0.50198534   -7.9781743    808.60473  0.014382866  0.012924733           38 
 4686000   0.50833286   -7.9852001    807.00421  0.014351334  0.012920637           30 
 4687000    0.5050481   -7.9928508    807.93007  0.014364733  0.012916544           36 
 4688000   0.50291377    -7.982526    809.36606  0.014387195  0.012912453           30 
 4689000   0.50709924   -7.9735293    809.25347  0.014382126  0.012908362           26 
 4690000   0.49605867   -7.9662851    808.38791   0.01436368  0.012904268           28 
 4691000   0.50664879   -7.9786539       808.76  0.014367228  0.012900177           23 
 4692000   0.50755195   -7.9711173    808.61793  0.014361643  0.012896091           28 
 4693000   0.51134949   -7.9758767    807.59505  0.014340419  0.012892008           35 
 4694000   0.50196196    -7.996226    808.80469  0.014358839  0.012887925           25 
 4695000   0.48875851   -7.9850042    809.35755  0.014365594  0.012883846           28 
 4696000   0.49434861   -7.9668847    807.59335  0.014331228  0.012879765           28 
 4697000   0.49852867   -8.0010768    809.19009  0.014356506  0.012875689           41 
 4698000   0.49789693   -7.9801648    808.79774   0.01434649  0.012871617           29 
 4699000   0.49946865   -7.9760363    807.18824  0.014314894  0.012867542           20 
 4700000    0.5028662   -7.9756182    808.54478    0.0143359  0.012863472           30 
 4701000   0.49261987   -7.9842156    809.07047   0.01434217  0.012859401           26 
 4702000   0.49678134   -7.9733853    808.51968  0.014329358   0.01285533           23 
 4703000    0.4975781   -7.9785861    809.33186  0.014340702   0.01285126           32 
 4704000   0.50187575   -7.9804714    808.52111  0.014323291  0.012847192           32 
 4705000   0.49795872   -7.9757744    808.70811  0.014323558  0.012843126           29 
 4706000   0.49905178   -7.9764889    808.55711  0.014317841  0.012839059           24 
 4707000   0.50123264   -7.9781235    806.80948  0.014283859  0.012834996           30 
 4708000   0.50055559   -7.9795075    808.46025  0.014310044  0.012830937           23 
 4709000   0.49150057   -7.9879506    808.04602  0.014299675   0.01282688           26 
 4710000   0.48923963   -7.9845586    808.21263  0.014299586  0.012822821           38 
 4711000   0.49621779   -7.9945805    806.76358  0.014270919  0.012818762           34 
 4712000   0.51292216   -7.9899717    808.69263  0.014302006  0.012814703           30 
 4713000   0.51377387   -7.9938376    808.86578  0.014302033   0.01281065           29 
 4714000   0.50121706   -7.9868728    808.19375  0.014287119  0.012806598           33 
 4715000   0.49151351   -7.9946159    808.16701  0.014283616  0.012802547           26 
 4716000   0.50156753   -7.9831386    807.39643  0.014266971  0.012798496           34 
 4717000   0.49305073   -7.9823215    808.46617  0.014282845  0.012794448           40 
 4718000    0.5072278   -7.9804149    807.63848  0.014265199  0.012790404           26 
 4719000    0.5078341   -7.9879775    807.85021  0.014265915  0.012786359           34 
 4720000   0.50442925    -7.991624    808.22062  0.014269432  0.012782318           31 
 4721000   0.49562967   -8.0072021    808.32032  0.014268169  0.012778277           33 
 4722000   0.51127058   -7.9788127    809.10046  0.014278915  0.012774239           31 
 4723000   0.48514479   -7.9919339    808.57643  0.014266646  0.012770202           33 
 4724000   0.49975188   -7.9888474    808.55322  0.014263217  0.012766168           37 
 4725000   0.50005297   -7.9842638    809.43716  0.014275788  0.012762135           24 
 4726000    0.4965588    -7.979057    808.44171  0.014255214  0.012758102           28 
 4727000   0.50028465   -7.9615861    807.72762   0.01423961  0.012754071           22 
 4728000   0.50297763   -8.0024753     808.5334    0.0142508  0.012750044           18 
 4729000   0.49714123   -7.9851098    808.13751   0.01424081  0.012746015           38 
 4730000   0.49313869    -7.999726    806.11278  0.014202128  0.012741988           39 
 4731000   0.49461326   -8.0001569    809.57726   0.01426015  0.012737964           31 
 4732000   0.49605531    -7.976837    807.91514  0.014227866  0.012733937           33 
 4733000   0.49551397   -7.9901417    808.17009  0.014229349  0.012729915           31 
 4734000   0.49601627    -7.987746    807.99752  0.014223305  0.012725895           28 
 4735000   0.49660366   -7.9869419    807.17746  0.014205869  0.012721873           23 
 4736000   0.49608831   -8.0007422    807.85953  0.014214871  0.012717858           30 
 4737000    0.4921008   -7.9939021    808.67149  0.014226154  0.012713845           25 
 4738000   0.49372905   -7.9858332     808.0684  0.014212544  0.012709829           24 
 4739000   0.49580354   -7.9858988    808.81432  0.014222662  0.012705822           32 
 4740000   0.50202924   -7.9920417    807.44017  0.014195502  0.012701816           25 
 4741000   0.49837629    -7.992339    808.41204  0.014209591  0.012697811           25 
 4742000   0.49783297   -8.0012019      808.295  0.014204537  0.012693803           26 
 4743000   0.48765141   -8.0059496    807.13548   0.01418117  0.012689796           21 
 4744000    0.4842892   -7.9903633    807.79687  0.014189799  0.012685792           24 
 4745000   0.48951724    -8.005858    809.26329  0.014212562  0.012681789           31 
 4746000   0.49245076   -8.0021461    809.39212   0.01421183  0.012677787           28 
 4747000   0.48883474   -7.9920283    808.42426  0.014191845  0.012673784           26 
 4748000   0.48662865   -7.9975747    808.64241  0.014192685  0.012669783           26 
 4749000   0.48473877     -7.99271    807.85905   0.01417595  0.012665784           32 
 4750000    0.4887041    -8.001581    807.49743  0.014166622  0.012661786           30 
 4751000   0.49542673    -8.001989    808.68848  0.014184531  0.012657792           32 
 4752000   0.48425451    -7.996451    807.98234  0.014169163  0.012653797           31 
 4753000   0.49451974   -7.9894076     807.1868  0.014152234  0.012649801           28 
 4754000   0.49266476   -7.9868717    808.21154   0.01416722  0.012645811           28 
 4755000   0.49495777   -8.0028641    808.12548  0.014162732  0.012641827           24 
 4756000   0.49884355    -7.988478    807.36313  0.014146396  0.012637841           29 
 4757000   0.50163551    -7.984673    807.23895  0.014141247  0.012633855           35 
 4758000   0.48840218   -7.9947835    807.72433  0.014146776   0.01262987           33 
 4759000   0.49534262   -8.0131511    808.16339  0.014151492  0.012625889           21 
 4760000   0.49816465   -7.9833656    808.21806  0.014149476  0.012621907           32 
 4761000   0.49844789   -7.9675553    806.40992  0.014114855   0.01261793           41 
 4762000   0.48328441    -7.995969    808.34371  0.014145732  0.012613953           38 
 4763000   0.49008887     -8.00965    807.60248  0.014129794  0.012609975           30 
 4764000   0.49139276   -7.9893502     810.0395  0.014169457  0.012606001           26 
 4765000   0.49350139   -7.9909519    807.69394  0.014125462  0.012602026           28 
 4766000   0.48788714   -8.0005482    807.92816  0.014126594  0.012598053           24 
 4767000   0.50107167   -7.9931599    808.03138  0.014125435   0.01259408           28 
 4768000   0.48878499   -7.9911134    809.40932  0.014146556  0.012590113           31 
 4769000   0.48193099    -7.996175    806.70754  0.014096378  0.012586142           30 
 4770000   0.48334883   -7.9912385    807.69729  0.014110714  0.012582177           25 
 4771000   0.49715739   -8.0025139    808.17134  0.014116037  0.012578212           14 
 4772000    0.4722005   -8.0065405    807.41401  0.014099853  0.012574248           33 
 4773000   0.48674338   -7.9951118    808.57447   0.01411716  0.012570289           34 
 4774000   0.47913748    -8.020968    807.14627  0.014089273  0.012566325           25 
 4775000   0.48877274   -8.0059308    806.96405  0.014083142  0.012562365           33 
 4776000   0.49085791   -7.9826156    809.24132  0.014119928  0.012558408           35 
 4777000   0.49201685   -8.0027138    806.68266  0.014072337  0.012554455           30 
 4778000   0.48988476   -7.9860293    807.68639  0.014086898  0.012550497           38 
 4779000   0.48822488   -7.9768407    806.19967  0.014058026  0.012546542           32 
 4780000   0.48323111   -8.0059016    807.40708  0.014076135  0.012542594           28 
 4781000   0.49518944   -7.9990395    808.29577   0.01408868  0.012538645           28 
 4782000    0.4818778    -7.983112    806.05565  0.014046697  0.012534694           27 
 4783000   0.48304513   -7.9989778    808.60602  0.014088195  0.012530748           26 
 4784000   0.49069028   -7.9916812    807.69125  0.014069315  0.012526799           35 
 4785000   0.48749941     -8.00967    807.58416   0.01406451  0.012522851           30 
 4786000   0.48002533   -8.0065369    808.05221  0.014069721  0.012518906           31 
 4787000   0.48351698   -8.0004103    807.13479  0.014050811   0.01251496           26 
 4788000   0.49379335   -7.9866576    808.71161   0.01407532  0.012511019           28 
 4789000   0.48708192   -7.9962147    805.89874  0.014023435  0.012507081           35 
 4790000   0.47559699   -8.0152574    807.81441  0.014053835   0.01250314           31 
 4791000   0.47254467   -7.9993371    808.93389  0.014070373    0.0124992           32 
 4792000   0.48166313   -8.0068941    807.65111  0.014045129  0.012495263           32 
 4793000    0.4894577   -8.0085066    807.70624  0.014043157  0.012491327           37 
 4794000   0.48146451   -8.0024341    807.48347  0.014036356  0.012487396           27 
 4795000    0.4832442   -8.0070288    807.89686  0.014040613  0.012483467           30 
 4796000   0.47990027   -8.0122316    807.21247  0.014025793   0.01247954           32 
 4797000   0.48178202   -8.0013573     807.5435   0.01402862  0.012475614           34 
 4798000   0.48915553   -8.0121148    808.36608  0.014039983  0.012471686           31 
 4799000   0.48500694   -8.0135528    809.08776  0.014049589  0.012467758           51 
 4800000   0.48376804   -7.9798278    807.56136  0.014020162  0.012463831           25 
 4801000   0.47360648   -8.0230007    807.32975  0.014013222  0.012459906           34 
 4802000   0.47926924   -7.9972425    806.97216  0.014004098  0.012455982           25 
 4803000   0.49094003   -8.0071976    807.41495  0.014008865  0.012452063           35 
 4804000   0.48803582   -7.9930656    807.72966  0.014011408  0.012448146           31 
 4805000   0.48105642   -8.0030879    808.42104  0.014020483  0.012444225           53 
 4806000   0.47936264   -8.0067826    807.60874  0.014003481  0.012440304           47 
 4807000   0.48808154   -7.9957887    808.31753  0.014012855  0.012436388           38 
 4808000    0.4830816   -8.0021558    808.03966  0.014005124  0.012432476           33 
 4809000   0.46638649   -8.0032053     807.0451  0.013984978  0.012428564           18 
 4810000   0.48026713   -8.0097314    806.49277  0.013972501  0.012424653           42 
 4811000   0.47633365   -8.0088179    806.92372  0.013977062  0.012420744           58 
 4812000     0.484492   -8.0170147    807.31511  0.013980935  0.012416838           50 
 4813000    0.4735751   -8.0165556    807.97533  0.013989461  0.012412932           49 
 4814000   0.47667373   -8.0126727    806.98404  0.013969396  0.012409026           56 
 4815000   0.49382771   -8.0121165    807.54399  0.013976185  0.012405121           26 
 4816000   0.47846102   -8.0226184    807.52024  0.013972872  0.012401219           52 
 4817000   0.49276576   -8.0175062    807.81387  0.013975051  0.012397317           48 
 4818000   0.49215628   -8.0083435    805.30598  0.013928774  0.012393419           47 
 4819000   0.47805472   -8.0075053     807.3623  0.013961443  0.012389522           45 
 4820000   0.48706952   -8.0129135    806.39781  0.013941871  0.012385627           48 
 4821000   0.47168445   -8.0067705    806.37974  0.013938667  0.012381732           48 
 4822000   0.47373951    -8.017336    807.92387  0.013962462  0.012377839           39 
 4823000    0.4820782   -8.0007921    806.91052  0.013942058  0.012373948           47 
 4824000   0.48355911   -8.0066046    806.77477  0.013936822  0.012370059           37 
 4825000   0.47808517   -8.0162779    807.36891  0.013944195   0.01236617           58 
 4826000   0.47345445   -8.0071572     808.5705  0.013962055  0.012362285           27 
 4827000   0.47971703   -8.0228795    808.04918  0.013950162  0.012358398           43 
 4828000   0.49008475     -8.01053    807.03984  0.013929851   0.01235451           36 
 4829000   0.47455281   -8.0209545    807.84316  0.013940829  0.012350621           43 
 4830000   0.48050371   -8.0096255    807.91433  0.013939171  0.012346737           29 
 4831000   0.47683357   -8.0157384     806.4926  0.013911761  0.012342853           60 
 4832000   0.48139153    -8.010759    806.93811  0.013916565  0.012338975           60 
 4833000   0.48047528   -8.0188074    807.89525  0.013930189  0.012335094           39 
 4834000   0.48607513   -8.0094714    806.19379  0.013897976  0.012331216           52 
 4835000   0.48028651   -8.0235158    807.26943  0.013913641  0.012327341           53 
 4836000   0.47468701   -7.9987972    805.94019  0.013887858  0.012323468           51 
 4837000   0.47431293     -8.01217    806.90239  0.013901564  0.012319596           41 
 4838000   0.47442779   -8.0113663      805.945    0.0138822  0.012315726           65 
 4839000   0.48337549   -8.0072505     807.2333  0.013901517  0.012311858           50 
 4840000   0.47190355   -8.0201065    807.72053  0.013907034   0.01230799           47 
 4841000   0.48075921   -8.0206425    807.75768  0.013904801  0.012304123           66 
 4842000   0.47255497   -8.0320766    808.13972  0.013908504  0.012300255           48 
 4843000   0.48083465   -8.0308074    806.83535  0.013883188  0.012296392           57 
 4844000   0.47627513   -8.0062839    807.95217  0.013899535  0.012292525           53 
 4845000   0.47915468   -8.0303394    806.60842  0.013873554  0.012288663           52 
 4846000   0.46870638   -8.0223066    806.65618  0.013871512  0.012284803           44 
 4847000   0.47772851    -8.017618    807.07578  0.013875865  0.012280945           29 
 4848000   0.47496532   -8.0050897     807.0918  0.013873278  0.012277087           62 
 4849000   0.46860534   -8.0251318    806.96912  0.013868308  0.012273231           43 
 4850000   0.47396684   -8.0121116    806.23523  0.013852839  0.012269377           61 
 4851000   0.47227959   -8.0118806    806.95412  0.013862333  0.012265523           64 
 4852000   0.48757438   -8.0050942    806.86487  0.013857943  0.012261671           44 
 4853000   0.47139029     -8.02858    808.63493  0.013885482  0.012257821           53 
 4854000   0.47624499   -8.0212824    806.97911  0.013854194  0.012253971           64 
 4855000   0.47472391    -7.998316    806.78328  0.013847979  0.012250123           45 
 4856000   0.47172218   -8.0057389    806.62531  0.013842417  0.012246279           40 
 4857000   0.47155776   -8.0239572    806.67968    0.0138405  0.012242435           48 
 4858000   0.47653299   -8.0164333    806.58736  0.013836067   0.01223859           53 
 4859000    0.4712895   -8.0226676    807.19687  0.013843673  0.012234748           47 
 4860000   0.47150599   -8.0188113    806.32869  0.013825938  0.012230908           70 
 4861000   0.47709219   -8.0298863    806.75736  0.013830442  0.012227066           39 
 4862000   0.47472081   -8.0372401    806.87402  0.013829597  0.012223229           36 
 4863000   0.47114086     -8.01013    807.36436  0.013835156  0.012219392           51 
 4864000   0.47417425   -8.0206778    805.73818  0.013804451  0.012215556           83 
 4865000   0.48183112   -8.0170162    806.59215  0.013816241  0.012211723           51 
 4866000   0.46356083   -8.0261537     806.2933  0.013808284  0.012207892           40 
 4867000   0.47509283   -8.0313515    807.28446  0.013822417  0.012204057           55 
 4868000    0.4705333   -8.0398549    806.68147  0.013809256  0.012200227           57 
 4869000   0.47739867   -8.0167367    806.91573  0.013810429  0.012196399           45 
 4870000   0.48149666   -8.0407451    807.00597  0.013809137   0.01219257           40 
 4871000   0.47258843   -8.0158303     806.7451  0.013801839  0.012188743           45 
 4872000    0.4698854   -8.0366854    807.68561  0.013815093  0.012184918           58 
 4873000   0.48318808   -8.0180188    807.51759  0.013809385  0.012181097           85 
 4874000   0.47741832   -8.0365865    806.47034  0.013788646  0.012177281           40 
 4875000   0.48023135   -8.0208521    806.48846  0.013786128  0.012173466           61 
 4876000   0.46654865   -8.0123748    806.85115  0.013789499  0.012169651           50 
 4877000   0.46733788   -8.0070146    807.09105   0.01379077  0.012165838           48 
 4878000   0.46414645   -8.0269778    807.03418  0.013786972  0.012162028           63 
 4879000   0.47284923   -8.0297027    805.27828  0.013754155  0.012158217           55 
 4880000   0.48095807   -8.0083915    806.73585  0.013776227  0.012154405           38 
 4881000   0.46338077   -8.0285224    807.14045  0.013780312  0.012150597           51 
 4882000   0.46324121   -8.0188221    806.67285  0.013769508  0.012146789           49 
 4883000   0.46706508   -8.0321694    806.86348  0.013769941  0.012142981           46 
 4884000   0.47309504   -8.0367799    806.13688  0.013754724  0.012139176           59 
 4885000   0.47411481   -8.0259978    806.22005  0.013753327   0.01213537           51 
 4886000   0.45739443   -8.0251868    806.72074  0.013759052  0.012131563           67 
 4887000   0.47694612   -8.0167143    807.99403  0.013777949  0.012127763           62 
 4888000   0.46437928   -8.0293654      805.463   0.01373198  0.012123966           59 
 4889000   0.47337773    -8.056462    806.19613  0.013741667  0.012120166           55 
 4890000   0.46170138   -8.0379463    806.12296   0.01373761  0.012116367           84 
 4891000   0.47371168   -8.0316033    806.99163  0.013749602  0.012112572           53 
 4892000   0.47690877   -8.0369499     807.3702   0.01375324  0.012108777           49 
 4893000   0.47673226   -8.0114215    807.86297  0.013758822  0.012104983           53 
 4894000   0.46354338   -8.0294109    806.31252   0.01372961  0.012101192           49 
 4895000   0.46088563   -8.0373537    805.09941  0.013706153  0.012097402           44 
 4896000   0.47421393   -8.0454719    806.64608  0.013729679  0.012093611           51 
 4897000   0.47502183   -8.0293619    805.52331  0.013707769  0.012089828           48 
 4898000   0.46972803   -8.0140338    805.88689  0.013711156  0.012086039           44 
 4899000   0.47468447   -8.0377236    807.40469  0.013734175  0.012082255           65 
 4900000   0.46803701   -8.0266327    806.83407  0.013721668  0.012078472           46 
 4901000   0.47482372   -8.0290478    805.06316  0.013688757  0.012074691           48 
 4902000   0.48012082   -8.0365462    805.73809  0.013697438  0.012070909           24 
 4903000   0.46438437   -8.0290535     806.6329  0.013709853  0.012067132           51 
 4904000   0.47808551   -8.0478684    806.55442  0.013705724  0.012063359           54 
 4905000   0.47762762   -8.0259619    806.54176  0.013702714  0.012059584           50 
 4906000   0.44819082   -8.0297897       807.34   0.01371348  0.012055811           66 
 4907000   0.46746936    -8.019417    806.56901  0.013697592  0.012052037           59 
 4908000   0.46690294   -8.0299293    806.58198  0.013695021  0.012048264           35 
 4909000   0.46706283   -8.0352537    807.89509  0.013714522  0.012044495           42 
 4910000   0.46607931   -8.0407145    806.67692  0.013691054  0.012040725           51 
 4911000   0.46401001   -8.0545205    807.41289  0.013700755  0.012036955           78 
 4912000      0.45103   -8.0400702    805.77145  0.013670118  0.012033191           49 
 4913000   0.46117797   -8.0645756    807.11748  0.013690167  0.012029427           47 
 4914000   0.46910911   -8.0363544    806.01838  0.013668742  0.012025664           49 
 4915000   0.46291878   -8.0324651    806.20378  0.013669104  0.012021903           48 
 4916000   0.45414017   -8.0283195    806.01094  0.013663055  0.012018142           46 
 4917000   0.45479369    -8.047017    806.97114   0.01367655  0.012014383           94 
 4918000   0.47412068    -8.031124    806.53625    0.0136664  0.012010625           73 
 4919000   0.46778388   -8.0537562    806.44953  0.013662152  0.012006866           43 
 4920000   0.47069961   -8.0321469    806.66278  0.013662987  0.012003111           34 
 4921000   0.47177086   -8.0278711    805.92961  0.013647795  0.011999358           58 
 4922000   0.47066368    -8.035592    806.73838  0.013658716  0.011995609           61 
 4923000   0.46588046    -8.024058    806.25181  0.013647705  0.011991858           53 
 4924000   0.46501678   -8.0354311    806.21789  0.013644359  0.011988105           40 
 4925000   0.47543466   -8.0358127    806.39846  0.013644644  0.011984354           27 
 4926000   0.46225664   -8.0401396      806.475  0.013643169  0.011980604           51 
 4927000   0.46466872   -8.0308862    806.46721  0.013640268  0.011976856           33 
 4928000   0.46676554   -8.0357561    806.75444  0.013642357  0.011973111           52 
 4929000   0.46954496   -8.0480473    805.86934  0.013624625  0.011969369           40 
 4930000   0.46143167   -8.0424201    806.13717  0.013626389  0.011965629           47 
 4931000   0.45365331   -8.0354565    806.43011  0.013628576  0.011961889           51 
 4932000   0.46082663   -8.0287592    805.99856  0.013618521  0.011958151           59 
 4933000   0.46326107   -8.0500657    804.66589  0.013593248  0.011954412           34 
 4934000   0.45823763   -8.0427783    805.80477  0.013609728  0.011950676           53 
 4935000   0.44786626   -8.0406037    805.98236  0.013609969  0.011946942           53 
 4936000   0.46438938   -8.0468659    805.27708  0.013595305  0.011943208           39 
 4937000   0.46812774   -8.0595019    805.66128  0.013599036  0.011939471           47 
 4938000   0.46366845   -8.0444638     805.1823  0.013588199   0.01193574           53 
 4939000   0.45862277   -8.0413576    806.87075  0.013613936  0.011932014           72 
 4940000   0.45611883   -8.0168182    805.53077  0.013588576  0.011928283           48 
 4941000   0.47706595   -8.0385053    805.99539  0.013593662  0.011924557           53 
 4942000   0.45966832   -8.0435259    807.18307  0.013610938  0.011920832           68 
 4943000   0.45756729   -8.0477506    805.67256  0.013582719  0.011917108           51 
 4944000    0.4526427   -8.0287328    805.98268  0.013585199  0.011913379           39 
 4945000   0.45278003   -8.0421304    805.63027  0.013576513  0.011909653           50 
 4946000   0.46384328   -8.0432288      805.353  0.013569096  0.011905932           44 
 4947000   0.46479181   -8.0383099    806.70684  0.013589159  0.011902214           51 
 4948000    0.4651357   -8.0462013    806.77955  0.013587637  0.011898495           33 
 4949000   0.45910699   -8.0450617    804.97097  0.013554438   0.01189478           49 
 4950000   0.46151735   -8.0392333    806.12615  0.013571147  0.011891063           40 
 4951000   0.46273176   -8.0516667    805.51112  0.013558054  0.011887346           46 
 4952000   0.45428822   -8.0611107    806.06405  0.013564621  0.011883632           44 
 4953000   0.46696546   -8.0386671    804.85011  0.013541458  0.011879919           46 
 4954000   0.47261588   -8.0250223    806.56262  0.013567532  0.011876208           42 
 4955000   0.45224878   -8.0407996    805.78538  0.013551722  0.011872497           43 
 4956000   0.45560458   -8.0561558    805.77668  0.013548841  0.011868786           45 
 4957000   0.45735097   -8.0380102    805.59752  0.013543096  0.011865078           50 
 4958000   0.46159061   -8.0337807     806.0028  0.013547176  0.011861372           48 
 4959000   0.45637711   -8.0325733    806.32422  0.013549846  0.011857673           32 
 4960000   0.45591458    -8.037184    806.03228  0.013542209  0.011853974           34 
 4961000   0.45341404   -8.0377419    805.96427  0.013538337  0.011850278           36 
 4962000   0.45232746   -8.0534256     807.0503  0.013553848  0.011846582           48 
 4963000   0.45183166   -8.0376852    805.60784  0.013526896  0.011842885           40 
 4964000   0.44949747   -8.0447907    806.36656  0.013536908   0.01183919           55 
 4965000   0.45890817   -8.0310438     805.8403  0.013525349  0.011835497           29 
 4966000   0.45727736   -8.0336458    806.21683  0.013528944  0.011831803           33 
 4967000   0.45625086   -8.0359385    806.07873  0.013523903  0.011828114           37 
 4968000   0.46737296    -8.041433    805.26603  0.013507549  0.011824424           27 
 4969000   0.46208376   -8.0530035    805.33894  0.013506053  0.011820732           30 
 4970000   0.45239835   -8.0437695    804.19378  0.013484135  0.011817048           58 
 4971000   0.45892745   -8.0445102    805.16908  0.013497772   0.01181336           35 
 4972000   0.45351857   -8.0341875    805.57637  0.013501883  0.011809675           29 
 4973000   0.46049503   -8.0346858    804.97087  0.013489022  0.011805988           24 
 4974000   0.46495995   -8.0606055      805.903  0.013501927  0.011802305           31 
 4975000   0.44904145   -8.0416712    806.45457  0.013508452  0.011798623           48 
 4976000   0.45212855   -8.0410681    805.35752  0.013487365  0.011794944           46 
 4977000   0.45772528   -8.0512859    804.77695  0.013474934  0.011791265           34 
 4978000   0.44791288   -8.0665337    805.30409  0.013481051  0.011787587           47 
 4979000   0.45599691   -8.0417011    805.49162  0.013481483   0.01178391           30 
 4980000   0.46147179   -8.0321538     806.2678  0.013491764  0.011780234           28 
 4981000   0.44931987   -8.0489718    806.04002  0.013485244  0.011776559           35 
 4982000   0.45774697   -8.0435864    806.99423  0.013498498  0.011772891           37 
 4983000   0.44933876   -8.0430426    805.64495  0.013473225   0.01176922           35 
 4984000   0.45237037   -8.0418585     806.0755   0.01347772  0.011765552           37 
 4985000   0.44998201   -8.0495812    805.19725  0.013460335  0.011761887           44 
 4986000   0.45326269   -8.0505679    806.05853  0.013472031  0.011758221           38 
 4987000    0.4531849   -8.0447583    804.45158  0.013442477  0.011754554           22 
 4988000    0.4469001   -8.0569512    804.25718  0.013436534  0.011750889           41 
 4989000   0.45792481   -8.0555268     805.5531  0.013455487  0.011747227           24 
 4990000   0.44479166   -8.0549689    806.23172  0.013464124  0.011743569           42 
 4991000   0.44671329   -8.0518722    804.93265  0.013439736  0.011739909           37 
 4992000   0.45704184   -8.0537271    805.50394   0.01344658  0.011736253           44 
 4993000   0.42978852   -8.0609088    805.04808  0.013436279  0.011732597           37 
 4994000   0.45726073   -8.0587759      804.523  0.013424826  0.011728942           41 
 4995000   0.45964194   -8.0567001    805.11873  0.013432078  0.011725289           43 
 4996000   0.45103539   -8.0469291     804.6367  0.013421349  0.011721636           42 
 4997000   0.43479824   -8.0417975    804.55482  0.013417297  0.011717984           33 
 4998000   0.43946397   -8.0630963    805.56113  0.013431391  0.011714336           46 
 4999000   0.45175033   -8.0502026    805.69058  0.013430863   0.01171069           44 
 5000000   0.44700702   -8.0505501    804.99753  0.013416625  0.011707046           42 
 5001000   0.44564848   -8.0513953    804.54153  0.013406344  0.011703398           33 
 5002000   0.45548197   -8.0518636    805.52809    0.0134201  0.011699753           39 
 5003000   0.45041998   -8.0438791    805.70691  0.013420396  0.011696111           43 
 5004000   0.45671802   -8.0647857    805.33577  0.013411534  0.011692471           45 
 5005000   0.44512413   -8.0538878    805.63163   0.01341378  0.011688827           55 
 5006000   0.45830705   -8.0438662    805.00884  0.013400733  0.011685186           51 
 5007000   0.45258019   -8.0577137    805.01804   0.01339821  0.011681548           33 
 5008000   0.44741628   -8.0548523    805.20613  0.013398664  0.011677912           37 
 5009000   0.45178435   -8.0694664    804.59043  0.013385746  0.011674278           40 
 5010000   0.44594121   -8.0551565    805.18297   0.01339293  0.011670645           34 
 5011000   0.44514952   -8.0591646    806.33647   0.01340944  0.011667012           49 
 5012000    0.4411376   -8.0591581    804.98382  0.013384275  0.011663383           35 
Loop time of 11183.7 on 48 procs for 5000000 steps with 4000 atoms

Performance: 77255.562 tau/day, 447.081 timesteps/s
99.4% CPU use with 48 MPI tasks x no OpenMP threads

MPI task timing breakdown:
Section |  min time  |  avg time  |  max time  |%varavg| %total
---------------------------------------------------------------
Pair    | 715.25     | 748.67     | 780.86     |  53.8 |  6.69
Neigh   | 71.662     | 73.726     | 77.707     |  12.4 |  0.66
Comm    | 658.18     | 704.72     | 741.89     |  68.6 |  6.30
Output  | 13.411     | 13.416     | 13.505     |   0.4 |  0.12
Modify  | 9499.1     | 9528.6     | 9553.4     |  12.2 | 85.20
Other   |            | 114.5      |            |       |  1.02

Nlocal:        83.3333 ave          89 max          76 min
Histogram: 3 1 5 7 3 4 10 3 5 7
Nghost:        1887.88 ave        1907 max        1870 min
Histogram: 3 5 5 3 10 6 6 6 2 2
Neighs:        11801.0 ave       12979 max       10140 min
Histogram: 2 1 3 3 10 7 6 4 7 5
FullNghs:      23601.8 ave       25273 max       21408 min
Histogram: 3 3 5 3 6 3 7 7 4 7

Total # of neighbors = 1132887
Ave neighs/atom = 283.22175
Neighbor list builds = 268928
Dangerous builds = 2

#clear
#
#next RN
#
#jump SELF
Total wall time: 3:06:26
