
units lj                  # Use reduced LJ style units
atom_style atomic         # Uncharged point particles
atom_modify map hash      # Needed for indexing of clusters etc
                          # Used to be able to find where atoms are in relation to each other.

lattice fcc 1.0 spacing 1 1 1
Lattice spacing in x,y,z = 1.5874011 1.5874011 1.5874011
region box block 0 10 0 10 0 10 units lattice
create_box 2 box
Created orthogonal box = (0.0000000 0.0000000 0.0000000) to (15.874011 15.874011 15.874011)
  3 by 4 by 4 MPI processor grid
create_atoms 1 box
Created 4000 atoms
  using lattice units in orthogonal box = (0.0000000 0.0000000 0.0000000) to (15.874011 15.874011 15.874011)
  create_atoms CPU = 0.028 seconds
set type 1 type/fraction 2 0.53 78393
Setting atom values ...
  2126 settings made for type/fraction
mass 1 1.0
mass 2 1.0
pair_style lj/cut  3.5
pair_modify tail  yes
pair_coeff 1  1  1.0  1.0   # Intearaction between 1 and 1 set with epsilon = 1 and sigma = 1
pair_coeff 1  2  1.5  0.8
pair_coeff 2  2  0.5  0.88

write_data data.0
System init for write_data ...
Neighbor list info ...
  update every 1 steps, delay 10 steps, check yes
  max neighbors/atom: 2000, page size: 100000
  master list distance cutoff = 3.8
  ghost atom cutoff = 3.8
  binsize = 1.9, bins = 9 9 9
  1 neighbor lists, perpetual/occasional/extra = 1 0 0
  (1) pair lj/cut, perpetual
      attributes: half, newton on
      pair build: half/bin/atomonly/newton
      stencil: half/bin/3d
      bin: standard
WARNING: Not all mixed pair coeffs generated from mixing. Use write_data with 'pair ij' option to store all pair coeffs. (../write_data.cpp:312)


#############################
#   M E L T   S Y S T E M   #
#############################

velocity all create 2.4 5300450 mom yes dist gaussian # Assign velocities
                                                    # Temperature 2.4, random number seed, zero linear momentum
                                                                                # Gaussian distribution

timestep 0.002   # simulation timestep
thermo 1000       # output thermodynamic data every 1000 steps bf 100

# Define a fix  in this case with index 1 applied to all
# particles in the simulation. This fix is for simulations
# in the anisotropic NPT ensemble. Note that we use the MTK
# correction.
fix 1 all npt temp 2.4 2.4 0.1 iso 5.68 5.68 0.5 mtk yes tchain 5 pchain 5 # Use NPT ensemble
                                                                         # Set temperature and pressure and damping
                                                                         # Numbers of thermostats in chain and in barostat
run 10000          # run for 10000 steps
Per MPI rank memory allocation (min/avg/max) = 3.642 | 3.644 | 3.648 Mbytes
Step Temp E_pair E_mol TotEng Press Volume 
       0          2.4   -5.1225569            0   -1.5234569   -4.1795691         4000 
    1000    2.4375207   -4.7864272            0   -1.1310603    5.6716379    3666.7629 
    2000    2.3747515   -4.7656615            0   -1.2044248    5.5518305    3678.6256 
    3000    2.4148706   -4.8196226            0   -1.1982223    5.9218175    3631.3911 
    4000    2.3618339   -4.8161389            0   -1.2742737    5.5640482    3646.0819 
    5000    2.4032621   -4.8066463            0   -1.2026543    5.5618603    3668.6453 
    6000    2.4004633   -4.8515881            0   -1.2517933    5.7199341    3628.4115 
    7000    2.4552435    -4.812658            0   -1.1307134    5.5109956    3681.0155 
    8000    2.3939148   -4.7655802            0   -1.1756057    5.4753706    3692.4592 
    9000    2.3983025   -4.8010468            0   -1.2044925    5.6135192    3669.8072 
   10000    2.4168517    -4.754879            0   -1.1305077     5.804975    3672.3419 
Loop time of 2.63801 on 48 procs for 10000 steps with 4000 atoms

Performance: 655038.680 tau/day, 3790.733 timesteps/s
99.6% CPU use with 48 MPI tasks x no OpenMP threads

MPI task timing breakdown:
Section |  min time  |  avg time  |  max time  |%varavg| %total
---------------------------------------------------------------
Pair    | 1.207      | 1.2648     | 1.3153     |   2.1 | 47.95
Neigh   | 0.21501    | 0.22439    | 0.23454    |   0.7 |  8.51
Comm    | 0.81908    | 0.88427    | 0.98307    |   3.3 | 33.52
Output  | 0.00028332 | 0.00028842 | 0.00035647 |   0.0 |  0.01
Modify  | 0.2144     | 0.24839    | 0.27901    |   3.4 |  9.42
Other   |            | 0.01587    |            |       |  0.60

Nlocal:        83.3333 ave          94 max          72 min
Histogram: 3 0 4 4 7 14 6 6 3 1
Nghost:        1738.15 ave        1764 max        1708 min
Histogram: 1 0 5 8 4 10 9 6 3 2
Neighs:        10399.5 ave       11481 max        8836 min
Histogram: 1 3 1 4 8 7 8 7 4 5

Total # of neighbors = 499176
Ave neighs/atom = 124.79400
Neighbor list builds = 905
Dangerous builds = 187

# Equilibrate just above the melting temperature to avoid step fn in T

fix 1 all npt temp 1.25 1.25 0.1 iso 5.68 5.68 0.5 mtk yes tchain 5 pchain 5
run 2000
Per MPI rank memory allocation (min/avg/max) = 3.644 | 3.646 | 3.649 Mbytes
Step Temp E_pair E_mol TotEng Press Volume 
   10000    2.4168517    -4.754879            0   -1.1305077     5.804975    3672.3419 
   11000    1.2419531   -6.8941137            0   -5.0316497    5.7264272    2839.2841 
   12000    1.2402519   -7.0190775            0   -5.1591648    5.1606027     2827.244 
Loop time of 0.648374 on 48 procs for 2000 steps with 4000 atoms

Performance: 533026.018 tau/day, 3084.641 timesteps/s
99.6% CPU use with 48 MPI tasks x no OpenMP threads

MPI task timing breakdown:
Section |  min time  |  avg time  |  max time  |%varavg| %total
---------------------------------------------------------------
Pair    | 0.29914    | 0.3214     | 0.34925    |   2.1 | 49.57
Neigh   | 0.041032   | 0.043415   | 0.04645    |   0.7 |  6.70
Comm    | 0.20548    | 0.23362    | 0.26005    |   2.8 | 36.03
Output  | 5.3374e-05 | 5.5501e-05 | 7.188e-05  |   0.0 |  0.01
Modify  | 0.04143    | 0.044898   | 0.048011   |   0.9 |  6.92
Other   |            | 0.004986   |            |       |  0.77

Nlocal:        83.3333 ave          91 max          76 min
Histogram: 2 2 7 4 9 6 8 4 4 2
Nghost:        2075.81 ave        2099 max        2052 min
Histogram: 2 1 6 7 6 13 3 4 4 2
Neighs:        13509.0 ave       14891 max       11936 min
Histogram: 1 5 5 4 5 6 6 10 4 2

Total # of neighbors = 648431
Ave neighs/atom = 162.10775
Neighbor list builds = 142
Dangerous builds = 12

#############################
# L I N E A R  Q U E N C H  #
#############################

# Define solid atoms. This closely follows ten Wolde  Ruiz-Montero and Frenkel  Faraday Discuss  1996  104  93-110
# Compute components of the per-atom q6 vector
compute q6 all orientorder/atom degrees 1 6 components 6 nnn NULL cutoff 1.3 # compute the Q6 parameter.
                                                                             # Use all neighbours within 1.3 unit cell.

# get number of connections
compute coord_number all coord/atom orientorder q6 0.5

# An atom is solid if it has 8 or more connections (of a possible 14)
variable is_solid atom c_coord_number>=8
group solid dynamic all var is_solid    # Must be dynamic to update
dynamic group solid defined

# do clustering
compute cluster solid cluster/atom 1.3 # Create a cluster where all atoms within are solid and max 1.3 units from another member

# define chunks one chunk per cluster
compute clus_chunks solid chunk/atom c_cluster nchunk every compress yes  # Says which atoms are in which chunk

# count the size of each chunk
compute size_chunks solid property/chunk clus_chunks count


# Find the maximum entry in the vector of chunk sizes
variable max_n equal max(c_size_chunks)


# Thermo style which includes this variable
# thermo_style custom step temp pe vol v_max_n

thermo ${N}  # Print the thermo information every 100 steps
thermo 1000  

# Reset the npt fix at a lower temperature (below freezing)
fix 1  all npt temp  ${temp} ${temp}  0.1  iso  5.68  5.68  0.5  mtk yes tchain  5  pchain  5
fix 1  all npt temp  0.45 ${temp}  0.1  iso  5.68  5.68  0.5  mtk yes tchain  5  pchain  5
fix 1  all npt temp  0.45 0.45  0.1  iso  5.68  5.68  0.5  mtk yes tchain  5  pchain  5

dump dmp2 all dcd ${N} traj.dcd
dump dmp2 all dcd 1000 traj.dcd


compute msd all msd com yes
variable twopoint equal c_msd[4]/6/(step*dt+1.0e-6)
fix 9 all vector 10 c_msd[4]
variable fit equal slope(f_9)/6/(10*dt)
thermo_style custom step temp pe c_msd[4] v_twopoint v_fit v_max_n

fix 1 all npt temp 1.25 ${temp} 0.1 iso 5.68 5.68 0.5 mtk yes tchain 5 pchain 5
fix 1 all npt temp 1.25 0.45 0.1 iso 5.68 5.68 0.5 mtk yes tchain 5 pchain 5
run 2000000 # 5000000  # Run for this many steps
Neighbor list info ...
  update every 1 steps, delay 10 steps, check yes
  max neighbors/atom: 2000, page size: 100000
  master list distance cutoff = 3.8
  ghost atom cutoff = 3.8
  binsize = 1.9, bins = 8 8 8
  4 neighbor lists, perpetual/occasional/extra = 1 3 0
  (1) pair lj/cut, perpetual
      attributes: half, newton on
      pair build: half/bin/atomonly/newton
      stencil: half/bin/3d
      bin: standard
  (2) compute orientorder/atom, occasional
      attributes: full, newton on
      pair build: full/bin/atomonly
      stencil: full/bin/3d
      bin: standard
  (3) compute coord/atom, occasional
      attributes: full, newton on
      pair build: full/bin/atomonly
      stencil: full/bin/3d
      bin: standard
  (4) compute cluster/atom, occasional
      attributes: full, newton on
      pair build: full/bin/atomonly
      stencil: full/bin/3d
      bin: standard
Per MPI rank memory allocation (min/avg/max) = 9.842 | 9.846 | 9.850 Mbytes
Step Temp PotEng c_msd[4] v_twopoint v_fit v_max_n 
   12000    1.2402519   -7.0190775 1.0643706e-30 7.391462e-33 8.3333333e+20            2 
   13000    1.2423882    -7.009986   0.44252845 0.0028367208   0.03563688            2 
   14000    1.2441318   -7.0206415   0.80917517 0.0048165187  0.032971249            2 
   15000    1.2219592   -6.9778245    1.2310923 0.0068394015  0.032940181            2 
   16000     1.256791   -6.9718145    1.6812408 0.0087564624  0.033539819            2 
   17000    1.2118788     -7.01707    2.0664049  0.010129436  0.033926537            3 
   18000    1.2408438   -7.0456767      2.49203  0.011537176  0.034022843            2 
   19000    1.2438012   -7.0166006     2.903803  0.012735978   0.03420019            2 
   20000    1.2371157   -7.0323313    3.2664435  0.013610181  0.034084518            2 
   21000    1.2271609   -7.0224687    3.6791926   0.01459997  0.033914418            1 
   22000    1.2201349   -7.0161469    4.0581385  0.015371737  0.033772014            1 
   23000    1.2376755   -7.0499771    4.4427417   0.01609689  0.033622867            1 
   24000     1.242228   -7.0357884    4.8582853  0.016869046  0.033552064            2 
   25000    1.2418832   -6.9848817    5.3075931  0.017691977  0.033562879            1 
   26000    1.2511412   -7.0765726    5.7439676  0.018410152  0.033710073            2 
   27000    1.2594595   -7.0112235    6.1982661  0.019130451  0.033872153           10 
   28000    1.2425623   -7.0827121    6.6110475  0.019675736  0.034045091            5 
   29000    1.2484091   -7.0354596    6.9697692  0.020028072  0.034113249            3 
   30000    1.2424834   -7.0469718     7.335373  0.020376036  0.034094929            3 
   31000    1.2216201   -7.1055736    7.7419404  0.020811667  0.033989341            3 
   32000    1.2179847   -7.0834516    8.1615982  0.021254162  0.034003101            2 
   33000    1.2289378   -7.0422409    8.6835582  0.021928177  0.034075136            2 
   34000    1.2632475   -7.0484126    9.0558636  0.022195744  0.034145372            3 
   35000     1.261406   -7.0555682    9.5816883  0.022813543  0.034222049            2 
   36000    1.2249736   -7.0508631    9.9964254  0.023139873  0.034320628            1 
   37000    1.2476213   -7.0509382    10.417664  0.023463208  0.034414672            6 
   38000    1.2373526   -7.0507992    10.841197  0.023774554  0.034510397            2 
   39000    1.1982581   -7.0494763    11.287766  0.024119158  0.034610749            2 
   40000    1.2065048   -7.0149046    11.654724  0.024280674  0.034677778            3 
   41000    1.2216753   -7.0141712    12.058015   0.02450816  0.034683372            2 
   42000    1.2126315   -7.0677152    12.287744  0.024380443  0.034645426            3 
   43000    1.2132003   -7.0604882    12.709565  0.024630939  0.034579261            1 
   44000    1.2537222    -7.062888    12.972957  0.024569995   0.03448781            2 
   45000     1.244942   -7.0286892     13.37446  0.024767519  0.034373667            1 
   46000    1.2394564   -7.0517783    13.613228  0.024661644  0.034244868            3 
   47000    1.2263253   -7.0154266    13.995821  0.024815285  0.034090051            2 
   48000    1.2678134   -7.0398184    14.343412  0.024901756  0.033955852            2 
   49000    1.2360435    -7.059594    14.579968  0.024795863  0.033804328            1 
   50000     1.254528   -7.0860555    14.941162  0.024901936  0.033638989            3 
   51000    1.2400648   -7.0233172    15.269548  0.024950241  0.033464748            1 
   52000    1.2363065   -7.0473678    15.625742  0.025041253  0.033296593            1 
   53000    1.2478263   -7.0859979    16.022691   0.02519291  0.033158415            3 
   54000    1.2627685   -7.0948174    16.342865  0.025220471   0.03302115            2 
   55000    1.2373303   -7.0902165    16.703349  0.025308105  0.032877361            1 
   56000    1.2242062   -7.0843838    17.066555  0.025396659  0.032757606            1 
   57000    1.2351395   -7.0508939    17.490541  0.025570965  0.032661529            3 
   58000     1.234687   -7.0853887    17.759447  0.025516446  0.032565347            1 
   59000    1.2279433   -7.0815319    18.114263  0.025585117  0.032459792            2 
   60000    1.2277448   -7.0489991    18.553263  0.025768421  0.032350844            2 
   61000    1.2128506   -7.1125748    18.810853  0.025697886  0.032257467            2 
   62000    1.2136989   -7.0615376    19.264178  0.025892713  0.032164917            2 
   63000     1.243138   -7.0808291    19.512834  0.025810627  0.032078004            2 
   64000    1.2172661   -7.1626304    19.756249  0.025724282  0.031974149            3 
   65000    1.2260407   -7.0848435    20.188158  0.025882254  0.031879031            1 
   66000    1.2422622   -7.0722569    20.592537  0.026000678  0.031796037            1 
   67000    1.2241639   -7.0771734    20.798168  0.025868368  0.031710283            4 
   68000     1.224914   -7.0684535    21.233675   0.02602166   0.03162272            2 
   69000    1.2345968   -7.1096449    21.553238   0.02603048  0.031550659            1 
   70000    1.2301006   -7.0806579    21.962305  0.026145601  0.031481303            5 
   71000    1.2318034   -7.0875921    22.419561  0.026314039  0.031423052            2 
   72000    1.2390732   -7.1034691    22.616638  0.026176665  0.031371853            3 
   73000    1.2465395   -7.0903454     22.98532  0.026238949  0.031307315            2 
   74000    1.2122197   -7.0764581    23.401273  0.026352784  0.031260815            2 
   75000    1.2349258    -7.096983    23.811727  0.026457474  0.031215753            1 
   76000    1.1825774   -7.0508763    24.385496  0.026738483  0.031189056            2 
   77000    1.2295337    -7.018858    24.752814   0.02678876  0.031163111            2 
   78000    1.2473682   -7.0480287     25.06578  0.026779679   0.03114455            1 
   79000     1.204126   -7.0921169    25.247752   0.02663265  0.031119982            2 
   80000    1.2234583   -7.0987654    25.681808  0.026751883  0.031087856            4 
   81000    1.2091722   -7.1188088    25.944105  0.026691466  0.031053343            2 
   82000    1.2092548   -7.1555495    26.236682  0.026663295  0.031018743            3 
   83000    1.2149864   -7.0831951    26.699294   0.02680652   0.03098791            1 
   84000    1.1842653   -7.1340662    27.043613  0.026828981  0.030965954            1 
   85000    1.2234074   -7.0997197    27.213586  0.026679986  0.030925869            1 
   86000    1.2031621   -7.0855704    27.389765   0.02654047  0.030870227            3 
   87000    1.2225072    -7.125925    27.876324   0.02670146  0.030817469            3 
   88000     1.218022   -7.1276853    28.204479  0.026708786  0.030777078            1 
   89000    1.1944696   -7.1315756    28.594484  0.026773861  0.030740266            2 
   90000    1.2048887   -7.1408491    29.021097  0.026871386   0.03070592            3 
   91000    1.2254319   -7.0902646    29.310694  0.026841294  0.030682115            2 
   92000    1.1949528   -7.1235162     29.79662  0.026989692  0.030650141            2 
   93000    1.1998853   -7.1116529    30.159394  0.027024546  0.030623914            3 
   94000    1.1942681   -7.1511473    30.339267  0.026896514    0.0305966            3 
   95000    1.2178078   -7.1269941    30.772742  0.026993633  0.030569257            3 
   96000    1.2000775   -7.1006679     31.11696   0.02701125  0.030543472            2 
   97000     1.211926   -7.0661038    31.486535  0.027050288  0.030513764            2 
   98000    1.2183209   -7.1056044    31.781803  0.027025343  0.030483829            5 
   99000    1.2035866   -7.0978393    32.197057    0.0271019  0.030458427            1 
  100000    1.2092253   -7.1192678    32.392763  0.026993969  0.030430959            1 
  101000    1.1856015   -7.1488298    32.700452  0.026980571   0.03039905            2 
  102000    1.2110025   -7.1690148    32.980936  0.026945209   0.03036826            2 
  103000    1.2063784    -7.098393    33.532253  0.027129654  0.030335693            2 
  104000    1.2163217   -7.1017383    33.808175  0.027089884  0.030310829            3 
  105000    1.2202641   -7.1823301    34.054584  0.027027448  0.030280427            3 
  106000     1.199744   -7.1358663    34.604373  0.027204696  0.030251581            3 
  107000    1.2198668   -7.1077804    34.852469  0.027143667  0.030225416            7 
  108000    1.1802149   -7.1146963    35.224075   0.02717907  0.030202902            1 
  109000    1.2060446   -7.1524213    35.629364  0.027239575  0.030186179            6 
  110000    1.1930278   -7.1178515    36.194663  0.027420199  0.030166075            1 
  111000    1.2023146   -7.1459258    36.422953  0.027344559   0.03015094            3 
  112000    1.2176249   -7.1277782    36.933169  0.027480036  0.030138456            2 
  113000    1.2109212   -7.1329174    37.265928  0.027482248  0.030129293            2 
  114000    1.2002667   -7.1332777     37.47499  0.027393998  0.030117729            2 
  115000    1.1980449   -7.1132628    38.089107  0.027600802  0.030110338            3 
  116000    1.2005158   -7.1742139    38.363373  0.027559894  0.030104431            2 
  117000    1.2284892    -7.108317    38.678337  0.027548673  0.030099985            2 
  118000    1.2004193   -7.0791376    38.965539  0.027518036  0.030095762            3 
  119000    1.2230603   -7.1527169    39.273335  0.027502336  0.030089571            2 
  120000    1.2044492   -7.1536082    39.710382  0.027576654  0.030082641            4 
  121000    1.1944243   -7.1153487    40.144381  0.027647645  0.030078647            1 
  122000    1.2288816   -7.1502171    40.321445  0.027541971  0.030072746            2 
  123000    1.2218537   -7.1466962    40.789382  0.027635082  0.030062693            2 
  124000    1.2090509   -7.1106351    41.131203  0.027641937  0.030051789            3 
  125000    1.2064222   -7.1337514    41.137777  0.027425184  0.030037141            2 
  126000    1.2189193   -7.1529151    41.566822  0.027491284  0.030019641            2 
  127000    1.2100776   -7.1781876    41.752012  0.027396333  0.030003575            1 
  128000    1.1978615   -7.1428657    42.159709  0.027447727  0.029986639            1 
  129000    1.2082506   -7.1407546    42.513262  0.027463348  0.029964854            1 
  130000    1.2162981   -7.1535742    42.514838  0.027253101  0.029943047            3 
  131000     1.202394   -7.1371522    43.136728  0.027440666  0.029920482            1 
  132000    1.1832155   -7.1310864    43.211862  0.027280216  0.029896547            1 
  133000    1.2163636   -7.0999737    43.613798  0.027326941  0.029868097            3 
  134000    1.1625548   -7.1858305    43.845589  0.027267157  0.029841734            3 
  135000     1.216879   -7.1479244    44.353851   0.02737892  0.029815291            3 
  136000    1.2209726    -7.143464    44.663438  0.027367303  0.029789197            2 
  137000    1.1657264    -7.141949    44.918503  0.027322691  0.029764578            2 
  138000    1.1996488   -7.1450815    45.242009  0.027320054  0.029737625            2 
  139000    1.2238266   -7.1484405    45.472278  0.027261558  0.029707425            2 
  140000    1.2010887   -7.1569539    45.835944    0.0272833   0.02967988            3 
  141000    1.1882829   -7.1513136    46.076517  0.027231984   0.02965163            4 
  142000    1.1977219   -7.1290792    46.321068  0.027183725  0.029623183            3 
  143000    1.2110886    -7.129688    46.716456  0.027224042  0.029594307            2 
  144000    1.1842333   -7.1365077    47.082986  0.027247098   0.02956359            3 
  145000    1.1995879   -7.1330846    47.473808  0.027283798    0.0295376            1 
  146000    1.2058046   -7.1719155    48.060164  0.027431601  0.029518696            2 
  147000    1.2168007   -7.1673245    48.400724  0.027438052  0.029503024            2 
  148000    1.1931356    -7.139562    48.873988  0.027519138  0.029488899            2 
  149000    1.1982066   -7.1558058    49.246066  0.027542542  0.029476772            2 
  150000    1.1942484   -7.1614575    49.653043  0.027585024  0.029465117            2 
  151000    1.1942121   -7.1422808    49.869561  0.027521833  0.029452908            3 
  152000    1.1865673    -7.156147     50.34208  0.027599825  0.029443311            1 
  153000     1.236241   -7.1615751    50.600905  0.027560406  0.029432576            2 
  154000    1.1976186   -7.1776111    50.951269  0.027571033  0.029420377            2 
  155000     1.197385      -7.1852    51.122356  0.027485137  0.029407533            2 
  156000    1.2035741   -7.1990761    51.308536  0.027408406  0.029393081            2 
  157000    1.1865442    -7.135205    51.895083  0.027545161  0.029376444            2 
  158000    1.2152926   -7.1265178    52.246366    0.0275561  0.029361572            2 
  159000    1.1825575   -7.1686916    52.299173  0.027410468  0.029345415            2 
  160000    1.1962884   -7.1725214    52.568574  0.027379466  0.029326302            2 
  161000    1.2048878   -7.2083318    52.772679  0.027315051  0.029306976            3 
  162000    1.1843397   -7.2218717    52.994164  0.027260372  0.029284451            3 
  163000    1.2109135   -7.1565508     53.34691  0.027273471  0.029261867            2 
  164000    1.1815862   -7.1878577    53.678058  0.027275436  0.029240063            2 
  165000    1.1787293   -7.1247761    54.242919  0.027395413  0.029221134            1 
  166000    1.1931617   -7.2066963    54.389849  0.027304141  0.029201368            3 
  167000    1.1854836   -7.1252936    54.777513  0.027334088  0.029180258            1 
  168000    1.1975986   -7.1866267    54.992381  0.027277967  0.029159085            4 
  169000     1.223786   -7.2089517    55.072776  0.027156201  0.029138892            2 
  170000    1.1956459   -7.1638167    55.664045  0.027286297  0.029116787            2 
  171000    1.1803244   -7.1497003    55.789437  0.027187835   0.02909306            1 
  172000    1.1708458   -7.1777921    55.899979  0.027083323  0.029065854            2 
  173000    1.1741705     -7.17852    56.223468  0.027082595  0.029038465            3 
  174000    1.1824741   -7.1893455    56.499253  0.027059029  0.029011215            2 
  175000    1.1858211   -7.2143639    56.738064  0.027018126  0.028982117            5 
  176000    1.1874089   -7.1947516    57.124376  0.027047526  0.028953408            4 
  177000    1.1695324   -7.1694206    57.514527  0.027078402  0.028928028            3 
  178000     1.179911   -7.1266319    57.819639  0.027069119  0.028902717            1 
  179000    1.1572542   -7.2197564    57.901198  0.026955865  0.028877673            3 
  180000    1.1988804   -7.2064762    58.413143  0.027043122  0.028851677            2 
  181000    1.1712252   -7.1929988    58.893855  0.027115034  0.028828377            2 
  182000    1.1921071   -7.2139578    59.150872  0.027083733  0.028805752            2 
  183000    1.2003713    -7.224498    59.175115  0.026946773  0.028784287            2 
  184000    1.1801006   -7.2129225    59.602259  0.026993776  0.028763213            2 
  185000    1.1739988   -7.1887499    60.269741  0.027148532  0.028742537            2 
  186000    1.2036255   -7.1945153    60.195718  0.026969408  0.028721085            4 
  187000    1.1486834   -7.1990258    60.704624  0.027051971  0.028697604            2 
  188000    1.1534305   -7.2282689    60.990855  0.027034953  0.028676786            4 
  189000    1.1921975   -7.2367645    61.303947  0.027029959  0.028657321            2 
  190000    1.1643742   -7.2411388    61.782125  0.027097423   0.02863696            3 
  191000    1.1708874   -7.1690848    61.951903  0.027029626  0.028617075            1 
  192000    1.1869054   -7.2237337    62.002044  0.026910609  0.028592656            2 
  193000    1.1557566   -7.2468691    62.437396  0.026959152   0.02856871            2 
  194000    1.1830295   -7.2014782    62.557572  0.026871809  0.028544804            2 
  195000    1.1562256   -7.1952459    62.921266   0.02688943  0.028521453            3 
  196000    1.1800961    -7.172953    63.239881  0.026887705  0.028497521            3 
  197000    1.1792879   -7.2056245     63.31966  0.026784966  0.028473957            2 
  198000     1.184705   -7.2683717     63.56839  0.026754373  0.028449042            2 
  199000    1.1778509   -7.1793375    64.070895  0.026830358  0.028424694            7 
  200000    1.1873292   -7.1977044     64.15655  0.026731896  0.028401169            6 
  201000    1.1456935   -7.2514136    64.334096  0.026672511  0.028375524            4 
  202000    1.2048094   -7.1634678    65.168347  0.026884632  0.028351444            2 
  203000    1.1845184   -7.2283841    65.311012   0.02681076   0.02833003            5 
  204000    1.1700401   -7.1795548    65.584157  0.026790914  0.028307458            3 
  205000    1.1535266   -7.2359685     65.99188  0.026825967  0.028287129            1 
  206000    1.1650568   -7.1823231    66.460572  0.026885345  0.028268094            3 
  207000    1.1646336    -7.190492    66.982372  0.026965528  0.028252213            1 
  208000     1.161692   -7.2426609    67.336572  0.026977793  0.028236915            2 
  209000    1.1535514   -7.2686303    67.444526  0.026891757  0.028220408            2 
  210000    1.1808709   -7.2168228    67.927414  0.026955323   0.02820343            4 
  211000    1.1761949   -7.2274796    68.133317  0.026908893  0.028187334            4 
  212000    1.1378028   -7.2017427    68.340528  0.026863415  0.028169442            4 
  213000    1.1603565   -7.2408424    68.357714   0.02674402  0.028151327            2 
  214000    1.1714754   -7.2857355    68.632518  0.026726058  0.028132479            2 
  215000    1.1581965   -7.2623893    69.135262  0.026796613   0.02811494            8 
  216000    1.1807174   -7.2472476    69.273466  0.026725874  0.028097952            2 
  217000    1.1479289    -7.264051    69.415259  0.026657166  0.028078865            2 
  218000    1.1587976   -7.2607598    69.640099  0.026620833  0.028056834            1 
  219000    1.1594135   -7.3000386    69.942867  0.026614485  0.028035789            8 
  220000    1.1808286   -7.2567539    70.545157   0.02672165  0.028015246            2 
  221000    1.1706342   -7.1918641    70.990957  0.026768837  0.027997037            2 
  222000    1.1878579   -7.2464758     71.06782   0.02667711  0.027978829            2 
  223000    1.1571576   -7.2428575     71.50896  0.026722332  0.027960659            4 
  224000    1.1801431   -7.2547578      72.0451  0.026802492  0.027943547            6 
  225000    1.1647909   -7.2380764    72.343883  0.026794031  0.027925841            3 
  226000    1.1838758   -7.2341645    72.644594  0.026786355  0.027909702            2 
  227000    1.1841316    -7.232887    72.870118  0.026751145  0.027893912            8 
  228000    1.1888709   -7.2215937    73.025171  0.026690486  0.027877577            4 
  229000    1.1778824   -7.2676872    73.315411  0.026679553   0.02786116            2 
  230000    1.1612978   -7.1980078    73.615531  0.026672294  0.027843858            1 
  231000    1.1796221   -7.2525599    74.259204  0.026789034  0.027829945            5 
  232000    1.1736329   -7.2701317    74.297551  0.026687339  0.027816354            3 
  233000    1.1875587   -7.2870105    74.773142  0.026742898  0.027801914            2 
  234000    1.1555484   -7.2304421    75.244521  0.026796482  0.027789734            3 
  235000    1.1600045   -7.2349042     75.60532  0.026810397  0.027778049            4 
  236000    1.1383679    -7.262069    75.988492  0.026832095  0.027765363            2 
  237000    1.1570016   -7.2922751    76.072683  0.026748482  0.027752879            4 
  238000    1.1667399   -7.2447612    76.589983  0.026817221   0.02774132            2 
  239000    1.1714113   -7.2219352     77.06781  0.026871621  0.027731579            2 
  240000    1.1371608   -7.2558577    77.291544  0.026837342  0.027722453            2 
  241000    1.1385505   -7.2749696    77.405697  0.026765455  0.027710022            3 
  242000    1.1492899   -7.2481976    77.835862  0.026802983  0.027698123            2 
  243000    1.1614398   -7.2602711    77.883774  0.026709113  0.027685489            2 
  244000    1.1402371   -7.2178513    78.636547  0.026856744  0.027674964            2 
  245000     1.137915    -7.208688    79.080803  0.026898232  0.027664831            2 
  246000    1.1635609   -7.2717263    79.063425  0.026783003  0.027652457            5 
  247000    1.1559735   -7.2416525    79.264124  0.026742282  0.027640056            1 
  248000    1.1546946   -7.2532488    79.446027  0.026695573  0.027628984            2 
  249000    1.1578631   -7.2814608    79.812042  0.026710858  0.027618295            4 
  250000    1.1502995   -7.2838897    80.457488  0.026819162  0.027609493            8 
  251000    1.1669648     -7.24567    80.953794   0.02687709  0.027601013            2 
  252000    1.1710471   -7.2611478    81.202052   0.02685253  0.027593039            3 
  253000    1.1586498   -7.2549033    81.310916  0.026782252  0.027584658            2 
  254000    1.1324435   -7.2451822    81.934437  0.026881377  0.027576649            2 
  255000    1.1603505   -7.2961217    81.613802  0.026671177  0.027568328            2 
  256000    1.1699812   -7.2975471    82.023947  0.026700503  0.027557384            2 
  257000    1.1849243   -7.2674966    82.480223   0.02674456  0.027547259            1 
  258000    1.1518627    -7.338382    82.231579  0.026560588   0.02753596            2 
  259000    1.1729859   -7.2276783    82.580575  0.026570326  0.027523195            2 
  260000    1.1435965   -7.3177663    82.942362   0.02658409  0.027510442            1 
  261000    1.1634236   -7.3083218    83.156748  0.026550686  0.027497363            2 
  262000    1.1560533   -7.2434251    84.146191  0.026764056    0.0274862            3 
  263000    1.1624193   -7.2787345    84.005506  0.026617714  0.027476648            5 
  264000    1.1378484   -7.2686858    84.731721  0.026746124  0.027466662            3 
  265000    1.1723693   -7.2984727    84.485223   0.02656768  0.027455034            2 
  266000    1.1731389   -7.2925549    85.391601  0.026751755  0.027445495            2 
  267000    1.1637475   -7.2782182    85.734176  0.026758482  0.027436706            1 
  268000    1.1462493   -7.2483651    85.889486   0.02670693   0.02742703            5 
  269000    1.1642543   -7.3243641     86.00372  0.026643036  0.027417345            2 
  270000    1.1395179    -7.298655    86.347547  0.026650478  0.027407419            2 
  271000    1.1506873   -7.2778757    86.847307  0.026705814  0.027397103            1 
  272000    1.1648509   -7.2679506    87.194064  0.026713868  0.027387431            4 
  273000    1.1111237   -7.3069628    87.054981  0.026573559  0.027377792            4 
  274000    1.1489091   -7.3281328    87.337404  0.026562471   0.02736807            2 
  275000    1.1327381   -7.2854879    87.651261  0.026560988  0.027357501            2 
  276000    1.1475387   -7.3022045      88.0856  0.026595894  0.027348365            4 
  277000    1.1451654    -7.265591     88.25154  0.026549801  0.027338351            5 
  278000    1.1394919   -7.2764164    88.470525  0.026519941  0.027327322            8 
  279000    1.1464996    -7.256042    89.041608  0.026595462  0.027316184            1 
  280000    1.1230067   -7.2498579    89.301196  0.026577737  0.027304711            3 
  281000    1.1514124   -7.2687673    89.243516  0.026466049  0.027293127            1 
  282000    1.1563465   -7.3080686    89.445517   0.02643189   0.02728152            1 
  283000    1.1341934   -7.2714517      90.0991  0.026530948  0.027270646            4 
  284000    1.1442352   -7.2825201    90.030154  0.026417299  0.027259378           11 
  285000    1.1503964    -7.295641    90.564138  0.026480742  0.027247667            2 
  286000    1.1504633   -7.3529031    90.403492  0.026341344  0.027234086            6 
  287000     1.138713   -7.3207704    90.488946  0.026274375  0.027220265            1 
  288000      1.15941   -7.2421967    91.427199  0.026454629  0.027207312            2 
  289000    1.1419009   -7.2807128    91.331516  0.026335501  0.027194892            2 
  290000    1.1217993   -7.3113753    91.407116  0.026266413  0.027181142            2 
  291000    1.1270499   -7.3091254     91.98386  0.026341312  0.027166597            2 
  292000    1.1522406   -7.3021445    92.226323  0.026320298  0.027152684            5 
  293000    1.1253251   -7.2824879    92.654424  0.026352225  0.027139485            5 
  294000    1.1400806   -7.2585418    93.030968  0.026369322  0.027126584            1 
  295000    1.1426676   -7.3012446    92.994881   0.02626974  0.027113422            3 
  296000    1.1535615    -7.312073    93.685408  0.026375396  0.027100726            2 
  297000     1.140465   -7.3751452     93.67611  0.026283981  0.027089271            4 
  298000    1.1269944    -7.340034    94.319491  0.026375697   0.02707784            3 
  299000    1.1353925   -7.2977323    94.827039  0.026428941  0.027067059            2 
  300000    1.1330765   -7.3185624    95.018155  0.026393932  0.027057087            1 
  301000    1.1244301   -7.2594464     95.43228  0.026420897   0.02704609            3 
  302000    1.1366375   -7.3353377    95.145978  0.026254409  0.027033971            2 
  303000    1.1373334   -7.3255429    95.422919  0.026243927  0.027022346            5 
  304000    1.1338906   -7.3381219    95.642862   0.02621789  0.027009593            2 
  305000     1.122834   -7.3356721    95.946204   0.02621481  0.026998218            1 
  306000     1.157114   -7.3412521    96.216372  0.026202716   0.02698583            2 
  307000     1.112451   -7.3201891     96.60965  0.026224118  0.026973767            2 
  308000    1.1372777     -7.32951    96.869086  0.026209168  0.026961267            2 
  309000    1.1203814   -7.3499372    97.076737   0.02618035  0.026949149            3 
  310000    1.1342734   -7.3866066    97.354175  0.026170477   0.02693649            2 
  311000    1.1261858   -7.3427209    97.484926  0.026121363  0.026923912            4 
  312000    1.1219994   -7.3177552    97.965934  0.026166115  0.026910529            3 
  313000    1.1205354   -7.3004875     98.23561  0.026154316  0.026897914            5 
  314000    1.1232064   -7.3063507    98.715658  0.026198423  0.026884808            3 
  315000    1.1017947   -7.3243496    98.925841  0.026170857  0.026873226            1 
  316000    1.1228258   -7.3230779    99.064428  0.026124585  0.026860701            5 
  317000    1.1282614   -7.3289554    99.304434  0.026105267  0.026847685            3 
  318000    1.1445347   -7.3649956     99.49714  0.026073674  0.026835209            5 
  319000    1.1339301   -7.2905982     100.0058  0.026124818  0.026823933            3 
  320000    1.1353205    -7.363008    100.21632  0.026098001   0.02681284            6 
  321000    1.1261234    -7.315778    100.87077  0.026186597  0.026802253            7 
  322000    1.1169657   -7.3628497    101.19065  0.026188056  0.026791372            1 
  323000    1.1367229   -7.3248535    101.44954  0.026173771  0.026781375            3 
  324000    1.1465165   -7.3758801    101.30481  0.026055764  0.026770908            1 
  325000    1.1423968   -7.3393472    101.58187  0.026046633  0.026760096            1 
  326000    1.1129045   -7.3328544    102.12458  0.026105466  0.026748092            1 
  327000    1.1139472   -7.3391692    102.60178  0.026147241  0.026737005            3 
  328000    1.1365096   -7.3194956    103.03611  0.026177874  0.026726094            5 
  329000    1.1235213   -7.3612914    103.11339  0.026117881  0.026714379            2 
  330000    1.0961406   -7.4481715    102.52598    0.0258904  0.026701418            2 
  331000    1.0971376   -7.4150198    102.86494  0.025897517  0.026688438            4 
  332000    1.1362788   -7.3962067    103.55657  0.025993115  0.026674515            3 
  333000    1.1196445   -7.4062151     103.7076  0.025952852  0.026660705            2 
  334000    1.1087037   -7.3438396    104.09306  0.025971323  0.026647839            3 
  335000    1.1151949   -7.2980496    104.36826  0.025962253   0.02663567            4 
  336000    1.1296648   -7.3397573    104.70731  0.025969075  0.026623035            2 
  337000    1.1217098   -7.3913639    105.09779  0.025988573   0.02661071            5 
  338000    1.1421746    -7.366329    105.38177  0.025981698  0.026598544            8 
  339000    1.1153666    -7.366611    105.71411  0.025986752   0.02658647            2 
  340000    1.1351296   -7.4092088    105.27876  0.025803618  0.026573699            2 
  341000    1.1194506    -7.405789    105.56837  0.025798721  0.026559809            2 
  342000     1.127865   -7.3465541    105.63864  0.025740409   0.02654511            2 
  343000    1.1063677   -7.3363547    106.03977   0.02576282   0.02652978            3 
  344000    1.1168808   -7.3790026    106.32497  0.025757017  0.026515087            1 
  345000    1.0966998   -7.3858766    106.31202  0.025679231  0.026499621            2 
  346000    1.1510635   -7.2992534     106.9412  0.025756552  0.026483778            3 
  347000    1.1226671    -7.339717     106.5916  0.025598367  0.026467185            4 
  348000    1.0842379   -7.3931124    106.58296   0.02552274  0.026449068            3 
  349000    1.0998981   -7.4200657    106.29672   0.02538126  0.026430423            2 
  350000    1.1274346   -7.4206097    106.65429  0.025393879  0.026411426            4 
  351000     1.130586    -7.381637    107.16718    0.0254433  0.026392558            1 
  352000    1.1387797   -7.3416541    107.56066  0.025464171  0.026373546            2 
  353000    1.1374033   -7.3919197    107.48918  0.025375161  0.026354479            4 
  354000    1.1041062   -7.3654985    107.47757  0.025300746  0.026334175            3 
  355000    1.1096325   -7.3864806    107.30566  0.025189122  0.026312571            3 
  356000    1.1019056   -7.3544574    107.57959  0.025182488  0.026291154            3 
  357000      1.12666   -7.3307265    108.36448  0.025295164  0.026271351            2 
  358000    1.1363299   -7.4093424    108.21056  0.025188678  0.026250807            2 
  359000    1.0999325   -7.3462126    108.57415  0.025202913  0.026229657            2 
  360000    1.1199946   -7.4074498    108.67475  0.025156192  0.026209101            2 
  361000    1.1109379   -7.3835993    109.03843   0.02517046  0.026188223            2 
  362000      1.11221   -7.3788862    109.16906     0.025131  0.026167094            2 
  363000    1.0875733   -7.3850204    109.37729   0.02510957  0.026146569            2 
  364000    1.1093599   -7.3674555    109.55291  0.025080794  0.026126105            2 
  365000     1.141966    -7.390336    109.93517  0.025099353  0.026105864            2 
  366000    1.0998214   -7.3604877    110.78587  0.025224469  0.026085794            2 
  367000    1.1036879    -7.380219    110.78296  0.025155078  0.026066513            2 
  368000    1.0980703   -7.4180448    111.08738  0.025155658   0.02604738            3 
  369000    1.1171661   -7.4068035    111.52677  0.025186714  0.026028951            3 
  370000    1.1153446    -7.371572    112.14189  0.025257183  0.026011237            2 
  371000    1.1284123   -7.3725155     112.1271  0.025185782  0.025994215            3 
  372000    1.1044986   -7.3950244    112.54432   0.02521154  0.025977565            2 
  373000    1.0861401   -7.4174451    112.54984  0.025145183  0.025960764            4 
  374000    1.1050968   -7.3857619    113.18191  0.025218785  0.025944626            3 
  375000    1.0987999   -7.3877089    113.44439  0.025209864  0.025928137            5 
  376000    1.0917217   -7.3799927    113.56455  0.025169449  0.025911634            2 
  377000    1.1281491   -7.4193283    113.83751  0.025163021  0.025895513            3 
  378000    1.1170464   -7.4177429    114.14641  0.025164553  0.025878948            2 
  379000    1.1392216   -7.4103722    114.45155  0.025165249  0.025862687            3 
  380000    1.1068683   -7.4174364    114.29547  0.025064795   0.02584673            4 
  381000    1.1093152   -7.3773316    114.68694  0.025084633  0.025830544            2 
  382000    1.1043127   -7.3879325    115.37529  0.025169129  0.025814711            3 
  383000    1.0900418   -7.4420337    115.29586  0.025086132   0.02579876            1 
  384000    1.0871912   -7.4109793    115.42096  0.025047951  0.025782143           10 
  385000    1.1131775   -7.3826056    116.07299  0.025124025  0.025765402            4 
  386000    1.0986946   -7.4148819    115.81101  0.025002376  0.025748711            5 
  387000     1.111409   -7.3974733    116.25339  0.025033031  0.025731638            2 
  388000    1.1031113   -7.4427853    116.02045  0.024918482  0.025714889            1 
  389000    1.0714344   -7.4528148    116.45229  0.024946934  0.025698154            2 
  390000    1.0962738   -7.4101393     116.8494  0.024967821  0.025681722            4 
  391000    1.1254994   -7.4175917    117.02465  0.024941315  0.025664976            3 
  392000    1.1462355    -7.419311    117.51452  0.024981828  0.025647735            3 
  393000    1.0964467   -7.3831924    117.59942  0.024936263  0.025630988            1 
  394000     1.085115   -7.4042678    117.92873  0.024942625  0.025613804            3 
  395000    1.1093475   -7.4196287    118.17166   0.02493073  0.025596292            2 
  396000    1.1326518   -7.4505195    117.65232  0.024758484  0.025579091            5 
  397000     1.088001   -7.4354993    118.29197  0.024830387  0.025561733            5 
  398000    1.0931205    -7.436485    118.39151  0.024788842   0.02554425            3 
  399000    1.1139725   -7.4523452    118.36135  0.024720415  0.025526464            3 
  400000    1.0900315   -7.4407838    118.60589   0.02470956  0.025508086            6 
  401000    1.1037925   -7.4559934    118.62935  0.024652816  0.025490035            1 
  402000    1.0831093   -7.4464456      119.191  0.024707919  0.025471974            3 
  403000    1.0889828   -7.5007683    119.39759  0.024689328  0.025454172            3 
  404000    1.0824209   -7.4570001    119.54631  0.024658893  0.025436287            1 
  405000    1.0768935   -7.4437032    120.25761  0.024744364  0.025419367            3 
  406000    1.0872043   -7.3932403    120.81099     0.024797  0.025402834            1 
  407000     1.111466   -7.4415077    120.50417  0.024673254  0.025386219            2 
  408000    1.0848603   -7.4001044     120.6534   0.02464326  0.025369407            3 
  409000    1.0876556    -7.415163    121.04595   0.02466299  0.025352703            2 
  410000    1.1042656    -7.415663     121.3295  0.024660468  0.025336279            3 
  411000    1.0685589   -7.4411322    121.50161  0.024635362  0.025319975            3 
  412000    1.0848705   -7.4325285     122.0573  0.024687966  0.025303611            4 
  413000    1.1002658   -7.4180009    122.15732  0.024648369  0.025287472            4 
  414000    1.0843895   -7.4636077    121.98736  0.024554621  0.025271213            3 
  415000    1.0841994   -7.4458214    122.52567  0.024603548  0.025254932            1 
  416000    1.0763529   -7.4357368    122.72859  0.024585055  0.025238866            3 
  417000     1.086394   -7.4350968    122.89188  0.024558729  0.025221787            4 
  418000    1.1005897    -7.453661    123.33233  0.024587786  0.025205389            3 
  419000       1.1034   -7.4247189    123.36569  0.024535738  0.025189855            8 
  420000    1.0976579   -7.4644567    123.85018  0.024573449  0.025174171            3 
  421000    1.0997962   -7.4431433    124.01374  0.024547455  0.025158709            3 
  422000     1.063655    -7.454148    124.16226  0.024518614  0.025142335            9 
  423000    1.1034503   -7.4571744    124.55285  0.024537598  0.025126142            5 
  424000    1.0947408   -7.4526538    125.06604   0.02458059  0.025110401            2 
  425000     1.065074   -7.4444713     125.1396  0.024537176  0.025094935            3 
  426000    1.0728943   -7.4590557    124.95271  0.024443018  0.025079887            2 
  427000    1.0598115   -7.4521022     125.5656  0.024505387  0.025064361            2 
  428000    1.0677211   -7.4461004    125.55547  0.024446159  0.025048514            3 
  429000    1.0842772   -7.4449759    126.13787  0.024502306  0.025032969            4 
  430000    1.0885278   -7.4641416    126.59988   0.02453486  0.025017799            6 
  431000    1.0828896   -7.4620844    126.58698  0.024475441  0.025002484            2 
  432000    1.0565931   -7.4512815    126.43713  0.024389878  0.024987017            2 
  433000    1.0981953   -7.4466295    126.77618  0.024398804  0.024971665            3 
  434000    1.0890967   -7.4070534    127.04244   0.02439371  0.024956758            3 
  435000    1.1057565   -7.4374421    127.18461  0.024364867  0.024942196            3 
  436000    1.1064121    -7.454676    127.58159   0.02438486  0.024926947            5 
  437000    1.1000852   -7.4837909    128.05357  0.024419063  0.024912157            2 
  438000    1.0986577   -7.5009326    127.94583  0.024342814  0.024897575            3 
  439000    1.1118711   -7.5140044    128.38888  0.024371465  0.024882391            5 
  440000    1.0829694   -7.4567865    128.80768  0.024395395  0.024867822            4 
  441000    1.0758703   -7.4792799    128.84945  0.024347968  0.024853061            6 
  442000    1.0564176   -7.4642204    129.71229   0.02445556  0.024838746            4 
  443000    1.0704826   -7.4701906      130.016  0.024457486  0.024825136            1 
  444000    1.0820921   -7.4964422    129.54493  0.024313989  0.024811512            2 
  445000    1.0806857   -7.4786283    130.03407   0.02435095  0.024797662            4 
  446000    1.0821055   -7.4887847    130.31168  0.024348221  0.024783837            3 
  447000    1.0933262     -7.46792    130.88614  0.024400846  0.024769711            2 
  448000    1.0902736   -7.4629427    131.42962  0.024447474  0.024756177            2 
  449000    1.0541244   -7.4994912    131.01698  0.024316441  0.024742796            2 
  450000    1.0588081   -7.4887262    131.66875  0.024383102  0.024728896            4 
  451000    1.0915936   -7.5273891    131.48716  0.024295485  0.024715168            2 
  452000    1.0516537   -7.5181553    131.77291  0.024294415  0.024701907            2 
  453000    1.0867693   -7.4949732    132.37529  0.024351599  0.024689039            3 
  454000    1.0788643   -7.4785386    132.84277  0.024383769  0.024676548            4 
  455000    1.0616378    -7.495002    132.70451  0.024304855  0.024663761            3 
  456000    1.0934381   -7.4703302    133.04815  0.024314355  0.024651122            3 
  457000    1.0477252   -7.4982054    133.12399   0.02427498  0.024638672            2 
  458000    1.0822984   -7.5259255     133.0099   0.02420122  0.024625654            6 
  459000      1.07703   -7.4782319    133.86491  0.024303723  0.024612585            2 
  460000    1.0574339   -7.5015625    133.54971  0.024193788  0.024598905            4 
  461000    1.0584925   -7.4849173     133.5494   0.02414125  0.024585214            2 
  462000    1.0786393   -7.4691887    133.85974  0.024144976  0.024571609            2 
  463000    1.0667912   -7.5211661    133.97418  0.024113424  0.024557691            3 
  464000    1.0687896   -7.5047903    134.34611  0.024128252  0.024543812            3 
  465000    1.0758355   -7.4979635    134.60963   0.02412359    0.0245303            2 
  466000      1.07029    -7.483715    134.87689  0.024119615  0.024516698            2 
  467000    1.0731177   -7.4760617    135.30231  0.024143881  0.024503491            4 
  468000    1.0696016   -7.5166309    135.35641  0.024101925  0.024490054            2 
  469000    1.0820402   -7.5102855    135.25618  0.024032726  0.024476288            7 
  470000    1.0717954   -7.4759491    135.97527  0.024109091  0.024462997           11 
  471000    1.0812499   -7.5150479    135.86904  0.024039108  0.024449971            2 
  472000    1.0596661   -7.5363821    135.89543  0.023992837  0.024436316            3 
  473000    1.0574927   -7.5365684    136.00505  0.023961425  0.024422152            4 
  474000    1.0618755   -7.5207886    136.30382    0.0239634  0.024408072           10 
  475000    1.0484453   -7.5195106    136.71367  0.023984854  0.024393989            5 
  476000    1.0698676   -7.5139574    137.17589  0.024015386   0.02437957            4 
  477000     1.072828   -7.4766355    137.18397  0.023966451  0.024365407            6 
  478000    1.0709312   -7.4940296    137.30149    0.0239368  0.024351287            2 
  479000    1.0582066   -7.4937486    137.89947  0.023990861  0.024337186            3 
  480000    1.0518556   -7.4882901    137.71025   0.02390803  0.024323168            3 
  481000    1.0671521   -7.5653802      137.646  0.023847194   0.02430909            4 
  482000    1.0454507    -7.516854    138.53685  0.023951738  0.024294878            2 
  483000    1.0555778   -7.5389536    137.99893   0.02380934   0.02428042            3 
  484000    1.0425835   -7.4778493    139.07776  0.023945895  0.024266228            4 
  485000    1.0670273   -7.5290083     138.8546  0.023858179  0.024252246            2 
  486000    1.0633528   -7.5624603     139.1165  0.023853996  0.024238423            4 
  487000    1.0846918   -7.5383713    139.50208  0.023870992  0.024224396           11 
  488000    1.0983033   -7.4893719    140.32494  0.023962593  0.024210684            7 
  489000     1.075764    -7.494763    139.86665   0.02383549  0.024197136            3 
  490000    1.0698664   -7.5468828    139.37552   0.02370332  0.024182775            1 
  491000    1.0528206   -7.4805343     140.5929   0.02386166  0.024168363            3 
  492000    1.0853981   -7.4943592     140.3378  0.023769952  0.024153748            3 
  493000    1.0597016   -7.5055566    139.69619  0.023613284  0.024139118            3 
  494000     1.061792   -7.5386853    140.42948  0.023689183  0.024124065            5 
  495000    1.0334506    -7.507923    140.91279  0.023722692   0.02410956            2 
  496000    1.0330256   -7.5178521    140.86701  0.023667173  0.024094797            2 
  497000    1.0454944   -7.5557286    140.95851  0.023634894  0.024080031            4 
  498000    1.0592837   -7.5348985    140.70813  0.023545538  0.024064752            7 
  499000    1.0612915   -7.5154047    141.30956   0.02359879  0.024049325            3 
  500000    1.0473498   -7.5378747    141.08592  0.023514321  0.024033719            6 
  501000     1.035608   -7.5631691    141.38275  0.023516757  0.024018535            3 
  502000     1.047648   -7.5384964    142.20159  0.023605842  0.024003516            4 
  503000    1.0522163   -7.4898147    142.29773  0.023574839  0.023988854            2 
  504000    1.0547405   -7.5741653    142.18173  0.023508884  0.023974229            6 
  505000    1.0314953   -7.5415509    142.68006  0.023544565  0.023959122            5 
  506000    1.0601266   -7.5328106    142.43109   0.02345703  0.023943839            1 
  507000    1.0594322   -7.4977546    142.97651  0.023500412  0.023928454            3 
  508000    1.0193765   -7.5571682    142.48472  0.023373478  0.023912823           12 
  509000    1.0470143   -7.5625041     142.7031   0.02336331  0.023897447            4 
  510000    1.0288333   -7.5530891    142.90988  0.023351287  0.023881831            3 
  511000    1.0551961   -7.5115926     143.4114  0.023387377  0.023866079            5 
  512000    1.0587006   -7.5188898    143.18507  0.023304861  0.023850165            2 
  513000    1.0454048   -7.5784349    143.39322  0.023293246  0.023834379            4 
  514000    1.0333846   -7.5643917    143.88586  0.023327798  0.023818764           11 
  515000    1.0452795    -7.526131    144.66227  0.023408134  0.023803768            4 
  516000    1.0496396   -7.5937022    144.02586   0.02325999  0.023788487            2 
  517000    1.0451251   -7.5798751    144.39388  0.023274321  0.023772879            8 
  518000    1.0480373   -7.5237792    144.74936  0.023286576  0.023757435            2 
  519000    1.0479827   -7.5057178    144.70511  0.023234604  0.023741935            2 
  520000    1.0430205   -7.5724138    145.08206  0.023250329  0.023726211            3 
  521000    1.0565411   -7.5511261    144.93804  0.023182668  0.023710622            9 
  522000    1.0252148    -7.565965     145.2907  0.023194556  0.023694651            4 
  523000    1.0419162    -7.586447    145.36343  0.023161796  0.023678653            2 
  524000    1.0407821   -7.5231063    145.26587  0.023102079  0.023662543            3 
  525000     1.073676   -7.5729023    145.87768  0.023155187  0.023646457            5 
  526000    1.0428517   -7.5511652    145.65135   0.02307531   0.02363024            3 
  527000      1.04597   -7.5481233    145.87248   0.02306649  0.023613964            4 
  528000    1.0262613   -7.5830912    146.24771  0.023082024  0.023597465            5 
  529000    1.0676414   -7.5608089    146.18913  0.023029164  0.023580809            2 
  530000    1.0650072   -7.5929778    146.24167  0.022993974  0.023563844            1 
  531000    1.0431846   -7.5971477    146.59199  0.023005648  0.023547387            3 
  532000    1.0609269    -7.565249    147.04067  0.023032686  0.023530656            4 
  533000    1.0097267   -7.5563675    147.27229  0.023025686   0.02351399            4 
  534000    1.0581277   -7.5786639    147.21963   0.02297435  0.023497541            3 
  535000    1.0472028   -7.5658107    148.12871  0.023073007   0.02348134            2 
  536000     1.007734   -7.5489155    147.49147  0.022930888  0.023465244            3 
  537000     1.023762   -7.5666892     148.1103  0.022984217  0.023449189            3 
  538000     1.028788   -7.5489416     148.3047  0.022971607  0.023433209            3 
  539000    1.0391122   -7.5623548    148.29144  0.022926939  0.023417284            3 
  540000    1.0236484   -7.5429292     148.5383  0.022922577   0.02340122            3 
  541000    1.0377622   -7.5898937    148.78082  0.022917563  0.023385125            6 
  542000    1.0146022   -7.5864488    148.68436  0.022860449  0.023369048            3 
  543000    1.0219244   -7.6073029    148.67143  0.022816364   0.02335308            3 
  544000    1.0390895   -7.5848518    149.37997   0.02288296    0.0233372           10 
  545000    1.0337749   -7.5975526     149.4179  0.022846773  0.023321527            2 
  546000    1.0279581   -7.5683651    149.94199   0.02288492   0.02330563            4 
  547000    1.0490689   -7.5786467    149.91369   0.02283877  0.023289724            5 
  548000    1.0506535   -7.6115432    150.41287  0.022873004  0.023273807            4 
  549000    1.0346872   -7.6303887     150.3506  0.022821888  0.023257851            2 
  550000    1.0421315   -7.5974118    150.66672  0.022828291  0.023242214            3 
  551000    1.0534776   -7.5592578    150.97471  0.022833441  0.023226864            3 
  552000    1.0420559   -7.6371958    151.05881  0.022804772  0.023211481            5 
  553000    1.0178069   -7.5852718    151.08635  0.022767683  0.023196079            5 
  554000   0.99856095   -7.5915387    151.44277    0.0227802  0.023180608            5 
  555000    1.0362306   -7.6139977    151.34081  0.022723845  0.023165019            5 
  556000    1.0394448   -7.5662703    151.81091  0.022753434  0.023149431            5 
  557000     1.050167   -7.6318117    151.40322  0.022651589  0.023133775           10 
  558000    1.0325916   -7.6445905    151.65731  0.022648941  0.023117872            3 
  559000    1.0314773    -7.664081    151.22324  0.022543715  0.023101972            4 
  560000    1.0319157   -7.5945644    152.33508  0.022668911  0.023086172            4 
  561000    1.0289251   -7.6374761    152.27626  0.022619766  0.023070346            4 
  562000    1.0133343   -7.6206494    152.61185  0.022629278  0.023054431            3 
  563000    1.0206496   -7.6759772    151.85551  0.022477133  0.023038344            7 
  564000    1.0174069   -7.6267521    152.58672  0.022545319  0.023022142            2 
  565000    1.0298241   -7.6332161    152.55135  0.022500199  0.023005784            4 
  566000    1.0298795   -7.6511456    152.74515   0.02248898  0.022989418            3 
  567000    1.0505411   -7.5903929    153.35007  0.022538223  0.022973228            4 
  568000    1.0219106   -7.6059741    153.13467  0.022466941   0.02295704            3 
  569000    1.0341274    -7.618876    153.07591  0.022418851  0.022940691            4 
  570000    1.0449756   -7.6327397     153.4153  0.022429138  0.022924432            1 
  571000    1.0474667   -7.6378528    153.54789  0.022409208  0.022908198            3 
  572000    1.0331049   -7.6404377    153.51917  0.022365846  0.022891758            4 
  573000    1.0136696   -7.6408656    154.04777   0.02240369  0.022875174            3 
  574000    1.0379018   -7.6684983    153.72072  0.022317177  0.022858315            2 
  575000    1.0036292   -7.6954031    153.73924  0.022281049   0.02284136            4 
  576000    1.0415289   -7.6378954     154.0622  0.022289091  0.022824209            3 
  577000    1.0457919   -7.6667241    154.03895  0.022247104  0.022807355            2 
  578000     1.015336   -7.6564366     154.3571  0.022254484  0.022790135            6 
  579000    1.0274447   -7.6089293    155.34914  0.022358828  0.022773686            2 
  580000    1.0166304   -7.6214442    154.93668  0.022261018  0.022757818            3 
  581000    1.0279635   -7.6200329    155.46017  0.022297787    0.0227417            2 
  582000    1.0198544   -7.6389988    155.58411  0.022277221  0.022725698            3 
  583000    1.0250479   -7.6523468    155.68677  0.022253684  0.022709707            3 
  584000    1.0262662   -7.6335044    155.92922  0.022250174  0.022693536            3 
  585000    1.0441751   -7.6870843    155.27143  0.022118438  0.022677151            4 
  586000    1.0235806   -7.6793798    156.24357  0.022218937  0.022661022            2 
  587000    1.0370175   -7.7047527    155.97015   0.02214227   0.02264444            2 
  588000   0.97663763   -7.6646728     156.4855   0.02217765  0.022628176            2 
  589000    1.0295644   -7.6687505    156.26896   0.02210936  0.022612087            3 
  590000    1.0219886   -7.6458178    157.00544  0.022175909   0.02259607            1 
  591000    1.0211389    -7.658287    156.22074  0.022027742  0.022579965            4 
  592000    1.0322056   -7.6360265    157.02303  0.022103467  0.022563975            1 
  593000    1.0256184   -7.6720019    157.19864  0.022090871  0.022547869            6 
  594000    1.0237043   -7.6142932    157.34397   0.02207407  0.022531436            3 
  595000    1.0074207   -7.6672431    157.59556  0.022072207  0.022515013            2 
  596000    1.0119085   -7.6831438    157.36975  0.022003601  0.022498635            3 
  597000    1.0427526   -7.6558768    157.93096   0.02204508  0.022482277            1 
  598000    1.0357413   -7.6099495    158.24787  0.022052379  0.022466129            3 
  599000    1.0158011   -7.6315146     158.3151  0.022024916  0.022450094            4 
  600000   0.99413311   -7.6499291    158.28997  0.021984718  0.022434007            7 
  601000    1.0117644   -7.6541064    158.67202  0.022001112  0.022417733            4 
  602000    1.0304337   -7.6552328    158.98119  0.022007362  0.022401544            4 
  603000    1.0218749   -7.6606613    159.02565  0.021977011  0.022385436            9 
  604000    1.0156767    -7.658552    158.91602  0.021925499  0.022369527            6 
  605000    1.0145702   -7.6268375    159.60045  0.021983533  0.022353604            3 
  606000    1.0131925   -7.6330455     159.7089   0.02196217  0.022337836            5 
  607000    1.0123797   -7.6636368    159.58385  0.021908821  0.022322128            4 
  608000    1.0265143   -7.6980885    159.79721  0.021902029  0.022306401            3 
  609000    1.0277343   -7.6476797    160.44157  0.021954238   0.02229076            1 
  610000    1.0053149   -7.6706524    160.08559  0.021869617  0.022274773           11 
  611000    1.0196496   -7.6399385    160.72549  0.021921098  0.022258832            4 
  612000    1.0008558   -7.6538358    160.66239  0.021876687  0.022243377            1 
  613000    1.0291355   -7.6862094    160.93497  0.021878055   0.02222805            6 
  614000   0.99555277   -7.6556891    160.62152  0.021799881  0.022212606            4 
  615000    1.0148786   -7.6672548    161.05256   0.02182284  0.022197048            3 
  616000   0.99689158   -7.6690576    161.25866  0.021815294  0.022181659            5 
  617000    1.0039215   -7.7098133    161.39222  0.021797977  0.022165874            3 
  618000    1.0075109   -7.6958422    161.71693   0.02180649  0.022150319            3 
  619000    1.0028925   -7.7278749    161.21202  0.021703287  0.022134473           12 
  620000   0.99750833   -7.6575828    161.68973  0.021732491  0.022118472            5 
  621000   0.98582131   -7.6407132    162.44091  0.021798297  0.022102723            3 
  622000    1.0081591   -7.6825495    161.85751   0.02168509  0.022086789            5 
  623000   0.99334749   -7.6672847    162.56461  0.021744865  0.022070815            4 
  624000    1.0178894   -7.6741312    162.64579  0.021720858  0.022055085            1 
  625000    1.0065676   -7.6695724    163.01036  0.021734715   0.02203952            3 
  626000   0.98873306   -7.6684159    162.95455  0.021692565   0.02202379            2 
  627000    1.0108714   -7.6953514    162.72495  0.021627453  0.022008138            3 
  628000    0.9880201   -7.6733581    162.81561  0.021605044  0.021992419            5 
  629000   0.98587251    -7.694706    163.51685    0.0216636  0.021976663            7 
  630000    1.0086258   -7.6317467    164.03161  0.021697302  0.021961177            3 
  631000    1.0030853   -7.7225872    163.12599  0.021543317  0.021945848            4 
  632000    1.0022179   -7.7048785    163.71594  0.021587017  0.021930314            6 
  633000   0.99619002   -7.6785117    164.13583  0.021608193  0.021914991            5 
  634000    1.0167653   -7.6873778    163.75603   0.02152419  0.021899246            4 
  635000   0.97247371   -7.7331643    163.73104  0.021487013  0.021883406            3 
  636000    0.9979453   -7.7324661    163.52219  0.021425864  0.021867205            4 
  637000    1.0090336    -7.662672    165.01554   0.02158759  0.021851304            2 
  638000   0.99998403   -7.6659266    164.67038   0.02150867  0.021835573            2 
  639000    1.0130986   -7.6972148    164.18776   0.02141207  0.021819782            4 
  640000    1.0069711   -7.6796294    164.85524  0.021465526  0.021804096            6 
  641000    1.0056803   -7.7133671    165.20566  0.021477595  0.021788496            4 
  642000   0.97043819   -7.7078238    165.45528  0.021476542  0.021772764            2 
  643000    1.0145244   -7.7103092    165.44089  0.021441277  0.021756893            4 
  644000   0.99578868   -7.6801061     165.5253  0.021418905  0.021741254            4 
  645000   0.97131326   -7.6893953    165.95907  0.021441741  0.021725588            3 
  646000   0.99636042   -7.7430163    165.50826  0.021350394  0.021709812            6 
  647000   0.99890361   -7.7356065    165.87509  0.021364643  0.021694165            4 
  648000   0.98932584   -7.7265322    165.98192  0.021345412  0.021678395            5 
  649000   0.99794749   -7.7330488    166.14282  0.021333181  0.021663002            4 
  650000    1.0202474   -7.7533092    165.98777  0.021280484  0.021647183            7 
  651000   0.98721449   -7.7177604    166.35017  0.021294185  0.021631646            4 
  652000    1.0037722   -7.7252056    166.94318  0.021337318  0.021616316            3 
  653000    1.0010209   -7.7204109    166.71718  0.021275801  0.021601018            4 
  654000    1.0160989   -7.7322204    166.62672  0.021231743  0.021585398           10 
  655000   0.98298796   -7.7203422    166.42199  0.021173281  0.021569784            9 
  656000   0.99744627   -7.7483819      166.472  0.021147357  0.021553884            4 
  657000    1.0122749    -7.716068    167.22366   0.02121051  0.021538158            5 
  658000   0.98292187   -7.7284217    167.37162  0.021197014  0.021522385            4 
  659000   0.98256619   -7.7565062    167.16906  0.021139233  0.021506682            4 
  660000   0.97941911   -7.7365104    167.71531  0.021176176  0.021491286            3 
  661000    0.9708603   -7.7581004    167.83691  0.021159469  0.021475796            2 
  662000    1.0051847    -7.705888    168.23067  0.021177073  0.021460342            3 
  663000    1.0174879   -7.7069082    168.52228  0.021181784  0.021444889            2 
  664000   0.99299192   -7.7299133    168.72594  0.021175444  0.021429745            7 
  665000     0.988874   -7.7176519    168.69603  0.021139853  0.021414236            2 
  666000   0.99326505    -7.724021    168.89095  0.021132501  0.021399198            4 
  667000   0.97882842    -7.740699    169.13364  0.021131139  0.021383985            4 
  668000   0.99091983   -7.7445857    168.76415  0.021053412   0.02136879            4 
  669000   0.99669114   -7.7092252    168.86555  0.021034572  0.021353556            2 
  670000   0.98509529   -7.7144875    168.88221   0.02100525  0.021338024            4 
  671000   0.99054904   -7.7317323    169.37775  0.021035488  0.021322201            6 
  672000   0.97411623   -7.7184619    169.25635  0.020989131  0.021306377            4 
  673000   0.97373221   -7.7334802    169.27342  0.020960057  0.021290356            9 
  674000   0.99985756   -7.7032128    169.63049  0.020973107  0.021274603            4 
  675000   0.98330608   -7.7497145    169.66539  0.020946345  0.021258857            2 
  676000   0.97923525   -7.7325148     169.5671  0.020903242  0.021243052            4 
  677000   0.97833415   -7.7619698    169.34132  0.020844574  0.021227105            5 
  678000   0.98993366   -7.7348429    170.11973  0.020909505  0.021211263            9 
  679000   0.97882865   -7.7633359    169.64094  0.020819948  0.021195206           13 
  680000   0.98141503   -7.7528159    169.73577  0.020800953  0.021178941            4 
  681000   0.97328407   -7.7649635    169.74454  0.020771481  0.021162528            3 
  682000   0.97909433   -7.7622504    170.31246  0.020810417  0.021146381            3 
  683000   0.98485773   -7.7352718    170.49635  0.020802385  0.021130229            2 
  684000    0.9780582   -7.7495391    170.31891  0.020750355   0.02111389           10 
  685000   0.97946757   -7.7320738    170.36759  0.020725984  0.021097738            3 
  686000    1.0021277    -7.744177    170.51699   0.02071392  0.021081479            5 
  687000   0.96821318   -7.7127063    171.02313  0.020745164  0.021065385            6 
  688000   0.99703083   -7.7566377    170.83095  0.020691733  0.021049539            4 
  689000   0.96640022   -7.7981286    170.65764   0.02064074  0.021033429            3 
  690000   0.97133636   -7.7528833    171.15315   0.02067067  0.021017068            6 
  691000   0.98353098   -7.7475985    171.15254  0.020640682  0.021000842            5 
  692000   0.96825172   -7.7848192    171.07086  0.020601019  0.020984835            4 
  693000   0.97286581   -7.7017209    171.88361  0.020669025  0.020968992            2 
  694000   0.97348734   -7.7327487    171.62622  0.020608335  0.020953126            4 
  695000     0.970537   -7.7509931    171.64672  0.020581142  0.020937103            2 
  696000    0.9652632   -7.7624804     171.4605  0.020529275  0.020920803            3 
  697000   0.98303725   -7.7912509    171.16465  0.020464448  0.020904258            3 
  698000   0.95620028   -7.7578276    171.65701  0.020493912  0.020887807            3 
  699000   0.97231303    -7.731888    172.23523  0.020533527  0.020871548            2 
  700000    0.9641264   -7.8251112    171.95841   0.02047124  0.020855081            3 
  701000   0.97319565   -7.7555347    171.93257  0.020438965  0.020838558            3 
  702000   0.97401726   -7.7763135    172.36814  0.020461555  0.020822084            5 
  703000   0.96709756    -7.769834    172.20718  0.020413369  0.020805608            3 
  704000    0.9858312   -7.7884675     172.6373  0.020435287  0.020789094            4 
  705000    0.9557135   -7.7851386    172.59768  0.020401616  0.020772578            4 
  706000   0.94970523   -7.8178041    172.49366  0.020360442  0.020756042            2 
  707000   0.97359844   -7.7796767    172.01316  0.020275008  0.020739208            2 
  708000   0.96986964   -7.8013866    172.23774  0.020272803   0.02072233            3 
  709000   0.96910466   -7.7971467    172.59629  0.020286353  0.020705468            4 
  710000   0.94970729    -7.792664     172.5231   0.02024919  0.020688563            6 
  711000   0.96804545   -7.7372661    173.14279  0.020293342  0.020671724            5 
  712000   0.98768701   -7.7836786    172.57631  0.020198538  0.020654936           11 
  713000   0.99648646   -7.8029443    172.84429   0.02020153  0.020638097            3 
  714000   0.95297166    -7.736792    173.46545  0.020245734  0.020621146            8 
  715000   0.94886684   -7.7612066    173.65661  0.020239699  0.020604482            5 
  716000   0.96111096   -7.8046935    173.36223  0.020177168   0.02058768            5 
  717000   0.95807867   -7.8144993    173.70909  0.020189341  0.020570934            3 
  718000   0.95427941    -7.777818    173.85247  0.020177863  0.020554303            7 
  719000   0.99244692    -7.796665    174.09836  0.020178298  0.020537749            3 
  720000   0.95369494   -7.7915817    173.80483    0.0201163  0.020521191            7 
  721000   0.95788851   -7.8425439    173.54024  0.020057817  0.020504408            5 
  722000   0.97589867   -7.7864674    174.44612  0.020134594  0.020487644            5 
  723000    0.9523881   -7.8017204    174.80175  0.020147736   0.02047106            2 
  724000   0.98746651   -7.7872378    174.35812  0.020068845  0.020454474            6 
  725000   0.95152608    -7.744034    175.00752  0.020115807  0.020438042            5 
  726000   0.95695295   -7.7882029    174.49004  0.020028701  0.020421552            5 
  727000   0.95468036   -7.7910893    175.47886  0.020114495  0.020405188            4 
  728000   0.96747856   -7.7389406    175.50817  0.020090221  0.020388893           13 
  729000    0.9527462    -7.806386    175.67061  0.020081232  0.020372762            9 
  730000   0.97080216   -7.8045403    175.09059  0.019987511  0.020356446            9 
  731000    0.9576104   -7.8152985    175.60071  0.020018321  0.020339972            3 
  732000   0.98657053   -7.8647971    175.42617  0.019971103  0.020323403            4 
  733000   0.97463847   -7.8168103    175.29677  0.019929146  0.020306834            3 
  734000   0.97126699   -7.8091745     175.2977    0.0199021  0.020290324            5 
  735000   0.96053204   -7.8336339    175.87756  0.019940767  0.020273936            9 
  736000   0.95274732   -7.8037846    175.91612  0.019918039  0.020257599            5 
  737000   0.96223695   -7.8103465    176.02669  0.019903515  0.020241341            5 
  738000   0.96401479   -7.8129681    176.71966  0.019954795  0.020225177            8 
  739000   0.95909281   -7.8231681    176.20631  0.019869904  0.020208729            5 
  740000   0.94039524   -7.7900527     176.4444  0.019869865  0.020192343            4 
  741000    0.9462551    -7.769925    177.23393   0.01993184  0.020176131            5 
  742000   0.96964281   -7.8165066    176.66373   0.01984094  0.020160024            2 
  743000   0.94550101   -7.7747665    176.58355  0.019805243  0.020143937            4 
  744000   0.94723819   -7.8040449    177.18118  0.019845563  0.020128083            4 
  745000   0.95509548   -7.8091869    177.06106  0.019805488  0.020112089            3 
  746000   0.94021987   -7.8530035    176.75765  0.019745046  0.020096028           10 
  747000    0.9703059   -7.8423177    177.64143  0.019817206  0.020079755            5 
  748000   0.94234006   -7.7993501    177.68018  0.019795029  0.020063679            6 
  749000   0.95345898   -7.8028011    177.63221  0.019763264  0.020047857            4 
  750000   0.94638993    -7.811955     177.5535  0.019728167  0.020031999            6 
  751000   0.95221883   -7.8015125    178.75702  0.019835444  0.020016224            3 
  752000   0.93482231   -7.7837578    178.42847  0.019772658  0.020000689            3 
  753000   0.94581308    -7.823164     178.3046  0.019732691  0.019984896            2 
  754000   0.96105403   -7.8190574    178.28215   0.01970404   0.01996899            5 
  755000   0.95353991   -7.7842605     178.0128  0.019648212  0.019953133            3 
  756000    0.9492483   -7.8574447    177.97333  0.019617871  0.019937351            6 
  757000    0.9410001   -7.8326232    178.69108  0.019670969  0.019921515            3 
  758000   0.95945114    -7.807206    178.68809  0.019644689  0.019905735            3 
  759000   0.95400086   -7.8395284    178.79977  0.019631068  0.019889975            8 
  760000   0.95739748    -7.841802     178.7276  0.019597324  0.019874013            5 
  761000   0.95727328   -7.8326969    178.88223  0.019588505  0.019858067            8 
  762000   0.94701476   -7.8511264    178.52494  0.019523724   0.01984209            7 
  763000    0.9484691   -7.8363591     179.2431  0.019576572  0.019826336            4 
  764000   0.95242189   -7.8352987    179.15942  0.019541822  0.019810554            6 
  765000   0.93530955   -7.8317774    179.33835  0.019535768  0.019794827            5 
  766000    0.9442829   -7.8204324    179.71804  0.019551571  0.019779144            4 
  767000   0.93671796   -7.7989606    179.87516  0.019543151  0.019763472            3 
  768000   0.95737928   -7.8832817    179.36749  0.019462618  0.019747781            2 
  769000   0.94012541   -7.8228244    179.68554  0.019471775  0.019731993            2 
  770000   0.93860082   -7.8344852    180.25867  0.019508514  0.019716311            8 
  771000   0.94296088   -7.8419979    180.01611  0.019456994  0.019700795            6 
  772000   0.94381451   -7.8780692    179.24542  0.019348599  0.019685168            6 
  773000   0.93400481   -7.8670407    179.90681  0.019394869  0.019669263            4 
  774000   0.93871662   -7.8483743    180.13132  0.019393984  0.019653374            5 
  775000   0.96899753    -7.882788    180.26933  0.019383799  0.019637583            8 
  776000   0.96427451   -7.8178683    180.83432  0.019419493  0.019621751            3 
  777000   0.93446675   -7.8739378     180.3341  0.019340852  0.019605948            2 
  778000    0.9409731   -7.9055726    180.08948   0.01928979  0.019590064            6 
  779000   0.93008716   -7.8576092    180.34691  0.019292567  0.019574346            6 
  780000   0.95233416   -7.8694859     180.9705  0.019334455  0.019558541            6 
  781000   0.93905122   -7.8804644    180.51209  0.019260787  0.019542717            5 
  782000   0.93520989   -7.8422632    180.92585  0.019280248  0.019526862            5 
  783000   0.96316811   -7.9025782       180.81  0.019243295  0.019511116            6 
  784000   0.94788036   -7.9053817    180.63048  0.019199668  0.019495128            3 
  785000   0.94394669   -7.8920658    181.05083  0.019219834  0.019479212            8 
  786000   0.92542046   -7.8427654    181.53145  0.019246337  0.019463343            3 
  787000   0.94703076   -7.8637061    181.49369  0.019217883  0.019447673            3 
  788000   0.93166915   -7.9333851    181.40551   0.01918417  0.019431809            5 
  789000   0.94768111   -7.8644599    181.82305  0.019203955  0.019415993            4 
  790000     0.921443   -7.8359527    182.34967  0.019235197  0.019400451            5 
  791000   0.92998956   -7.8431636    181.85473  0.019158737  0.019384842            6 
  792000   0.94159354    -7.833891    181.93586  0.019143082  0.019369171            3 
  793000   0.92521028   -7.8661957    182.82727  0.019212617   0.01935365            5 
  794000   0.93091267    -7.942552    181.48068   0.01904709  0.019337984            9 
  795000   0.93766945   -7.8829647    181.95952  0.019073325  0.019322148            4 
  796000   0.94047001   -7.8787174    182.08818  0.019062833  0.019306241            3 
  797000   0.93775767   -7.8744607    182.70363  0.019103265  0.019290398            5 
  798000   0.93094148   -7.8863221    182.49235  0.019057263  0.019274709            4 
  799000   0.93685282   -7.8853726    182.73452  0.019058669  0.019259244            4 
  800000   0.93869145   -7.9214079    182.53157  0.019013705  0.019243631            5 
  801000   0.95301433   -7.9191936    182.58821   0.01899586  0.019227906            7 
  802000   0.93763243   -7.8837804    183.04099  0.019019222  0.019212382            4 
  803000   0.93599284   -7.9241086    183.09319  0.019000954  0.019196986           10 
  804000   0.94650699   -7.8782205    183.08392   0.01897636  0.019181587            6 
  805000   0.94457831   -7.9089116    183.17109   0.01896181  0.019166165           10 
  806000   0.92247402   -7.9020948    183.26623  0.018948121  0.019150576            5 
  807000    0.9467415   -7.8650643    183.19186  0.018916962  0.019135118            7 
  808000   0.93654803   -7.8736779    183.32386  0.018907164  0.019119719           12 
  809000   0.94222221   -7.8713293    183.90445  0.018943598  0.019104354           10 
  810000   0.93267405    -7.916567    183.67274  0.018896372   0.01908884            9 
  811000   0.94623081   -7.9420796    183.44542  0.018849715  0.019073447            2 
  812000   0.90927085   -7.8945734    184.24461  0.018908519  0.019058085            2 
  813000   0.90424806   -7.9057373    183.80256   0.01883995  0.019042816            7 
  814000   0.93883887   -7.9387938    183.99774  0.018836787  0.019027398            4 
  815000   0.93278553    -7.897138    184.45752  0.018860687  0.019012037            3 
  816000   0.91586263   -7.9018111    184.51489  0.018843432   0.01899671            8 
  817000   0.89477285    -7.912519    184.60305   0.01882936  0.018981326            4 
  818000    0.9440228   -7.9194609    184.86428  0.018832955  0.018966111            9 
  819000   0.92804553   -7.9030392    185.21143  0.018845282  0.018950986            3 
  820000   0.92676245   -7.9186734    184.93938  0.018794653  0.018935953            8 
  821000   0.94342513   -7.9138148    185.01317   0.01877925  0.018920768            7 
  822000   0.91052395   -7.8686566    185.69981  0.018826015  0.018905681            5 
  823000   0.90817985   -7.9024384    185.16724  0.018749214  0.018890754            3 
  824000   0.90986609   -7.9258962    184.84694  0.018694067   0.01887558            3 
  825000   0.92833938   -7.9163255    185.04049  0.018690958  0.018860155            5 
  826000   0.91082503   -7.9422477    185.41435  0.018706048  0.018844715            4 
  827000   0.92420712   -7.9242496    185.34065  0.018676002  0.018829332            5 
  828000   0.92740314   -7.9073049    185.40664  0.018660089  0.018814063            9 
  829000   0.92316981   -7.8770547    185.77936  0.018675046  0.018798794            5 
  830000   0.93461604   -7.9241612    185.52497  0.018627005  0.018783493            6 
  831000   0.93630737   -7.9271549    185.25124   0.01857714  0.018768252           11 
  832000    0.9166812   -7.9131413     185.8433  0.018614113  0.018752901            9 
  833000   0.91191832   -7.9466127     185.7765  0.018585084  0.018737485           25 
  834000   0.90499199   -7.9460487    185.25338  0.018510529  0.018721899           17 
  835000   0.92239503   -7.9380999    185.77508  0.018540427  0.018706481           13 
  836000   0.92556187   -7.9432442    186.32614   0.01857318  0.018691331           11 
  837000   0.93366809   -7.9211234     186.3987  0.018558214  0.018676196            4 
  838000    0.9217783   -7.9192222    186.67324   0.01856337  0.018661159            5 
  839000   0.90544473    -7.904629    187.09212  0.018582849  0.018646244            6 
  840000   0.92196394   -7.9449669    186.45472  0.018497492  0.018631352            5 
  841000   0.90137482   -7.9547888     186.2388  0.018454102  0.018616297           10 
  842000   0.94581143   -7.8957547    187.13766  0.018521146  0.018601361            4 
  843000   0.91928271    -7.919457    187.15941  0.018501326  0.018586424            6 
  844000   0.92865634   -7.8944156    187.20394  0.018483802   0.01857155            8 
  845000   0.90616462   -7.8938368    187.32065  0.018473437  0.018556711           15 
  846000   0.91264216   -7.9020521    187.49028   0.01846831  0.018541943            7 
  847000   0.90850252   -7.9429892    187.59431   0.01845674  0.018527153           18 
  848000   0.91579269   -7.9233711    187.65293  0.018440736  0.018512177            5 
  849000    0.9089892   -7.9694461    187.08171  0.018362948  0.018497119           10 
  850000    0.9067363   -7.9581134    186.54449  0.018288676  0.018481913            4 
  851000   0.89684114   -7.9116578    187.49485  0.018360248  0.018466838            5 
  852000   0.92465575   -7.9524967    187.44263  0.018333591  0.018451699           18 
  853000   0.91803933   -7.9507899    187.26938  0.018295172  0.018436532           12 
  854000    0.9168292   -7.9660824    187.44837  0.018291215  0.018421342            4 
  855000   0.91739455   -7.9624428    187.35227  0.018260455  0.018406128            7 
  856000   0.91974761   -7.9172675    187.68143  0.018271167  0.018391104            8 
  857000    0.9163187   -7.9343337    187.65279  0.018247062  0.018376032            4 
  858000   0.92115117   -7.9448927    188.42327  0.018300628  0.018361055            4 
  859000   0.90416541   -7.9460171     188.1438  0.018252212  0.018346122            5 
  860000   0.90093211    -7.986682    188.25879  0.018242131  0.018331181            7 
  861000   0.88914358   -7.9431088    188.04849  0.018200589  0.018316219            7 
  862000   0.91439528   -7.9238309     188.9089  0.018262655  0.018301419            8 
  863000   0.90747467    -7.965255    188.06012  0.018159532   0.01828655            6 
  864000   0.88740647   -7.9783635    188.09259  0.018141646  0.018271416            3 
  865000   0.92117314   -7.9731405    188.50838  0.018160731  0.018256338            6 
  866000   0.89784233   -7.9884628    188.09263  0.018099752  0.018241193            5 
  867000   0.89276785   -7.9794147     187.8131  0.018052008   0.01822605            7 
  868000   0.92636996   -7.9587011    188.56597  0.018103492  0.018210834            3 
  869000   0.89502551   -7.9912797    187.88804  0.018017649  0.018195565            5 
  870000    0.9210052   -7.9509198    188.63842  0.018068814  0.018180128            4 
  871000   0.89416824   -7.9516081    188.26444  0.018012289  0.018164772            4 
  872000    0.9091603   -7.9594247    188.60261   0.01802395  0.018149434            5 
  873000   0.90595039   -7.9756862    187.97575  0.017943466  0.018133979            3 
  874000   0.91626168   -7.9774259    188.26746  0.017950749   0.01811854            9 
  875000   0.91721943   -7.9605893    188.68181  0.017969697   0.01810311            3 
  876000   0.89662327   -7.9482712    188.97358  0.017976938  0.018087803            5 
  877000   0.90409839   -7.9382556    189.26515  0.017984145  0.018072639            8 
  878000    0.9202824   -7.9630789     188.5161  0.017892569  0.018057367            3 
  879000   0.90358474   -8.0036404    188.45297  0.017866228  0.018041903            7 
  880000   0.90518364   -7.9626295    188.55229   0.01785533  0.018026477            4 
  881000   0.88171947    -7.957723    188.67913  0.017847062  0.018011086            7 
  882000   0.88335345   -7.9854419    188.76735  0.017835162  0.017995431            5 
  883000   0.90111028   -7.9893384    188.49902   0.01778964  0.017979742            2 
  884000   0.88314999   -8.0202145    188.25678  0.017746679  0.017963957            8 
  885000   0.90218151   -7.9903142    188.64513  0.017763195  0.017948217            3 
  886000   0.90090941    -8.003718    188.65978  0.017744524  0.017932576           17 
  887000   0.90763723   -7.9993177    189.44672  0.017798451  0.017917083            6 
  888000   0.89305013   -8.0054535    189.14012  0.017749636  0.017901698            5 
  889000   0.92412618   -7.9629579    189.37523  0.017751709  0.017886321           13 
  890000   0.89961608   -7.9528649    189.56714  0.017749732  0.017870935            6 
  891000   0.90366016   -7.9664304    190.04934   0.01777491  0.017855626            3 
  892000   0.89405503   -7.9878169    189.24167  0.017679528  0.017840197            8 
  893000   0.88809582   -8.0094355    189.14592  0.017650795  0.017824801           15 
  894000   0.88581456   -8.0223015    189.02161  0.017619464   0.01780933           13 
  895000   0.91850923   -7.9825313    189.02447  0.017600044  0.017793855            2 
  896000   0.89498023   -7.9629571    189.86957     0.017659  0.017778555           11 
  897000   0.87654446   -8.0017299      189.751  0.017628298  0.017763125           10 
  898000   0.88436337   -7.9848089     189.5129  0.017586572  0.017747592            8 
  899000   0.87942726   -7.9804705    189.49596  0.017565439  0.017732073            8 
  900000   0.88781625   -7.9949155       189.41  0.017537963  0.017716592            3 
  901000   0.89233068   -7.9970251    189.93781  0.017567315  0.017701012            5 
  902000   0.92142101   -7.9939179    189.67363  0.017523432  0.017685407            4 
  903000   0.89628373   -7.9769945    189.76871  0.017512801  0.017669851            5 
  904000   0.90142708   -8.0250962    189.57685  0.017475742  0.017654309            5 
  905000   0.89383013   -8.0409794     189.1604  0.017418085  0.017638692           10 
  906000   0.89668782   -8.0362457    189.52875   0.01743274  0.017622971            8 
  907000   0.89082536   -8.0257067    190.04351  0.017460815  0.017607148            8 
  908000   0.88775457   -8.0118213     189.6014   0.01740101  0.017591466            2 
  909000   0.88948004   -8.0228419     189.6448  0.017385845  0.017575803            5 
  910000    0.8856942   -8.0667636    189.65512  0.017367685  0.017559992            6 
  911000   0.88354985   -8.0373405    189.53796  0.017337903  0.017544097           15 
  912000   0.88094751   -8.0154249    189.45058  0.017310908  0.017528452            6 
  913000    0.9072107   -7.9697092     190.3047  0.017369907  0.017512725           10 
  914000   0.90524411   -8.0148303    190.06026  0.017328616  0.017497093            4 
  915000   0.89567339   -8.0291597      190.152  0.017318033  0.017481557            9 
  916000   0.88662903   -7.9879004    190.07216  0.017291863  0.017465922            5 
  917000   0.87384491   -8.0366701    190.13913  0.017279092  0.017450441            5 
  918000   0.90051828   -8.0102988    190.76866  0.017317416  0.017434974            3 
  919000   0.88430285   -8.0240338    190.20204  0.017247193  0.017419522            3 
  920000    0.8561398   -8.0325282    189.74016  0.017186608  0.017403934            4 
  921000   0.89001982   -8.0252666    190.66142  0.017251305   0.01738827            2 
  922000   0.86273766   -8.0156621    190.39076   0.01720813  0.017372741            8 
  923000   0.90071762   -8.0071122    190.54169  0.017203114  0.017357242            8 
  924000   0.87530286   -8.0564196    190.03098  0.017138436  0.017341617            6 
  925000   0.90287413    -8.030525    190.56822  0.017168308  0.017325952           15 
  926000   0.87664134   -8.0666292    190.22749  0.017119105  0.017310311            3 
  927000   0.88597223   -8.0572418    190.08201  0.017087559  0.017294674            8 
  928000   0.87357106   -8.0267834    190.68367  0.017123174  0.017279097            4 
  929000   0.89412648    -8.053497    190.40545  0.017079785  0.017263512            6 
  930000   0.87873203    -8.033712    190.59292  0.017078218  0.017247903            9 
  931000   0.86343006   -8.0403878    190.37608  0.017040465  0.017232389            8 
  932000   0.89898901   -8.0520533    190.71936  0.017052876  0.017216814            9 
  933000   0.88738767   -8.0821519    190.77985  0.017040001   0.01720127            7 
  934000   0.87153225   -8.0388461    190.79834  0.017023407    0.0171857            7 
  935000   0.86493735   -8.0001786    191.34174  0.017053631  0.017170297            8 
  936000   0.87121302   -8.0315083    191.38106  0.017038912  0.017154901            6 
  937000   0.88670088   -8.0543776    191.42447  0.017024589  0.017139457            3 
  938000   0.87019731   -8.0715843    190.93179  0.016962668  0.017123998            5 
  939000   0.89703671     -8.03968    191.19799  0.016968228  0.017108505            7 
  940000   0.88912592   -8.0590603    191.31373  0.016960437  0.017093137            6 
  941000   0.87486392   -8.0705336    191.21696  0.016933844  0.017077761            6 
  942000   0.88374964   -8.0587264    191.20181  0.016914526  0.017062437           10 
  943000   0.87374953   -8.0747485     191.1007  0.016887654  0.017047037           10 
  944000   0.87890773   -8.0514085    192.07027  0.016955356  0.017031685           10 
  945000   0.87617907   -8.0726098    191.38804  0.016877252  0.017016347            6 
  946000   0.87836826   -8.0496536    192.28937   0.01693881  0.017001001            8 
  947000   0.86926336   -8.0740053    192.16407  0.016909897  0.016985714            8 
  948000   0.87287359   -8.0873479    191.16566  0.016804295  0.016970358            7 
  949000   0.89301667    -8.059225    191.51729  0.016817465  0.016955023            5 
  950000   0.88505014   -8.0602366    191.45126   0.01679397  0.016939671            9 
  951000   0.88719304    -8.058806    191.51219   0.01678165  0.016924182            5 
  952000    0.8608011    -8.109462    191.78985  0.016788327  0.016908675            9 
  953000   0.88178951   -8.0820611    191.73926  0.016766287  0.016893198            6 
  954000   0.87958636    -8.101083    191.59166  0.016735819  0.016877686            6 
  955000    0.8876008   -8.1128127    191.17765  0.016682168  0.016862075           17 
  956000     0.861214   -8.0811172    191.87724  0.016725701  0.016846671            3 
  957000   0.86669744    -8.086113    192.25832  0.016741407  0.016831371            8 
  958000   0.86498929   -8.1091538    191.97916  0.016699648  0.016816182            5 
  959000   0.87948687   -8.0681247    192.46675  0.016724604  0.016801019            8 
  960000   0.85873831    -8.081599    192.07561   0.01667323  0.016785807            5 
  961000   0.85963893   -8.0654189    192.56061  0.016697937  0.016770594            5 
  962000   0.87525577   -8.1067023    192.32059  0.016659787  0.016755438            3 
  963000   0.88043965   -8.0969575    192.08162  0.016621808  0.016740152            6 
  964000   0.86471445   -8.0912853    192.42756  0.016634471  0.016725011           17 
  965000   0.88470247   -8.0950224    192.31273  0.016607317  0.016709828            9 
  966000   0.86252282     -8.09885    192.92315  0.016642784  0.016694747           13 
  967000   0.85379584   -8.0601976    192.99118  0.016631436  0.016679697           13 
  968000   0.85784582   -8.0844753    192.77931  0.016596015   0.01666464            8 
  969000   0.88629423   -8.0932109     192.8265  0.016582947  0.016649515            9 
  970000   0.87509622   -8.0756884    192.46126  0.016534473  0.016634438            8 
  971000   0.87807993   -8.1058919    192.40796   0.01651287  0.016619349           15 
  972000   0.86477293   -8.0715582    193.28711  0.016571254  0.016604384           10 
  973000   0.87665077   -8.0834177    192.76817  0.016509778   0.01658938           11 
  974000   0.85119247   -8.1068212    193.00175  0.016512812  0.016574294            8 
  975000   0.85943656   -8.0932215    193.19127  0.016512075  0.016559168           14 
  976000   0.86034262    -8.112447    192.55528  0.016440854  0.016543978           19 
  977000   0.86728791    -8.123781    192.81653  0.016446309  0.016528852            5 
  978000   0.89316594   -8.1286248    192.84643  0.016432041  0.016513611            6 
  979000   0.84843122   -8.1044373     192.6977  0.016402596  0.016498311            7 
  980000   0.88150271   -8.1488316    192.10117  0.016335133  0.016483077           12 
  981000   0.85894715   -8.1680365     192.3879  0.016342839  0.016467794            8 
  982000   0.86740879    -8.132228    192.65203  0.016348611  0.016452495           13 
  983000   0.87915489   -8.1247553    192.95803   0.01635792  0.016437212           13 
  984000   0.85170451   -8.1364827    193.11107  0.016354258  0.016421975           10 
  985000   0.88017019   -8.1344803    193.32418  0.016355683  0.016406833           12 
  986000   0.85567577   -8.1373357    192.83122  0.016297432  0.016391669           12 
  987000   0.86695424   -8.1179772     193.1816  0.016310503  0.016376515            5 
  988000   0.83617609   -8.1079548    193.11211  0.016288133  0.016361422            4 
  989000   0.85596646   -8.1435288    193.16758  0.016276338  0.016346335           31 
  990000   0.86220625   -8.1033352    193.35409  0.016275597  0.016331342           16 
  991000   0.85870272   -8.1414246    193.07062  0.016235337  0.016316303           33 
  992000   0.85739835   -8.1617496    193.25769  0.016234685  0.016301176           30 
  993000   0.85018518   -8.1205839    193.51013  0.016239521   0.01628616           17 
  994000   0.84961987   -8.1155909    193.71279  0.016240174  0.016271114           27 
  995000   0.87443809   -8.1442814    193.83174  0.016233814  0.016256136           22 
  996000   0.86465391   -8.1179803    193.55729  0.016194552  0.016241088           37 
  997000    0.8487275   -8.1333372    193.71337  0.016191355   0.01622612           44 
  998000   0.84593438   -8.1616463    192.99802  0.016115399  0.016211146           39 
  999000   0.84746375   -8.1275891    193.70259  0.016158041  0.016196149           22 
 1000000   0.84992983   -8.1270136    193.76074  0.016146729  0.016181298           45 
 1001000   0.85030255   -8.1117396    194.38642  0.016182685  0.016166477           52 
 1002000   0.84784032   -8.1003655    194.42094  0.016169406  0.016151668           35 
 1003000   0.86223158   -8.1492353    193.65656  0.016089777  0.016136749           32 
 1004000   0.86355055   -8.1807993    193.22197   0.01603768  0.016121739           26 
 1005000   0.85852604    -8.145202    193.30483  0.016028593  0.016106706           27 
 1006000    0.8410707    -8.167851    193.87602  0.016059976  0.016091695           33 
 1007000   0.85665132   -8.1469949    193.75731  0.016034203  0.016076684           22 
 1008000   0.86987769   -8.1324271    193.85161  0.016026092  0.016061773           36 
 1009000   0.85288066   -8.1695089    193.56413  0.015986466  0.016046835           20 
 1010000   0.85990466   -8.1453331    193.58731  0.015972551  0.016031867           20 
 1011000    0.8754914   -8.1721562    194.01459  0.015991971  0.016016935           21 
 1012000   0.83565463   -8.1463827    193.79343  0.015957957  0.016002027           25 
 1013000   0.85938495   -8.1569119    194.07176    0.0159651  0.015987079           26 
 1014000   0.85233709     -8.17965    193.85916  0.015931883  0.015972105           29 
 1015000   0.85778038   -8.1804055    193.93574  0.015922474  0.015957209           32 
 1016000   0.85852822   -8.1516568     194.1663  0.015925714  0.015942333           20 
 1017000   0.86046837    -8.164912    194.17981  0.015911161   0.01592749           35 
 1018000   0.86507684   -8.1359129    194.12604   0.01589113  0.015912554           37 
 1019000   0.84242897   -8.1358228    194.54974  0.015910185  0.015897662           42 
 1020000   0.84961628   -8.1728846    194.23803   0.01586912  0.015882736           28 
 1021000   0.82331547   -8.1493583    194.20755   0.01585109  0.015867819           43 
 1022000   0.84521214   -8.1662912    193.79737  0.015802133  0.015852809           38 
 1023000   0.85000612   -8.1799111     193.8152  0.015788139  0.015837904           35 
 1024000   0.84478699   -8.1640878    194.34455    0.0158158  0.015822965           22 
 1025000   0.87671304   -8.1287941     194.6407  0.015824447  0.015808183           36 
 1026000   0.85295494   -8.1643545    194.07704  0.015763242  0.015793317           36 
 1027000   0.84093887   -8.1830645    194.05222   0.01574588  0.015778333           40 
 1028000   0.84057375   -8.1496637     194.0852  0.015733236  0.015763399           27 
 1029000   0.85004977    -8.198149    194.01134  0.015711964  0.015748566           37 
 1030000   0.82196104   -8.1404132    194.64196  0.015747731  0.015733723           34 
 1031000   0.83891203   -8.1949139    194.24774  0.015700594  0.015718907           32 
 1032000   0.82594363    -8.196766     194.1477  0.015677301  0.015704112           39 
 1033000   0.84903579   -8.1842222    194.38168     0.015681  0.015689277           27 
 1034000   0.80822186   -8.2294103    193.63864  0.015605951  0.015674342           19 
 1035000   0.85217155   -8.2015914    194.17101  0.015633737  0.015659305           28 
 1036000   0.82835431    -8.229298    194.28122  0.015627511  0.015644343           18 
 1037000   0.86098134   -8.2036219    194.06712  0.015595236  0.015629411           35 
 1038000   0.83413385   -8.1881239    194.32221  0.015600691  0.015614485           12 
 1039000   0.82574982   -8.1939023    194.26996  0.015581485  0.015599645           26 
 1040000   0.83185242   -8.2242254    194.16627  0.015558195  0.015584845           21 
 1041000   0.85315392   -8.2017791    194.80418  0.015594314  0.015570091           20 
 1042000   0.83586587   -8.1652832    194.67736  0.015569207  0.015555378           10 
 1043000   0.85619457   -8.1890471    194.75814  0.015560734  0.015540703           18 
 1044000    0.8157172   -8.2081753    194.48551  0.015524067   0.01552597            9 
 1045000   0.84724216   -8.1773848    195.35639  0.015578659  0.015511283           27 
 1046000   0.83402541   -8.1852007     194.3905  0.015486815  0.015496613           16 
 1047000   0.83666535   -8.1619299    194.88677  0.015511523  0.015481944           15 
 1048000   0.84488251   -8.2075731    194.24471  0.015445667  0.015467258           13 
 1049000   0.82543543   -8.1922423    194.61629  0.015460461  0.015452494           31 
 1050000   0.84571948   -8.1959574    194.64704  0.015448178  0.015437814           32 
 1051000   0.83624257    -8.210027    194.48604  0.015420714  0.015423141           31 
 1052000   0.83681848   -8.2264026    194.43489  0.015402003   0.01540836           38 
 1053000    0.8250197   -8.2074339    194.50399  0.015392845  0.015393538           22 
 1054000   0.82721842   -8.1852873     194.3637  0.015367149  0.015378821           58 
 1055000   0.84401512   -8.1728383    195.08946   0.01540991   0.01536417           45 
 1056000   0.82143041   -8.2020789    194.35195  0.015337117  0.015349425           18 
 1057000   0.84813283   -8.1812755     194.2526  0.015314774  0.015334708           35 
 1058000   0.84430375   -8.2031928    194.38821  0.015310981  0.015319967           49 
 1059000   0.83399341   -8.1952079    194.53521   0.01530809  0.015305207           56 
 1060000   0.82205083   -8.2061526    194.63497  0.015301492  0.015290424           46 
 1061000   0.84807804   -8.2356506    194.63573  0.015287129  0.015275604           47 
 1062000   0.84038689   -8.2344685    194.15223  0.015234795  0.015260772           55 
 1063000   0.83077192   -8.2626326    194.63149  0.015258034   0.01524592           91 
 1064000   0.83699002   -8.2135619    194.85104  0.015260889    0.0152312           88 
 1065000    0.8219235   -8.2251868    194.80554     0.015243  0.015216512           73 
 1066000   0.83639334   -8.2513186    194.52929  0.015207105  0.015201843           78 
 1067000    0.8338532   -8.2207525    194.53685  0.015193444  0.015187136           44 
 1068000   0.83289882   -8.2317337     194.7282  0.015194148  0.015172434           74 
 1069000   0.80715244   -8.2263221    194.48514  0.015160987  0.015157709           95 
 1070000   0.82629954   -8.2694797    194.22458  0.015126525  0.015143061           88 
 1071000   0.82768573   -8.2265318    194.69808  0.015149244  0.015128412           87 
 1072000   0.82158425    -8.214539    194.51171  0.015120624  0.015113809           66 
 1073000   0.82256115   -8.2265789      194.865   0.01513397  0.015099261           97 
 1074000   0.82437131   -8.2087546    195.06199  0.015135164  0.015084784          104 
 1075000   0.83852434   -8.2156686     195.2561  0.015136132  0.015070295           97 
 1076000   0.82084717   -8.1949908    195.68753  0.015155478  0.015055936           81 
 1077000   0.81982868   -8.2157704    194.93166   0.01508292  0.015041491           87 
 1078000   0.81836354   -8.2370746    195.18045  0.015088161  0.015026977          105 
 1079000   0.81040261   -8.2295731    195.73227  0.015116796   0.01501258          106 
 1080000   0.84907134    -8.255188    194.83146  0.015033292  0.014998129          107 
 1081000   0.81879843   -8.2286881    195.42427  0.015065084  0.014983673          109 
 1082000    0.8205496   -8.2530232    195.11943  0.015027683  0.014969198           98 
 1083000   0.81508251   -8.2318154    194.99697  0.015004384  0.014954795           81 
 1084000   0.81200212   -8.2337078    195.40956   0.01502226  0.014940379           97 
 1085000   0.81824585   -8.2544098    195.21169  0.014993217  0.014926017           91 
 1086000   0.81399763    -8.250319    195.01853   0.01496459  0.014911586           81 
 1087000   0.83207432     -8.25159    194.86703  0.014939208  0.014897116           84 
 1088000   0.81926296   -8.2374367    195.27433  0.014956674  0.014882706          107 
 1089000   0.81067985   -8.2682232    195.01019  0.014922726  0.014868351          138 
 1090000   0.81947476   -8.2907509    195.43971  0.014941874  0.014853977          106 
 1091000   0.82244532    -8.249518    195.20663  0.014910375  0.014839608          114 
 1092000   0.81286747   -8.2367223    195.41657  0.014912742  0.014825299          105 
 1093000   0.82384785   -8.2650372    195.25546  0.014886815  0.014810968          117 
 1094000   0.81368708   -8.2841494    195.41513   0.01488537  0.014796711          116 
 1095000   0.79638595   -8.2527206    195.21059  0.014856209  0.014782425           93 
 1096000   0.81449743   -8.2584566    195.23103  0.014844208  0.014768164          123 
 1097000   0.81995591   -8.2745172    195.65086  0.014862569  0.014753881          128 
 1098000    0.8116057   -8.3042767    195.67698  0.014851016  0.014739651          116 
 1099000   0.80534218   -8.2889366     195.5601  0.014828639  0.014725472          109 
 1100000   0.81731625   -8.2611049    195.44823  0.014806684  0.014711255          125 
 1101000   0.79913306   -8.2898849    195.47921  0.014795581   0.01469706          142 
 1102000   0.79731491   -8.2939026     195.2041  0.014761351  0.014682798          150 
 1103000   0.80862887   -8.2887214    195.44578  0.014766227  0.014668565          151 
 1104000   0.83416336   -8.3022212    195.51799  0.014758302   0.01465426          142 
 1105000   0.81963861   -8.2874327     195.3486  0.014732172  0.014640016          154 
 1106000   0.81373506   -8.2461844    195.91776  0.014761736  0.014625811          174 
 1107000   0.81888458   -8.3029371    195.29395  0.014701442   0.01461162          174 
 1108000    0.8149984   -8.2931007    195.63783  0.014714036  0.014597424          170 
 1109000   0.82360009   -8.3215768    195.19967  0.014667844  0.014583273          194 
 1110000   0.80411494   -8.3038038    195.48723  0.014676219  0.014569122          196 
 1111000   0.81892191   -8.3143728    195.46601  0.014661417   0.01455499          197 
 1112000   0.81684515   -8.3268703    195.59105  0.014657603    0.0145409          239 
 1113000    0.8168016   -8.3153293    195.19229  0.014614577  0.014526759          218 
 1114000   0.78705452   -8.3399542    195.43822  0.014619855  0.014512593          205 
 1115000   0.80915739   -8.3243769    195.16278  0.014586157  0.014498423          227 
 1116000    0.8022418   -8.3288894    195.30071  0.014583386  0.014484237          214 
 1117000   0.81219311   -8.3505002    195.03741  0.014550687  0.014470069          195 
 1118000   0.80930561   -8.3359909    195.59548   0.01457927  0.014455991          222 
 1119000   0.78965767   -8.3243053    195.63082  0.014568872   0.01444192          250 
 1120000   0.81802552   -8.3403548    195.85386   0.01457246  0.014427887          302 
 1121000   0.79647512   -8.3261146    195.61723  0.014541869  0.014413831          277 
 1122000   0.79346362   -8.3709415    195.34564  0.014508737  0.014399746          242 
 1123000   0.78587992   -8.3839686     195.1035   0.01447785  0.014385628          297 
 1124000   0.80689515   -8.3646244    195.70666  0.014509687  0.014371522          265 
 1125000   0.82630469   -8.3424768    195.32953  0.014468854  0.014357425          306 
 1126000   0.81603424   -8.3481373    195.51431   0.01446968  0.014343382          290 
 1127000   0.77502948   -8.3641559    195.30738   0.01444154  0.014329307          290 
 1128000   0.80843603   -8.3724519    195.52466  0.014444788  0.014315271          292 
 1129000   0.80005974   -8.3780145    195.43066  0.014425056  0.014301191          294 
 1130000   0.79329077   -8.3824542    194.99519  0.014380176  0.014287179          311 
 1131000   0.81034343   -8.3863803    195.29157    0.0143893  0.014273166          337 
 1132000    0.8051612   -8.3765468    195.19562  0.014369525  0.014259104          358 
 1133000   0.79894265   -8.3725172    195.72087  0.014395475  0.014245054          392 
 1134000   0.81455957   -8.3678931    195.31466  0.014352929  0.014231019          398 
 1135000   0.78553511   -8.3900308    195.28556  0.014338147  0.014216998          415 
 1136000   0.82704329   -8.3535459    195.40825  0.014334525  0.014203008          417 
 1137000   0.78424925   -8.3725696     195.4363  0.014323974  0.014189072          451 
 1138000   0.79918065   -8.3689431    195.85761  0.014342239  0.014175123          424 
 1139000   0.79746086   -8.4095574    195.50615  0.014303932  0.014161172          462 
 1140000   0.81374207    -8.398998    195.72042  0.014307048  0.014147217          466 
 1141000   0.79123238   -8.3988839    195.83922  0.014303186  0.014133278          498 
 1142000   0.80973341   -8.3977205    195.50387   0.01426619  0.014119343          547 
 1143000   0.78758477   -8.4111722    195.61511  0.014261819  0.014105478          572 
 1144000   0.81490777   -8.4154231    195.28251  0.014225125  0.014091602          506 
 1145000   0.78434815   -8.4007149    195.90318  0.014257874  0.014077714          564 
 1146000   0.79049015   -8.4451629    195.35651   0.01420568  0.014063786          620 
 1147000   0.78784928   -8.4281232    195.05724  0.014171552  0.014049801          578 
 1148000   0.79005946   -8.3877302    195.70816  0.014206457  0.014035825          648 
 1149000   0.78525036   -8.4146315    195.38372  0.014170563  0.014021834          567 
 1150000   0.81175962   -8.4433713    194.90273  0.014123387  0.014007844          612 
 1151000     0.799819   -8.4459327    195.13762  0.014128122  0.013993846          746 
 1152000   0.79446592   -8.4472808    195.30136  0.014127703  0.013979885          689 
 1153000   0.79361797    -8.456002    195.04314  0.014096787   0.01396597          689 
 1154000   0.78799715   -8.4254021    194.86212  0.014071499  0.013952015          648 
 1155000    0.8058538   -8.4099215    195.51948  0.014106745  0.013938106          743 
 1156000   0.77636498   -8.4534108     195.4314  0.014088192   0.01392413          848 
 1157000   0.78957104    -8.467927    195.17355  0.014057444  0.013910179          941 
 1158000   0.80565114    -8.463264     195.4982  0.014068667  0.013896228          939 
 1159000   0.79282395   -8.4659704     194.9138  0.014014509  0.013882269          963 
 1160000   0.78482836   -8.4989362    194.94269  0.014004504  0.013868253          965 
 1161000   0.78599709   -8.4878669    194.97852  0.013995013   0.01385426         1041 
 1162000    0.7973104   -8.5238791    194.70892  0.013963635  0.013840289         1008 
 1163000    0.7824219   -8.5057426    194.97875  0.013970962  0.013826302         1049 
 1164000   0.78154337   -8.5279823    194.82376  0.013947864  0.013812342         1155 
 1165000    0.7690961   -8.5263227    194.77497  0.013932401  0.013798363         1085 
 1166000   0.79860907   -8.5403086    194.84209  0.013925249  0.013784436         1146 
 1167000   0.79236395   -8.5278174    195.03637   0.01392719   0.01377045         1130 
 1168000   0.79342202   -8.5304519    194.70579   0.01389168  0.013756503         1140 
 1169000   0.77918326   -8.5555982    195.10744  0.013908429  0.013742578         1203 
 1170000   0.79297448   -8.5417039    194.87307  0.013879848  0.013728665         1220 
 1171000   0.78093103   -8.5220735    194.99781  0.013876873  0.013714716         1241 
 1172000   0.78397144   -8.5275847     194.7343  0.013846296  0.013700747         1277 
 1173000   0.79428219   -8.5735729    194.71908   0.01383341  0.013686785         1341 
 1174000   0.79506248   -8.5808634    194.12168  0.013779222  0.013672796         1449 
 1175000   0.79560531   -8.5773537    194.54274  0.013797358  0.013658746         1427 
 1176000   0.78461744    -8.593722    194.38011  0.013774101  0.013644703         1424 
 1177000   0.77231698   -8.5979706       194.38   0.01376239  0.013630627         1408 
 1178000   0.78413266   -8.6081507    194.36914   0.01374994  0.013616563         1524 
 1179000   0.78922931   -8.6297364    194.12862  0.013721277  0.013602491         1596 
 1180000   0.79133415   -8.6167553    194.06524  0.013705172  0.013588364         1534 
 1181000   0.76763583   -8.6679983    194.27201  0.013708158  0.013574215         1585 
 1182000   0.78033396   -8.6522878    193.53313  0.013644468  0.013560046         1698 
 1183000   0.78162675   -8.6791662    194.21918  0.013681261  0.013545873         1749 
 1184000   0.79439524    -8.677962    193.72476  0.013634907  0.013531717         1809 
 1185000   0.79769263   -8.6580999    193.94728  0.013639049  0.013517538         1790 
 1186000   0.78073015   -8.6743968    193.84983  0.013620702  0.013503366         1905 
 1187000   0.77944334   -8.6752043    193.68898  0.013597935  0.013489161         1952 
 1188000   0.78448799   -8.6854441    193.35549  0.013563096   0.01347495         1984 
 1189000   0.77930859   -8.7244586    193.59375  0.013568387  0.013460718         2013 
 1190000   0.79067684   -8.7038032    193.72004  0.013565829  0.013446495         2105 
 1191000   0.78328223    -8.717557    193.42313  0.013533664  0.013432264         2086 
 1192000   0.76729601   -8.7636561     192.9184  0.013487025  0.013418008         2162 
 1193000   0.78497217   -8.7135882    193.23571  0.013497884  0.013403708         2212 
 1194000   0.77312213    -8.746948    193.03738  0.013472737  0.013389441         2273 
 1195000    0.7764284   -8.7613617    192.77189  0.013442949  0.013375137         2290 
 1196000   0.77049183   -8.7901071    192.51007  0.013413466  0.013360791         2361 
 1197000   0.76843607   -8.7954691    193.06208  0.013440691  0.013346416         2436 
 1198000   0.76669412   -8.7790911    192.54718  0.013393655  0.013332043         2369 
 1199000   0.77084606   -8.8068469    192.35487  0.013369118  0.013317642         2468 
 1200000   0.76179622   -8.7906828    192.52294  0.013369648   0.01330324         2473 
 1201000   0.78002203   -8.8089416    192.34464  0.013346145   0.01328887         2524 
 1202000   0.76694059    -8.849243    192.39876  0.013338794  0.013274491         2584 
 1203000   0.76922639   -8.8368758    191.88393  0.013292043  0.013260096         2541 
 1204000   0.77282141   -8.8167513    192.70649  0.013337935  0.013245719         2597 
 1205000   0.75919969   -8.8503751    192.14793  0.013288239  0.013231306         2562 
 1206000   0.78287585   -8.8346743    192.13571  0.013276376  0.013216918         2665 
 1207000   0.77558593   -8.8797701    191.85965  0.013246316  0.013202516         2758 
 1208000   0.78366286   -8.8561859     192.4758  0.013277856  0.013188109         2738 
 1209000   0.76854773   -8.8820495    192.18544  0.013246859  0.013173697         2794 
 1210000    0.7827213   -8.8762776     192.2636  0.013241295  0.013159265         2875 
 1211000    0.7608819   -8.8951167    192.00162  0.013212333  0.013144822         2962 
 1212000   0.76008887   -8.8996638    192.22662  0.013216902  0.013130379         2878 
 1213000   0.77302275   -8.8918792    191.72423  0.013171491  0.013115916         2988 
 1214000   0.75619408   -8.9141304    191.83248  0.013168072  0.013101462         2967 
 1215000    0.7631392   -8.9241686    190.98295  0.013098968  0.013087003         2992 
 1216000   0.76561496   -8.8948944    191.69419  0.013136937  0.013072536         3067 
 1217000   0.76417548   -8.9063867     191.8979  0.013140092  0.013058091         3077 
 1218000   0.77004132   -8.9128891    191.62909  0.013110912  0.013043668         3123 
 1219000   0.75713136   -8.9141403    191.87542  0.013116996   0.01302926         3095 
 1220000    0.7579067   -8.9500042    191.33565  0.013069375  0.013014825         3134 
 1221000   0.76978334   -8.9416112       191.17  0.013047366  0.013000392         3249 
 1222000   0.77198158    -8.972141    191.41556  0.013053434  0.012985936         3218 
 1223000   0.76649675   -8.9799541    191.08061  0.013019938  0.012971474         3230 
 1224000   0.76850495   -8.9885114    190.77126  0.012988239  0.012957012         3287 
 1225000   0.76130558   -8.9962603    190.93145  0.012988534  0.012942519         3299 
 1226000   0.75862672   -9.0300309    191.08395  0.012988306  0.012928065         3333 
 1227000   0.77140145   -8.9833292    190.79355  0.012957997  0.012913596         3300 
 1228000   0.76986272    -9.034625    190.58738  0.012933454  0.012899153         3370 
 1229000   0.75367997   -8.9970586    191.08605  0.012956743  0.012884699         3359 
 1230000    0.7542072   -9.0187121    191.30623  0.012961127  0.012870254         3373 
 1231000   0.76129187   -9.0450617    190.37584  0.012887614  0.012855801         3374 
 1232000   0.77672633   -9.0208608    190.86914  0.012910521  0.012841358         3368 
 1233000    0.7609785   -9.0029218    190.59828  0.012881744  0.012826936         3406 
 1234000   0.74590458   -9.0170079    190.50561  0.012865047  0.012812547         3359 
 1235000   0.75718354    -9.029208    190.65366  0.012864619  0.012798139         3420 
 1236000   0.76963446    -9.025919     190.7297  0.012859338  0.012783726         3415 
 1237000    0.7579522   -9.0559341    190.42227  0.012828231   0.01276935         3475 
 1238000   0.77121531   -9.0625283    190.42911   0.01281833  0.012754975         3461 
 1239000   0.77674812   -9.0551731    191.04153  0.012849174  0.012740619         3465 
 1240000   0.76842726   -9.0826676    190.56539  0.012806814  0.012726263         3541 
 1241000   0.77489454   -9.0878273    190.21136  0.012772721  0.012711918         3509 
 1242000    0.7544281   -9.0432987    190.34336  0.012771294  0.012697588         3534 
 1243000   0.76025811   -9.0652087    190.06946  0.012742656  0.012683265         3486 
 1244000   0.75052067   -9.0901601    190.56523  0.012765623  0.012668936         3573 
 1245000   0.75953123   -9.0933294    190.39113  0.012743717  0.012654612         3589 
 1246000   0.77435533   -9.0913222    190.01647  0.012708432  0.012640303         3526 
 1247000    0.7559356   -9.0872308    189.97219  0.012695282  0.012626013         3561 
 1248000   0.75828137   -9.0714698    190.49388  0.012719944  0.012611728         3503 
 1249000   0.73989365   -9.0797146    190.13542  0.012685843   0.01259745         3572 
 1250000   0.75338717   -9.0930323    190.16957  0.012677971  0.012583179         3602 
 1251000   0.76243996   -9.0956197    190.57955  0.012695147  0.012568914         3674 
 1252000   0.74643629   -9.1061449    190.10738   0.01265358  0.012554674         3684 
 1253000   0.76877357   -9.0844484    189.63562  0.012612106  0.012540429         3608 
 1254000   0.74798961   -9.1398012    189.94444  0.012622571  0.012526181         3680 
 1255000   0.75617293   -9.1128043     190.2254  0.012631169  0.012511953         3652 
 1256000   0.75360034   -9.1016112    190.36901   0.01263064  0.012497715         3677 
 1257000   0.76063137   -9.1267345    189.98769  0.012595312  0.012483485         3720 
 1258000   0.73151978   -9.1397099    190.00109  0.012586188  0.012469289         3670 
 1259000    0.7498952   -9.1397889    189.22762  0.012524994  0.012455065         3669 
 1260000   0.74894002   -9.1649187    189.46501  0.012530754  0.012440857         3743 
 1261000   0.76100278    -9.153371    189.57647  0.012528183  0.012426663         3737 
 1262000   0.73322313    -9.167133    189.77057  0.012531073  0.012412461         3801 
 1263000   0.75476624   -9.1484681    189.80802  0.012523622  0.012398278         3700 
 1264000   0.74657746   -9.1456863    189.52599  0.012495121  0.012384123         3727 
 1265000   0.74424291   -9.1377604    189.72126  0.012498107  0.012369991         3721 
 1266000   0.75286859   -9.1526166    189.45832  0.012470927  0.012355861         3728 
 1267000   0.74658077   -9.1458449    189.45861  0.012461103  0.012341744         3765 
 1268000    0.7215345   -9.1432664    189.45167  0.012450819  0.012327637         3749 
 1269000   0.74647896   -9.1691452    189.69931   0.01245727  0.012313553         3761 
 1270000   0.74235621   -9.1774055     189.4396   0.01243042  0.012299466         3743 
 1271000   0.72894321   -9.1748252    189.32794  0.012413319  0.012285396         3792 
 1272000   0.73384921   -9.1753763    189.15244  0.012392063  0.012271342         3760 
 1273000   0.74186993   -9.1770212    189.70132  0.012418259    0.0122573         3790 
 1274000   0.73421245   -9.1721752    189.38987  0.012388139  0.012243267         3795 
 1275000   0.74344222   -9.1575486    189.40813  0.012379617   0.01222924         3807 
 1276000   0.74404123   -9.1902154    189.25635  0.012360002  0.012215246         3788 
 1277000   0.74023171   -9.2140967    189.13282  0.012342262  0.012201244         3797 
 1278000   0.75010375   -9.1995872    189.15751  0.012334214  0.012187244         3844 
 1279000   0.74229959   -9.1834931    189.26041  0.012331275  0.012173278         3821 
 1280000   0.74911781   -9.2129762    189.01988  0.012305982    0.0121593         3828 
 1281000   0.73950511   -9.2163994    189.55184  0.012330981  0.012145361         3825 
 1282000   0.72122878   -9.1942924    189.61432  0.012325424  0.012131438         3853 
 1283000   0.73678025   -9.1938757    189.08166   0.01228122  0.012117528         3832 
 1284000   0.73415784   -9.2041294    188.93395  0.012262068  0.012103637         3832 
 1285000   0.73420066   -9.1705086    189.64432  0.012298594  0.012089759         3821 
 1286000   0.75854492   -9.1986501    189.16824   0.01225818  0.012075908         3820 
 1287000   0.72913628   -9.2074587    189.38253  0.012262531  0.012062049         3849 
 1288000   0.74268148   -9.1820136    189.40587  0.012254521  0.012048221         3842 
 1289000   0.75734542   -9.2203542    188.91105  0.012213024   0.01203441         3826 
 1290000   0.74035422   -9.2069976    188.90506  0.012203169  0.012020616         3843 
 1291000   0.74766589   -9.2012257    189.12281  0.012207772  0.012006845         3843 
 1292000   0.74571215   -9.2217982    189.54154  0.012225332  0.011993075         3844 
 1293000   0.74989559    -9.197928     189.2026  0.012194032  0.011979337         3796 
 1294000   0.72663026   -9.2104168    188.92829  0.012166943   0.01196563         3838 
 1295000   0.75061406   -9.2149767    188.81759  0.012150424  0.011951932         3822 
 1296000   0.74272008   -9.2265907    189.03956  0.012155322  0.011938241         3843 
 1297000   0.72754735   -9.2353351    189.01055  0.012144086  0.011924567         3873 
 1298000   0.74192896    -9.223621    188.68457  0.012113801  0.011910899         3855 
 1299000   0.75324392   -9.2061371    188.97832   0.01212332  0.011897247         3872 
 1300000   0.73850452   -9.2277735    188.85491  0.012106084  0.011883608         3854 
 1301000   0.72800885   -9.2354864    189.13969   0.01211502  0.011869973         3875 
 1302000   0.72931335   -9.2236309    188.93247  0.012092452  0.011856339         3879 
 1303000   0.72048954   -9.2350488    188.55355  0.012058938  0.011842734         3864 
 1304000   0.74715061   -9.2629659    188.64724  0.012055677  0.011829139         3860 
 1305000   0.73747381   -9.2222159    189.07299  0.012073626  0.011815573         3889 
 1306000   0.73482386   -9.2307115    188.92931  0.012055214  0.011802021         3874 
 1307000   0.73446884   -9.2222092    189.22331  0.012064735  0.011788481         3865 
 1308000   0.73718881   -9.2616973    189.22248  0.012055459  0.011774953         3877 
 1309000   0.72604734   -9.2688246    188.95121  0.012028979  0.011761454         3878 
 1310000   0.72293319   -9.2375292     188.7376  0.012006209  0.011747971         3856 
 1311000   0.72129415   -9.2556724     188.5946  0.011987961  0.011734516         3899 
 1312000   0.73199739    -9.240091    188.90762  0.011998706  0.011721062         3880 
 1313000   0.72309427   -9.2376245     188.6599  0.011973845  0.011707625         3872 
 1314000   0.72852088   -9.2439143    188.79388  0.011973229  0.011694205         3875 
 1315000   0.73581627   -9.2526696    188.66162  0.011955743  0.011680794         3890 
 1316000   0.73133656   -9.2304881    188.88532  0.011960823   0.01166742         3903 
 1317000   0.73092899   -9.2422845     188.5933  0.011933264  0.011654042         3879 
 1318000   0.72073793   -9.2908697    188.30478  0.011905968  0.011640661         3894 
 1319000   0.72635316   -9.2440174    188.97682  0.011939399  0.011627314         3886 
 1320000    0.7218664   -9.2745134    188.61076  0.011907245  0.011613977         3893 
 1321000   0.71834574   -9.2587559    188.45686  0.011888523  0.011600673         3900 
 1322000   0.73909775   -9.2417528    188.57074  0.011886709  0.011587368         3866 
 1323000   0.72108221   -9.2621237    188.38925  0.011866292  0.011574089         3892 
 1324000   0.72620296   -9.2592678    188.24545  0.011848279  0.011560824         3883 
 1325000   0.71922544   -9.2729527     188.3059  0.011843139  0.011547571         3897 
 1326000   0.72343829   -9.2509896    188.34706  0.011836794  0.011534329         3901 
 1327000   0.73255435   -9.2693909    188.36444  0.011828965  0.011521107         3904 
 1328000   0.71635272   -9.2827729    188.37444  0.011820685  0.011507886         3911 
 1329000   0.72357043   -9.2811643    188.45439  0.011816804  0.011494701         3906 
 1330000   0.71382265   -9.3004556     188.5177  0.011811886  0.011481516         3915 
 1331000   0.71127043   -9.2648884    188.41348  0.011796487  0.011468365         3911 
 1332000   0.71150069   -9.2816405    188.46193  0.011790661  0.011455227         3909 
 1333000   0.72516979   -9.2897579    188.41996  0.011779192  0.011442097         3899 
 1334000   0.71642272   -9.2857825    188.47575  0.011773847  0.011428995         3910 
 1335000   0.71991987   -9.2965562    188.15591  0.011745063  0.011415901         3898 
 1336000   0.72872794    -9.277806    188.60981  0.011764584  0.011402827         3891 
 1337000   0.72276912   -9.3030222    187.95734  0.011715117  0.011389769         3922 
 1338000   0.71308276   -9.2631354    188.28388  0.011726699  0.011376737         3930 
 1339000   0.71387673   -9.2840168    188.46257  0.011729062  0.011363713         3901 
 1340000   0.71560384    -9.282449     188.1865  0.011703141  0.011350714         3912 
 1341000   0.70690535   -9.2897869    188.53501   0.01171607  0.011337736         3923 
 1342000   0.71153748   -9.2913744    188.54165  0.011707752  0.011324777         3903 
 1343000   0.70895009    -9.280569    188.39017  0.011689636   0.01131184         3904 
 1344000   0.70894439   -9.2830371    188.47645  0.011686288  0.011298911         3890 
 1345000   0.71644917   -9.2748633    188.30942   0.01166725   0.01128601         3915 
 1346000   0.71604313   -9.2650524    188.03965   0.01164188  0.011273114         3900 
 1347000   0.70315433   -9.2891476    188.51174  0.011662444  0.011260242         3919 
 1348000   0.72289746   -9.2928551    188.11793  0.011629446  0.011247385         3900 
 1349000   0.71883004   -9.2989769    188.33575  0.011634282  0.011234558         3914 
 1350000   0.71025608   -9.3131829    188.19208  0.011616795  0.011221734         3920 
 1351000   0.69933786   -9.2923613    188.48387  0.011626195   0.01120894         3922 
 1352000   0.71082577   -9.3076849    188.36281  0.011610133   0.01119616         3927 
 1353000   0.69954767   -9.2963526    188.14863  0.011588361  0.011183401         3917 
 1354000   0.72690032    -9.272041    188.27604  0.011587644  0.011170662         3923 
 1355000    0.7200936   -9.2870373    188.41817  0.011587833  0.011157945         3897 
 1356000   0.69492238   -9.2658125    188.31431  0.011572905  0.011145228         3911 
 1357000   0.71431731   -9.3002503    188.62785  0.011583631  0.011132534         3904 
 1358000   0.70948902   -9.3113465    188.16955  0.011546978   0.01111985         3936 
 1359000   0.70081615   -9.3173436    188.17032  0.011538528  0.011107192         3918 
 1360000   0.72070766   -9.2920089    188.29391  0.011537617  0.011094567         3920 
 1361000    0.7109882    -9.316643    187.94918  0.011508032  0.011081952         3918 
 1362000   0.70853557   -9.2882025    188.25355  0.011518206  0.011069356         3912 
 1363000    0.7256777    -9.314121    188.23759  0.011508779  0.011056776         3922 
 1364000   0.71052177   -9.2961292    188.25086  0.011501152  0.011044193         3933 
 1365000   0.71355959   -9.2792269    188.56821  0.011512101  0.011031654         3920 
 1366000    0.7124055   -9.3090502     188.0807  0.011473932  0.011019135         3929 
 1367000   0.69757268   -9.3076231    188.06657  0.011464677  0.011006622         3923 
 1368000   0.72005536   -9.3049806    188.01224  0.011452987  0.010994125         3911 
 1369000   0.70008989   -9.2889366    188.38185   0.01146712  0.010981651         3898 
 1370000   0.71137635   -9.3181689    188.16507  0.011445564  0.010969194         3932 
 1371000   0.69810954   -9.3003969    187.95206  0.011424268  0.010956757         3917 
 1372000   0.70565279   -9.3260724    187.95644  0.011416207  0.010944344         3932 
 1373000   0.70722293   -9.3250317    188.36518  0.011432701  0.010931908         3913 
 1374000   0.70033112   -9.3319327    188.01356  0.011403054  0.010919501         3921 
 1375000   0.71373147   -9.3222919    187.72492  0.011377268  0.010907107         3920 
 1376000   0.71805076   -9.3290588    187.57323  0.011359813  0.010894737         3928 
 1377000   0.71392105   -9.3213778    187.84093  0.011367764  0.010882385         3933 
 1378000    0.7063929   -9.3161344    187.81572   0.01135799  0.010870043         3918 
 1379000   0.70018532   -9.3134256    187.93041  0.011356684  0.010857715         3916 
 1380000   0.70090654   -9.3298703    188.09891   0.01135863  0.010845423         3920 
 1381000   0.71633629   -9.3284084    187.94169  0.011340918  0.010833135         3928 
 1382000    0.7015533   -9.3135635    188.21136  0.011348973  0.010820874         3920 
 1383000   0.69047105   -9.3152816    188.26732  0.011344138  0.010808627         3910 
 1384000   0.70080538   -9.3424278    188.38973  0.011343312  0.010796377         3907 
 1385000   0.69668436   -9.3438997     188.0857  0.011316829  0.010784183         3925 
 1386000   0.70138773   -9.3409465    187.95477  0.011300792  0.010771989         3908 
 1387000   0.68919059    -9.343086    187.93455  0.011291429  0.010759802         3928 
 1388000   0.69328086   -9.3353203    188.06569  0.011291168  0.010747648         3924 
 1389000   0.70781325    -9.329525    188.03751  0.011281348  0.010735499         3934 
 1390000   0.69255371    -9.335282    188.18986  0.011282366  0.010723371         3917 
 1391000   0.69894778   -9.3306006    188.13461  0.011270945  0.010711264         3915 
 1392000   0.70507328   -9.3438638    187.82013  0.011244021  0.010699164         3922 
 1393000    0.6851213   -9.3370622    188.12644  0.011254274  0.010687099         3924 
 1394000   0.70490947   -9.3263401    188.07994  0.011243421  0.010675047         3915 
 1395000   0.69567379   -9.3224095      187.997  0.011230406  0.010663009         3954 
 1396000   0.70453393   -9.3454005    187.68931  0.011203994  0.010650992         3919 
 1397000   0.67668041   -9.3166223    188.11187   0.01122118  0.010638992         3904 
 1398000   0.69272435   -9.3430283    187.60037  0.011182664  0.010627002         3923 
 1399000    0.6885288   -9.3258721    187.84563   0.01118928   0.01061501         3907 
 1400000    0.6909603    -9.304152    188.14011  0.011198816  0.010603054         3910 
 1401000   0.68814553   -9.3239652    187.97252  0.011180854  0.010591118         3924 
 1402000   0.68044713   -9.3273915    187.67201  0.011155017  0.010579187         3909 
 1403000   0.68370425   -9.3321121    187.64293  0.011145339  0.010567272         3913 
 1404000    0.6977177   -9.3472692    187.65399  0.011138057  0.010555386         3933 
 1405000   0.68556844   -9.3585636    187.96512  0.011148584  0.010543511         3917 
 1406000   0.68896475   -9.3357106    187.58048  0.011117857  0.010531647         3936 
 1407000   0.69158293   -9.3429182    187.94396  0.011131483  0.010519804         3916 
 1408000    0.6853559   -9.3450832    187.25847  0.011083006  0.010507975         3921 
 1409000   0.70452014   -9.3349715    188.06956  0.011123111  0.010496167         3918 
 1410000   0.67739075    -9.340299    188.04894  0.011114003  0.010484382         3919 
 1411000   0.67916233   -9.3365372      188.095  0.011108847  0.010472598         3916 
 1412000   0.69320605   -9.3453782    188.01814  0.011096443  0.010460845         3925 
 1413000   0.69528336   -9.3391901    187.78763  0.011074996  0.010449106         3926 
 1414000    0.6813578   -9.3571909    187.77346  0.011066328  0.010437383         3916 
 1415000   0.68946469   -9.3582865    187.89379  0.011065594  0.010425666         3906 
 1416000   0.67704789   -9.3579451    187.69742  0.011046223  0.010413984         3922 
 1417000   0.68434793   -9.3705147    187.87674  0.011048973  0.010402322         3924 
 1418000   0.69336672   -9.3496404    187.81383  0.011037484  0.010390672         3924 
 1419000   0.68686666   -9.3526996    187.71613  0.011023968  0.010379034         3914 
 1420000   0.69673337   -9.3290593    188.13512  0.011040794  0.010367428         3940 
 1421000   0.68832548   -9.3508674    187.95925   0.01102271  0.010355827         3913 
 1422000   0.70127424   -9.3504388    187.97768  0.011016039  0.010344243         3916 
 1423000   0.68627022   -9.3517954    187.49991  0.010980318  0.010332689         3938 
 1424000   0.68711748   -9.3596181    187.44563  0.010969431  0.010321143         3933 
 1425000   0.68857292   -9.3456926    187.73283  0.010978528  0.010309608         3928 
 1426000   0.68363422   -9.3572876     187.9254  0.010982083  0.010298093         3928 
 1427000   0.67377055   -9.3327679    187.87892  0.010971672  0.010286598         3922 
 1428000   0.68305745   -9.3453747    187.79714  0.010959217  0.010275113         3926 
 1429000     0.683697    -9.344298    187.68632  0.010945085  0.010263639         3920 
 1430000   0.68112063   -9.3591889    187.57826  0.010931134  0.010252181         3926 
 1431000   0.67613168   -9.3520834    187.81794  0.010937453   0.01024074         3927 
 1432000   0.69113139   -9.3399082    187.84269  0.010931255  0.010229322         3910 
 1433000    0.6942098   -9.3674082    187.92857  0.010928621  0.010217909         3927 
 1434000   0.67774105   -9.3696109    187.62589   0.01090341  0.010206518         3932 
 1435000   0.67242121   -9.3617453    187.62963   0.01089603  0.010195132         3937 
 1436000   0.68601238   -9.3723332    187.47371  0.010879394  0.010183754         3943 
 1437000   0.67763954   -9.3643208    187.86178  0.010894327  0.010172399         3935 
 1438000   0.69046406   -9.3620523    187.76955  0.010881406  0.010161048         3922 
 1439000   0.67960127   -9.3755482    187.42028  0.010853618  0.010149715         3937 
 1440000   0.67240024   -9.3618726    187.50719  0.010851111  0.010138409         3932 
 1441000   0.67866655   -9.3652872    187.45792  0.010840731  0.010127125         3936 
 1442000    0.6730255   -9.3777776    187.61144  0.010842085  0.010115848         3933 
 1443000   0.68715567   -9.3691261    187.73149  0.010841504  0.010104582         3937 
 1444000     0.678509   -9.3449167    187.58034  0.010825274   0.01009333         3953 
 1445000   0.68572839   -9.3700543    187.10684  0.010790475    0.0100821         3942 
 1446000   0.68319548   -9.3824631    187.67868  0.010815968  0.010070885         3942 
 1447000   0.68241427   -9.3773647    187.55402  0.010801314  0.010059691         3943 
 1448000   0.68126693    -9.392196    187.29664  0.010779042  0.010048516         3939 
 1449000   0.67754405   -9.3453322    187.63406  0.010791009  0.010037347         3934 
 1450000   0.68341697   -9.3722666    187.42776   0.01077171  0.010026199         3933 
 1451000   0.68382952   -9.3671174    187.74109  0.010782282   0.01001508         3922 
 1452000   0.68356674   -9.3857814     187.8267  0.010779769  0.010003974         3926 
 1453000   0.66810271    -9.371389    187.89941   0.01077652  0.009992875         3938 
 1454000   0.66814449   -9.3658088    187.19283  0.010728613 0.0099817973         3939 
 1455000   0.67220569   -9.3536024    187.67743  0.010748994 0.0099707364         3925 
 1456000   0.68293473   -9.3586495    187.49869  0.010731381   0.00995969         3945 
 1457000   0.67711571   -9.3719399    187.50602  0.010724435 0.0099486496         3919 
 1458000   0.66980365   -9.3930341    187.72419  0.010729549  0.009937632         3938 
 1459000   0.67279735   -9.3675604    187.55334  0.010712436  0.009926639         3927 
 1460000   0.65889854   -9.3684663    187.81658  0.010720124 0.0099156629         3937 
 1461000   0.68407142    -9.375138     187.6353  0.010702447 0.0099046912         3924 
 1462000   0.66620728   -9.3916278    187.70015  0.010698823 0.0098937316         3944 
 1463000   0.66889272   -9.3878279    187.64732  0.010688501 0.0098827935         3948 
 1464000   0.67424573   -9.3743465    187.67702  0.010682891 0.0098718606         3936 
 1465000   0.68296033   -9.3751136    187.82687  0.010684123 0.0098609549         3923 
 1466000   0.67774389   -9.3841616    187.32845  0.010648502 0.0098500654         3944 
 1467000   0.65784241   -9.3939669    187.38322  0.010644355 0.0098391793         3947 
 1468000   0.68118014   -9.3950527    187.70323   0.01065527 0.0098283162         3951 
 1469000    0.6548956   -9.3850148    187.14428  0.010616308 0.0098174655         3932 
 1470000   0.67102036   -9.3696055    187.63716  0.010637027  0.009806634         3929 
 1471000   0.65884741   -9.4056421    187.35381  0.010613744 0.0097958148         3948 
 1472000   0.66599612   -9.3961369    187.59595  0.010620242 0.0097850095         3942 
 1473000   0.65946635   -9.4142357     187.1592  0.010588323  0.009774213         3947 
 1474000   0.66511629   -9.3776563    187.60481  0.010606332  0.009763446         3945 
 1475000   0.67179906   -9.3882575    187.50576  0.010593546 0.0097526895         3938 
 1476000   0.67468983   -9.3785006    187.42443  0.010581777 0.0097419408         3924 
 1477000   0.66717412   -9.3935595    187.53018  0.010580579  0.009731215         3941 
 1478000   0.66526118   -9.3928453    187.65765  0.010580607 0.0097205023         3927 
 1479000   0.65697158     -9.38647    187.30565   0.01055362 0.0097098023         3924 
 1480000   0.66210978   -9.4064837    187.12621  0.010536386 0.0096991146         3949 
 1481000   0.64013871   -9.3872352    187.32345   0.01054037 0.0096884475         3954 
 1482000   0.66931418    -9.389524     187.4977  0.010543056 0.0096777871         3953 
 1483000   0.66948515   -9.4040164    187.11498  0.010514441   0.00966714         3946 
 1484000   0.67097463   -9.4246241    187.55609  0.010532126 0.0096565058         3945 
 1485000   0.66707532   -9.4001871    187.40769  0.010516705 0.0096458959         3952 
 1486000   0.66279719   -9.4072588    186.97533  0.010485382 0.0096352858         3944 
 1487000   0.67751843   -9.4185721    187.41014  0.010502698 0.0096246968         3936 
 1488000   0.65627504   -9.4219749    187.24687  0.010486496 0.0096141188         3943 
 1489000   0.65508095   -9.4437765    187.17303  0.010475321 0.0096035587         3962 
 1490000   0.66821528   -9.4141077    187.36345   0.01047894 0.0095930149         3952 
 1491000   0.66066762   -9.4076501    187.38591  0.010473167 0.0095824881         3942 
 1492000   0.65846959   -9.4238971    187.05225  0.010447512 0.0095719676         3956 
 1493000   0.65116228   -9.4234909    187.19906  0.010448708 0.0095614633         3949 
 1494000   0.65486757   -9.4057641    186.93356  0.010426905 0.0095509821         3936 
 1495000   0.64161549   -9.4344058    187.05006  0.010426425  0.009540519         3936 
 1496000   0.66143089   -9.4249177    187.10653  0.010422601 0.0095300711         3949 
 1497000   0.64470017   -9.4149168    187.14395  0.010417721 0.0095196378         3931 
 1498000   0.64154557   -9.4162805    187.18323  0.010412952 0.0095092097         3937 
 1499000    0.6584672   -9.4087456    187.21922  0.010408006 0.0094988045         3949 
 1500000   0.64651084   -9.4169188    187.30694  0.010405941 0.0094884129         3937 
 1501000   0.64864011   -9.4111313    187.06565  0.010385612 0.0094780262         3946 
 1502000   0.65024158   -9.4248234    187.06313  0.010378558 0.0094676741         3955 
 1503000   0.65665604   -9.4094215     187.0318  0.010369915 0.0094573346         3929 
 1504000   0.64780109   -9.4161856    187.21957  0.010373425 0.0094470071         3940 
 1505000   0.63845913   -9.3794301    186.89855  0.010348757 0.0094366947         3934 
 1506000   0.65427248   -9.4065747    187.01094  0.010348104 0.0094263991         3942 
 1507000   0.65022467   -9.4250988    187.10361  0.010346362 0.0094161171         3935 
 1508000   0.64941236   -9.4114718    187.54261  0.010363761 0.0094058575         3943 
 1509000   0.65761552   -9.4118999    187.05586  0.010330012 0.0093956001         3931 
 1510000   0.63579411   -9.4209726    187.07723  0.010324351 0.0093853693         3942 
 1511000   0.66978334   -9.4086809    187.29028  0.010329267 0.0093751533         3944 
 1512000   0.65349035   -9.4353922    187.03712  0.010308483 0.0093649452         3932 
 1513000   0.64273099    -9.420718    187.12205  0.010306348 0.0093547472         3942 
 1514000   0.64769184   -9.4271471    187.38818  0.010314189 0.0093445666         3954 
 1515000   0.64589045   -9.4183668    187.00244  0.010286163 0.0093343937         3956 
 1516000   0.64106577   -9.4260064     187.4118   0.01030188 0.0093242406         3929 
 1517000    0.6424475   -9.3878796    187.44912  0.010297139 0.0093141031         3944 
 1518000   0.63892946   -9.4287334    187.20546   0.01027698 0.0093039736         3931 
 1519000   0.64982144   -9.4364184    187.14504  0.010266899 0.0092938605         3947 
 1520000   0.65860025   -9.4254397    187.03496   0.01025411 0.0092837634         3954 
 1521000   0.65064577   -9.4194753    187.04617  0.010247982 0.0092736782         3948 
 1522000   0.64226241    -9.415007    187.50024   0.01026611 0.0092636103         3935 
 1523000   0.63895387   -9.4056129    187.29124  0.010247934 0.0092535564         3947 
 1524000   0.64890117   -9.4234703    186.66095  0.010206745  0.009243519         3948 
 1525000   0.63319996   -9.4402062    186.97524  0.010217226 0.0092334963         3956 
 1526000   0.63447594    -9.435007    187.02504   0.01021325 0.0092234925         3935 
 1527000   0.64271994   -9.4431242    187.02363  0.010206485  0.009213494         3942 
 1528000   0.64123095   -9.4201819    187.61041  0.010231807 0.0092035087         3959 
 1529000   0.65581623   -9.4333364    187.23647  0.010204735 0.0091935446         3940 
 1530000   0.63181278   -9.4277296    187.04911   0.01018786 0.0091835875         3942 
 1531000   0.63041882   -9.4301518    187.25486  0.010192405 0.0091736475         3941 
 1532000   0.62816591   -9.4177695    186.53545  0.010146619 0.0091637211         3947 
 1533000   0.63673393   -9.4399334    186.91292   0.01016052 0.0091538103         3938 
 1534000   0.63826072   -9.4340688    187.07299  0.010162592 0.0091439143         3960 
 1535000   0.65259176   -9.4131666    186.91781  0.010147546 0.0091340338         3939 
 1536000   0.63770932   -9.4465997    186.82882  0.010136112 0.0091241578         3942 
 1537000   0.65505399   -9.4244373    186.98616  0.010138048 0.0091143047         3962 
 1538000   0.64247455   -9.4252701     186.8883  0.010126154 0.0091044628         3948 
 1539000   0.65188112   -9.4295297    187.01806  0.010126601 0.0090946398         3937 
 1540000     0.630634   -9.4443508    186.85759  0.010111342 0.0090848277         3936 
 1541000   0.64092723   -9.4503672    187.07827  0.010116714 0.0090750215         3947 
 1542000   0.64655578   -9.4396434    186.89255  0.010100116 0.0090652314         3957 
 1543000   0.64794988    -9.451286    187.05848  0.010102532 0.0090554514         3948 
 1544000    0.6555895   -9.4227507    186.76337  0.010080061 0.0090457018         3954 
 1545000   0.64755939   -9.4547521    187.00452  0.010086544 0.0090359608         3945 
 1546000   0.63977095   -9.4216879      186.843  0.010071313 0.0090262277         3944 
 1547000   0.64935687   -9.4653479    186.48026  0.010045263  0.009016502         3956 
 1548000    0.6399998   -9.4302928    187.11262  0.010072816 0.0090067975         3945 
 1549000   0.63559448    -9.443362    187.00056  0.010060284 0.0089970984         3949 
 1550000   0.63729587    -9.449419    186.78576  0.010042245 0.0089874212         3951 
 1551000   0.62761362   -9.4552515    186.99818  0.010047184 0.0089777536         3940 
 1552000   0.64970385   -9.4491026    186.74766  0.010027258 0.0089680939         3946 
 1553000   0.63962482   -9.4617508    186.40683  0.010002513 0.0089584455         3932 
 1554000   0.63521612    -9.441023    187.05356  0.010030757 0.0089488095         3961 
 1555000   0.63308901   -9.4396623    187.26536  0.010035657  0.008939198         3949 
 1556000   0.63773567   -9.4486165    187.29435   0.01003076 0.0089295992         3945 
 1557000   0.63332507   -9.4542034    186.89598  0.010002996 0.0089200202         3940 
 1558000   0.63817295   -9.4541212    186.65295 0.0099835767 0.0089104459         3953 
 1559000    0.6326855   -9.4525098    186.73749 0.0099816918 0.0089008879         3950 
 1560000   0.62444744   -9.4576929    186.73762 0.0099753003 0.0088913428         3958 
 1561000   0.62249722   -9.4790878    186.93358 0.0099793713 0.0088818165         3945 
 1562000   0.61714974   -9.4385784    186.96473 0.0099746441 0.0088722983         3946 
 1563000   0.62945747   -9.4459032    186.98019 0.0099690868 0.0088627923         3950 
 1564000   0.63397867   -9.4371652    186.76277 0.0099511277 0.0088533041         3936 
 1565000   0.62806337   -9.4411754    186.78689 0.0099460537 0.0088438222         3950 
 1566000   0.62590482   -9.4350717    187.26901 0.0099653582 0.0088343575         3945 
 1567000   0.62287357   -9.4587603    186.66498 0.0099268763 0.0088249027         3954 
 1568000   0.62504744   -9.4743188    186.65649  0.009920094 0.0088154587         3950 
 1569000   0.62261394   -9.4696095    186.59821 0.0099106761 0.0088060335         3956 
 1570000   0.62872323   -9.4580478    186.91133 0.0099209834 0.0087966116         3950 
 1571000   0.62064534   -9.4615049    186.97661 0.0099181313 0.0087872146         3939 
 1572000   0.62548315   -9.4643246    186.96152  0.009911022 0.0087778242         3942 
 1573000   0.64662502   -9.4600286    186.89712 0.0099013093  0.008768448         3941 
 1574000   0.63452982    -9.490261    186.83376 0.0098916643 0.0087590978         3941 
 1575000   0.62282638   -9.4644644    186.89872 0.0098888212 0.0087497426         3942 
 1576000   0.61812867   -9.4764448    186.71591 0.0098728804 0.0087404139         3944 
 1577000   0.62544599   -9.4609011    187.14474 0.0098892802 0.0087310919         3921 
 1578000   0.62989444   -9.4867778    186.71472  0.009860304  0.008721784         3946 
 1579000   0.62848749   -9.4654674    186.85675 0.0098615554 0.0087124942         3946 
 1580000   0.60930266   -9.4909846    186.69954 0.0098470222 0.0087032148         3929 
 1581000   0.62507067   -9.4669869      186.956 0.0098543116   0.00869395         3955 
 1582000    0.6350529    -9.487118    186.46532 0.0098222357   0.00868469         3942 
 1583000   0.61018723   -9.4557216    187.03925  0.009846244 0.0086754471         3956 
 1584000   0.61752679   -9.4586864     186.9545 0.0098355694 0.0086662126         3962 
 1585000   0.62807631   -9.4720549    186.78047 0.0098202141 0.0086569933         3945 
 1586000   0.62720911   -9.4700574    186.55182 0.0098020084 0.0086477899         3935 
 1587000    0.6252568   -9.4840018    186.69527 0.0098033645 0.0086385931         3956 
 1588000   0.63642808   -9.4601951    186.88105 0.0098069399 0.0086294184         3939 
 1589000    0.6221092   -9.4716564     186.6623 0.0097892961 0.0086202538         3946 
 1590000   0.62191428   -9.4824388    186.73885 0.0097871512 0.0086111008         3936 
 1591000   0.60989371   -9.4674186    186.81732 0.0097851101 0.0086019616         3940 
 1592000   0.61420326   -9.4820157    186.79582 0.0097778384 0.0085928416         3940 
 1593000   0.62068337   -9.4807073    186.76582 0.0097701306 0.0085837262         3941 
 1594000   0.61204032   -9.4853479    186.49555  0.009749872 0.0085746377         3954 
 1595000    0.6130104   -9.4919716    186.49154 0.0097435496 0.0085655535         3936 
 1596000   0.61277653   -9.4924974    186.55954  0.009740995 0.0085564704         3940 
 1597000   0.61418541   -9.4613843    186.56256 0.0097350532 0.0085474098         3951 
 1598000    0.6159901   -9.4830926    186.70302  0.009736286 0.0085383584         3951 
 1599000    0.6203113   -9.4701865    186.63395 0.0097265974 0.0085293166         3959 
 1600000   0.62390658   -9.4758841     186.6951 0.0097237032  0.008520291         3930 
 1601000    0.6141746   -9.4799289    186.75725 0.0097208646 0.0085112789         3959 
 1602000   0.61783442   -9.4912112    186.57855 0.0097055008 0.0085022753         3938 
 1603000   0.61153863   -9.4786167    186.42274 0.0096913463 0.0084932905         3942 
 1604000   0.60852106   -9.4951312    186.74914  0.009702262 0.0084843123         3940 
 1605000   0.63249792   -9.4845058    186.56734 0.0096867779 0.0084753484         3954 
 1606000   0.60923271    -9.483058    186.57292 0.0096810356 0.0084663983         3948 
 1607000    0.6169676   -9.5138586    186.38486 0.0096652591 0.0084574557         3955 
 1608000   0.62196471     -9.47296    186.52666 0.0096665971 0.0084485236         3954 
 1609000   0.63501362    -9.503354    186.49152 0.0096587694  0.008439603         3960 
 1610000   0.61276428   -9.4852857    186.38527 0.0096472708 0.0084306962         3957 
 1611000   0.61072224   -9.4984347    186.40366 0.0096422337  0.008421807         3938 
 1612000   0.61061007    -9.476949    186.52279 0.0096424106 0.0084129372         3949 
 1613000   0.61816929    -9.490775    186.27885 0.0096238298 0.0084040765         3942 
 1614000   0.60960739   -9.4684012    186.63454 0.0096362318 0.0083952336         3951 
 1615000   0.61400153   -9.4845688    186.76077 0.0096367789 0.0083863978         3946 
 1616000    0.6266561    -9.504296    186.10603 0.0095970517  0.008377578         3935 
 1617000   0.61093596   -9.4871973    186.60095 0.0096166229 0.0083687633         3940 
 1618000   0.60028173   -9.5017895    186.27326  0.009593802 0.0083599397         3956 
 1619000   0.60829419   -9.5017596    186.29595 0.0095890442 0.0083511416         3954 
 1620000    0.6105007   -9.5257378     186.6425 0.0096009517 0.0083423606         3944 
 1621000   0.61088608    -9.476082    186.62249     0.009594  0.008333585         3950 
 1622000   0.59531798   -9.5017043    186.21187 0.0095669887 0.0083248259         3950 
 1623000   0.60729949   -9.4793597    186.60767 0.0095814164 0.0083160772         3936 
 1624000   0.59711154   -9.5077403    186.27485 0.0095584386 0.0083073363         3944 
 1625000   0.61395103   -9.4966653     186.2442 0.0095509844 0.0082986154         3938 
 1626000    0.6031372   -9.5030902    186.05318 0.0095353209 0.0082899013         3955 
 1627000   0.60644513   -9.5164135    186.23265 0.0095386526 0.0082811998         3954 
 1628000   0.60872895   -9.5021828     186.2738 0.0095348996 0.0082725147         3942 
 1629000   0.59838837    -9.517654    186.22559 0.0095265804 0.0082638405         3936 
 1630000   0.59986391   -9.5090026    186.35152 0.0095271738 0.0082551802         3933 
 1631000   0.59993666   -9.5048167    186.33171 0.0095203202 0.0082465341         3933 
 1632000   0.60506992   -9.5086023    186.45327 0.0095206942 0.0082378879         3954 
 1633000   0.60423679   -9.5119147    186.60736 0.0095227269 0.0082292516         3951 
 1634000   0.60399387   -9.4882421    186.64171 0.0095186509 0.0082206379         3954 
 1635000   0.61028373   -9.5116572    186.32032 0.0094964483  0.008212038         3946 
 1636000   0.60231177    -9.492442    186.43549 0.0094965101 0.0082034447         3945 
 1637000   0.60529419   -9.5210297    186.55723 0.0094969067 0.0081948614         3963 
 1638000   0.58820761   -9.5232461    186.34452 0.0094802867 0.0081862885         3957 
 1639000   0.59226424   -9.5112645    186.27593 0.0094710153 0.0081777327         3961 
 1640000   0.58358795   -9.5073546    186.47713 0.0094754639 0.0081691935         3963 
 1641000   0.59250345   -9.5334305    186.27109 0.0094592265 0.0081606598         3955 
 1642000   0.59320074    -9.516676    186.35706 0.0094578288 0.0081521365         3963 
 1643000   0.61519743   -9.5379027    186.22616 0.0094454331 0.0081436317         3957 
 1644000   0.60841802   -9.5254967    186.33469 0.0094451889  0.008135138         3963 
 1645000   0.59393963   -9.5183005    186.25758 0.0094355409 0.0081266514         3966 
 1646000   0.60748165   -9.5135265    186.34304 0.0094341353 0.0081181732         3949 
 1647000    0.5906895   -9.5123083    186.29993 0.0094262261 0.0081097159         3957 
 1648000   0.60021191   -9.5201216    186.43243 0.0094272065 0.0081012616         3972 
 1649000    0.5879848   -9.5312398    186.46029 0.0094228971 0.0080928244         3959 
 1650000   0.57443696   -9.4843713    186.28688 0.0094084283 0.0080843977         3955 
 1651000   0.60079096   -9.5028848    186.37391 0.0094071224 0.0080759866         3952 
 1652000   0.60225414   -9.5221058    186.35885 0.0094006682 0.0080675838         3958 
 1653000   0.59180571   -9.5253761    186.22947 0.0093884589 0.0080591873         3969 
 1654000   0.59157579    -9.498759    186.11391 0.0093769604 0.0080508075         3949 
 1655000   0.58509007   -9.5250749    186.03554 0.0093673483 0.0080424416         3971 
 1656000   0.59394484   -9.5129475    186.51962 0.0093860517 0.0080340848         3964 
 1657000    0.6073289    -9.517158    186.09454 0.0093590092 0.0080257364         3959 
 1658000   0.59588032   -9.5086089     186.2901 0.0093631935 0.0080174056         3954 
 1659000   0.60086827   -9.5240267    185.86764  0.009336329 0.0080090876         3958 
 1660000   0.59185835   -9.5244885    186.19462 0.0093471195 0.0080007773         3966 
 1661000   0.58368348   -9.5215546    186.15106 0.0093393068 0.0079924829         3957 
 1662000   0.59901451   -9.5301471    186.56463 0.0093544237 0.0079841949         3969 
 1663000     0.589424   -9.5195022    186.17565 0.0093293067 0.0079759186         3957 
 1664000   0.58239819    -9.535989    186.02087 0.0093159488 0.0079676559         3957 
 1665000   0.58952344   -9.5372929    186.16262 0.0093174485 0.0079594052         3961 
 1666000   0.59314945   -9.5310791     186.0956 0.0093085036 0.0079511682         3965 
 1667000   0.58666542   -9.5354958    186.21201 0.0093087386 0.0079429419         3961 
 1668000    0.5870569   -9.5261861    186.08278 0.0092967016 0.0079347265         3964 
 1669000   0.58855817   -9.5260767    186.01177  0.009287586 0.0079265161         3959 
 1670000   0.59392767   -9.5350578    186.35659 0.0092992311 0.0079183182         3957 
 1671000   0.59081664   -9.5291091    186.15078 0.0092834022 0.0079101331         3954 
 1672000   0.58472473   -9.5292968    186.18825 0.0092797172 0.0079019609         3954 
 1673000   0.58548225   -9.5454072    186.11249 0.0092703968 0.0078937973         3965 
 1674000   0.57244474   -9.5368872    186.06305 0.0092623979 0.0078856416         3963 
 1675000   0.58147665   -9.5375999    186.09601 0.0092585078 0.0078774986         3957 
 1676000    0.5893537   -9.5334949    186.19063 0.0092576883   0.00786937         3958 
 1677000   0.58480056   -9.5406327     185.8468 0.0092350825 0.0078612615         3958 
 1678000   0.59474424   -9.5338599    186.11964 0.0092431287 0.0078531522         3970 
 1679000   0.57808992   -9.5285421    185.86166 0.0092248194 0.0078450605         3961 
 1680000   0.57954776   -9.5305932    186.25271 0.0092387255 0.0078369782         3958 
 1681000   0.57714031   -9.5451673    186.04996 0.0092231787 0.0078289056         3968 
 1682000   0.59355561   -9.5557026    185.91225 0.0092108725 0.0078208485         3967 
 1683000   0.58046493   -9.5295061    186.21712  0.009220495 0.0078128007         3952 
 1684000   0.58875646   -9.5228442    186.15247 0.0092118205 0.0078047655         3958 
 1685000   0.59740592   -9.5444103    185.82628 0.0091902217  0.007796736         3964 
 1686000   0.58000918   -9.5430255    185.87808 0.0091873311 0.0077887182         3957 
 1687000   0.57174014   -9.5353872    186.02695 0.0091892387 0.0077807129         3963 
 1688000    0.5814568   -9.5358529    185.73877  0.009169568  0.007772716         3962 
 1689000   0.57759058   -9.5406741    185.89734 0.0091719628 0.0077647301         3962 
 1690000   0.58864491   -9.5131934    186.06655  0.009174879 0.0077567517         3962 
 1691000   0.57643902   -9.5394188    186.18841 0.0091754587  0.007748794         3964 
 1692000   0.57401693    -9.546776    186.08356 0.0091648718  0.007740845         3961 
 1693000   0.58030004   -9.5546579     185.9718 0.0091539573 0.0077329033         3962 
 1694000   0.58207936   -9.5444285    186.18231 0.0091589096 0.0077249811         3955 
 1695000   0.57843546   -9.5374479    186.03608 0.0091463165 0.0077170612         3967 
 1696000   0.58619907   -9.5537027    185.84813  0.009131689 0.0077091651         3960 
 1697000   0.57814267   -9.5433915    186.10882 0.0091391092 0.0077012644         3970 
 1698000   0.56271955   -9.5506642    186.13362  0.009134944 0.0076933778         3953 
 1699000    0.5719701   -9.5411585    186.38327 0.0091418124 0.0076855039         3960 
 1700000   0.57307699   -9.5301935    186.08893 0.0091220063 0.0076776387         3957 
 1701000   0.57562101   -9.5436845    186.08045 0.0091162281 0.0076697856         3974 
 1702000   0.56980513    -9.542179    185.90404 0.0091022347 0.0076619429         3981 
 1703000   0.57088394    -9.544603    186.11537 0.0091072308 0.0076541097         3967 
 1704000   0.57645927   -9.5584883    185.86936 0.0090898551 0.0076462854         3965 
 1705000     0.578705    -9.556814    186.13359 0.0090974386 0.0076384655         3956 
 1706000   0.57977095   -9.5400713    185.83238 0.0090773927  0.007630658         3968 
 1707000   0.57619986   -9.5751283    186.00542 0.0090805222 0.0076228641         3959 
 1708000   0.58404386   -9.5572933    185.97464 0.0090737042 0.0076150793         3955 
 1709000   0.57295495   -9.5475507     185.9941 0.0090693434 0.0076073037         3952 
 1710000    0.5717258   -9.5602869    185.75763 0.0090525162  0.007599545         3960 
 1711000   0.56641186   -9.5623328    185.49031 0.0090342056 0.0075917958         3960 
 1712000   0.57064272    -9.577131    186.03329 0.0090553587 0.0075840578         3964 
 1713000   0.56692642   -9.5802437    185.57558 0.0090278058 0.0075763314         3959 
 1714000   0.57136827   -9.5576018    186.06112 0.0090461456 0.0075686138         3953 
 1715000   0.57740484   -9.5587623    185.80219 0.0090282891 0.0075609032         3951 
 1716000   0.58404089   -9.5398129    185.89312 0.0090274435 0.0075532109         3966 
 1717000   0.57977818   -9.5701533    185.83157 0.0090191989  0.007545532         3952 
 1718000   0.57499684   -9.5616229    185.95458 0.0090199156 0.0075378613         3955 
 1719000   0.54994601   -9.5630675    185.91761 0.0090128761  0.007530197         3964 
 1720000    0.5618925    -9.560418    185.80913 0.0090023802 0.0075225457         3955 
 1721000   0.55623262   -9.5761793    185.96548 0.0090047201 0.0075149041         3963 
 1722000   0.56864257   -9.5549105    185.86779 0.0089947632 0.0075072647         3952 
 1723000   0.57442464    -9.574778    185.82942 0.0089876873 0.0074996401         3965 
 1724000   0.57021922   -9.5543494    186.11846 0.0089964452 0.0074920376         3975 
 1725000   0.55704852   -9.5699097     185.9091 0.0089811158 0.0074844431         3962 
 1726000   0.56313788   -9.5784796    185.77627 0.0089694993 0.0074768545         3952 
 1727000   0.56505583   -9.5648592      185.852 0.0089679601 0.0074692818         3952 
 1728000   0.57243613   -9.5626373     185.9071 0.0089654274  0.007461715         3950 
 1729000   0.55421509   -9.5452421    185.83877 0.0089569488 0.0074541545         3967 
 1730000   0.55763835     -9.57258    185.68388 0.0089443103 0.0074466014         3953 
 1731000   0.55463642   -9.5703927    185.73256 0.0089414868 0.0074390609         3975 
 1732000   0.55965837   -9.5909074    186.09036 0.0089535392 0.0074315282         3970 
 1733000   0.55758009    -9.579354    185.84556 0.0089366013 0.0074240121         3956 
 1734000   0.54954112   -9.5687039    186.03767 0.0089406801 0.0074165095         3956 
 1735000   0.56205594   -9.5702914     185.7572 0.0089220557 0.0074090133         3957 
 1736000   0.55696832    -9.570036    185.75461  0.008916792 0.0074015298         3958 
 1737000   0.54905444   -9.5460455     186.0052 0.0089236809 0.0073940474         3972 
 1738000   0.54947862   -9.5772784      185.607 0.0088994535 0.0073865839         3958 
 1739000   0.56000839   -9.5700305    185.62754 0.0088953201 0.0073791305         3974 
 1740000   0.56207878   -9.6116452    185.27673 0.0088734067 0.0073716836         3964 
 1741000   0.57110814   -9.5889273    185.90653 0.0088984556 0.0073642431         3971 
 1742000   0.56157391   -9.5513919     185.5601 0.0088767747 0.0073568193         3965 
 1743000    0.5512425   -9.5654817    185.94992 0.0088903195 0.0073494075         3964 
 1744000    0.5660607   -9.5717257    185.85609 0.0088807381 0.0073420041         3957 
 1745000   0.54633161   -9.5681522    185.87374 0.0088764919 0.0073346145         3966 
 1746000    0.5481832   -9.5828954    185.97637 0.0088763062 0.0073272302         3966 
 1747000   0.55053529   -9.5634656    185.80438 0.0088630214 0.0073198623         3953 
 1748000   0.55456773   -9.5809638    185.63242 0.0088497533 0.0073124994         3967 
 1749000   0.54269593   -9.5988478    185.78674  0.008852046 0.0073051411         3962 
 1750000   0.56796721   -9.5771674      185.953 0.0088549047 0.0072977955         3969 
 1751000    0.5583041   -9.5695059    185.65683 0.0088357522 0.0072904644         3964 
 1752000   0.55358329    -9.572239    185.52889 0.0088246236 0.0072831376         3972 
 1753000   0.55378058   -9.5964608    185.74463 0.0088298456 0.0072758265         3969 
 1754000     0.533451   -9.5643955    185.68419 0.0088219399 0.0072685214         3966 
 1755000   0.54304731   -9.5602567    185.63475 0.0088145653  0.007261226         3966 
 1756000   0.54138657   -9.5659373    185.70476 0.0088128683 0.0072539408         3963 
 1757000   0.54834641   -9.5856992     186.0117 0.0088224103 0.0072466674         3967 
 1758000    0.5543238   -9.5964904    185.64955 0.0088002251 0.0072394026         3971 
 1759000    0.5561008   -9.5828595    185.41515 0.0087841172 0.0072321461         3966 
 1760000   0.55515823   -9.5821634    185.80075 0.0087973838 0.0072248992         3968 
 1761000   0.55392115   -9.5757228    185.89704 0.0087969451 0.0072176635         3975 
 1762000   0.55348871   -9.5946364    185.71474 0.0087833307 0.0072104383         3971 
 1763000   0.55903096   -9.5837518    185.44944 0.0087658082 0.0072032256         3962 
 1764000   0.56059352   -9.5896222    185.63724 0.0087697111 0.0071960186         3961 
 1765000   0.55070603   -9.5778231    185.56667 0.0087614101 0.0071888201         3964 
 1766000   0.54379669   -9.6029747    185.57272 0.0087567346 0.0071816282         3969 
 1767000   0.55928363   -9.5804225    185.67871 0.0087567775 0.0071744499         3966 
 1768000   0.54800315   -9.5788994    185.75439 0.0087553919  0.007167282         3961 
 1769000   0.55351769   -9.5750893     185.6978 0.0087477765 0.0071601248         3963 
 1770000   0.55260954   -9.5985119    185.41721 0.0087296238 0.0071529756         3964 
 1771000   0.54429092   -9.5817027    185.39119 0.0087234703 0.0071458369         3952 
 1772000   0.54884836   -9.5928302    185.77764 0.0087367214 0.0071387064         3966 
 1773000   0.54526787   -9.6102756    185.49411 0.0087184673 0.0071315818         3970 
 1774000   0.53753536   -9.5875253    185.44585 0.0087112856  0.007124467         3967 
 1775000   0.54474936   -9.5834592    185.30003 0.0086995318 0.0071173706         3963 
 1776000   0.55185538   -9.6133207    185.48735 0.0087034231 0.0071102817         3973 
 1777000   0.54318948   -9.5895443    185.68397 0.0087077459 0.0071032032         3959 
 1778000   0.54950098   -9.5933966    185.66036 0.0087017416 0.0070961302         3959 
 1779000   0.53724832   -9.5768532    185.55924 0.0086921136 0.0070890719         3952 
 1780000   0.54162025   -9.5956027    185.14417 0.0086677983  0.007082024         3961 
 1781000   0.54438478   -9.5941633    185.66305 0.0086872101 0.0070749823         3971 
 1782000   0.53625033   -9.6036329    185.55591 0.0086773248 0.0070679497         3970 
 1783000   0.53087802   -9.6095905    185.34314 0.0086625135 0.0070609228         3973 
 1784000   0.54574353   -9.5991857    185.39403 0.0086600351 0.0070539139         3965 
 1785000   0.53930296   -9.5956338     185.7661 0.0086725536 0.0070469088         3959 
 1786000   0.54765144   -9.6016288    185.64147 0.0086618825   0.00703991         3961 
 1787000   0.55139371   -9.6163486    185.51102 0.0086509525 0.0070329198         3974 
 1788000   0.52475764   -9.6086011    185.42791 0.0086422404 0.0070259438         3968 
 1789000   0.52718419    -9.599229    185.84642 0.0086569042  0.007018972         3975 
 1790000   0.53544529   -9.6109189    185.16976 0.0086205663  0.007012011         3972 
 1791000   0.54876262   -9.6022756    185.64333 0.0086377877 0.0070050588         3968 
 1792000   0.52836422   -9.5913132    185.32871 0.0086183367 0.0069981159         3971 
 1793000   0.54442001   -9.6080372    185.15492 0.0086054525 0.0069911888         3968 
 1794000   0.53936602   -9.6026751    185.44762  0.008614252 0.0069842649         3963 
 1795000   0.52797165   -9.6022867    185.60829 0.0086169121 0.0069773536         3968 
 1796000   0.53570829   -9.6020821    185.38492 0.0086017502 0.0069704471         3966 
 1797000   0.54182281   -9.6131239    185.39223 0.0085973025 0.0069635561         3973 
 1798000   0.53328209   -9.6023242    185.35593 0.0085908383 0.0069566762         3964 
 1799000   0.53876333   -9.5975264     185.6717 0.0086006904 0.0069497971         3967 
 1800000   0.52871656   -9.6174452    185.12693 0.0085706912 0.0069429302         3962 
 1801000    0.5523894   -9.6111686    185.51788 0.0085840219 0.0069360767         3963 
 1802000   0.54098771   -9.6103393    185.69794 0.0085875851 0.0069292327         3961 
 1803000   0.54139726   -9.6017734    185.51979 0.0085745883 0.0069223934         3959 
 1804000   0.53235427   -9.6035257    185.31487 0.0085603689 0.0069155637         3952 
 1805000   0.53281759   -9.6143192    185.39068 0.0085591267 0.0069087414         3961 
 1806000   0.52793539   -9.6245975    185.67315 0.0085674209 0.0069019268         3957 
 1807000   0.52410471   -9.6117592     185.4179 0.0085509084   0.00689513         3968 
 1808000   0.52369836   -9.6169704    185.47403  0.008548766 0.0068883403         3964 
 1809000   0.54143847   -9.6100428    185.49573 0.0085450403 0.0068815575         3975 
 1810000   0.53548668   -9.6225746    185.58579 0.0085444654 0.0068747833         3962 
 1811000   0.52547166   -9.6082636    185.28524 0.0085259174 0.0068680144         3968 
 1812000   0.53101892   -9.6077296    185.13607 0.0085143518 0.0068612531         3962 
 1813000   0.52858831   -9.6250049    185.41487 0.0085224704 0.0068545051         3960 
 1814000   0.53020678   -9.6061571     185.2207 0.0085088525  0.006847769         3970 
 1815000   0.53760332   -9.6138951    185.36202 0.0085106528 0.0068410408         3972 
 1816000   0.53219513   -9.6176484    185.54127 0.0085141921 0.0068343198         3967 
 1817000   0.53284181   -9.6193384    185.30096 0.0084984846 0.0068276112         3968 
 1818000   0.52363171   -9.6182912    185.29025 0.0084933192 0.0068209053         3969 
 1819000   0.52212004    -9.616172    185.52539 0.0084994222 0.0068142154         3957 
 1820000    0.5189691   -9.6234098    185.22566 0.0084810284 0.0068075291         3974 
 1821000   0.53102412   -9.6168705    185.43152 0.0084857916 0.0068008505         3973 
 1822000   0.52789621   -9.6161578    185.14396 0.0084679822 0.0067941851         3968 
 1823000   0.52756444   -9.6068897    185.34715 0.0084726253 0.0067875247         3954 
 1824000   0.52459056   -9.6315653    185.34681 0.0084679645  0.006780875         3966 
 1825000   0.51755116   -9.6345863    185.04225  0.008449418 0.0067742341         3963 
 1826000   0.52121648   -9.6179742    185.40617 0.0084613987 0.0067675992         3968 
 1827000   0.52114897   -9.6326683    185.26286  0.008450231 0.0067609724         3970 
 1828000   0.52496436   -9.6314799    185.36236  0.008450144 0.0067543572         3973 
 1829000   0.52819715   -9.6167029    184.99972 0.0084290014 0.0067477497         3965 
 1830000   0.53093843    -9.638414    185.20877 0.0084339147 0.0067411545         3962 
 1831000   0.52404237   -9.6449989     185.1401 0.0084261832 0.0067345581         3971 
 1832000   0.52880239   -9.6319346    185.24703 0.0084264477 0.0067279813         3967 
 1833000   0.53045947   -9.6293464    185.18681  0.008419113 0.0067214077         3965 
 1834000   0.51626221   -9.6413706    185.34552 0.0084217338 0.0067148452         3968 
 1835000   0.52358941   -9.6386297    184.89082 0.0083964949 0.0067082887         3963 
 1836000   0.51763957   -9.6437577    185.46698 0.0084180727 0.0067017449         3968 
 1837000    0.5258386   -9.6335079    185.08888 0.0083963381 0.0066952087         3956 
 1838000   0.51155646   -9.6444837    185.28823 0.0084008086 0.0066886841         3973 
 1839000   0.51967236    -9.611756    185.23421 0.0083937922 0.0066821653         3968 
 1840000   0.51743379   -9.6266281    185.54317 0.0084032234 0.0066756535         3969 
 1841000   0.52534849   -9.6306747    185.34815 0.0083898311 0.0066691536         3966 
 1842000   0.52293049   -9.6240135    185.50393 0.0083923241 0.0066626577         3971 
 1843000   0.52455011     -9.62555    185.45885 0.0083857319 0.0066561729         3969 
 1844000   0.51958348    -9.651697    184.87638 0.0083548615 0.0066496993         3971 
 1845000   0.52449191   -9.6381851    185.19465 0.0083647086 0.0066432311         3968 
 1846000   0.51086845   -9.6319242    185.28468 0.0083642415 0.0066367695         3962 
 1847000   0.52156218   -9.6384557    185.41586 0.0083656318 0.0066303183         3960 
 1848000   0.51206936   -9.6326982    184.95217  0.008340195 0.0066238717         3966 
 1849000   0.50819936   -9.6378162    185.08507 0.0083416743 0.0066174408         3969 
 1850000   0.52086362   -9.6507193    184.73423 0.0083213616 0.0066110158         3968 
 1851000   0.50753364   -9.6355999    185.12574  0.008334492 0.0066046005         3978 
 1852000   0.51439314   -9.6507003    185.30264 0.0083379516 0.0065981921         3970 
 1853000   0.52005547   -9.6504327    185.20187 0.0083289204 0.0065917922         3962 
 1854000   0.52248438   -9.6507596    185.22267 0.0083253628 0.0065854006         3952 
 1855000   0.52293359   -9.6389071    185.11684 0.0083161204 0.0065790179         3970 
 1856000   0.51011616   -9.6411759     185.3396 0.0083216417 0.0065726437         3970 
 1857000   0.51658087    -9.629834    185.11408 0.0083070402 0.0065662783         3961 
 1858000   0.50407136    -9.642666    185.28541 0.0083102535 0.0065599223         3969 
 1859000   0.50218377    -9.641193    185.35175 0.0083087569 0.0065535769         3970 
 1860000    0.5106736   -9.6428404    184.97598 0.0082874542 0.0065472326         3971 
 1861000   0.49987109   -9.6413624    185.29034 0.0082970776 0.0065408964         3968 
 1862000   0.50249427   -9.6561951    185.14081 0.0082859297 0.0065345689         3979 
 1863000   0.51204381   -9.6514351    184.93833 0.0082724247 0.0065282527         3970 
 1864000   0.51317409   -9.6463207    185.07049 0.0082738952 0.0065219424         3954 
 1865000   0.50838347   -9.6390691    184.94871 0.0082640176 0.0065156439         3974 
 1866000   0.50884043   -9.6503846    185.11505 0.0082670174 0.0065093499         3968 
 1867000   0.50247352   -9.6555782    185.26951 0.0082694838 0.0065030694         3969 
 1868000    0.5128069   -9.6397225    185.04129 0.0082548755 0.0064967949         3972 
 1869000   0.50456107   -9.6660427    184.98704 0.0082480399 0.0064905233         3966 
 1870000   0.50397532   -9.6358951    184.99412 0.0082439446 0.0064842579         3954 
 1871000   0.50419826   -9.6595266    185.05238 0.0082421336 0.0064780104         3964 
 1872000    0.4998188   -9.6566413    185.12959 0.0082411676 0.0064717643         3967 
 1873000   0.50703081   -9.6569074    184.77548 0.0082210126 0.0064655315         3968 
 1874000   0.50745872   -9.6469607    184.99793 0.0082265179 0.0064592989         3965 
 1875000   0.50332323    -9.664485    185.15501 0.0082291114 0.0064530836         3969 
 1876000    0.5061721   -9.6414379    185.11972 0.0082231576 0.0064468756         3972 
 1877000   0.50576339   -9.6401178    184.87861 0.0082080716 0.0064406711         3959 
 1878000   0.50282611   -9.6524812    185.11333 0.0082141166 0.0064344783         3963 
 1879000   0.51453693   -9.6496066    185.14618 0.0082112017 0.0064282911         3968 
 1880000   0.49102068   -9.6549836    184.94555 0.0081979412 0.0064221142         3967 
 1881000   0.49820685   -9.6633999     184.8677  0.008190134 0.0064159408         3971 
 1882000   0.50244818   -9.6701662    185.05014 0.0081938601 0.0064097789         3972 
 1883000   0.50389657   -9.6709196    184.91032 0.0081833211 0.0064036192         3962 
 1884000   0.49581178   -9.6585779     184.9306 0.0081798744 0.0063974717         3968 
 1885000     0.493181   -9.6566973    184.79702 0.0081696295 0.0063913325         3972 
 1886000   0.50125273   -9.6715649    185.24353  0.008185027 0.0063852071         3968 
 1887000   0.50436344   -9.6535038    185.06523 0.0081728151 0.0063790876         3969 
 1888000   0.50075481   -9.6571381    184.89459 0.0081609547 0.0063729725         3974 
 1889000   0.49966863   -9.6671283    185.02465 0.0081623719  0.006366867         3965 
 1890000   0.51280973   -9.6517461    185.02777 0.0081581908 0.0063607693         3963 
 1891000   0.50281073   -9.6503623    184.77654 0.0081428054 0.0063546762         3965 
 1892000   0.50354814   -9.6561022    184.96273 0.0081467021 0.0063485953         3965 
 1893000   0.49561052   -9.6580961    185.18183 0.0081520438 0.0063425214         3970 
 1894000   0.50288926   -9.6560881     184.8038 0.0081311071 0.0063364536         3975 
 1895000   0.49760612   -9.6581575    184.98891 0.0081349565 0.0063303933         3962 
 1896000   0.49953934   -9.6675525     184.8667 0.0081252946 0.0063243452         3961 
 1897000   0.50812738   -9.6626688    185.19161  0.008135284 0.0063183023         3969 
 1898000   0.49940425   -9.6691423    185.03763 0.0081242373 0.0063122652         3972 
 1899000   0.50394469   -9.6666491    185.20575 0.0081273367 0.0063062368         3960 
 1900000   0.48608733   -9.6708131    184.87084 0.0081083701 0.0063002172         3963 
 1901000   0.49680623   -9.6548303    184.68018 0.0080957468 0.0062942055         3972 
 1902000   0.49235469   -9.6732983    184.82912 0.0080980163  0.006288198         3964 
 1903000   0.48642849   -9.6700676    184.90237 0.0080969682 0.0062822028         3963 
 1904000   0.48770156   -9.6854733    184.86755 0.0080911916 0.0062762146         3973 
 1905000   0.49550814   -9.6897382    184.60951 0.0080756568 0.0062702331         3968 
 1906000   0.48362943   -9.6588137     184.9675 0.0080870716 0.0062642597         3967 
 1907000   0.48998133   -9.6662686    184.90109 0.0080799289 0.0062582966         3975 
 1908000   0.49597352    -9.656946    184.74358 0.0080688148 0.0062523357         3975 
 1909000   0.49231662   -9.6610107    184.94385 0.0080733301 0.0062463866         3976 
 1910000    0.5071343   -9.6599522    184.62403 0.0080551496 0.0062404489         3971 
 1911000   0.48432119   -9.6649655    184.83366  0.008060076 0.0062345187         3964 
 1912000   0.48479488   -9.6683695    185.01399 0.0080637198 0.0062285954         3975 
 1913000   0.49785064   -9.6727818    184.74035 0.0080475846  0.006222678         3971 
 1914000   0.47104543   -9.6792773    184.62248 0.0080382478 0.0062167665         3968 
 1915000   0.49762083   -9.6663629    185.04268 0.0080523358 0.0062108661         3962 
 1916000   0.48922149   -9.6730183    185.03918 0.0080479812 0.0062049713         3971 
 1917000   0.49862337   -9.6775546    184.90434 0.0080379212 0.0061990863         3967 
 1918000   0.48682895   -9.6702789    184.79224   0.00802886  0.006193206         3978 
 1919000   0.48611885   -9.6713165     184.8974 0.0080292425 0.0061873301         3968 
 1920000    0.4759822   -9.6683835    184.71534  0.008017159 0.0061814637         3974 
 1921000   0.49794891   -9.6690826    184.95263 0.0080232789 0.0061756067         3964 
 1922000   0.48859913   -9.6697268    185.01508 0.0080218124   0.00616976         3962 
 1923000   0.47668489   -9.6988472    184.77248 0.0080071277   0.00616392         3972 
 1924000   0.48024073   -9.6832225    184.66693 0.0079983944 0.0061580804         3964 
 1925000   0.48546308    -9.686608    184.71548 0.0079963409 0.0061522504         3964 
 1926000   0.48175683   -9.6811999    184.65819 0.0079897106  0.006146432         3972 
 1927000   0.47995036   -9.6738359    184.89149 0.0079956536 0.0061406174         3967 
 1928000   0.47404402    -9.666651    184.61813 0.0079796908 0.0061348102         3962 
 1929000   0.48798834   -9.6622008    184.69911 0.0079790526 0.0061290118         3974 
 1930000   0.48244273   -9.6725955    184.60329 0.0079707811 0.0061232218         3962 
 1931000   0.48632154   -9.6862827    184.91952 0.0079803005  0.006117438         3967 
 1932000   0.48113073   -9.6771783    184.49953 0.0079580541 0.0061116619         3964 
 1933000   0.48921007   -9.6824891    184.69521 0.0079623732 0.0061058948         3967 
 1934000   0.48426924   -9.6822914    184.79288 0.0079624648 0.0061001347         3971 
 1935000    0.4856895   -9.6701796    184.78477 0.0079580006 0.0060943813         3966 
 1936000   0.48662752   -9.6840219    184.43996  0.007939048 0.0060886354         3975 
 1937000   0.48077626   -9.6795701    184.71086 0.0079466039 0.0060828955         3975 
 1938000   0.47860488   -9.6832308    184.78201 0.0079455627 0.0060771612         3974 
 1939000   0.48753348   -9.6905745    184.97368 0.0079497024 0.0060714398         3960 
 1940000   0.48731543   -9.6857714    184.51621  0.007925954 0.0060657274         3968 
 1941000   0.47831882   -9.6823092    184.63521 0.0079269795 0.0060600214         3962 
 1942000   0.47316796   -9.6983725    185.07551 0.0079417914 0.0060543211         3965 
 1943000   0.48539395   -9.6939098    184.76354  0.007924324 0.0060486287         3965 
 1944000   0.48288276   -9.6747403    184.82771 0.0079229985 0.0060429429         3973 
 1945000   0.46594266   -9.6987294    184.76341 0.0079161702 0.0060372676         3976 
 1946000   0.46962928   -9.6882132    184.69299 0.0079090866 0.0060315956         3971 
 1947000   0.47575123   -9.6912067     184.6712 0.0079040916 0.0060259291         3971 
 1948000   0.46344185    -9.696321    184.71926 0.0079020902 0.0060202689         3972 
 1949000   0.46859062   -9.7011197    184.57882 0.0078920311 0.0060146185         3968 
 1950000   0.47280975    -9.691229    184.41559 0.0078810082 0.0060089746         3978 
 1951000   0.47105067   -9.6984976     184.7083 0.0078894711 0.0060033408         3967 
 1952000   0.47746208   -9.6855289    184.68024 0.0078842315 0.0059977109         3962 
 1953000   0.47554661   -9.7029261    184.77076  0.007884057 0.0059920889         3979 
 1954000   0.46928272   -9.7045986    184.85452 0.0078835945 0.0059864727         3971 
 1955000   0.48470349   -9.7114069    184.48581 0.0078638453 0.0059808648         3960 
 1956000   0.46213453   -9.7167966    184.61803 0.0078654581 0.0059752623         3968 
 1957000   0.47523729   -9.6787563    184.69599 0.0078647586 0.0059696703         3969 
 1958000   0.46807319   -9.6992723    184.72691 0.0078620579 0.0059640854         3975 
 1959000    0.4747776   -9.7122001     184.4162 0.0078448275 0.0059585047         3971 
 1960000   0.46237037   -9.7081264    184.73549    0.0078544 0.0059529295         3971 
 1961000   0.46801611   -9.7160425    184.55543  0.007842743 0.0059473654         3975 
 1962000   0.46898078   -9.7097516    184.69597 0.0078447151  0.005941806         3969 
 1963000   0.47110523   -9.6944798     184.8234 0.0078461283 0.0059362538         3965 
 1964000   0.46714503   -9.7182682     184.4839 0.0078277281 0.0059307098         3969 
 1965000   0.46317637   -9.7095994    184.67859 0.0078320012 0.0059251746         3962 
 1966000     0.456038   -9.7106785    184.39882  0.007816159 0.0059196433         3976 
 1967000   0.47876353    -9.700105    184.71592 0.0078256193  0.005914122         3974 
 1968000   0.47176729   -9.7040362    184.59238 0.0078164118 0.0059086067         3972 
 1969000   0.46937934   -9.7058963    184.69078 0.0078166067 0.0059030986         3972 
 1970000   0.47312997   -9.6944352    184.54855 0.0078066222 0.0058975964         3968 
 1971000   0.46715707   -9.6975335    184.61299 0.0078053862 0.0058921035         3970 
 1972000   0.45916451   -9.6955477    184.45077 0.0077945729 0.0058866167         3979 
 1973000   0.45491238   -9.6986975    184.49294 0.0077924031 0.0058811353         3983 
 1974000   0.47582986   -9.7235718    184.59211 0.0077926422 0.0058756592         3956 
 1975000    0.4632775   -9.7066056    184.51136 0.0077852895 0.0058701895         3972 
 1976000   0.45767184   -9.7172019    184.51007 0.0077812953 0.0058647292         3964 
 1977000   0.47715936   -9.6910776    184.90168 0.0077938661  0.005859276         3967 
 1978000   0.47214702   -9.6908946    184.54845 0.0077750442 0.0058538332         3978 
 1979000   0.46852541   -9.7169374    184.62592 0.0077743778 0.0058483936         3974 
 1980000   0.45523099    -9.711461    184.32569 0.0077578151 0.0058429581         3973 
 1981000   0.45796265   -9.7099413     184.4491 0.0077590906 0.0058375312         3971 
 1982000   0.45937091   -9.7074252    184.52593 0.0077584059 0.0058321122         3976 
 1983000   0.45325387    -9.706703    184.64414 0.0077594612 0.0058266998         3962 
 1984000   0.45383004   -9.7077319    184.50835 0.0077498466 0.0058212923         3966 
 1985000   0.47248403   -9.7201459    184.31296 0.0077377398 0.0058158907         3971 
 1986000   0.46465037   -9.7101102    184.53524 0.0077431704 0.0058104957         3972 
 1987000    0.4623304   -9.7185324    184.37945 0.0077327399 0.0058051103         3972 
 1988000   0.45445508   -9.7070357    184.43171  0.007731041 0.0057997336         3973 
 1989000    0.4504078   -9.7117842    184.40265 0.0077259362 0.0057943608         3974 
 1990000   0.46099801   -9.7043308    184.16065 0.0077119202 0.0057889982         3972 
 1991000   0.46022616   -9.7196883    184.36548 0.0077166196 0.0057836362         3969 
 1992000   0.45488047   -9.7171644    184.48476 0.0077177362 0.0057782857         3960 
 1993000   0.45819771   -9.7072675    184.49813 0.0077144224 0.0057729416         3979 
 1994000   0.45710957   -9.7084054    184.35407 0.0077045332 0.0057676029         3976 
 1995000   0.46584655   -9.7197657    184.59547 0.0077107548 0.0057622713         3979 
 1996000   0.46609875   -9.7108885    184.49312 0.0077026187 0.0057569456         3973 
 1997000   0.45074542   -9.7185238    184.58227 0.0077024817 0.0057516286         3969 
 1998000   0.45468401   -9.7163849    184.48223  0.007694454  0.005746317         3969 
 1999000   0.44158904   -9.7210436    184.57116  0.007694312 0.0057410121         3976 
 2000000   0.45453814   -9.7162783    184.25885 0.0076774522 0.0057357128         3964 
 2001000   0.46694761   -9.7312979    184.25371 0.0076734012  0.005730418         3979 
 2002000   0.44891224   -9.7207222    184.65336 0.0076862039 0.0057251328         3969 
 2003000   0.45153505    -9.724621     184.3569 0.0076700324 0.0057198566         3967 
 2004000     0.448081   -9.7234602    184.24938  0.007661734 0.0057145872         3974 
 2005000   0.45244987   -9.7271818    184.50285 0.0076684476 0.0057093224         3978 
 2006000    0.4524378   -9.7319356    184.13471 0.0076493315 0.0057040637         3971 
 2007000   0.45454061   -9.7325631    184.24535 0.0076501141 0.0056988099         3973 
 2008000    0.4598831   -9.7177933    184.31893 0.0076493579 0.0056935682         3970 
 2009000   0.46605268   -9.7334644     184.4764 0.0076520824 0.0056883297         3969 
 2010000   0.45007013   -9.7265108    184.34232 0.0076427163 0.0056830962         3966 
 2011000   0.45452553   -9.7245686    184.23869 0.0076346218 0.0056778713         3971 
 2012000   0.45100682   -9.7294014    184.17392 0.0076281446 0.0056726506         3969 
Loop time of 5218.02 on 48 procs for 2000000 steps with 4000 atoms

Performance: 66231.994 tau/day, 383.287 timesteps/s
99.4% CPU use with 48 MPI tasks x no OpenMP threads

MPI task timing breakdown:
Section |  min time  |  avg time  |  max time  |%varavg| %total
---------------------------------------------------------------
Pair    | 367.02     | 395.31     | 417.91     |  70.2 |  7.58
Neigh   | 36.971     | 38.432     | 40.413     |  12.6 |  0.74
Comm    | 330.1      | 358.74     | 389.52     |  79.3 |  6.88
Output  | 5.9055     | 5.9079     | 5.9608     |   0.3 |  0.11
Modify  | 4354.3     | 4369.9     | 4385.3     |  11.1 | 83.75
Other   |            | 49.74      |            |       |  0.95

Nlocal:        83.3333 ave          90 max          77 min
Histogram: 3 2 4 10 5 8 8 4 2 2
Nghost:        2436.21 ave        2453 max        2419 min
Histogram: 3 0 2 9 11 8 3 9 2 1
Neighs:        16784.6 ave       19273 max       14468 min
Histogram: 2 7 4 6 8 2 8 5 4 2
FullNghs:      33569.6 ave       36459 max       30815 min
Histogram: 3 3 3 7 6 12 5 4 4 1

Total # of neighbors = 1611339
Ave neighs/atom = 402.83475
Neighbor list builds = 106457
Dangerous builds = 0

#clear
#
#next RN
#
#jump SELF
Total wall time: 1:27:01
