
units lj                  # Use reduced LJ style units
atom_style atomic         # Uncharged point particles
atom_modify map hash      # Needed for indexing of clusters etc
                          # Used to be able to find where atoms are in relation to each other.

lattice fcc 1.0 spacing 1 1 1
Lattice spacing in x,y,z = 1.5874011 1.5874011 1.5874011
region box block 0 10 0 10 0 10 units lattice
create_box 2 box
Created orthogonal box = (0.0000000 0.0000000 0.0000000) to (15.874011 15.874011 15.874011)
  3 by 4 by 4 MPI processor grid
create_atoms 1 box
Created 4000 atoms
  using lattice units in orthogonal box = (0.0000000 0.0000000 0.0000000) to (15.874011 15.874011 15.874011)
  create_atoms CPU = 0.003 seconds
set type 1 type/fraction 2 0.1 78393
Setting atom values ...
  435 settings made for type/fraction
mass 1 1.0
mass 2 1.0
pair_style lj/cut  3.5
pair_modify tail  yes
pair_coeff 1  1  1.0  1.0   # Intearaction between 1 and 1 set with epsilon = 1 and sigma = 1
pair_coeff 1  2  1.5  0.8
pair_coeff 2  2  0.5  0.88

write_data data.0
System init for write_data ...
Neighbor list info ...
  update every 1 steps, delay 10 steps, check yes
  max neighbors/atom: 2000, page size: 100000
  master list distance cutoff = 3.8
  ghost atom cutoff = 3.8
  binsize = 1.9, bins = 9 9 9
  1 neighbor lists, perpetual/occasional/extra = 1 0 0
  (1) pair lj/cut, perpetual
      attributes: half, newton on
      pair build: half/bin/atomonly/newton
      stencil: half/bin/3d
      bin: standard
WARNING: Not all mixed pair coeffs generated from mixing. Use write_data with 'pair ij' option to store all pair coeffs. (../write_data.cpp:312)


#############################
#   M E L T   S Y S T E M   #
#############################

velocity all create 2.4 2750902 mom yes dist gaussian # Assign velocities
                                                    # Temperature 2.4, random number seed, zero linear momentum
                                                                                # Gaussian distribution

timestep 0.002   # simulation timestep
thermo 1000       # output thermodynamic data every 1000 steps bf 100

# Define a fix  in this case with index 1 applied to all
# particles in the simulation. This fix is for simulations
# in the anisotropic NPT ensemble. Note that we use the MTK
# correction.
fix 1 all npt temp 2.4 2.4 0.1 iso 5.68 5.68 0.5 mtk yes tchain 5 pchain 5 # Use NPT ensemble
                                                                         # Set temperature and pressure and damping
                                                                         # Numbers of thermostats in chain and in barostat
run 10000          # run for 10000 steps
Per MPI rank memory allocation (min/avg/max) = 3.642 | 3.644 | 3.648 Mbytes
Step Temp E_pair E_mol TotEng Press Volume 
       0          2.4   -7.6732445            0   -4.0741445   -3.0506691         4000 
    1000    2.4355818   -4.6419298            0  -0.98947046     5.584683    4825.9476 
    2000    2.4291447      -4.6656            0   -1.0227939    5.6200264    4810.3956 
    3000    2.3853183   -4.6171821            0   -1.0400992    5.7377658     4823.773 
    4000    2.3402977   -4.6744855            0   -1.1649166    5.5769821    4797.0817 
    5000    2.4207045   -4.6323776            0   -1.0022285    5.4467619    4851.9352 
    6000    2.3358039   -4.6777909            0   -1.1749609    5.3736223    4820.1698 
    7000    2.3596477   -4.5599744            0   -1.0213877    5.7742088    4847.5597 
    8000    2.4054126   -4.6055856            0  -0.99836871    5.5947483    4844.7892 
    9000    2.4228481   -4.6216824            0  -0.98831883    5.6289143     4830.783 
   10000    2.3652804   -4.6357842            0   -1.0887506    5.8361676     4792.268 
Loop time of 2.15901 on 48 procs for 10000 steps with 4000 atoms

Performance: 800368.545 tau/day, 4631.762 timesteps/s
99.7% CPU use with 48 MPI tasks x no OpenMP threads

MPI task timing breakdown:
Section |  min time  |  avg time  |  max time  |%varavg| %total
---------------------------------------------------------------
Pair    | 0.87677    | 0.95932    | 1.0875     |   3.7 | 44.43
Neigh   | 0.18788    | 0.19723    | 0.22395    |   1.4 |  9.14
Comm    | 0.62685    | 0.75443    | 0.86558    |   5.4 | 34.94
Output  | 0.00024106 | 0.00024554 | 0.0003026  |   0.0 |  0.01
Modify  | 0.19617    | 0.23338    | 0.28678    |   5.8 | 10.81
Other   |            | 0.0144     |            |       |  0.67

Nlocal:        83.3333 ave          98 max          73 min
Histogram: 1 3 9 9 12 6 5 2 0 1
Nghost:        1451.67 ave        1473 max        1426 min
Histogram: 1 0 2 10 12 6 5 3 5 4
Neighs:        7954.19 ave        9737 max        6842 min
Histogram: 2 2 17 7 9 6 1 3 0 1

Total # of neighbors = 381801
Ave neighs/atom = 95.450250
Neighbor list builds = 905
Dangerous builds = 201

# Equilibrate just above the melting temperature to avoid step fn in T

fix 1 all npt temp 1.25 1.25 0.1 iso 5.68 5.68 0.5 mtk yes tchain 5 pchain 5
run 2000
Per MPI rank memory allocation (min/avg/max) = 3.642 | 3.644 | 3.648 Mbytes
Step Temp E_pair E_mol TotEng Press Volume 
   10000    2.3652804   -4.6357842            0   -1.0887506    5.8361676     4792.268 
   11000    1.2548989   -6.2552491            0   -4.3733713    5.6086557     3963.896 
   12000    1.2577881    -6.243055            0   -4.3568445    5.6140228    3968.9155 
Loop time of 0.469896 on 48 procs for 2000 steps with 4000 atoms

Performance: 735482.437 tau/day, 4256.264 timesteps/s
99.6% CPU use with 48 MPI tasks x no OpenMP threads

MPI task timing breakdown:
Section |  min time  |  avg time  |  max time  |%varavg| %total
---------------------------------------------------------------
Pair    | 0.20724    | 0.22315    | 0.24063    |   1.9 | 47.49
Neigh   | 0.03059    | 0.032388   | 0.03457    |   0.5 |  6.89
Comm    | 0.14203    | 0.16257    | 0.18051    |   2.4 | 34.60
Output  | 4.9587e-05 | 5.0716e-05 | 6.4871e-05 |   0.0 |  0.01
Modify  | 0.042812   | 0.047292   | 0.053476   |   1.3 | 10.06
Other   |            | 0.004445   |            |       |  0.95

Nlocal:        83.3333 ave          93 max          72 min
Histogram: 1 1 3 4 12 8 9 6 2 2
Nghost:        1646.83 ave        1674 max        1618 min
Histogram: 1 3 2 8 8 9 10 1 5 1
Neighs:        9624.71 ave       10870 max        8336 min
Histogram: 2 3 4 6 8 4 12 4 3 2

Total # of neighbors = 461986
Ave neighs/atom = 115.49650
Neighbor list builds = 140
Dangerous builds = 8

#############################
# L I N E A R  Q U E N C H  #
#############################

# Define solid atoms. This closely follows ten Wolde  Ruiz-Montero and Frenkel  Faraday Discuss  1996  104  93-110
# Compute components of the per-atom q6 vector
compute q6 all orientorder/atom degrees 1 6 components 6 nnn NULL cutoff 1.3 # compute the Q6 parameter.
                                                                             # Use all neighbours within 1.3 unit cell.

# get number of connections
compute coord_number all coord/atom orientorder q6 0.5

# An atom is solid if it has 8 or more connections (of a possible 14)
variable is_solid atom c_coord_number>=8
group solid dynamic all var is_solid    # Must be dynamic to update
dynamic group solid defined

# do clustering
compute cluster solid cluster/atom 1.3 # Create a cluster where all atoms within are solid and max 1.3 units from another member

# define chunks one chunk per cluster
compute clus_chunks solid chunk/atom c_cluster nchunk every compress yes  # Says which atoms are in which chunk

# count the size of each chunk
compute size_chunks solid property/chunk clus_chunks count


# Find the maximum entry in the vector of chunk sizes
variable max_n equal max(c_size_chunks)


# Thermo style which includes this variable
# thermo_style custom step temp pe vol v_max_n

thermo ${N}  # Print the thermo information every 100 steps
thermo 1000  

# Reset the npt fix at a lower temperature (below freezing)
fix 1  all npt temp  ${temp} ${temp}  0.1  iso  5.68  5.68  0.5  mtk yes tchain  5  pchain  5
fix 1  all npt temp  0.45 ${temp}  0.1  iso  5.68  5.68  0.5  mtk yes tchain  5  pchain  5
fix 1  all npt temp  0.45 0.45  0.1  iso  5.68  5.68  0.5  mtk yes tchain  5  pchain  5

dump dmp2 all dcd ${N} traj.dcd
dump dmp2 all dcd 1000 traj.dcd


compute msd all msd com yes
variable twopoint equal c_msd[4]/6/(step*dt+1.0e-6)
fix 9 all vector 10 c_msd[4]
variable fit equal slope(f_9)/6/(10*dt)
thermo_style custom step temp pe c_msd[4] v_twopoint v_fit v_max_n

fix 1 all npt temp 1.25 ${temp} 0.1 iso 5.68 5.68 0.5 mtk yes tchain 5 pchain 5
fix 1 all npt temp 1.25 0.45 0.1 iso 5.68 5.68 0.5 mtk yes tchain 5 pchain 5
run 500000 # 5000000  # Run for this many steps
Neighbor list info ...
  update every 1 steps, delay 10 steps, check yes
  max neighbors/atom: 2000, page size: 100000
  master list distance cutoff = 3.8
  ghost atom cutoff = 3.8
  binsize = 1.9, bins = 9 9 9
  4 neighbor lists, perpetual/occasional/extra = 1 3 0
  (1) pair lj/cut, perpetual
      attributes: half, newton on
      pair build: half/bin/atomonly/newton
      stencil: half/bin/3d
      bin: standard
  (2) compute orientorder/atom, occasional
      attributes: full, newton on
      pair build: full/bin/atomonly
      stencil: full/bin/3d
      bin: standard
  (3) compute coord/atom, occasional
      attributes: full, newton on
      pair build: full/bin/atomonly
      stencil: full/bin/3d
      bin: standard
  (4) compute cluster/atom, occasional
      attributes: full, newton on
      pair build: full/bin/atomonly
      stencil: full/bin/3d
      bin: standard
Per MPI rank memory allocation (min/avg/max) = 9.750 | 9.755 | 9.760 Mbytes
Step Temp PotEng c_msd[4] v_twopoint v_fit v_max_n 
   12000    1.2577881    -6.243055 1.8828138e-30 1.3075095e-32 8.3333333e+20            5 
   13000    1.2427183   -6.2299517   0.56793837 0.0036406304  0.046683778            1 
   14000    1.2548285   -6.2158456    1.1379878 0.0067737368  0.047276787            1 
   15000    1.2492292   -6.2378477    1.7006705 0.0094481691  0.046873824            6 
   16000    1.2073432   -6.2173058    2.2257815  0.011592612  0.046443767            2 
   17000     1.260944   -6.2232723     2.806951  0.013759563  0.046470002            2 
   18000    1.2539456   -6.2294809    3.2768614  0.015170654  0.046066716            3 
   19000    1.2508348   -6.2449954    3.8345443  0.016818176  0.045455793            2 
   20000    1.2225571   -6.2345657    4.3637748  0.018182395  0.045319691            1 
   21000    1.2097738   -6.1929382    4.8082045  0.019080176  0.044899615            4 
   22000    1.2366742   -6.2498417    5.2378365  0.019840289  0.044188895            3 
   23000    1.2366291   -6.2601238    5.7219977  0.020731875  0.043562697            4 
   24000    1.2625255   -6.2273767    6.2602855  0.021737102  0.043171913            4 
   25000    1.2286138   -6.2527535    6.8670348  0.022890115  0.043084197            1 
   26000    1.2274581    -6.248346    7.3176741  0.023454083  0.042979997            3 
   27000    1.2152903   -6.2768097     7.779043  0.024009391  0.042830527            2 
   28000    1.2276592   -6.2643368    8.3297883  0.024791036  0.042730332            3 
   29000    1.2194513   -6.2418748    8.8917048  0.025550875  0.042734298            4 
   30000    1.2398778   -6.3139168      9.48788  0.026355222  0.042813323            3 
   31000    1.2246975   -6.2526216    9.9800775  0.026828165  0.042930151            2 
   32000    1.2042712   -6.2531578    10.635074  0.027695505  0.043088699            4 
   33000    1.2364607   -6.2864294    11.111529  0.028059416  0.043239851            4 
   34000    1.2150492   -6.2923043    11.557997  0.028328424  0.043283187            2 
   35000     1.214373     -6.26814    12.023394  0.028627127  0.043265497            3 
   36000     1.202764   -6.2697978    12.561483  0.029077506  0.043255142            2 
   37000    1.2276028   -6.2718987    13.052711  0.029397997  0.043252928            2 
   38000    1.2206886   -6.2821405    13.457126  0.029511242  0.043191485            3 
   39000    1.2021797    -6.278899    13.952058   0.02981209   0.04306731            4 
   40000     1.214157   -6.3332355    14.428737  0.030059868  0.042967464            4 
   41000    1.2021942   -6.2948878    14.778787  0.030038186   0.04284468            2 
   42000    1.2348821    -6.291832    15.179683  0.030118417   0.04268179            2 
   43000     1.199227   -6.3354591    15.675243  0.030378377  0.042513454            3 
   44000    1.1959552   -6.3242727    16.176879  0.030638028  0.042363441            3 
   45000    1.1890978   -6.2814752    16.675124  0.030879859  0.042228263            3 
   46000    1.2049481   -6.2909525     17.21748  0.031191086  0.042111433            2 
   47000     1.186312   -6.3358691    17.678597   0.03134503  0.042016477            3 
   48000    1.1741867   -6.3176587    18.213372  0.031620437  0.041925266            2 
   49000    1.1818434   -6.2911144     18.70446  0.031810305  0.041825289            6 
   50000    1.2031336   -6.3304838    19.000794  0.031667989  0.041728759            3 
   51000    1.1588943   -6.3193421    19.396279  0.031693266  0.041631043           10 
   52000    1.1780453   -6.3404391    19.976407  0.032013472  0.041530978            3 
   53000    1.1763893   -6.3450681    20.212231  0.031780237  0.041438375            3 
   54000    1.1916972    -6.340005    20.800071  0.032098875  0.041311893            2 
   55000    1.1741823   -6.3334024    21.411822  0.032442154  0.041221725            5 
   56000    1.1973314   -6.3321936    21.820003  0.032470242  0.041151842            4 
   57000    1.1759999   -6.3778057     22.38289  0.032723523  0.041080242            3 
   58000    1.1976711   -6.3488434    23.014344  0.033066586   0.04103465            5 
   59000    1.1728941   -6.3704307    23.225264  0.032804045  0.040993706            1 
   60000    1.1802851   -6.3884207    23.694708  0.032909317  0.040926425            2 
   61000    1.1625204   -6.3616381    24.088253  0.032907449  0.040847264            5 
   62000    1.1835317   -6.3643069    24.349771  0.032728186   0.04075567            3 
   63000    1.1614727   -6.3841761    24.772644  0.032768047  0.040637817            3 
   64000    1.1506616   -6.3859855    25.162686  0.032763914  0.040533024            2 
   65000    1.1227835    -6.402654    25.642402  0.032874875  0.040413956            5 
   66000    1.1761602    -6.395673    26.024842  0.032859648  0.040307882            1 
   67000     1.161411   -6.3419542    26.621786  0.033111674  0.040214987            3 
   68000    1.1777071   -6.3499727    26.998856  0.033086834  0.040137283            1 
   69000    1.1723876   -6.3685731    27.381024   0.03306887  0.040039723            5 
   70000    1.1751846   -6.3702043     27.83232  0.033133714  0.039934954            3 
   71000    1.1795151   -6.4172266    28.158564  0.033049958   0.03982428            3 
   72000    1.1491261   -6.3711566    28.479271  0.032962119  0.039706441            2 
   73000    1.1527774   -6.3974854    28.912911  0.033005606  0.039594482            1 
   74000    1.1424175   -6.3840017    29.176637  0.032856572   0.03949194            7 
   75000    1.1434234   -6.4234931    29.703468  0.033003853  0.039375817            3 
   76000    1.1380139   -6.3990044    30.412184  0.033346693  0.039285838            4 
   77000     1.125693   -6.3802592    30.823882  0.033359179  0.039205009            7 
   78000    1.1587201   -6.3803971    31.397504  0.033544341  0.039143082            5 
   79000    1.1349276   -6.4250109    31.720316  0.033460249  0.039082418            2 
   80000    1.1309486   -6.4298927    31.995979  0.033329144  0.039008184            4 
   81000    1.1292701   -6.4032369    32.427327  0.033361447  0.038925727            5 
   82000    1.1298901   -6.3922119    32.722483  0.033254556  0.038843299            2 
   83000    1.1425465   -6.4306767    33.081646  0.033214504   0.03875755            4 
   84000    1.1585953   -6.4635967    33.404129  0.033139017  0.038659997            2 
   85000    1.1694792   -6.4589801     33.70572  0.033044823  0.038562529            3 
   86000    1.1496055   -6.4386857    34.422389  0.033355028  0.038477912            2 
   87000    1.1367655   -6.4397765    34.867752  0.033398229  0.038406156            2 
   88000    1.1360375   -6.4331182    35.192697  0.033326418  0.038336291            3 
   89000    1.1435688    -6.433462      35.3795  0.033126873   0.03825964            4 
   90000    1.1566853   -6.4394345    35.839612  0.033184826  0.038180421            4 
   91000    1.1373122   -6.4392679    36.280519  0.033223919  0.038097017            6 
   92000    1.0967714   -6.4156965    36.540395  0.033098184  0.038013193            2 
   93000    1.1135051   -6.4169711    36.793412  0.032969007  0.037923256            5 
   94000    1.1223028   -6.4767301    37.089992  0.032881199   0.03782596            3 
   95000    1.1157586   -6.4735493    37.256262  0.032680932  0.037718609            5 
   96000    1.1197089   -6.4075511     37.65607   0.03268756  0.037612404            4 
   97000    1.1109076   -6.4518523    37.948203  0.032601549  0.037499401            2 
   98000    1.0914505   -6.4310162    38.539671  0.032771829  0.037389097            3 
   99000    1.0939434   -6.4780856    38.593725  0.032486301  0.037278729            4 
  100000    1.1073611   -6.4660552    38.982759  0.032485633  0.037162683            3 
  101000    1.1185597   -6.4983451    39.326835  0.032447884  0.037050575            1 
  102000    1.1034985   -6.4366384    39.795059  0.032512303  0.036939805            5 
  103000    1.1079382    -6.476992    40.074464  0.032422706  0.036828054            2 
  104000    1.1030148   -6.4816203    40.262768  0.032261833  0.036715517            3 
  105000    1.0991292   -6.4896885    40.633806  0.032249052  0.036602313            4 
  106000    1.0839294   -6.4349132     41.01287  0.032242822  0.036490409            7 
  107000    1.1145973    -6.469258    41.218449  0.032101596  0.036381219            1 
  108000    1.1120099    -6.494591    41.614805  0.032110189  0.036271914            2 
  109000    1.0852097   -6.5052859    42.110431  0.032194519  0.036168935            1 
  110000    1.1119302   -6.5508995    42.342071  0.032077326  0.036071478            3 
  111000    1.1250089   -6.5269817    42.741408  0.032088144  0.035977253            4 
  112000    1.0966549   -6.5306185     43.04984  0.032031131  0.035884772            2 
  113000     1.108034   -6.4933295    43.499357  0.032079171  0.035795578            4 
  114000    1.0854032   -6.5351324    43.801006  0.032018279   0.03570531            2 
  115000    1.0857746   -6.5354871     44.35103  0.032138428  0.035619264            2 
  116000    1.0751798   -6.5328121    44.598802  0.032039369  0.035540551            2 
  117000    1.0831237   -6.5407667    45.056045    0.0320912  0.035456988            6 
  118000    1.0765936   -6.5110608    45.296755  0.031989234  0.035375042            3 
  119000    1.0627952   -6.5262247    45.602514  0.031934533   0.03528951            5 
  120000    1.0872518   -6.5047981    46.016492  0.031955897  0.035207602            3 
  121000    1.0843512   -6.5527622     46.16323  0.031792858   0.03512553            2 
  122000    1.0813161   -6.5167675    46.711856  0.031907005  0.035046667            2 
  123000    1.0749321   -6.5809158    46.996738  0.031840608  0.034971568            2 
  124000    1.0671848   -6.5485854    47.209981  0.031727138  0.034892139            4 
  125000     1.047423    -6.550686    47.551544  0.031701029  0.034811903            4 
  126000    1.0597399   -6.5539003    48.123151  0.031827481  0.034736182            3 
  127000    1.0737202   -6.5303972    48.505139  0.031827519  0.034667596            8 
  128000    1.0320774     -6.51305    49.026794  0.031918485  0.034601376            3 
  129000    1.0758232   -6.5859583    49.054523  0.031688968  0.034531193            5 
  130000    1.0640229   -6.5774449    49.374778  0.031650499  0.034463148            2 
  131000    1.0467838   -6.5701899    49.796012  0.031676852  0.034394831            5 
  132000    1.0480512   -6.5991942    50.198532  0.031690992  0.034328419            3 
  133000    1.0579509   -6.5632836    50.731317  0.031786539  0.034268089            5 
  134000    1.0962822   -6.5661703    50.604009  0.031470154  0.034203289            5 
  135000    1.0586049   -6.5770486    51.020791  0.031494315  0.034133954            4 
  136000    1.0651474   -6.5733681     51.11034   0.03131761  0.034061529            3 
  137000    1.0560999   -6.5778303     51.29373  0.031200566  0.033985668            2 
  138000    1.0613465   -6.5960315     51.46188  0.031076015  0.033906997            3 
  139000    1.0470668   -6.6238612    51.728032   0.03101201  0.033827796            5 
  140000    1.0540772   -6.6155147    51.965354  0.030931758  0.033745398            2 
  141000    1.0532381   -6.5909645    52.632604   0.03110674  0.033666534            5 
  142000    1.0431861   -6.5792304    52.914391  0.031053046  0.033591207            3 
  143000    1.0447044   -6.5840594    53.095218  0.030941269  0.033517178            2 
  144000    1.0378879    -6.599281    53.398956  0.030902173  0.033441833            4 
  145000     1.030624   -6.6088166    53.789233  0.030913352  0.033369261            3 
  146000    1.0299006   -6.5892268    54.367897  0.031031905  0.033298078            4 
  147000    1.0423268   -6.6011136     54.55884  0.030929048  0.033229919            5 
  148000    1.0263351   -6.6041134     54.87834  0.030899966   0.03316255            3 
  149000    1.0802418   -6.6145229    55.266836  0.030909863   0.03309439            4 
  150000    1.0258958    -6.662506    55.472681  0.030818156  0.033025783            4 
  151000    1.0170966   -6.6436373    55.816753  0.030803948   0.03295969            8 
  152000    1.0121959   -6.6619669    55.857375  0.030623561  0.032892539            4 
  153000     1.042852   -6.6474968    56.055858  0.030531513  0.032822066            4 
  154000    1.0265321   -6.6520253    56.186962    0.0304042  0.032748072            3 
  155000    1.0447969    -6.670071    56.428653  0.030337985  0.032674491            2 
  156000    1.0328706   -6.6711775    56.792847  0.030338059  0.032601912            7 
  157000     1.020416   -6.6434728    57.131041  0.030324331  0.032528171            7 
  158000   0.99286554   -6.6258193    57.324882  0.030234643  0.032453245            7 
  159000   0.99893205   -6.6863527    57.526673  0.030150248  0.032377658            3 
  160000    1.0315046   -6.6687549    57.793658  0.030100864  0.032302066            4 
  161000    1.0124792   -6.6652962    57.941609  0.029990481   0.03222726            4 
  162000    1.0056602   -6.6815237    58.400797  0.030041562  0.032154285            4 
  163000      1.01024   -6.6903624    58.766426  0.030044185  0.032081774            2 
  164000   0.99589222    -6.675501    58.677295  0.029815699  0.032010139           12 
  165000    1.0012025   -6.6802734    59.295533  0.029947239  0.031937463            4 
  166000    1.0020976   -6.6732298    59.429641  0.029834157  0.031864179            2 
  167000   0.98123087    -6.684123     59.77759  0.029829137  0.031794635            4 
  168000   0.99384602   -6.6682708    59.897228  0.029710926  0.031722526            2 
  169000   0.99494092   -6.6829645    60.390847  0.029778524  0.031649435            4 
  170000   0.98075766   -6.6691351    60.400881  0.029608275  0.031578595            3 
  171000   0.97130367    -6.708166    60.644811  0.029554002   0.03150622            3 
  172000    1.0023205   -6.6925675    60.836756  0.029475172  0.031434256            2 
  173000    1.0089965   -6.6908557    61.007234  0.029386914  0.031361174            9 
  174000   0.99876293   -6.6794361    61.231361  0.029325364  0.031284316            3 
  175000    1.0223889   -6.7214911    61.265221  0.029173915    0.0312063            2 
  176000   0.99184454   -6.7284005    61.455992  0.029098481  0.031128213            2 
  177000   0.99674838   -6.7012424    61.728683  0.029062468  0.031048324           10 
  178000    0.9912449   -6.6889471     61.96116  0.029008034  0.030969134            3 
  179000    1.0027269    -6.707927    62.280067  0.028994445  0.030892534            3 
  180000   0.97228288   -6.7352126    62.548485  0.028957632  0.030818462            7 
  181000   0.99156933   -6.7090384    62.627405   0.02883398   0.03074267            5 
  182000   0.97608259   -6.6840304    62.812886  0.028760479   0.03066638            6 
  183000    1.0035489   -6.7140664    63.070965   0.02872084  0.030589229            6 
  184000   0.98186909   -6.7259519    63.289004  0.028663498  0.030511621            4 
  185000    0.9803835   -6.7042074    63.697435  0.028692538  0.030435513           12 
  186000   0.96218414   -6.7223052    63.950964  0.028651865  0.030361093            5 
  187000   0.96950717   -6.7608439    64.091156  0.028561121  0.030287648            4 
  188000    1.0028273   -6.7322409    64.250273  0.028479731  0.030213494            5 
  189000   0.98080255   -6.7586564    64.414143  0.028401298  0.030139125            7 
  190000   0.96251451    -6.777445    64.541611  0.028307724  0.030066139            4 
  191000   0.96464124   -6.7833689     64.90905   0.02831983   0.02999274            8 
  192000   0.97086304   -6.7573584    65.210652  0.028303234  0.029919766            6 
  193000   0.94145259   -6.7369913    65.625505   0.02833571  0.029849321            4 
  194000   0.97356702   -6.7725259     65.77947  0.028255786  0.029779846            4 
  195000   0.95472149   -6.7771227    66.289481  0.028328838  0.029712469            7 
  196000   0.94720112   -6.7476432    66.352015  0.028210891  0.029647202            3 
  197000   0.96170961   -6.7643364    66.785729  0.028251154  0.029581209            6 
  198000    0.9514637    -6.751824    67.011271  0.028203397  0.029515133            3 
  199000   0.96211993    -6.769334    67.352819  0.028204698   0.02945234            7 
  200000   0.95727853   -6.7705447    67.497035  0.028123765  0.029389233            4 
  201000   0.94192058   -6.7875689    67.661662  0.028052098  0.029326297            5 
  202000    0.9121338   -6.7720298    67.737467    0.0279445  0.029262215            4 
  203000    0.9392796   -6.7554523    67.985652  0.027908724  0.029198015            7 
  204000   0.95150985   -6.7970036    68.003481    0.0277792  0.029131665            7 
  205000   0.95051114   -6.8017452    68.540289  0.027861906  0.029065035            3 
  206000   0.93952098   -6.7904765    68.343677  0.027647118  0.029000135            5 
  207000   0.94670536   -6.8131472    68.553683  0.027598101  0.028931414            6 
  208000   0.92888529   -6.7930352    68.758503  0.027547477  0.028863398            3 
  209000   0.93626502   -6.8010986    68.791496  0.027428826  0.028793289            3 
  210000   0.94064303   -6.8167525     68.74683  0.027280488  0.028722303            3 
  211000    0.9132752   -6.7943259    69.065427  0.027277025   0.02865209           11 
  212000   0.92630857   -6.8048343    69.623448  0.027367707  0.028584076           10 
  213000   0.93191889   -6.7824346    69.696088   0.02726764  0.028516421           10 
  214000   0.94981861   -6.8416686    69.561362  0.027087758  0.028447325            5 
  215000   0.91970454   -6.8357612    69.685514  0.027009889  0.028377928            6 
  216000   0.91176848   -6.8227751    70.111115  0.027049041  0.028307003            6 
  217000   0.91567606   -6.8244852    70.097272  0.026919075  0.028236977            8 
  218000   0.93512363   -6.8275395    70.314628   0.02687868  0.028166322            4 
  219000   0.92536336   -6.8117295    70.768961  0.026928828   0.02809657            8 
  220000   0.93753535   -6.8407095    70.806908  0.026820798  0.028028415            3 
  221000   0.91303229   -6.8181436     70.98882  0.026768032  0.027959976            5 
  222000    0.9224423   -6.7932003    71.258881  0.026748829  0.027892228            3 
  223000   0.90048731   -6.8429711    71.213174  0.026611799   0.02782295            5 
  224000   0.89023934   -6.8660919    71.365397  0.026549627  0.027753046           11 
  225000   0.90199439   -6.8298159    71.468709  0.026469892  0.027683001            3 
  226000   0.92786838   -6.8154181    71.712868  0.026442798  0.027613328            9 
  227000   0.89945268   -6.8974325    71.676781  0.026313062  0.027544653            4 
  228000   0.90810858   -6.8711598    72.238776  0.026403061  0.027475946            4 
  229000   0.90230518   -6.8982302    72.012246   0.02620533  0.027407152           21 
  230000   0.89726107   -6.8278719    72.527641  0.026278131    0.0273393            9 
  231000   0.90928681   -6.8942565     72.51575  0.026160083   0.02727137            9 
  232000   0.91013114    -6.870308     72.74256  0.026128793  0.027203217           11 
  233000   0.90341207   -6.8726003     73.14969  0.026162264  0.027137188            5 
  234000   0.89105606   -6.8832126    73.498957  0.026174842  0.027073014            8 
  235000   0.90259056   -6.8972424    73.397251  0.026027394  0.027008176            3 
  236000   0.90649813   -6.8866824    73.379499   0.02591084  0.026941413            4 
  237000   0.87900706   -6.8957124    73.566211  0.025867163   0.02687613           13 
  238000   0.86763864   -6.9136728     73.80924  0.025843571  0.026809713            8 
  239000   0.89061414   -6.9029776    74.077155  0.025828855  0.026744952            3 
  240000   0.89025575   -6.9018147    74.030515   0.02570504  0.026679239            5 
  241000   0.89078773   -6.9049032    74.253926  0.025675632  0.026613276            7 
  242000   0.89591304   -6.9118103    74.273098  0.025576136  0.026547242            3 
  243000   0.87659929   -6.9229415    74.796855  0.025650499  0.026481746           11 
  244000   0.87769161   -6.9263463    74.615131   0.02548331   0.02641689           10 
  245000   0.87169967   -6.9413848    74.797744   0.02544141  0.026351986            3 
  246000   0.89287339     -6.92732    75.109399  0.025443563  0.026287161           10 
  247000   0.86716223   -6.9419952    75.082195  0.025331375  0.026223119            5 
  248000   0.86692471   -6.9821902    75.355734  0.025321147  0.026158683            4 
  249000   0.88778351   -6.9192748    75.342875  0.025215152  0.026094373            7 
  250000   0.87111665   -6.9343581    75.546178  0.025182059  0.026030196           27 
  251000   0.87683457   -6.9333305    75.603251  0.025100681  0.025965286            8 
  252000   0.86088513   -6.9495862    75.880513  0.025092762  0.025900674            8 
  253000   0.87279128   -6.9403461    75.978136  0.025025737  0.025837351            6 
  254000   0.83658297   -6.9476063    76.128185  0.024976439   0.02577389           12 
  255000   0.86478533   -6.9580791    76.294335  0.024932789  0.025710648            4 
  256000   0.86023285   -6.9463903    76.765438  0.024988749  0.025647774            5 
  257000    0.8592254   -6.9413773    76.922867  0.024942564  0.025585495            8 
  258000   0.85137932   -6.9827048    76.865963  0.024827507  0.025522464            4 
  259000   0.85869729   -6.9518587    76.857124  0.024728804  0.025459429            6 
  260000   0.86684527    -6.956241    77.101873  0.024712139  0.025396325            8 
  261000   0.82527537   -6.9701134     77.06357  0.024605227    0.0253339            5 
  262000    0.8555983   -6.9860983    77.125783  0.024531101  0.025271032            5 
  263000   0.84361237   -6.9790918    77.605797  0.024589923  0.025208733            6 
  264000   0.84461532   -6.9946572    77.261863  0.024388214  0.025146174            6 
  265000   0.85395381   -7.0099589    77.567772  0.024392381  0.025083307            7 
  266000   0.82986237   -6.9966471    77.611314  0.024314321  0.025020246           11 
  267000   0.84114959    -6.992931    77.998268  0.024344029  0.024957163            5 
  268000   0.83037792   -7.0129843    77.897593  0.024221888  0.024894776            3 
  269000   0.81328756   -7.0121089    78.194512  0.024223827  0.024832532            4 
  270000   0.83115862   -7.0294001    78.304079  0.024167926  0.024770859           12 
  271000   0.83257118   -7.0388787    78.411268  0.024111706  0.024709829            9 
  272000   0.82985138   -7.0302926    78.486402  0.024046079  0.024648445            5 
  273000   0.85601909   -7.0207411    78.678642  0.024016679   0.02458688           21 
  274000   0.82027745   -7.0167484    78.692455  0.023933228  0.024525945            6 
  275000   0.82677095   -7.0405404    78.909884  0.023912086  0.024465057            5 
  276000   0.83591305   -7.0347647    79.068882  0.023873455   0.02440454            6 
  277000   0.81281531   -7.0183309    79.015917  0.023771335  0.024343797            4 
  278000   0.83260308    -7.058493     79.15252  0.023726774  0.024283229            6 
  279000   0.83038779    -7.052882    79.391829   0.02371321  0.024222467            7 
  280000   0.81740047    -7.054149      79.3692  0.023621786  0.024162164            9 
  281000   0.81894316   -7.0407937    79.636194  0.023616902  0.024101515            7 
  282000   0.80776811   -7.0408016    79.627309  0.023530529  0.024041135           13 
  283000   0.80927394   -7.0465939      79.5421  0.023422291  0.023980675            6 
  284000   0.83037122   -7.0437676    79.945864  0.023458293  0.023920661            9 
  285000   0.79514605    -7.061945     80.12635  0.023428757  0.023860413            6 
  286000   0.81465054   -7.0693872    79.972795  0.023302096  0.023800442            5 
  287000   0.78630966   -7.0782236    80.283662  0.023311168  0.023741506            8 
  288000   0.79703042   -7.0919189    80.423519  0.023270694  0.023682387            6 
  289000   0.79596012   -7.0686081    80.727442  0.023277809  0.023623593            5 
  290000   0.79880605   -7.0563985    80.856813  0.023234716  0.023565543           10 
  291000   0.78695918    -7.094716    80.848755  0.023152565  0.023507619            5 
  292000   0.79943261   -7.0451524    81.112841  0.023148642  0.023450042            5 
  293000   0.80468126   -7.0826833    81.280051  0.023117193  0.023392991            7 
  294000   0.78625918   -7.0953013    81.390543  0.023069882  0.023336715            4 
  295000   0.79572537   -7.0796904    81.379763  0.022988634  0.023280003            4 
  296000   0.79209817   -7.0856114    81.412026  0.022920052  0.023223372            6 
  297000   0.77393761   -7.0937312    81.515314  0.022871861  0.023166958            7 
  298000   0.79571871   -7.0995752    81.639954  0.022829965  0.023110195            6 
  299000   0.78342236   -7.1263189    81.406051   0.02268842  0.023052841            8 
  300000   0.78116529   -7.1083081    81.681163  0.022689212  0.022995647           15 
  301000   0.77798812   -7.1215011    81.910354  0.022677285  0.022938539            8 
  302000   0.80726944   -7.0990715    81.868742  0.022590712  0.022881412           10 
  303000   0.78067703   -7.1095494     81.90244  0.022525423  0.022824089            7 
  304000   0.78883916   -7.1097578    82.022835   0.02248433  0.022766423            6 
  305000   0.77730609   -7.1262178    82.206201  0.022460711  0.022709225            8 
  306000   0.77350689   -7.1279287    82.216467  0.022390105  0.022651997           13 
  307000   0.76474215   -7.1225638    82.259872  0.022328955  0.022595866           18 
  308000   0.77600422   -7.1336114    82.257964  0.022255943  0.022539198            6 
  309000   0.76157276   -7.1280912    82.567692  0.022267447  0.022482654            5 
  310000   0.78154664   -7.1491531     82.54335  0.022189073  0.022426012            5 
  311000   0.78559075   -7.1281081    82.609516  0.022135454  0.022369369            8 
  312000   0.76858736   -7.1488046    82.668778  0.022080336  0.022313381            4 
  313000   0.76482503    -7.181202    82.823547  0.022050997  0.022257394           13 
  314000   0.77885639   -7.1474428     82.85723  0.021989711  0.022201444            7 
  315000   0.76454573   -7.1707829    82.887022  0.021927784  0.022145373           13 
  316000   0.75096429   -7.1744088    83.088256   0.02191146  0.022088813           32 
  317000   0.76359307   -7.1588441    83.256935  0.021886681  0.022033036           15 
  318000   0.76820099   -7.1663729    83.104959  0.021778029  0.021976968            8 
  319000   0.76045345    -7.151966    83.098008  0.021707943  0.021920832           15 
  320000   0.75546778   -7.1682723    83.232825  0.021675215  0.021864467           10 
  321000   0.74175134   -7.1799948    83.330822  0.021633131  0.021808644            7 
  322000   0.75804154   -7.1748732    83.484502   0.02160572  0.021753413           10 
  323000   0.76471667   -7.1741792    83.685641  0.021590723  0.021698378            8 
  324000   0.75533728   -7.1930029    83.621728  0.021507646  0.021643261           16 
  325000   0.75282312   -7.1787653    83.758553  0.021476552  0.021587852           21 
  326000   0.76246302   -7.1759227    83.765639  0.021412484  0.021532339           10 
  327000   0.73459659   -7.2151929      83.7799  0.021350637  0.021476791            8 
  328000   0.73340826   -7.2274875    83.733913   0.02127386  0.021421347           12 
  329000   0.73698134   -7.2008194    83.921496  0.021256711  0.021365917           13 
  330000   0.73930025   -7.1941507    83.848346  0.021173825   0.02131069           16 
  331000   0.74196399   -7.1656524    83.992374  0.021146116  0.021255655            5 
  332000   0.73742722   -7.2096227    83.851382  0.021047034  0.021200181           10 
  333000   0.74727384   -7.2055326    83.919003  0.021000752  0.021144582            9 
  334000   0.74049021   -7.2284336    83.949451  0.020945472  0.021089337            9 
  335000   0.74020696    -7.213074    84.102207  0.020920947  0.021034134           13 
  336000     0.739891   -7.2170278    84.265265  0.020899123  0.020979205           16 
  337000   0.73152735   -7.2100568    84.077275  0.020790622  0.020923903           12 
  338000   0.73477469   -7.2297851    84.409103  0.020810923  0.020868859            8 
  339000   0.73048908   -7.2210707    84.562909  0.020787343  0.020814558           10 
  340000   0.72989355   -7.2400904     84.46839  0.020703037  0.020760285           23 
  341000   0.71645546   -7.2270752    84.434969  0.020634157  0.020705966            8 
  342000   0.71441814   -7.2301205    84.702196  0.020638937  0.020651849           13 
  343000   0.72239033   -7.2433481    84.622691  0.020559449  0.020597523           13 
  344000   0.73106969   -7.2566617    84.649621  0.020506207  0.020543331            9 
  345000   0.71632666   -7.2510215    84.742958  0.020469314  0.020489301           14 
  346000   0.70681324   -7.2590537    84.878536  0.020442807  0.020435393            9 
  347000    0.7167739   -7.2618917    84.847158  0.020376359   0.02038207           15 
  348000   0.73179752   -7.2729352    84.875597  0.020324616  0.020328435           12 
  349000   0.69867404   -7.2861005    84.806704  0.020249929  0.020274687           15 
  350000   0.70894424   -7.2944359    84.883742  0.020210415  0.020220899           12 
  351000    0.7085516   -7.2878572    84.728644  0.020116012  0.020166856           19 
  352000   0.70707249    -7.291156    84.936928  0.020108174  0.020112685           20 
  353000    0.7152256    -7.301034    85.025693  0.020072165  0.020058776           16 
  354000   0.69591158   -7.2998653    85.100228   0.02003301  0.020005111           29 
  355000   0.69740366   -7.2742206    85.149565  0.019988161  0.019951651           29 
  356000   0.70232323   -7.2771613    85.134429  0.019928471  0.019898741           35 
  357000   0.68783624   -7.2797079      85.1188  0.019869001  0.019845714           12 
  358000   0.67891168   -7.3056113     85.29253  0.019853941  0.019792812           10 
  359000   0.69195938   -7.3073189     85.16625  0.019769324  0.019739952           19 
  360000   0.69739324   -7.3131531    85.266438  0.019737601  0.019686809           13 
  361000   0.68945463   -7.2999515    85.391576  0.019711813  0.019633793           15 
  362000   0.68871486   -7.3250642    85.275042  0.019630534  0.019580977            8 
  363000   0.69313482   -7.3292153     85.29632  0.019581341  0.019527981           14 
  364000   0.67430672   -7.3252026    85.467779  0.019566799  0.019474771           21 
  365000   0.68178016   -7.3082921    85.272902  0.019468699  0.019421395            9 
  366000   0.68136568   -7.3336468    85.330878  0.019428706  0.019367987           14 
  367000   0.69361176   -7.3196035    85.594229  0.019435565  0.019315313           10 
  368000   0.66692128   -7.3386968    85.575876  0.019378595  0.019262802           18 
  369000   0.67497453     -7.33483    85.511929  0.019311637  0.019210326           12 
  370000   0.67631412   -7.3731529    85.562178  0.019270761  0.019157915           10 
  371000   0.67061892   -7.3130018    85.440652  0.019191521  0.019105511           10 
  372000   0.69372842   -7.3480011    85.649116   0.01918663   0.01905303           17 
  373000   0.66598051   -7.3721754    85.542349  0.019111338  0.019000557           16 
  374000   0.66074238   -7.3628761    85.689741  0.019093079  0.018948356           10 
  375000   0.66542977   -7.3553397    85.745168  0.019054482  0.018896083           14 
  376000   0.66065003   -7.3559479    85.610138  0.018973878  0.018843794            8 
  377000    0.6663048   -7.3470383    85.463588  0.018891156  0.018791614           11 
  378000   0.67339469   -7.3322323    85.419457   0.01883145  0.018739351           16 
  379000   0.66033526   -7.3553754    85.611192  0.018823921  0.018687449           26 
  380000    0.6542315   -7.3513723    85.605295  0.018773091  0.018635317            9 
  381000   0.66179444   -7.3699201    85.536316  0.018708731  0.018583344           14 
  382000    0.6593265   -7.3852834    85.632816  0.018680806  0.018531274           11 
  383000    0.6628859   -7.3837663    85.718821  0.018650744  0.018479485           18 
  384000   0.64879003   -7.3779138    85.791489  0.018617945  0.018427785           24 
  385000    0.6451258   -7.3939205    86.053078  0.018626207  0.018376335           27 
  386000   0.64274526    -7.411073    85.693388    0.0185003  0.018325041           25 
  387000   0.64296449   -7.3992328     85.72382  0.018459048  0.018273724           26 
  388000   0.64589668   -7.4087836    85.639194  0.018393298  0.018222173           34 
  389000   0.65551221   -7.4222779    85.833037   0.01838754  0.018170672           16 
  390000   0.65875736   -7.4223438    85.597865  0.018290142  0.018119225           55 
  391000   0.64450858   -7.4329805     85.56974   0.01823737  0.018067779           38 
  392000   0.63759644   -7.4091508     85.74296   0.01822767  0.018016366           49 
  393000   0.63684576   -7.4386391    85.608353  0.018152746  0.017965034           41 
  394000   0.65269364   -7.4411985     85.72411  0.018131157  0.017913915           60 
  395000   0.64161102   -7.4418992    85.648844  0.018069376   0.01786288           39 
  396000   0.63159175   -7.4596198    85.670818  0.018028371  0.017811773           66 
  397000    0.6269299   -7.4713271    85.644192   0.01797737  0.017760602           76 
  398000   0.62552356   -7.4483912    85.574603  0.017917631  0.017709489           54 
  399000   0.62320244   -7.4317949    85.547577  0.017867079  0.017658237           61 
  400000   0.61482328   -7.4397122    85.370985  0.017785622  0.017607123           31 
  401000   0.62815467    -7.445866     85.54441  0.017777309   0.01755606           44 
  402000   0.62860582   -7.4378412    85.547983  0.017733827  0.017505341           34 
  403000   0.61895694   -7.4665193    85.409305  0.017661147  0.017454562           41 
  404000   0.62507597   -7.4523469    85.621731  0.017661248  0.017404012           69 
  405000   0.62935555   -7.4614782    85.526122  0.017597967  0.017353612           29 
  406000   0.60606396   -7.4880222    85.675639  0.017585312  0.017303555           29 
  407000   0.61190808   -7.4694393    85.771688  0.017561771  0.017253426           19 
  408000   0.61533444   -7.4655274    85.664696  0.017496874  0.017203585           33 
  409000   0.61837542   -7.4812443    85.932826  0.017508726  0.017153646           53 
  410000   0.62118259   -7.4780243    85.737488  0.017426319   0.01710402           22 
  411000   0.62557059   -7.4862416    85.741554  0.017384743  0.017054557           22 
  412000   0.60989429   -7.5050427     85.78733  0.017351806  0.017005177           38 
  413000   0.61582447   -7.4756517    85.741616  0.017300568  0.016955787           19 
  414000   0.59214424   -7.4746393    85.742833  0.017259024  0.016906665           31 
  415000   0.59346165     -7.46724    85.796079  0.017228128  0.016857676           33 
  416000   0.61101647   -7.4986154    85.698146  0.017167097  0.016808793           48 
  417000   0.60077866   -7.4917871     85.79987  0.017146257  0.016760105           33 
  418000   0.60808157   -7.4999182    85.640854  0.017073535  0.016711411           49 
  419000   0.59191949   -7.5007927    85.763617  0.017057203  0.016662759           32 
  420000   0.57774622   -7.5160766    85.734145  0.017010743  0.016614173           30 
  421000    0.5892222   -7.5267733    85.700263  0.016963631  0.016565663           43 
  422000   0.59317159   -7.5190231    85.722196  0.016927764  0.016517233           35 
  423000   0.58320416   -7.5157849    85.687288  0.016880868  0.016468971           37 
  424000   0.58562601   -7.5311071    85.721033  0.016847687  0.016420819           41 
  425000   0.60034071   -7.5128869     85.61585  0.016787422  0.016372881           33 
  426000   0.59120871    -7.525021    85.739281   0.01677216  0.016324868           31 
  427000   0.59401781   -7.5327605    85.471013  0.016680526  0.016276936           49 
  428000    0.5804491   -7.5415312    85.617278  0.016670031  0.016228892           43 
  429000   0.57720839   -7.5379677    85.460682  0.016600754   0.01618101           39 
  430000   0.58449528   -7.5604563    85.620773  0.016593173  0.016133119           43 
  431000   0.58974584   -7.5576776    85.617377  0.016554017  0.016085391           29 
  432000    0.5646336   -7.5734054    85.638275  0.016519729   0.01603778           43 
  433000   0.55875895   -7.5801062    85.550426   0.01646467  0.015990421           51 
  434000   0.57352628   -7.5621208    85.686585  0.016452877  0.015943029           46 
  435000   0.57237737   -7.5739734    85.693335  0.016416348  0.015895848           41 
  436000   0.56821318   -7.5629108    85.786061  0.016396418  0.015848686           47 
  437000   0.56846488   -7.5601873    85.578204  0.016319261  0.015801496           42 
  438000   0.55519646   -7.5781129    85.492399  0.016265677  0.015754776           75 
  439000   0.57026376   -7.5601165    85.422661  0.016215387  0.015708077           41 
  440000   0.56058849   -7.5834355    85.514796  0.016195984  0.015661495           34 
  441000    0.5689411    -7.559015    85.584694  0.016172467  0.015614844           93 
  442000   0.56877973   -7.5795862    85.407103  0.016102395  0.015568433           52 
  443000   0.55316013   -7.5821396    85.399357  0.016064589  0.015522078           55 
  444000   0.55873727   -7.5844771    85.465132  0.016040753  0.015475962           46 
  445000   0.55622576   -7.6013823    85.425063  0.015997203  0.015429956           59 
  446000   0.54998268   -7.5846583    85.527852   0.01598054  0.015384142           32 
  447000   0.55096918   -7.5837306    85.389843  0.015919061   0.01533844           32 
  448000   0.55439747   -7.5690235    85.484844  0.015901199   0.01529293           43 
  449000   0.56285426   -7.5936405    85.299543  0.015831393  0.015247507           27 
  450000   0.55975987   -7.5966169    85.629765  0.015857364  0.015202165           51 
  451000   0.55275031   -7.6016396     85.32927   0.01576668  0.015157116           25 
  452000   0.55196462   -7.6042928    85.497882  0.015762884  0.015112086           29 
  453000   0.54392098   -7.6113337    85.653122  0.015756645  0.015067283           30 
  454000   0.55991696   -7.6193185    85.646468  0.015720717  0.015022675           33 
  455000   0.54542695   -7.6184148    85.435844   0.01564759   0.01497817           25 
  456000   0.54302562   -7.6142274    85.545168  0.015633254  0.014933757           33 
  457000   0.54879295   -7.6022419    85.388898   0.01557055   0.01488951           24 
  458000   0.54158812   -7.6089367    85.450084  0.015547686  0.014845297           36 
  459000   0.53746854   -7.6428134    85.455839  0.015514858  0.014801222           33 
  460000   0.54060402   -7.6187213    85.370633  0.015465694  0.014757354           34 
  461000   0.52398934   -7.6209326    85.400096  0.015437472  0.014713678           38 
  462000    0.5235573   -7.6381366    85.396557  0.015403419  0.014669922           42 
  463000   0.52785746   -7.6330347    85.304468  0.015353576  0.014626224           42 
  464000   0.52417483   -7.6231941     85.29113  0.015318091  0.014582634           42 
  465000   0.51593152   -7.6515069    85.390444  0.015302947  0.014539334           68 
  466000    0.5252775   -7.6435137    85.311286  0.015255952  0.014496106           41 
  467000   0.52143195   -7.6461799    85.303955  0.015221976  0.014452979           37 
  468000   0.51588108   -7.6412506    85.395086  0.015205678  0.014409947           56 
  469000   0.51895893    -7.644423    85.225448  0.015143114   0.01436692           30 
  470000   0.51568992   -7.6462661    85.290962  0.015122511  0.014324135           35 
  471000   0.50902928   -7.6402235    85.259836  0.015084897  0.014281439           37 
  472000    0.5049784   -7.6660198    85.254137  0.015051931  0.014238913           70 
  473000   0.51222295   -7.6582851    85.355061   0.01503789  0.014196473           45 
  474000   0.51171381   -7.6696362    85.505184  0.015032557  0.014154258           48 
  475000   0.51869574   -7.6586713    85.242547  0.014954833   0.01411217           47 
  476000   0.51853584   -7.6826737    85.332697  0.014939198  0.014070209           36 
  477000   0.50178029   -7.6536001    85.281385  0.014898914  0.014028301           41 
  478000   0.50122021   -7.6760982    85.351607  0.014879987  0.013986634           44 
  479000   0.49249027   -7.6623533    85.309257  0.014841555   0.01394508           44 
  480000   0.50487414   -7.6782088    85.401268  0.014826609  0.013903716           82 
  481000   0.50848703    -7.671723    85.333228  0.014783997  0.013862477           48 
  482000   0.49625205   -7.6956794    85.392413  0.014763557  0.013821448           37 
  483000   0.48784236    -7.680593      85.2602  0.014710179  0.013780526           60 
  484000   0.48937777    -7.688418    85.391868  0.014702457  0.013739623           31 
  485000   0.48898524   -7.6904569    85.227318  0.014643869  0.013698892           33 
  486000   0.49594517   -7.6955222    85.286036  0.014623806  0.013658408           37 
  487000   0.49313481   -7.6879651    85.242234  0.014586282  0.013617959           32 
  488000   0.50372794   -7.7012841    85.160198  0.014542384  0.013577667           71 
  489000   0.48357485   -7.6958372    85.209557  0.014521056  0.013537412           54 
  490000   0.48144508   -7.6923097    85.211978  0.014491833  0.013497427           38 
  491000   0.48600509   -7.7036248    85.157053  0.014452996    0.0134575           29 
  492000   0.47805581    -7.682578    85.049467  0.014405398   0.01341769           47 
  493000    0.4820716   -7.6932098    85.061636  0.014378235  0.013378018           45 
  494000   0.48999715   -7.7169114    85.192491  0.014371203  0.013338439           85 
  495000   0.48044033    -7.723167    85.115621  0.014329229  0.013299028           58 
  496000   0.47206608   -7.7246139    85.163463  0.014308377  0.013259717           36 
  497000   0.46727836   -7.7343181    85.087777  0.014266897  0.013220518           67 
  498000   0.46842744   -7.7240007    85.077597  0.014236546  0.013181508           35 
  499000   0.47043149   -7.7240559    85.064195  0.014205777  0.013142652           42 
  500000    0.4791829   -7.7058699    85.153492  0.014192249   0.01310386           62 
  501000   0.46444227   -7.7122293    85.177894   0.01416798  0.013065274           65 
  502000    0.4678951   -7.7313564    85.289504  0.014158284  0.013026764           43 
  503000   0.46347657   -7.7270667    85.098809  0.014098544  0.012988392           64 
  504000   0.45983581   -7.7400256    85.078762  0.014067256  0.012950091           91 
  505000   0.46530637   -7.7361507    85.056023  0.014035647  0.012911896           40 
  506000   0.46017228    -7.732655    85.031427  0.014003858  0.012873749           70 
  507000   0.46140727   -7.7459528     85.02465  0.013975123  0.012835812          105 
  508000   0.45210907   -7.7538456      85.0027  0.013944012  0.012797988           73 
  509000   0.44890242   -7.7455187    85.099464   0.01393246   0.01276036           66 
  510000   0.46315026   -7.7405785    85.002281  0.013889262  0.012722829           55 
  511000   0.46073823   -7.7687123    85.059087  0.013871345  0.012685454           98 
  512000   0.45389144    -7.757541    85.059742  0.013844359  0.012648176           44 
Loop time of 1087.38 on 48 procs for 500000 steps with 4000 atoms

Performance: 79456.972 tau/day, 459.820 timesteps/s
99.4% CPU use with 48 MPI tasks x no OpenMP threads

MPI task timing breakdown:
Section |  min time  |  avg time  |  max time  |%varavg| %total
---------------------------------------------------------------
Pair    | 67.998     | 71.273     | 74.648     |  17.2 |  6.55
Neigh   | 6.8188     | 6.9828     | 7.3212     |   3.2 |  0.64
Comm    | 58.962     | 63.109     | 66.688     |  23.5 |  5.80
Output  | 0.793      | 0.81007    | 0.82035    |   0.3 |  0.07
Modify  | 929.57     | 933.55     | 937.16     |   5.3 | 85.85
Other   |            | 11.65      |            |       |  1.07

Nlocal:        83.3333 ave          91 max          77 min
Histogram: 1 4 11 7 2 10 3 7 2 1
Nghost:        1816.79 ave        1838 max        1790 min
Histogram: 1 3 1 7 8 4 12 3 7 2
Neighs:        11144.1 ave       12332 max        9669 min
Histogram: 1 2 1 7 8 10 7 7 2 3
FullNghs:      22287.3 ave       24605 max       20346 min
Histogram: 1 3 11 5 9 5 6 3 4 1

Total # of neighbors = 1069791
Ave neighs/atom = 267.44775
Neighbor list builds = 26950
Dangerous builds = 0

#clear
#
#next RN
#
#jump SELF
Total wall time: 0:18:10
