
units lj                  # Use reduced LJ style units
atom_style atomic         # Uncharged point particles
atom_modify map hash      # Needed for indexing of clusters etc
                          # Used to be able to find where atoms are in relation to each other.

lattice fcc 1.0 spacing 1 1 1
Lattice spacing in x,y,z = 1.5874011 1.5874011 1.5874011
region box block 0 10 0 10 0 10 units lattice
create_box 2 box
Created orthogonal box = (0.0000000 0.0000000 0.0000000) to (15.874011 15.874011 15.874011)
  3 by 4 by 4 MPI processor grid
create_atoms 1 box
Created 4000 atoms
  using lattice units in orthogonal box = (0.0000000 0.0000000 0.0000000) to (15.874011 15.874011 15.874011)
  create_atoms CPU = 0.002 seconds
set type 1 type/fraction 2 1.0 78393
Setting atom values ...
  4000 settings made for type/fraction
mass 1 1.0
mass 2 1.0
pair_style lj/cut  3.5
pair_modify tail  yes
pair_coeff 1  1  1.0  1.0   # Intearaction between 1 and 1 set with epsilon = 1 and sigma = 1
pair_coeff 1  2  1.5  0.8
pair_coeff 2  2  0.5  0.88

write_data data.0
System init for write_data ...
Neighbor list info ...
  update every 1 steps, delay 10 steps, check yes
  max neighbors/atom: 2000, page size: 100000
  master list distance cutoff = 3.8
  ghost atom cutoff = 3.8
  binsize = 1.9, bins = 9 9 9
  1 neighbor lists, perpetual/occasional/extra = 1 0 0
  (1) pair lj/cut, perpetual
      attributes: half, newton on
      pair build: half/bin/atomonly/newton
      stencil: half/bin/3d
      bin: standard
WARNING: Not all mixed pair coeffs generated from mixing. Use write_data with 'pair ij' option to store all pair coeffs. (../write_data.cpp:312)


#############################
#   M E L T   S Y S T E M   #
#############################

velocity all create 2.4 5300450 mom yes dist gaussian # Assign velocities
                                                    # Temperature 2.4, random number seed, zero linear momentum
                                                                                # Gaussian distribution

timestep 0.002   # simulation timestep
thermo 1000       # output thermodynamic data every 1000 steps bf 100

# Define a fix  in this case with index 1 applied to all
# particles in the simulation. This fix is for simulations
# in the anisotropic NPT ensemble. Note that we use the MTK
# correction.
fix 1 all npt temp 2.4 2.4 0.1 iso 5.68 5.68 0.5 mtk yes tchain 5 pchain 5 # Use NPT ensemble
                                                                         # Set temperature and pressure and damping
                                                                         # Numbers of thermostats in chain and in barostat
run 10000          # run for 10000 steps
Per MPI rank memory allocation (min/avg/max) = 3.642 | 3.644 | 3.648 Mbytes
Step Temp E_pair E_mol TotEng Press Volume 
       0          2.4   -2.7016284            0   0.89747158   -1.6956087         4000 
    1000    2.3784349   -1.4953564            0    2.0714041    5.5452889    4220.0584 
    2000    2.4048576   -1.4408684            0    2.1655161     5.711418    4247.5513 
    3000    2.3930253   -1.4291562            0    2.1594844    5.8739814    4224.9159 
    4000    2.3949641   -1.4463433            0    2.1452047    5.6493583    4261.1978 
    5000    2.4112861   -1.4388571            0    2.1771678    5.4690109    4306.9579 
    6000    2.4204842   -1.4431451            0    2.1866735    5.8504906    4222.9132 
    7000    2.3939017   -1.4213755            0    2.1685794    5.6094264    4295.0224 
    8000    2.4088709   -1.4469441            0    2.1654589    5.7604369    4238.1494 
    9000    2.4655192    -1.450942            0    2.2464122    5.7489512     4241.756 
   10000    2.3633061   -1.4288395            0    2.1152334    5.5377232    4299.1959 
Loop time of 2.39165 on 48 procs for 10000 steps with 4000 atoms

Performance: 722513.482 tau/day, 4181.212 timesteps/s
99.6% CPU use with 48 MPI tasks x no OpenMP threads

MPI task timing breakdown:
Section |  min time  |  avg time  |  max time  |%varavg| %total
---------------------------------------------------------------
Pair    | 1.0362     | 1.0991     | 1.2024     |   2.7 | 45.96
Neigh   | 0.20625    | 0.21079    | 0.22713    |   0.8 |  8.81
Comm    | 0.72103    | 0.82395    | 0.8866     |   3.9 | 34.45
Output  | 0.00024277 | 0.00025034 | 0.00031888 |   0.0 |  0.01
Modify  | 0.21466    | 0.24245    | 0.2798     |   3.9 | 10.14
Other   |            | 0.01511    |            |       |  0.63

Nlocal:        83.3333 ave          91 max          74 min
Histogram: 1 2 5 4 8 9 5 7 4 3
Nghost:        1557.58 ave        1592 max        1520 min
Histogram: 1 3 4 8 10 3 5 9 3 2
Neighs:        8871.42 ave       10197 max        7538 min
Histogram: 1 1 8 4 12 6 9 3 1 3

Total # of neighbors = 425828
Ave neighs/atom = 106.45700
Neighbor list builds = 906
Dangerous builds = 197

# Equilibrate just above the melting temperature to avoid step fn in T

fix 1 all npt temp 1.25 1.25 0.1 iso 5.68 5.68 0.5 mtk yes tchain 5 pchain 5
run 2000
Per MPI rank memory allocation (min/avg/max) = 3.643 | 3.645 | 3.649 Mbytes
Step Temp E_pair E_mol TotEng Press Volume 
   10000    2.3633061   -1.4288395            0    2.1152334    5.5377232    4299.1959 
   11000    1.2587772   -2.2131275            0  -0.32543373    5.8167746    3335.1015 
   12000    1.2445935   -2.2170772            0  -0.35065367    5.7356117    3340.4464 
Loop time of 0.570195 on 48 procs for 2000 steps with 4000 atoms

Performance: 606108.330 tau/day, 3507.571 timesteps/s
99.6% CPU use with 48 MPI tasks x no OpenMP threads

MPI task timing breakdown:
Section |  min time  |  avg time  |  max time  |%varavg| %total
---------------------------------------------------------------
Pair    | 0.25868    | 0.27608    | 0.29552    |   1.6 | 48.42
Neigh   | 0.038434   | 0.040325   | 0.041969   |   0.4 |  7.07
Comm    | 0.18354    | 0.2037     | 0.22527    |   2.1 | 35.72
Output  | 5.1581e-05 | 5.3877e-05 | 6.9036e-05 |   0.0 |  0.01
Modify  | 0.041725   | 0.045262   | 0.049564   |   1.0 |  7.94
Other   |            | 0.004781   |            |       |  0.84

Nlocal:        83.3333 ave          92 max          76 min
Histogram: 4 6 2 8 4 8 11 1 2 2
Nghost:        1850.38 ave        1885 max        1821 min
Histogram: 1 3 8 7 10 9 4 4 0 2
Neighs:        11443.5 ave       12519 max       10019 min
Histogram: 3 1 3 6 8 5 3 5 10 4

Total # of neighbors = 549289
Ave neighs/atom = 137.32225
Neighbor list builds = 143
Dangerous builds = 19

#############################
# L I N E A R  Q U E N C H  #
#############################

# Define solid atoms. This closely follows ten Wolde  Ruiz-Montero and Frenkel  Faraday Discuss  1996  104  93-110
# Compute components of the per-atom q6 vector
compute q6 all orientorder/atom degrees 1 6 components 6 nnn NULL cutoff 1.3 # compute the Q6 parameter.
                                                                             # Use all neighbours within 1.3 unit cell.

# get number of connections
compute coord_number all coord/atom orientorder q6 0.5

# An atom is solid if it has 8 or more connections (of a possible 14)
variable is_solid atom c_coord_number>=8
group solid dynamic all var is_solid    # Must be dynamic to update
dynamic group solid defined

# do clustering
compute cluster solid cluster/atom 1.3 # Create a cluster where all atoms within are solid and max 1.3 units from another member

# define chunks one chunk per cluster
compute clus_chunks solid chunk/atom c_cluster nchunk every compress yes  # Says which atoms are in which chunk

# count the size of each chunk
compute size_chunks solid property/chunk clus_chunks count


# Find the maximum entry in the vector of chunk sizes
variable max_n equal max(c_size_chunks)


# Thermo style which includes this variable
# thermo_style custom step temp pe vol v_max_n

thermo ${N}  # Print the thermo information every 100 steps
thermo 1000  

# Reset the npt fix at a lower temperature (below freezing)
fix 1  all npt temp  ${temp} ${temp}  0.1  iso  5.68  5.68  0.5  mtk yes tchain  5  pchain  5
fix 1  all npt temp  0.45 ${temp}  0.1  iso  5.68  5.68  0.5  mtk yes tchain  5  pchain  5
fix 1  all npt temp  0.45 0.45  0.1  iso  5.68  5.68  0.5  mtk yes tchain  5  pchain  5

dump dmp2 all dcd ${N} traj.dcd
dump dmp2 all dcd 1000 traj.dcd


compute msd all msd com yes
variable twopoint equal c_msd[4]/6/(step*dt+1.0e-6)
fix 9 all vector 10 c_msd[4]
variable fit equal slope(f_9)/6/(10*dt)
thermo_style custom step temp pe c_msd[4] v_twopoint v_fit v_max_n

fix 1 all npt temp 1.25 ${temp} 0.1 iso 5.68 5.68 0.5 mtk yes tchain 5 pchain 5
fix 1 all npt temp 1.25 0.45 0.1 iso 5.68 5.68 0.5 mtk yes tchain 5 pchain 5
run 500000 # 5000000  # Run for this many steps
Neighbor list info ...
  update every 1 steps, delay 10 steps, check yes
  max neighbors/atom: 2000, page size: 100000
  master list distance cutoff = 3.8
  ghost atom cutoff = 3.8
  binsize = 1.9, bins = 8 8 8
  4 neighbor lists, perpetual/occasional/extra = 1 3 0
  (1) pair lj/cut, perpetual
      attributes: half, newton on
      pair build: half/bin/atomonly/newton
      stencil: half/bin/3d
      bin: standard
  (2) compute orientorder/atom, occasional
      attributes: full, newton on
      pair build: full/bin/atomonly
      stencil: full/bin/3d
      bin: standard
  (3) compute coord/atom, occasional
      attributes: full, newton on
      pair build: full/bin/atomonly
      stencil: full/bin/3d
      bin: standard
  (4) compute cluster/atom, occasional
      attributes: full, newton on
      pair build: full/bin/atomonly
      stencil: full/bin/3d
      bin: standard
Per MPI rank memory allocation (min/avg/max) = 9.810 | 9.816 | 9.822 Mbytes
Step Temp PotEng c_msd[4] v_twopoint v_fit v_max_n 
   12000    1.2445935   -2.2170772 3.4475194e-30 2.3941106e-32 8.3333333e+20            1 
   13000    1.2563796   -2.1962692    1.2312847 0.0078928506   0.10554323            1 
   14000    1.2735594   -2.2295655    2.5157447   0.01497467   0.10613928            4 
   15000    1.2397414   -2.2484273    3.9065544  0.021703079   0.10975054            2 
   16000    1.2514414   -2.2462784    5.2251258  0.027214196   0.11180295            1 
   17000    1.2248938   -2.1993654    6.5929803   0.03231853   0.11211699            1 
   18000    1.2461766   -2.2419955    7.8401222  0.036296861   0.11135946            2 
   19000    1.2557439   -2.2062096    9.1552295  0.040154514    0.1108504            2 
   20000    1.2460226   -2.2413868    10.633578  0.044306575   0.11078688            1 
   21000    1.2341652   -2.2408678    11.970979  0.047503883   0.11104671            1 
   22000    1.2480092   -2.2366877    13.257365  0.050217292    0.1111247            1 
   23000    1.2176782   -2.2666521    14.516133  0.052594682     0.110945            2 
   24000    1.2246939   -2.2442444    15.835786  0.054985368   0.11075817            1 
   25000    1.1816811   -2.2544443    17.131808  0.057106026   0.11076476            1 
   26000     1.245645   -2.2424157    18.427332   0.05906196   0.11062617            1 
   27000    1.2263276   -2.2705555     19.68998  0.060771544   0.11038436            5 
   28000    1.2168757   -2.2276295    20.992152  0.062476641   0.11007411            4 
   29000    1.2447242   -2.2667036    22.417896  0.064419241   0.11002511            2 
   30000    1.2192755   -2.2705228    23.678951  0.065774863   0.11002305            1 
   31000    1.2387331   -2.2734779    24.718099  0.066446503   0.10983485            2 
   32000    1.2309506   -2.2258105    26.172993  0.068158835   0.10969048            3 
   33000    1.2089487   -2.2786536    26.953019  0.068063178   0.10935012            1 
   34000    1.2299382   -2.2795087     28.43537  0.069694534   0.10891793            2 
   35000    1.2341566   -2.2720409    29.516017   0.07027623   0.10848818            3 
   36000    1.2199317   -2.2484529    31.214452  0.072255675   0.10820229            2 
   37000    1.2414795   -2.2984543      32.2842  0.072712161   0.10802163            1 
   38000    1.2164176   -2.2401593    33.847297  0.074226528   0.10794654            1 
   39000     1.199857   -2.2735111    35.027004  0.074844025    0.1078523            6 
   40000    1.2144172   -2.2610428    36.191037  0.075397993   0.10776709            1 
   41000     1.177394   -2.2769799    36.964891  0.075131892   0.10752336            1 
   42000    1.1941696   -2.2417733    38.578515  0.076544672   0.10733769            2 
   43000    1.1953605   -2.2745225    39.401106  0.076358732   0.10707097            2 
   44000    1.2210215   -2.3115899    40.475805  0.076658721   0.10672311            1 
   45000    1.1776977   -2.2761579    42.041718  0.077855033   0.10653572            1 
   46000    1.2112358   -2.2710229    43.632607  0.079044577   0.10644763            1 
   47000    1.2075902   -2.2971789    44.745929  0.079336752   0.10638172            2 
   48000    1.1799537   -2.2904717     46.22791  0.080256787   0.10630807            1 
   49000    1.1879696   -2.2750528    47.506877  0.080794008   0.10629151            2 
   50000    1.1927383   -2.2678414    48.591649  0.080986081   0.10625955            1 
   51000    1.1815553   -2.2961591    49.740478   0.08127529   0.10621987            1 
   52000    1.1787725   -2.2988067    51.178042  0.082016092   0.10616695            2 
   53000    1.1982014   -2.2383841    52.427183  0.082432677   0.10608751            1 
   54000    1.1713131   -2.2905013    53.833452  0.083076314    0.1060187            1 
   55000    1.1685951    -2.272998     54.57089  0.082683166   0.10591225            1 
   56000     1.175078   -2.2882122    55.831341  0.083082352   0.10581078            1 
   57000    1.1727562   -2.2992748    57.627423  0.084250617   0.10573474            1 
   58000     1.174282   -2.3081953    58.700266  0.084339462   0.10571981            2 
   59000    1.1621912    -2.281772    59.969851  0.084703178   0.10569413            1 
   60000    1.1789139   -2.2978673    61.115943  0.084883254   0.10565441            1 
   61000     1.155245   -2.2975838    62.181304  0.084947136   0.10555942            1 
   62000     1.164537   -2.2986866    62.991409  0.084665872   0.10544778            1 
   63000    1.1879739   -2.3022669    64.314699  0.085072352   0.10532202            2 
   64000    1.1627881   -2.3022195    65.733895  0.085591009   0.10520049            1 
   65000    1.1743266   -2.3197492    66.458662  0.085203412   0.10508586            4 
   66000    1.1335341   -2.3329197    67.987737  0.085843102   0.10495731            2 
   67000    1.1687999   -2.3166181    68.913127  0.085712844   0.10481605            1 
   68000    1.1716051   -2.3031948     70.12471  0.085937144   0.10464172       -1e+20 
   69000    1.1636428   -2.3244079    71.109057  0.085880503   0.10445581            2 
   70000    1.1549993   -2.3160239    72.156243  0.085900289   0.10427604            2 
   71000    1.1277983   -2.3279146    73.192327  0.085906486   0.10411473            3 
   72000    1.1447156    -2.314092    74.469413   0.08619145   0.10393654            4 
   73000    1.1687048   -2.3401172    75.635703  0.086342127   0.10378838            1 
   74000    1.1472142   -2.3181708    77.076882   0.08679829   0.10363595            1 
   75000    1.1496044    -2.306499    78.136514  0.086818348   0.10347011            2 
   76000    1.1505517   -2.3077514    79.366152  0.087024289   0.10332303            1 
   77000    1.1178301   -2.3452597    79.992974  0.086572482    0.1031727            1 
   78000    1.1490644   -2.3466896    81.137172  0.086685013   0.10300503            1 
   79000    1.1252295   -2.3401218    81.810249   0.08629773   0.10282122            1 
   80000    1.1513634   -2.3222592     83.33347  0.086805697   0.10260997            2 
   81000    1.1274983   -2.3057316    83.921164  0.086338645   0.10241378            1 
   82000    1.1188073   -2.3441332    85.330411  0.086717897   0.10221073            4 
   83000    1.1579241   -2.3265515     86.81779  0.087166455   0.10200899            3 
   84000    1.1245763   -2.3051653    87.526153    0.0868315   0.10181372            3 
   85000    1.1368368    -2.339186    88.252047  0.086521614   0.10161976            1 
   86000    1.1279724    -2.314938    89.737195  0.086954646   0.10141587            2 
   87000    1.1450201   -2.3663574    90.134349  0.086335583   0.10121989            2 
   88000    1.1220649   -2.3599348    91.714533  0.086850883   0.10103462            2 
   89000    1.1180247   -2.3481249    92.434778  0.086549418    0.1008447            3 
   90000    1.1284928    -2.340588     93.98015  0.087018657   0.10067012            1 
   91000     1.128427   -2.3600231    94.665979  0.086690457   0.10048266            1 
   92000     1.113838   -2.3402834    95.817925  0.086791598   0.10029187            1 
   93000    1.0930863   -2.3486851    96.312566  0.086301582   0.10011341            2 
   94000    1.1026952   -2.3693863    98.222994  0.087077122  0.099922616            1 
   95000    1.1000535   -2.3434473    98.934068   0.08678427  0.099755446            1 
   96000    1.1038568   -2.3480997    100.54708   0.08728045  0.099598749            1 
   97000    1.1186538   -2.3314289    101.74522  0.087409978  0.099467698            1 
   98000    1.0922303   -2.3612044    102.29704  0.086987281  0.099325351            2 
   99000     1.114331   -2.3640129    103.29046  0.086944829  0.099170093            2 
  100000     1.104972   -2.3693477     104.8159  0.087346586  0.099033953            3 
  101000    1.1123496   -2.3581408    106.28129  0.087690832  0.098908833            1 
  102000    1.0958189   -2.3909539    106.94294  0.087371684   0.09878548            4 
  103000     1.074031   -2.3963169    107.79511  0.087212868  0.098654568            2 
  104000    1.0874651   -2.3601672    109.12204  0.087437535  0.098524773            1 
  105000    1.0896979   -2.3976672    110.63956  0.087809177  0.098416431            3 
  106000    1.0992329   -2.3815445    111.66273  0.087785161  0.098301954            1 
  107000    1.1091171   -2.3778496    112.11101  0.087313871  0.098191842            1 
  108000    1.0900997   -2.3937381    113.35854  0.087468011  0.098071449            1 
  109000    1.0872558    -2.404007    114.96072  0.087890457  0.097950056            1 
  110000    1.1358212   -2.3750028    115.27896  0.087332546  0.097839528            1 
  111000    1.1058788   -2.3614868    116.83836  0.087716488  0.097737769            1 
  112000    1.0722117   -2.4037907     118.1533   0.08791168  0.097622815            4 
  113000    1.1108708   -2.4014321    118.59484  0.087459324  0.097524316            2 
  114000    1.0937753    -2.404924    119.77827  0.087557218  0.097430428            1 
  115000    1.1028435    -2.361149    120.73983  0.087492629  0.097321755            3 
  116000    1.0859116   -2.3702203    122.23747  0.087814276   0.09720981            2 
  117000    1.0627208   -2.4064085    122.97042  0.087585766   0.09709113            1 
  118000    1.0525293   -2.4110043    123.92002  0.087514137  0.096972519            1 
  119000    1.0788064    -2.402906    124.19225  0.086969362  0.096847012            3 
  120000    1.0936538   -2.3888451    125.18231  0.086932161  0.096713141            1 
  121000    1.0611009   -2.4069124    126.99324  0.087460908  0.096579946            1 
  122000    1.0730787   -2.3887732    127.98561  0.087421865  0.096453556            1 
  123000    1.0800004   -2.3960934    128.05383   0.08675734  0.096322943            2 
  124000    1.0490695   -2.4066957    129.87835  0.087283837     0.096192            4 
  125000    1.0538597   -2.4089221    129.42087   0.08628058  0.096062972            2 
  126000    1.0702799   -2.4099162    130.94058  0.086600915    0.0959164            3 
  127000    1.0571093   -2.3991928    132.15099  0.086713249  0.095787039            1 
  128000    1.0445055   -2.4114508    133.48763  0.086906009  0.095658212            3 
  129000    1.0529921   -2.3992093    134.13442  0.086650141  0.095516495            1 
  130000      1.05481    -2.412436    134.79789  0.086408902  0.095374094            2 
  131000    1.0637389   -2.4370108    136.12826  0.086595584  0.095235118            3 
  132000    1.0709177   -2.4072333    136.95111  0.086459034  0.095092631            2 
  133000    1.0508014   -2.4188445    138.14239  0.086555379   0.09495877            2 
  134000    1.0475958    -2.402987    138.67497  0.086240655  0.094819149            1 
  135000    1.0690224   -2.4170876    139.97028  0.086401406  0.094684299            2 
  136000    1.0536283   -2.4324905    141.32399  0.086595579  0.094545772            2 
  137000    1.0554094   -2.4044545    141.87961  0.086301463  0.094409151            2 
  138000    1.0682633   -2.4324585    142.82359  0.086246127  0.094274515            2 
  139000    1.0398524   -2.4245131    143.29561  0.085908637  0.094142076            3 
  140000    1.0321463   -2.4375956    144.68064   0.08611943  0.094000125            2 
  141000    1.0613918    -2.431889    145.17388  0.085800168  0.093848668            2 
  142000    1.0677458   -2.4434916    145.49825  0.085386296  0.093694618            2 
  143000     1.009648   -2.4300216    146.81412  0.085556014  0.093545146            3 
  144000    1.0421912   -2.4431832    148.07135  0.085689438  0.093405295            2 
  145000    1.0442792   -2.4159097    148.53016  0.085362161  0.093276281            4 
  146000    1.0163785   -2.4330567    150.12166  0.085685878  0.093149938            2 
  147000    1.0381306    -2.413395    151.45307  0.085857749  0.093018181            1 
  148000    1.0487382   -2.4391493    152.32921  0.085770949   0.09289554            2 
  149000    1.0260708   -2.4534362    152.98535  0.085562278  0.092761271            1 
  150000    1.0200789   -2.4498751     154.0347  0.085574831  0.092632806            6 
  151000    1.0419356   -2.4455734    154.85767  0.085462288  0.092503197            2 
  152000    1.0266018   -2.4616689    154.48551  0.084696005  0.092359209            3 
  153000    1.0157871   -2.4488978    155.26874  0.084569032  0.092218962            2 
  154000    1.0528143   -2.4650017    156.53003  0.084702398  0.092071913            2 
  155000     1.040782    -2.473008    157.47375  0.084663306  0.091923453            1 
  156000     1.022835   -2.4766182    156.65453  0.083682975  0.091769831            2 
  157000    1.0193483   -2.4601346    157.77611  0.083745279  0.091602057            2 
  158000    1.0078633   -2.4738577     158.1481  0.083411444  0.091418261            2 
  159000    1.0332228   -2.4747948    158.50421  0.083073487  0.091232643            2 
  160000     1.017614   -2.4801726    159.74574  0.083200903  0.091051248            2 
  161000    1.0096641   -2.4801451    159.99228  0.082811741  0.090865804            2 
  162000    1.0123406   -2.4699758    161.75989  0.083209822  0.090683483            1 
  163000    1.0211048   -2.4789895    162.44617  0.083050191  0.090503363            3 
  164000   0.98982919    -2.453039    163.32163  0.082988631  0.090325618            2 
  165000   0.99973817   -2.4819481    164.12006  0.082888919  0.090143352            1 
  166000   0.99310133   -2.5159135    164.42587  0.082543109  0.089966403            2 
  167000   0.98461177   -2.4832768    166.04157  0.082855076  0.089798795            2 
  168000    1.0024087   -2.4676949    167.19319  0.082933128   0.08963449            2 
  169000    1.0082293   -2.4644183    167.53479  0.082610844  0.089475093            1 
  170000   0.98487058   -2.5084849    168.45254  0.082574774  0.089312434            2 
  171000   0.99758843   -2.4832938    167.86682  0.081806441  0.089132161            3 
  172000   0.99677838   -2.4899838    169.50811   0.08212602  0.088955412            1 
  173000   0.99833508    -2.481982    170.41312  0.082087243  0.088786244            2 
  174000   0.97456047    -2.505278    170.97904  0.081886511  0.088616382            2 
  175000   0.98118809   -2.5034213    171.92138  0.081867322  0.088451877            1 
  176000   0.99594298   -2.4798021    172.52045  0.081685819  0.088288844            2 
  177000   0.97348279   -2.4798379    173.30942  0.081595771  0.088119965            2 
  178000    0.9869214   -2.5057769    173.88236  0.081405599  0.087952287            1 
  179000      0.99869   -2.4915059    174.13312  0.081067562  0.087779501            2 
  180000   0.96896961   -2.5201384    174.14912  0.080624594  0.087601601            2 
  181000    1.0022436     -2.50904    175.08827  0.080611542  0.087424282            2 
  182000   0.99584634   -2.5012469    176.05036  0.080609139  0.087246998            4 
  183000   0.97986753   -2.4997825    176.69867  0.080463877   0.08706581            2 
  184000   0.96579987    -2.507552    177.22538  0.080265117  0.086888157            2 
  185000   0.98149485   -2.5165066    177.00094  0.079730154  0.086706327            3 
  186000   0.96382007   -2.4964108    178.80288  0.080108817  0.086525268            3 
  187000   0.96656622   -2.5209077    180.11152  0.080263602  0.086353522            3 
  188000   0.96711508     -2.51304    181.03909  0.080247822  0.086183551            3 
  189000   0.97833333   -2.5048706    181.90488  0.080204975  0.086017755            2 
  190000   0.97326097   -2.5373976    182.33058  0.079969552  0.085853512            4 
  191000   0.97522389   -2.5196163    183.75941  0.080174261  0.085689503            1 
  192000   0.93367569   -2.5338969    183.98897  0.079856321  0.085526395            4 
  193000   0.95842127   -2.5139439    184.41135  0.079624934  0.085364308            2 
  194000   0.96771598   -2.5420554    185.60278  0.079726282  0.085199129            2 
  195000   0.96998977   -2.5056552    186.55096  0.079722631  0.085041097            2 
  196000   0.95430196   -2.5285481    186.54581  0.079313694  0.084883543            2 
  197000   0.93693658   -2.5393084    186.95261  0.079083167  0.084724026            3 
  198000   0.94972743   -2.5539527    188.22787  0.079220485  0.084562168            7 
  199000    0.9455925   -2.5419788    188.12143  0.078777819  0.084401087            2 
  200000   0.93667246   -2.5559243    188.67027  0.078612614  0.084238747            5 
  201000   0.93769286    -2.550743     190.5255  0.078990669  0.084075304            2 
  202000   0.94618092   -2.5553273    191.35043  0.078939945   0.08391233            1 
  203000   0.92597217   -2.5384411    191.68646  0.078689022  0.083754041            2 
  204000   0.93978246   -2.5421952    191.62964   0.07828008  0.083593962            6 
  205000   0.92835005   -2.5719366    193.50142  0.078659115  0.083440794            1 
  206000   0.94125277   -2.5511509    194.55714  0.078704343  0.083287606            3 
  207000   0.94971158   -2.5514037    194.40198  0.078261668  0.083134823            2 
  208000   0.93630733   -2.5312131    195.73175  0.078418169  0.082983169            1 
  209000   0.94443721   -2.5681921    196.27807  0.078260792  0.082833017            3 
  210000   0.93073365   -2.5438943    196.73568  0.078069715  0.082681876            1 
  211000   0.95053466   -2.5579517    196.85438  0.077746595  0.082530675            3 
  212000   0.92748661   -2.5900686     197.6928  0.077709432  0.082382096            3 
  213000   0.95310409   -2.5790363    198.27142  0.077570978  0.082233547            3 
  214000   0.90619246   -2.5724948    198.98296  0.077485577  0.082082956            2 
  215000   0.92151229   -2.5609097    200.03143  0.077531561  0.081930312            1 
  216000   0.94645715    -2.570198    200.64303  0.077408576  0.081782506            2 
  217000   0.91577431   -2.5691304    201.92357  0.077543613  0.081639506            3 
  218000   0.92303274   -2.5636878    202.13196  0.077267567  0.081497618            4 
  219000   0.92564316   -2.5631626    202.13509   0.07691594  0.081350578            2 
  220000   0.91407445   -2.5603044    202.95507   0.07687692  0.081203275            2 
  221000   0.90678993   -2.5428332     203.2206  0.076629186  0.081049802            3 
  222000   0.89632347   -2.5826335    204.18853  0.076647347  0.080901135            4 
  223000   0.93626729    -2.581886    204.78083  0.076524975  0.080751761            4 
  224000   0.91829649   -2.5922501    205.48943  0.076446961  0.080599514            3 
  225000   0.91487355   -2.5690123    205.48916  0.076107098  0.080446898            3 
  226000   0.91025164   -2.6077289    206.26689  0.076057111  0.080296217            4 
  227000   0.90615073   -2.5903224    206.73117  0.075892499  0.080144194            3 
  228000   0.88733505   -2.5869055    208.48799  0.076201751   0.07999586            7 
  229000   0.90347072   -2.5724017    209.05561   0.07607555  0.079848463            3 
  230000   0.90366852   -2.6007474    210.09213  0.076120336  0.079704266            2 
  231000   0.90401587   -2.6006246    209.04151  0.075411799  0.079561508            3 
  232000   0.89858792   -2.6113236     210.1515  0.075485451  0.079418171            5 
  233000     0.876999   -2.5957928    210.29662  0.075213382  0.079272046            3 
  234000   0.89555332   -2.6196191     210.3011  0.074893554  0.079122096            2 
  235000   0.91459217   -2.6116779    211.71874  0.075077568  0.078969586            3 
  236000   0.88981654   -2.6239692    211.91776  0.074829718  0.078821785            2 
  237000   0.89160353   -2.6499944    212.27899  0.074640994  0.078673155            1 
  238000   0.88630016   -2.6128839    213.89729  0.074894008  0.078527826            2 
  239000   0.88306173   -2.6119741      213.167  0.074326012  0.078378953            4 
  240000   0.88560176   -2.6091741    214.99715  0.074651788  0.078230632            4 
  241000    0.8917873   -2.6166748    214.46643  0.074158515  0.078084938            1 
  242000   0.86833996   -2.6084573    215.84293  0.074326079   0.07793969            3 
  243000   0.89243463   -2.6137268    216.03576  0.074086338  0.077796067            1 
  244000   0.88256426   -2.6211718    216.98234  0.074105989  0.077648554            3 
  245000    0.8818411   -2.6492588    216.12454  0.073511749  0.077500096            2 
  246000   0.88537869   -2.6393814    217.04113  0.073523419  0.077350051            3 
  247000   0.88501728   -2.6348763    217.77621  0.073473756  0.077199575            4 
  248000   0.86875863   -2.6406623    218.06582  0.073274804  0.077050603            2 
  249000   0.88656035   -2.6784638    217.27965  0.072717419  0.076898771            2 
  250000    0.8725811   -2.6472211    218.93879  0.072979596   0.07674455            9 
  251000   0.86026041   -2.6402051     219.4296  0.072851793  0.076589228            2 
  252000   0.87627983   -2.6257656    219.14364  0.072468134  0.076432983            3 
  253000     0.877952   -2.6358035    220.40899  0.072598481  0.076278656            1 
  254000   0.87033311   -2.6509189    221.01306  0.072510847  0.076123603            6 
  255000   0.86163249   -2.6573573    220.47878  0.072051888  0.075970154            5 
  256000   0.85686841   -2.6581874    222.40607  0.072397809  0.075819033            2 
  257000   0.85719103   -2.6687735    222.25564  0.072067329  0.075667649            7 
  258000   0.83911671   -2.6581555    222.77855  0.071956897  0.075516912            2 
  259000   0.85481344   -2.6696226    223.61178  0.071947163  0.075368412            6 
  260000    0.8608099   -2.6474136    224.47821  0.071948143  0.075218487            3 
  261000   0.86035449   -2.6874998    223.93273  0.071498317  0.075069041            4 
  262000   0.84767056   -2.6554672     225.0731  0.071588137  0.074919012            2 
  263000   0.82391522   -2.6623024    226.39211  0.071733874  0.074774225            4 
  264000   0.83974403   -2.6598656    226.23924  0.071413902  0.074628868            7 
  265000   0.84233844   -2.6423851    226.95303  0.071368879   0.07448664            4 
  266000   0.83003351   -2.6721164    227.31777  0.071214841  0.074342423            3 
  267000    0.8221555   -2.6688946    228.77729  0.071403648   0.07420113            2 
  268000   0.83238778   -2.6869654    229.04309  0.071219866  0.074060156            3 
  269000   0.83025047   -2.6753997    228.96367  0.070930506  0.073920466            5 
  270000   0.83503996   -2.6875716    230.29819  0.071079688  0.073780903            5 
  271000   0.83575709   -2.6886155     230.6465  0.070924509  0.073643055            4 
  272000   0.82969872   -2.6917654    230.11289  0.070500272  0.073504487            2 
  273000   0.82205274   -2.6976418       232.05  0.070833334  0.073365397            4 
  274000   0.85647416   -2.6804803    231.92486  0.070536758  0.073231298            5 
  275000   0.83830258   -2.6805185    233.36705  0.070717289  0.073099933            3 
  276000   0.82854833    -2.706352    234.35151  0.070758306  0.072971267            2 
  277000   0.82963103   -2.6881509    235.10289  0.070728907  0.072845723            3 
  278000   0.83254713   -2.7101669     235.4367  0.070574551  0.072721923            7 
  279000   0.82908189   -2.7086437    236.04379  0.070502925  0.072595636            6 
  280000   0.82568513   -2.7073591    236.05944  0.070255786  0.072469725            3 
  281000   0.82274349   -2.7214608    237.85445  0.070538093  0.072344451            3 
  282000   0.81440155   -2.6999597     236.6331  0.069927039  0.072219569            1 
  283000   0.82540842    -2.711716    238.27789  0.070164277  0.072095205            4 
  284000   0.83489152   -2.6944378    238.21148  0.069897733  0.071971455            7 
  285000    0.7943527   -2.6930801    238.64202   0.06977837  0.071846493            3 
  286000    0.8084441   -2.7123563    239.65683  0.069830078   0.07172243            2 
  287000    0.8059233   -2.7396758    239.86397  0.069646915  0.071598252            5 
  288000   0.80358329   -2.6859969    241.45668  0.069865937  0.071476862            3 
  289000   0.81825724   -2.7074975    241.70653   0.06969623  0.071356843            3 
  290000   0.79772157   -2.7261274    241.60936  0.069427977   0.07123444            6 
  291000   0.80788054   -2.6994692    241.83034  0.069252676  0.071111331            2 
  292000   0.80142415   -2.6939216    242.95723  0.069337109  0.070988402            7 
  293000   0.78457816   -2.7374249     241.9627  0.068817606  0.070863654            3 
  294000   0.81293526   -2.7232514    242.88864  0.068845987  0.070738488            4 
  295000   0.81023393   -2.7400111    242.54728  0.068516181  0.070611899            3 
  296000   0.79281811   -2.7072978    244.59012   0.06885983  0.070486087            2 
  297000   0.79976141   -2.7526248    243.42073  0.068299868  0.070359642            9 
  298000   0.79373093   -2.7166558    245.27042  0.068587925  0.070232935            4 
  299000   0.80137655   -2.7476965    245.34984  0.068380668  0.070108437            5 
  300000   0.78915887   -2.7508612    244.62556  0.067951545  0.069981762            3 
  301000   0.79336052   -2.7569502     245.3485  0.067925941  0.069855121            4 
  302000   0.78351173   -2.7293952    245.66096   0.06778724  0.069729303            3 
  303000   0.78786814    -2.767836    246.34137  0.067750651  0.069601674            1 
  304000   0.77252026   -2.7503786    246.41979  0.067549285  0.069475682            3 
  305000   0.76330006   -2.7427959    246.98328  0.067481771  0.069351313            2 
  306000   0.79105233   -2.7352595     248.5174  0.067679031  0.069226748            4 
  307000   0.78074878   -2.7826338    247.64041  0.067220523  0.069102078            3 
  308000   0.77278406   -2.7717374    250.12039  0.067673267  0.068979015            4 
  309000   0.78383721   -2.7535034    249.81558  0.067372055  0.068855754            3 
  310000    0.7725905   -2.7589845    249.30456  0.067017354  0.068732495            4 
  311000   0.77521827    -2.775237    248.52222  0.066592236  0.068607681            8 
  312000   0.76449597   -2.7402594    249.37472  0.066606496  0.068480808            2 
  313000   0.77811797    -2.771733    249.29875  0.066373469  0.068353175            4 
  314000   0.77106701   -2.7661927     250.1729  0.066394081  0.068223896            8 
  315000   0.75831069   -2.7800819    250.30537  0.066218351  0.068095183            4 
  316000    0.7763905   -2.7795112    249.92266  0.065907875  0.067966594            3 
  317000   0.75701866   -2.7542557    251.25574  0.066050405   0.06783624            3 
  318000   0.77631081    -2.761491    251.14242  0.065813004  0.067705419           10 
  319000   0.76959311   -2.7672385    251.55578  0.065714677  0.067574495            4 
  320000   0.76950249   -2.8086063     251.6874  0.065543595  0.067441914            3 
  321000   0.75662086    -2.782366    251.53043  0.065298658  0.067311283            3 
  322000   0.76157231   -2.7802019    252.23205  0.065277445  0.067180729            3 
  323000    0.7339416   -2.7944659    253.28526  0.065347075   0.06705277            3 
  324000   0.73891298   -2.7801879    253.68603  0.065248463  0.066924172            5 
  325000    0.7443737   -2.8026937    253.62978  0.065033277   0.06679714            5 
  326000   0.74257525   -2.7891212    254.30713  0.065006935  0.066668947            3 
  327000   0.72823437   -2.8041638    254.36775  0.064823586  0.066540427            3 
  328000   0.74016288   -2.7839345    255.31169  0.064865774  0.066412931            5 
  329000   0.74407435   -2.8111374    255.25534  0.064654341  0.066283296            3 
  330000   0.74985962   -2.7929158    254.96449  0.064384971  0.066152264            4 
  331000   0.73398511   -2.7969511       254.45  0.064060928  0.066022798            3 
  332000   0.74591195    -2.805169    255.59788  0.064156094  0.065892881            7 
  333000   0.72984813   -2.7947708    256.60457  0.064215357  0.065763737            3 
  334000      0.73084   -2.7991649    256.70019  0.064046955  0.065634953            8 
  335000   0.73140273   -2.8028458    256.80684  0.063882298  0.065506497            5 
  336000   0.72737367   -2.8143459    257.46206  0.063854677  0.065377628            3 
  337000   0.73518428   -2.8146824    257.36252  0.063640583  0.065247905            3 
  338000   0.72038025   -2.8089777    256.65831  0.063278677  0.065119175            9 
  339000   0.72204883   -2.8230646    256.90588   0.06315287  0.064987725            3 
  340000   0.71263054   -2.8203914    257.33262  0.063071722  0.064857233            8 
  341000    0.7219567   -2.8130661    258.12486  0.063080366  0.064726254            5 
  342000   0.73872307   -2.8276055    258.58816  0.063008811  0.064595699            4 
  343000   0.72311828   -2.8404727    258.16626   0.06272261  0.064466234            2 
  344000   0.71893396   -2.8497479    258.51555  0.062624892  0.064336275            5 
  345000   0.73219366   -2.8250541    260.00844   0.06280397  0.064207333            5 
  346000   0.72075409   -2.8348428    259.96184  0.062611233  0.064078804            3 
  347000   0.70993778   -2.8489166    260.24265  0.062498234  0.063949965           10 
  348000   0.74035948   -2.8419693    260.37098  0.062349372   0.06382178            2 
  349000   0.71250977   -2.8670769    260.45736  0.062191346  0.063696696            3 
  350000   0.71605535   -2.8417938    261.84593  0.062344268  0.063570508            8 
  351000   0.72467199   -2.8385824    261.57163  0.062101526   0.06344415            4 
  352000   0.69370486   -2.8427886    261.63904  0.061941062  0.063318741            5 
  353000   0.70989429   -2.8755888    262.00463  0.061851896  0.063192716            4 
  354000   0.69461669   -2.8591784    262.17347  0.061716918  0.063065666            2 
  355000    0.6971002   -2.8598909     262.4026  0.061596855  0.062939136            3 
  356000   0.70358724   -2.8572495    263.07723  0.061581748  0.062813406            2 
  357000   0.68768636   -2.8493943    263.39781  0.061484082  0.062688109            5 
  358000   0.69072119   -2.8799638    262.66558  0.061141894  0.062563699            5 
  359000   0.69123305   -2.8517787    264.76638  0.061459234  0.062440033            9 
  360000   0.69712275   -2.8790654    264.09822  0.061133847  0.062316113            2 
  361000   0.70050093   -2.8835784     264.1208  0.060969715   0.06219185            5 
  362000   0.68971097    -2.898936    264.37079  0.060858838  0.062068565            6 
  363000   0.69208314   -2.8722697    264.64227  0.060753506  0.061943318            3 
  364000   0.66501061   -2.8867041    265.23205  0.060721622  0.061819244            9 
  365000   0.70311131   -2.8838767    265.06455  0.060517021   0.06169777            5 
  366000   0.67509133   -2.8847911    265.71045  0.060498735  0.061575427            3 
  367000   0.68192288   -2.9057047    265.43073  0.060270375  0.061452143            5 
  368000   0.67053275    -2.888334    266.40931  0.060328194  0.061329027            8 
  369000   0.69785083   -2.9085487    266.76677  0.060245432  0.061206085           11 
  370000   0.70117914   -2.9013035    265.66411   0.05983426   0.06108318           13 
  371000   0.65799991   -2.8901042    266.57107    0.0598767  0.060959966            4 
  372000   0.68165176   -2.9158064    266.48076  0.059695511  0.060835465           12 
  373000   0.66095197   -2.9037483    266.70545  0.059585667  0.060711941            8 
  374000   0.67062451   -2.8846161    267.38201  0.059577097  0.060588276            8 
  375000   0.64900795   -2.9113542    267.12887   0.05936197  0.060464876            6 
  376000   0.65679014   -2.9174404    268.02269  0.059402192  0.060341271            2 
  377000   0.66698613   -2.9260406    266.78012  0.058969964  0.060218962            3 
  378000    0.6672269   -2.9025951    268.07994  0.059100516   0.06009592            4 
  379000   0.64417797    -2.932455    268.06225  0.058940689  0.059974315            5 
  380000    0.6553856   -2.9372157    269.28948   0.05905471  0.059853617            6 
  381000   0.66037197   -2.9346818     269.4775  0.058940836  0.059733415           14 
  382000    0.6543958   -2.8959844    270.23554  0.058951906  0.059615955            4 
  383000   0.66250612   -2.9317342    270.33019  0.058818579  0.059498583            8 
  384000   0.66436194   -2.9096437    271.45728      0.05891  0.059381386            5 
  385000    0.6388136   -2.9275104    271.19808  0.058700882  0.059265721            7 
  386000   0.62639311   -2.9485297    271.26779  0.058563858  0.059149102            8 
  387000   0.64405814    -2.929356    271.03713  0.058362861  0.059032188            4 
  388000   0.65403293   -2.9402467      271.605  0.058334406  0.058916167            5 
  389000   0.64926089   -2.9408406    271.64405  0.058192812  0.058800444            3 
  390000   0.62444874   -2.9343628    272.65144  0.058258854   0.05868581            8 
  391000   0.64144332   -2.9641931    272.07123  0.057986197  0.058569305            4 
  392000   0.62431404   -2.9505862    272.09429  0.057843174  0.058452511            7 
  393000   0.63357702   -2.9420637    273.13303  0.057916249   0.05833621            4 
  394000   0.62752228   -2.9652201    273.18198  0.057779606  0.058220051            5 
  395000   0.63267723   -2.9593538    272.12645  0.057410644  0.058103411            6 
  396000   0.63581419    -2.974696    272.67838  0.057381815  0.057985107           12 
  397000   0.63007493   -2.9557892    272.62484  0.057226037  0.057866708            6 
  398000   0.65418146   -2.9933897     272.8453  0.057128413  0.057748016            4 
  399000   0.62096128   -2.9832852     272.7107  0.056957121  0.057629487            4 
  400000   0.62971831   -2.9688123     271.9157  0.056649104  0.057509858            6 
  401000   0.62390005    -2.954778    274.12657  0.056967283  0.057390895            6 
  402000   0.63933717   -2.9586983    273.45453  0.056686262  0.057272851            6 
  403000   0.63004771    -2.971496     272.4322  0.056334202  0.057154049            9 
  404000   0.61574542   -2.9694105    273.93435   0.05650461  0.057035243            9 
  405000   0.62530166     -2.97521    273.97177  0.056372793  0.056916639            8 
  406000   0.64039147   -2.9826186    273.28529   0.05609304  0.056799136            8 
  407000   0.62035959    -3.013024    273.20241  0.055938249  0.056680404            6 
  408000   0.60842491   -2.9786091    275.48293  0.056266939  0.056562145           12 
  409000   0.60430587   -2.9964576     273.4265   0.05571037  0.056443486            6 
  410000   0.61800367    -2.995862    273.88099  0.055666868  0.056325882            8 
  411000   0.60838022   -2.9943804    274.75876  0.055709401   0.05620764            7 
  412000   0.61705903   -2.9814613    275.18325  0.055660042  0.056089658            8 
  413000   0.60643096   -3.0100338    274.36389  0.055359945   0.05597079            5 
  414000   0.59410275   -2.9932377    274.92827  0.055339828  0.055852632            5 
  415000   0.60247681   -3.0066048     274.8868  0.055198153  0.055735057           13 
  416000   0.60676177   -3.0231457    275.18475  0.055125151  0.055617548            6 
  417000   0.59778124   -3.0174835    274.94784  0.054945611  0.055500088            6 
  418000   0.60131463   -3.0092473    275.31666  0.054887691  0.055382889           13 
  419000   0.59496986   -3.0141794    275.74348  0.054841583  0.055265101            6 
  420000   0.60319629   -3.0271028     274.8851  0.054540694  0.055147656            7 
  421000   0.59380029   -3.0192516    275.53543  0.054539871   0.05502979            7 
  422000   0.60141872   -3.0236308    275.37082  0.054378123   0.05491177            7 
  423000   0.59157347   -3.0283063    275.78044  0.054330268  0.054793941            7 
  424000   0.59559375   -3.0351312    275.85955  0.054217678  0.054675409            8 
  425000   0.58622784   -3.0334533    275.48597  0.054016857  0.054557103            6 
  426000   0.60818316   -3.0384425    275.29741   0.05385317  0.054438974           18 
  427000   0.58858101   -3.0571489    276.41297  0.053944764  0.054321125           22 
  428000    0.5722153   -3.0298776    277.16688  0.053965515  0.054203948            8 
  429000   0.58143446   -3.0431409    275.95754  0.053604807  0.054085907            7 
  430000   0.58108953   -3.0421077    275.58589  0.053408118  0.053967596            6 
  431000   0.58352744   -3.0572386    275.89277  0.053343536  0.053849786           10 
  432000   0.57184436   -3.0462066    276.95776  0.053425493  0.053732253           10 
  433000   0.57579018   -3.0671748    276.52002  0.053217864  0.053615091            5 
  434000   0.57001491   -3.0322747    277.44111  0.053272103   0.05349849            9 
  435000   0.56785518   -3.0440562     276.8744  0.053041073  0.053382362            6 
  436000   0.57481812   -3.0274908    276.73714  0.052893184  0.053265985            9 
  437000   0.57011246   -3.0678892     277.0429  0.052830454  0.053148921            4 
  438000   0.56642683   -3.0763924    276.70144   0.05264487  0.053031834           10 
  439000   0.57998652   -3.0780905    276.08087  0.052407151  0.052913964            8 
  440000   0.56365554    -3.063645    276.30117  0.052329768  0.052795292           14 
  441000   0.55716269   -3.0698779    276.25636  0.052202637  0.052677622            5 
  442000   0.57285338   -3.0776361    276.66117  0.052160855  0.052559956           10 
  443000   0.56145977    -3.083083     277.0093  0.052108596  0.052442609            8 
  444000   0.55319063    -3.077208    276.88324  0.051967575  0.052324736           12 
  445000   0.56733989   -3.0935316    277.26071  0.051921481  0.052207578            7 
  446000   0.54427136   -3.0788297    277.52221  0.051853926  0.052090451            4 
  447000   0.55420302   -3.0885171     277.2293  0.051683315  0.051972993           29 
  448000   0.54751383   -3.0734768    277.49228  0.051616867  0.051856335           14 
  449000   0.54570312   -3.1075135    277.36388  0.051478078  0.051739624           22 
  450000   0.55347995   -3.0893588    277.11345  0.051317305  0.051622863            7 
  451000   0.54896861   -3.0889587    277.54099  0.051282518  0.051506515           10 
  452000   0.55159318   -3.1038983    277.07088  0.051082389   0.05139116            7 
  453000   0.55367673   -3.1145916    277.24574  0.051001791   0.05127542            7 
  454000   0.55175025   -3.1159314    277.49772  0.050935704  0.051159368           13 
  455000   0.55538787   -3.1012997    277.08001  0.050747254  0.051043591           18 
  456000   0.53671921   -3.1200933    277.45569  0.050704621  0.050927852           15 
  457000   0.53077886   -3.1146838    278.00768  0.050694325  0.050812496           12 
  458000   0.54266118   -3.1093813    278.30239  0.050637261  0.050697775           10 
  459000   0.53676844   -3.1256837    277.92859  0.050459075  0.050583893           10 
  460000   0.54463992   -3.1286427     278.4232  0.050438985  0.050470583            7 
  461000     0.540371   -3.1288157    277.88834  0.050232889  0.050356401           15 
  462000   0.53304843   -3.1125626    278.50556   0.05023549  0.050242339           12 
  463000   0.52062136   -3.1336097    277.91764  0.050021174  0.050127756           19 
  464000   0.52312876   -3.1107064    278.28233  0.049978867  0.050013349           15 
  465000   0.52216331   -3.1218476     279.4776  0.050085591  0.049899613           39 
  466000    0.5135371    -3.138544    277.61355  0.049644769  0.049785787           11 
  467000   0.51600639   -3.1228712    278.05461  0.049617168  0.049672156           17 
  468000   0.51525096    -3.126903    279.44239   0.04975826  0.049558627            7 
  469000   0.51891796   -3.1348415    278.30049  0.049449269   0.04944574            8 
  470000   0.50994311   -3.1469918     278.3846  0.049358972  0.049333081           30 
  471000   0.51024813   -3.1488249    278.34042  0.049246359  0.049220289           16 
  472000   0.51969265   -3.1525639    278.20525  0.049118159  0.049107119           15 
  473000   0.51633875   -3.1436188    278.26212  0.049024334  0.048994155           14 
  474000   0.51771441   -3.1732679    278.21857  0.048913252  0.048881047           17 
  475000   0.51001425   -3.1705373    278.18228  0.048803909  0.048767651            9 
  476000   0.51564819    -3.161503    277.89455  0.048651006  0.048654813           11 
  477000   0.50836909   -3.1717826     279.0926  0.048758316  0.048542542            3 
  478000   0.50087519    -3.157646    278.78349  0.048602422  0.048430178           12 
  479000   0.50106981   -3.1600651    279.20729  0.048574685  0.048318429           23 
  480000   0.50401116   -3.1597688    278.21199  0.048300693  0.048206992           17 
  481000   0.50401083   -3.1774785    278.80923  0.048303747  0.048095426           10 
  482000   0.49412778   -3.1718126    278.97109  0.048231517  0.047984136           10 
  483000   0.49627304   -3.1940737    278.70017  0.048084916  0.047873158           17 
  484000   0.48920138   -3.1598969    279.35121   0.04809766  0.047762709           14 
  485000   0.51004841   -3.1787477    279.47112  0.048019092  0.047652949           21 
  486000   0.48537183   -3.1786975    278.56062  0.047764166  0.047543006           17 
  487000   0.49095856   -3.1930469     279.2471  0.047783556  0.047432868           13 
  488000   0.49651698   -3.1810693     279.3536  0.047703825  0.047323182           20 
  489000   0.49129239   -3.2005867    279.41689  0.047617057  0.047213773           19 
  490000   0.48579456   -3.1896497    279.26355    0.0474938  0.047104492            9 
  491000   0.48558838    -3.200132    279.51758  0.047440187  0.046995931           11 
  492000   0.48506736   -3.2123841    279.38328  0.047321016  0.046887152           15 
  493000   0.49051304   -3.1935713    278.86489  0.047137406   0.04677875           18 
  494000   0.47850663   -3.2129638    279.23763  0.047104863  0.046670549           18 
  495000   0.46870116   -3.2182999    279.52961  0.047058857  0.046562565           23 
  496000   0.47847157   -3.2251842    279.81231  0.047011476  0.046454653           20 
  497000   0.47474421   -3.2119967    279.15932  0.046807398  0.046346675           12 
  498000   0.47180518   -3.2037805     278.6891  0.046634722   0.04623889           21 
  499000   0.47131181   -3.2313717    279.21218   0.04662862  0.046131317           13 
  500000   0.48228907    -3.235035     279.3877  0.046564617  0.046024268           20 
  501000   0.46584827   -3.2304176    279.96674  0.046567987  0.045917225           21 
  502000   0.46316977   -3.2209526    279.42981  0.046386091  0.045810563           23 
  503000   0.45404778   -3.2417214    279.56376  0.046316063  0.045703476           46 
  504000   0.46552014   -3.2586146     279.4792  0.046210184  0.045596099           21 
  505000   0.46254051   -3.2394208     279.2154  0.046075149   0.04548898           11 
  506000   0.46090817   -3.2379652    279.38492   0.04601201  0.045382091           15 
  507000   0.45493855   -3.2572509    279.27422   0.04590306  0.045275446           15 
  508000   0.44742469   -3.2324903    279.54114  0.045856486  0.045168945           12 
  509000   0.45553305   -3.2655176    279.80576  0.045809718  0.045063272           31 
  510000   0.45789153   -3.2608771    279.23739  0.045627025  0.044957323           21 
  511000   0.45142104   -3.2524129    279.09976   0.04551529   0.04485148           21 
  512000   0.44175578   -3.2633523     279.3525   0.04546753  0.044745585           24 
Loop time of 1204.31 on 48 procs for 500000 steps with 4000 atoms

Performance: 71742.451 tau/day, 415.176 timesteps/s
99.4% CPU use with 48 MPI tasks x no OpenMP threads

MPI task timing breakdown:
Section |  min time  |  avg time  |  max time  |%varavg| %total
---------------------------------------------------------------
Pair    | 76.433     | 81.409     | 87.154     |  29.7 |  6.76
Neigh   | 8.0552     | 8.3802     | 8.6675     |   5.9 |  0.70
Comm    | 74.504     | 81.388     | 86.985     |  32.4 |  6.76
Output  | 0.84161    | 0.84222    | 0.85194    |   0.2 |  0.07
Modify  | 1019.8     | 1021.7     | 1023.9     |   3.0 | 84.84
Other   |            | 10.59      |            |       |  0.88

Nlocal:        83.3333 ave          90 max          78 min
Histogram: 5 1 7 7 5 15 1 2 2 3
Nghost:        2158.69 ave        2177 max        2132 min
Histogram: 1 0 1 2 10 9 12 6 6 1
Neighs:        14241.1 ave       15594 max       12982 min
Histogram: 2 4 10 2 3 10 10 4 1 2
FullNghs:      28482.7 ave       30737 max       26621 min
Histogram: 5 1 6 8 9 7 4 3 2 3

Total # of neighbors = 1367168
Ave neighs/atom = 341.79200
Neighbor list builds = 27189
Dangerous builds = 0

#clear
#
#next RN
#
#jump SELF
Total wall time: 0:20:07
