
units lj                  # Use reduced LJ style units
atom_style atomic         # Uncharged point particles
atom_modify map hash      # Needed for indexing of clusters etc
                          # Used to be able to find where atoms are in relation to each other.

lattice fcc 1.0 spacing 1 1 1
Lattice spacing in x,y,z = 1.5874011 1.5874011 1.5874011
region box block 0 10 0 10 0 10 units lattice
create_box 2 box
Created orthogonal box = (0.0000000 0.0000000 0.0000000) to (15.874011 15.874011 15.874011)
  3 by 4 by 4 MPI processor grid
create_atoms 1 box
Created 4000 atoms
  using lattice units in orthogonal box = (0.0000000 0.0000000 0.0000000) to (15.874011 15.874011 15.874011)
  create_atoms CPU = 0.015 seconds
set type 1 type/fraction 2 0.1 78393
Setting atom values ...
  435 settings made for type/fraction
mass 1 1.0
mass 2 1.0
pair_style lj/cut  3.5
pair_modify tail  yes
pair_coeff 1  1  1.0  1.0   # Intearaction between 1 and 1 set with epsilon = 1 and sigma = 1
pair_coeff 1  2  1.5  0.8
pair_coeff 2  2  0.5  0.88

write_data data.0
System init for write_data ...
Neighbor list info ...
  update every 1 steps, delay 10 steps, check yes
  max neighbors/atom: 2000, page size: 100000
  master list distance cutoff = 3.8
  ghost atom cutoff = 3.8
  binsize = 1.9, bins = 9 9 9
  1 neighbor lists, perpetual/occasional/extra = 1 0 0
  (1) pair lj/cut, perpetual
      attributes: half, newton on
      pair build: half/bin/atomonly/newton
      stencil: half/bin/3d
      bin: standard
WARNING: Not all mixed pair coeffs generated from mixing. Use write_data with 'pair ij' option to store all pair coeffs. (../write_data.cpp:312)


#############################
#   M E L T   S Y S T E M   #
#############################

velocity all create 2.4 9622624 mom yes dist gaussian # Assign velocities
                                                    # Temperature 2.4, random number seed, zero linear momentum
                                                                                # Gaussian distribution

timestep 0.002   # simulation timestep
thermo 1000       # output thermodynamic data every 1000 steps bf 100

# Define a fix  in this case with index 1 applied to all
# particles in the simulation. This fix is for simulations
# in the anisotropic NPT ensemble. Note that we use the MTK
# correction.
fix 1 all npt temp 2.4 2.4 0.1 iso 5.68 5.68 0.5 mtk yes tchain 5 pchain 5 # Use NPT ensemble
                                                                         # Set temperature and pressure and damping
                                                                         # Numbers of thermostats in chain and in barostat
run 10000          # run for 10000 steps
Per MPI rank memory allocation (min/avg/max) = 3.642 | 3.644 | 3.648 Mbytes
Step Temp E_pair E_mol TotEng Press Volume 
       0          2.4   -7.6732445            0   -4.0741445   -3.0506691         4000 
    1000    2.3944749   -4.5686198            0  -0.97780529    5.7394567    4850.0359 
    2000    2.3513985   -4.5815552            0   -1.0553393    5.5910967    4856.4778 
    3000    2.3700854   -4.6182659            0   -1.0640266    5.7754673    4810.2554 
    4000    2.3829073   -4.6247907            0   -1.0513233    5.7705285    4816.6401 
    5000    2.3607667   -4.6283267            0   -1.0880619    5.8306827    4797.0438 
    6000    2.4332237   -4.6450213            0  -0.99609818    5.5457367    4839.3174 
    7000    2.3659012   -4.6031071            0   -1.0551425    5.6448441    4837.6252 
    8000    2.4022545   -4.5579299            0  -0.95544908    5.7209467    4851.9731 
    9000    2.4400143   -4.6105247            0  -0.95141822    5.7475538    4823.6807 
   10000    2.3651374    -4.598187            0   -1.0513679    5.6562759    4836.5338 
Loop time of 2.23761 on 48 procs for 10000 steps with 4000 atoms

Performance: 772253.579 tau/day, 4469.060 timesteps/s
99.6% CPU use with 48 MPI tasks x no OpenMP threads

MPI task timing breakdown:
Section |  min time  |  avg time  |  max time  |%varavg| %total
---------------------------------------------------------------
Pair    | 0.89064    | 0.96001    | 1.0505     |   2.9 | 42.90
Neigh   | 0.19155    | 0.19786    | 0.2111     |   1.0 |  8.84
Comm    | 0.71946    | 0.7871     | 0.87759    |   4.1 | 35.18
Output  | 0.00024008 | 0.00024537 | 0.00031821 |   0.0 |  0.01
Modify  | 0.2363     | 0.27786    | 0.32483    |   4.9 | 12.42
Other   |            | 0.01453    |            |       |  0.65

Nlocal:        83.3333 ave          92 max          74 min
Histogram: 1 4 3 9 5 9 5 4 5 3
Nghost:        1448.83 ave        1474 max        1413 min
Histogram: 2 1 1 4 5 14 5 8 5 3
Neighs:        7864.00 ave        8822 max        6811 min
Histogram: 1 4 5 7 10 2 5 4 6 4

Total # of neighbors = 377472
Ave neighs/atom = 94.368000
Neighbor list builds = 905
Dangerous builds = 194

# Equilibrate just above the melting temperature to avoid step fn in T

fix 1 all npt temp 1.25 1.25 0.1 iso 5.68 5.68 0.5 mtk yes tchain 5 pchain 5
run 2000
Per MPI rank memory allocation (min/avg/max) = 3.642 | 3.644 | 3.648 Mbytes
Step Temp E_pair E_mol TotEng Press Volume 
   10000    2.3651374    -4.598187            0   -1.0513679    5.6562759    4836.5338 
   11000    1.2475024   -6.1928461            0   -4.3220604    5.6715869    3982.0123 
   12000    1.2671343   -6.2182989            0   -4.3180727    5.4075605    3994.0751 
Loop time of 0.484648 on 48 procs for 2000 steps with 4000 atoms

Performance: 713094.676 tau/day, 4126.705 timesteps/s
99.6% CPU use with 48 MPI tasks x no OpenMP threads

MPI task timing breakdown:
Section |  min time  |  avg time  |  max time  |%varavg| %total
---------------------------------------------------------------
Pair    | 0.20651    | 0.22571    | 0.25325    |   1.9 | 46.57
Neigh   | 0.030157   | 0.032867   | 0.036511   |   0.6 |  6.78
Comm    | 0.14588    | 0.16926    | 0.19729    |   2.5 | 34.92
Output  | 4.9522e-05 | 5.1126e-05 | 6.6339e-05 |   0.0 |  0.01
Modify  | 0.044314   | 0.052124   | 0.063741   |   2.1 | 10.75
Other   |            | 0.004634   |            |       |  0.96

Nlocal:        83.3333 ave          92 max          76 min
Histogram: 2 8 3 7 7 7 7 1 5 1
Nghost:        1637.52 ave        1663 max        1613 min
Histogram: 1 0 9 7 7 8 9 3 3 1
Neighs:        9548.46 ave       10892 max        8562 min
Histogram: 3 7 4 6 10 7 6 2 2 1

Total # of neighbors = 458326
Ave neighs/atom = 114.58150
Neighbor list builds = 141
Dangerous builds = 8

#############################
# L I N E A R  Q U E N C H  #
#############################

# Define solid atoms. This closely follows ten Wolde  Ruiz-Montero and Frenkel  Faraday Discuss  1996  104  93-110
# Compute components of the per-atom q6 vector
compute q6 all orientorder/atom degrees 1 6 components 6 nnn NULL cutoff 1.3 # compute the Q6 parameter.
                                                                             # Use all neighbours within 1.3 unit cell.

# get number of connections
compute coord_number all coord/atom orientorder q6 0.5

# An atom is solid if it has 8 or more connections (of a possible 14)
variable is_solid atom c_coord_number>=8
group solid dynamic all var is_solid    # Must be dynamic to update
dynamic group solid defined

# do clustering
compute cluster solid cluster/atom 1.3 # Create a cluster where all atoms within are solid and max 1.3 units from another member

# define chunks one chunk per cluster
compute clus_chunks solid chunk/atom c_cluster nchunk every compress yes  # Says which atoms are in which chunk

# count the size of each chunk
compute size_chunks solid property/chunk clus_chunks count


# Find the maximum entry in the vector of chunk sizes
variable max_n equal max(c_size_chunks)


# Thermo style which includes this variable
# thermo_style custom step temp pe vol v_max_n

thermo ${N}  # Print the thermo information every 100 steps
thermo 1000  

# Reset the npt fix at a lower temperature (below freezing)
fix 1  all npt temp  ${temp} ${temp}  0.1  iso  5.68  5.68  0.5  mtk yes tchain  5  pchain  5
fix 1  all npt temp  0.45 ${temp}  0.1  iso  5.68  5.68  0.5  mtk yes tchain  5  pchain  5
fix 1  all npt temp  0.45 0.45  0.1  iso  5.68  5.68  0.5  mtk yes tchain  5  pchain  5

dump dmp2 all dcd ${N} traj.dcd
dump dmp2 all dcd 1000 traj.dcd


compute msd all msd com yes
variable twopoint equal c_msd[4]/6/(step*dt+1.0e-6)
fix 9 all vector 10 c_msd[4]
variable fit equal slope(f_9)/6/(10*dt)
thermo_style custom step temp pe c_msd[4] v_twopoint v_fit v_max_n

fix 1 all npt temp 1.25 ${temp} 0.1 iso 5.68 5.68 0.5 mtk yes tchain 5 pchain 5
fix 1 all npt temp 1.25 0.45 0.1 iso 5.68 5.68 0.5 mtk yes tchain 5 pchain 5
run 500000 # 5000000  # Run for this many steps
Neighbor list info ...
  update every 1 steps, delay 10 steps, check yes
  max neighbors/atom: 2000, page size: 100000
  master list distance cutoff = 3.8
  ghost atom cutoff = 3.8
  binsize = 1.9, bins = 9 9 9
  4 neighbor lists, perpetual/occasional/extra = 1 3 0
  (1) pair lj/cut, perpetual
      attributes: half, newton on
      pair build: half/bin/atomonly/newton
      stencil: half/bin/3d
      bin: standard
  (2) compute orientorder/atom, occasional
      attributes: full, newton on
      pair build: full/bin/atomonly
      stencil: full/bin/3d
      bin: standard
  (3) compute coord/atom, occasional
      attributes: full, newton on
      pair build: full/bin/atomonly
      stencil: full/bin/3d
      bin: standard
  (4) compute cluster/atom, occasional
      attributes: full, newton on
      pair build: full/bin/atomonly
      stencil: full/bin/3d
      bin: standard
Per MPI rank memory allocation (min/avg/max) = 9.748 | 9.753 | 9.757 Mbytes
Step Temp PotEng c_msd[4] v_twopoint v_fit v_max_n 
   12000    1.2671343   -6.2182989            0            0 8.3333333e+20            2 
   13000     1.262715   -6.2435166   0.54496541 0.0034933679  0.044572263            3 
   14000    1.2290882   -6.2446223    1.0580292 0.0062977928  0.043599941            2 
   15000    1.2579355   -6.2054189    1.6120201 0.0089556668  0.044593762            2 
   16000    1.2445502   -6.2159021    2.1140609  0.011010733  0.044014945            3 
   17000    1.2269844   -6.2575759     2.630493  0.012894573  0.043621536            1 
   18000    1.2305617    -6.275918     3.157438  0.014617768  0.043675706            5 
   19000    1.2582571    -6.244422    3.6660922  0.016079351   0.04349116            2 
   20000    1.2398566   -6.2278625    4.1759716  0.017399881  0.043299586            6 
   21000    1.2460991   -6.2356782    4.6988104  0.018646072  0.043209357            1 
   22000    1.2448845   -6.2559563     5.242009  0.019856094  0.043314175            4 
   23000    1.2529535   -6.2412032     5.765874  0.020890847  0.043242809            1 
   24000    1.2237148   -6.2293989    6.3075738  0.021901298  0.043325805            2 
   25000    1.2193578   -6.3038119    6.8022173  0.022674057  0.043334475            2 
   26000    1.2297714   -6.2139425    7.2957236  0.023383729  0.043316509            2 
   27000    1.2392769     -6.26691    7.9615079  0.024572555   0.04342509            3 
   28000     1.215639   -6.2611226    8.5117702  0.025332649   0.04362459            2 
   29000    1.2382978   -6.2712327     9.050389  0.026006865  0.043783528            3 
   30000    1.2153703   -6.2702319    9.4449747  0.026236041  0.043851683            2 
   31000    1.2196483   -6.2793554    9.9094806  0.026638388  0.043753363            2 
   32000    1.2174681   -6.2454366    10.245217  0.026680252  0.043570833            1 
   33000    1.2118279   -6.2558902    10.807166  0.027290824  0.043339784            3 
   34000    1.2141332   -6.2876522     11.23032  0.027525293  0.043104147            2 
   35000    1.1996949   -6.3030898    11.630927  0.027692682  0.042843197            3 
   36000    1.2046528   -6.2390019     12.03027  0.027847846  0.042562458            4 
   37000    1.1967232    -6.273688    12.586832   0.02834872  0.042291846            3 
   38000    1.1977819   -6.2694727      13.0334  0.028582018  0.042091673            5 
   39000    1.2055526   -6.2731704    13.530473  0.028911267  0.041918113            5 
   40000    1.2275031   -6.3060364    14.111036  0.029397991  0.041775733            3 
   41000    1.2073266   -6.2957317    14.710555  0.029899502  0.041750977            3 
   42000     1.209386    -6.270454     15.17824  0.030115556  0.041743452            1 
   43000    1.1879255   -6.2735632    15.579435  0.030192702  0.041688232            2 
   44000     1.171941   -6.3224539    15.919088  0.030149787  0.041572076            2 
   45000    1.2003708    -6.313832    16.331691  0.030243871  0.041437744            4 
   46000    1.1871874   -6.3667579     16.80163  0.030437735   0.04131953            5 
   47000    1.2238371   -6.3133384     17.34798  0.030758829  0.041237148            3 
   48000    1.2043722   -6.3061579    17.769706  0.030850184  0.041128198            3 
   49000    1.2173643   -6.3057008    18.230797  0.031004757  0.041021399            3 
   50000    1.1645435   -6.3379994    18.714048   0.03119008  0.040923973            2 
   51000      1.17673   -6.3374025    19.022724  0.031082881  0.040813519            4 
   52000    1.2231688   -6.3296193    19.516338  0.031276182  0.040701937            4 
   53000    1.1842498   -6.3354696     20.15411  0.031688851  0.040626362            2 
   54000    1.1831772   -6.3572522    20.562395  0.031732091  0.040571503            3 
   55000      1.19677    -6.350262    21.072474  0.031927991  0.040514195            4 
   56000    1.1966019   -6.3101991    21.794723  0.032432624  0.040501182            7 
   57000    1.1529347   -6.3791812    22.275556  0.032566602  0.040490804            2 
   58000    1.1990257   -6.3470127    22.637408  0.032525012  0.040489531            5 
   59000     1.175838   -6.3292957    23.126497  0.032664543  0.040462926            4 
   60000    1.1573967   -6.3540367    23.520769  0.032667735   0.04043644            3 
   61000    1.1650945   -6.3633467     23.87252  0.032612733  0.040387306            4 
   62000    1.1559386    -6.348085    24.141777  0.032448624  0.040310267            3 
   63000    1.1626461   -6.3463452    24.561304  0.032488498  0.040211715            3 
   64000    1.1640133   -6.3534108    24.927553  0.032457751  0.040104107            2 
   65000    1.1844282   -6.3534972    25.044749  0.032108652  0.039969925            1 
   66000    1.1611381   -6.3886741    25.329558  0.031981765  0.039809194            5 
   67000     1.165775   -6.3463812    25.770788  0.032053219  0.039648393            1 
   68000    1.1577759   -6.3257499    26.095092  0.031979279  0.039490784            2 
   69000    1.1595806   -6.3853436    26.517848  0.032026387  0.039338581            4 
   70000    1.1456689   -6.3987542    26.857789  0.031973558   0.03917477            4 
   71000    1.1692153   -6.4228951    27.287285   0.03202733  0.039034444            3 
   72000    1.1564038   -6.3469522    27.791429  0.032166006  0.038900534            6 
   73000    1.1515653   -6.3747517     28.21891  0.032213367  0.038764707            3 
   74000    1.1599078   -6.4437372    28.646293  0.032259339  0.038647192            2 
   75000    1.1273425   -6.4227045    29.281214  0.032534682  0.038552767            2 
   76000    1.1570715   -6.3761162    29.818669  0.032695909  0.038482963            2 
   77000    1.1580309   -6.3919472    30.506927  0.033016155  0.038432372            3 
   78000    1.1576074   -6.4013506    30.938428  0.033053875  0.038393295            4 
   79000    1.1705369   -6.3903885    31.366764  0.033087303  0.038363748            3 
   80000    1.1353181   -6.4233249    31.884289  0.033212801  0.038328964            3 
   81000    1.1461002   -6.3873356    32.265766  0.033195232  0.038287585            3 
   82000    1.1337565    -6.412883    32.664252  0.033195377  0.038256446            3 
   83000    1.1503875   -6.4163604    33.109596  0.033242567  0.038221496            3 
   84000    1.1430731   -6.3939963    33.601469   0.03333479  0.038187587            2 
   85000    1.1281441    -6.430326    33.908032  0.033243168  0.038148833            4 
   86000    1.1486595   -6.4226269    34.260032  0.033197705  0.038102505            2 
   87000    1.1313756   -6.4197328    34.665072  0.033204091  0.038055468            5 
   88000    1.1071286   -6.4351323    35.101955  0.033240488  0.038003821            2 
   89000    1.1271872   -6.4252544    35.334455  0.033084695  0.037949967            2 
   90000    1.1151208   -6.4215943    35.791667  0.033140432   0.03789361            3 
   91000    1.1428071   -6.4301329    36.246891  0.033193123  0.037843054            3 
   92000    1.1074551    -6.442003     36.65894  0.033205561  0.037789633            3 
   93000     1.126172   -6.4506323    37.204574  0.033337432  0.037741523            3 
   94000    1.1196756   -6.4825778    37.394437  0.033151097  0.037689862            5 
   95000    1.0971286   -6.4635721    37.640879  0.033018314  0.037628368            3 
   96000    1.1139819   -6.5019724    38.086337  0.033061056  0.037561022            2 
   97000    1.1192278   -6.4269558    38.357773  0.032953413  0.037489822            5 
   98000    1.1031361    -6.441946    38.789382  0.032984168  0.037416411            2 
   99000    1.1208263   -6.4785906    38.827901  0.032683418  0.037332569            3 
  100000    1.1128494    -6.520504    39.225062  0.032687551  0.037247971            3 
  101000    1.1080377   -6.5133934    39.605707  0.032677976  0.037161821            3 
  102000    1.0850988   -6.4901007    39.786175  0.032505045  0.037074121            4 
  103000    1.0951724   -6.5030593     40.22209  0.032542144  0.036983996            2 
  104000    1.1073065   -6.4929818    40.590381  0.032524344  0.036894087            3 
  105000    1.0989284   -6.4623863    40.935306  0.032488338  0.036802963            3 
  106000    1.0729731   -6.4905789    41.479229  0.032609457  0.036715587            3 
  107000    1.0848544   -6.4939525    41.685699  0.032465497  0.036635887            2 
  108000    1.1162473   -6.4752187    42.120051   0.03250004   0.03655381            3 
  109000    1.0831626    -6.491738    42.405738  0.032420289  0.036473439            3 
  110000    1.1232066   -6.5252148    42.582849  0.032259734  0.036385529            5 
  111000    1.0905658   -6.4633433    42.949874   0.03224465  0.036298669            3 
  112000    1.1062306    -6.493493     43.16776  0.032118869  0.036210299            2 
  113000    1.0808682   -6.5365452     43.65782  0.032196033  0.036120373            6 
  114000    1.0832215   -6.5203101    43.784903  0.032006508  0.036029216            2 
  115000    1.0833849   -6.5252649     44.04633   0.03191763  0.035935145            4 
  116000    1.0467435   -6.5503078    44.423058  0.031913117  0.035838672            2 
  117000    1.0962448   -6.5184376    44.812296  0.031917589  0.035744013            4 
  118000    1.1044804   -6.5338506    45.058144  0.031820723  0.035648983            6 
  119000    1.0992481   -6.5442834    45.505641  0.031866695  0.035556738            5 
  120000    1.0699654   -6.5391109    45.834667   0.03182963  0.035468393            3 
  121000    1.0888585   -6.5575059    46.010514  0.031687682  0.035379903            3 
  122000    1.0779593   -6.5572788    46.418769  0.031706809  0.035289487            3 
  123000    1.0835403   -6.5936364    46.486239  0.031494742  0.035199594            2 
  124000    1.0728082   -6.5293485    47.083686  0.031642262  0.035108812            5 
  125000    1.0816907   -6.5314711    47.350124  0.031566749  0.035017337            3 
  126000    1.0527289   -6.5712724    47.616335  0.031492285  0.034928789            5 
  127000    1.0638793   -6.5821866    47.952252  0.031464732  0.034842152            2 
  128000    1.0470034    -6.557432    48.276303  0.031429884  0.034754312            1 
  129000    1.0532953   -6.6139513    48.582337  0.031383939   0.03467086            3 
  130000    1.0646343   -6.5903243    48.848101  0.031312885  0.034585872            8 
  131000    1.0471894   -6.5481616    49.053235  0.031204348  0.034498478            3 
  132000    1.0640538   -6.5888218    49.587507  0.031305244  0.034414818            3 
  133000    1.0640143   -6.5318478    49.834859  0.031224849  0.034334865            4 
  134000    1.0415062   -6.5585169    50.260111  0.031256288  0.034257507            4 
  135000    1.0644266   -6.5882147    50.594976  0.031231466  0.034179448            5 
  136000    1.0672726   -6.5492169    50.945611  0.031216673  0.034103512            8 
  137000    1.0655849   -6.5733275    51.200664  0.031143956   0.03402858            3 
  138000    1.0497571   -6.5908653    51.627061  0.031175762  0.033955299            2 
  139000    1.0279479     -6.55404    51.898887   0.03111444  0.033882353            5 
  140000    1.0353707   -6.5725384    52.193273  0.031067424  0.033805052            4 
  141000    1.0272093   -6.6088084     52.26368    0.0308887  0.033728047            3 
  142000    1.0275934   -6.5874591    52.691996  0.030922533  0.033650758            5 
  143000    1.0324877   -6.5668344    53.119318  0.030955313  0.033575892            3 
  144000    1.0117149   -6.5880778    53.359488  0.030879333  0.033501299            3 
  145000    1.0239297   -6.5905191     53.72808  0.030878207  0.033429794            3 
  146000    1.0306724   -6.6090334    53.903232  0.030766685  0.033359016            4 
  147000    1.0360813   -6.6285825    54.372538  0.030823434  0.033288653            3 
  148000    1.0141724    -6.626701    54.614915  0.030751641  0.033220806            3 
  149000    1.0213634   -6.6534373    54.719026  0.030603482   0.03314965            6 
  150000    1.0359382   -6.6572301    55.128238  0.030626799  0.033076482            2 
  151000    1.0378368   -6.5865452    55.441253  0.030596718  0.033005453            5 
  152000    1.0125124   -6.6255029    55.706785     0.030541   0.03293481            3 
  153000    1.0256621   -6.6418941    55.960127  0.030479372  0.032863755            5 
  154000    1.0288102     -6.63491     56.18002  0.030400444  0.032792927            4 
  155000    1.0326201   -6.6245581    56.365598  0.030304085  0.032720235            5 
  156000    1.0109954   -6.6552433    56.702068  0.030289566  0.032646613            4 
  157000    1.0194588   -6.6191327    56.822675  0.030160655  0.032572261            7 
  158000    1.0064317   -6.6370486    56.986643  0.030056246  0.032495166            5 
  159000    1.0260881   -6.6402329     57.45199  0.030111106  0.032418902            2 
  160000    1.0206114   -6.6517834    57.381731  0.029886318  0.032341906            2 
  161000    0.9995546   -6.6665655    57.563321  0.029794679   0.03226189            6 
  162000   0.99506429   -6.6472034    58.120997  0.029897632  0.032184267            4 
  163000    1.0171819   -6.6889859    58.392461  0.029852996  0.032108224            6 
  164000    1.0323447   -6.6941334    58.560123   0.02975616  0.032033269            2 
  165000     1.006186   -6.6469997    58.909666  0.029752356  0.031958113            4 
  166000   0.99752963    -6.657178    59.310595  0.029774395  0.031882418            5 
  167000   0.97640591   -6.6633725    59.217633  0.029549717   0.03180772            7 
  168000    1.0167538   -6.6486007    59.616158  0.029571507  0.031731577            3 
  169000    1.0034671   -6.7055684    59.752084  0.029463552  0.031657552            6 
  170000   0.98166744   -6.6937528    60.116796  0.029469018  0.031581458            5 
  171000   0.99036008   -6.7171169     60.26745  0.029370102  0.031505017            5 
  172000   0.99135154    -6.733536    60.402786  0.029264916  0.031427207            4 
  173000    1.0082303    -6.696451    60.795749  0.029285043  0.031352852            3 
  174000    1.0025192   -6.7235059    61.024278  0.029226187  0.031278211            9 
  175000   0.98893063   -6.7541005    61.244254  0.029163931  0.031204847            5 
  176000   0.98329947   -6.7106966    61.829473  0.029275318  0.031134177            3 
  177000   0.97159355   -6.7382977     61.87466  0.029131196  0.031063324            4 
  178000   0.98793324   -6.6898696    62.135068  0.029089451  0.030992428           11 
  179000   0.97634519   -6.7042836    62.636147  0.029160218  0.030923425            6 
  180000   0.98624567   -6.7314691    62.640064   0.02900003  0.030855548            3 
  181000   0.99282377   -6.7069472    63.004202   0.02900746  0.030787351            4 
  182000   0.95682512   -6.7175644    63.087257  0.028886107  0.030717009            4 
  183000   0.99491972   -6.7469112    63.538828  0.028933892  0.030647993            5 
  184000   0.98819443   -6.7417513    63.633406  0.028819478  0.030578946            2 
  185000   0.96836801   -6.7370069    63.846433  0.028759655  0.030509944           11 
  186000   0.98054809   -6.7480783    63.987562  0.028668263   0.03043864            6 
  187000   0.97838594   -6.7490389    64.299859  0.028654126  0.030368047            5 
  188000   0.95717639   -6.7644245    64.692675  0.028675831  0.030299424            3 
  189000   0.97765806   -6.7861887    64.746359  0.028547777   0.03023123            4 
  190000   0.94671721   -6.7308368    65.157074  0.028577664  0.030164063            2 
  191000    0.9655993   -6.7535852     65.21731  0.028454324  0.030095807            3 
  192000   0.98151684   -6.7472987    65.331055  0.028355492  0.030028203            8 
  193000   0.97977761   -6.7769025    65.544971  0.028300937  0.029959911            7 
  194000   0.95150922    -6.735337    65.921546  0.028316815  0.029892067            3 
  195000   0.95999905   -6.7664188    66.094578  0.028245546  0.029823557            3 
  196000   0.93159313   -6.7738734    66.121861  0.028113036  0.029752312            7 
  197000   0.95892781   -6.7872103    66.240063  0.028020331  0.029683132            5 
  198000   0.94732379   -6.7785723    66.542616  0.028006151  0.029614297            3 
  199000    0.9320084   -6.8074237     66.77091  0.027961018  0.029545053            4 
  200000   0.95667374   -6.7807917    67.171161  0.027987984  0.029475877            3 
  201000   0.94786229   -6.7619508    67.318108  0.027909663  0.029407992            3 
  202000   0.93584644    -6.799051    67.397996  0.027804454  0.029338828            4 
  203000   0.92654945   -6.7689148    67.762772   0.02781723  0.029270877           11 
  204000   0.94343755   -6.7741425    67.824742  0.027706185   0.02920325            6 
  205000   0.94479476   -6.7996821    68.010886  0.027646701  0.029134225            3 
  206000   0.94917615     -6.81649      68.1867  0.027583616  0.029064803            5 
  207000   0.94806947   -6.7708434    68.487553  0.027571479  0.028995376            4 
  208000   0.95567498   -6.8047449    68.370689  0.027392103  0.028926477            8 
  209000   0.91225054   -6.7938641    68.464089  0.027298281  0.028855491            9 
  210000   0.95056735   -6.8168312     68.54179  0.027199123  0.028784332            5 
  211000   0.94129478   -6.8138523    68.776554  0.027162936  0.028711755            3 
  212000   0.92674259   -6.7722393    69.064526  0.027148005  0.028639476            6 
  213000   0.92974762    -6.829918     69.06659  0.027021358  0.028567384            7 
  214000   0.93421139   -6.8139283    69.188264   0.02694247  0.028495017            5 
  215000   0.93581334    -6.839327    69.224833  0.026831331  0.028421224            4 
  216000   0.90415189   -6.8409468    69.357239  0.026758194  0.028345978            8 
  217000   0.90906061   -6.8554082    69.527031  0.026700089  0.028270873            4 
  218000   0.92667133   -6.8040495    69.730372  0.026655341  0.028196137            4 
  219000   0.89608649   -6.8403726    69.945137  0.026615349  0.028121519            5 
  220000   0.90264574   -6.8224387    70.397268  0.026665632  0.028047642            5 
  221000   0.92273144   -6.8650234     70.17316  0.026460467  0.027972485            4 
  222000   0.91211088   -6.8409734    70.431219  0.026438145  0.027897465            6 
  223000   0.91813325    -6.847009    70.462133  0.026331141  0.027822926            7 
  224000   0.92580202   -6.8533186    70.569121  0.026253393  0.027747369            9 
  225000   0.92494469   -6.8908977    70.827641   0.02623246  0.027672994            7 
  226000    0.8888043   -6.8977132    71.193395  0.026251252  0.027599428            5 
  227000   0.91506945   -6.8808972    71.084688    0.0260957  0.027525406            6 
  228000   0.94015117   -6.8613304    71.432805  0.026108481  0.027452585            3 
  229000   0.88001561   -6.9069553    71.492241  0.026016099  0.027378249            3 
  230000    0.8779233   -6.8745838    71.868387  0.026039271  0.027305797           10 
  231000   0.90035356   -6.8812316    71.956694  0.025958403  0.027234412            4 
  232000   0.89317117   -6.8994512    72.067355  0.025886263  0.027162577            6 
  233000   0.92096395   -6.9098353    72.274445  0.025849229  0.027090956           12 
  234000   0.88743575   -6.8594963    72.261999   0.02573433  0.027019369            6 
  235000   0.88605326   -6.8960641    72.586082  0.025739745  0.026948312            6 
  236000   0.89211589    -6.866764    72.809523  0.025709577  0.026878273            5 
  237000   0.86566398   -6.8838201     73.09924  0.025702967  0.026809144            5 
  238000   0.88886408   -6.9127343    73.314908  0.025670486  0.026740227            3 
  239000   0.87780507   -6.8847351    73.430401  0.025603348  0.026671363            8 
  240000   0.87500037   -6.9047116    73.298655  0.025450922   0.02660239            4 
  241000   0.88938265    -6.915831    73.291322  0.025342781  0.026533164            5 
  242000   0.87803759   -6.9111907    73.354847  0.025259933  0.026462946            5 
  243000   0.88193363   -6.9133491    73.622326  0.025247711  0.026392504            6 
  244000   0.85277387   -6.9225213    73.772959  0.025195683  0.026322529            4 
  245000    0.8864481   -6.9097912    73.935526  0.025148138  0.026252366            3 
  246000   0.87881923   -6.9071521    74.189202  0.025131843   0.02618265            6 
  247000   0.88465301   -6.9531208    74.228913  0.025043493  0.026113136            6 
  248000   0.86766366   -6.9285111    74.160288  0.024919452  0.026043171           12 
  249000   0.84661375   -6.9429609    74.443082  0.024914017  0.025973161            7 
  250000    0.8630406   -6.9450919     74.49371  0.024831237  0.025903658            6 
  251000   0.89778204   -6.9552693    74.462251  0.024721863  0.025834303            2 
  252000   0.87326511   -6.9407904     74.61178  0.024673208  0.025764003           13 
  253000   0.87231302   -6.9443849    74.749217  0.024620954  0.025693469            4 
  254000    0.8551489   -6.9703154    74.773413   0.02453196  0.025623069           11 
  255000   0.85656366    -6.965956    74.878292   0.02447003  0.025553003            3 
  256000   0.85007771   -6.9598766    74.871203  0.024372136  0.025482287            6 
  257000   0.83702273    -6.977799     75.05727  0.024337636  0.025410657            6 
  258000   0.86224917   -6.9492282    75.284583  0.024316726  0.025338814            3 
  259000    0.8402139   -6.9661981    75.185517  0.024190964  0.025267827            4 
  260000   0.85262962   -6.9748743     75.33691  0.024146446   0.02519637            9 
  261000   0.83704378    -6.991015     75.35094   0.02405841   0.02512439            6 
  262000   0.83878518   -6.9813419    75.425118  0.023990178  0.025052888            4 
  263000   0.85490937    -6.970055    75.737308  0.023997879  0.024982598            8 
  264000    0.8485771   -6.9864536    75.858739  0.023945309  0.024911998           16 
  265000   0.82891565   -7.0008913    75.905257  0.023869578  0.024841765            9 
  266000   0.84313273    -6.997721    76.061528  0.023828799  0.024771758            7 
  267000   0.83961973   -7.0079083    76.146419  0.023766048  0.024702486            4 
  268000   0.82757116   -7.0114097    76.458388  0.023774374  0.024633349            6 
  269000   0.84046664   -6.9904158    76.446687  0.023682369  0.024564735            6 
  270000   0.83310551   -7.0322336    76.616152   0.02364696   0.02449574            7 
  271000   0.83675093   -7.0249946    76.548564  0.023538919  0.024426523            5 
  272000   0.84406077   -6.9908198    76.716905  0.023503954   0.02435784            8 
  273000   0.84115646   -7.0421722    76.534105  0.023362059  0.024288778            5 
  274000   0.82741199   -7.0413561    76.646832   0.02331108  0.024218801            9 
  275000   0.83347164   -7.0122835    76.759513  0.023260458  0.024148789           10 
  276000   0.82742422    -7.022589    76.831493  0.023197915  0.024078961           16 
  277000   0.83267403   -7.0223456    76.954376  0.023151136  0.024008701            9 
  278000   0.81203119    -7.040016     76.98732  0.023077734  0.023938506            5 
  279000     0.831585   -7.0514898    76.934818  0.022979336  0.023868254            8 
  280000   0.81309739   -7.0454218    77.019764  0.022922549  0.023797725            7 
  281000   0.83905395   -7.0491554    76.988663   0.02283175  0.023727563            8 
  282000      0.81759    -7.072137    77.072489  0.022775558  0.023657756           12 
  283000   0.79651727   -7.0429951    77.381431  0.022786052  0.023587941           11 
  284000   0.81287127   -7.0481983    77.501844  0.022741152  0.023519037            5 
  285000   0.81077936   -7.0626496    77.608571  0.022692565  0.023450401           16 
  286000   0.80047383   -7.0407503    77.724538   0.02264701  0.023382216            4 
  287000   0.81725846   -7.0384257    77.904138  0.022620249  0.023314433            7 
  288000   0.78653024   -7.0646962    77.975198  0.022562268  0.023246697            8 
  289000   0.78931928   -7.0715261    77.872968   0.02245472  0.023179172            7 
  290000   0.80198983   -7.0663073    77.992878  0.022411746  0.023111709           10 
  291000   0.81381038   -7.0767234    78.130706    0.0223742  0.023043995            5 
  292000   0.81510868    -7.061142    78.163861  0.022307038  0.022977035            8 
  293000   0.81615148   -7.0862551    78.168902  0.022232339  0.022909984           11 
  294000   0.79866977   -7.0752946    78.291685  0.022191521  0.022842822           15 
  295000   0.79171245   -7.0746244    78.548235  0.022188767  0.022776574           16 
  296000   0.79562373   -7.0754229    78.738292  0.022167312  0.022710991            8 
  297000   0.79132145    -7.094755    78.662856  0.022071508  0.022645465           10 
  298000   0.80248941   -7.1100295    78.880527  0.022058313  0.022580241            4 
  299000   0.79262349   -7.1193716    78.987137  0.022014252  0.022515577            5 
  300000   0.77673053   -7.1031736    78.965238  0.021934788  0.022450758            6 
  301000   0.77672704    -7.105731    79.210165  0.021929724  0.022386876            4 
  302000   0.76976262     -7.12355    79.050846  0.021813147  0.022322946            9 
  303000   0.77119023   -7.1322255    79.043974  0.021739267  0.022259116           13 
  304000   0.77464683   -7.1232778    79.181927  0.021705572  0.022195322           10 
  305000   0.76459166   -7.1307976    79.319499  0.021671994  0.022131776            9 
  306000   0.78293749   -7.1360376    79.340506  0.021606892  0.022068092            4 
  307000   0.77226196   -7.1359842    79.520969  0.021585496   0.02200403            8 
  308000   0.78259983   -7.1466762     79.39688   0.02148184  0.021940808           22 
  309000   0.76787778   -7.1340114    79.728355  0.021501714  0.021877759            9 
  310000   0.77922049   -7.1545375    79.419147  0.021349233  0.021814998            4 
  311000   0.76979363    -7.139437    79.693781  0.021354175  0.021751959           16 
  312000   0.79592322   -7.1595593    79.897452  0.021340131  0.021689487            9 
  313000   0.74951824   -7.1568313    80.038101  0.021309398   0.02162751           10 
  314000    0.7641999    -7.154288    79.774641  0.021171614  0.021565028           11 
  315000   0.76092278   -7.1579937    79.956887  0.021152615  0.021501806           13 
  316000   0.77321187   -7.1777196      80.0185  0.021101925  0.021439178           11 
  317000   0.74883378   -7.1950456    79.936749  0.021013867  0.021376428           10 
  318000   0.76032356   -7.1920866    80.082464  0.020985971  0.021313753            8 
  319000   0.76826529   -7.1897169    79.940617  0.020883129  0.021251375           35 
  320000   0.74615087   -7.1552291    79.976346  0.020827173  0.021189256           31 
  321000   0.73723705   -7.1706093    80.211879  0.020823437  0.021127116            8 
  322000   0.74819228   -7.1908485    80.290492  0.020779113  0.021065159           11 
  323000   0.75863542   -7.1764704    80.168567  0.020683325  0.021002792            9 
  324000   0.75487804   -7.1804751    80.137413  0.020611475  0.020940588            6 
  325000   0.75097945   -7.1820392    80.146504  0.020550386  0.020878918           15 
  326000   0.74841733   -7.1929744    80.290186  0.020524076  0.020817085           17 
  327000   0.74655291    -7.185803     80.42393  0.020495395  0.020755502           18 
  328000   0.76239566   -7.2064817    80.169877  0.020368363  0.020693567           30 
  329000   0.75406927   -7.2007205    80.393885  0.020363193   0.02063215            7 
  330000   0.73982728   -7.2208679    80.338395  0.020287473  0.020570159            9 
  331000   0.72393268   -7.2240833    80.335001  0.020225327  0.020508256           20 
  332000   0.74491078   -7.2271874    80.434869  0.020189475  0.020446528            9 
  333000   0.73809089   -7.1828483    80.610858  0.020172887  0.020385261            7 
  334000   0.73463264   -7.2124402    80.320916  0.020040149  0.020323884           14 
  335000   0.72717169   -7.2429942    80.500664  0.020025041  0.020262272           11 
  336000    0.7423738   -7.2149883    80.544314  0.019976268  0.020200989           11 
  337000   0.73905315    -7.259518     80.61967  0.019935626  0.020140117            7 
  338000   0.72629699   -7.2437221    80.881992   0.01994132  0.020079171           12 
  339000   0.73319826   -7.2271167    80.746966  0.019849303  0.020018441            9 
  340000   0.72585311   -7.2445623    80.539557  0.019740088  0.019958029           19 
  341000   0.72811297   -7.2676495    80.774961  0.019739727  0.019897398           13 
  342000   0.72332933   -7.2576432    80.702591  0.019664374   0.01983688           11 
  343000   0.72364461   -7.2612511      80.7857  0.019627235  0.019776791           18 
  344000   0.72469983   -7.2473696    80.813358  0.019576879  0.019716531           10 
  345000   0.71536551   -7.2460543     80.87846   0.01953586  0.019656805            7 
  346000   0.71726277   -7.2602122     80.98804   0.01950579  0.019597442           24 
  347000   0.71471535   -7.2505496    80.818742   0.01940892  0.019538398            7 
  348000   0.71155794   -7.2651032    81.025957  0.019402768  0.019479264            6 
  349000   0.71054006   -7.2763436    81.040087  0.019350546  0.019420508           22 
  350000   0.70338651   -7.2752353    80.831686   0.01924564  0.019361187            6 
  351000   0.70575939   -7.2871413    80.971041  0.019223894  0.019302103            6 
  352000   0.71174071   -7.2769283     80.98305  0.019172123    0.0192433            9 
  353000   0.71447431    -7.304616    80.918122  0.019102484  0.019184287           11 
  354000   0.70538137   -7.2977166    81.188788  0.019112238  0.019125488           15 
  355000   0.69387481   -7.2905435    81.125671  0.019043585  0.019067282           19 
  356000   0.70071387   -7.2844521    81.162175  0.018998637  0.019009244           17 
  357000   0.69642919   -7.2766042    81.203766  0.018955128  0.018951491            6 
  358000   0.71315561   -7.2958315    81.211427  0.018903964  0.018894247            8 
  359000   0.69865248   -7.3101676    81.211963  0.018851431  0.018837098           12 
  360000   0.67360831   -7.2921695    81.295082  0.018818306  0.018779688           12 
  361000   0.70164438   -7.3312647    81.415132   0.01879389  0.018722636           18 
  362000    0.7020907     -7.27579    81.406671  0.018740026   0.01866586           14 
  363000   0.70063707   -7.3286385    81.339443  0.018672967  0.018609077            8 
  364000   0.67594779     -7.30216    81.425086  0.018641274  0.018552514           16 
  365000   0.67250185   -7.3169494    81.545919   0.01861779  0.018495981            9 
  366000   0.68285923   -7.3205531    81.463381  0.018548129  0.018439727           21 
  367000   0.70174889   -7.3089118    81.387097  0.018480267  0.018383325           23 
  368000    0.6837115   -7.3486535    81.266267  0.018402687  0.018326947           12 
  369000   0.67087459   -7.3454087    81.334263  0.018368171  0.018270671            7 
  370000   0.69020521    -7.344284    81.337953  0.018319359  0.018214418            7 
  371000   0.67745438   -7.3380638    81.497733   0.01830587  0.018158573            7 
  372000   0.67889527   -7.3343749    81.454419  0.018246958  0.018102722           12 
  373000   0.67600211   -7.3529145    81.432492  0.018193139  0.018047122           10 
  374000   0.67952825   -7.3692939    81.587658  0.018179068  0.017991899           11 
  375000   0.67058187   -7.3488397    81.296529  0.018065895  0.017936943           16 
  376000   0.66143391   -7.3564428    81.507969  0.018064709  0.017882176           18 
  377000   0.66462072   -7.3722277     81.58304  0.018033386  0.017827099           11 
  378000   0.68000116   -7.3664794    81.546333  0.017977587  0.017772061            8 
  379000   0.68444774   -7.3612026    81.576679  0.017936825  0.017717367           32 
  380000   0.66855165   -7.3623636    81.596014  0.017893863  0.017662805           12 
  381000    0.6537744   -7.3893062    81.637048  0.017855872    0.0176084           25 
  382000   0.65723425   -7.3761769    81.689268  0.017820521   0.01755424           23 
  383000   0.64722549   -7.3868072    81.722573  0.017781239  0.017500473           22 
  384000   0.65648696   -7.3936918     81.79079  0.017749737   0.01744694           25 
  385000   0.65291208   -7.3615994    81.731424  0.017690784  0.017393301           24 
  386000   0.65360671   -7.3925624    81.626239  0.017622245  0.017339554           17 
  387000   0.65190453   -7.4064187    81.505433  0.017550696  0.017285902           11 
  388000   0.63290219   -7.4106046    81.796404  0.017567956  0.017232398           19 
  389000   0.63935216   -7.4219184    81.720175  0.017506464  0.017179182           22 
  390000   0.64460654   -7.3834245    81.728818  0.017463423  0.017126029            7 
  391000   0.65045665   -7.4281147    81.559605  0.017382695  0.017072908            8 
  392000   0.64127395   -7.4040514    81.695053  0.017367145  0.017020308            7 
  393000   0.62630289   -7.4570974    81.786473  0.017342339  0.016967896           23 
  394000   0.64446886   -7.4047935     81.68288  0.017276413  0.016915651           32 
  395000   0.63814963   -7.4079631    81.767204  0.017250465  0.016863493           27 
  396000   0.64114146   -7.4355763    81.896853  0.017234186  0.016811624           22 
  397000   0.62372083   -7.4215741     81.94324  0.017200512  0.016760025           15 
  398000   0.64304209   -7.4235094     81.79501  0.017126258  0.016708517           19 
  399000   0.62858625   -7.4535334    81.798992  0.017084167  0.016656997           26 
  400000    0.6481724   -7.4602582    81.969672  0.017077015  0.016605703           29 
  401000    0.6336833   -7.4480841     81.72963  0.016984545   0.01655453           35 
  402000   0.64460406   -7.4528446    81.749638  0.016946442  0.016503456           28 
  403000    0.6155262   -7.4611133    81.638563  0.016881423  0.016452393           23 
  404000   0.62826016   -7.4508048    81.858039  0.016884909  0.016401539           21 
  405000   0.61766624   -7.4529142    81.867867   0.01684524  0.016350897           46 
  406000   0.61923133   -7.4683769    81.647227  0.016758462  0.016300263           72 
  407000   0.61591644   -7.4270584    81.876525  0.016764235   0.01624981           43 
  408000   0.61991728   -7.4732263    81.755957  0.016698521  0.016199383           38 
  409000   0.61615262   -7.4599668    81.663316  0.016638817   0.01614913           25 
  410000   0.62491099   -7.4592438    81.775023   0.01662094  0.016099029           24 
  411000   0.61295928   -7.4842547    81.793633  0.016584273  0.016049055           24 
  412000   0.59885247    -7.482129    81.781889  0.016541644  0.015999014           37 
  413000   0.62155874   -7.4814852    81.694885  0.016484036  0.015949141           22 
  414000   0.61626299   -7.4931681    81.579413  0.016420977  0.015899335           39 
  415000   0.61223856   -7.4803107    81.569477  0.016379413  0.015849571           28 
  416000   0.60926736   -7.4905458    81.801307   0.01638648  0.015799985           35 
  417000   0.58503495   -7.5127028    81.704743  0.016327886  0.015750731           34 
  418000   0.60699414   -7.5302781    81.549187  0.016257812  0.015701583           51 
  419000   0.60526596   -7.4821241    81.631522  0.016235386  0.015652581           47 
  420000   0.60485505   -7.4985762    81.615017  0.016193456  0.015603728           40 
  421000   0.61127903   -7.5083233    81.683551  0.016168557  0.015555024           33 
  422000   0.60335534   -7.5125677    81.810617  0.016155335  0.015506536           22 
  423000     0.584426   -7.5299322    81.750574  0.016105314  0.015458221           24 
  424000   0.59820901   -7.5112353    81.662609  0.016050041  0.015409986           14 
  425000   0.59144402   -7.4996862    81.682534  0.016016183  0.015361897           24 
  426000   0.59530993   -7.5221143    81.834154  0.016008246   0.01531402           13 
  427000   0.58221976   -7.5167106    81.601282  0.015925309  0.015266157           31 
  428000   0.59718744   -7.5403318    81.662788  0.015900076   0.01521841           30 
  429000   0.57699061    -7.530171    81.660337  0.015862536  0.015170703           23 
  430000   0.56248576   -7.5353045    81.754341  0.015843865  0.015123175           29 
  431000   0.58593307   -7.5351523     81.63745  0.015784503  0.015075743           33 
  432000   0.58010545   -7.5507824    81.547453  0.015730604  0.015028518           46 
  433000   0.58382756   -7.5414877    81.575177  0.015699611  0.014981416           27 
  434000   0.56678377   -7.5399228    81.546752  0.015657978  0.014934456           46 
  435000   0.58399674   -7.5687789    81.575545  0.015627499  0.014887716           37 
  436000    0.5810353   -7.5600483    81.501867  0.015577574  0.014841036           38 
  437000   0.56184805    -7.572264    81.724651  0.015584411  0.014794562           35 
  438000   0.57698296     -7.57921    81.525963  0.015511028  0.014748329           58 
  439000   0.57014493   -7.5673982    81.609612  0.015491574   0.01470221           58 
  440000   0.57287547   -7.5779425    81.516715  0.015438772  0.014656194           56 
  441000   0.55644144   -7.5596528    81.538048  0.015407794  0.014610371           57 
  442000    0.5659432   -7.5715581    81.649367  0.015393923  0.014564654           55 
  443000   0.55578082   -7.5961897    81.504656  0.015331952  0.014519111           41 
  444000    0.5623105   -7.5887419    81.533291  0.015302795  0.014473603           30 
  445000   0.54734132     -7.59572    81.547758  0.015271116  0.014428237           44 
  446000   0.55453815   -7.6008945    81.453016  0.015219173   0.01438312           21 
  447000   0.56255355   -7.5857882    81.313103  0.015159042  0.014338099           32 
  448000   0.54433312   -7.5986208    81.528891  0.015165344  0.014293078           24 
  449000   0.55300034   -7.6030592    81.433351  0.015113836  0.014248212           43 
  450000   0.55589857   -7.6011192    81.568671  0.015105309  0.014203529           29 
  451000   0.54309595   -7.6086653    81.422512   0.01504481  0.014158949           48 
  452000   0.54998965   -7.6170124    81.422925  0.015011601  0.014114596           54 
  453000   0.54015031   -7.6196703    81.329285  0.014961237  0.014070314           63 
  454000   0.53273402   -7.6168038    81.277595  0.014918795  0.014026288           46 
  455000   0.55241715   -7.6183676     81.39801   0.01490806  0.013982347           33 
  456000   0.55046999   -7.6044971     81.41061   0.01487767  0.013938679           25 
  457000    0.5383999   -7.6279653    81.350693  0.014834189  0.013895061           40 
  458000   0.52947761   -7.6192886    81.362158  0.014803886  0.013851602           31 
  459000   0.54437825   -7.6175454    81.466214  0.014790525  0.013808356           41 
  460000   0.53754761   -7.6220298    81.292967  0.014726987  0.013765197           33 
  461000   0.53201526   -7.6188927    81.464888  0.014726119  0.013722266           26 
  462000   0.53531773   -7.6319064    81.268535  0.014658827  0.013679436           32 
  463000   0.52065743   -7.6289482    81.313288  0.014635221  0.013636765           32 
  464000   0.52582972   -7.6421726    81.271658  0.014596203  0.013594242           25 
  465000   0.52746272   -7.6324764    81.367275  0.014581949   0.01355179           40 
  466000   0.51966934   -7.6447905    81.433796  0.014562553  0.013509433           21 
  467000   0.51371513   -7.6312379    81.311006  0.014509459  0.013467254           54 
  468000   0.51602799     -7.65862    81.268552  0.014470896  0.013425221           44 
  469000   0.50739254   -7.6543071    81.389968  0.014461615   0.01338342           41 
  470000      0.51676   -7.6651418     81.21384  0.014399617  0.013341649           56 
  471000   0.51091358   -7.6602326    81.295148   0.01438343  0.013300031           31 
  472000   0.51500258   -7.6622114    81.218662  0.014339453  0.013258543           56 
  473000   0.50954856   -7.6780319    81.160482  0.014298887  0.013217252           64 
  474000    0.5084537   -7.6492123    81.211583  0.014277704  0.013176067           52 
  475000   0.50163595   -7.6605124    81.154417  0.014237617  0.013134987           49 
  476000   0.51480055   -7.6790369    81.236354  0.014222051  0.013094055           60 
  477000   0.50555721   -7.6792899    81.156984  0.014178369   0.01305328           25 
  478000   0.50054498   -7.6868366    81.073838  0.014134212  0.013012595           40 
  479000   0.50659758   -7.6846767    81.258398  0.014136812  0.012971968           26 
  480000   0.50451033   -7.6677325    81.164268  0.014091019  0.012931624           39 
  481000   0.49937522   -7.6897735    81.188121  0.014065856  0.012891372           31 
  482000   0.49641658   -7.6892035    81.200022  0.014038731  0.012851318           37 
  483000   0.49287995   -7.7112953    81.175391  0.014005416  0.012811352           26 
  484000   0.49613885   -7.6976491    81.106671  0.013964647  0.012771501           24 
  485000   0.49403787   -7.7063266    81.239101  0.013958608  0.012731851           36 
  486000    0.4841203    -7.683892    81.077659  0.013902205  0.012692337           34 
  487000   0.47568534   -7.6996385    81.100432  0.013877555  0.012652987           30 
  488000   0.48422088   -7.6958375    81.160027  0.013859294  0.012613704           23 
  489000   0.48759599   -7.6998538    81.228236  0.013842576  0.012574622           38 
  490000   0.48346502    -7.701793    81.110079  0.013794231   0.01253566           50 
  491000   0.47339629   -7.6838659     81.12912  0.013769369  0.012496865           38 
  492000   0.47817987   -7.7040821    81.121109  0.013740025  0.012458278           27 
  493000   0.47251241   -7.7129583      81.1158  0.013711258  0.012419818           40 
  494000   0.46971525   -7.7235551    80.932125  0.013652518  0.012381391           23 
  495000    0.4777614   -7.7188209     81.10156  0.013653461  0.012343137           76 
  496000   0.48613212   -7.7338873    81.139244  0.013632265  0.012304999           44 
  497000   0.47102749    -7.714995    81.125552  0.013602541   0.01226704           25 
  498000   0.46445375   -7.7194224    81.019831  0.013557535  0.012229247           67 
  499000   0.47148106   -7.7242671    81.040662  0.013533845    0.0121916           44 
  500000   0.47484137   -7.7084608    80.907312  0.013484552  0.012154069           33 
  501000   0.46848468   -7.7252215    81.064249  0.013483741  0.012116666           50 
  502000   0.46651123   -7.7189642    80.908736  0.013431065  0.012079388           31 
  503000   0.47302085   -7.7398725    81.115624  0.013438639  0.012042229           31 
  504000   0.46881786   -7.7323397    80.826075    0.0133641  0.012005268           30 
  505000   0.45875013   -7.7287948    81.051872  0.013374896  0.011968389           47 
  506000   0.47171008   -7.7201996    80.962747  0.013333786   0.01193168           45 
  507000   0.46418384   -7.7220856    80.932219  0.013302469  0.011895135           48 
  508000     0.464541   -7.7301241    80.966326  0.013281878  0.011858763           47 
  509000   0.45104373   -7.7513874    80.844941   0.01323591  0.011822429           55 
  510000   0.45306005   -7.7633728    81.087095  0.013249525  0.011786333           35 
  511000   0.46515739   -7.7460432    81.098774  0.013225501   0.01175039           28 
  512000   0.46006142   -7.7558043    80.973032  0.013179204  0.011714603           39 
Loop time of 1092.23 on 48 procs for 500000 steps with 4000 atoms

Performance: 79104.557 tau/day, 457.781 timesteps/s
99.4% CPU use with 48 MPI tasks x no OpenMP threads

MPI task timing breakdown:
Section |  min time  |  avg time  |  max time  |%varavg| %total
---------------------------------------------------------------
Pair    | 66.87      | 71.177     | 73.945     |  21.0 |  6.52
Neigh   | 6.6897     | 6.9782     | 7.2257     |   4.6 |  0.64
Comm    | 59.296     | 64.585     | 70.372     |  30.4 |  5.91
Output  | 0.86665    | 0.86705    | 0.876      |   0.1 |  0.08
Modify  | 930.66     | 936.43     | 941.72     |   8.2 | 85.74
Other   |            | 12.19      |            |       |  1.12

Nlocal:        83.3333 ave          90 max          75 min
Histogram: 1 2 3 4 10 4 10 4 6 4
Nghost:        1816.58 ave        1843 max        1792 min
Histogram: 3 3 7 6 7 9 3 2 4 4
Neighs:        11173.0 ave       12580 max        9463 min
Histogram: 1 4 2 5 8 6 11 4 1 6
FullNghs:      22346.2 ave       24679 max       19673 min
Histogram: 1 3 3 5 9 12 4 5 3 3

Total # of neighbors = 1072619
Ave neighs/atom = 268.15475
Neighbor list builds = 26950
Dangerous builds = 0

#clear
#
#next RN
#
#jump SELF
Total wall time: 0:18:15
