
units lj                  # Use reduced LJ style units
atom_style atomic         # Uncharged point particles
atom_modify map hash      # Needed for indexing of clusters etc
                          # Used to be able to find where atoms are in relation to each other.

lattice fcc 1.0 spacing 1 1 1
Lattice spacing in x,y,z = 1.5874011 1.5874011 1.5874011
region box block 0 10 0 10 0 10 units lattice
create_box 2 box
Created orthogonal box = (0.0000000 0.0000000 0.0000000) to (15.874011 15.874011 15.874011)
  3 by 4 by 4 MPI processor grid
create_atoms 1 box
Created 4000 atoms
  using lattice units in orthogonal box = (0.0000000 0.0000000 0.0000000) to (15.874011 15.874011 15.874011)
  create_atoms CPU = 0.003 seconds
set type 1 type/fraction 2 0.35 78393
Setting atom values ...
  1418 settings made for type/fraction
mass 1 1.0
mass 2 1.0
pair_style lj/cut  3.5
pair_modify tail  yes
pair_coeff 1  1  1.0  1.0   # Intearaction between 1 and 1 set with epsilon = 1 and sigma = 1
pair_coeff 1  2  1.5  0.8
pair_coeff 2  2  0.5  0.88

write_data data.0
System init for write_data ...
Neighbor list info ...
  update every 1 steps, delay 10 steps, check yes
  max neighbors/atom: 2000, page size: 100000
  master list distance cutoff = 3.8
  ghost atom cutoff = 3.8
  binsize = 1.9, bins = 9 9 9
  1 neighbor lists, perpetual/occasional/extra = 1 0 0
  (1) pair lj/cut, perpetual
      attributes: half, newton on
      pair build: half/bin/atomonly/newton
      stencil: half/bin/3d
      bin: standard
WARNING: Not all mixed pair coeffs generated from mixing. Use write_data with 'pair ij' option to store all pair coeffs. (../write_data.cpp:312)


#############################
#   M E L T   S Y S T E M   #
#############################

velocity all create 2.4 3143649 mom yes dist gaussian # Assign velocities
                                                    # Temperature 2.4, random number seed, zero linear momentum
                                                                                # Gaussian distribution

timestep 0.002   # simulation timestep
thermo 1000       # output thermodynamic data every 1000 steps bf 100

# Define a fix  in this case with index 1 applied to all
# particles in the simulation. This fix is for simulations
# in the anisotropic NPT ensemble. Note that we use the MTK
# correction.
fix 1 all npt temp 2.4 2.4 0.1 iso 5.68 5.68 0.5 mtk yes tchain 5 pchain 5 # Use NPT ensemble
                                                                         # Set temperature and pressure and damping
                                                                         # Numbers of thermostats in chain and in barostat
run 10000          # run for 10000 steps
Per MPI rank memory allocation (min/avg/max) = 3.642 | 3.644 | 3.648 Mbytes
Step Temp E_pair E_mol TotEng Press Volume 
       0          2.4   -6.1483103            0   -2.5492103   -4.0910289         4000 
    1000    2.3691332   -4.9715801            0   -1.4187686    6.0974264     4002.608 
    2000    2.4431333   -5.0074025            0   -1.3436187    5.4505513    4053.2382 
    3000    2.4548476    -5.051849            0   -1.3704982    5.9934754    3984.0423 
    4000    2.3869195   -5.0555204            0   -1.4760362    5.7286995    3998.5395 
    5000    2.4319648   -4.9574058            0   -1.3103707    6.0136842    4021.4151 
    6000    2.4085554   -5.0585546            0   -1.4466247    5.6920854    3996.0174 
    7000     2.395125   -5.0949261            0   -1.5031368    5.4490622    4004.6259 
    8000    2.4022046   -5.0470545            0   -1.4446485    5.7728154    4001.5464 
    9000    2.4202795   -5.0440519            0   -1.4145402    5.5908918    4017.6915 
   10000    2.3741948   -5.0075642            0   -1.4471623    5.9124188    4001.8412 
Loop time of 2.52632 on 48 procs for 10000 steps with 4000 atoms

Performance: 683998.175 tau/day, 3958.323 timesteps/s
99.6% CPU use with 48 MPI tasks x no OpenMP threads

MPI task timing breakdown:
Section |  min time  |  avg time  |  max time  |%varavg| %total
---------------------------------------------------------------
Pair    | 1.0765     | 1.1487     | 1.3108     |   4.0 | 45.47
Neigh   | 0.20434    | 0.21419    | 0.23734    |   1.3 |  8.48
Comm    | 0.7448     | 0.88048    | 0.99601    |   7.4 | 34.85
Output  | 0.0002434  | 0.00024791 | 0.00031435 |   0.0 |  0.01
Modify  | 0.19201    | 0.26763    | 0.3419     |  10.5 | 10.59
Other   |            | 0.01509    |            |       |  0.60

Nlocal:        83.3333 ave          93 max          74 min
Histogram: 2 1 7 6 8 7 11 3 2 1
Nghost:        1646.33 ave        1676 max        1617 min
Histogram: 1 4 4 6 9 9 7 3 3 2
Neighs:        9534.54 ave       10876 max        8150 min
Histogram: 2 2 4 7 8 9 7 4 4 1

Total # of neighbors = 457658
Ave neighs/atom = 114.41450
Neighbor list builds = 906
Dangerous builds = 194

# Equilibrate just above the melting temperature to avoid step fn in T

fix 1 all npt temp 1.25 1.25 0.1 iso 5.68 5.68 0.5 mtk yes tchain 5 pchain 5
run 2000
Per MPI rank memory allocation (min/avg/max) = 3.643 | 3.645 | 3.649 Mbytes
Step Temp E_pair E_mol TotEng Press Volume 
   10000    2.3741948   -5.0075642            0   -1.4471623    5.9124188    4001.8412 
   11000    1.2372354   -6.9714122            0   -5.1160231     5.847027    3199.4108 
   12000     1.252562   -6.9686957            0   -5.0903224     5.789732    3202.1151 
Loop time of 0.589386 on 48 procs for 2000 steps with 4000 atoms

Performance: 586373.404 tau/day, 3393.365 timesteps/s
99.6% CPU use with 48 MPI tasks x no OpenMP threads

MPI task timing breakdown:
Section |  min time  |  avg time  |  max time  |%varavg| %total
---------------------------------------------------------------
Pair    | 0.2599     | 0.28239    | 0.30134    |   2.0 | 47.91
Neigh   | 0.038651   | 0.041028   | 0.043173   |   0.6 |  6.96
Comm    | 0.19551    | 0.21573    | 0.24185    |   2.5 | 36.60
Output  | 5.45e-05   | 5.6338e-05 | 7.1525e-05 |   0.0 |  0.01
Modify  | 0.042202   | 0.045393   | 0.049215   |   0.9 |  7.70
Other   |            | 0.004791   |            |       |  0.81

Nlocal:        83.3333 ave          90 max          75 min
Histogram: 1 0 3 4 8 6 16 3 5 2
Nghost:        1912.25 ave        1939 max        1885 min
Histogram: 2 5 4 8 3 6 9 7 1 3
Neighs:        11931.9 ave       13533 max       10318 min
Histogram: 1 0 4 9 12 10 7 2 2 1

Total # of neighbors = 572733
Ave neighs/atom = 143.18325
Neighbor list builds = 144
Dangerous builds = 11

#############################
# L I N E A R  Q U E N C H  #
#############################

# Define solid atoms. This closely follows ten Wolde  Ruiz-Montero and Frenkel  Faraday Discuss  1996  104  93-110
# Compute components of the per-atom q6 vector
compute q6 all orientorder/atom degrees 1 6 components 6 nnn NULL cutoff 1.3 # compute the Q6 parameter.
                                                                             # Use all neighbours within 1.3 unit cell.

# get number of connections
compute coord_number all coord/atom orientorder q6 0.5

# An atom is solid if it has 8 or more connections (of a possible 14)
variable is_solid atom c_coord_number>=8
group solid dynamic all var is_solid    # Must be dynamic to update
dynamic group solid defined

# do clustering
compute cluster solid cluster/atom 1.3 # Create a cluster where all atoms within are solid and max 1.3 units from another member

# define chunks one chunk per cluster
compute clus_chunks solid chunk/atom c_cluster nchunk every compress yes  # Says which atoms are in which chunk

# count the size of each chunk
compute size_chunks solid property/chunk clus_chunks count


# Find the maximum entry in the vector of chunk sizes
variable max_n equal max(c_size_chunks)


# Thermo style which includes this variable
# thermo_style custom step temp pe vol v_max_n

thermo ${N}  # Print the thermo information every 100 steps
thermo 1000  

# Reset the npt fix at a lower temperature (below freezing)
fix 1  all npt temp  ${temp} ${temp}  0.1  iso  5.68  5.68  0.5  mtk yes tchain  5  pchain  5
fix 1  all npt temp  0.45 ${temp}  0.1  iso  5.68  5.68  0.5  mtk yes tchain  5  pchain  5
fix 1  all npt temp  0.45 0.45  0.1  iso  5.68  5.68  0.5  mtk yes tchain  5  pchain  5

dump dmp2 all dcd ${N} traj.dcd
dump dmp2 all dcd 1000 traj.dcd


compute msd all msd com yes
variable twopoint equal c_msd[4]/6/(step*dt+1.0e-6)
fix 9 all vector 10 c_msd[4]
variable fit equal slope(f_9)/6/(10*dt)
thermo_style custom step temp pe c_msd[4] v_twopoint v_fit v_max_n

fix 1 all npt temp 1.25 ${temp} 0.1 iso 5.68 5.68 0.5 mtk yes tchain 5 pchain 5
fix 1 all npt temp 1.25 0.45 0.1 iso 5.68 5.68 0.5 mtk yes tchain 5 pchain 5
run 500000 # 5000000  # Run for this many steps
Neighbor list info ...
  update every 1 steps, delay 10 steps, check yes
  max neighbors/atom: 2000, page size: 100000
  master list distance cutoff = 3.8
  ghost atom cutoff = 3.8
  binsize = 1.9, bins = 8 8 8
  4 neighbor lists, perpetual/occasional/extra = 1 3 0
  (1) pair lj/cut, perpetual
      attributes: half, newton on
      pair build: half/bin/atomonly/newton
      stencil: half/bin/3d
      bin: standard
  (2) compute orientorder/atom, occasional
      attributes: full, newton on
      pair build: full/bin/atomonly
      stencil: full/bin/3d
      bin: standard
  (3) compute coord/atom, occasional
      attributes: full, newton on
      pair build: full/bin/atomonly
      stencil: full/bin/3d
      bin: standard
  (4) compute cluster/atom, occasional
      attributes: full, newton on
      pair build: full/bin/atomonly
      stencil: full/bin/3d
      bin: standard
Per MPI rank memory allocation (min/avg/max) = 9.816 | 9.824 | 9.831 Mbytes
Step Temp PotEng c_msd[4] v_twopoint v_fit v_max_n 
   12000     1.252562   -6.9686957            0            0 8.3333333e+20            1 
   13000    1.2318019   -7.0296702   0.49717182 0.0031869987  0.040961014            1 
   14000    1.2518176   -7.0338735   0.95331967 0.0056745216  0.039022952            1 
   15000    1.2224778   -7.0563818    1.4165392 0.0078696617  0.038618192            1 
   16000    1.2557091   -7.0372662    1.8414531 0.0095909013  0.038291407            2 
   17000    1.2440145   -7.0379053    2.2866485  0.011209061  0.037680366            1 
   18000    1.2632068   -7.0497249    2.6825948   0.01241942  0.037282182            1 
   19000    1.2459975   -7.0366618    3.1537796  0.013832367  0.036915327            2 
   20000    1.2645478   -7.0374146    3.5712578   0.01488024  0.036937577            1 
   21000    1.2096437   -7.0064113      3.98606  0.015817698  0.036687402            1 
   22000    1.2469102   -7.0940975    4.3918391  0.016635754  0.036496909            2 
   23000    1.2041746   -7.0195431    4.8254762  0.017483609  0.036210895            2 
   24000    1.2651676   -7.0412314     5.241987  0.018201343   0.03600745            1 
   25000    1.2259741   -7.0560432    5.6849929  0.018949976  0.035877918            2 
   26000    1.2294187   -7.0570271    6.0935502  0.019530609  0.035852604            1 
   27000    1.1967669   -7.0636559     6.594331  0.020352873  0.035902805            1 
   28000    1.2350067   -7.0456961    7.0709322  0.021044441  0.035967891            1 
   29000    1.2447465   -7.0535315    7.4532389  0.021417353  0.036032444            3 
   30000    1.2386339   -7.0477833    7.9223528  0.022006535  0.036054617            1 
   31000     1.212166   -7.0722108    8.4592314  0.022739869  0.036169979            1 
   32000    1.2101591   -7.0760463    8.8351756  0.023008269  0.036255961            2 
   33000    1.2025728    -7.080676     9.295424  0.023473293  0.036338065            1 
   34000    1.2165828   -7.0803529    9.6404648   0.02362859  0.036363851            2 
   35000     1.194156   -7.0660035    10.084562  0.024010861  0.036329236            3 
   36000    1.1940831   -7.1015752    10.462797  0.024219437   0.03627039            1 
   37000    1.2136501   -7.0769659    10.856134  0.024450752  0.036194324            2 
   38000     1.231275   -7.0812665    11.255177  0.024682406   0.03609438            1 
   39000    1.2080073   -7.1028142    11.693627  0.024986383  0.036014497            1 
   40000    1.1834744   -7.0560675    12.083445  0.025173844   0.03595813            2 
   41000    1.1962999   -7.1276237    12.329039  0.025059023  0.035851658            1 
   42000    1.1984375   -7.1200843    12.760895  0.025319236  0.035699391            2 
   43000    1.1877783   -7.1373421    13.172869  0.025528815   0.03558182            4 
   44000    1.2044545   -7.0946507    13.532779  0.025630263   0.03546085            1 
   45000    1.1953488   -7.1148922       13.966  0.025862964  0.035352391            2 
   46000    1.2100878   -7.1521814    14.335874  0.025970786  0.035241291            2 
   47000    1.1727531   -7.0769949    14.824556  0.026284673  0.035167202            1 
   48000    1.1857279   -7.1138578    15.125542  0.026259621  0.035086594            1 
   49000    1.1969444   -7.1399982    15.488434  0.026340873  0.034982732            1 
   50000     1.194567   -7.1291008    15.970967  0.026618278  0.034907719            2 
   51000    1.1831225   -7.1835738    16.279014  0.026599695  0.034821998            1 
   52000    1.1952333   -7.1864243    16.563617  0.026544257  0.034728459            1 
   53000     1.179047   -7.1434594    16.991929  0.026716869  0.034627111            1 
   54000    1.1684183   -7.1388406    17.331208  0.026745691  0.034530944            1 
   55000    1.1630304    -7.171757    17.743943  0.026884761  0.034428228            1 
   56000    1.1941002   -7.1094738    18.086535  0.026914486  0.034318468            1 
   57000    1.1920658   -7.2356974    18.415848  0.026923755  0.034214058            2 
   58000    1.1875527   -7.1732386    18.959952   0.02724131  0.034124058            3 
   59000    1.1684619   -7.1534934    19.283714  0.027236884  0.034046203            2 
   60000    1.1676019   -7.1677953    19.557902  0.027163753  0.033963652            1 
   61000    1.1763151   -7.1762546     19.79787  0.027046271  0.033863007            1 
   62000    1.1595592    -7.154799    20.114489  0.027035603  0.033750001            2 
   63000    1.1448466   -7.1580248    20.539891  0.027169167  0.033637051            1 
   64000    1.1481434   -7.1963196     20.79586  0.027077943  0.033528796            1 
   65000    1.1653994   -7.2215676    21.079332  0.027024784  0.033418224            2 
   66000    1.1553206   -7.1977262    21.445479  0.027077625  0.033299198            1 
   67000    1.1693837   -7.1889778    21.837227  0.027160729  0.033193849            1 
   68000    1.1626113    -7.164658    22.290025  0.027316206  0.033092452            1 
   69000    1.1649771   -7.1919221    22.636073  0.027338252   0.03300468            1 
   70000    1.1493677   -7.1922391    23.051636  0.027442423  0.032923198            1 
   71000    1.1530638   -7.2064291    23.473208  0.027550714  0.032859981            2 
   72000    1.1605129   -7.2046669    23.818056  0.027567194  0.032799677            2 
   73000    1.1401532    -7.177253    24.179457   0.02760212  0.032738279            1 
   74000    1.1313033   -7.2578319    24.436258  0.027518309  0.032677658            2 
   75000    1.1260069   -7.2741062    24.978292  0.027753658  0.032611263            1 
   76000    1.1397296    -7.227493    25.259369  0.027696677  0.032553678            1 
   77000     1.143608   -7.2439654     25.69262  0.027805865  0.032502374            2 
   78000    1.1451103   -7.2171836    26.052786  0.027834173  0.032458893            1 
   79000     1.147561   -7.2510641    26.420058  0.027869259  0.032409386            5 
   80000    1.1545314   -7.2397327    26.763429  0.027878571  0.032365224            1 
   81000    1.1215929   -7.2664657    27.182678  0.027965718  0.032319816            1 
   82000    1.1242931   -7.2185344    27.529342  0.027976974  0.032280087            1 
   83000    1.1404698   -7.2608144    27.707213  0.027818487   0.03223553            1 
   84000      1.12346   -7.2495988    27.939009  0.027717271  0.032178351            2 
   85000    1.1296768   -7.2646563    28.263552  0.027709365   0.03210833            2 
   86000    1.1327622   -7.2706011    28.549619   0.02766436  0.032040571            2 
   87000    1.1181571     -7.23094    28.859444  0.027643145  0.031963363            3 
   88000    1.1366002   -7.2562743    29.050619  0.027510055  0.031883361            5 
   89000    1.1178524   -7.2872035    29.238576  0.027376944  0.031795119            2 
   90000     1.136493   -7.3074111    29.637717  0.027442331  0.031706924            1 
   91000    1.1061187    -7.270357    29.887675  0.027369665  0.031616476            2 
   92000    1.1432197   -7.2783711    30.156261  0.027315453  0.031520913            2 
   93000    1.1163193   -7.2996756    30.416659  0.027255071  0.031431677            1 
   94000     1.132089   -7.2834136    30.808652  0.027312634  0.031342625            2 
   95000     1.131894   -7.2832133    31.152236  0.027326522  0.031259111            1 
   96000     1.113719   -7.3089813    31.377893  0.027237754  0.031175545            1 
   97000    1.0997688   -7.2955583    31.687684  0.027223096  0.031090164            2 
   98000    1.1199021   -7.3023559    31.987268  0.027200058   0.03100605            2 
   99000     1.110971    -7.314047    32.199305  0.027103792  0.030920867            1 
  100000    1.1154123   -7.3004101    32.309829  0.026924857  0.030829072            1 
  101000    1.1059214   -7.3231818    32.666375  0.026952455  0.030733441            1 
  102000    1.1057351   -7.3184159    33.005907  0.026965611   0.03064272            3 
  103000      1.09161   -7.2882634    33.255696  0.026905903  0.030554876            1 
  104000     1.104302    -7.347504    33.457706  0.026809059  0.030465825            1 
  105000    1.1146863   -7.3413282    33.714123   0.02675724  0.030374622            4 
  106000    1.0856093   -7.3541726    33.959911  0.026698043  0.030280613            2 
  107000    1.0830441   -7.3480858    34.228842  0.026657976  0.030189814            1 
  108000    1.0897809   -7.3440772    34.623409  0.026715593  0.030102313            1 
  109000    1.0868924   -7.3246391    34.894921  0.026678074  0.030018943            2 
  110000    1.0907888   -7.3941581    35.060702  0.026561138  0.029932283            1 
  111000    1.0814532   -7.3256585    35.353681  0.026541802  0.029843596            2 
  112000    1.0876821   -7.3927795    35.548898  0.026450073  0.029755109            1 
  113000    1.1031245   -7.3990746    35.988648  0.026540301  0.029667999            1 
  114000    1.0930631   -7.3397021    36.098425  0.026387738  0.029579239            1 
  115000      1.06393   -7.3551022    36.410518  0.026384433  0.029490225            1 
  116000    1.0777086   -7.4123451    36.534906   0.02624634  0.029400366            1 
  117000    1.0926841   -7.3785457    36.876572  0.026265365  0.029312264            1 
  118000    1.0706312   -7.4161461    37.178149  0.026255755  0.029230201            1 
  119000    1.1273979   -7.3855931    37.466005  0.026236698  0.029147927            1 
  120000    1.0722908   -7.3768907    37.937437  0.026345442  0.029074504            1 
  121000    1.0682305     -7.40637    38.152455  0.026275795  0.029003028            2 
  122000    1.0749196   -7.3950365     38.41974  0.026242992     0.028928            1 
  123000    1.0565041   -7.4271178    38.576259  0.026135677  0.028851715            2 
  124000    1.0601928   -7.3981035     38.94592  0.026173333  0.028778317            7 
  125000    1.0898693   -7.4044879    39.338428  0.026225619  0.028711962            3 
  126000    1.0647406   -7.3898274    39.502844   0.02612622  0.028642896            2 
  127000    1.0716851   -7.4362034    39.786788  0.026106816  0.028570847            2 
  128000    1.0504682   -7.4294069    39.884647  0.025966567  0.028496456            3 
  129000    1.0680795   -7.4464774    39.934384  0.025797405  0.028419873            1 
  130000    1.0491471   -7.4153922    40.522835  0.025976176   0.02834628            2 
  131000    1.0635465   -7.4161367    40.678887  0.025877154  0.028278168            1 
  132000    1.0748605   -7.4209507    40.849446  0.025788792  0.028207933            3 
  133000    1.0565171   -7.4234644     41.16557  0.025792964  0.028136423            2 
  134000    1.0344063   -7.4535046    41.371292  0.025728415  0.028064715            2 
  135000    1.0648202   -7.4566085    41.408779  0.025560975  0.027989701            2 
  136000    1.0446873    -7.434484    41.733065  0.025571731  0.027915395            1 
  137000    1.0392326   -7.4421569    42.036759  0.025569804  0.027844347            1 
  138000    1.0475342   -7.4741781    42.180927  0.025471574  0.027773659            1 
  139000    1.0616148   -7.4420561    42.577905  0.025526322  0.027701828            1 
  140000    1.0424729   -7.4562458    42.763883  0.025454692   0.02763153            2 
  141000    1.0415443   -7.4733214    42.910006  0.025360524  0.027559241            1 
  142000    1.0508132   -7.4716105    43.056789  0.025268068  0.027485047            1 
  143000    1.0375492   -7.4948817    43.289124  0.025226762  0.027410761            2 
  144000    1.0172929   -7.4361668    43.726363  0.025304608  0.027339062            2 
  145000     1.028991   -7.4890139    43.781294  0.025161663  0.027269455            2 
  146000    1.0300442   -7.5257825    44.170064  0.025211224  0.027200795            1 
  147000    1.0449626   -7.4872901    44.447139  0.025196791  0.027133468            1 
  148000     1.056377   -7.4596356    44.619265   0.02512346  0.027066514            3 
  149000    1.0358297   -7.5082225    44.716559  0.025009261  0.026999132            4 
  150000    1.0350085   -7.4856454    45.089526  0.025049737  0.026931069            1 
  151000     1.035073   -7.4898274    45.125923  0.024903931  0.026862792            2 
  152000    1.0479254   -7.4922854     45.40619  0.024893745  0.026796605            2 
  153000    1.0016383   -7.5244453    45.701421  0.024891841  0.026732074            3 
  154000    1.0137012   -7.5352027     45.79997  0.024783533   0.02666535            1 
  155000    1.0156185   -7.5512548    45.953543  0.024706206  0.026598628            3 
  156000    1.0062816   -7.5046512     46.23739   0.02469946  0.026531719            2 
  157000    1.0104244   -7.5314657     46.33674  0.024594873  0.026463861            3 
  158000     1.010629   -7.5072421    46.562808  0.024558443  0.026392772            1 
  159000    1.0192408   -7.5920181    46.572234  0.024408927  0.026321607            3 
  160000    1.0150876   -7.5630429    46.835891  0.024393693  0.026248175            3 
  161000    1.0014886   -7.5519405    46.829498   0.02423887  0.026175516            2 
  162000    1.0004497   -7.5718353    47.131181  0.024244435  0.026100907            2 
  163000    1.0117777   -7.5312157    47.420703  0.024243713  0.026028786            1 
  164000     1.028365   -7.5731543    47.561239  0.024167296  0.025957944            2 
  165000   0.99634359   -7.5175395    47.908645  0.024196285  0.025887281            2 
  166000    1.0137393   -7.5739694    47.928816   0.02406065  0.025815161            2 
  167000    0.9992523   -7.5750494    47.938064   0.02392119  0.025741688            3 
  168000    1.0113313   -7.5469222    48.149885  0.023883872  0.025665159            2 
  169000   0.98701226   -7.5291931    48.269713  0.023801633   0.02559051            4 
  170000   0.99138136   -7.5984679    48.273435  0.023663448  0.025513407            1 
  171000   0.98132956   -7.5520509    48.379742  0.023576872  0.025435873            1 
  172000    1.0008116   -7.6072518    48.693999  0.023592054  0.025358076            1 
  173000   0.99927782   -7.6096422    48.977747  0.023592364  0.025281289            3 
  174000   0.98243568   -7.5955306    49.196586  0.023561583  0.025205124            2 
  175000   0.98567516   -7.6526095     49.29269  0.023472709   0.02513333            1 
  176000    0.9526008   -7.6048467     49.63836  0.023503011   0.02506188            1 
  177000   0.99444696   -7.5850677    49.842978  0.023466562  0.024991635            2 
  178000   0.98118128   -7.6426898    50.071055  0.023441505  0.024921369            1 
  179000   0.98703834   -7.6418016     50.12936  0.023337691  0.024849208            1 
  180000   0.98767475   -7.5753844    50.404906  0.023335605  0.024778311            2 
  181000   0.98773136   -7.6062418    50.317509   0.02316644  0.024706431            2 
  182000   0.95431935   -7.5965007    50.580022   0.02315935  0.024634606            1 
  183000   0.96056552   -7.6059101    50.617162  0.023049709  0.024560961            3 
  184000   0.96281656   -7.6539471    50.650294  0.022939445   0.02448787            1 
  185000   0.98151671   -7.6447205    50.841123  0.022901407   0.02441477            2 
  186000   0.95028373   -7.6173345    51.144346  0.022914133  0.024342356            3 
  187000   0.96511325   -7.6335739    51.210451  0.022821056  0.024270407            2 
  188000   0.95490154    -7.661127    51.400514  0.022783916  0.024199002            2 
  189000   0.99342531   -7.6561603    51.576691  0.022741045  0.024127692            2 
  190000   0.96457746   -7.6684908    51.868723   0.02274944  0.024056199            1 
  191000   0.95691374   -7.7008149    51.776271  0.022589996  0.023985611            2 
  192000   0.96202123   -7.6876802    52.128874  0.022625379  0.023915336            2 
  193000   0.97723458   -7.7028822    52.243281  0.022557548  0.023847592            1 
  194000    0.9619908   -7.6601073    52.337683  0.022481823  0.023779053            3 
  195000   0.97716675   -7.7004877    52.345234  0.022369758  0.023708997            5 
  196000   0.98515468    -7.659967    52.653007  0.022386482  0.023639863            1 
  197000   0.96229287   -7.6890332    52.797771  0.022334082  0.023571532            1 
  198000   0.94889934   -7.7053864    52.991104  0.022302653  0.023502781            5 
  199000   0.93930515   -7.6979201    52.994614  0.022192049  0.023433679            4 
  200000   0.97011811   -7.7371174    52.969377  0.022070574  0.023363997            2 
  201000    0.9437226   -7.7060526    53.133024  0.022028617  0.023294912            1 
  202000   0.95632157   -7.7374033    53.319671  0.021996564  0.023224572            4 
  203000   0.95477863   -7.7196793    53.443467  0.021939026  0.023153669            1 
  204000     0.949648   -7.7145222    53.509264   0.02185836  0.023081984            1 
  205000   0.93908116   -7.7325342    53.636815  0.021803583  0.023010374            2 
  206000   0.94084103   -7.7406663     53.75059  0.021743766  0.022938858            2 
  207000   0.93995971   -7.7373444    53.688166  0.021613593  0.022867619            1 
  208000    0.9189282   -7.7492918    53.975957  0.021624983  0.022797379            2 
  209000   0.91842384   -7.6947876    54.410906  0.021694938  0.022728759            2 
  210000   0.92487935    -7.740004    54.266221  0.021534215  0.022660168            5 
  211000    0.9235692   -7.7273926    54.581112  0.021556521  0.022592967            2 
  212000   0.92247822   -7.7772337    54.625149   0.02147215  0.022525598            1 
  213000   0.92863546   -7.7647429    54.820572  0.021447798  0.022458816            3 
  214000   0.90729998   -7.7406356    54.671217  0.021289415  0.022391566            2 
  215000   0.92265195     -7.77799    54.799876  0.021240262  0.022323063            2 
  216000   0.91245792   -7.7524292    54.931111  0.021192558  0.022255052            2 
  217000   0.92148769    -7.761705    55.092849  0.021157008   0.02218683            2 
  218000   0.92246703   -7.7695901    55.086581  0.021057562  0.022117777            4 
  219000   0.91724062    -7.754333    55.353169   0.02106285  0.022049131            1 
  220000   0.92341973   -7.7741076    55.239183  0.020923933  0.021981419            3 
  221000    0.9166857   -7.7844373    55.450948  0.020909105  0.021913666            1 
  222000   0.89467047   -7.7737878    55.581353  0.020863871  0.021846521            1 
  223000   0.90367471     -7.78777    55.611659  0.020781636  0.021779278            2 
  224000   0.92323676   -7.7810762    55.916331  0.020802207  0.021712209            4 
  225000   0.91549847   -7.7850316    55.937281  0.020717511  0.021644901            2 
  226000   0.90278297   -7.8235726    55.887373  0.020607438   0.02157682            1 
  227000   0.91003433   -7.7931161    56.253187   0.02065095  0.021509781            3 
  228000   0.91694985   -7.8161196    56.403988  0.020615493  0.021443336            2 
  229000   0.89322953   -7.8159184     56.39406  0.020521856  0.021377653            1 
  230000    0.8865753   -7.8564069    56.485203  0.020465653  0.021311585            1 
  231000   0.89941185   -7.8256399    56.422065   0.02035428  0.021245602            3 
  232000    0.8837007   -7.8310056    56.658712  0.020351549  0.021179573            2 
  233000   0.89285841   -7.8145968    56.862527  0.020337098  0.021114693            6 
  234000   0.88761836   -7.8363406     56.80742  0.020230563  0.021050052            2 
  235000   0.88994215   -7.8695105    56.891629  0.020174336  0.020984861            2 
  236000   0.90051173   -7.8161773    57.121801  0.020170127  0.020920099            1 
  237000   0.89446326   -7.7694735    57.407219  0.020185379  0.020856846            4 
  238000   0.88906782   -7.8352254    57.500419    0.0201332  0.020794442            3 
  239000   0.91300776   -7.8527826    57.456249   0.02003356  0.020732133            2 
  240000   0.86626676   -7.8416587    57.501113  0.019965664  0.020669815            1 
  241000   0.87977186   -7.8594974    57.643442  0.019932034  0.020606788            4 
  242000   0.89203228   -7.8773437    57.623816  0.019842912  0.020543881            1 
  243000   0.89558467   -7.8789585    57.836436  0.019834169  0.020480159            2 
  244000   0.85039545   -7.8629166    57.826573  0.019749513   0.02041685            3 
  245000   0.86759295   -7.8559717    57.875849  0.019685663  0.020353521            3 
  246000    0.8866905   -7.8841937     58.04823  0.019664035  0.020290656            2 
  247000   0.88356236   -7.8942318    58.166207  0.019624226  0.020228556            1 
  248000   0.86204293   -7.8694843    58.279672  0.019583223   0.02016683            2 
  249000   0.87508223    -7.912778     58.17107   0.01946823  0.020104407            3 
  250000   0.86687178   -7.9004099    58.211141  0.019403714  0.020041358            2 
  251000   0.86625308   -7.9143277    58.332171  0.019366591  0.019977919            2 
  252000   0.85745542   -7.9206035    58.452394  0.019329495  0.019914732            2 
  253000    0.8774669   -7.8972817    58.596647  0.019300608  0.019851921            2 
  254000    0.8546756    -7.881314    58.389504  0.019156661  0.019789421            3 
  255000   0.85002237    -7.908074    58.588913  0.019146704  0.019726385            2 
  256000   0.85495827   -7.8854022    58.750134  0.019124393  0.019663891            2 
  257000   0.87784137   -7.9007757    58.675484  0.019025773  0.019601455            2 
  258000   0.85115159   -7.9423844    58.860433  0.019011768  0.019539161            1 
  259000   0.84140547   -7.9466101    58.956153  0.018969161  0.019476887            4 
  260000   0.84531814   -7.9516032    58.896593  0.018877113  0.019415364            1 
  261000   0.84836456   -7.9476721     59.06084  0.018857228  0.019354111            1 
  262000   0.84016097   -7.9533198    59.073744  0.018789359  0.019293284            1 
  263000   0.85029701   -7.9395129     59.17072  0.018748644  0.019232153            2 
  264000   0.85625674   -7.9568231    59.225585  0.018694945  0.019171411            2 
  265000   0.85492725   -7.9667787    59.373529  0.018670921  0.019111104            2 
  266000   0.83973933   -7.9500735    59.312466    0.0185816  0.019050024            1 
  267000   0.82075427   -7.9657842    59.334118  0.018518763  0.018988944            4 
  268000   0.83649436   -7.9721532    59.269457  0.018429558  0.018927534            2 
  269000   0.83756664    -7.984369    59.268481  0.018360744  0.018865981            2 
  270000   0.83853307   -8.0160077     59.49545  0.018362793  0.018804285            2 
  271000   0.84964068   -7.9970259    59.463745  0.018285284  0.018742336            2 
  272000     0.833428   -7.9858176    59.630468  0.018269139  0.018680935            1 
  273000   0.82444364   -8.0025363    59.433025  0.018141949  0.018619724            1 
  274000   0.83007786    -7.965483    59.504445  0.018097459  0.018558268            1 
  275000    0.8263703   -7.9985614     59.52868  0.018038994  0.018496572            4 
  276000   0.81376225   -8.0029245    59.545079  0.017978586  0.018434972            3 
  277000   0.82608781     -7.98547      59.6026  0.017930987  0.018373623            2 
  278000   0.83517105   -7.9925742     59.68578  0.017891421  0.018312492            2 
  279000   0.82188372   -8.0225224    59.811166  0.017864745  0.018251539            2 
  280000   0.81538157   -8.0252974    59.722592  0.017774581  0.018190751            1 
  281000   0.83015335    -8.033008    59.878525   0.01775757  0.018129601            1 
  282000   0.81187179   -8.0169033    60.064357  0.017749514  0.018069262            1 
  283000   0.80782606   -8.0235158    60.003881  0.017668987   0.01800943            3 
  284000   0.82745214    -8.059048    60.002969  0.017606505  0.017949355            2 
  285000    0.7983343   -8.0839596    59.958374  0.017531688  0.017889204            1 
  286000   0.81179615    -8.045729      60.0147  0.017486801  0.017828647            1 
  287000   0.80710734   -8.0843424    59.997755  0.017420951  0.017768245            3 
  288000   0.81823338   -8.0769048    60.020363  0.017367003   0.01770806            3 
  289000   0.79817731   -8.1101203    59.959277  0.017289295  0.017648189            4 
  290000   0.80529653   -8.0703001    60.192343   0.01729665  0.017588352            1 
  291000   0.81155403   -8.0856437     60.17876  0.017233322  0.017528809            1 
  292000   0.79084965   -8.0909316    60.208355   0.01718275   0.01746915            2 
  293000   0.80287993   -8.0945727    60.151363  0.017107896  0.017409524            2 
  294000   0.80335035   -8.0828434    60.319965  0.017097496  0.017349908            3 
  295000   0.79773316   -8.0822995     60.22836  0.017013661  0.017290645            2 
  296000   0.79454525   -8.0989563    60.515823  0.017037112  0.017232582            2 
  297000    0.8000373    -8.092052    60.392177  0.016945055  0.017174088            1 
  298000   0.79118065   -8.1100097     60.36381   0.01688026  0.017115817            1 
  299000   0.78014857   -8.0831307    60.399204  0.016833669  0.017057865            3 
  300000   0.78696353   -8.0922487    60.626756  0.016840766  0.017000306            2 
  301000   0.77364738   -8.0861184    60.578235  0.016771383  0.016942575            2 
  302000   0.79591053   -8.1331741    60.412825  0.016670206  0.016884817            1 
  303000   0.78950305   -8.1268214    60.459218  0.016627948  0.016827135            3 
  304000   0.77067708   -8.1214715    60.579441  0.016606206  0.016769839            1 
  305000   0.78658862   -8.1404617    60.561685  0.016546908  0.016712614            1 
  306000   0.77357432   -8.1427984    60.564037  0.016493474  0.016655461            2 
  307000    0.7922802   -8.1351453    60.709582  0.016479257   0.01659861            1 
  308000   0.79361443   -8.1378105    60.605945  0.016397712  0.016541624            2 
  309000   0.78743249   -8.1388694    60.709211  0.016372495  0.016485501            3 
  310000   0.79052767   -8.1572019    60.686029  0.016313449    0.0164292            3 
  311000   0.76327976   -8.1744145     60.79535  0.016290287  0.016372937            1 
  312000   0.75841005   -8.1615987     60.90491  0.016267337   0.01631721            1 
  313000   0.75552761   -8.2116353    60.859428  0.016203255  0.016261317            1 
  314000   0.76845684   -8.1934883    60.918969  0.016167454  0.016205315            2 
  315000   0.77889752   -8.1986629    60.838328  0.016094796  0.016149312            2 
  316000   0.79056184   -8.1940338    60.812616  0.016037082  0.016093246            2 
  317000   0.76730845   -8.2111793    60.663806  0.015947373  0.016037407            2 
  318000   0.77426705   -8.1952872    60.858055  0.015948128  0.015981865            5 
  319000   0.76561471   -8.2065759    61.003924  0.015936239  0.015926486            5 
  320000   0.74261244   -8.1970559    60.886931  0.015855972  0.015871079            3 
  321000   0.75625799   -8.2074056    60.855245   0.01579835  0.015816016            4 
  322000   0.75343861   -8.2210001     60.94716  0.015773075  0.015761227            1 
  323000   0.73576378   -8.2252245    60.918471   0.01571684  0.015706314            1 
  324000    0.7350534   -8.2171345    60.898216  0.015663121  0.015651489            2 
  325000   0.77163816   -8.2096119    60.995988  0.015639997  0.015596925            2 
  326000    0.7398017   -8.2484158    60.798918  0.015541646  0.015542233            2 
  327000   0.74659056   -8.2395206    61.018298  0.015550025  0.015487873            2 
  328000   0.74975795   -8.2703643    60.865921  0.015463903  0.015433555            2 
  329000   0.72760803   -8.2516396    60.924681  0.015431783  0.015379206            2 
  330000   0.74445534   -8.2752264    60.963485  0.015394819  0.015325337            1 
  331000   0.74273504   -8.2593827    60.929727   0.01533981  0.015271422            2 
  332000   0.73189788   -8.2480869    61.054019  0.015324804   0.01521775            2 
  333000   0.71717473   -8.2470847    61.032036  0.015273282  0.015164342            2 
  334000   0.72966328   -8.2660607     60.91577  0.015198545  0.015111009            2 
  335000   0.74302257   -8.2672663    61.041024  0.015184334   0.01505785            2 
  336000   0.73736419   -8.2673082    60.983682  0.015124921  0.015004787            2 
  337000   0.73261071   -8.2839334     61.04297  0.015094701  0.014951782            2 
  338000   0.72883686   -8.2787182    60.899041  0.015014557  0.014898906            3 
  339000   0.72741521   -8.2656892    60.949134   0.01498258   0.01484614            3 
  340000   0.73340386   -8.2603994    60.923158  0.014932147  0.014793208            1 
  341000   0.70662032   -8.2577399    61.008672  0.014909255  0.014740756            2 
  342000   0.72400969   -8.2554447    60.925095  0.014845296  0.014688482            1 
  343000   0.72098491   -8.2714459    60.841709  0.014781756  0.014636106            3 
  344000   0.71787867   -8.2832215    60.832457  0.014736545  0.014583906            3 
  345000   0.71804474   -8.2744164    61.066934  0.014750467  0.014531846            2 
  346000   0.71864158   -8.2832011    61.094704  0.014714524  0.014480197            2 
  347000    0.7199372   -8.3049669    60.976571  0.014643749  0.014428526            4 
  348000   0.71677514   -8.3137927    61.099889  0.014631199  0.014376909            3 
  349000   0.69047433   -8.3004394    60.947166  0.014552809  0.014325508            4 
  350000    0.7050521   -8.3203354     60.85266  0.014488729  0.014274244            1 
  351000   0.70015905   -8.2923763    60.817254  0.014439044  0.014222941            1 
  352000   0.70204859   -8.3173698    60.840116  0.014403437   0.01417166            1 
  353000   0.70649747   -8.3352884    60.969697  0.014393224  0.014120778            2 
  354000   0.71173316   -8.3228693    60.892529  0.014334399  0.014070105            3 
  355000   0.70653805   -8.3501146    60.766653  0.014264473  0.014019683            4 
  356000    0.7119178   -8.3388435    60.894932  0.014254432  0.013969198            1 
  357000   0.70207053   -8.3608735    61.015568  0.014242663  0.013918911            3 
  358000    0.6901177   -8.3787907    60.769573  0.014145617  0.013868806            2 
  359000   0.68912947   -8.3802998    60.892563  0.014134764  0.013818791            3 
  360000   0.69755154   -8.3288016    61.055307  0.014133173  0.013769185            2 
  361000   0.69107753   -8.3606476    61.025538  0.014087151  0.013719778            6 
  362000   0.69886871   -8.3527424     60.88288  0.014015396  0.013670502            1 
  363000   0.70340004   -8.3601281    60.885596   0.01397741  0.013621445            3 
  364000    0.6735782   -8.3859391    60.888545  0.013939685  0.013572511            2 
  365000   0.68425596   -8.3804835    61.012835  0.013929871  0.013523763            2 
  366000   0.68185562   -8.3738171    61.099101  0.013911453  0.013475515            2 
  367000   0.68156777    -8.384519    61.177964  0.013891454  0.013427496            2 
  368000   0.69466083   -8.3982213    60.976723  0.013808135  0.013379655            1 
  369000   0.68597368   -8.3782625    61.056801  0.013788799  0.013331808            3 
  370000   0.69677609   -8.3956993    61.035171   0.01374666  0.013284276            3 
  371000   0.67480969   -8.3769735    61.006218  0.013703104  0.013237215            2 
  372000   0.66655437   -8.3792596     61.10538  0.013688481  0.013190201            3 
  373000   0.68151569   -8.4219916    61.017854  0.013632228  0.013143336            5 
  374000   0.66581491   -8.4049093    60.977751  0.013586843  0.013096567            3 
  375000   0.67115141   -8.4099959    60.951657  0.013544813  0.013049973            3 
  376000   0.66121155   -8.4016547     61.10388  0.013542527  0.013003439            2 
  377000   0.66193664   -8.4290253     61.00113  0.013483893   0.01295703            2 
  378000   0.65146833   -8.4159235    60.904198  0.013426851  0.012910838            2 
  379000   0.68269716    -8.417508    61.080346  0.013430155  0.012864769            4 
  380000   0.67068067   -8.4482002     61.06747  0.013391989  0.012819055            3 
  381000   0.66033081   -8.4447065    61.019815  0.013346416  0.012773502            4 
  382000   0.67223484   -8.4353239    61.082181  0.013325083  0.012728114            2 
  383000    0.6658095   -8.4456495    61.079287  0.013289662  0.012682993            1 
  384000   0.66539614   -8.4328907    60.971215    0.0132316  0.012637927            2 
  385000    0.6465485   -8.4505378     61.01794  0.013207346  0.012592912            3 
  386000   0.64626521   -8.4351331    61.039395  0.013177762  0.012548152            3 
  387000   0.65377741   -8.4548052    61.087459  0.013154061  0.012503653            1 
  388000   0.66395333   -8.4603488    61.105652  0.013124066  0.012459398            1 
  389000   0.63936078   -8.4590042    61.041145  0.013076509  0.012415296            2 
  390000   0.64808511   -8.4653143    61.042253  0.013043217  0.012371306            3 
  391000   0.64057318   -8.4676266    61.024776  0.013006133  0.012327563            1 
  392000   0.63877208   -8.4787812    61.090913  0.012987014  0.012283913            3 
  393000   0.64636794   -8.4681971    61.071846  0.012949925  0.012240544            2 
  394000   0.64033596   -8.4731597      60.9896  0.012899662  0.012197243            2 
  395000    0.6498056   -8.4971829    61.050284  0.012879807  0.012154155            2 
  396000   0.63647928    -8.495882    61.054099  0.012848085  0.012111221            1 
  397000   0.64835998   -8.5010153    61.102427  0.012825866  0.012068439            4 
  398000   0.64231857   -8.5159303    60.914866  0.012754369  0.012025751            2 
  399000   0.63336819   -8.4961568    60.948076  0.012729339  0.011983355            1 
  400000   0.63551924   -8.5215748    61.010655  0.012710553  0.011940941            1 
  401000   0.62602365   -8.5117116    60.998063  0.012676239  0.011898634            2 
  402000   0.63673003   -8.5156192    60.956889  0.012636171  0.011856524            3 
  403000   0.63003114   -8.5168081    60.856996   0.01258416  0.011814439            2 
  404000   0.62608727   -8.5425569    60.898174  0.012561504  0.011772641            3 
  405000   0.61977411   -8.5033103    60.925694  0.012536151  0.011730806            4 
  406000   0.61648554   -8.5084366    60.858456  0.012491473  0.011689329            2 
  407000   0.62512456   -8.5273311    60.841378  0.012457284  0.011647848            2 
  408000   0.60610193   -8.5270355     60.88948  0.012436577  0.011606528            2 
  409000   0.62191339   -8.5544731    60.761121  0.012380017  0.011565365            1 
  410000   0.60559293   -8.5264513    60.871096  0.012372174  0.011524416            1 
  411000   0.60635744   -8.5410267    60.815662  0.012330832  0.011483633            1 
  412000   0.60550122   -8.5337223    60.825062  0.012302804  0.011442994            2 
  413000   0.60881367   -8.5583376    60.755258   0.01225893  0.011402549            1 
  414000   0.61343358   -8.5684275    60.859129  0.012250227   0.01136214            3 
  415000   0.60434595   -8.5446498    60.783828  0.012205588  0.011321944            5 
  416000   0.60722432   -8.5523582    60.810262  0.012181543  0.011281732            2 
  417000   0.59976423   -8.5720848    60.834401  0.012157155  0.011241797            2 
  418000   0.60989716   -8.5563803    60.772606  0.012115751  0.011202065            2 
  419000   0.59750668   -8.5697976    60.698136  0.012072024  0.011162481            3 
  420000   0.60701568   -8.5646955     60.79904  0.012063302  0.011123107            1 
  421000   0.61512683   -8.5810523    60.823203   0.01203943  0.011083929            3 
  422000   0.59423867   -8.5674671    60.723116  0.011991137   0.01104485            2 
  423000   0.59346501   -8.5981157    60.752526  0.011968583  0.011005916            2 
  424000    0.5938991   -8.5906827    60.775908   0.01194495  0.010967205            1 
  425000   0.57915601    -8.597168    60.768217  0.011915337  0.010928634            1 
  426000   0.58842032   -8.6130028    60.728732  0.011879642  0.010890221            2 
  427000   0.59072214   -8.5892588    60.708015  0.011847778  0.010851926            2 
  428000   0.58494966   -8.6007347    60.696235  0.011817803  0.010813818            2 
  429000   0.59818876   -8.6214532    60.706578  0.011792265  0.010775886            2 
  430000   0.59057822    -8.632602    60.727032  0.011768805  0.010738051            2 
  431000   0.57523228   -8.6203469    60.583523  0.011713751  0.010700347            1 
  432000   0.57450564   -8.6245239    60.755665  0.011719843  0.010662864            2 
  433000   0.57823975    -8.628964    60.642197  0.011670939  0.010625544            3 
  434000   0.56071848   -8.6202373    60.732407  0.011661368  0.010588359            2 
  435000    0.5846488   -8.6484225    60.772554  0.011642252  0.010551374            2 
  436000   0.57030633   -8.6462782    60.715538  0.011604652   0.01051457            3 
  437000   0.57709883   -8.6330216    60.755961  0.011585805  0.010477916            4 
  438000   0.56476408   -8.6246133    60.724461   0.01155336  0.010441356            2 
  439000   0.55865931    -8.627633     60.71124  0.011524533  0.010404916            3 
  440000   0.57213565    -8.638125    60.687786  0.011493899  0.010368614            1 
  441000   0.56498861   -8.6549915    60.620016  0.011455029  0.010332391            4 
  442000   0.56466235    -8.640874    60.641633  0.011433189  0.010296276            5 
  443000   0.55748082   -8.6714441    60.564821  0.011392931  0.010260327            2 
  444000    0.5654002   -8.6441361    60.644728  0.011382269  0.010224538            1 
  445000   0.55609501   -8.6682403     60.66246  0.011360011  0.010188921            1 
  446000   0.53958212    -8.684037    60.633606  0.011329149  0.010153438            2 
  447000   0.56145466   -8.6694664    60.548122  0.011287868  0.010118064            2 
  448000   0.54742077   -8.6706716    60.533391  0.011259931  0.010082907            2 
  449000    0.5443889   -8.6517378    60.634093  0.011253544  0.010047932            1 
  450000    0.5448557   -8.6850974    60.624171  0.011226698  0.010013081            1 
  451000   0.55055476   -8.6693691    60.636409  0.011204067 0.0099783784            4 
  452000   0.55838676   -8.6749022    60.454178  0.011145682 0.0099438242            2 
  453000   0.55000656   -8.6854045    60.543985  0.011137598 0.0099094054            1 
  454000   0.54447333   -8.6822724    60.577208  0.011119164 0.0098751006            1 
  455000   0.53483936   -8.6742969    60.486115  0.011078043 0.0098409453            2 
  456000   0.54339972   -8.6930239    60.453504  0.011047789 0.0098069019            2 
  457000   0.53680202   -8.6967371    60.449627  0.011022908 0.0097729119            4 
  458000   0.54123187   -8.6954666    60.527774  0.011013059 0.0097391295            2 
  459000   0.52569235   -8.7006172    60.537436   0.01099082 0.0097055537            1 
  460000   0.52889124   -8.6967222     60.44917  0.010950937 0.0096720876            1 
  461000   0.52772033   -8.6916892    60.478362  0.010932459 0.0096387704            1 
  462000   0.52574535   -8.7266205    60.455092  0.010904598 0.0096054936            2 
  463000    0.5286748   -8.6996447    60.431003   0.01087671 0.0095724213            2 
  464000   0.52460446   -8.7008884    60.461774  0.010858796 0.0095394912            3 
  465000   0.51254777   -8.7086736    60.476436  0.010838071 0.0095067051            1 
  466000   0.52134519   -8.7051207    60.442835  0.010808805 0.0094740672            4 
  467000   0.52751934   -8.7080566    60.501841  0.010796189 0.0094415848            1 
  468000   0.51669854   -8.7131603    60.350393  0.010746153 0.0094091936            2 
  469000   0.51965553   -8.7246362    60.397858  0.010731673  0.009376974            1 
  470000   0.50842683   -8.7076827    60.336542  0.010697969 0.0093448562            2 
  471000   0.52020013   -8.7263793    60.337602  0.010675443 0.0093128664            2 
  472000   0.51629296   -8.7510352    60.342684  0.010653722  0.009281027            2 
  473000   0.50983025   -8.7383816    60.391842  0.010639859  0.009249313            2 
  474000   0.50739995   -8.7355886    60.292406  0.010599931 0.0092177589            2 
  475000   0.50889085   -8.7217032      60.4638  0.010607684 0.0091863265            3 
  476000   0.52011758   -8.7354349    60.407239  0.010575497 0.0091550213            2 
  477000   0.51637649   -8.7347384    60.347553  0.010542899 0.0091238753            2 
  478000   0.49632269   -8.7601735    60.346819  0.010520715 0.0090928183            4 
  479000   0.51096897   -8.7423865    60.350136  0.010499328 0.0090618644            2 
  480000   0.51115892   -8.7350578    60.418732  0.010489363 0.0090311355            2 
  481000   0.50457426   -8.7437713    60.298415  0.010446711 0.0090005618            2 
  482000   0.49589661   -8.7521413    60.300131  0.010425334 0.0089700878            3 
  483000   0.49339836    -8.759353     60.42934  0.010426042 0.0089397225            2 
  484000   0.50062237   -8.7553136    60.266308   0.01037643 0.0089094992            3 
  485000   0.49055639   -8.7461324    60.297308  0.010360362 0.0088793424            2 
  486000   0.49596194   -8.7699328    60.313933  0.010341895 0.0088493142            3 
  487000    0.4921827   -8.7834548    60.359886  0.010328523 0.0088194273            1 
  488000   0.48378641   -8.7605426    60.337103  0.010303467 0.0087896651            2 
  489000   0.49418638   -8.7710318    60.328904  0.010280999 0.0087600785            4 
  490000   0.48480299   -8.7727482    60.285392  0.010252618 0.0087306086            1 
  491000   0.47618736   -8.7749621    60.341361  0.010241236 0.0087011986            2 
  492000   0.48945391   -8.7767266    60.277283  0.010209567 0.0086719834            1 
  493000   0.47762185   -8.7820079    60.322264  0.010196461 0.0086428801            4 
  494000   0.47260229   -8.7827377    60.294097  0.010171069 0.0086138786            2 
  495000   0.47786963   -8.7974429    60.191808  0.010133301 0.0085849814            2 
  496000   0.48304773   -8.7860224    60.235588  0.010120226 0.0085561872            3 
  497000   0.48009534   -8.7888284    60.303263  0.010111211 0.0085275918            1 
  498000   0.46691716   -8.8057838    60.216721  0.010076426 0.0084991306            1 
  499000   0.47672887   -8.8117834    60.228342  0.010058173 0.0084707141            2 
  500000   0.47390413   -8.8009591    60.175963  0.010029327 0.0084424294            1 
  501000   0.46582541   -8.8064335    60.230211  0.010018332 0.0084143007            3 
  502000   0.46904154   -8.7988924    60.268946  0.010004805  0.008386298            3 
  503000   0.47045189    -8.824168     60.17958 0.0099701094 0.0083583909            1 
  504000   0.46158124   -8.8185066     60.26167 0.0099639004 0.0083305905            4 
  505000   0.45255047   -8.7904241    60.257455 0.0099434744 0.0083029347            2 
  506000    0.4613674   -8.8078579     60.24532 0.0099218248 0.0082753876            3 
  507000   0.45082388   -8.8181827    60.170335 0.0098899301 0.0082478906            2 
  508000   0.45069001   -8.8123676    60.215265 0.0098778322 0.0082205875            3 
  509000   0.46341526   -8.8197058    60.184845 0.0098534454 0.0081933767            2 
  510000   0.45554007   -8.8277563    60.158538 0.0098298264 0.0081662856            2 
  511000   0.45243286   -8.8181322    60.052104 0.0097932329 0.0081393146            3 
  512000   0.44903138   -8.8235202    60.139454 0.0097883227 0.0081124363            3 
Loop time of 1210.02 on 48 procs for 500000 steps with 4000 atoms

Performance: 71403.913 tau/day, 413.217 timesteps/s
99.4% CPU use with 48 MPI tasks x no OpenMP threads

MPI task timing breakdown:
Section |  min time  |  avg time  |  max time  |%varavg| %total
---------------------------------------------------------------
Pair    | 77.469     | 82.608     | 86.708     |  30.5 |  6.83
Neigh   | 7.9877     | 8.32       | 8.8428     |   6.6 |  0.69
Comm    | 79.256     | 84.033     | 90.42      |  35.6 |  6.94
Output  | 0.83438    | 0.83488    | 0.84322    |   0.1 |  0.07
Modify  | 1020.3     | 1022.7     | 1025       |   3.9 | 84.52
Other   |            | 11.54      |            |       |  0.95

Nlocal:        83.3333 ave          92 max          74 min
Histogram: 1 1 6 6 7 10 7 8 1 1
Nghost:        2120.33 ave        2143 max        2103 min
Histogram: 2 2 5 9 12 13 2 2 0 1
Neighs:        13960.9 ave       15818 max       11755 min
Histogram: 1 1 2 6 11 9 7 6 3 2
FullNghs:      27922.2 ave       30876 max       24751 min
Histogram: 1 2 6 4 12 7 6 5 4 1

Total # of neighbors = 1340267
Ave neighs/atom = 335.06675
Neighbor list builds = 26753
Dangerous builds = 0

#clear
#
#next RN
#
#jump SELF
Total wall time: 0:20:13
