
units lj                  # Use reduced LJ style units
atom_style atomic         # Uncharged point particles
atom_modify map hash      # Needed for indexing of clusters etc
                          # Used to be able to find where atoms are in relation to each other.

lattice fcc 1.0 spacing 1 1 1
Lattice spacing in x,y,z = 1.5874011 1.5874011 1.5874011
region box block 0 10 0 10 0 10 units lattice
create_box 2 box
Created orthogonal box = (0.0000000 0.0000000 0.0000000) to (15.874011 15.874011 15.874011)
  3 by 4 by 4 MPI processor grid
create_atoms 1 box
Created 4000 atoms
  using lattice units in orthogonal box = (0.0000000 0.0000000 0.0000000) to (15.874011 15.874011 15.874011)
  create_atoms CPU = 0.018 seconds
set type 1 type/fraction 2 0.22 78393
Setting atom values ...
  910 settings made for type/fraction
mass 1 1.0
mass 2 1.0
pair_style lj/cut  3.5
pair_modify tail  yes
pair_coeff 1  1  1.0  1.0   # Intearaction between 1 and 1 set with epsilon = 1 and sigma = 1
pair_coeff 1  2  1.5  0.8
pair_coeff 2  2  0.5  0.88

write_data data.0
System init for write_data ...
Neighbor list info ...
  update every 1 steps, delay 10 steps, check yes
  max neighbors/atom: 2000, page size: 100000
  master list distance cutoff = 3.8
  ghost atom cutoff = 3.8
  binsize = 1.9, bins = 9 9 9
  1 neighbor lists, perpetual/occasional/extra = 1 0 0
  (1) pair lj/cut, perpetual
      attributes: half, newton on
      pair build: half/bin/atomonly/newton
      stencil: half/bin/3d
      bin: standard
WARNING: Not all mixed pair coeffs generated from mixing. Use write_data with 'pair ij' option to store all pair coeffs. (../write_data.cpp:312)


#############################
#   M E L T   S Y S T E M   #
#############################

velocity all create 2.4 1741580 mom yes dist gaussian # Assign velocities
                                                    # Temperature 2.4, random number seed, zero linear momentum
                                                                                # Gaussian distribution

timestep 0.002   # simulation timestep
thermo 1000       # output thermodynamic data every 1000 steps bf 100

# Define a fix  in this case with index 1 applied to all
# particles in the simulation. This fix is for simulations
# in the anisotropic NPT ensemble. Note that we use the MTK
# correction.
fix 1 all npt temp 2.4 2.4 0.1 iso 5.68 5.68 0.5 mtk yes tchain 5 pchain 5 # Use NPT ensemble
                                                                         # Set temperature and pressure and damping
                                                                         # Numbers of thermostats in chain and in barostat
run 10000          # run for 10000 steps
Per MPI rank memory allocation (min/avg/max) = 3.642 | 3.644 | 3.648 Mbytes
Step Temp E_pair E_mol TotEng Press Volume 
       0          2.4   -6.9213593            0   -3.3222593   -3.6990896         4000 
    1000    2.4183398   -4.8825564            0   -1.2559537    5.6763877    4400.6785 
    2000    2.3698015   -4.8531035            0   -1.2992899    5.8082166    4400.5272 
    3000    2.3588322   -4.8810831            0   -1.3437193    5.7527005    4387.4563 
    4000    2.3725892   -4.9028035            0   -1.3448094     5.755363     4375.932 
    5000    2.3842852   -4.8514624            0   -1.2759287    5.5307924    4430.8147 
    6000    2.3941863   -4.9137318            0   -1.3233502    5.4628115    4412.1792 
    7000    2.3858305    -4.832633            0    -1.254782    5.4790076    4446.3597 
    8000    2.3895352   -4.8730684            0   -1.2896617    5.6495045    4410.3254 
    9000    2.4558039    -4.849222            0   -1.1664371    5.7089111    4417.8054 
   10000    2.4112296   -4.8719915            0   -1.2560514    5.5643018    4413.7259 
Loop time of 2.26818 on 48 procs for 10000 steps with 4000 atoms

Performance: 761844.217 tau/day, 4408.821 timesteps/s
99.7% CPU use with 48 MPI tasks x no OpenMP threads

MPI task timing breakdown:
Section |  min time  |  avg time  |  max time  |%varavg| %total
---------------------------------------------------------------
Pair    | 0.97644    | 1.0435     | 1.143      |   3.0 | 46.00
Neigh   | 0.19642    | 0.2047     | 0.22325    |   1.0 |  9.02
Comm    | 0.6553     | 0.77578    | 0.83261    |   4.4 | 34.20
Output  | 0.000246   | 0.0002496  | 0.00031758 |   0.0 |  0.01
Modify  | 0.20665    | 0.2271     | 0.25461    |   3.1 | 10.01
Other   |            | 0.01689    |            |       |  0.74

Nlocal:        83.3333 ave          93 max          75 min
Histogram: 4 4 6 5 6 9 5 4 3 2
Nghost:        1543.60 ave        1575 max        1521 min
Histogram: 5 7 3 7 7 8 5 2 3 1
Neighs:        8644.48 ave        9863 max        7487 min
Histogram: 3 2 5 8 10 5 5 5 3 2

Total # of neighbors = 414935
Ave neighs/atom = 103.73375
Neighbor list builds = 904
Dangerous builds = 169

# Equilibrate just above the melting temperature to avoid step fn in T

fix 1 all npt temp 1.25 1.25 0.1 iso 5.68 5.68 0.5 mtk yes tchain 5 pchain 5
run 2000
Per MPI rank memory allocation (min/avg/max) = 3.643 | 3.645 | 3.649 Mbytes
Step Temp E_pair E_mol TotEng Press Volume 
   10000    2.4112296   -4.8719915            0   -1.2560514    5.5643018    4413.7259 
   11000    1.2494375    -6.613847            0   -4.7401592    5.7706453    3582.6977 
   12000     1.276287   -6.6134247            0   -4.6994727    5.7981724    3585.3376 
Loop time of 0.504107 on 48 procs for 2000 steps with 4000 atoms

Performance: 685568.943 tau/day, 3967.413 timesteps/s
99.7% CPU use with 48 MPI tasks x no OpenMP threads

MPI task timing breakdown:
Section |  min time  |  avg time  |  max time  |%varavg| %total
---------------------------------------------------------------
Pair    | 0.21941    | 0.24704    | 0.27781    |   2.3 | 49.01
Neigh   | 0.032115   | 0.034892   | 0.037738   |   0.6 |  6.92
Comm    | 0.13758    | 0.17087    | 0.19868    |   3.0 | 33.90
Output  | 4.9694e-05 | 5.2673e-05 | 0.00015241 |   0.0 |  0.01
Modify  | 0.039499   | 0.04681    | 0.054715   |   1.8 |  9.29
Other   |            | 0.004442   |            |       |  0.88

Nlocal:        83.3333 ave          92 max          75 min
Histogram: 3 5 3 2 16 6 4 2 4 3
Nghost:        1770.58 ave        1790 max        1742 min
Histogram: 1 2 1 6 5 6 12 5 6 4
Neighs:        10668.5 ave       12433 max        9292 min
Histogram: 3 5 4 11 9 7 3 2 2 2

Total # of neighbors = 512086
Ave neighs/atom = 128.02150
Neighbor list builds = 144
Dangerous builds = 11

#############################
# L I N E A R  Q U E N C H  #
#############################

# Define solid atoms. This closely follows ten Wolde  Ruiz-Montero and Frenkel  Faraday Discuss  1996  104  93-110
# Compute components of the per-atom q6 vector
compute q6 all orientorder/atom degrees 1 6 components 6 nnn NULL cutoff 1.3 # compute the Q6 parameter.
                                                                             # Use all neighbours within 1.3 unit cell.

# get number of connections
compute coord_number all coord/atom orientorder q6 0.5

# An atom is solid if it has 8 or more connections (of a possible 14)
variable is_solid atom c_coord_number>=8
group solid dynamic all var is_solid    # Must be dynamic to update
dynamic group solid defined

# do clustering
compute cluster solid cluster/atom 1.3 # Create a cluster where all atoms within are solid and max 1.3 units from another member

# define chunks one chunk per cluster
compute clus_chunks solid chunk/atom c_cluster nchunk every compress yes  # Says which atoms are in which chunk

# count the size of each chunk
compute size_chunks solid property/chunk clus_chunks count


# Find the maximum entry in the vector of chunk sizes
variable max_n equal max(c_size_chunks)


# Thermo style which includes this variable
# thermo_style custom step temp pe vol v_max_n

thermo ${N}  # Print the thermo information every 100 steps
thermo 1000  

# Reset the npt fix at a lower temperature (below freezing)
fix 1  all npt temp  ${temp} ${temp}  0.1  iso  5.68  5.68  0.5  mtk yes tchain  5  pchain  5
fix 1  all npt temp  0.45 ${temp}  0.1  iso  5.68  5.68  0.5  mtk yes tchain  5  pchain  5
fix 1  all npt temp  0.45 0.45  0.1  iso  5.68  5.68  0.5  mtk yes tchain  5  pchain  5

dump dmp2 all dcd ${N} traj.dcd
dump dmp2 all dcd 1000 traj.dcd


compute msd all msd com yes
variable twopoint equal c_msd[4]/6/(step*dt+1.0e-6)
fix 9 all vector 10 c_msd[4]
variable fit equal slope(f_9)/6/(10*dt)
thermo_style custom step temp pe c_msd[4] v_twopoint v_fit v_max_n

fix 1 all npt temp 1.25 ${temp} 0.1 iso 5.68 5.68 0.5 mtk yes tchain 5 pchain 5
fix 1 all npt temp 1.25 0.45 0.1 iso 5.68 5.68 0.5 mtk yes tchain 5 pchain 5
run 500000 # 5000000  # Run for this many steps
Neighbor list info ...
  update every 1 steps, delay 10 steps, check yes
  max neighbors/atom: 2000, page size: 100000
  master list distance cutoff = 3.8
  ghost atom cutoff = 3.8
  binsize = 1.9, bins = 9 9 9
  4 neighbor lists, perpetual/occasional/extra = 1 3 0
  (1) pair lj/cut, perpetual
      attributes: half, newton on
      pair build: half/bin/atomonly/newton
      stencil: half/bin/3d
      bin: standard
  (2) compute orientorder/atom, occasional
      attributes: full, newton on
      pair build: full/bin/atomonly
      stencil: full/bin/3d
      bin: standard
  (3) compute coord/atom, occasional
      attributes: full, newton on
      pair build: full/bin/atomonly
      stencil: full/bin/3d
      bin: standard
  (4) compute cluster/atom, occasional
      attributes: full, newton on
      pair build: full/bin/atomonly
      stencil: full/bin/3d
      bin: standard
Per MPI rank memory allocation (min/avg/max) = 9.778 | 9.786 | 9.793 Mbytes
Step Temp PotEng c_msd[4] v_twopoint v_fit v_max_n 
   12000     1.276287   -6.6134247 6.3100984e-30 4.3820126e-32 8.3333333e+20            8 
   13000    1.2400303   -6.6085147   0.54443745 0.0034899835  0.045295299            2 
   14000    1.2576938   -6.6110246     1.035231  0.006162089   0.04262593            1 
   15000    1.2678953   -6.6253363     1.490734 0.0082818551  0.040799797            1 
   16000    1.2423036   -6.6327292    2.0109248  0.010473566   0.04073006            2 
   17000    1.2632182   -6.6585847    2.4937073  0.012224055  0.040544541            2 
   18000    1.2526753   -6.6792271    2.9335334  0.013581173  0.040384893            1 
   19000    1.2284591   -6.6533638    3.4445606  0.015107721  0.040418996            2 
   20000    1.2437539   -6.6512587    3.9476932  0.016448721  0.040592096            2 
   21000    1.2335143   -6.6472122    4.4879878  0.017809475  0.040864796            1 
   22000      1.23453   -6.6778098     5.035826  0.019075098  0.041215434            1 
   23000    1.2444578   -6.6443709    5.5499673  0.020108577  0.041520047            3 
   24000    1.2271663   -6.6826603     6.016782  0.020891604  0.041623777            1 
   25000     1.241725    -6.680917    6.4663907  0.021554635  0.041616961            2 
   26000    1.2239781   -6.6516054    7.0098891  0.022467593  0.041585337            1 
   27000    1.2365116   -6.6658291    7.5024596  0.023155739  0.041620458            3 
   28000    1.2046106   -6.6683197    7.9283302  0.023596221  0.041525511            4 
   29000    1.2363905   -6.6907837     8.472133  0.024345209  0.041500769            1 
   30000    1.2415819   -6.7194487    8.9651495  0.024903193  0.041519322            1 
   31000    1.2017623   -6.7141242     9.425102  0.025336295  0.041514927            1 
   32000    1.2278651   -6.7089188    9.7440934  0.025375243  0.041348258            1 
   33000    1.2418065   -6.6560974    10.256251  0.025899624  0.041166443            2 
   34000    1.2395185   -6.7411987    10.726304  0.026289961  0.041019046            2 
   35000    1.2319703   -6.6531117    11.142583  0.026529959  0.040875049            2 
   36000    1.2454048   -6.6941983    11.586856  0.026821426  0.040669825            2 
   37000    1.2039183   -6.6702787    12.012512  0.027055206  0.040492264            1 
   38000    1.1923977   -6.7200752    12.475855  0.027359331  0.040326329            2 
   39000    1.2087958   -6.6968213      12.9072  0.027579488  0.040172659            2 
   40000    1.2196933   -6.7197874    13.350942  0.027814462  0.040013987            1 
   41000    1.1767165   -6.7315989    13.664339  0.027773047  0.039827972            2 
   42000    1.1973467   -6.7079409    14.101252  0.027978673  0.039619689            1 
   43000    1.1978644   -6.7336324    14.458496  0.028020341  0.039421462            3 
   44000    1.1995817   -6.7763891    14.904717   0.02822863  0.039219783            2 
   45000    1.1921968   -6.7300415      15.3974  0.028513703  0.039044396            3 
   46000    1.1985139   -6.7519024    15.673698   0.02839438  0.038858711            1 
   47000    1.2087898   -6.7213228    16.057087  0.028470012  0.038677519            2 
   48000     1.181309   -6.7392968    16.649508  0.028905396  0.038518623            3 
   49000    1.1939041   -6.7188471    17.116203  0.029109189  0.038408375            3 
   50000    1.2152631   -6.7186981    17.585533  0.029309222   0.03831953            2 
   51000    1.1828857    -6.764389    17.912685  0.029269093  0.038228982            2 
   52000    1.1885903   -6.7356053    18.310008  0.029342961  0.038117987            2 
   53000    1.2027536    -6.774607    18.730667  0.029450734  0.038005838            2 
   54000    1.2113361   -6.7895074    19.148457  0.029550087  0.037904146            3 
   55000    1.2007549   -6.7266862    19.563826   0.02964216  0.037801993            1 
   56000    1.2042853   -6.7311831    19.924302  0.029649259  0.037694565            3 
   57000    1.1800931   -6.7642909    20.409944    0.0298391  0.037595236            4 
   58000    1.1589272    -6.726711    20.940371  0.030086739  0.037512473            1 
   59000    1.1921044   -6.7644294    21.260229  0.030028571  0.037432643            2 
   60000      1.17003     -6.81896    21.522681  0.029892612  0.037337319            4 
   61000    1.1830245   -6.7500526    22.061937  0.030139257  0.037236338            2 
   62000    1.1826274   -6.7777076    22.404409  0.030113453  0.037158395            2 
   63000    1.1815362    -6.753026     22.69826  0.030024153  0.037052872            2 
   64000    1.1745248   -6.7870863    23.067772  0.030036161  0.036934813            2 
   65000     1.169852   -6.8043569    23.541234  0.030181069   0.03682851            4 
   66000    1.1613052   -6.8243705    23.799484  0.030049853   0.03672772            2 
   67000     1.131639   -6.8122152    24.153781  0.030042016  0.036609395            1 
   68000     1.151409   -6.8599575    24.472927  0.029991331   0.03649208            2 
   69000    1.1586577    -6.821618    24.706853  0.029839194   0.03636433            1 
   70000    1.1468434   -6.8331151    25.225673  0.030030562  0.036247373            2 
   71000    1.1380239   -6.8310273    25.786498  0.030265843  0.036151395            3 
   72000    1.1691559   -6.7852729    26.041458  0.030140576  0.036052132            2 
   73000    1.1798908    -6.794198    26.394858  0.030131117  0.035948197            1 
   74000     1.140683   -6.8473754    26.812745  0.030194532  0.035853641            5 
   75000    1.1544912   -6.8049295      27.3042  0.030337999  0.035764694            2 
   76000    1.1351067   -6.8377249    27.631377  0.030297562  0.035677881            2 
   77000    1.1542334   -6.8476919    27.928971  0.030226159  0.035587033            2 
   78000     1.140419   -6.8040936    28.229467  0.030159687  0.035496135            1 
   79000    1.1275606   -6.8449983    28.593235   0.03016164  0.035402316            2 
   80000    1.1195441   -6.9145097    28.871285  0.030074255  0.035312473            1 
   81000    1.1105697   -6.8498249    29.189403   0.03003025  0.035216903            3 
   82000    1.1276961   -6.8578267    29.541936  0.030022292   0.03511572            4 
   83000    1.1574785   -6.8171926    30.082202  0.030203014  0.035018597            1 
   84000    1.1208927   -6.8593671    30.515229  0.030273045  0.034937115            2 
   85000    1.1390371   -6.8559726    30.916174  0.030309974  0.034863121            3 
   86000      1.11908   -6.8715204    31.197518  0.030230153  0.034788355            1 
   87000    1.1162741   -6.8585547      31.4688  0.030142528  0.034713009            3 
   88000    1.1355131   -6.8968098    31.757375  0.030073271  0.034624879            2 
   89000    1.1128048   -6.8588571    32.081038  0.030038425  0.034538805            3 
   90000    1.1100806   -6.8798437    32.515492  0.030106937  0.034456921            1 
   91000    1.1297093   -6.8195389    32.966862  0.030189433   0.03438359            1 
   92000    1.1047833   -6.9222236    33.321605  0.030182613  0.034309705            2 
   93000    1.1202676   -6.8682537    33.655363  0.030157135   0.03423162            4 
   94000    1.1083644   -6.8961997    33.976115  0.030120669  0.034158434            3 
   95000    1.1198262    -6.843827    34.743318  0.030476595  0.034096636            2 
   96000    1.1209273   -6.8681049    34.983168  0.030367333  0.034043022            2 
   97000    1.1190787   -6.8441605     35.40398  0.030415791  0.033992198            2 
   98000     1.110199    -6.873673    35.688571  0.030347424   0.03393821            2 
   99000    1.1149883    -6.916071    35.842062  0.030170086  0.033876997            4 
  100000    1.1207417   -6.8873297    36.057701  0.030048084  0.033811205            2 
  101000    1.0889576   -6.8776342    36.503117  0.030118083  0.033745828            6 
  102000    1.1159672   -6.9206761    36.641502  0.029935867  0.033675166            3 
  103000    1.1089268   -6.8855075    36.977338   0.02991694  0.033597872            3 
  104000    1.1111189   -6.9389817    37.309127  0.029895134  0.033525625            4 
  105000    1.1084385   -6.9030147    37.720514  0.029936916  0.033449621            3 
  106000    1.1158182   -6.9442319    37.811435  0.029725971  0.033374052            3 
  107000    1.0968628   -6.9264768    38.129576  0.029695932  0.033292319            1 
  108000    1.1094349   -6.9481476    38.286372  0.029541953  0.033205837            2 
  109000    1.1148549   -6.9458163    38.691611  0.029580743  0.033120311            2 
  110000    1.0884796   -6.8918444    39.201876  0.029698391  0.033044568            3 
  111000    1.1047919   -6.9041512    39.552312  0.029693928  0.032969466            3 
  112000    1.0969367   -6.9758974    39.714868  0.029549753  0.032895079            1 
  113000    1.0860859   -6.9435501    40.092382  0.029566653  0.032823639            3 
  114000    1.0990292    -6.945394    40.604466  0.029681627  0.032754122            3 
  115000    1.1130128   -6.9929539    40.765851  0.029540472  0.032685379            1 
  116000    1.0776263   -6.9558539    41.037094  0.029480671  0.032612275            3 
  117000    1.0932625   -6.9583023     41.32429  0.029433255  0.032537408            2 
  118000    1.0676827   -6.9592944    41.481679  0.029294971  0.032461125            2 
  119000    1.0723377   -6.9689523    41.803646  0.029274262  0.032382781            2 
  120000    1.0812139   -6.9408419    42.156741  0.029275514  0.032305903            1 
  121000    1.0768314   -6.9302414    42.644942  0.029369794  0.032230528            3 
  122000    1.0493879   -6.9756534    42.888705  0.029295563  0.032156603            2 
  123000     1.063359   -6.9718481    43.066941  0.029178144  0.032080644            2 
  124000    1.0672259   -7.0207231     43.29149  0.029093743   0.03200695            5 
  125000    1.0464393   -6.9437203    43.628066  0.029085378  0.031933134            2 
  126000    1.0589263   -7.0223622    43.762814   0.02894366  0.031857163            2 
  127000    1.0471211    -6.988468    44.200566  0.029002996   0.03178396            5 
  128000    1.0687073   -6.9632625    44.683356  0.029090726  0.031711983            2 
  129000    1.0420092   -7.0073667    45.095025  0.029131153  0.031645595            1 
  130000    1.0631911   -6.9772208    45.325151  0.029054584  0.031580935            4 
  131000    1.0456557   -6.9776993     45.63468  0.029029695   0.03151989            2 
  132000    1.0816249   -6.9861506    46.140214  0.029128923  0.031458686            3 
  133000    1.0804739    -6.992579    46.374864  0.029056932  0.031398544            1 
  134000    1.0535975   -7.0247914    46.500472  0.028918204  0.031337262            1 
  135000    1.0894237    -7.018601    46.993907  0.029008585  0.031273629            2 
  136000    1.0174853    -7.035294    47.209102  0.028927146  0.031211236            4 
  137000    1.0502763    -7.030203    47.236422  0.028732617  0.031145989            2 
  138000    1.0683252   -7.0156505    47.489315  0.028677122  0.031077777            2 
  139000    1.0346925   -7.0326801    47.520845  0.028489715  0.031008624            2 
  140000    1.0660738   -7.0400987    48.076425   0.02861692  0.030938291            1 
  141000    1.0581267   -7.0353174     48.22827  0.028503705  0.030869597            1 
  142000    1.0370837   -7.0739855    48.458039  0.028437816  0.030798902            2 
  143000    1.0713568   -7.0478559    48.879216  0.028484392  0.030728902            3 
  144000    1.0544635   -7.0626068    49.006901  0.028360475  0.030662362            2 
  145000    1.0446312   -7.0727925     49.31557  0.028342281  0.030595741            2 
  146000    1.0178097   -7.0671257    49.703365    0.0283695  0.030529387            3 
  147000     1.046185   -7.0784962    49.990304  0.028339175  0.030464342            6 
  148000    1.0320172   -7.0467022    50.431141  0.028395912  0.030402076            1 
  149000    1.0441993   -7.0676772    50.560678  0.028277784  0.030341624            2 
  150000    1.0248582   -7.0796361    50.839432  0.028244129  0.030276989            3 
  151000     1.046319   -7.0674226    51.109698  0.028206235  0.030216481            1 
  152000    1.0304566   -7.0920485    51.266994  0.028106904  0.030154638            1 
  153000    1.0042881   -7.0788984    51.620352   0.02811566  0.030093405            1 
  154000    1.0015352    -7.087955    51.912622  0.028091246  0.030032676            2 
  155000    1.0106413    -7.095244    52.006216  0.027960331  0.029971911            4 
  156000    1.0195371   -7.1148286    52.401568  0.027992291  0.029909203            2 
  157000    1.0270354   -7.0939971    52.684833  0.027964349  0.029847976            4 
  158000    1.0016578   -7.0723042    52.875614  0.027887982   0.02978683            5 
  159000    1.0077034   -7.0763618     53.06205  0.027810298  0.029724512            6 
  160000   0.99488577   -7.1429807    53.194937  0.027705696  0.029661434            1 
  161000     1.007834   -7.1205979    53.559677    0.0277224  0.029597598            2 
  162000    1.0265523   -7.0888023    53.816194  0.027683227  0.029534244            2 
  163000    1.0248445   -7.1087952    54.221143  0.027720421  0.029471818            2 
  164000   0.99622092   -7.1295245    54.523357  0.027704958  0.029413479            2 
  165000   0.98770937   -7.1295315    54.993595  0.027774543  0.029357739            2 
  166000    1.0189396   -7.1086523    55.222772  0.027722275   0.02930295            3 
  167000    1.0021633   -7.1319327    55.154931  0.027522421  0.029246258            1 
  168000    1.0067827   -7.1271127    55.283282  0.027422263  0.029185792            2 
  169000    1.0085447   -7.1326013    55.368698  0.027302119  0.029122556            4 
  170000   0.97598056   -7.1369977    55.694957   0.02730145  0.029060796            6 
  171000    1.0079907   -7.1218932    56.050648   0.02731513  0.028998319            5 
  172000   0.99842969   -7.1628459    56.240599  0.027248352  0.028935934            4 
  173000   0.99859347   -7.1676135    56.377979  0.027157023  0.028873651            4 
  174000   0.99032711   -7.1660265    56.607349  0.027110799  0.028808925            2 
  175000    0.9781915   -7.1405787      56.8209  0.027057571   0.02874465            4 
  176000   0.96251653   -7.1717271    57.123386  0.027047058  0.028681359            3 
  177000   0.98133696   -7.1533025    57.233792   0.02694623  0.028619063            3 
  178000   0.98482509   -7.1349376    57.400719  0.026872996  0.028554425            5 
  179000   0.97040398   -7.1513895    57.350954  0.026699699   0.02848774            2 
  180000   0.99571977    -7.189892    57.501477  0.026621054  0.028419651            3 
  181000    0.9840422   -7.1885797    57.785578  0.026604778  0.028352721            5 
  182000   0.98875769   -7.2138407    58.038573  0.026574438  0.028285967            2 
  183000   0.98247319   -7.1863502    58.521369  0.026649075  0.028219245            1 
  184000   0.95776316   -7.1629154    58.578982  0.026530336   0.02815462            4 
  185000   0.95978199   -7.1834083    58.761368  0.026469085   0.02808812            2 
  186000   0.96483057    -7.196084    58.865714  0.026373528  0.028020647            2 
  187000    0.9788097   -7.1947953    59.258673  0.026407608  0.027953023            2 
  188000   0.96496959   -7.1960699    59.450904  0.026352351  0.027888797            2 
  189000   0.97584124   -7.1973063    59.922181  0.026420715  0.027826646            2 
  190000    0.9650156   -7.1528345    60.008017  0.026319306  0.027764612            2 
  191000   0.97416151   -7.1832989    60.197986  0.026264392  0.027701016            2 
  192000   0.96852519   -7.2198219    60.421164  0.026224464  0.027639082            3 
  193000   0.97160291   -7.1927073     60.70527  0.026211256    0.0275779            3 
  194000   0.95015237   -7.1864585     61.02821  0.026214867  0.027518211            3 
  195000   0.95167506   -7.2191419    60.952124  0.026047916  0.027457842            4 
  196000   0.91911292   -7.2377742    61.221298  0.026029463  0.027395551            2 
  197000   0.99037483   -7.2215524     61.40017  0.025972999  0.027333711            3 
  198000   0.95134481   -7.2160261    61.724504  0.025978327  0.027272547            2 
  199000   0.95498883   -7.2473303    61.624892  0.025806068  0.027209351            2 
  200000   0.94732045   -7.2258625    61.772279  0.025738449  0.027145666            3 
  201000   0.94985481   -7.2429995    62.200553  0.025787957  0.027083513            2 
  202000   0.96025704   -7.2606607    62.360079  0.025726105  0.027022445            3 
  203000   0.94913244   -7.2480176    62.543271  0.025674577  0.026960287            2 
  204000   0.95440046   -7.2578176     62.87985  0.025686213  0.026898826            3 
  205000   0.95855529   -7.2656673    62.968005   0.02559675  0.026837493            5 
  206000   0.92153761   -7.2921603    63.068028  0.025512956  0.026775983            6 
  207000   0.94299142   -7.2992559    63.214646   0.02544873  0.026714485            2 
  208000     0.970739   -7.2578288    63.374571  0.025390453  0.026652532            1 
  209000   0.95500336    -7.273136    63.649988  0.025378783  0.026589754            2 
  210000   0.93831757   -7.3006339    63.787857  0.025312642  0.026527175            3 
  211000   0.93833922    -7.292431    64.049374  0.025295961  0.026464614            3 
  212000   0.92502551   -7.2628466    64.165445  0.025222266  0.026403263            1 
  213000   0.91933275   -7.2863874    64.400578  0.025195844  0.026343494            2 
  214000   0.94301419   -7.2568716    64.729138  0.025206051  0.026283218            2 
  215000   0.91529326   -7.3061977    64.756858  0.025099557  0.026223477            3 
  216000   0.92781589    -7.299478    64.782156  0.024993116  0.026162253            3 
  217000   0.89790894    -7.276704    64.988901  0.024957335  0.026100711            2 
  218000      0.91564     -7.33642    65.159506  0.024908068  0.026039975            3 
  219000   0.91427373   -7.3012101    65.596457    0.0249606  0.025980788            4 
  220000   0.92709147   -7.3425492     65.67635  0.024877405  0.025921778            3 
  221000     0.922104   -7.3054511    66.037214   0.02490091  0.025862444            6 
  222000   0.93357774   -7.3398149    65.919901  0.024744708  0.025803522            4 
  223000   0.91142356    -7.296542    66.173316  0.024728444  0.025745402            3 
  224000   0.90580898   -7.2786138    66.159026  0.024612733  0.025686454            3 
  225000   0.91958078   -7.3374922     66.07285  0.024471426    0.0256251            4 
  226000   0.91808789   -7.3302766    66.424347  0.024492753  0.025563423            2 
  227000   0.89622456   -7.3635286    66.404379  0.024377525  0.025501173            4 
  228000   0.91936512   -7.2858189    66.649112  0.024360056  0.025438297            2 
  229000   0.91599905   -7.3455836    66.555946  0.024219776  0.025374461            3 
  230000   0.89434642   -7.3153602    66.715797   0.02417239  0.025310614            3 
  231000   0.89084255   -7.3614282    66.650576  0.024044219  0.025245802            7 
  232000   0.89900363   -7.3585044    67.077747  0.024094018  0.025181754            2 
  233000   0.88585929   -7.3510774    67.208799  0.024037482  0.025117089            4 
  234000   0.90874796   -7.3543761    67.240554  0.023946066   0.02505302            3 
  235000   0.88345211   -7.3894254    67.275372  0.023856515  0.024989213            2 
  236000   0.89648854   -7.3589408    67.451334  0.023817561  0.024924657            4 
  237000   0.87672576   -7.3883971     67.55081  0.023752043  0.024861014            3 
  238000   0.87068025   -7.3698228    67.737059  0.023717458  0.024797359            2 
  239000   0.90464304   -7.3681014    68.158706  0.023765239  0.024734128            2 
  240000   0.88603107   -7.3713029    67.991682  0.023608223  0.024670193            3 
  241000   0.88859436      -7.3946    68.234051   0.02359407  0.024606565            3 
  242000   0.87016433   -7.3568979    68.343674  0.023534323  0.024542145            6 
  243000   0.88916175   -7.4041992    68.245407  0.023403775  0.024477657            3 
  244000   0.87388002   -7.3964172     68.45674  0.023380034  0.024413162            3 
  245000   0.87184955    -7.412732    68.478396  0.023291971  0.024348039            2 
  246000   0.88689277   -7.4040675    68.698935  0.023271997  0.024283579            2 
  247000   0.86661332   -7.4070281    68.883434  0.023240025  0.024219336            2 
  248000   0.89556882   -7.4140636    68.757789  0.023104096  0.024154785            4 
  249000   0.87992671   -7.4184887    68.909367  0.023062037  0.024090064            2 
  250000      0.89318   -7.4220966    68.939397  0.022979799  0.024024501            2 
  251000   0.85351572   -7.4313704    68.892915  0.022872814  0.023958683            4 
  252000   0.88321145   -7.4174222    69.157063  0.022869399  0.023892824            3 
  253000   0.85844018   -7.4483148    69.183149  0.022787598  0.023826802            4 
  254000   0.85369714   -7.4390365    69.257939  0.022722421  0.023760833            5 
  255000   0.85321001   -7.4353303    69.505931  0.022714356  0.023695166            4 
  256000   0.84475096   -7.4306205    69.612488  0.022660315   0.02363015            3 
  257000   0.86830461   -7.4641336    69.531697  0.022545946  0.023565363            3 
  258000   0.84224539    -7.445291    69.645439  0.022495297   0.02349904            3 
  259000   0.86352731   -7.4514428     69.93388  0.022501249  0.023433262            4 
  260000   0.85078446   -7.4567914    70.007993  0.022438459   0.02336842            4 
  261000   0.83926743    -7.454614     69.82007  0.022292487  0.023303002            3 
  262000   0.84968281   -7.4713996    70.048117  0.022279935  0.023237067            3 
  263000   0.85476941   -7.4594019    70.226964   0.02225189  0.023171066            5 
  264000   0.82895361   -7.4571749    70.199218  0.022158844  0.023106047            3 
  265000   0.83492728   -7.4641293    70.333018  0.022117301  0.023041143            3 
  266000   0.85183627   -7.4624582    70.575518  0.022110125  0.022976383            2 
  267000   0.84670815   -7.4724356    70.543299  0.022017259  0.022911971            2 
  268000   0.82672163   -7.4729113    70.611317  0.021956255  0.022847454            3 
  269000   0.83628784   -7.4648175    70.616473  0.021876231  0.022782187            4 
  270000   0.83257114    -7.506285     70.95825  0.021900695  0.022717742            2 
  271000   0.81742675   -7.4615048     71.05073  0.021848318   0.02265389            2 
  272000   0.82444861   -7.5009915     71.22314  0.021820815  0.022590728            3 
  273000   0.84395098   -7.5036817    71.333114  0.021774455  0.022528093            9 
  274000   0.82750591   -7.4563768     71.37004  0.021706217  0.022465415            6 
  275000    0.8116881   -7.5379516    71.261712  0.021594458   0.02240225            3 
  276000   0.82801252   -7.4832263    71.270131  0.021518759  0.022338924            3 
  277000   0.83742811   -7.5304893    71.251215  0.021435384  0.022275077            3 
  278000   0.81343826   -7.5074294    71.593064  0.021460751  0.022211128            1 
  279000   0.82675236   -7.5291007    71.446275  0.021339986   0.02214723            3 
  280000   0.81385908    -7.532007    71.370305  0.021241162  0.022082875            8 
  281000    0.8046273    -7.517395    71.675674  0.021256131  0.022018754            7 
  282000   0.83682369   -7.5093096    71.974846  0.021269163  0.021955909            3 
  283000   0.81802527   -7.5415322    71.978435  0.021195063  0.021893829            4 
  284000   0.81198627   -7.4911635    71.954015  0.021113267  0.021831393            4 
  285000   0.81341675   -7.5733854    72.218862  0.021116626  0.021768932            5 
  286000   0.81957547   -7.5552677    72.003094  0.020979922  0.021706223            5 
  287000   0.81855891   -7.5616342    72.187867  0.020960472  0.021643762            5 
  288000   0.81703646   -7.5815928    72.014577  0.020837551  0.021580621            2 
  289000   0.78931745   -7.5968402    72.197092  0.020818077  0.021517734            3 
  290000   0.79212465   -7.5657363    72.389501  0.020801581  0.021455266            3 
  291000   0.80651263   -7.5751502    72.314588  0.020708645  0.021393028            3 
  292000    0.8012874   -7.5648845    72.456701  0.020678282  0.021330505            5 
  293000   0.80020908   -7.5599565    72.545472  0.020632956  0.021267978            2 
  294000   0.78687647   -7.5560378    72.500513  0.020550032  0.021205839            2 
  295000   0.80070782   -7.5586516    72.833998  0.020574576  0.021144439            3 
  296000   0.79689684    -7.606789    72.699671   0.02046725   0.02108296            3 
  297000   0.80210289   -7.5859235    72.758109  0.020414733   0.02102159            2 
  298000   0.79230935   -7.5882928    72.913414  0.020389657  0.020960329            4 
  299000    0.7988118   -7.5820872    72.890139  0.020314977  0.020899192            4 
  300000   0.79126605   -7.6134197    72.662373  0.020183992  0.020837859            3 
  301000   0.78597746   -7.6031624    72.786155  0.020151206   0.02077636            4 
  302000    0.7926523   -7.6196941    72.987894  0.020140147  0.020715068            5 
  303000   0.77129163   -7.6388257    73.054958  0.020092123  0.020654039            3 
  304000   0.77206346   -7.6452737    73.073298  0.020031058  0.020592501            3 
  305000   0.78577166   -7.6374735    73.132429  0.019981538  0.020531304            4 
  306000    0.7738311   -7.6267584    73.282833  0.019957198  0.020470075            2 
  307000   0.77948163   -7.6260224    73.281143  0.019891732  0.020409591            2 
  308000   0.77339641   -7.6263272    73.414456  0.019863218  0.020348983            2 
  309000   0.79540652   -7.6223959    73.456464  0.019810265  0.020288587            4 
  310000   0.80038163   -7.6194132    73.604278  0.019786096  0.020229541            2 
  311000   0.77613568   -7.6249975    73.694475  0.019746644  0.020170568            2 
  312000   0.77306883   -7.6394809    73.713686  0.019688484  0.020111736            4 
  313000   0.77063615    -7.646122    73.640199  0.019606017  0.020052708            9 
  314000   0.77423598   -7.6547285    73.662491  0.019549493  0.019993572            3 
  315000   0.77377666   -7.6292814    73.794539  0.019522365  0.019933983            5 
  316000   0.75755601   -7.6249325    73.734487  0.019444749  0.019874382            2 
  317000   0.76100883   -7.6785051    73.784274  0.019396497  0.019815221            3 
  318000   0.75395963   -7.6448848    73.808778  0.019341923  0.019755827            4 
  319000   0.76007462   -7.6649134    73.947585  0.019317551  0.019696984            1 
  320000   0.76599177   -7.6860278    73.819127  0.019223731  0.019638099            3 
  321000   0.75539516   -7.6933399    73.781118  0.019153976  0.019578853            4 
  322000   0.75875594   -7.6903438    74.102231  0.019177596  0.019520004            3 
  323000   0.75540456   -7.6843139    74.110068  0.019120244  0.019461769            4 
  324000   0.74366211   -7.6881297    74.043644  0.019044147  0.019403823            4 
  325000   0.74089318   -7.6864983    74.396902  0.019076129  0.019345986            1 
  326000   0.75598349   -7.6802541    74.252135  0.018980607  0.019288511            3 
  327000   0.76575496   -7.6986331    74.190388  0.018906827   0.01923128            3 
  328000   0.75479687   -7.6959845     74.36295  0.018893026  0.019173698            3 
  329000   0.74832733   -7.7313652    74.443579  0.018856023  0.019116313            2 
  330000    0.7448197   -7.7299478    74.592776  0.018836559  0.019059548            4 
  331000   0.74170203   -7.7287407    74.634393  0.018790129  0.019003289            4 
  332000   0.75521675   -7.7111658    74.526795  0.018706525  0.018946927            5 
  333000    0.7364606   -7.7037509    74.585285  0.018664986  0.018890823            7 
  334000    0.7230889   -7.7367346    74.750344  0.018650285  0.018834397            6 
  335000   0.72991921   -7.7747382    74.523067  0.018538076  0.018777716            4 
  336000   0.73796312   -7.7435676    74.570019  0.018494548   0.01872104            4 
  337000   0.74155285   -7.7248687    74.746191  0.018483232  0.018664659            2 
  338000   0.71397551   -7.7219869    74.891604  0.018464399  0.018608665            3 
  339000     0.726682   -7.7258046    74.733676   0.01837111    0.0185527            3 
  340000   0.73173635   -7.7542314    74.716126  0.018312776  0.018496736            2 
  341000   0.72651919   -7.7622997    74.758586  0.018269449  0.018440687            2 
  342000   0.71433183   -7.7623235    74.513932  0.018156416  0.018384096            5 
  343000   0.71089151   -7.7451334    74.654956  0.018137744  0.018327653            3 
  344000   0.71532125   -7.7795431    74.653887  0.018084759  0.018271289            2 
  345000   0.71087334   -7.7883651    74.835291  0.018076157  0.018215185            4 
  346000    0.7125166   -7.7634014    74.624268  0.017973089  0.018159234            2 
  347000   0.72136603   -7.7650219    74.733433   0.01794751  0.018103211            4 
  348000   0.70544656   -7.7635436    74.837855  0.017920942  0.018047299            2 
  349000   0.70149113   -7.8089874    74.848856   0.01787222  0.017991581            5 
  350000   0.70254304   -7.7780805    74.754815  0.017798765  0.017935777            3 
  351000   0.70812114   -7.7818857    74.991137  0.017804164  0.017880731            5 
  352000   0.70721401   -7.7958726    74.843892  0.017718724  0.017825957            3 
  353000    0.6985438   -7.7684473    74.956496  0.017695112  0.017771414            6 
  354000   0.70655495   -7.7920243    75.062546  0.017670091  0.017716996            9 
  355000   0.70910572   -7.7897131    74.888147  0.017579377  0.017662373            2 
  356000   0.71280618   -7.8076536     75.01159  0.017558893  0.017607797            3 
  357000   0.70411426   -7.7994187     75.11374  0.017533553  0.017553379            3 
  358000   0.70143167   -7.8099298     74.95365  0.017447311  0.017499028            5 
  359000   0.70673094    -7.811557     75.10759  0.017434445  0.017445026            3 
  360000   0.69727089   -7.8298363    75.037431  0.017369776  0.017390825            3 
  361000   0.69204547   -7.8214042    75.038711  0.017321956     0.017337            4 
  362000   0.69872069    -7.850614    74.978319  0.017260202  0.017283205            3 
  363000    0.6843282   -7.8368157    75.119659  0.017245101  0.017229671            1 
  364000   0.68739127     -7.82695    75.237045  0.017224598  0.017176099            5 
  365000   0.69440772   -7.8428465    75.048462  0.017134352   0.01712262            5 
  366000   0.69514344   -7.8243568    75.130452  0.017106205  0.017069032            6 
  367000   0.66864281   -7.8485934    74.919432  0.017011678  0.017015655            3 
  368000   0.67180562   -7.8539006    74.945375  0.016971326  0.016962311            2 
  369000   0.68681188   -7.8416973    75.140981  0.016969508  0.016909289            3 
  370000   0.68912746   -7.8756263    75.091298  0.016912454    0.0168566            5 
  371000   0.66937614   -7.8427111    75.310818  0.016916176  0.016804175            4 
  372000   0.67928162   -7.8900281    75.144431   0.01683343  0.016751904            3 
  373000   0.66904793   -7.8774165    75.152736  0.016790156  0.016699764            5 
  374000   0.66530592   -7.8671275    75.092952  0.016731941  0.016647646            2 
  375000   0.66886139    -7.880699    75.248602  0.016721911   0.01659582            5 
  376000   0.65953528   -7.9048872    75.156889  0.016657112  0.016544088            4 
  377000    0.6602465   -7.8873107     75.25821  0.016635325  0.016492324            4 
  378000   0.66595701    -7.875274    75.199851   0.01657845  0.016440653            4 
  379000   0.66520657   -7.8922207    75.192835  0.016533165  0.016388959            4 
  380000   0.66173801   -7.9081424    75.220145  0.016495646    0.0163374            3 
  381000   0.64578097   -7.9035983    75.385052  0.016488419  0.016286088            3 
  382000   0.65080059   -7.9034874    75.235822  0.016412701   0.01623516            4 
  383000   0.65612797   -7.8938021    75.392669  0.016403975  0.016184586            6 
  384000   0.64203271    -7.912265    75.395877  0.016361952  0.016134007            5 
  385000   0.66656364    -7.910385    75.396337  0.016319553  0.016083727            2 
  386000   0.64783549   -7.8877182    75.376207  0.016272929  0.016033762            5 
  387000   0.63754669   -7.9095523    75.441748  0.016244993  0.015983914            4 
  388000   0.65285661   -7.9195086    75.546284  0.016225576  0.015934458            3 
  389000   0.63388337   -7.9196805    75.551376  0.016184956  0.015885139            5 
  390000   0.64749522   -7.9165294    75.634394  0.016161195  0.015835925            4 
  391000    0.6561691   -7.9270977    75.505399   0.01609237  0.015786796            5 
  392000   0.64540257    -7.922327    75.402492  0.016029441  0.015737697            2 
  393000   0.63663558   -7.9214567    75.264392  0.015959371  0.015688604            2 
  394000    0.6382654   -7.9199859    75.530929  0.015975239   0.01563974            4 
  395000   0.64118751   -7.9385188    75.539287  0.015936558  0.015591006            2 
  396000   0.63457335    -7.991029    75.610906  0.015911386  0.015542378            2 
  397000   0.64408625   -7.9718877    75.570192  0.015862761  0.015493905            3 
  398000    0.6175141   -7.9709431    75.521077  0.015812621  0.015445523            3 
  399000   0.63652915   -7.9607083    75.569316  0.015783065   0.01539729            4 
  400000   0.62831799   -7.9556031    75.519678  0.015733266  0.015349254            4 
  401000   0.62396126   -7.9830602    75.540856  0.015698432  0.015301207            2 
  402000   0.63569937   -7.9809277    75.430843  0.015636576   0.01525346            3 
  403000   0.61684195   -7.9491202    75.449522  0.015601638  0.015205715            3 
  404000    0.6132035   -7.9895862    75.607828  0.015595674  0.015158221            3 
  405000   0.62518299   -7.9883509    75.588688  0.015553228  0.015110879            4 
  406000   0.60537981   -7.9897014    75.413498  0.015478961  0.015063597            5 
  407000   0.61353551   -7.9881176    75.464656  0.015451404  0.015016348            3 
  408000   0.61720689    -8.002947    75.429366  0.015406325  0.014969192            5 
  409000   0.62320732   -7.9896477    75.421534  0.015367061  0.014922218            3 
  410000   0.60729186   -7.9869773    75.347171  0.015314466  0.014875378            3 
  411000   0.60641681     -8.00639    75.424437   0.01529287  0.014828573            3 
  412000   0.60331852   -7.9954995    75.370779  0.015244899  0.014781903            3 
  413000   0.61619882   -7.9990768    75.362578  0.015206331  0.014735306            4 
  414000   0.59980554   -7.9915675    75.486862  0.015194618  0.014688799            5 
  415000   0.61771859   -8.0308869    75.445209   0.01514964  0.014642475            6 
  416000   0.59953723     -8.01876    75.440719  0.015112324  0.014596136            3 
  417000   0.59253365   -8.0181133     75.28681  0.015045326  0.014550036            2 
  418000   0.60438912   -8.0261133    75.328575  0.015017658  0.014504199            4 
  419000   0.60314219   -8.0597518     75.42078  0.015000155  0.014458407            3 
  420000    0.6058695   -8.0404214    75.231049  0.014926795  0.014412762            5 
  421000   0.60401362   -8.0673493    75.404296  0.014925633  0.014367234            2 
  422000    0.5947416    -8.054624    75.447391  0.014898774  0.014321917            3 
  423000   0.60698246   -8.0516088    75.508008  0.014875494  0.014276808            3 
  424000   0.60006999    -8.037863    75.298013  0.014799138  0.014231736            5 
  425000   0.59160027   -8.0427219    75.381648  0.014780715  0.014186747            3 
  426000   0.58584961    -8.074034    75.363241  0.014742418  0.014141961            5 
  427000   0.59829578   -8.0578037    75.453383  0.014725485  0.014097262            3 
  428000   0.58864923   -8.0524501    75.431586  0.014686835  0.014052845            7 
  429000    0.5824606   -8.0599342    75.297045  0.014626466  0.014008395            6 
  430000   0.58698587   -8.0591541    75.289507   0.01459099  0.013964001            5 
  431000   0.59603283   -8.0582879    75.311512  0.014561391  0.013919842            5 
  432000   0.57206362   -8.0537594    75.054581  0.014478121  0.013875653            3 
  433000   0.58589266   -8.0810623    75.222547  0.014477011  0.013831596            4 
  434000    0.5774734   -8.0747867     75.08666  0.014417562  0.013787701            5 
  435000   0.57905649   -8.0781194    75.183819   0.01440303  0.013743927            7 
  436000   0.57793435   -8.0945275    75.233579  0.014379507  0.013700253            5 
  437000   0.57375913   -8.0666893    75.190429  0.014338373  0.013656747            5 
  438000   0.56336382   -8.0877234    75.199697  0.014307401  0.013613503            5 
  439000   0.57746336   -8.0729702    75.238521  0.014282179   0.01357045            5 
  440000   0.56419958   -8.1009882    75.046923  0.014213432  0.013527359            5 
  441000   0.56695315   -8.0856736      75.1615  0.014202853  0.013484389            8 
  442000    0.5667888   -8.1026671    75.059926   0.01415157  0.013441658            5 
  443000    0.5676297   -8.1157793      75.2289  0.014151411  0.013399122           11 
  444000   0.55181046   -8.1169096    75.203048  0.014114686  0.013356679            7 
  445000   0.55952065   -8.1042633    75.293315  0.014099872  0.013314341            9 
  446000   0.55967224   -8.1207578    75.089403  0.014030158  0.013272051            7 
  447000   0.56744981   -8.1082792    75.112312  0.014003041  0.013229999           12 
  448000   0.56264853   -8.1403332    75.222555  0.013992291  0.013188057            5 
  449000   0.56693357   -8.1344756    75.174133   0.01395214  0.013146305            3 
  450000   0.55834238   -8.1113888    74.989907   0.01388702  0.013104628            6 
  451000   0.53911978    -8.130736    75.195542  0.013894224  0.013063083            3 
  452000   0.54693717   -8.1380498    75.195123  0.013863408  0.013021703            9 
  453000   0.55113387   -8.1502495    75.069142  0.013809629  0.012980397            7 
  454000   0.53567576   -8.1457871      75.0105  0.013768447  0.012939322           17 
  455000   0.55426217   -8.1342673    75.078527  0.013750646  0.012898332            8 
  456000   0.54335228   -8.1448181    74.965643  0.013699862  0.012857533            9 
  457000   0.54918184   -8.1574773     75.08992  0.013692546   0.01281689            8 
  458000   0.53340716   -8.1595416    75.153494  0.013674217   0.01277647            4 
  459000   0.54427811    -8.164913     75.01773  0.013619777  0.012736111           15 
  460000   0.52389305   -8.1499871    75.041264  0.013594432  0.012695934            5 
  461000   0.53819341   -8.1809979    74.955091  0.013549366  0.012655854            5 
  462000   0.53119353   -8.1864305    75.182586  0.013561073  0.012615907            6 
  463000   0.53420076   -8.1799254    74.997806  0.013498525  0.012576051            4 
  464000   0.53662131   -8.1742256    75.119137  0.013491224  0.012536408           11 
  465000   0.52245398    -8.182018    74.950945  0.013432069  0.012496806            5 
  466000   0.51481615   -8.1699887    74.914448  0.013396718  0.012457367            9 
  467000   0.52781911   -8.1827476    74.996723  0.013382713  0.012418087            7 
  468000   0.51935787   -8.1858137    74.887086  0.013334595  0.012378946           14 
  469000   0.51171646   -8.1845937    75.052372  0.013335532  0.012339936           17 
  470000   0.52689994   -8.1852965    74.953977  0.013289712  0.012301043           16 
  471000   0.50489208   -8.2010604    74.890589  0.013250281  0.012262213           13 
  472000   0.51611539    -8.194752    74.959829  0.013234433  0.012223509           10 
  473000   0.51852901   -8.2014598    74.839713  0.013185291  0.012184929            8 
  474000    0.5032477   -8.2034975    74.870128  0.013162821  0.012146475            8 
  475000   0.52213964   -8.1794903    74.896275  0.013139697  0.012108158            9 
  476000   0.50603461   -8.1927008     74.90658  0.013113897  0.012070043            9 
  477000   0.50155529   -8.2188955    74.910042  0.013087009  0.012031947            9 
  478000   0.49602613   -8.2180661    74.945075  0.013065738  0.011994074           10 
  479000   0.50189824   -8.2212403    74.943356  0.013038162  0.011956332            7 
  480000   0.49891289   -8.2137276    74.885222  0.013000907  0.011918832            8 
  481000   0.50652386   -8.2059812    74.709367  0.012943411  0.011881336            6 
  482000   0.48678087   -8.2125169    74.872047  0.012944683  0.011843987           12 
  483000   0.50245004   -8.2264458    74.755814  0.012897828   0.01180677           10 
  484000   0.49293731   -8.2433252    74.787597  0.012876652  0.011769658           10 
  485000   0.49747466   -8.2381538    74.779923  0.012848784  0.011732694           17 
  486000   0.49559645   -8.2284971    74.854691  0.012835166  0.011695856           10 
  487000   0.48792327   -8.2355966    74.722946  0.012786267  0.011659127            7 
  488000   0.48092469   -8.2280925    74.728661  0.012761042  0.011622534           10 
  489000   0.48923677   -8.2426444    74.575727  0.012708883  0.011586085            8 
  490000   0.47710024    -8.220143    74.657568  0.012696865  0.011549775            8 
  491000   0.47555436   -8.2359554    74.824868  0.012699401  0.011513568            8 
  492000   0.48765043   -8.2430919    74.839231  0.012676021  0.011477519           21 
  493000     0.486306   -8.2446884    74.786344   0.01264137  0.011441673            7 
  494000   0.47639493   -8.2384324    74.616357  0.012587105  0.011405843            6 
  495000   0.47067729   -8.2426733    74.626682  0.012563415  0.011370214           11 
  496000    0.4890555   -8.2451828     74.65259  0.012542438  0.011334738            9 
  497000    0.4699454   -8.2678915     74.63148  0.012513662  0.011299289           12 
  498000   0.47752104    -8.247827     74.74763   0.01250797  0.011264034            4 
  499000   0.47602088   -8.2606778     74.62477  0.012462386    0.0112289            7 
  500000   0.47042251   -8.2630975    74.539667  0.012423278   0.01119391            9 
  501000   0.46884735   -8.2737672    74.595355  0.012407744  0.011159074            7 
  502000   0.47385265   -8.2659094    74.719061  0.012403563  0.011124365           10 
  503000   0.46606738   -8.2744923    74.537342  0.012348798  0.011089743            9 
  504000   0.47391809   -8.2951198    74.467976  0.012312827  0.011055223            6 
  505000   0.46590227   -8.2821531    74.495015  0.012292907  0.011020821            8 
  506000   0.45831279    -8.276571    74.519928  0.012272715  0.010986576            6 
  507000   0.45093516    -8.278653    74.550765  0.012253577  0.010952457            4 
  508000   0.45360324   -8.2839934    74.573141  0.012233127  0.010918498            3 
  509000   0.45367189    -8.293589    74.589856   0.01221183  0.010884646            7 
  510000   0.45637464   -8.2959239    74.566199  0.012184019  0.010850947            8 
  511000   0.44473867    -8.288471    74.520657  0.012152749  0.010817334            4 
  512000   0.45878483   -8.2940616    74.535087  0.012131362  0.010783876            4 
Loop time of 1161.49 on 48 procs for 500000 steps with 4000 atoms

Performance: 74387.417 tau/day, 430.483 timesteps/s
99.4% CPU use with 48 MPI tasks x no OpenMP threads

MPI task timing breakdown:
Section |  min time  |  avg time  |  max time  |%varavg| %total
---------------------------------------------------------------
Pair    | 70.559     | 74.905     | 79.2       |  22.3 |  6.45
Neigh   | 7.5144     | 7.7757     | 8.0133     |   5.0 |  0.67
Comm    | 72.513     | 77.124     | 81.982     |  25.5 |  6.64
Output  | 0.85508    | 0.85558    | 0.86444    |   0.1 |  0.07
Modify  | 985.82     | 989.33     | 993.84     |   5.3 | 85.18
Other   |            | 11.5       |            |       |  0.99

Nlocal:        83.3333 ave          90 max          75 min
Histogram: 1 2 4 2 13 2 9 6 6 3
Nghost:        1953.85 ave        1973 max        1939 min
Histogram: 7 6 6 5 6 4 3 4 2 5
Neighs:        12403.1 ave       13653 max       10486 min
Histogram: 1 1 3 5 5 5 9 10 4 5
FullNghs:      24805.9 ave       27177 max       21965 min
Histogram: 1 3 3 4 11 5 8 8 3 2

Total # of neighbors = 1190684
Ave neighs/atom = 297.67100
Neighbor list builds = 26821
Dangerous builds = 0

#clear
#
#next RN
#
#jump SELF
Total wall time: 0:19:24
