
units lj                  # Use reduced LJ style units
atom_style atomic         # Uncharged point particles
atom_modify map hash      # Needed for indexing of clusters etc
                          # Used to be able to find where atoms are in relation to each other.

lattice fcc 1.0 spacing 1 1 1
Lattice spacing in x,y,z = 1.5874011 1.5874011 1.5874011
region box block 0 10 0 10 0 10 units lattice
create_box 2 box
Created orthogonal box = (0.0000000 0.0000000 0.0000000) to (15.874011 15.874011 15.874011)
  3 by 4 by 4 MPI processor grid
create_atoms 1 box
Created 4000 atoms
  using lattice units in orthogonal box = (0.0000000 0.0000000 0.0000000) to (15.874011 15.874011 15.874011)
  create_atoms CPU = 0.002 seconds
set type 1 type/fraction 2 0.87 78393
Setting atom values ...
  3472 settings made for type/fraction
mass 1 1.0
mass 2 1.0
pair_style lj/cut  3.5
pair_modify tail  yes
pair_coeff 1  1  1.0  1.0   # Intearaction between 1 and 1 set with epsilon = 1 and sigma = 1
pair_coeff 1  2  1.5  0.8
pair_coeff 2  2  0.5  0.88

write_data data.0
System init for write_data ...
Neighbor list info ...
  update every 1 steps, delay 10 steps, check yes
  max neighbors/atom: 2000, page size: 100000
  master list distance cutoff = 3.8
  ghost atom cutoff = 3.8
  binsize = 1.9, bins = 9 9 9
  1 neighbor lists, perpetual/occasional/extra = 1 0 0
  (1) pair lj/cut, perpetual
      attributes: half, newton on
      pair build: half/bin/atomonly/newton
      stencil: half/bin/3d
      bin: standard
WARNING: Not all mixed pair coeffs generated from mixing. Use write_data with 'pair ij' option to store all pair coeffs. (../write_data.cpp:312)


#############################
#   M E L T   S Y S T E M   #
#############################

velocity all create 2.4 5300450 mom yes dist gaussian # Assign velocities
                                                    # Temperature 2.4, random number seed, zero linear momentum
                                                                                # Gaussian distribution

timestep 0.002   # simulation timestep
thermo 1000       # output thermodynamic data every 1000 steps bf 100

# Define a fix  in this case with index 1 applied to all
# particles in the simulation. This fix is for simulations
# in the anisotropic NPT ensemble. Note that we use the MTK
# correction.
fix 1 all npt temp 2.4 2.4 0.1 iso 5.68 5.68 0.5 mtk yes tchain 5 pchain 5 # Use NPT ensemble
                                                                         # Set temperature and pressure and damping
                                                                         # Numbers of thermostats in chain and in barostat
run 10000          # run for 10000 steps
Per MPI rank memory allocation (min/avg/max) = 3.642 | 3.644 | 3.648 Mbytes
Step Temp E_pair E_mol TotEng Press Volume 
       0          2.4   -3.3406884            0   0.25841159    -2.808294         4000 
    1000    2.3998395     -2.46269            0    1.1361693    5.9013205    3915.7204 
    2000     2.421418   -2.4560178            0    1.1752012    5.6341391     3970.079 
    3000      2.40551   -2.4956388            0    1.1117241    5.8211614    3916.3118 
    4000    2.4383294    -2.440049            0    1.2165306    5.7414023    3959.6501 
    5000    2.4437253    -2.485771            0    1.1789006    5.7286516    3948.3519 
    6000     2.392685   -2.4666209            0    1.1215095    5.6948413    3944.4478 
    7000    2.4181358   -2.4512883            0    1.1750087    5.7567483    3942.9803 
    8000    2.3780859   -2.5073571            0      1.05888    5.6366454    3921.8379 
    9000    2.3653901   -2.4898197            0    1.0573785    5.4929801    3950.4448 
   10000    2.4017729   -2.4905001            0    1.1112586    5.5969374    3947.2277 
Loop time of 2.48779 on 48 procs for 10000 steps with 4000 atoms

Performance: 694593.181 tau/day, 4019.636 timesteps/s
99.6% CPU use with 48 MPI tasks x no OpenMP threads

MPI task timing breakdown:
Section |  min time  |  avg time  |  max time  |%varavg| %total
---------------------------------------------------------------
Pair    | 1.1191     | 1.1718     | 1.2288     |   2.5 | 47.10
Neigh   | 0.21055    | 0.21795    | 0.22592    |   0.8 |  8.76
Comm    | 0.79164    | 0.84725    | 0.89221    |   2.9 | 34.06
Output  | 0.00025022 | 0.00025353 | 0.00032514 |   0.0 |  0.01
Modify  | 0.21624    | 0.23528    | 0.25255    |   1.9 |  9.46
Other   |            | 0.01528    |            |       |  0.61

Nlocal:        83.3333 ave          95 max          73 min
Histogram: 2 7 5 7 3 9 7 2 1 5
Nghost:        1660.29 ave        1686 max        1630 min
Histogram: 1 2 7 7 2 6 7 9 4 3
Neighs:        9669.73 ave       11502 max        8066 min
Histogram: 3 3 8 6 6 11 3 4 0 4

Total # of neighbors = 464147
Ave neighs/atom = 116.03675
Neighbor list builds = 911
Dangerous builds = 236

# Equilibrate just above the melting temperature to avoid step fn in T

fix 1 all npt temp 1.25 1.25 0.1 iso 5.68 5.68 0.5 mtk yes tchain 5 pchain 5
run 2000
Per MPI rank memory allocation (min/avg/max) = 3.643 | 3.645 | 3.649 Mbytes
Step Temp E_pair E_mol TotEng Press Volume 
   10000    2.4017729   -2.4905001            0    1.1112586    5.5969374    3947.2277 
   11000    1.2543279   -3.6841881            0   -1.8031667    5.6272683    3046.6333 
   12000    1.2339631     -3.64922            0    -1.798738    5.8176555    3047.2341 
Loop time of 0.619848 on 48 procs for 2000 steps with 4000 atoms

Performance: 557555.631 tau/day, 3226.595 timesteps/s
99.6% CPU use with 48 MPI tasks x no OpenMP threads

MPI task timing breakdown:
Section |  min time  |  avg time  |  max time  |%varavg| %total
---------------------------------------------------------------
Pair    | 0.27887    | 0.30003    | 0.33081    |   2.0 | 48.40
Neigh   | 0.040054   | 0.041996   | 0.046321   |   0.6 |  6.78
Comm    | 0.19484    | 0.22776    | 0.25202    |   2.5 | 36.74
Output  | 5.175e-05  | 5.3704e-05 | 7.1126e-05 |   0.0 |  0.01
Modify  | 0.041403   | 0.045019   | 0.047895   |   0.8 |  7.26
Other   |            | 0.004988   |            |       |  0.80

Nlocal:        83.3333 ave          93 max          73 min
Histogram: 1 2 4 8 4 11 7 4 2 5
Nghost:        1968.02 ave        1991 max        1942 min
Histogram: 1 1 7 7 8 5 6 6 3 4
Neighs:        12534.6 ave       14646 max       10751 min
Histogram: 1 4 4 11 10 8 4 2 3 1

Total # of neighbors = 601661
Ave neighs/atom = 150.41525
Neighbor list builds = 142
Dangerous builds = 15

#############################
# L I N E A R  Q U E N C H  #
#############################

# Define solid atoms. This closely follows ten Wolde  Ruiz-Montero and Frenkel  Faraday Discuss  1996  104  93-110
# Compute components of the per-atom q6 vector
compute q6 all orientorder/atom degrees 1 6 components 6 nnn NULL cutoff 1.3 # compute the Q6 parameter.
                                                                             # Use all neighbours within 1.3 unit cell.

# get number of connections
compute coord_number all coord/atom orientorder q6 0.5

# An atom is solid if it has 8 or more connections (of a possible 14)
variable is_solid atom c_coord_number>=8
group solid dynamic all var is_solid    # Must be dynamic to update
dynamic group solid defined

# do clustering
compute cluster solid cluster/atom 1.3 # Create a cluster where all atoms within are solid and max 1.3 units from another member

# define chunks one chunk per cluster
compute clus_chunks solid chunk/atom c_cluster nchunk every compress yes  # Says which atoms are in which chunk

# count the size of each chunk
compute size_chunks solid property/chunk clus_chunks count


# Find the maximum entry in the vector of chunk sizes
variable max_n equal max(c_size_chunks)


# Thermo style which includes this variable
# thermo_style custom step temp pe vol v_max_n

thermo ${N}  # Print the thermo information every 100 steps
thermo 1000  

# Reset the npt fix at a lower temperature (below freezing)
fix 1  all npt temp  ${temp} ${temp}  0.1  iso  5.68  5.68  0.5  mtk yes tchain  5  pchain  5
fix 1  all npt temp  0.45 ${temp}  0.1  iso  5.68  5.68  0.5  mtk yes tchain  5  pchain  5
fix 1  all npt temp  0.45 0.45  0.1  iso  5.68  5.68  0.5  mtk yes tchain  5  pchain  5

dump dmp2 all dcd ${N} traj.dcd
dump dmp2 all dcd 1000 traj.dcd


compute msd all msd com yes
variable twopoint equal c_msd[4]/6/(step*dt+1.0e-6)
fix 9 all vector 10 c_msd[4]
variable fit equal slope(f_9)/6/(10*dt)
thermo_style custom step temp pe c_msd[4] v_twopoint v_fit v_max_n

fix 1 all npt temp 1.25 ${temp} 0.1 iso 5.68 5.68 0.5 mtk yes tchain 5 pchain 5
fix 1 all npt temp 1.25 0.45 0.1 iso 5.68 5.68 0.5 mtk yes tchain 5 pchain 5
run 5000000 # 5000000  # Run for this many steps
Neighbor list info ...
  update every 1 steps, delay 10 steps, check yes
  max neighbors/atom: 2000, page size: 100000
  master list distance cutoff = 3.8
  ghost atom cutoff = 3.8
  binsize = 1.9, bins = 8 8 8
  4 neighbor lists, perpetual/occasional/extra = 1 3 0
  (1) pair lj/cut, perpetual
      attributes: half, newton on
      pair build: half/bin/atomonly/newton
      stencil: half/bin/3d
      bin: standard
  (2) compute orientorder/atom, occasional
      attributes: full, newton on
      pair build: full/bin/atomonly
      stencil: full/bin/3d
      bin: standard
  (3) compute coord/atom, occasional
      attributes: full, newton on
      pair build: full/bin/atomonly
      stencil: full/bin/3d
      bin: standard
  (4) compute cluster/atom, occasional
      attributes: full, newton on
      pair build: full/bin/atomonly
      stencil: full/bin/3d
      bin: standard
Per MPI rank memory allocation (min/avg/max) = 9.824 | 9.832 | 9.837 Mbytes
Step Temp PotEng c_msd[4] v_twopoint v_fit v_max_n 
   12000    1.2339631     -3.64922 1.4828613e-30 1.0297647e-32 8.3333333e+20            1 
   13000     1.263682   -3.6858439   0.94510767 0.0060583823  0.080335207            3 
   14000    1.2612153   -3.6905444    1.9434142  0.011567941  0.081913296            1 
   15000    1.2527086   -3.6875291    2.9803655  0.016557586  0.083377362            1 
   16000    1.2293918   -3.6481852    3.9604626  0.020627409  0.083911655            3 
   17000    1.2348513   -3.7009868    4.8320017  0.023686282  0.082687524            3 
   18000    1.2552414    -3.687226    5.8430432  0.027051125  0.081429419            1 
   19000    1.2263303   -3.7036837    6.8099857  0.029868358  0.081173689            3 
   20000    1.2496933   -3.6833038    7.8714036  0.032797514   0.08158541            1 
   21000    1.2364682   -3.7233965    8.8226995  0.035010711  0.081838412            3 
   22000     1.249292    -3.712877    9.7981577  0.037114233  0.081920445            2 
   23000    1.2568428   -3.6626174    10.657408  0.038613798  0.081764889            2 
   24000    1.2663489   -3.7047881    11.738379  0.040758261  0.081643852            3 
   25000    1.2570014   -3.6906111    12.773871  0.042579571  0.081804811            7 
   26000    1.2422682   -3.6758194     13.83011  0.044327275  0.081837669            2 
   27000    1.2475985   -3.6927814     15.12641  0.046686451  0.082402226            1 
   28000    1.2418705   -3.6465612    16.218361  0.048268931  0.082996022            2 
   29000    1.2573756   -3.6666089    17.328316   0.04979401  0.083642458            1 
   30000    1.2342836   -3.6473581    18.396926  0.051102572  0.084252011            1 
   31000    1.2517808    -3.647076    19.599364  0.052686462  0.084748469            1 
   32000    1.2400683   -3.6923262    20.583496  0.053602854  0.085228488            3 
   33000    1.2259205   -3.7164777    21.472305  0.054222991  0.085525281            2 
   34000      1.25019   -3.6744108    22.603741  0.055401325  0.085759984            5 
   35000    1.2575948   -3.7046688    23.811032  0.056692932  0.086072349            2 
   36000    1.2261014    -3.703831    24.588335  0.056917442  0.086316091            2 
   37000    1.2541664   -3.6889014    25.656603   0.05778514  0.086395571            2 
   38000    1.2383501   -3.6901934    26.784025  0.058736897  0.086538184            3 
   39000    1.2494559   -3.7166253    27.818912  0.059442118  0.086681752            2 
   40000    1.2556885   -3.6858735    29.248586  0.060934554  0.086913937            1 
   41000     1.254124   -3.6887844    30.364159  0.061715769  0.087261506            2 
   42000    1.2576559   -3.7150956    31.314395  0.062131735  0.087481985            1 
   43000    1.2419009   -3.7120591    32.394296  0.062779642  0.087622758            1 
   44000    1.2283786    -3.672007    33.685116  0.063797567  0.087813198            2 
   45000    1.2756215   -3.6784897    34.598192  0.064070725   0.08797131            2 
   46000    1.2538153   -3.6916074    35.696139  0.064666917  0.088088006            2 
   47000    1.2327015   -3.6913828    36.830673   0.06530261  0.088233418            4 
   48000    1.2459285   -3.6866549    37.705362  0.065460697  0.088312649            1 
   49000    1.2565625   -3.6737033    38.525254   0.06551914  0.088323374            1 
   50000    1.2092786   -3.7169821    39.691789  0.066152982  0.088337776            2 
   51000    1.2665823   -3.7052887    40.689041  0.066485361  0.088287315            3 
   52000     1.244775   -3.6601643    41.363612  0.066287839   0.08820678            4 
   53000    1.2280546   -3.6926316    42.175518  0.066313708  0.088080166            2 
   54000    1.2237671   -3.7274827    43.212446  0.066685873  0.087901508            1 
   55000    1.2647367    -3.674155    44.201037  0.066971268  0.087765877            1 
   56000    1.2447481   -3.6823641    45.484227   0.06768486  0.087647871            1 
   57000    1.2748887    -3.709645    46.358538   0.06777564   0.08755649            1 
   58000    1.2285285   -3.7003491    47.369508  0.068059637  0.087467951            1 
   59000    1.2504853   -3.6871619     48.64439  0.068706765  0.087387917            1 
   60000    1.2271853   -3.7071433    49.609334  0.068901852   0.08733097            2 
   61000    1.2265933   -3.7222264    50.594944  0.069118775   0.08727415            2 
   62000    1.2437995   -3.7174391    51.697823  0.069486321  0.087217708            1 
   63000    1.2352317   -3.7025977    52.799416  0.069840496   0.08717287            1 
   64000    1.2390056   -3.6866107    54.272491  0.070667306  0.087170452            2 
   65000    1.2257367   -3.6869953    55.562807  0.071234367  0.087210323            2 
   66000    1.2513941   -3.7127547    56.071385  0.070797203  0.087245097            2 
   67000    1.2552177   -3.7173215     57.09407  0.071012524  0.087240777            2 
   68000    1.2566394   -3.7084865    57.895618  0.070950512  0.087220294            4 
   69000    1.2518468   -3.6621303    59.382102  0.071717514  0.087210652            1 
   70000    1.2533462   -3.7370154    59.770558  0.071155426  0.087170089            1 
   71000    1.2150925   -3.7488459    60.880221  0.071455658  0.087116577            1 
   72000    1.2431757   -3.7335194    61.862074  0.071599622  0.087068274            4 
   73000    1.2765556   -3.7225483    63.156052  0.072095949  0.087041495            2 
   74000    1.2231091   -3.7256905    64.020018  0.072094614  0.087024251            2 
   75000    1.2292949   -3.7057757    65.194057  0.072437841  0.086997537            3 
   76000    1.2186958   -3.7269277    66.152977  0.072536158  0.086958235            3 
   77000    1.2517484   -3.6761251    67.184209  0.072710182  0.086914055            1 
   78000    1.2410917   -3.6807421    68.560226  0.073248104  0.086873851            1 
   79000    1.2394789   -3.6880118     69.14095  0.072933492   0.08683387            1 
   80000    1.2033409   -3.7362785    69.985733  0.072901805  0.086759856            2 
   81000    1.2360574   -3.6798852    71.215528  0.073267004  0.086697854            2 
   82000    1.2102283    -3.704009    72.224518    0.0733989  0.086651201            4 
   83000    1.2362457   -3.6446786    73.533373  0.073828687  0.086606312            3 
   84000     1.239402   -3.7324604    74.424403  0.073833733   0.08656957            2 
   85000    1.2336394   -3.6869681    75.804463  0.074318101  0.086567142            2 
   86000    1.2196894     -3.70956    76.841316  0.074458639  0.086589875            4 
   87000    1.2127763   -3.6946161    77.649534  0.074376947  0.086604477            3 
   88000    1.2267619   -3.6949513    78.844968  0.074663795  0.086631909            4 
   89000    1.2265758   -3.6854577    80.414486  0.075294463  0.086648592            1 
   90000    1.2470022   -3.6924761    81.141252  0.075130789  0.086662698            2 
   91000     1.245046   -3.6910385    82.138704  0.075218593  0.086683217            3 
   92000    1.1966959   -3.6631352    83.355976  0.075503601  0.086701735            5 
   93000    1.2425444   -3.7558643    83.532272  0.074849706  0.086718984            1 
   94000    1.2558069   -3.6955003    85.172132  0.075507209  0.086714416            1 
   95000    1.2238587   -3.6852564    86.278364  0.075682775  0.086713482            2 
   96000    1.2371583   -3.6869784    87.144541  0.075646303  0.086722276            3 
   97000    1.2450065   -3.7113261    88.370934  0.075920046  0.086729258            3 
   98000    1.2500533   -3.7065699    89.505821  0.076110392  0.086749313            3 
   99000     1.217663   -3.7166044    90.396992  0.076091744   0.08676604            2 
  100000     1.244857   -3.7200353    91.731765  0.076443137  0.086784332            1 
  101000    1.1985331   -3.6897856    92.804561   0.07657142  0.086802566            2 
  102000    1.2299304   -3.7050145    93.891851  0.076709028  0.086826828            1 
  103000    1.2132392   -3.6930435    94.852251  0.076741303  0.086841379            2 
  104000    1.2524711   -3.7093318    95.875277  0.076823138  0.086867039            1 
  105000    1.2160633   -3.7256406    96.618976  0.076681727  0.086889258            2 
  106000    1.2366442   -3.7338424    98.080597  0.077107387   0.08691511            1 
  107000    1.2455451   -3.7112483    99.442423   0.07744737  0.086959762            2 
  108000    1.2338145   -3.7365051     100.4342  0.077495527   0.08699371            4 
  109000    1.2699722   -3.6937782    101.71745  0.077765633  0.087032641            2 
  110000     1.226059     -3.69515    102.89681  0.077952128   0.08707458            1 
  111000    1.2736234   -3.6956274    103.85176  0.077966784  0.087108424            2 
  112000    1.2380209   -3.6853524    104.66806  0.077878019  0.087125989            1 
  113000    1.2457369   -3.7001287    105.39838  0.077727417  0.087130329            1 
  114000    1.2193254   -3.6964528    106.62246  0.077940394  0.087144754            1 
  115000    1.2440797   -3.6732871     107.7317  0.078066447  0.087153054            2 
  116000    1.2235854    -3.712186    108.48396   0.07793388   0.08716361            1 
  117000    1.2148699   -3.6848145    110.08854   0.07841064  0.087177725            4 
  118000    1.2366928    -3.706968    110.65749  0.078147946  0.087191462            2 
  119000     1.229814   -3.7307131    111.65551  0.078190134   0.08720322            2 
  120000    1.2086937    -3.712548    112.07044  0.077826692   0.08721871            1 
  121000    1.2154803   -3.7357711    113.55678  0.078207148  0.087216181            2 
  122000    1.2270887    -3.720301    114.65798  0.078318295  0.087216763            2 
  123000    1.2488419   -3.7281046    115.86122  0.078496759  0.087216069            1 
  124000    1.2504148   -3.7405631    116.43406  0.078248698  0.087215156            2 
  125000    1.2323468   -3.7359297    116.92446  0.077949641  0.087204859            2 
  126000    1.2410981   -3.6969492     119.0297  0.078723345   0.08719923            2 
  127000    1.2569493   -3.6963648    120.04913  0.078772396  0.087189719            2 
  128000    1.2092694   -3.7201521    120.32481  0.078336466   0.08717697            3 
  129000    1.2139783   -3.7101213    121.67944  0.078604289  0.087165004            1 
  130000    1.2427647    -3.717767     122.5793  0.078576475   0.08715228            2 
  131000    1.2409391   -3.6885084     124.1115  0.078951334  0.087147366            1 
  132000    1.2144788   -3.6772728     125.2198  0.079052903  0.087143872            1 
  133000     1.220526   -3.7084653    125.86504  0.078862809  0.087137904            1 
  134000    1.2010318   -3.6928026    126.68489  0.078784136  0.087130611            1 
  135000    1.2440638   -3.7163369     127.9798  0.078999876  0.087123641            4 
  136000     1.209966   -3.7314071    128.64528  0.078826763  0.087112758            3 
  137000    1.2408642   -3.7004251    129.66691  0.078872815  0.087102035            2 
  138000    1.2430167   -3.7136542    131.05277  0.079138148  0.087077541            4 
  139000    1.2578514   -3.7378544    132.03467  0.079157477  0.087060083            1 
  140000    1.2433447   -3.6828026    132.97396  0.079151169  0.087036329            1 
  141000    1.2429672   -3.7096082    133.71872  0.079029977  0.087007619            3 
  142000    1.2371123   -3.6936675     134.0921  0.078692544  0.086986043            1 
  143000    1.2367367   -3.7198693    135.26888  0.078828019  0.086954041            1 
  144000    1.2302304   -3.7223292    136.48962  0.078987048   0.08693888            3 
  145000    1.2235503   -3.7358528    137.34201  0.078932191  0.086913966            2 
  146000    1.2073125   -3.6970761    139.58516  0.079671894   0.08688844            1 
  147000    1.1949406   -3.7244409    139.92986  0.079325316  0.086876453            1 
  148000    1.2488125   -3.6943622    140.96353   0.07937136  0.086861854            2 
  149000    1.2354271   -3.7366195     141.8876   0.07935548  0.086847712            2 
  150000    1.2144284   -3.7045711    143.10174  0.079500968  0.086829793            1 
  151000    1.2169029   -3.7446359    143.96393   0.07945029  0.086813408            7 
  152000    1.2255822   -3.7683176    144.86826  0.079423385  0.086793056            1 
  153000    1.2295174   -3.7192503    144.90198  0.078922645  0.086769678            1 
  154000    1.2225958   -3.7304318       146.15  0.079085499  0.086740506            1 
  155000    1.2083618    -3.707425    147.12272  0.079098238  0.086707672            2 
  156000    1.2215469   -3.7030146    148.64689  0.079405391  0.086673904            1 
  157000    1.2501099   -3.7297958    148.95007  0.079060547  0.086643115            1 
  158000     1.233623   -3.7226523    150.48508  0.079369767  0.086614613            1 
  159000    1.2367005   -3.7292485    151.91523  0.079620139  0.086593061            2 
  160000    1.2282531   -3.7319735    151.94192  0.079136416  0.086569472            4 
  161000    1.2375679   -3.7135546    153.71533    0.0795628   0.08655078            1 
  162000    1.2222018    -3.736793    154.90554  0.079683917  0.086531461            1 
  163000    1.2315873   -3.7143833    155.67617  0.079589044  0.086512432            1 
  164000    1.2014112   -3.6990687    156.81609   0.07968297  0.086489248            1 
  165000    1.2316379    -3.726853    158.23563  0.079916985  0.086468908            1 
  166000    1.2257506   -3.7517629    158.45533  0.079545848  0.086444507            2 
  167000    1.2359202   -3.7169711     158.2695  0.078976797  0.086415313            1 
  168000    1.2284639   -3.7592439     159.3711  0.079053124  0.086384421            2 
  169000    1.2284235   -3.7273424    160.04951  0.078919876  0.086347008            2 
  170000    1.2074567   -3.7053988    162.00187   0.07941268  0.086301364            2 
  171000    1.2124609   -3.7192549    162.87606  0.079374298  0.086257327            3 
  172000    1.2020876   -3.7526922    163.50264  0.079216397  0.086216595            2 
  173000    1.2290282   -3.7177968    164.16083  0.079075546  0.086174858            3 
  174000    1.2338266   -3.7487402    165.16077  0.079099987  0.086132443            2 
  175000    1.2087158   -3.6871105    166.68938  0.079375895  0.086090273            2 
  176000    1.2475613   -3.7080828    167.21466  0.079173606  0.086048272            2 
  177000    1.2475473   -3.7360299    168.81505  0.079479779  0.086011153            2 
  178000    1.2341875   -3.7388708    170.25481  0.079707309   0.08597837            1 
  179000    1.2218535   -3.7343146    170.45058  0.079353154  0.085946912            2 
  180000    1.2441703   -3.7401237    171.28483  0.079298534  0.085904776            3 
  181000    1.2093473   -3.7229817    171.91036  0.079148416  0.085873428            1 
  182000    1.2420716   -3.7461308    173.78813  0.079573319  0.085845398            4 
  183000    1.2558855   -3.6988216    175.16628  0.079766064  0.085815975            1 
  184000     1.225154   -3.7179602    176.89702  0.080116402  0.085790527            2 
  185000     1.200059   -3.7309346     176.3382  0.079431619  0.085758145            2 
  186000    1.2067042   -3.7474896    178.11007  0.079798417  0.085732761            2 
  187000    1.2251455   -3.7138338    179.87767  0.080159388   0.08570637            1 
  188000     1.217768   -3.7541723    179.61405  0.079616158  0.085685243            3 
  189000    1.2248132   -3.7467289    180.25979  0.079479623  0.085659502            2 
  190000    1.2176143   -3.7506488    181.29129  0.079513723  0.085633733            1 
  191000    1.2105043   -3.7293775    183.52033  0.080069951   0.08561548            1 
  192000    1.2223718    -3.738548    184.22338  0.079958062  0.085602159            3 
  193000    1.2070258   -3.7006947    186.40525  0.080485861  0.085588484            1 
  194000    1.2167246    -3.739904     186.3897  0.080064305  0.085573856            1 
  195000    1.1965123   -3.7421646    187.34003  0.080059843   0.08555786            2 
  196000    1.1900595   -3.7030454    188.76603  0.080257665  0.085552719            4 
  197000    1.1986017   -3.6923956    191.05728  0.080819493  0.085553993            1 
  198000     1.228742   -3.7183926    190.75815  0.080285416  0.085556454            1 
  199000    1.1974526   -3.7594553    192.50717  0.080614393  0.085557412            2 
  200000    1.2177324   -3.7393055    194.16647  0.080902696  0.085557874            3 
  201000    1.2183424   -3.7373729    194.57217  0.080668395  0.085563867            3 
  202000    1.2167814   -3.7512008    196.04672  0.080877358  0.085573315            3 
  203000    1.2204162   -3.7343098    197.71726  0.081164721  0.085585238            2 
  204000    1.2220853   -3.7263334    198.84898  0.081229156  0.085600455            6 
  205000    1.2269742   -3.7330951    199.89655  0.081258762   0.08561334            2 
  206000    1.2171036    -3.706725    200.83995  0.081245933  0.085631776            1 
  207000    1.1957727   -3.7439938     201.3633  0.081064128  0.085643643            3 
  208000      1.23476   -3.7218838    203.14759  0.081389258  0.085655087            2 
  209000    1.2072302   -3.7169765    204.69457  0.081616656  0.085671277            1 
  210000    1.2117754    -3.716525    205.23776  0.081443554  0.085691762            4 
  211000     1.201137   -3.7004591    208.07413  0.082177777  0.085708031            1 
  212000    1.2083923   -3.7474359    207.35109  0.081505931   0.08572648            2 
  213000    1.2176683    -3.698448    209.62134  0.082011478  0.085752101            1 
  214000    1.2156425   -3.7476385    209.94714  0.081755116  0.085778972            2 
  215000    1.2376977   -3.6901246     211.0187  0.081790192  0.085807471            4 
  216000    1.2142196   -3.7790378    212.23749  0.081881746  0.085832827            2 
  217000    1.2324311   -3.7334996    214.25684  0.082279891  0.085859563            2 
  218000    1.2054627   -3.6982344    216.07143  0.082596111  0.085891324            2 
  219000    1.2280408   -3.6982086    216.02216  0.082200214  0.085922521            2 
  220000    1.1937041    -3.728296    215.97407  0.081808358  0.085945327            1 
  221000    1.2147511   -3.7348235    217.66397  0.082075403  0.085962566            3 
  222000    1.2377743   -3.7956404    218.17511  0.081897562  0.085979695            3 
  223000    1.2205898   -3.7152555    220.09478  0.082247676  0.085995214            1 
  224000    1.2250177   -3.7290705    220.59613  0.082067013  0.086010899            2 
  225000    1.2097715   -3.7047098    220.99681  0.081850672  0.086024287            2 
  226000    1.1936033   -3.7492957    220.96685  0.081477452  0.086032018            1 
  227000    1.2171283   -3.7315846    223.88302  0.082189066  0.086037172            2 
  228000    1.2095773   -3.7461682    222.87496  0.081460145  0.086041463            1 
  229000    1.2162543    -3.718221    224.27696  0.081614613  0.086048055            2 
  230000    1.2402118     -3.74235    223.73977  0.081065134  0.086051717            1 
  231000    1.2125106   -3.7407593    226.97193  0.081880206  0.086048537            2 
  232000    1.1977689   -3.7302651    226.11838  0.081220683  0.086045166            1 
  233000    1.2214396   -3.7486811    228.24891  0.081634087   0.08604608            1 
  234000    1.2067552    -3.736553    228.52442   0.08138334  0.086050176            2 
  235000    1.2090834   -3.7505055    230.03759  0.081573613  0.086050968            3 
  236000    1.1902691   -3.7382613      232.091  0.081953037  0.086060943            2 
  237000    1.2087243   -3.7402234    233.45174  0.082085702  0.086071032            2 
  238000    1.2092122    -3.743645    235.08844  0.082313878  0.086085386            7 
  239000     1.219095    -3.726041    235.92272  0.082260364  0.086100063            3 
  240000    1.1915944   -3.7538848    236.79925  0.082221961  0.086116519            1 
  241000    1.1633447   -3.7345743    237.71951     0.082199  0.086128863            2 
  242000    1.2040579   -3.7658436    238.74003  0.082210754  0.086140977            5 
  243000    1.2088012   -3.7319476    239.14291    0.0820106  0.086148072            2 
  244000    1.2026681   -3.6991296    241.36677  0.082434006  0.086154467            1 
  245000    1.2091493   -3.7276471    239.65624  0.081515726   0.08615762            4 
  246000      1.21952   -3.7343765    241.55541  0.081827715  0.086156121            3 
  247000    1.1853471   -3.7293133    243.33292  0.082096126  0.086154799            3 
  248000    1.2060135   -3.7395311    243.43651  0.081799901  0.086154387            1 
  249000    1.2325906   -3.6962725     246.3518  0.082447055  0.086156514            3 
  250000    1.2108271   -3.7305523    246.29549  0.082098497  0.086158547            2 
  251000    1.2213795   -3.7485104    247.28166  0.082098826  0.086158967            1 
  252000    1.2279449   -3.7366642    247.38631  0.081807641  0.086155662            2 
  253000    1.2018837   -3.7195549    249.24749  0.082097328  0.086150817            1 
  254000    1.2115665   -3.7478874     249.1142  0.081730381  0.086143371            2 
  255000    1.1935099   -3.7232644    248.94704  0.081355243  0.086134952            2 
  256000    1.2083173   -3.7553543    251.65695  0.081919581  0.086130316            2 
  257000    1.2262273   -3.7275446    253.45349  0.082183364  0.086124882            1 
  258000    1.1872402   -3.7415861    253.75783  0.081963124   0.08612157            3 
  259000    1.2167433   -3.7205954    254.63066  0.081927495  0.086119263            3 
  260000    1.2270556   -3.7300853    256.95728  0.082358102   0.08611536            1 
  261000    1.1969424    -3.769153    257.37621  0.082176312  0.086112563            2 
  262000    1.2310504   -3.7245722    257.63085  0.081943654  0.086112272            1 
  263000    1.2095643   -3.7685999    259.59213  0.082253527  0.086113519            4 
  264000    1.1828526   -3.7294484    261.78358  0.082633705  0.086118514            2 
  265000    1.2208115   -3.7496198    262.84882  0.082656861  0.086129065            2 
  266000    1.2126231    -3.759635    263.96552  0.082695965  0.086135196            3 
  267000    1.2087324   -3.7570029    264.25283  0.082475914  0.086139176            3 
  268000    1.2334478   -3.7602873    264.51118    0.0822485  0.086140625            2 
  269000    1.1939809   -3.7361752    265.33691  0.082198545  0.086138942            2 
  270000     1.192468   -3.7515535    267.10427  0.082439588  0.086140087            1 
  271000    1.2034322   -3.7166267    267.34987  0.082210907  0.086138533            3 
  272000     1.224286   -3.7205629    269.85403  0.082675866  0.086139543            3 
  273000     1.215757   -3.7412946    269.84587  0.082370535  0.086137918            4 
  274000    1.1886465   -3.7530925    269.88525  0.082081889  0.086133001            1 
  275000    1.1892857   -3.7381512    270.44345   0.08195256    0.0861268            1 
  276000    1.1693005   -3.7617011     270.6456  0.081716666  0.086116223            1 
  277000    1.2181858   -3.7466641    273.16957  0.082180976  0.086104718            1 
  278000    1.2146509   -3.7369774    273.36729  0.081944631  0.086092905            2 
  279000    1.2261669   -3.7702239     273.4802  0.081684647  0.086076403            1 
  280000    1.2245511   -3.7422884     274.0834  0.081572439  0.086056235            1 
  281000    1.2079607   -3.7828346    274.02949  0.081266158  0.086034325            2 
  282000    1.2016296   -3.7317571    276.63794    0.0817488  0.086015949            1 
  283000    1.2472887    -3.717641    278.34696   0.08196318   0.08600092            3 
  284000    1.2108487   -3.7591661    278.24874  0.081645756  0.085987025            2 
  285000    1.1983158    -3.722336     278.6032  0.081462923  0.085971657            2 
  286000    1.2029633   -3.7621682    279.48146  0.081433992  0.085953718            2 
  287000    1.1812379   -3.7606844    280.60452  0.081476342  0.085931986            1 
  288000    1.2196901    -3.738556    281.40109  0.081423927   0.08590882            2 
  289000    1.1957764   -3.7395163    280.66902   0.08093109  0.085880978            2 
  290000    1.2208941   -3.7545092    283.57097  0.081485911  0.085852394            2 
  291000    1.2133831   -3.7385722    283.52419  0.081192493  0.085824683            2 
  292000    1.2072773    -3.755594    283.26717  0.080841087  0.085793141            1 
  293000    1.2270253   -3.7334042    284.82771  0.081009018  0.085763988            2 
  294000    1.2185955   -3.7633091    286.42946  0.081187487  0.085734079            2 
  295000    1.2170502   -3.7569986      286.399  0.080903673  0.085700081            1 
  296000    1.1913533    -3.738357    287.77405  0.081017469  0.085670138            1 
  297000    1.2203518   -3.7946393    288.47241  0.080940632  0.085638056            1 
  298000    1.2001913   -3.7548993    287.42878  0.080377176  0.085602389            2 
  299000    1.2085256   -3.7666528    289.53212  0.080694572  0.085567313            2 
  300000    1.1907222   -3.7488073    292.45576  0.081237711  0.085531708            2 
  301000    1.2016316   -3.7436376    290.96356  0.080554694  0.085498155            2 
  302000    1.2104046   -3.7311878    291.57113  0.080455609  0.085463901            3 
  303000    1.1938684   -3.7588895    292.47079  0.080437511  0.085424432            2 
  304000    1.2085718   -3.7392498    293.35716  0.080415889  0.085383336            1 
  305000    1.1956495   -3.7262846    293.68853  0.080242769  0.085340192            1 
  306000    1.2239296   -3.7285694    293.91123  0.080041184  0.085291847            3 
  307000    1.1935367   -3.7358372    294.35914  0.079902046  0.085244779            7 
  308000    1.1874101   -3.7450734     296.1337  0.080122754  0.085199787            2 
  309000    1.2362339   -3.7522474    296.72723  0.080023525  0.085157145            1 
  310000    1.1894671   -3.7660948    298.31963  0.080193449  0.085111189            2 
  311000    1.2250125   -3.7228854    299.39523  0.080223802  0.085065286            1 
  312000    1.2146405   -3.7369921    299.68983  0.080045361  0.085022048            2 
  313000    1.1907994   -3.7532479     300.7904  0.080082642  0.084977075            2 
  314000    1.2338579   -3.7354029    300.56282  0.079767204  0.084933512            3 
  315000    1.2102857   -3.7478566    300.87915  0.079597659  0.084888968            3 
  316000     1.192827   -3.7545008    302.77975   0.07984698  0.084843153            3 
  317000    1.2019169   -3.7245741    303.89804  0.079889075  0.084801757            1 
  318000    1.2034438   -3.7746957    303.54215  0.079544587  0.084755234            3 
  319000    1.2079454   -3.7781553    304.44786  0.079531833  0.084710267            2 
  320000    1.2172611   -3.7697299    306.49375   0.07981608  0.084664183            2 
  321000     1.210523   -3.7644476    306.19099  0.079488833  0.084618229            2 
  322000    1.2191596   -3.7706777    307.75388  0.079646449  0.084572397            2 
  323000    1.1925407   -3.7560699    308.59752  0.079617524  0.084525851            1 
  324000    1.2086813   -3.7442081    310.30068  0.079809845  0.084483337            2 
  325000     1.191375   -3.7411795    311.16375  0.079785577  0.084440537            2 
  326000    1.2036573   -3.7578508    313.12969  0.080043377   0.08440303            1 
  327000    1.1762516   -3.7665488    314.22584  0.080077941  0.084367311            3 
  328000    1.1922802   -3.7361628    317.28628   0.08061135  0.084333134            1 
  329000    1.1936545   -3.7230628    316.49835  0.080166755  0.084300152            1 
  330000    1.1994881   -3.7712876    315.15988  0.079585828  0.084265791            1 
  331000    1.2012775   -3.7656127    318.11191  0.080088598  0.084231704            2 
  332000    1.1991904   -3.7213422    319.18666  0.080117134  0.084202546            2 
  333000    1.1981526   -3.7446093    320.83659  0.080289436  0.084170847            2 
  334000    1.1638074   -3.7582677    320.60862  0.079992171  0.084138637            3 
  335000    1.2071349   -3.7680848    321.78466  0.080045935  0.084106923            2 
  336000    1.2009284   -3.7423006    323.20657   0.08016036  0.084079634            2 
  337000    1.1850261   -3.7931343    323.56434  0.080010965  0.084051116            4 
  338000    1.1906931    -3.757731    325.11378  0.080156256  0.084021761            1 
  339000     1.202037   -3.7746017    326.96651  0.080375249   0.08399451            3 
  340000    1.2206483   -3.7514556    327.59147  0.080292027  0.083966571            2 
  341000    1.2171166   -3.7564313    328.35813  0.080243922  0.083938518            1 
  342000    1.1973876   -3.7962357    328.34022  0.080004926  0.083910681            2 
  343000    1.2144615   -3.7401796    331.87057  0.080629389  0.083884204            1 
  344000    1.1819111   -3.7670285    329.38799  0.079793603  0.083858397            2 
  345000     1.193305   -3.7846714     330.4017  0.079807175  0.083830886            1 
  346000    1.1873249    -3.748561      335.299  0.080756022  0.083805178            2 
  347000    1.1919804    -3.768224    332.98385  0.079967302  0.083779267            2 
  348000    1.1939929    -3.783642    333.51105  0.079863757  0.083752834            5 
  349000    1.1979318   -3.7318816    336.91913  0.080448694   0.08372675            5 
  350000    1.1872165   -3.7435548    335.50121   0.07988124  0.083699663            1 
  351000    1.2093463   -3.7919129    335.90774  0.079750176  0.083668396            2 
  352000    1.2170948   -3.7773003    338.78011  0.080203623  0.083639558            2 
  353000    1.1955904   -3.7923049    337.60966  0.079700108  0.083608289            1 
  354000    1.1943209   -3.7752564    339.83888  0.079999737  0.083579388            2 
  355000    1.2161059   -3.7806715    339.65183  0.079730476  0.083550505            2 
  356000    1.2193024   -3.7767308    342.01951  0.080060746  0.083524269            1 
  357000      1.20836   -3.7516045     342.8288  0.080025397  0.083496847            3 
  358000      1.18905   -3.7822151    342.63402  0.079756522   0.08346814            1 
  359000    1.2037216   -3.7014794    346.20858  0.080364109  0.083443466            1 
  360000    1.1831813   -3.7854406    345.48096  0.079972444  0.083416435            1 
  361000    1.1855465   -3.7439729    345.60641  0.079779872  0.083389529            3 
  362000    1.2079431   -3.7564568    346.54669  0.079775942   0.08336006            1 
  363000    1.1888254   -3.7635805    347.76488  0.079835831  0.083328801            2 
  364000    1.1834737   -3.7606941    347.67802  0.079596616  0.083296979            2 
  365000    1.2305402    -3.774315    349.09946  0.079703074  0.083265466            2 
  366000    1.1832702   -3.8045112    350.20273  0.079736505  0.083237339            2 
  367000    1.1854111    -3.788761    350.53147  0.079593884  0.083209096            3 
  368000    1.1802685   -3.7709597    352.25307  0.079767451  0.083181101            4 
  369000    1.1603616   -3.7583348    352.84219  0.079684324  0.083152821            3 
  370000     1.168688   -3.7668365    353.60979  0.079641844  0.083123463            1 
  371000    1.1998537   -3.7450743    356.81856  0.080147925  0.083094763            1 
  372000    1.1945624   -3.7803578    357.79101  0.080150315  0.083070674            2 
  373000    1.1966947   -3.7715573    357.13972  0.079789929  0.083046647            1 
  374000    1.1894586    -3.772646    357.43911  0.079643295  0.083020511            1 
  375000    1.1774997   -3.7690756    358.00615  0.079556921  0.082992834            2 
  376000    1.1982586   -3.7695313    359.35872  0.079645107  0.082965658            1 
  377000     1.202332   -3.7558998    360.15195  0.079609185  0.082938909            1 
  378000    1.1985301   -3.7636307    360.14131  0.079396231  0.082909652            3 
  379000    1.2120461   -3.7700835    362.53137  0.079712263  0.082880279            1 
  380000     1.215188   -3.7754374    361.82644  0.079347902  0.082852433            2 
  381000    1.1701375   -3.7781782    363.55152  0.079516954  0.082824601            1 
  382000    1.1643569   -3.8018669    364.69396   0.07955802  0.082796021            2 
  383000    1.2126784   -3.7732002    365.20868  0.079462289  0.082766088            1 
  384000    1.2027125    -3.757563    366.51517  0.079538882  0.082736836            3 
  385000    1.1862825    -3.776024    367.03397  0.079444583   0.08270695            1 
  386000    1.1827011    -3.756578    367.27997  0.079291876  0.082677899            2 
  387000    1.2068107   -3.7636754    369.50446  0.079565991  0.082649728            1 
  388000    1.2078124   -3.7616408    371.84019  0.079862583  0.082625833            1 
  389000    1.2138293   -3.7879182     370.8058   0.07943569  0.082601594            2 
  390000    1.1903393    -3.760919    373.89131  0.079891305  0.082575641            3 
  391000    1.1656545   -3.7768898    373.52905  0.079609772  0.082551331            2 
  392000    1.1931839   -3.7375222    372.93306  0.079279987  0.082525395            1 
  393000     1.189318   -3.7942042    372.43952  0.078973605  0.082497796            2 
  394000    1.2213353   -3.7584649    377.19677   0.07977935  0.082470166            2 
  395000    1.1904771   -3.7609764    377.82582  0.079710089  0.082446529            1 
  396000    1.1805698   -3.7764472    377.72264  0.079487088  0.082422011            2 
  397000    1.2249311   -3.8223734     377.4854  0.079237069  0.082398103            2 
  398000     1.186063   -3.8051831    377.74047  0.079091388  0.082369231            3 
  399000    1.2194435   -3.7566828    380.58919  0.079488134  0.082344155            2 
  400000    1.1875776   -3.7575028      381.184  0.079413334  0.082318576            2 
  401000    1.2113037   -3.7588654    381.50866  0.079282764  0.082292616            2 
  402000    1.2096829   -3.7721747    381.89788  0.079166228  0.082266421            2 
  403000    1.2073104   -3.7626855    383.01521  0.079200828  0.082242417            4 
  404000    1.2020746   -3.7749563    385.04315  0.079423091  0.082215665            2 
  405000    1.1662196   -3.7767822     384.1786  0.079049094   0.08219006            3 
  406000    1.1745978   -3.7747599    384.27072  0.078873301  0.082161866            1 
  407000    1.2455114   -3.7998941    386.00832  0.079035283  0.082134293            3 
  408000    1.1916914   -3.7642556    387.62039   0.07917083  0.082105883            3 
  409000    1.1985977   -3.7510199    388.67673  0.079192487  0.082077909            1 
  410000    1.1967865   -3.7758838    387.61849  0.078784245   0.08204894            2 
  411000    1.1804281   -3.7895125    389.64941  0.079004341   0.08202029            2 
  412000    1.1736496   -3.7668024     390.4745   0.07897947   0.08199327            2 
  413000    1.1808962   -3.7652205    391.80526  0.079056751  0.081962569            2 
  414000    1.1899139    -3.760927    394.25451  0.079358798  0.081935437            1 
  415000    1.2005324   -3.7864154    392.69463  0.078854343  0.081909114            1 
  416000    1.1780788   -3.7820319    393.19533   0.07876509  0.081879911            3 
  417000    1.1962023   -3.7602971    394.75231  0.078887353  0.081856378            1 
  418000    1.1727789   -3.7824512     395.5433  0.078856319  0.081830369            1 
  419000    1.1852606   -3.7500948    397.08699  0.078975137  0.081806101            4 
  420000    1.1836276   -3.8003786    397.54839  0.078878648  0.081781287            2 
  421000    1.1769398    -3.762983    398.32119  0.078844258  0.081755029            2 
  422000    1.1749381   -3.7853221    399.98565  0.078986107   0.08173045            3 
  423000    1.1869341   -3.7735377    399.21532   0.07864762  0.081705256            2 
  424000    1.1779244   -3.7540322    401.13795  0.078840006   0.08168117            1 
  425000    1.1799274   -3.8117176      401.617  0.078748431  0.081657614            3 
  426000    1.1727381   -3.7741763     404.2216  0.079073082  0.081633726            1 
  427000    1.2105414   -3.7499298    404.07626  0.078859535  0.081610697            3 
  428000    1.1532361   -3.7588123     406.5902  0.079164759  0.081586904            1 
  429000    1.2049971   -3.7988664    407.85288  0.079225502  0.081566199            2 
  430000    1.1709102   -3.8222138    407.11359  0.078897983  0.081545331            1 
  431000    1.1933905   -3.7776994    408.57635  0.078997748  0.081523277            1 
  432000    1.1706998   -3.7810135    409.37427  0.078968802  0.081499624            4 
  433000    1.2164019   -3.7683827    411.00839  0.079100921    0.0814771            1 
  434000    1.2013394   -3.8076998    410.65978  0.078851723   0.08145349            3 
  435000    1.1929635   -3.7704044    412.38951  0.079001821   0.08143085            2 
  436000    1.1783909   -3.7724734    411.37688  0.078627079  0.081407355            1 
  437000    1.1725878   -3.7795609    413.23299  0.078801103  0.081384506            2 
  438000    1.2016082   -3.7808826    414.46071  0.078854777  0.081360001            2 
  439000    1.1964986   -3.7703341    415.13783  0.078803688  0.081335341            2 
  440000    1.1640999    -3.778198    415.71539  0.078733975  0.081311239            2 
  441000     1.170542   -3.7788801    416.58303  0.078719394  0.081287913            1 
  442000    1.1614427    -3.796747    416.67365  0.078558381  0.081263959            5 
  443000      1.14089   -3.7833799    417.49728  0.078535982  0.081241416            1 
  444000    1.1870107   -3.7759057    420.48852  0.078920518  0.081219851            3 
  445000    1.1511049   -3.7802154    421.09153  0.078856091  0.081199814            1 
  446000    1.1940035   -3.7699045     421.4799  0.078751849  0.081179101            2 
  447000     1.183958   -3.7682243    421.70073   0.07861684  0.081159015            1 
  448000    1.2042271   -3.7508575    425.38886  0.079127392  0.081139435            2 
  449000    1.1575238   -3.7963548    425.80713  0.079028791  0.081120961            2 
  450000    1.2051099   -3.7638269    427.27104  0.079124266  0.081104147            3 
  451000    1.1818463   -3.7530437    427.66978  0.079022501  0.081087548            2 
  452000    1.1636769   -3.7765281    428.72552  0.079042316  0.081072432            6 
  453000    1.1715571    -3.804996    429.78594  0.079062902  0.081054308            2 
  454000    1.1831204   -3.7955689    430.09957  0.078946322  0.081036228            3 
  455000    1.1748634   -3.7442661    430.15757  0.078783438  0.081017216            2 
  456000    1.1751157   -3.8057884    430.86676  0.078740271  0.080997605            4 
  457000    1.1694547   -3.7434668     433.3195  0.079015226  0.080977608            3 
  458000    1.1485867   -3.8025541    434.14483  0.078992874  0.080958569            4 
  459000    1.1575763   -3.7840721    433.92216  0.078780348  0.080940428            3 
  460000    1.2102243   -3.7631928    434.73012  0.078755456  0.080921773            3 
  461000    1.1673416   -3.7573411    436.46721  0.078898627  0.080902633            3 
  462000    1.1179267   -3.7820279    437.45819    0.0789066  0.080884005            3 
  463000    1.1815053   -3.8027683    437.59085  0.078760053  0.080866212            2 
  464000    1.1856802   -3.7948044    437.83503  0.078634165  0.080847538            4 
  465000    1.1548087   -3.7737175    440.97205  0.079027248  0.080828905            2 
  466000     1.170737    -3.761596    440.70023  0.078809054  0.080810001            3 
  467000    1.1812926   -3.7836092    440.97408  0.078689164  0.080791209            2 
  468000    1.1744394     -3.78614    441.46114  0.078607752   0.08077231            3 
  469000    1.1882068   -3.7821471    443.06776  0.078725614  0.080753811            2 
  470000    1.1824404   -3.7672032    444.26076  0.078769638  0.080735655            1 
  471000    1.1733505    -3.799064    443.89247  0.078537239  0.080718022            1 
  472000    1.1460947   -3.7846698    445.58787  0.078670175  0.080701287            1 
  473000    1.1517335   -3.7789756    447.98908  0.078926898  0.080685772            3 
  474000    1.1960888   -3.7648599     447.8412  0.078734388   0.08066866            3 
  475000    1.1712813   -3.7859369    450.75041   0.07907902  0.080652274            1 
  476000    1.2140307   -3.8008616    449.52068  0.078697598  0.080633205            3 
  477000    1.2050911   -3.7789357    450.59803  0.078720829  0.080616202            1 
  478000    1.1771111   -3.7842114    451.53779  0.078719978  0.080600955            3 
  479000    1.1810357   -3.8007972    452.47182  0.078718131  0.080583235            3 
  480000    1.1591985    -3.819604    452.63478  0.078582428  0.080565357            1 
  481000    1.1885288   -3.7893335    454.80944  0.078795814  0.080546545            1 
  482000    1.1830016   -3.8029362    455.12125  0.078686247  0.080530014            2 
  483000    1.1745041   -3.8167578    454.33523  0.078387721  0.080512426            4 
  484000    1.1760441   -3.7964096    456.12955  0.078534701  0.080496021            3 
  485000    1.1796253   -3.7742307     459.2833  0.078914657  0.080478482            2 
  486000    1.1740108   -3.7805998    459.15996  0.078731132  0.080461606            1 
  487000    1.1399579   -3.7666459    458.77759  0.078504037  0.080443989            2 
  488000    1.1650597   -3.8194187    460.56954   0.07864917  0.080427317            4 
  489000    1.1530941   -3.7712078    460.20784  0.078426694  0.080409106            1 
  490000    1.1943706   -3.7877378    462.41362  0.078641772  0.080392033            2 
  491000    1.1832629   -3.7823799    461.44281  0.078316839  0.080374425            2 
  492000     1.169826   -3.7772998    463.53547  0.078512105  0.080357617            3 
  493000    1.1749481   -3.8150998    463.34239  0.078320214  0.080339808            2 
  494000    1.1891827    -3.778606    468.09692  0.078963718  0.080322516            1 
  495000    1.1654458   -3.7583684    467.81152  0.078756148  0.080307952            1 
  496000    1.1695072   -3.7919205    468.52961  0.078718012  0.080294085            1 
  497000    1.1912828   -3.7738752    468.62786    0.0785761  0.080278311            3 
  498000    1.1684234   -3.8073536    468.22645  0.078351146  0.080262162            1 
  499000    1.1757136   -3.7859553    470.59771  0.078590133  0.080243343            3 
  500000    1.1622838   -3.8071207    469.69216  0.078282026  0.080225396            3 
  501000    1.1656959   -3.7523597    471.35344  0.078402102  0.080207483            1 
  502000    1.1436755   -3.7808548    470.87935  0.078167222  0.080188696            2 
  503000     1.175869   -3.8158822    472.00483  0.078198281  0.080170628            4 
  504000    1.1588341   -3.7840386     473.3778  0.078270138   0.08015002            2 
  505000    1.1762711   -3.7761639    474.30784  0.078268621  0.080131293            3 
  506000    1.1621474   -3.8027137    477.13858  0.078580135   0.08011358            2 
  507000    1.1866584   -3.8154579    476.92405  0.078389883  0.080096383            2 
  508000    1.1810648    -3.773578    477.89681  0.078395146  0.080080332            2 
  509000    1.1829453   -3.8315755     477.9177  0.078244549  0.080064495            1 
  510000     1.167349   -3.8100883    479.61881  0.078369086  0.080050297            1 
  511000    1.1896996   -3.8367549    481.61476   0.07854122  0.080035275            3 
  512000    1.1467365   -3.8153359    482.68086  0.078561337  0.080021314            4 
  513000     1.173865   -3.8056648    481.72788  0.078253392  0.080007939            4 
  514000    1.1648606   -3.8229361     482.8035  0.078275535  0.079992538            2 
  515000    1.1963083   -3.7797688    484.80258  0.078447019  0.079978278            3 
  516000    1.1660796   -3.7997259    485.57796  0.078420212  0.079963674            2 
  517000    1.1939489   -3.8064835    487.41052  0.078563914  0.079950202            2 
  518000    1.1681395   -3.7911955    487.37755  0.078406942   0.07993674            1 
  519000    1.1793984   -3.8092278    486.65206  0.078139381  0.079921591            2 
  520000    1.1749989   -3.8277629     487.7723  0.078168638  0.079906821            2 
  521000    1.1487929   -3.7634545    489.82776   0.07834737  0.079890842            1 
  522000    1.1490275    -3.806176    489.41482  0.078131357  0.079873929            1 
  523000    1.1828115   -3.7997593    490.76413  0.078196961  0.079857803            3 
  524000    1.1943141   -3.8332397    490.95926  0.078078763  0.079840208            2 
  525000    1.1469429   -3.8118943    489.52089  0.077701728  0.079823243            2 
  526000    1.1413389   -3.8068441    491.79571  0.077914403  0.079804673            1 
  527000    1.1507274   -3.8235802    494.15059  0.078138929  0.079786691            2 
  528000    1.1586171   -3.7822465    496.27547  0.078326305  0.079767634            2 
  529000    1.1908159   -3.7852065    493.55774  0.077750116   0.07975006            5 
  530000    1.1845983   -3.7901003    496.43879  0.078056414  0.079730679            4 
  531000     1.190173   -3.8129705    495.98127  0.077837612  0.079711191            1 
  532000    1.1635596   -3.8162373    493.83373  0.077354907  0.079691766            1 
  533000    1.1651537    -3.805903    496.87997  0.077686049  0.079671445            2 
  534000    1.1585763   -3.7962601    497.26442  0.077600565  0.079650087            3 
  535000    1.1946809   -3.8184336     497.6751  0.077519486  0.079629667            2 
  536000    1.1696252   -3.8224704    498.83471  0.077555147  0.079607883            5 
  537000    1.1689724   -3.8191303    499.98225  0.077588803  0.079587851            1 
  538000    1.1586087   -3.8116696     501.3078  0.077649907  0.079567626            2 
  539000    1.1740726   -3.8194191    502.45883  0.077683802  0.079548108            2 
  540000    1.1707106   -3.8358385    502.30897  0.077516816  0.079528582            2 
  541000    1.1677411   -3.8079831    502.62544   0.07742228   0.07950613            3 
  542000    1.1655482   -3.8112712    502.27266  0.077225194  0.079486225            3 
  543000    1.1538625   -3.8049847    503.56411  0.077281171  0.079466027            2 
  544000    1.1585193   -3.8372411    504.51193  0.077284303  0.079445903            2 
  545000    1.1869431   -3.7978059    507.77755  0.077641828  0.079425739            2 
  546000    1.1718383   -3.8087159    505.81373  0.077199897  0.079405231            2 
  547000    1.1720902   -3.8259699    506.77521  0.077205241   0.07938453            1 
  548000     1.158035   -3.7949664    510.25556  0.077593607  0.079364897            4 
  549000     1.173781   -3.8426033     509.8644  0.077392896  0.079344551            4 
  550000    1.1672981   -3.7956274    512.91235  0.077713993  0.079324926            3 
  551000    1.1556529   -3.8104347    511.14015  0.077304922  0.079305187            3 
  552000    1.1682405   -3.8119463    512.74289  0.077406837  0.079283805            1 
  553000    1.1605606   -3.7801892    512.53143  0.077234995  0.079262709            1 
  554000    1.1470049   -3.7986204    511.70957  0.076971956  0.079241199            1 
  555000    1.1725368   -3.8048395    513.55594  0.077110501  0.079218308            2 
  556000    1.1531358   -3.7912937    513.48539   0.07696124  0.079194891            1 
  557000    1.1462333    -3.796915    515.37136  0.077105231  0.079170382            2 
  558000    1.1834485   -3.8106431    515.95843  0.077054724  0.079147658            2 
  559000    1.1492359    -3.844828    518.22915  0.077255389  0.079124811            2 
  560000    1.1614304   -3.8147871    516.20086  0.076815604  0.079102004            3 
  561000    1.1713434   -3.8200722    519.10397  0.077109918   0.07907797            3 
  562000    1.1710364   -3.8188649    516.69598  0.076615655  0.079056172            3 
  563000    1.1499932   -3.8237782    519.38957  0.076878267  0.079034425            2 
  564000     1.146819   -3.8331783    521.81787  0.077100749  0.079013763            3 
  565000    1.1588706   -3.8002918    526.42994  0.077644534  0.078993837            3 
  566000    1.1632581   -3.8346533    522.10506  0.076870591  0.078972842            3 
  567000    1.1549214    -3.793834    524.42911  0.077076588  0.078951527            1 
  568000    1.1331701   -3.7871373    523.82839  0.076852757  0.078930688            5 
  569000    1.1348525   -3.8034549    525.25141    0.0769261  0.078909452            1 
  570000    1.1689884   -3.8210427    527.98291  0.077190484  0.078888968            4 
  571000     1.166286   -3.8142575    528.63409  0.077150335  0.078869335            3 
  572000    1.1442628   -3.8139813    528.11203  0.076939398  0.078847322            3 
  573000    1.1583512   -3.8284785    528.76248   0.07689972  0.078826031            1 
  574000    1.1596743   -3.7907695    531.23064  0.077124076   0.07880552            3 
  575000    1.1637735   -3.8223641    530.87647  0.076938618  0.078784795            3 
  576000    1.1626439   -3.8262106    532.29065  0.077009642  0.078764698            2 
  577000    1.1593982   -3.8279008    532.66377  0.076930065  0.078745475            1 
  578000    1.1688132   -3.8100688     532.7184  0.076804844  0.078725887            1 
  579000    1.1691337   -3.8259949    532.75912  0.076678054   0.07870609            2 
  580000    1.1592909   -3.8356364    536.31247   0.07705639  0.078686916            2 
  581000    1.1621208   -3.8166652    536.77447  0.076990027  0.078668437            3 
  582000    1.1629647   -3.8038703    537.83765  0.077009973  0.078649369            2 
  583000    1.1794978    -3.820534    537.88072  0.076884036  0.078629747            1 
  584000    1.1589581   -3.8113353    536.59445  0.076568843   0.07861069            1 
  585000    1.1709781   -3.8241999    540.06038  0.076931678  0.078592292            2 
  586000    1.1563503   -3.8530702    541.76216    0.0770424  0.078574558            1 
  587000    1.1501171   -3.8079464    542.93927  0.077078261  0.078556416            2 
  588000    1.1906594   -3.7989488    544.50983   0.07716976  0.078540394            2 
  589000    1.1684418   -3.8184377    544.73442  0.077070517  0.078524495            3 
  590000    1.1651983   -3.8488182    547.09019  0.077272626  0.078509034            2 
  591000    1.1709342   -3.8260399    546.50536  0.077059414  0.078495135            7 
  592000    1.1455061   -3.7873127    550.94627  0.077554374  0.078482047            2 
  593000    1.1321227   -3.8187576    551.34715  0.077479926  0.078468775            2 
  594000    1.1654722   -3.8294805     551.1989   0.07732869  0.078455377            2 
  595000    1.1454233   -3.8207436     552.1331  0.077329566  0.078442185            3 
  596000    1.1834107   -3.8343348    550.57314  0.076981703  0.078427613            3 
  597000    1.1496395   -3.8461185    552.42446  0.077111175  0.078413386            2 
  598000    1.1606973    -3.820146    553.27473  0.077100715  0.078399725            4 
  599000    1.1393403   -3.7910934    557.02142  0.077493242  0.078385841            4 
  600000    1.1452909   -3.8091835    554.65954  0.077036047  0.078371324            2 
  601000    1.1571315   -3.8336518    559.22506  0.077540912  0.078358139            3 
  602000    1.1508511   -3.8529367    558.89714  0.077366714  0.078343888            4 
  603000    1.1465012    -3.824347    559.37894  0.077304994  0.078331936            2 
  604000    1.1748797   -3.7874045    560.22893  0.077294278  0.078319232            2 
  605000    1.1548595   -3.8110505    560.43155  0.077194429   0.07830752            2 
  606000    1.1786147   -3.8191674    563.65471  0.077510273  0.078295436            3 
  607000    1.1366431   -3.8364984    562.40819  0.077211448  0.078284821            4 
  608000    1.1408409    -3.830131    563.30938  0.077207974  0.078271673            2 
  609000    1.1798691   -3.7941626    565.55163  0.077388017  0.078258859            1 
  610000     1.157851   -3.8474635     563.5643  0.076989658  0.078245873            3 
  611000     1.131018   -3.8363632    565.62686  0.077144962  0.078231906            3 
  612000    1.1529556   -3.8322415    564.83669  0.076911314  0.078216865            2 
  613000    1.1500731   -3.8059773    569.25615  0.077386644  0.078203543            2 
  614000    1.1495296   -3.8147093    568.50694  0.077158922  0.078189175            2 
  615000    1.1381533   -3.8375117      570.503  0.077303929   0.07817651            2 
  616000     1.133482   -3.8138192     569.3443  0.077021686  0.078163799            2 
  617000    1.1498936   -3.8525729    571.28537  0.077159018  0.078150857            2 
  618000    1.1393313   -3.8434385    571.35242  0.077043206  0.078137832            1 
  619000    1.1476822   -3.8074816    571.58057  0.076949457  0.078124907            6 
  620000    1.1345954   -3.8231479    571.57946  0.076825196  0.078113037            1 
  621000    1.1658843   -3.8131708     573.4625  0.076954173  0.078099842            1 
  622000    1.1644325   -3.8263859    574.19899  0.076929125  0.078086305            2 
  623000    1.1418096   -3.8490215    575.61974  0.076995685  0.078073434            2 
  624000    1.1392882   -3.8553021    575.40723  0.076843914  0.078059919            2 
  625000     1.161879   -3.8391163    577.96545  0.077062059  0.078046491            2 
  626000    1.1644097   -3.8470828    576.24739  0.076710249   0.07803412            3 
  627000    1.1376809   -3.8376569    577.86405   0.07680277  0.078020807            3 
  628000    1.1697213   -3.8337421    579.27332  0.076867478  0.078008592            2 
  629000    1.1553112   -3.7973825    582.05615  0.077113957   0.07799611            1 
  630000    1.1668064   -3.8497177    580.89369   0.07683779  0.077982363            4 
  631000     1.140725   -3.8080587    583.46535  0.077055646  0.077967941            7 
  632000     1.154334   -3.8613939    582.82431  0.076849197  0.077953916            2 
  633000    1.1506353    -3.814759    584.34877  0.076928485  0.077939114            2 
  634000    1.1410166   -3.8421787     582.1199  0.076514183  0.077924348            2 
  635000    1.1745624   -3.8259405      584.354  0.076686877  0.077909873            3 
  636000    1.1625064   -3.8013801    585.09906  0.076663923  0.077895821            4 
  637000    1.1463561   -3.8182229    585.26302  0.076565021  0.077880806            2 
  638000     1.168653   -3.8143657    589.65631  0.077018849   0.07786501            1 
  639000    1.1782539   -3.8097307    587.06334  0.076560164  0.077849672            1 
  640000    1.1564838   -3.8310093    587.45201  0.076491148  0.077832384            4 
  641000    1.1674383   -3.8211247    589.12525  0.076589346  0.077815945            3 
  642000    1.1296989   -3.8310278    589.16115  0.076474707  0.077800255            3 
  643000    1.1342776    -3.836819    593.18268  0.076876968  0.077784927            3 
  644000    1.1635974   -3.8074248    592.24236  0.076635917  0.077770956            4 
  645000    1.1366793   -3.8404925    592.62861  0.076567004  0.077755666            3 
  646000     1.129294   -3.8464133    594.07221  0.076634701  0.077740036            2 
  647000    1.1114834   -3.8547698    593.71328  0.076470026  0.077723828            2 
  648000    1.1288331   -3.8256321    594.25782  0.076422045  0.077708083            4 
  649000    1.1395765   -3.8438187    596.40476  0.076579964  0.077691357            2 
  650000     1.119719   -3.8138937    595.63998    0.0763641  0.077675285            4 
  651000    1.1677851   -3.8165324    596.59945  0.076369617  0.077659314            3 
  652000    1.1229499   -3.8334463    594.04013  0.075925375  0.077643431            3 
  653000    1.1719677   -3.8650734    596.20125  0.076084896  0.077626451            1 
  654000    1.1263519   -3.8121477    598.29228     0.076235  0.077609798            3 
  655000    1.1564229   -3.8107953    598.77487  0.076180009  0.077592508            2 
  656000    1.1501565   -3.8760265    599.24128  0.076123131  0.077574931            1 
  657000    1.1367062   -3.8378611    597.86826  0.075833112  0.077557795            4 
  658000    1.1614848   -3.8226473    600.86687  0.076097628  0.077540175            4 
  659000    1.1649802   -3.7955497    603.51415  0.076316913  0.077522922            2 
  660000    1.1429915   -3.8201897    601.88882  0.075996063  0.077506213            2 
  661000    1.1376758   -3.8410004    604.73079  0.076239383  0.077488724            1 
  662000    1.1484148   -3.8359738    605.08562  0.076168884  0.077471084            3 
  663000     1.132731   -3.8385816    602.64409   0.07574712  0.077451908            3 
  664000    1.1390902   -3.8550456    606.85746   0.07616183  0.077434496            2 
  665000    1.1441608   -3.8283788    605.91188  0.075928807   0.07741697            3 
  666000    1.1471903   -3.8354413    608.95009  0.076194956   0.07739948            2 
  667000    1.1587638   -3.8409739    609.12261  0.076102275  0.077382538            1 
  668000    1.1395586   -3.8676871    608.35637  0.075892761  0.077364276            2 
  669000    1.1365152   -3.8578888    611.86204  0.076215999  0.077346043            1 
  670000    1.1451301   -3.8270778    610.32285  0.075910803  0.077329167            2 
  671000    1.1418502   -3.8070087    613.98536  0.076252529  0.077311987            2 
  672000    1.1731005   -3.8335777    614.01804   0.07614311  0.077294554            2 
  673000    1.1427509    -3.816722    614.28372  0.076062867  0.077278248            3 
  674000    1.1447956   -3.8644768    614.32048   0.07595456  0.077261259            2 
  675000    1.1432558   -3.8525856    614.73371  0.075893051  0.077245743            5 
  676000    1.1712834    -3.825499     618.1977  0.076207803  0.077229845            1 
  677000    1.1308938   -3.8387195    620.51171  0.076380073  0.077214082            2 
  678000    1.1206179     -3.85537    619.52482  0.076146119  0.077198159            1 
  679000    1.1514067     -3.83189    619.48678  0.076029305  0.077182263            2 
  680000    1.1446301   -3.8881568    616.78043  0.075585836   0.07716553            2 
  681000    1.1391121   -3.8364779    620.13117  0.075884872  0.077149539            2 
  682000    1.1504067   -3.8246186    619.50785   0.07569744  0.077132457            2 
  683000    1.1434735   -3.8228917    623.13132  0.076028711  0.077116072            3 
  684000    1.1399964   -3.8593148    620.81095  0.075634862  0.077099543            2 
  685000     1.131171   -3.8737143     621.7378  0.075637202  0.077082642            2 
  686000    1.1031794    -3.811115     625.7419  0.076013351    0.0770658            1 
  687000    1.1216774    -3.856898    626.35779  0.075977413  0.077048418            2 
  688000    1.1445777   -3.8625183    623.44701  0.075514415  0.077031693            2 
  689000    1.1289942   -3.8670392    623.60364  0.075423759  0.077014116            3 
  690000    1.1410832   -3.8284068    627.44443  0.075778313  0.076996569            2 
  691000    1.1249742   -3.8176427    627.61611  0.075689353   0.07697946            1 
  692000    1.1284637   -3.7951236    628.61995  0.075700861  0.076961683            2 
  693000    1.1371172   -3.8150424    627.56247  0.075464463  0.076944064            2 
  694000    1.1336804   -3.8679297    627.43648  0.075340596  0.076926046            1 
  695000    1.1509084   -3.8586831    628.29315   0.07533491  0.076908223            2 
  696000    1.1293628   -3.8551197    630.87759   0.07553611  0.076890681            1 
  697000    1.1302367   -3.8634892    631.70129  0.075526219  0.076874084            2 
  698000    1.1364039   -3.8506883    633.28771  0.075607415  0.076856731            2 
  699000    1.1369248   -3.8624496    635.44413  0.075756334  0.076839795            3 
  700000    1.1345184   -3.8386603    636.88744  0.075819934  0.076822517            1 
  701000    1.1347235   -3.8227966    637.45134  0.075778809  0.076805475            2 
  702000    1.1290608   -3.8519981    637.02421  0.075620158  0.076788635            3 
  703000    1.1570585   -3.8672661    636.85472  0.075492499  0.076771949            5 
  704000    1.1314666    -3.855574     638.2181  0.075546649  0.076755747            2 
  705000     1.141196   -3.8276786    639.25416  0.075561957  0.076741389            3 
  706000    1.1573439   -3.8272222    638.37794  0.075351504  0.076725491            2 
  707000    1.1349442   -3.8479555    641.98918  0.075670578  0.076709369            2 
  708000    1.1289621   -3.8227862    643.84368  0.075781977  0.076694773            3 
  709000    1.1461226   -3.8647129    641.14661  0.075358088  0.076680263            4 
  710000    1.1452824   -3.8613432    642.91728  0.075459775  0.076664647            2 
  711000    1.1337914   -3.8216738    647.08358  0.075841957  0.076649888            5 
  712000    1.1447392   -3.8605408    647.01736  0.075727687  0.076635959            2 
  713000    1.1518355   -3.8840051    645.77903  0.075476745  0.076622302            2 
  714000    1.1456189   -3.8502331    650.37524  0.075907474  0.076606742            3 
  715000    1.1177177   -3.8335687    648.66057  0.075601465  0.076591613            1 
  716000    1.1492242   -3.8447305     649.9103  0.075641329  0.076575517            4 
  717000    1.1457574   -3.8402871    648.90587  0.075419092  0.076560222            3 
  718000    1.1522376   -3.8681482    646.70716  0.075058862  0.076543927            2 
  719000    1.1238508   -3.8469031    652.32515  0.075605603  0.076526918            5 
  720000     1.130178   -3.8478029    653.31849  0.075615566  0.076511229            2 
  721000     1.147251   -3.8959672    652.17206  0.075378185  0.076496255            2 
  722000    1.1606339   -3.8356451    654.52266   0.07554509  0.076480815            4 
  723000    1.1174239     -3.89346    652.30785  0.075185322   0.07646407            3 
  724000    1.0996655   -3.8112447    655.70131  0.075472066  0.076447508            2 
  725000    1.1199561   -3.8520857    656.13918  0.075418296  0.076431221            2 
  726000    1.1229056   -3.8610863    656.67083   0.07537544  0.076415775            3 
  727000    1.1132121   -3.8466465    658.03238  0.075427829  0.076400517            2 
  728000    1.1350669    -3.858399    657.45886  0.075258569  0.076384937            3 
  729000    1.1128991   -3.8698819      660.338  0.075484453  0.076370271            1 
  730000    1.1386971   -3.8926003    658.08413   0.07512376  0.076355669            2 
  731000    1.1407972   -3.8308618    661.02287  0.075356005  0.076340953            2 
  732000     1.114252   -3.8230164    664.52271  0.075651492  0.076327349            3 
  733000    1.1622083   -3.8228934    663.66793  0.075451106  0.076314252            3 
  734000    1.1390599    -3.862489    664.15565  0.075403684  0.076300507            2 
  735000    1.1518346   -3.8351446    667.53595  0.075684348  0.076286854            4 
  736000    1.1347481   -3.8614619    663.99983   0.07518114  0.076271596            2 
  737000    1.1456195   -3.8277629    667.16182  0.075436659  0.076256773            1 
  738000    1.1088547   -3.8412982    666.90701  0.075305669  0.076241895            2 
  739000    1.1250786   -3.8670063    666.32065  0.075137646  0.076226958            2 
  740000    1.1313727   -3.8394569    668.59669   0.07529242  0.076212513            3 
  741000    1.1277828   -3.8593934    666.87518  0.074997208  0.076198693            2 
  742000    1.1303095   -3.8453341    670.74611  0.075330874  0.076184497            5 
  743000    1.0966299   -3.8782064    671.77343   0.07534471  0.076170627            1 
  744000    1.1439144   -3.8459767    671.46135  0.075208485  0.076156766            3 
  745000    1.1318917   -3.8830415    670.11877  0.074957357  0.076142012            2 
  746000    1.1103244   -3.8500866    674.20429  0.075313259  0.076127519            2 
  747000    1.1449051   -3.8372473    678.51674  0.075693523  0.076113137            4 
  748000    1.1266669   -3.8525384     673.6757  0.075052997   0.07609881            3 
  749000    1.1301485   -3.8364699     676.1666  0.075229929  0.076083618            2 
  750000    1.1400299   -3.8545581    676.98144   0.07522016  0.076068431            4 
  751000    1.1423563   -3.8628057    676.48117  0.075064488  0.076053715            1 
  752000    1.1176108   -3.8668892     675.6014  0.074867176  0.076038769            3 
  753000    1.1615939   -3.8343008    680.90909  0.075355145  0.076025352            1 
  754000    1.1417859    -3.851306    681.07966  0.075274056  0.076011479            2 
  755000    1.1249235   -3.8524666    680.55247  0.075116166  0.075997531            2 
  756000    1.1186199   -3.8624121    681.86518  0.075161506  0.075983404            1 
  757000    1.1466446   -3.8724049    682.67966  0.075151878  0.075969215            3 
  758000    1.1191385   -3.8719764    681.57277  0.074931043   0.07595457            3 
  759000     1.140193   -3.8599031    682.32502  0.074914912  0.075939506            1 
  760000    1.1298771   -3.8591329      685.822  0.075199781  0.075924706            2 
  761000    1.1363771   -3.8351348    684.36135  0.074941015  0.075910765            2 
  762000     1.141766   -3.8407867    685.48298   0.07496533  0.075896224            3 
  763000    1.1255135   -3.8774128    685.07213  0.074822207    0.0758823            2 
  764000    1.0964827   -3.8688917    686.65061  0.074896445  0.075867698            5 
  765000    1.1423604   -3.8141444    690.58158  0.075226752  0.075853571            3 
  766000    1.1296769    -3.881678    688.33417  0.074884048  0.075839406            2 
  767000    1.1221595   -3.8586159    688.94348  0.074852616  0.075824485            5 
  768000    1.1242581   -3.8584628    691.74855  0.075059521  0.075811144            2 
  769000    1.1569237   -3.8591486    690.28394  0.074803201  0.075797588            3 
  770000    1.1153197   -3.8570245    692.84376  0.074983091  0.075783504            1 
  771000    1.1327624   -3.8952205    694.11282  0.075023003  0.075770897            3 
  772000    1.1256658   -3.8611641     693.5247  0.074862338  0.075758066            7 
  773000    1.1265663   -3.8389677    696.97429  0.075137375  0.075745641            3 
  774000    1.1149977   -3.8628741     695.6409  0.074896738  0.075733495            3 
  775000    1.1333015   -3.8642409    702.04635  0.075488855  0.075721375            2 
  776000    1.1139938     -3.86901     699.7371  0.075143589  0.075709167            2 
  777000      1.10498   -3.8727159    701.06254  0.075189033  0.075696635            5 
  778000    1.1240686   -3.8676882    701.96213  0.075188746  0.075683924            4 
  779000    1.1277556   -3.8826449    699.83131  0.074864282  0.075670345            1 
  780000    1.1496199   -3.8378618     701.0466  0.074898141  0.075658189            1 
  781000    1.1311269   -3.8497709    702.96031  0.075006435   0.07564566            1 
  782000    1.0894332   -3.8668053    706.03433    0.0752381  0.075633363            1 
  783000    1.1190753   -3.8255522    704.18097  0.074944761   0.07562079            1 
  784000    1.1261975   -3.8792812    704.47457  0.074880375  0.075609206            2 
  785000    1.1320547   -3.8972558    706.08979  0.074956453  0.075596625            3 
  786000    1.1503034   -3.8382215    709.27235   0.07519851  0.075585544            2 
  787000    1.1261902   -3.8674982    707.27937  0.074891928  0.075573003            2 
  788000    1.1173874   -3.8737875    709.61045  0.075043407  0.075560212            3 
  789000    1.1111415   -3.8765543    706.25353   0.07459374  0.075546873            4 
  790000    1.1111475   -3.8715343    712.71469  0.075180874  0.075534247            5 
  791000    1.1322297   -3.8782038    711.57811  0.074966088  0.075521296            5 
  792000    1.1294455   -3.8895248    711.28285  0.074840367  0.075508341            2 
  793000    1.1479745   -3.8747821    712.44314  0.074867922  0.075495698            2 
  794000    1.1115427   -3.8730339    714.00349  0.074937394   0.07548264            5 
  795000    1.1214892   -3.8561185    715.00951  0.074948586  0.075470117            1 
  796000    1.1287496   -3.8708085    715.59883  0.074916126  0.075457076            2 
  797000    1.1305841   -3.8788423    715.88934  0.074852503  0.075444953            3 
  798000     1.115292   -3.8836239    716.56059  0.074828801  0.075433049            2 
  799000    1.1367389   -3.8963703    717.61805  0.074845437  0.075420331            2 
  800000    1.1432568   -3.8783882    717.52157   0.07474183  0.075407258            1 
  801000    1.1208391   -3.8888234    719.18688  0.074821773  0.075395464            5 
  802000    1.1109221    -3.853307     720.4106  0.074855632  0.075382734            2 
  803000    1.1176359    -3.854965    720.91859   0.07481513   0.07537052            2 
  804000    1.1112585   -3.8383157    721.25358  0.074756798  0.075359244            2 
  805000    1.1208916   -3.8983953     722.6946  0.074813105  0.075347324            4 
  806000    1.1309303   -3.8790261    722.02236  0.074650782  0.075335182            3 
  807000    1.1194271    -3.891691    722.35084  0.074592197  0.075322824            2 
  808000    1.1209189   -3.8991502    722.09595  0.074473592  0.075310224            4 
  809000     1.121542     -3.84612    727.52738  0.074941016  0.075298366            3 
  810000    1.1327852   -3.8695232    728.01632  0.074898798  0.075287609            3 
  811000      1.12918   -3.8876679    727.24572  0.074727263  0.075276318            2 
  812000    1.1177844   -3.8781947    726.64493  0.074573576  0.075264317            1 
  813000    1.1344708    -3.885143    730.95107  0.074923234  0.075252486            2 
  814000    1.1277059   -3.8696883    731.12421  0.074848916  0.075241028            5 
  815000     1.132711   -3.8658811    731.24579  0.074769508  0.075229486            1 
  816000    1.1095846   -3.8895851    732.10625  0.074765752   0.07521773            2 
  817000    1.1213202   -3.8729508    731.73145  0.074636011  0.075205488            3 
  818000    1.0969144   -3.9040288    732.82967  0.074656649  0.075193222            3 
  819000    1.1230478   -3.8478319    734.75869  0.074761772  0.075181717            2 
  820000    1.1115592   -3.8476402    736.04074  0.074800888   0.07517004            3 
  821000    1.1094988   -3.8993854    735.98701  0.074704325  0.075157955            2 
  822000    1.1273215   -3.8825136      736.078  0.074622668  0.075145778            1 
  823000     1.120347   -3.8872826    739.38998  0.074867353  0.075134366            3 
  824000    1.1490578   -3.8557365    740.27338  0.074865836  0.075122511            2 
  825000    1.1175349   -3.8685115    740.15789  0.074763424  0.075110941            2 
  826000    1.1327024   -3.8539209    740.55626  0.074713101  0.075098926            2 
  827000    1.1260657   -3.8459873    741.70451  0.074738463  0.075087567            3 
  828000    1.1118998   -3.8730161    742.86906  0.074765405  0.075076459            4 
  829000    1.1419333   -3.8939674    737.91103  0.074176823  0.075064155            1 
  830000    1.0961054   -3.8780238    741.30973  0.074428688  0.075052349            3 
  831000    1.1022768   -3.8724707    744.77174  0.074686295  0.075040418            1 
  832000    1.1059175   -3.8622061    743.95718  0.074514941  0.075028239            3 
  833000    1.1247267   -3.8962175    744.67566  0.074497365  0.075015865            2 
  834000    1.1442669   -3.8630772    746.02094   0.07454246  0.075003745            2 
  835000    1.1285907   -3.8805821    744.59487  0.074310865  0.074991794            4 
  836000    1.1091858   -3.8980336    744.42192  0.074204736  0.074979545            3 
  837000    1.1040949   -3.8749877    748.92688  0.074564604  0.074968169            2 
  838000    1.1032701   -3.8372708    750.67301  0.074649265  0.074956167            2 
  839000    1.1272155   -3.8574201    750.83727  0.074576606  0.074943682            6 
  840000    1.1263577   -3.8390088    753.62427  0.074764312  0.074931422            3 
  841000    1.1224101   -3.8813276    752.74411    0.0745882  0.074918823            1 
  842000    1.1093955   -3.8648955    750.28939  0.074256669   0.07490652            2 
  843000    1.1114608     -3.88451    751.73755  0.074311739  0.074894479            2 
  844000    1.1145955   -3.8434446    750.06781  0.074058828  0.074881178            2 
  845000     1.125917   -3.8938979    750.27024  0.073991148  0.074867429            2 
  846000    1.0963852   -3.8624149    753.78856  0.074250252  0.074852643            2 
  847000    1.1085403   -3.8815944    753.49844  0.074134045   0.07483866            2 
  848000    1.1161487   -3.8747014    754.35242  0.074130545  0.074824836            4 
  849000    1.1222568   -3.8536754    753.27348  0.073937326  0.074809336            2 
  850000    1.1336093   -3.9308967    750.55401  0.073583726  0.074794118            2 
  851000    1.0891285   -3.8795705    752.77439  0.073714688  0.074778607            2 
  852000    1.1032033   -3.8821269    754.62246  0.073808926  0.074763868            3 
  853000    1.1234392   -3.8753058    755.43087  0.073801375   0.07474882            3 
  854000    1.0904259   -3.8751085    759.19284  0.074082049  0.074733845            3 
  855000    1.1382975   -3.8773968    755.45957  0.073631537  0.074718796            4 
  856000    1.0982308   -3.8781987    758.76013  0.073866835  0.074703492            2 
  857000    1.1165393   -3.8799201    759.08476  0.073812209  0.074688204            4 
  858000    1.1188446   -3.9187104    761.97625  0.074007018  0.074674079            2 
  859000    1.0936167   -3.8696384    757.89206  0.073524647  0.074659867            2 
  860000    1.1021003   -3.9087744     759.0524  0.073551589  0.074644694            1 
  861000    1.1222668    -3.890079    764.34542  0.073978457  0.074629835            2 
  862000    1.1129518   -3.8798916    762.53189  0.073717313  0.074614951            3 
  863000     1.112646   -3.9102881    763.50327  0.073725692  0.074600267            2 
  864000    1.1250586   -3.8928528    765.06953  0.073791428   0.07458643            3 
  865000    1.0983934   -3.8521995    769.36148  0.074119603  0.074573038            2 
  866000    1.1168999   -3.8653349    767.53942  0.073858682  0.074559045            2 
  867000    1.1417295    -3.866635    767.02193  0.073723753  0.074544621            2 
  868000    1.1193326   -3.8641772    769.63173  0.073889375  0.074531173            5 
  869000    1.1356808   -3.9288042    768.93357  0.073737397  0.074517751            3 
  870000    1.1094432   -3.8834973     769.2862  0.073686417  0.074503724            2 
  871000    1.1169788    -3.876115    769.95146  0.073665467  0.074489416            2 
  872000    1.1144395   -3.8870879    771.98761  0.073775575  0.074476039            3 
  873000    1.1027006   -3.8701013    771.00432  0.073597205  0.074461851            2 
  874000    1.1004581   -3.8640529    773.35282  0.073736921  0.074448091            4 
  875000    1.1282996    -3.892491    776.05319  0.073909828  0.074434955            7 
  876000    1.1208169   -3.8839556    773.80718  0.073611794  0.074421532            4 
  877000     1.116591   -3.8946569    775.75662  0.073713096  0.074408521            6 
  878000    1.1076014   -3.8863225    778.06466  0.073848202  0.074394997            2 
  879000    1.1193755   -3.8754497    779.18308   0.07387022   0.07438146            2 
  880000    1.0958851   -3.9212222    774.74732  0.073366224  0.074367767            2 
  881000    1.0945053   -3.8915939    781.50918  0.073922549  0.074353001            3 
  882000    1.0944356   -3.8938947    780.30489  0.073724952  0.074339033            2 
  883000    1.0933947   -3.8835401    778.95491  0.073514053  0.074325401            4 
  884000    1.1154731   -3.8914252     780.7039  0.073595767  0.074311231            1 
  885000    1.1178683   -3.8959697    782.84425  0.073714148  0.074296042            2 
  886000    1.1132096    -3.880832    784.60397  0.073796461   0.07428112            3 
  887000    1.0958846   -3.8777774    783.62909  0.073621673  0.074266167            3 
  888000    1.1279912   -3.9090923    779.63059  0.073163531  0.074251726            1 
  889000    1.0896805   -3.9334857    780.63697  0.073175569  0.074236234            4 
  890000    1.1227168   -3.9233499    782.69246  0.073285811  0.074220979           11 
  891000    1.0893397    -3.914544    787.80678  0.073681891  0.074205578            2 
  892000    1.1096278    -3.894666    787.99524  0.073616895  0.074190657            3 
  893000    1.0941996   -3.9142809    786.97331  0.073439092  0.074175443            1 
  894000    1.1128017   -3.8917801    785.20922  0.073192507  0.074160176            2 
  895000    1.0999782    -3.890527    787.28821  0.073304302  0.074145023            3 
  896000    1.1269728   -3.8908336    790.62146  0.073532502  0.074129919            3 
  897000    1.1063482    -3.902597    789.08085    0.0733074  0.074115406            5 
  898000    1.0768724   -3.8935926    790.25591   0.07333481  0.074100497            4 
  899000    1.1344865   -3.8821196    790.89624  0.073312592  0.074085149            2 
  900000    1.1145509   -3.9301344    788.63069   0.07302136  0.074069781            2 
  901000    1.1016921   -3.8551825    793.77301  0.073415928  0.074054551            2 
  902000    1.1099111   -3.9101969    792.45337  0.073212618  0.074038918            6 
  903000    1.1050496   -3.9097504    790.86914   0.07298534  0.074023543            2 
  904000    1.1050379   -3.9070014    792.84402  0.073086654  0.074007427            7 
  905000    1.1196596   -3.9119889    789.96816  0.072741083  0.073992007            3 
  906000    1.0871322   -3.8675048    795.54092  0.073173373  0.073976391            3 
  907000    1.0826096   -3.9157661    795.18891  0.073060355  0.073961192            3 
  908000    1.1088886   -3.8958084     794.8778   0.07295134  0.073945725            2 
  909000    1.1068466   -3.8841026    797.50148  0.073111613  0.073930532            4 
  910000    1.0848632   -3.8796234     799.0865  0.073176419  0.073915585            2 
  911000    1.0853995   -3.9372182    794.38706  0.072666215  0.073899262            2 
  912000    1.1445237   -3.9264347    796.80766  0.072807717  0.073882408            2 
  913000    1.0887776   -3.9235953    798.08858  0.072844887  0.073866282            4 
  914000    1.1111011   -3.9098207    801.04074  0.073034349   0.07385002            2 
  915000    1.1026138   -3.9114633     801.3016  0.072978288  0.073834189            4 
  916000    1.0981331   -3.8782198    802.32523  0.072991742  0.073818694            2 
  917000    1.1127252    -3.886603    798.33034  0.072549104  0.073802016            1 
  918000    1.0912963   -3.9085614     799.1907  0.072548175  0.073785599            2 
  919000    1.1045481   -3.8783711    806.69555  0.073149759   0.07376967            2 
  920000    1.0920049   -3.8943949    802.39501  0.072680707  0.073753758            2 
  921000     1.105287   -3.8819462    807.51133  0.073064724  0.073738134            5 
  922000    1.0846112   -3.8689143    807.50108  0.072984552  0.073722449            4 
  923000    1.1018299   -3.9134183    804.22588  0.072609776   0.07370685            2 
  924000    1.0879501   -3.9095526    803.33755  0.072451078   0.07369078            1 
  925000    1.0887097   -3.9013676    810.85638  0.073050125  0.073674709            2 
  926000     1.106173   -3.9299968    808.28781  0.072740083  0.073659228            2 
  927000    1.1089627   -3.8863842    810.81696  0.072888975   0.07364328            2 
  928000    1.0997749   -3.8984982    810.74276  0.072803768  0.073628282            2 
  929000    1.1027392    -3.894692    812.38806  0.072872987  0.073612611            1 
  930000    1.1113573   -3.8784043    812.90611  0.072841049  0.073598006            2 
  931000    1.0946356   -3.8985615    813.56378  0.072821678  0.073583934            1 
  932000    1.0840172   -3.9125341    814.12075  0.072793343  0.073569623            1 
  933000    1.1055902   -3.9046695    814.59019  0.072757252  0.073556054            1 
  934000    1.1038071    -3.948855    814.16331  0.072641266  0.073542124            1 
  935000    1.0930061   -3.9053884    816.09146  0.072735424  0.073528251            2 
  936000    1.1081062   -3.9113682    820.14338  0.073018463  0.073514642            4 
  937000    1.0785652   -3.9089835    822.28985  0.073131435   0.07350199            1 
  938000    1.1117809   -3.9140875    823.52984  0.073163632  0.073489236            2 
  939000    1.1224423   -3.9124328    821.03528  0.072864331  0.073475941            2 
  940000    1.0964409   -3.8670196    822.54103  0.072920304  0.073462179            2 
  941000    1.0572433   -3.9209506    823.96991  0.072969351  0.073448354            2 
  942000    1.0919711   -3.9053663    822.14105    0.0727301   0.07343406            3 
  943000    1.0971912    -3.886174    824.67369  0.072876785  0.073420083            4 
  944000    1.1008382   -3.8916972    824.59904  0.072792994  0.073405435            3 
  945000    1.0925544    -3.884544    824.04603  0.072667199  0.073391178            3 
  946000     1.114548   -3.9015188    824.42879  0.072624101  0.073377928            2 
  947000    1.0951653   -3.8914538    828.21358  0.072880463  0.073364045            2 
  948000    1.1132983   -3.8901513    829.86096  0.072948397  0.073350701            2 
  949000     1.111443   -3.8957159     829.1225  0.072806682  0.073336854            1 
  950000    1.1101589   -3.8643912    831.73476   0.07295919  0.073323295            2 
  951000    1.1021464   -3.9137605    830.10659    0.0727398  0.073309624            1 
  952000    1.1184979   -3.8661096    830.22925  0.072674129  0.073296203            3 
  953000    1.0783472   -3.8952281    831.92437  0.072746097  0.073282316            4 
  954000    1.1055671   -3.9174946    831.35752  0.072620329   0.07326832            4 
  955000    1.0899695    -3.932077    829.56012  0.072387445  0.073253972            2 
  956000     1.110369   -3.8972921    830.38488  0.072383619  0.073239569            3 
  957000    1.0943139   -3.9050359    834.08939  0.072630563  0.073224648            4 
  958000    1.1009682   -3.9308614    833.84285  0.072533303  0.073210687            1 
  959000    1.1132205   -3.8944157    833.79485  0.072453498  0.073195759            3 
  960000    1.0959453   -3.8999864    834.17377  0.072410918  0.073182123            2 
  961000    1.0902924    -3.912195    837.88342  0.072657251  0.073168513            4 
  962000    1.1050464   -3.9356804    837.58661  0.072556012  0.073154818            5 
  963000    1.1012019   -3.9066341    839.19124  0.072619525  0.073141433            2 
  964000    1.1082082   -3.9194418    837.07329  0.072361107  0.073127544            4 
  965000    1.0925788   -3.9143629    841.68994  0.072684796   0.07311406            2 
  966000    1.0750378   -3.8843077    844.43361  0.072846239  0.073100552            6 
  967000    1.0938248   -3.9159409    840.59225   0.07243987  0.073087497            2 
  968000    1.1066072   -3.9295635    844.07276  0.072664666  0.073074417            2 
  969000     1.101695   -3.8803439     843.9759  0.072581347  0.073061371            2 
  970000    1.1243363   -3.9183795    845.17961  0.072609932  0.073048604            3 
  971000     1.104166   -3.9209964    844.83244  0.072505359  0.073034957            2 
  972000    1.0853016   -3.8739756    847.67893  0.072674805  0.073022421            1 
  973000    1.0993229   -3.9119282     847.8094  0.072611288   0.07300971            3 
  974000    1.1140317   -3.8953743    851.39078  0.072843153  0.072996756            4 
  975000    1.1071495   -3.8770039    848.93615  0.072558645  0.072983553            2 
  976000    1.1228924   -3.9355554    848.30979  0.072430822  0.072970471            2 
  977000    1.0978625   -3.8973543    850.15303  0.072513906  0.072957121            6 
  978000    1.1305058   -3.9062366     852.1274  0.072607992  0.072944016            4 
  979000     1.116069   -3.9023604    855.25423  0.072799985  0.072930902            3 
  980000    1.1067014   -3.9117596    852.17949  0.072464242   0.07291818            2 
  981000    1.0973379   -3.8824214    856.34846  0.072744518   0.07290515            2 
  982000     1.091838   -3.9131965    853.07453  0.072392612  0.072892038            3 
  983000     1.096853   -3.9149537    853.54526  0.072358873  0.072878545            2 
  984000    1.0881759    -3.912668    853.91961   0.07231704  0.072864876            3 
  985000    1.1159108   -3.8945731    861.50342   0.07288523  0.072851527            3 
  986000     1.090676   -3.9131379    857.71386   0.07249103  0.072838137            1 
  987000    1.0782914   -3.8971633    854.48837  0.072145252  0.072824045            2 
  988000    1.1009486   -3.8967335    855.70821  0.072175119  0.072810167            3 
  989000    1.0941949   -3.8843214    858.42636  0.072331173  0.072795761            1 
  990000    1.1038126    -3.908463    859.45688  0.072344855  0.072781566            2 
  991000    1.0721929   -3.9041337    854.31058    0.0718391  0.072767117            4 
  992000    1.0826953   -3.9095979     855.9333  0.071902999  0.072752819            1 
  993000    1.0646437   -3.9161204      860.867  0.072244629  0.072738325            2 
  994000    1.1094155   -3.9295536     859.5634  0.072062659  0.072724341            1 
  995000    1.0933752   -3.9247868    861.63763  0.072163956  0.072710635            3 
  996000    1.1003621   -3.8854073    863.91059  0.072281676   0.07269591            4 
  997000     1.094221   -3.9323254    863.40757  0.072167132  0.072681677            3 
  998000    1.0938327   -3.8870632    864.10014   0.07215265  0.072667733            4 
  999000    1.1044168   -3.9482929    867.43179  0.072358341  0.072654557            3 
 1000000    1.1061731   -3.9345389    865.12605  0.072093837  0.072641048            2 
 1001000    1.1024481   -3.9446698    864.55085   0.07197393  0.072627133            4 
 1002000    1.0708285   -3.8871634    870.94119  0.072433566  0.072613759            1 
 1003000    1.0975323   -3.9281593    868.09062  0.072124511  0.072600281            2 
 1004000    1.0993347   -3.9072354    868.66508  0.072100355  0.072586862            2 
 1005000    1.0828492    -3.904543     870.8414  0.072209072   0.07257443            3 
 1006000    1.0816692   -3.8787614    870.91667  0.072143528  0.072561629            2 
 1007000    1.0916011    -3.902078    869.50371  0.071954958  0.072548539            2 
 1008000     1.113326   -3.9510193    869.23486  0.071861347  0.072535084            1 
 1009000    1.0940613   -3.9602194    867.91702  0.071681286  0.072521302            1 
 1010000    1.0801997   -3.9274409    870.03556  0.071785112  0.072506993            3 
 1011000    1.0773508   -3.9174875    874.07485  0.072047053  0.072492886            1 
 1012000    1.0895976   -3.8929517    875.91874  0.072127696  0.072478704            2 
 1013000    1.0821324   -3.9207101    876.41532  0.072097345  0.072464957            2 
 1014000    1.0959295   -3.9412609     880.6198  0.072371779  0.072451087            2 
 1015000    1.0961274   -3.9464573    876.74367  0.071982239  0.072437699            5 
 1016000    1.0921168   -3.8986111    877.38694  0.071964152  0.072424118            2 
 1017000    1.0715755   -3.9195813     877.5938  0.071910341  0.072409976            4 
 1018000    1.0957567   -3.9483042    872.06453  0.071387077   0.07239461            5 
 1019000    1.0837968   -3.9201056     877.3427  0.071748667  0.072379423            3 
 1020000    1.0741171   -3.9442626     876.1711  0.071582606  0.072364674            2 
 1021000    1.0757938   -3.9138087    879.36131  0.071772879  0.072349288            3 
 1022000    1.0837303   -3.9100327     879.1723  0.071687239  0.072333744            2 
 1023000    1.1002013   -3.9138727    880.62713  0.071735673  0.072318193            2 
 1024000     1.055593   -3.9421885    876.89831  0.071362167  0.072303246            3 
 1025000    1.0682879   -3.9222589    879.83152  0.071531018  0.072288171            1 
 1026000    1.0901254   -3.9047229    878.86704  0.071382963   0.07227355            2 
 1027000    1.0891298   -3.9351059    882.14528  0.071579461  0.072258451            3 
 1028000    1.0826719   -3.9156667    885.55993  0.071786635  0.072242983            2 
 1029000    1.0691431   -3.9049996    883.95911  0.071587229   0.07222865            2 
 1030000    1.0927529   -3.9195066    883.53648  0.071483534   0.07221435            2 
 1031000    1.0890788   -3.9423261    886.94649  0.071689823  0.072200205            2 
 1032000     1.117467   -3.9596459     885.9527  0.071540108  0.072185753            3 
 1033000    1.0849263   -3.9208423    887.28696  0.071578489  0.072171919            1 
 1034000    1.0864042   -3.9388052    888.96362  0.071644392   0.07215818            3 
 1035000    1.0668052    -3.940201    888.54593  0.071541541  0.072144024            3 
 1036000    1.0922158   -3.9328594    887.34889  0.071376198  0.072129771            2 
 1037000    1.0874297   -3.9102589    893.19186  0.071776909  0.072115627            8 
 1038000    1.0901357   -3.9600129    887.13501  0.071221501  0.072101231            3 
 1039000    1.0915554   -3.9707458    888.92454  0.071296482  0.072086529            2 
 1040000     1.112702   -3.8956633    889.89129  0.071305392  0.072072015            2 
 1041000    1.0998298   -3.9136742    893.11198  0.071494715  0.072057276            2 
 1042000    1.0976935   -3.9056144    898.01826  0.071818479  0.072042859            2 
 1043000    1.0775501   -3.9183161    891.96229  0.071265763  0.072027742            5 
 1044000    1.0993423   -3.9356528    892.88771  0.071271369  0.072012801            3 
 1045000    1.0912051   -3.9377146    893.89891  0.071283805  0.071997677            4 
 1046000    1.1056131   -3.9246344    894.12281  0.071233494  0.071982855            2 
 1047000    1.1060089   -3.9013012    900.90352  0.071705151  0.071968271            5 
 1048000     1.065169   -3.9015554    894.12434  0.071097674  0.071953145            4 
 1049000    1.0761702   -3.9363729    897.45101   0.07129417  0.071938208            3 
 1050000    1.0967199   -3.9120379    895.68102  0.071085796  0.071922724            2 
 1051000    1.0773309   -3.9232789     897.8454  0.071189771   0.07190646            2 
 1052000    1.0867778   -3.9512801    893.03937  0.070741395  0.071890391            2 
 1053000    1.0966503   -3.9633203    896.23502  0.070927115  0.071874861            2 
 1054000     1.082996   -3.9090472    897.61295  0.070968766  0.071859289            3 
 1055000    1.0904703   -3.9524362    899.33265  0.071037334  0.071843369            2 
 1056000    1.0615138   -3.9191632    897.79438  0.070848673  0.071827204            2 
 1057000    1.0804511   -3.9605475    896.77515  0.070701289  0.071810781            5 
 1058000    1.0920038   -3.9269573    902.87182  0.071114667  0.071794469            2 
 1059000    1.0994524   -3.9388329    897.56209  0.070629689  0.071778322            3 
 1060000    1.0940811   -3.9105504    898.62949  0.070646973  0.071762006            3 
 1061000    1.0757107   -3.9561936    899.72977  0.070666806  0.071745698            4 
 1062000    1.0785133   -3.9279402    901.78633  0.070761639  0.071729342            2 
 1063000    1.0708676   -3.8951629    902.10204  0.070719822  0.071712821            1 
 1064000    1.0746856   -3.9257347    902.41629  0.070677968   0.07169588            3 
 1065000    1.0821828   -3.9435614     903.8673  0.070725141  0.071679027            3 
 1066000    1.0639434   -3.9035497    904.70431  0.070724227   0.07166248            1 
 1067000    1.0769199   -3.9334604    903.13765  0.070535587  0.071645456            4 
 1068000    1.0850369   -3.9536919    902.52624  0.070421835  0.071628988            4 
 1069000    1.0878069   -3.9422875    903.77888  0.070453607  0.071611919            2 
 1070000    1.0907614    -3.926337    905.99443  0.070560314   0.07159495            3 
 1071000    1.0990001   -3.9451506    905.03662  0.070419905  0.071578376            2 
 1072000    1.0779916   -3.9288551    907.14552  0.070518153  0.071561801            2 
 1073000    1.0834301   -3.9145623    910.39788  0.070705023  0.071545195            4 
 1074000    1.0703171    -3.936097    908.72397  0.070509309  0.071528328            3 
 1075000    1.0712644   -3.9272682    913.31302  0.070799459   0.07151164            2 
 1076000    1.0914113    -3.936939    909.47857  0.070436693  0.071494918            4 
 1077000    1.0718673   -3.8948442     912.2949  0.070589206   0.07147807            2 
 1078000    1.0677515   -3.9659052    914.94115  0.070728289   0.07146154            2 
 1079000    1.0962122   -3.9537594    909.54082  0.070245661   0.07144493            2 
 1080000    1.0762652   -3.9243571    911.26494  0.070313653  0.071428546            3 
 1081000    1.0674854   -3.9392197    916.27217  0.070634611   0.07141225            3 
 1082000    1.0712146   -3.9212638     914.7907   0.07045523  0.071396015            2 
 1083000    1.0503718    -3.925061    912.24068  0.070193958   0.07137922            2 
 1084000    1.0863023   -3.9540686    914.63612  0.070313355   0.07136193            6 
 1085000    1.0676669   -3.9169725    917.75132  0.070487812  0.071345113            4 
 1086000    1.0739927    -3.908323    920.20084  0.070610868  0.071328633            2 
 1087000    1.0863632   -3.9314938    918.80987  0.070439272  0.071312111            2 
 1088000    1.0783331   -3.9094976    919.55435  0.070431553  0.071295838            1 
 1089000    1.0690541   -3.9356219    915.83157  0.070081999  0.071279565            3 
 1090000      1.07815   -3.9300684    921.11426  0.070421579  0.071262331            1 
 1091000    1.0625971    -3.948261    917.27869  0.070064061  0.071245373            2 
 1092000    1.0938018   -3.9805824    915.17352  0.069839249  0.071228238            3 
 1093000    1.0758211   -3.9403205    921.74439  0.070276333  0.071211418            2 
 1094000    1.0624633   -3.9381315    922.75795  0.070289301  0.071193652            2 
 1095000    1.0727707   -3.9390035    921.92195  0.070161488   0.07117658            3 
 1096000    1.0757546   -3.9043399    925.57431  0.070375176  0.071159854            2 
 1097000    1.0636159    -3.919172     921.7149  0.070017844  0.071143061            1 
 1098000    1.0808079   -3.9458231     925.0167  0.070204668  0.071126089            2 
 1099000    1.0948065    -3.948556    923.46698  0.070023277  0.071108729            5 
 1100000    1.0806866   -3.9475499    923.96945  0.069997685  0.071091925            1 
 1101000    1.0680536   -3.9551423    923.17399  0.069873902   0.07107532            3 
 1102000    1.0706239   -3.9617759    924.47589  0.069908945  0.071057928            3 
 1103000    1.0800143   -3.9454978    924.96605  0.069882597  0.071040255            1 
 1104000    1.0775075   -3.9315574    926.49862   0.06993498  0.071022737            2 
 1105000     1.071183   -3.9201353    927.47539  0.069945354  0.071005528            3 
 1106000    1.0669626   -3.9227927    927.11106  0.069854661  0.070988582            2 
 1107000    1.1026639    -3.966313    927.22921  0.069800453  0.070971564            2 
 1108000    1.0709881   -3.9683363    929.40746  0.069901283  0.070954145            6 
 1109000    1.0704046   -3.9523074    929.17209  0.069820566  0.070937685            1 
 1110000     1.074522   -3.9101627    931.67983  0.069945933  0.070920712            1 
 1111000    1.0568972   -3.9275364     934.3283  0.070081631  0.070904131            3 
 1112000     1.085297   -3.9565868      931.967  0.069841651   0.07088729            3 
 1113000    1.0784652   -3.9404945    938.89834  0.070297869  0.070870707            6 
 1114000    1.0675469   -3.9368157    939.36626  0.070269768  0.070855003            2 
 1115000    1.0721804   -3.9295679    935.20327  0.069895611  0.070839443            2 
 1116000    1.0592879   -3.9666593    935.73719  0.069872849  0.070823254            2 
 1117000    1.0855496   -3.9427809    940.17614  0.070141461  0.070807254            3 
 1118000    1.0624567   -3.9699722     938.2135  0.069932431   0.07079085            4 
 1119000    1.0566926   -3.9641805    938.20517  0.069869316  0.070774308            3 
 1120000    1.0833973   -3.9449976    939.93648   0.06993575  0.070757707            3 
 1121000    1.0610391   -3.9738353     938.5787  0.069772428  0.070741595            2 
 1122000    1.0669581   -3.9183589    944.48729  0.070149085  0.070725873            3 
 1123000    1.0767258   -3.9498731    943.77552  0.070033802  0.070710294            3 
 1124000    1.0666963   -3.9642282     942.9345  0.069909141  0.070694774            2 
 1125000    1.1044582   -3.9860415    940.13631  0.069639727  0.070678966            2 
 1126000    1.0581894   -3.9485676    945.10962  0.069945946  0.070663451            3 
 1127000    1.0656073   -3.9620889    945.61516  0.069921263  0.070647484            3 
 1128000    1.0624523   -3.9264211    947.84958  0.070024349  0.070631796            2 
 1129000    1.0807744   -3.9678882    945.33225  0.069776516  0.070615879            1 
 1130000    1.0825035   -3.9552849    950.03393  0.070061499  0.070600848            6 
 1131000    1.0580944   -3.9494355    948.48383   0.06988534  0.070585306            1 
 1132000    1.0676515   -3.9938288    946.64797  0.069688455  0.070569224            2 
 1133000    1.0834784   -3.9765743    951.23394   0.06996425  0.070552823            2 
 1134000     1.066553   -3.9113233    953.55396  0.070073042   0.07053686            4 
 1135000    1.0694431   -3.9617199     948.4124  0.069633803  0.070520722            3 
 1136000    1.0901439   -3.9583292    947.65311  0.069516807  0.070504737            1 
 1137000    1.0849662   -3.9514869    946.25409  0.069353128  0.070488302            3 
 1138000    1.0833848   -3.9629656    948.80321  0.069478852  0.070471474            5 
 1139000    1.0735115   -3.9226094    953.12156  0.069733799  0.070454815            2 
 1140000    1.0601418   -3.9487655    952.54025  0.069630135  0.070438875            2 
 1141000    1.0795776   -3.9152061    951.40951  0.069486526  0.070422079            4 
 1142000    1.0934058   -3.9197779    955.15621  0.069699081  0.070406225            2 
 1143000     1.067099   -3.9647728    951.89622  0.069400424  0.070390401            2 
 1144000     1.049284   -3.9627084    951.00876  0.069275114  0.070374473            1 
 1145000    1.0717807   -3.9627692    953.48423  0.069394777  0.070357848            3 
 1146000    1.0525574   -3.9587741    955.72406  0.069497095  0.070341682            2 
 1147000    1.0659735   -3.9105315    955.09081  0.069390497  0.070325796            2 
 1148000    1.0928272   -3.9451104    956.81035  0.069454874  0.070309499            2 
 1149000    1.0756635   -3.9579645    953.05235  0.069121871  0.070293247            3 
 1150000    1.0744904   -3.9586285    955.63179   0.06924868  0.070276675            3 
 1151000    1.0502987   -3.9463601    961.19878  0.069591571  0.070260521            2 
 1152000    1.0945784   -3.9486846    959.64328   0.06941864  0.070243835            2 
 1153000    1.0746743   -3.9353005    956.05559  0.069099132  0.070227533            3 
 1154000    1.0704626   -3.9969442    956.92489  0.069102028    0.0702109            2 
 1155000    1.0885136    -3.953408    963.11901  0.069489106  0.070194238            4 
 1156000    1.0487066   -3.9895576    962.50075  0.069384425  0.070177647            3 
 1157000    1.0725304   -3.9701734    964.68705  0.069481925  0.070161415            3 
 1158000    1.0755388   -3.9800637     961.9276  0.069223345  0.070144865            7 
 1159000    1.0860443   -3.9714568    965.68321  0.069433651  0.070128418            2 
 1160000    1.0375532   -3.9747299    968.10713  0.069547926  0.070112589            3 
 1161000    1.0597696   -3.9735045    966.93905  0.069404181  0.070096683            2 
 1162000    1.0835852   -3.9484228    970.87681  0.069626851  0.070081314            2 
 1163000     1.060534     -3.96596    965.55132  0.069185391  0.070065972            7 
 1164000    1.0655577   -3.9626185    965.58543  0.069128396  0.070049968            3 
 1165000    1.0840199   -3.9916706    969.23949  0.069330436  0.070033478            3 
 1166000    1.0638021   -3.9617124    968.36926  0.069208781  0.070018075            3 
 1167000    1.0277307   -3.9495844    971.78686  0.069393521  0.070002362            3 
 1168000    1.0661001   -3.9668068    973.06967  0.069425633  0.069986966            4 
 1169000    1.0480818   -3.9335407    973.89203  0.069424867  0.069972082            3 
 1170000    1.0565725   -3.9700165    971.35532  0.069184852  0.069956849            2 
 1171000     1.073956   -3.9639505    973.48775  0.069277523  0.069940993            4 
 1172000    1.0717519   -3.9425388    970.37272  0.068996922  0.069925585            5 
 1173000    1.0739157   -3.9295024    976.88428  0.069400702  0.069909706            2 
 1174000    1.0524355   -3.9611822    972.42769  0.069025248  0.069893479            3 
 1175000    1.0493572   -3.9311148    974.30018  0.069099303  0.069877567            4 
 1176000    1.0621807   -3.9664312    968.47996  0.068628115  0.069861524            3 
 1177000    1.0315384   -3.9422863    971.85584  0.068808825  0.069844968            2 
 1178000    1.0839431   -3.9524998    969.91075  0.068612815  0.069828028            3 
 1179000    1.0545504   -3.9461315    975.53331  0.068952029  0.069811208            3 
 1180000    1.0769685   -3.9757368    974.62175   0.06882922  0.069794927            2 
 1181000    1.0495082   -3.9758672    978.32223  0.069032051  0.069778696            2 
 1182000    1.0640874   -3.9360942     977.0148  0.068881472  0.069762142            3 
 1183000    1.0677527   -3.9440285    981.38143  0.069130842  0.069745656            2 
 1184000    1.0588506   -3.9546901    979.16245  0.068916276  0.069729368            2 
 1185000    1.0910122   -3.9374438    983.38003  0.069154714  0.069713204            2 
 1186000    1.0743256   -3.9773446    977.39063  0.068675565  0.069696425            1 
 1187000    1.0457415   -3.9858204    980.45736  0.068833007  0.069679666            2 
 1188000    1.0842345   -3.9583491    979.38071  0.068699545  0.069663091            3 
 1189000    1.0663752   -3.9735564    981.38406  0.068782174   0.06964657            2 
 1190000    1.0486436   -3.9778134    980.89651  0.068690232  0.069630352            3 
 1191000    1.0779884   -3.9908542    983.06495  0.068784281  0.069614407            4 
 1192000    1.0768586   -3.9488295    986.26745  0.068950465  0.069598364            1 
 1193000    1.0567513   -3.9724112    983.77328  0.068718446  0.069582261            2 
 1194000    1.0411337   -3.9747274    987.25085  0.068903605  0.069566427            2 
 1195000    1.0508981   -3.9809638    985.63067  0.068732962  0.069549941            2 
 1196000     1.044692   -3.9206704    991.53329  0.069086768  0.069534191            4 
 1197000    1.0625707   -3.9349004    992.50357    0.0690966   0.06951866            4 
 1198000    1.0493222   -3.9676438    989.37875   0.06882156  0.069502834            4 
 1199000    1.0585983   -3.9660504    991.71893  0.068926809  0.069486575            6 
 1200000    1.0559986   -3.9712484    990.79141  0.068804959  0.069470942            3 
 1201000    1.0402938   -3.9567433    994.96911  0.069037546  0.069454965            2 
 1202000    1.0678819   -3.9685642    991.01283  0.068705826   0.06943927            1 
 1203000    1.0518973   -3.9923745    991.32075  0.068670044  0.069423196            4 
 1204000    1.0526688   -3.9516857    995.34964  0.068891863  0.069407432            1 
 1205000    1.0683884   -3.9801507    988.56529  0.068365511  0.069391669            2 
 1206000       1.0431   -3.9522194    993.79174  0.068669966  0.069375069            2 
 1207000    1.0807781   -3.9964933    990.29169  0.068371423  0.069358771            2 
 1208000    1.0589468   -3.9663269    995.39487  0.068666865  0.069342842            1 
 1209000    1.0619484   -3.9751499     993.0396  0.068447726   0.06932657            1 
 1210000    1.0495017   -3.9991297    997.00814  0.068664473  0.069310806            3 
 1211000    1.0396995   -3.9525054    999.55123  0.068782771  0.069294641            4 
 1212000    1.0544136   -3.9541037    996.29024  0.068501804  0.069278433            6 
 1213000    1.0609391   -3.9536731    999.57305  0.068670861  0.069262337            2 
 1214000     1.056247   -3.9859636    998.52455  0.068542322  0.069246396            3 
 1215000    1.0512233    -3.950657    1001.2949  0.068675922  0.069230763            7 
 1216000    1.0765736   -3.9615561    1003.7452  0.068787364  0.069215242            2 
 1217000    1.0529611   -3.9764771    1004.4885  0.068781741   0.06919945            1 
 1218000    1.0451657   -3.9849704     1002.819  0.068611042   0.06918419            2 
 1219000    1.0613507   -3.9895284    1003.9725  0.068633614  0.069169333            3 
 1220000    1.0675142   -3.9651721    1005.8145  0.068703176  0.069154387            3 
 1221000    1.0980602   -3.9717185    1004.5029  0.068557395  0.069139579            4 
 1222000    1.0770337   -3.9343284    1009.5075  0.068842576   0.06912479            3 
 1223000    1.0501001   -3.9694207    1002.9237  0.068337672  0.069109717            3 
 1224000    1.0549869   -3.9469814    1009.0809  0.068701039  0.069094732            3 
 1225000    1.0483669   -4.0008575    1004.4086  0.068327113  0.069080009            2 
 1226000    1.0432324   -3.9908782    1009.6389  0.068626895  0.069065465            2 
 1227000    1.0529759   -3.9607558    1013.7009  0.068846841  0.069051343            6 
 1228000    1.0633247   -3.9552206    1011.2815  0.068626595  0.069036888            2 
 1229000    1.0556867   -3.9734533    1010.1277  0.068492518   0.06902243            3 
 1230000    1.0589396   -3.9817339    1015.2914  0.068786681  0.069007551            2 
 1231000    1.0472116   -3.9875897       1011.1  0.068447062  0.068992686            4 
 1232000    1.0572734   -3.9509583    1007.8789  0.068173624  0.068977823            4 
 1233000    1.0660754    -3.955444    1014.7486  0.068582628  0.068962805            1 
 1234000    1.0875489   -3.9850818    1012.0836  0.068347086  0.068947986            4 
 1235000    1.0553901   -4.0184624    1008.2855   0.06803546  0.068932816            2 
 1236000    1.0679919   -3.9940351    1011.3063  0.068184084  0.068917182            1 
 1237000    1.0343067   -3.9925785    1011.0014  0.068108421   0.06890136            2 
 1238000    1.0655661   -3.9913535    1013.8531  0.068245363  0.068886142            2 
 1239000    1.0628547   -3.9557875    1017.8767  0.068460904  0.068870911            2 
 1240000    1.0539951   -3.9795724    1015.3971  0.068239051  0.068855172            1 
 1241000    1.0594352    -3.970164    1017.5463  0.068328385  0.068839824            3 
 1242000    1.0625958   -3.9945631    1013.8958  0.068028437  0.068824149            2 
 1243000    1.0526566    -3.994119    1015.0668  0.068052213  0.068808915            2 
 1244000    1.0537166   -3.9384787    1017.0238  0.068128606  0.068793035            5 
 1245000    1.0516434   -3.9873528    1013.3561  0.067828387  0.068777283            2 
 1246000    1.0390359   -3.9714893    1018.2519  0.068101382  0.068761684            3 
 1247000     1.066579   -3.9882658     1016.032  0.067898425  0.068746572            2 
 1248000    1.0783431   -3.9593139    1018.3782  0.068000681  0.068730742            3 
 1249000    1.0558732   -3.9872808    1021.1445  0.068130804  0.068715495            3 
 1250000     1.044727   -3.9779217    1017.8182  0.067854546  0.068699755            2 
 1251000    1.0506176   -3.9827076    1022.5263  0.068113931  0.068684658            4 
 1252000    1.0492765   -3.9661579    1021.7242  0.068006134  0.068669505           10 
 1253000    1.0211148   -3.9595045    1027.0132  0.068303618   0.06865422            2 
 1254000    1.0671088   -3.9919243     1022.959  0.067979733  0.068639274            3 
 1255000    1.0465971   -3.9708182    1028.8048  0.068313734  0.068624131            2 
 1256000    1.0504504    -3.984886    1026.4694  0.068104395   0.06860941            1 
 1257000    1.0250945   -3.9837932    1027.8488  0.068141659  0.068594802            4 
 1258000    1.0331552   -3.9874909    1027.7128  0.068078486  0.068579606            2 
 1259000     1.032141   -3.9564527    1031.1848  0.068254221  0.068564719            2 
 1260000    1.0095666   -3.9746905    1027.8415  0.067978936  0.068549244            1 
 1261000    1.0502068   -3.9842637    1026.5149  0.067837361  0.068533984            3 
 1262000    1.0436891   -4.0169601    1026.1533  0.067759727  0.068518787            2 
 1263000    1.0671738   -4.0019919    1026.3912  0.067721775  0.068503665            2 
 1264000    1.0275908   -3.9709698    1033.5101  0.068137532  0.068487967            2 
 1265000    1.0459957   -3.9775282     1031.256  0.067935177  0.068472407            2 
 1266000    1.0713443   -3.9985291    1032.7395  0.067979169  0.068457155            3 
 1267000    1.0355971   -4.0136722    1028.9049  0.067673303  0.068441827            2 
 1268000    1.0467415   -3.9704548    1037.4771  0.068183303   0.06842673            3 
 1269000    1.0408902   -3.9640333    1036.2479  0.068048853    0.0684119            3 
 1270000    1.0615945   -3.9626582    1037.8715  0.068101807  0.068397408            3 
 1271000    1.0289426   -3.9931014    1037.0095  0.067991704  0.068382737            3 
 1272000    1.0591735   -3.9639445    1035.4661  0.067837143  0.068367768            3 
 1273000    1.0315933   -4.0039221    1036.5044   0.06785182  0.068352724            2 
 1274000     1.053835   -3.9751086    1039.9299  0.068022628  0.068338306            5 
 1275000    1.0532527   -3.9962677     1037.559  0.067814315  0.068324063            2 
 1276000    1.0642846   -3.9889165    1044.6468   0.06822406  0.068309844            1 
 1277000    1.0550725    -3.997157    1037.2627  0.067688769  0.068295662            1 
 1278000    1.0475473   -3.9861913    1040.7471   0.06786301  0.068280735            2 
 1279000    1.0762562    -3.965597    1041.2583  0.067843256  0.068266294            2 
 1280000    1.0488002   -3.9566508    1044.9132    0.0680282  0.068251531            2 
 1281000    1.0637103   -4.0050511    1042.6542  0.067828142  0.068237215            2 
 1282000    1.0451479   -3.9945887    1040.1546  0.067612753  0.068222589            3 
 1283000    1.0405589   -4.0197785    1041.1524  0.067624865  0.068208101            1 
 1284000    1.0616468   -3.9992695    1044.8014  0.067809023  0.068193793            3 
 1285000    1.0695064   -4.0090113     1044.542  0.067739426  0.068179163            3 
 1286000    1.0499913   -4.0165956    1044.5774  0.067689047  0.068165049            2 
 1287000    1.0545379   -3.9703668    1048.3461  0.067880479  0.068150074            3 
 1288000    1.0479793    -3.990449    1048.1481  0.067814963  0.068135701            3 
 1289000    1.0409507   -3.9908638    1044.8187  0.067547109  0.068120809            5 
 1290000     1.083985   -4.0032364    1046.2135  0.067584851  0.068106369            3 
 1291000    1.0454655   -4.0298571    1042.4808  0.067291555  0.068091395            4 
 1292000    1.0121791     -3.99375    1046.6916  0.067511067  0.068076101            2 
 1293000    1.0341765   -3.9773186    1048.5603  0.067579294   0.06806137            2 
 1294000     1.014684   -3.9893738    1048.1796  0.067502549  0.068046853            2 
 1295000    1.0527075   -3.9942494    1050.6164  0.067607235  0.068031806            5 
 1296000    1.0427251   -4.0147703    1047.4521    0.0673516  0.068016855            4 
 1297000     1.066616   -3.9554164     1051.694  0.067572219  0.068002124            2 
 1298000    1.0500148   -4.0024698    1053.8807   0.06766055  0.067987469            3 
 1299000    1.0604994   -3.9728134     1053.266  0.067569028  0.067972795            2 
 1300000    1.0371574    -3.982688    1053.5923  0.067537968  0.067958098            2 
 1301000    1.0253701   -4.0121082    1054.2673  0.067529292   0.06794325            2 
 1302000    1.0401974   -3.9679867     1051.351   0.06729077  0.067927989            2 
 1303000    1.0393073   -3.9971469    1053.9763  0.067407027  0.067913147            2 
 1304000    1.0605123   -4.0209394    1054.7582  0.067405303  0.067898064            4 
 1305000    1.0278114   -3.9745298    1055.5703  0.067405513  0.067883182            4 
 1306000    1.0534542   -3.9625852    1059.5117  0.067605393  0.067868759            2 
 1307000    1.0613885   -3.9885251    1055.1242  0.067273923  0.067853712            2 
 1308000    1.0736179   -3.9982196    1058.9752  0.067467837  0.067839155            2 
 1309000    1.0465189   -3.9911128    1057.3008  0.067309704   0.06782403            2 
 1310000    1.0479672   -3.9897087    1058.2868   0.06732104  0.067809121            2 
 1311000    1.0583954   -3.9678895    1061.4519  0.067470878  0.067794488            3 
 1312000    1.0563378   -3.9871962    1060.7578  0.067375369  0.067779471            2 
 1313000    1.0281815   -3.9782981    1060.7722   0.06732497  0.067764481            5 
 1314000    1.0543693    -3.978031    1058.4182  0.067124443  0.067749337            3 
 1315000    1.0373692   -4.0081192    1059.9865   0.06717278  0.067734093            4 
 1316000    1.0396064    -3.971285    1057.9542  0.066993047  0.067718481            1 
 1317000    1.0275384   -3.9964408    1062.4076  0.067223967  0.067703175            4 
 1318000    1.0353973   -3.9861998    1063.5144  0.067242945  0.067688114            2 
 1319000    1.0366347   -3.9846366    1067.4119  0.067438206  0.067673371            2 
 1320000    1.0594145   -4.0237877    1067.5762  0.067397485   0.06765843            3 
 1321000    1.0407331   -4.0202118      1064.28  0.067138534   0.06764327            5 
 1322000    1.0311364   -3.9997734    1069.8002  0.067435718  0.067628219            5 
 1323000    1.0412397   -3.9861759    1066.3768  0.067169111  0.067613487            3 
 1324000    1.0300308   -3.9892983    1066.8742  0.067149684   0.06759878            3 
 1325000    1.0322647   -4.0036012    1068.7105  0.067214494  0.067583702            5 
 1326000    1.0464572   -4.0146653    1066.0917   0.06699923  0.067568883            7 
 1327000    1.0336288   -4.0023955    1066.9251  0.067001073  0.067553807            2 
 1328000    1.0586082   -4.0060654    1069.3036  0.067099871  0.067539207            1 
 1329000    1.0241412   -3.9889896     1070.677  0.067135504  0.067524554            4 
 1330000    1.0091322   -3.9945479    1069.8771  0.067034905    0.0675103            3 
 1331000    1.0329387   -4.0098033    1076.0721  0.067372406  0.067495812            3 
 1332000    1.0320135   -3.9950032    1077.1688  0.067390441  0.067481481            2 
 1333000    1.0199661   -4.0156402    1072.7578   0.06706413  0.067467277            2 
 1334000    1.0395741   -4.0315265    1077.8884   0.06733436  0.067453618            3 
 1335000    1.0551756   -3.9996632      1074.84  0.067093632  0.067439935            3 
 1336000    1.0333507   -3.9941167    1073.8662  0.066982672  0.067425786            2 
 1337000    1.0303354   -4.0355664    1075.4721  0.067032663   0.06741214            6 
 1338000    1.0199611   -4.0228841    1081.4343  0.067353903  0.067398101            3 
 1339000    1.0286029   -4.0073781    1078.1856  0.067101419  0.067384456            5 
 1340000    1.0410308   -4.0321383    1077.6761  0.067019655   0.06737142            2 
 1341000    1.0298255   -4.0018952    1080.2978  0.067132597  0.067358056            2 
 1342000     1.037529    -3.979137    1083.9364  0.067308517  0.067344719            1 
 1343000    1.0180361    -4.027894    1081.5292  0.067109034  0.067331524            3 
 1344000    1.0322344     -3.98586    1086.6336  0.067375594  0.067318589            2 
 1345000    1.0400311   -4.0092258    1085.8668  0.067277991  0.067305863            8 
 1346000    1.0443958   -4.0365251    1082.4377  0.067015705  0.067293143            2 
 1347000    1.0386678   -4.0018031    1091.5533  0.067529897  0.067280282            4 
 1348000    1.0245008   -4.0106874    1092.9895  0.067568592  0.067267915            5 
 1349000    1.0198833   -4.0040652    1092.7194  0.067501814  0.067255407            5 
 1350000    1.0315069   -4.0103727    1091.1866    0.0673572  0.067243599            2 
 1351000    1.0216106   -4.0180107    1092.5033  0.067388561  0.067231512            1 
 1352000    1.0447713   -3.9884516    1094.8988  0.067486364  0.067219496            2 
 1353000    1.0343745   -4.0082461    1089.5236  0.067105421  0.067207204            3 
 1354000    1.0593559    -4.012724    1091.3654  0.067169216  0.067195131            6 
 1355000    1.0198308   -4.0072242    1095.9235  0.067399968  0.067182914            2 
 1356000    1.0454128   -4.0119952    1094.3601  0.067254188  0.067170799            2 
 1357000    1.0332087   -4.0537341    1093.4351  0.067147819  0.067158781            4 
 1358000    1.0419994   -4.0173253    1098.4496  0.067406088  0.067146868            6 
 1359000     1.047653   -4.0187846     1100.236  0.067466026  0.067135541            2 
 1360000    1.0564384   -4.0248486    1101.2437  0.067478168  0.067123774            4 
 1361000    1.0255013   -4.0057993    1102.8705  0.067528199  0.067112412            3 
 1362000    1.0155633   -3.9952402    1105.6262  0.067647221  0.067101258            1 
 1363000    1.0495667   -4.0071832     1103.382  0.067460382  0.067089981            8 
 1364000    1.0157468   -4.0108062    1103.5311  0.067420031   0.06707877            4 
 1365000    1.0403989   -4.0276607    1101.1988  0.067228252  0.067067329            2 
 1366000     1.020793   -3.9834856    1108.9581    0.0676524  0.067056369            3 
 1367000    1.0576633   -3.9864404    1109.4802  0.067634737  0.067045353            3 
 1368000     1.024002   -4.0151628      1105.43  0.067338571  0.067034657            3 
 1369000    1.0297836   -4.0034425    1104.9025  0.067257277  0.067023815            1 
 1370000    1.0356784   -3.9923239     1108.117  0.067403712  0.067012577            2 
 1371000    1.0359843   -4.0429517    1107.0492   0.06728964  0.067001107            4 
 1372000    1.0513498   -3.9979296    1110.0356   0.06742199  0.066989597            2 
 1373000    1.0261651   -4.0154019    1110.6543  0.067410434  0.066978207            2 
 1374000    1.0209725   -4.0347909    1111.4748  0.067411137  0.066966994            2 
 1375000     1.046194   -4.0046874    1111.0168  0.067334351  0.066955909            3 
 1376000    1.0399225   -4.0221335    1111.0005   0.06728443  0.066943956            3 
 1377000    0.9945126     -4.01528    1114.8355  0.067467652  0.066932658            1 
 1378000    1.0530258   -4.0212976    1111.5533  0.067220204  0.066920977            6 
 1379000    1.0356511   -3.9797132    1110.7579  0.067123393   0.06690931            4 
 1380000    1.0116767   -4.0426225    1111.7292  0.067133404  0.066897962            6 
 1381000    1.0491471   -3.9899772    1117.7505  0.067448132  0.066886294            2 
 1382000    1.0337666   -4.0065479    1111.7681  0.067038596  0.066874948            2 
 1383000    1.0299994   -4.0167851    1114.9356  0.067180983  0.066863213            4 
 1384000    1.0287614   -3.9878897    1118.0399  0.067319357  0.066851437            1 
 1385000     1.066301   -4.0200217    1114.3831  0.067050729  0.066840031            3 
 1386000    1.0129615   -4.0167297    1117.3791  0.067182483  0.066828795            2 
 1387000     1.043137   -4.0325372    1113.0106  0.066871582  0.066817288            2 
 1388000    1.0395483   -3.9977825    1118.2861  0.067140135  0.066806091            2 
 1389000    1.0406105   -4.0166496    1117.5661  0.067048602  0.066794634            3 
 1390000    1.0217263   -3.9903601    1121.5707  0.067240452   0.06678377            2 
 1391000    1.0378051   -3.9895406     1120.115  0.067104901  0.066772784            3 
 1392000    1.0385663    -4.024708    1120.2225  0.067063131  0.066761271            3 
 1393000    1.0321668   -3.9924994    1121.0304  0.067063318  0.066749541            3 
 1394000    1.0485293   -4.0284949    1120.3493   0.06697449  0.066738074            2 
 1395000    1.0584671   -4.0245122    1121.0218  0.066966656  0.066726595            2 
 1396000    1.0374173   -4.0274869    1121.6507  0.066956226  0.066715376            1 
 1397000    1.0257908   -4.0381036    1124.6072  0.067084658  0.066703839            2 
 1398000    1.0401431   -3.9820791    1125.3143   0.06707882  0.066692576            3 
 1399000    1.0429404   -3.9889237    1126.2295  0.067085387  0.066681516            2 
 1400000    1.0321476   -4.0053282     1126.793   0.06707101  0.066670432            2 
 1401000    1.0327858   -4.0055098    1127.3718  0.067057567  0.066659048            1 
 1402000    1.0089363   -4.0066968    1122.6455  0.066728807  0.066647748            3 
 1403000     1.017971   -4.0229579    1126.9623  0.066937651  0.066636087            2 
 1404000    1.0317388   -4.0128584    1125.8269  0.066822581  0.066624507            4 
 1405000    1.0228296   -4.0145048    1129.1865  0.066974287  0.066613159            3 
 1406000    1.0521438   -4.0166748    1135.6141  0.067307615  0.066601983            2 
 1407000     1.025287   -4.0002705    1127.9515  0.066805941  0.066590438            4 
 1408000      1.02935   -4.0270578    1130.2424  0.066894083  0.066578578            4 
 1409000    1.0416073    -4.039312    1128.4648  0.066741474  0.066566903            3 
 1410000    1.0256466   -4.0400902    1130.7115   0.06682692  0.066554924            3 
 1411000    1.0239856   -4.0496618    1131.3309  0.066816143  0.066543035            7 
 1412000    1.0386928   -4.0277483    1128.8335  0.066621428   0.06653115            2 
 1413000    1.0480019   -4.0292651    1128.8247  0.066573762  0.066519448            5 
 1414000    1.0242868   -4.0284453    1133.8276  0.066821522  0.066507748            2 
 1415000    1.0306522   -4.0368359    1132.6928  0.066707469  0.066495893            2 
 1416000    1.0337186   -4.0149028    1129.1147  0.066449785  0.066484164            2 
 1417000     1.033898   -4.0151487    1130.0616  0.066458573  0.066472331            2 
 1418000    1.0254693   -4.0054021    1131.5823  0.066501074  0.066460273            3 
 1419000    1.0316467    -4.036536    1137.4392  0.066798167  0.066448209            2 
 1420000    1.0360961   -4.0096692    1140.1523  0.066910348  0.066436078            5 
 1421000    1.0340386   -4.0218126    1140.7418  0.066897827  0.066424415            4 
 1422000     1.027108   -4.0376846    1135.4636   0.06654147  0.066412773            3 
 1423000    1.0307443   -4.0027559    1137.7105  0.066626289  0.066400701            3 
 1424000    1.0326563   -4.0430007    1136.7368  0.066522516  0.066388846            1 
 1425000    1.0075615   -4.0225035    1143.5463  0.066874051  0.066377344            4 
 1426000    1.0202331   -4.0117397    1139.1214   0.06656857   0.06636587            4 
 1427000    1.0224702   -4.0172409    1137.3472  0.066418316  0.066353992            3 
 1428000    1.0136273   -4.0090173    1140.6796  0.066566268  0.066341914            3 
 1429000    1.0206666   -3.9937488     1144.056  0.066716583  0.066330266            3 
 1430000    1.0374982   -4.0381864    1139.9899   0.06643298  0.066318428            3 
 1431000    1.0353051   -4.0351316    1140.0921  0.066392505  0.066306971            2 
 1432000    1.0302657   -4.0247495    1144.9816  0.066630677  0.066295033            2 
 1433000    1.0095648   -4.0298912    1147.3503  0.066721931  0.066283625            3 
 1434000    1.0108422   -4.0343311    1140.2213  0.066261118  0.066271722            3 
 1435000    1.0588134   -4.0183499    1148.1398  0.066674782  0.066260561            4 
 1436000    1.0232313   -4.0242788    1144.0607  0.066391637  0.066248991            3 
 1437000    1.0181155   -4.0321798    1143.9997  0.066341896     0.066238            3 
 1438000    1.0104704   -4.0355131    1146.8108  0.066458671  0.066226511            3 
 1439000    1.0220182    -4.040021    1150.3329  0.066616454    0.0662151            4 
 1440000    1.0340925   -4.0247166    1151.4441  0.066634498   0.06620363            5 
 1441000    1.0464012   -3.9844636    1152.8577  0.066670004  0.066192213            4 
 1442000    1.0250066   -4.0070319    1150.0741  0.066462906  0.066181187            3 
 1443000    1.0150908   -4.0141867    1151.1885  0.066481201  0.066169842            2 
 1444000     1.030692   -4.0258309    1152.4722  0.066509244    0.0661581            2 
 1445000    1.0044679   -4.0108033    1153.5362   0.06652458  0.066146654            2 
 1446000    1.0022166   -4.0252703    1152.7299  0.066432106  0.066134967            5 
 1447000    1.0270241   -4.0183922    1154.1278  0.066466699  0.066123279            5 
 1448000    1.0297701   -4.0597595    1148.2399  0.066081949  0.066111839            3 
 1449000     1.003592   -4.0404082    1150.8615  0.066187113  0.066099917            8 
 1450000    1.0226376   -4.0458675    1151.0657    0.0661532  0.066087663            2 
 1451000    1.0022308   -4.0184592    1154.7385  0.066318545  0.066075767            3 
 1452000   0.99634114   -4.0332287    1151.1918  0.066069321  0.066063931            1 
 1453000      1.02275   -4.0203369    1155.6435  0.066279164  0.066052221            3 
 1454000    1.0239087   -4.0246146    1156.6518  0.066291368  0.066040403            3 
 1455000    1.0205529   -4.0203957    1156.3202  0.066226815  0.066028748            2 
 1456000    1.0176599   -4.0446316    1159.5749   0.06636761  0.066016895            6 
 1457000    1.0193298   -4.0033016    1160.0164   0.06634731  0.066005331            6 
 1458000    1.0170381   -4.0137761    1158.9128  0.066238726  0.065993472            2 
 1459000    1.0130997   -4.0131255    1161.2833  0.066328723  0.065981826            2 
 1460000    1.0235688   -4.0305529    1164.7717  0.066482404  0.065970003            2 
 1461000    1.0114165    -4.036243    1161.6135  0.066256759  0.065958093            4 
 1462000    1.0304475   -4.0740759    1156.6228  0.065926973  0.065946743            3 
 1463000    1.0065186   -4.0343956    1160.6517  0.066111401  0.065935125            2 
 1464000    1.0247126   -4.0272129     1161.962  0.066140825  0.065923421            1 
 1465000    1.0164671   -4.0621302    1161.5043   0.06606964  0.065912092            4 
 1466000   0.99065354    -4.005535     1164.489  0.066194237  0.065900262            3 
 1467000    1.0200312   -4.0590164    1160.8912  0.065944738  0.065888377            4 
 1468000    1.0251166   -4.0013342    1164.6815   0.06611498  0.065875984            3 
 1469000   0.99454534   -4.0585573    1169.3586  0.066335298  0.065864224            2 
 1470000    1.0298934    -4.070254     1162.423  0.065896998  0.065852082            2 
 1471000    1.0192206   -4.0572719    1164.2346  0.065954824  0.065840215            4 
 1472000    1.0228561    -4.019435    1170.5431  0.066267157  0.065828281            2 
 1473000    1.0056695   -4.0386544    1166.6449  0.066001636  0.065816537            3 
 1474000    1.0223665   -3.9965074    1173.4624   0.06634229  0.065805093            3 
 1475000   0.99242403    -4.031976    1167.2104  0.065944093  0.065793355            3 
 1476000    1.0189772   -4.0536249     1164.862  0.065766822  0.065781478            2 
 1477000    1.0151803   -4.0398219    1166.7475  0.065828677  0.065769644            3 
 1478000    1.0302109   -4.0468025    1174.3953  0.066215343  0.065757806            3 
 1479000   0.99644681   -4.0223875    1170.8213  0.065969197  0.065746142            1 
 1480000    1.0410081    -4.033838    1178.0891  0.066333846  0.065734919            2 
 1481000   0.99647579   -4.0525057    1170.2441  0.065847632   0.06572373            6 
 1482000    1.0298639   -4.0352409    1172.6301  0.065937364  0.065712515            2 
 1483000    1.0104576   -4.0111482    1174.7118  0.066009878   0.06570111            4 
 1484000     1.021412   -4.0346856    1173.5645  0.065900973  0.065689891            4 
 1485000     1.038456   -4.0517594    1175.7835  0.065981118  0.065678916            3 
 1486000    1.0096292   -4.0306168    1180.8042  0.066218272  0.065667303            2 
 1487000    1.0196402   -4.0525648    1177.3239  0.065978701  0.065656178            2 
 1488000    1.0065814   -4.0440018    1180.8752  0.066133241  0.065645177            3 
 1489000   0.99250097    -4.042575    1179.2548   0.06599814  0.065634093            3 
 1490000    1.0079988   -4.0127069    1182.4883  0.066134691  0.065623228            2 
 1491000   0.99764094   -4.0471375    1180.2892  0.065967425  0.065612286            3 
 1492000   0.99995785   -4.0848287    1178.0581  0.065798599  0.065601034            4 
 1493000    1.0231815   -4.0331295    1182.6066  0.066008408      0.06559            3 
 1494000    1.0184628   -4.0658587    1179.2847  0.065778933  0.065579026            1 
 1495000    1.0360512   -4.0583229    1178.1076   0.06566932  0.065568026            3 
 1496000    1.0053773   -4.0263807    1183.6655  0.065935019   0.06555662            1 
 1497000    1.0219802   -4.0384687     1184.013  0.065910321  0.065545723            2 
 1498000     1.036842   -4.0500389     1186.068  0.065980642  0.065534784            2 
 1499000    1.0150453   -4.0265458    1186.7348  0.065973692  0.065523832            2 
 1500000    1.0198504   -4.0696165    1184.4273  0.065801515  0.065512712            2 
 1501000     1.005718   -4.0237163    1192.0535  0.066181073   0.06550183            2 
 1502000    1.0044224   -4.0308973    1184.0968  0.065695561  0.065490654            2 
 1503000    1.0158657   -4.0375953    1187.1716  0.065822335  0.065479631            3 
 1504000    1.0197378   -4.0616585    1190.5012  0.065963053  0.065468628            4 
 1505000   0.99832517   -4.0541743    1188.5514  0.065811262  0.065457465            2 
 1506000   0.99037273   -4.0519987     1187.658  0.065718126  0.065446135            2 
 1507000    1.0019029    -4.029511    1194.9834  0.066079597  0.065434489            4 
 1508000   0.99363064    -4.049902    1194.7949  0.066025361  0.065423024            3 
 1509000   0.99640403   -4.0450945    1188.9814  0.065660561  0.065411622            4 
 1510000    1.0079542   -4.0494437    1188.8182  0.065608067  0.065400275            3 
 1511000    1.0046212   -4.0478909    1189.9425  0.065626652  0.065389286            1 
 1512000    1.0020941   -4.0480663    1193.0248  0.065753133  0.065378219            3 
 1513000   0.99787241   -4.0193654    1196.0973  0.065878901  0.065367271            3 
 1514000     1.004585   -4.0756868    1184.8661  0.065217199  0.065356203            3 
 1515000    1.0180237   -4.0345405    1190.5957  0.065489312  0.065344945            2 
 1516000   0.99384487    -4.030649    1192.6349  0.065558208  0.065333606            2 
 1517000    0.9948505   -4.0626161    1195.9019  0.065694458  0.065322709            1 
 1518000   0.99988664   -4.0386402    1195.8041  0.065645814  0.065311485            3 
 1519000    1.0038182    -4.068186    1193.6381  0.065483768  0.065300434            2 
 1520000    0.9830558   -4.0436994    1195.6538  0.065551196  0.065289183            1 
 1521000    0.9876412   -4.0626911     1200.076  0.065750383    0.0652778            2 
 1522000    1.0012059    -4.053416    1206.9092   0.06608132  0.065266976            3 
 1523000    0.9970644   -4.0295948    1202.4441  0.065793614   0.06525626            1 
 1524000    1.0146702   -4.0400067    1198.7942  0.065550866  0.065245192            2 
 1525000    1.0026042   -4.0163193    1199.1838  0.065529171   0.06523419            2 
 1526000    1.0408603   -4.0615175    1199.2056  0.065487417  0.065223083            2 
 1527000    1.0112942   -4.0415281     1199.594   0.06546573  0.065211839            4 
 1528000   0.99404537   -4.0120951    1204.7154  0.065702194  0.065200912            2 
 1529000    1.0202854   -4.0251333    1204.4126  0.065642721  0.065189919            1 
 1530000    0.9989998   -4.0479172    1208.0374  0.065797242  0.065178931            3 
 1531000   0.99329096   -4.0483077    1199.0763  0.065266511  0.065167718            4 
 1532000    1.0097665   -4.0896323    1199.3586  0.065239261  0.065156254            2 
 1533000   0.99960161   -4.0435837    1200.6668  0.065267818  0.065144907            3 
 1534000    1.0183523   -4.0638288    1204.9929  0.065460282  0.065133582            2 
 1535000    1.0027401   -4.0475467    1207.2633  0.065540897  0.065122494            2 
 1536000    1.0048252    -4.051771    1208.4103  0.065560452  0.065111147            3 
 1537000     1.013515   -4.0493665    1210.5648  0.065634614  0.065100208            4 
 1538000    0.9917906    -4.063712    1208.0022  0.065453086  0.065089085            3 
 1539000    1.0210072   -4.0741477    1198.7763  0.064910998  0.065077837            4 
 1540000    1.0165139   -4.0348178     1212.462  0.065609415  0.065066023            3 
 1541000     1.013234   -4.0343435    1211.4898  0.065514266  0.065054946            2 
 1542000    1.0020756   -4.0390532    1213.5459  0.065582895  0.065043705            3 
 1543000     1.022082   -4.0844297    1207.6028  0.065219423  0.065032412            4 
 1544000   0.96618547   -4.0589347    1207.8021  0.065187936  0.065021032            5 
 1545000    0.9942793   -4.0814879    1209.8353  0.065255412  0.065009639            4 
 1546000    1.0125511   -4.0723641    1214.0756  0.065441764  0.064998604            2 
 1547000   0.98891893   -4.0552605    1213.9548  0.065392954  0.064987318            2 
 1548000     1.006638   -4.0634107    1214.2769  0.065368052  0.064976089            4 
 1549000    1.0057349   -4.0617421    1214.6046  0.065343478  0.064964934            3 
 1550000   0.99845452   -4.0527701     1213.304    0.0652314  0.064953424            5 
 1551000   0.98834994   -4.0657668    1213.0739  0.065176978  0.064941282            2 
 1552000   0.99916043   -4.0818916    1214.1493  0.065192725   0.06492971            4 
 1553000    1.0298651   -4.0392667    1221.9926  0.065571613  0.064917872            3 
 1554000     1.021263   -4.0728647    1213.2129  0.065058604  0.064906333            5 
 1555000    1.0094622   -4.0408745    1216.4966  0.065192744  0.064894622            7 
 1556000   0.98796713   -4.0334313    1218.1522  0.065239515  0.064883196            3 
 1557000   0.99942416   -4.0882505    1213.9363  0.064971969  0.064871591            5 
 1558000    1.0171331   -4.0477183    1211.4157  0.064795447  0.064859933            2 
 1559000   0.98773056   -4.0438079    1221.0477  0.065268744  0.064847976            2 
 1560000    1.0097384   -4.1038382    1216.8633  0.065003381  0.064836484            2 
 1561000   0.97545529   -4.0493844     1220.619  0.065162236  0.064824958            2 
 1562000   0.99567533   -4.0507518    1218.4576  0.065005208  0.064813135            4 
 1563000    1.0194308   -4.0648657    1219.9011  0.065040577  0.064802039            3 
 1564000    1.0068535   -4.0539855    1222.0322  0.065112545  0.064790614            2 
 1565000   0.99553351   -4.0534302    1220.7153  0.065000813  0.064779513            2 
 1566000   0.98970764   -4.0679171     1225.105  0.065192902  0.064768203            2 
 1567000   0.97010269   -4.0375764    1225.9717  0.065197387   0.06475701            2 
 1568000    1.0141864   -4.0353907    1225.9177  0.065152936  0.064745962            2 
 1569000   0.99167834   -4.0557009    1229.7357  0.065314195  0.064734761            2 
 1570000    1.0004953   -4.0473019    1226.2566  0.065087928  0.064723813            2 
 1571000   0.99652249   -4.0630569    1222.5549  0.064850142  0.064712711            6 
 1572000    1.0284833   -4.0422611    1231.0612  0.065259818  0.064701421            2 
 1573000   0.98359897   -4.0514095    1224.5543  0.064873614  0.064690071            2 
 1574000   0.99220387   -4.0396717    1224.8395  0.064847497  0.064678495            1 
 1575000    1.0072008   -4.0688822    1227.4959  0.064946871  0.064667276            3 
 1576000    1.0030161   -4.0851385    1224.0507  0.064723494  0.064656178            2 
 1577000     1.001603   -4.0539074    1224.3916  0.064700464  0.064645203            2 
 1578000    1.0036982   -4.0754483    1231.2786  0.065023163   0.06463434            1 
 1579000   0.99851999   -4.0671419    1230.1703   0.06492349  0.064623149            7 
 1580000    1.0244716    -4.061674    1230.8591   0.06491873   0.06461243            3 
 1581000     1.017237   -4.0790213    1233.7421  0.065029628   0.06460163            2 
 1582000    1.0019734   -4.1067872    1235.1094  0.065060548  0.064590568            3 
 1583000   0.99244055   -4.0664496    1237.7767  0.065159858  0.064579846            4 
 1584000    1.0085153   -4.0769606    1233.2368  0.064879881  0.064568943            4 
 1585000   0.98210664   -4.0427677    1237.9314  0.065085775  0.064558218            8 
 1586000   0.98979301   -4.0721126     1234.425  0.064860496  0.064547264            3 
 1587000   0.99619775   -4.0759025    1237.0953  0.064959847  0.064536131            3 
 1588000    1.0026863   -4.0713855    1238.5245  0.064993937  0.064525238            1 
 1589000    1.0060708   -4.0998419    1235.0125  0.064768855   0.06451424            8 
 1590000   0.99015553   -4.0601409    1235.8957  0.064774408  0.064503403            2 
 1591000   0.99688578   -4.0544997    1243.3713  0.065125253  0.064492502            3 
 1592000   0.98473207   -4.0695951    1243.8918  0.065111591  0.064481599            3 
 1593000    1.0124589   -4.0638308    1240.4458  0.064890449  0.064470755            2 
 1594000    1.0056623     -4.06023    1241.7064  0.064915642  0.064459747            2 
 1595000   0.99287266   -4.0210906    1242.1845  0.064899922  0.064448689            1 
 1596000    1.0163989   -4.0701747    1242.7766  0.064890172  0.064437833            3 
 1597000   0.99973166   -4.0776472    1243.4053  0.064882347  0.064426766            3 
 1598000   0.98006329   -4.0456574    1240.1498  0.064671973  0.064415951            4 
 1599000   0.98531991   -4.0674243    1249.2602  0.065106328  0.064405218            1 
 1600000     1.011137   -4.0703536    1244.9238  0.064839781  0.064394375            4 
 1601000    1.0084302   -4.0655524    1246.8099  0.064897456  0.064383784            3 
 1602000   0.98863882   -4.0543457    1246.2015  0.064825295  0.064373189            4 
 1603000    1.0045725    -4.044554    1246.4534  0.064797951  0.064362566            4 
 1604000    0.9898673   -4.0624412    1246.0137  0.064734712  0.064351591            5 
 1605000    1.0079363   -4.0740945    1245.6059  0.064673206  0.064340708            2 
 1606000   0.97738969   -4.0736925    1246.8828  0.064699192  0.064329746            4 
 1607000   0.99223993    -4.071657     1247.871  0.064710175  0.064318905            2 
 1608000   0.99676749   -4.0734054    1251.4406  0.064854921  0.064308347            3 
 1609000   0.98499816   -4.0853615    1251.4967  0.064817522  0.064297703            2 
 1610000   0.99567894   -4.0591164    1251.2999  0.064767077  0.064287059            3 
 1611000   0.99371825    -4.063337    1261.1277  0.065235242  0.064276227            4 
 1612000    0.9883243   -4.0971392     1253.083    0.0647789  0.064265626            4 
 1613000   0.98582211   -4.0752827     1251.174  0.064640113  0.064254643            2 
 1614000    1.0132952   -4.0739699    1249.5911  0.064518332  0.064243809            3 
 1615000   0.99445651   -4.0490266    1260.1667  0.065024083   0.06423299            3 
 1616000    1.0098113   -4.0936641    1252.1484  0.064570358  0.064222113            6 
 1617000   0.97556882   -4.0929287    1256.8829  0.064774422  0.064210966            2 
 1618000   0.97465503   -4.0816038    1254.0823  0.064590149  0.064200459            3 
 1619000   0.98652809   -4.0529987    1255.7345  0.064635296  0.064189531            3 
 1620000    1.0067221   -4.0905917    1256.9094  0.064655832  0.064178768            4 
 1621000    1.0001077   -4.1028581    1254.2789  0.064480717  0.064167759            4 
 1622000    0.9975484   -4.0649822     1255.569  0.064507243  0.064156617            3 
 1623000   0.98227558   -4.0944511    1250.9761  0.064231676  0.064145249            3 
 1624000   0.98276215   -4.0810717    1254.7072   0.06438358  0.064134044            2 
 1625000    1.0074178     -4.06284    1260.2199  0.064626659  0.064122988            2 
 1626000   0.96961737   -4.0671383    1260.5113  0.064601849    0.0641119            3 
 1627000    0.9900297   -4.0512943    1259.6067  0.064515814  0.064101135            6 
 1628000   0.97944471   -4.1063922    1257.9623   0.06439201  0.064089902            3 
 1629000   0.99567699   -4.0882248    1257.6566  0.064336844  0.064078402            3 
 1630000    1.0110079    -4.107881    1258.7675  0.064354167  0.064067509            4 
 1631000   0.99952425   -4.1091452    1258.7993  0.064316333  0.064056397            5 
 1632000   0.98880258   -4.0527548     1264.936  0.064590277  0.064044979            4 
 1633000   0.95488019   -4.0696296    1261.6156  0.064381283  0.064034133            3 
 1634000   0.99952669   -4.0684789    1263.3304  0.064429333  0.064022867            3 
 1635000   0.99502146   -4.0474983    1265.3102  0.064490833  0.064011565            2 
 1636000   0.98108923    -4.056485    1261.9031  0.064277868  0.064000657            2 
 1637000   0.99332665   -4.0826039    1262.6155  0.064274865  0.063989376            1 
 1638000   0.97337722   -4.0896639    1264.5607  0.064334589  0.063978311            2 
 1639000   0.98903205   -4.0589521    1266.6806  0.064403122  0.063967047            1 
 1640000   0.99170082   -4.0706397    1267.3843  0.064399608  0.063956121            3 
 1641000   0.98711475   -4.1218121    1266.5217  0.064316561  0.063944949            4 
 1642000   0.99048286    -4.031251    1269.5654  0.064431861  0.063933442            5 
 1643000   0.99832754   -4.0960309    1265.5161  0.064187265  0.063922556            2 
 1644000   0.98289009   -4.0920434    1266.6179  0.064204071  0.063911369            5 
 1645000    1.0098327   -4.0852797     1271.354  0.064404962  0.063900362            3 
 1646000   0.98196696   -4.0962697     1270.345  0.064314751  0.063888956            3 
 1647000    0.9977499    -4.043648    1270.6984  0.064293584  0.063877889            2 
 1648000     1.009308    -4.112932    1269.1353  0.064175532  0.063866963            2 
 1649000   0.98905436   -4.0695688    1269.1094  0.064135306  0.063855622            6 
 1650000   0.98885639   -4.0810769    1268.7466  0.064078113  0.063844285            3 
 1651000   0.98703511   -4.0587646     1269.173  0.064060823  0.063832895            3 
 1652000   0.98883998    -4.123587    1267.8608  0.063955854   0.06382149            3 
 1653000   0.99116501   -4.0679484    1269.0132  0.063975256   0.06381006            5 
 1654000   0.98406807   -4.1078404    1271.9353  0.064083802  0.063798829            3 
 1655000    0.9469507   -4.1052236     1269.883  0.063941744  0.063787553            6 
 1656000   0.98961045   -4.1131184    1269.6377  0.063890785  0.063776016            4 
 1657000    1.0025822   -4.0869923    1267.8459  0.063762114  0.063764802            6 
 1658000   0.98984233   -4.0470171    1274.5229  0.064059251  0.063753377            3 
 1659000   0.98823841   -4.0794199    1275.0119  0.064045204  0.063742296            2 
 1660000   0.98553452   -4.0919012    1276.5222  0.064082439  0.063731003            4 
 1661000   0.98820048   -4.0743996    1273.8297  0.063908773  0.063719588            1 
 1662000   0.97588249   -4.0830914    1274.1497  0.063886368  0.063708359            2 
 1663000   0.96413351   -4.0982539     1279.322  0.064107134  0.063697111            2 
 1664000    0.9739538   -4.0884751    1272.6149  0.063732719  0.063685874            6 
 1665000   0.98159468   -4.0647186    1278.5639  0.063992188  0.063674654            3 
 1666000   0.97341932   -4.0972851    1277.9933  0.063925235  0.063663506            8 
 1667000   0.98053649   -4.0663717    1278.5928  0.063916854  0.063652088            3 
 1668000    1.0018864   -4.0901901    1272.7438  0.063586318   0.06364071            4 
 1669000   0.97672275   -4.0637063    1280.9866  0.063959789  0.063629144            2 
 1670000   0.98261192   -4.1256972    1278.0707  0.063775981  0.063617262            3 
 1671000   0.98564786   -4.0891999    1280.9445  0.063881133  0.063605486            2 
 1672000   0.95111124   -4.0795908    1279.1768  0.063754823  0.063593313            4 
 1673000   0.97769792   -4.1277651    1279.8266  0.063749083  0.063581078            5 
 1674000   0.97470098   -4.1054647    1276.5488   0.06354783  0.063568868            3 
 1675000   0.97660225   -4.0904241    1280.1062  0.063686877  0.063556837            2 
 1676000   0.98485878   -4.0892162    1284.3185   0.06385832  0.063544932            2 
 1677000    0.9779499    -4.089311    1280.8124  0.063646013  0.063533176            3 
 1678000   0.97168762   -4.1180613    1276.7074  0.063404224  0.063521195            4 
 1679000    1.0057287   -4.0559144    1282.4711  0.063652526  0.063509015            2 
 1680000   0.96791757   -4.0893265    1281.7298  0.063577866  0.063497292            4 
 1681000   0.98780242   -4.1037919    1282.4051  0.063573521  0.063485436            2 
 1682000   0.96638366     -4.09226    1286.2784  0.063727623  0.063473682            4 
 1683000    1.0192734   -4.1169107     1290.137  0.063880816  0.063461868            2 
 1684000   0.96639938   -4.0845622    1286.6797  0.063671799  0.063450228            3 
 1685000   0.98052573   -4.1139091    1284.8306  0.063542561  0.063438481            5 
 1686000   0.98588989   -4.0862157    1285.0145  0.063513964  0.063426605            3 
 1687000   0.96814358    -4.056025    1286.7635  0.063562712   0.06341454            3 
 1688000   0.97023542   -4.0790759    1286.7355  0.063523673  0.063402834            8 
 1689000   0.98908016    -4.116328    1283.7911  0.063340788  0.063391037            2 
 1690000   0.98555329    -4.074029    1292.8274  0.063748886  0.063379165            4 
 1691000    1.0058088   -4.0797798    1284.5697  0.063304245  0.063367279            5 
 1692000   0.95204966   -4.1355435    1279.9884  0.063041194  0.063355032            4 
 1693000   0.98371139   -4.0787504    1284.6972  0.063235734  0.063342599            3 
 1694000   0.99183497   -4.1060258     1287.332  0.063328022  0.063330265            4 
 1695000   0.96761109   -4.0977036    1289.9639  0.063420055  0.063318193            4 
 1696000   0.97030576   -4.0808903     1294.918   0.06362608  0.063306119            3 
 1697000   0.98337585   -4.0868793    1292.8638  0.063487714  0.063294084            5 
 1698000    0.9826855   -4.1026283    1295.0995  0.063560047  0.063282077            6 
 1699000   0.98107112   -4.0718611    1294.9569  0.063515643  0.063270091            3 
 1700000   0.97575374   -4.0668146    1288.9505  0.063183849  0.063258022            2 
 1701000   0.99415244   -4.1092195    1288.6889  0.063133885  0.063245623            2 
 1702000   0.96715867   -4.1299083    1288.6819  0.063096449  0.063233566            2 
 1703000    0.9742003   -4.1080644    1290.2959  0.063138377  0.063221218            2 
 1704000    0.9538907   -4.1020256    1293.6616  0.063265926  0.063209098            4 
 1705000   0.99804693   -4.0864752    1294.9764   0.06329308  0.063196748            2 
 1706000     0.978288   -4.1109994    1290.1341  0.063019448  0.063184229            4 
 1707000   0.99413009   -4.0924293    1290.8622  0.063018074  0.063171914            2 
 1708000   0.99407876   -4.1147365    1292.8881   0.06308002  0.063159608            7 
 1709000   0.94921584    -4.078765    1291.6136  0.062980964  0.063147384            3 
 1710000   0.97803908   -4.1092769     1296.257  0.063170419  0.063135008            2 
 1711000    0.9807789   -4.1156108    1291.9704  0.062924724  0.063123033            3 
 1712000   0.99402894   -4.1247815    1298.1124  0.063186935  0.063111125            3 
 1713000   0.97877246   -4.1169122    1299.3539  0.063210446  0.063098832            4 
 1714000   0.97267812   -4.1100846    1305.6025  0.063477366  0.063086835            2 
 1715000   0.95802389   -4.1052798    1299.6129  0.063149317  0.063074823            2 
 1716000   0.96706402    -4.103028    1299.8955  0.063126241  0.063063183            4 
 1717000   0.96221624   -4.1066561    1302.2875  0.063205567    0.0630514            4 
 1718000   0.97222003    -4.093226    1307.2971  0.063411772  0.063039445            3 
 1719000   0.99623079   -4.0819514     1307.427  0.063381181  0.063027879            4 
 1720000   0.97540473   -4.0682132    1308.9786  0.063419505  0.063016282            3 
 1721000   0.97011684   -4.1092285    1306.5241  0.063263804  0.063004528            1 
 1722000   0.96706305   -4.1135961     1304.387  0.063123644  0.062992725            4 
 1723000    1.0004728   -4.0872556    1305.3974  0.063135879  0.062980786            4 
 1724000   0.96190557   -4.1077272    1310.1519  0.063329077  0.062969091            2 
 1725000    1.0005479   -4.1103112    1310.2254  0.063295913   0.06295739            3 
 1726000   0.99483484   -4.0458046    1303.5848  0.062938623   0.06294596            3 
 1727000   0.96828569   -4.1141207    1304.6874  0.062955386  0.062934317            5 
 1728000   0.96040975   -4.1030622    1304.0559  0.062888498  0.062922419            3 
 1729000   0.99728424   -4.1003819    1311.2428  0.063198514  0.062910565            4 
 1730000   0.97169006   -4.0898018      1307.81  0.062996627   0.06289892            2 
 1731000   0.96191886   -4.1081899    1310.4253  0.063086142  0.062887352            3 
 1732000   0.95058093   -4.1445856    1310.4836  0.063052521  0.062875849            2 
 1733000   0.94502439   -4.1274968      1310.03  0.062994326  0.062864066            5 
 1734000   0.99354109   -4.1291793    1313.7811   0.06313827    0.0628522            2 
 1735000   0.97136164   -4.1156885    1315.0862  0.063164564  0.062840645            4 
 1736000   0.99115676   -4.0831793    1310.3348  0.062900098  0.062829065            3 
 1737000    0.9777574   -4.1082406    1315.1607  0.063095408  0.062817335            7 
 1738000   0.95981771   -4.1147727    1312.1685  0.062915637  0.062805696            2 
 1739000   0.99290454   -4.0521581    1318.4181  0.063178938  0.062794058            2 
 1740000   0.96628604   -4.1160191    1315.1751  0.062987312  0.062782562            9 
 1741000   0.98922284   -4.1436587    1308.4688  0.062630134   0.06277073            2 
 1742000   0.97852321   -4.0835412    1322.4356  0.063262321  0.062758988            2 
 1743000   0.99521596   -4.0718108    1313.3047  0.062789476  0.062747575            5 
 1744000   0.95089188   -4.1295774    1317.1535  0.062937382  0.062735991            3 
 1745000   0.99107012   -4.0975618    1315.2691  0.062811321  0.062724409            4 
 1746000   0.98808737   -4.1176054    1320.1411  0.063007878  0.062712791            2 
 1747000   0.95573251   -4.0785592    1323.5605  0.063134922  0.062701146            2 
 1748000    0.9735656   -4.1033256    1317.9737   0.06283246  0.062689448            5 
 1749000   0.97406423   -4.1228065    1316.2587  0.062714821  0.062677703            4 
 1750000   0.95686467   -4.0879562    1323.6738  0.063032086  0.062665881            2 
 1751000   0.97434751   -4.1094773    1320.9158  0.062864831  0.062654477            3 
 1752000   0.97144573    -4.111343    1326.9382  0.063115401  0.062642884            6 
 1753000   0.97637202   -4.1217831    1323.0985  0.062896867  0.062631445            2 
 1754000   0.99149309   -4.1124669    1321.2853  0.062774862  0.062620006            5 
 1755000   0.97601601   -4.1302431    1329.2636  0.063117929  0.062608389            5 
 1756000   0.96709624   -4.0754394    1332.0352  0.063213514  0.062597238            4 
 1757000   0.95879168    -4.119948     1325.489  0.062867056  0.062586007            4 
 1758000   0.96995143   -4.1246101    1324.2458  0.062772365  0.062574664            3 
 1759000    0.9703874   -4.1056679    1327.9046  0.062910016  0.062563525            4 
 1760000   0.97814177   -4.1501124    1328.9861  0.062925479  0.062552554            1 
 1761000    0.9686892   -4.1154453    1331.4952  0.063008481  0.062541665            5 
 1762000   0.96608694   -4.0962498    1334.1815  0.063099767  0.062530459            4 
 1763000   0.96517745   -4.1050141    1329.1639  0.062826808  0.062519501            3 
 1764000   0.97474587   -4.1351454     1326.651  0.062672475  0.062508352            3 
 1765000   0.98287742   -4.1199543    1329.4358  0.062768449  0.062496852            3 
 1766000    0.9602535   -4.1235699    1330.3442  0.062775773  0.062485641            3 
 1767000   0.95221449   -4.1213466    1325.7584  0.062523975  0.062474166            5 
 1768000   0.98269327   -4.1185324    1333.5503  0.062855875   0.06246285            2 
 1769000   0.97611199   -4.1152273    1336.3464  0.062952066   0.06245169            5 
 1770000   0.96575391   -4.1184177    1338.4201   0.06301413  0.062440388            3 
 1771000   0.97981757   -4.1369687    1333.3229  0.062738704  0.062429176            3 
 1772000    0.9777168   -4.0852318    1336.6352  0.062859065  0.062417906            2 
 1773000   0.98010981   -4.1187742    1335.3384  0.062762664   0.06240686            3 
 1774000   0.98833941   -4.1165842    1329.9521  0.062474261  0.062395461            4 
 1775000   0.98313866    -4.136419    1338.0933  0.062821281  0.062384063            5 
 1776000   0.92504176   -4.1179146    1340.7086  0.062908625  0.062372993            5 
 1777000   0.98318162   -4.1512623    1333.2699  0.062524382  0.062361869            3 
 1778000   0.95588933   -4.1038081    1337.0193  0.062664948  0.062350407            2 
 1779000    0.9643003    -4.123624    1338.6072  0.062704105  0.062339511            4 
 1780000   0.97103977    -4.106964    1336.8073  0.062584611  0.062328101            5 
 1781000   0.96425364   -4.1068054    1336.7144  0.062545123  0.062317117            2 
 1782000   0.96067822   -4.1375861    1335.1062   0.06243482  0.062305771            3 
 1783000   0.96849513   -4.0990289    1341.8373  0.062714401  0.062294601            3 
 1784000   0.96370628    -4.118339    1341.1845  0.062648753  0.062283551            2 
 1785000   0.97150198   -4.1184179     1340.428  0.062578338  0.062272549            5 
 1786000   0.96193127   -4.1300742    1340.8764  0.062564223  0.062261459            2 
 1787000   0.96163871   -4.1027251    1350.5999  0.062982646  0.062250407            3 
 1788000   0.96761162   -4.1201723    1346.1156  0.062738422  0.062239622            3 
 1789000   0.97038352   -4.1332344     1345.648  0.062681572  0.062228919            3 
 1790000    0.9693047   -4.1116672    1347.4942  0.062732504   0.06221818            4 
 1791000   0.94950954   -4.1086038    1339.5121  0.062326079  0.062206925            6 
 1792000   0.95970145   -4.1336154    1348.5453  0.062711368  0.062196016            4 
 1793000     0.957285   -4.1116514    1348.7061  0.062683869  0.062185024            4 
 1794000   0.97878861   -4.0899341    1343.8582  0.062423738  0.062173876            3 
 1795000   0.97241564   -4.1170012    1348.9678  0.062626173  0.062162917            2 
 1796000   0.96424868   -4.0860646    1350.3972  0.062657627   0.06215193            4 
 1797000   0.97743266   -4.1030437    1350.6201  0.062633095   0.06214094            3 
 1798000   0.93862395   -4.1171977    1346.6308  0.062413365  0.062129955            1 
 1799000   0.97116386    -4.137846    1348.3874  0.062460045  0.062119049            3 
 1800000   0.95824444   -4.1103321     1348.838  0.062446202  0.062108358            2 
 1801000    0.9751316   -4.1243908    1354.8649  0.062690398   0.06209744            2 
 1802000   0.97995258    -4.119217    1353.1096  0.062574436  0.062086597            3 
 1803000   0.94296432   -4.1080469    1353.4555  0.062555718  0.062075807            5 
 1804000   0.97089805   -4.1102484     1352.636  0.062483187   0.06206518            3 
 1805000   0.96885653   -4.1525968    1343.2257  0.062014114  0.062054087            5 
 1806000   0.98210317   -4.1063561    1358.3083  0.062675724   0.06204322            3 
 1807000   0.95662366   -4.1246279    1351.2272  0.062314482  0.062032491            2 
 1808000   0.98890524   -4.1266898    1359.2395  0.062649314  0.062021883            6 
 1809000   0.96810454   -4.1449671    1351.2534  0.062246792  0.062011092            4 
 1810000   0.94828968    -4.074488    1359.0258  0.062570248  0.062000399            3 
 1811000   0.93059421   -4.1048916    1361.7908  0.062662931  0.061989719            4 
 1812000   0.95483817   -4.0929489    1362.9165  0.062680118  0.061979363            4 
 1813000   0.96847023   -4.1345407    1355.7951  0.062318214  0.061968708            7 
 1814000   0.93860107    -4.110589    1361.5982  0.062550449  0.061958124            4 
 1815000   0.93782365   -4.1522483    1363.0088  0.062580751  0.061947449            1 
 1816000   0.94736367    -4.106789    1364.5204  0.062615656  0.061936579            5 
 1817000   0.96541671   -4.1372853    1363.3652  0.062528215  0.061926347            4 
 1818000    0.9601019   -4.1352275    1359.2962  0.062307305  0.061916143            5 
 1819000   0.93975106   -4.1259178    1365.4973  0.062557143  0.061905614            3 
 1820000   0.97242186    -4.125746    1360.1968  0.062280075  0.061895184            3 
 1821000   0.97396209   -4.1349606    1364.7379  0.062453684  0.061884712            3 
 1822000   0.96979653   -4.1448414    1362.2367   0.06230501  0.061874269            3 
 1823000   0.94621777    -4.111937    1366.0557  0.062445404  0.061863838            4 
 1824000   0.94255634    -4.105435    1365.6077  0.062390701  0.061853218            2 
 1825000      0.94704   -4.1302768    1369.4555  0.062532217  0.061842739            2 
 1826000   0.94785275   -4.0936417    1368.0875  0.062435538  0.061832295            2 
 1827000   0.96478609   -4.0976603    1368.4365  0.062417283  0.061821882            9 
 1828000   0.95750018   -4.1168336    1365.6533  0.062256259  0.061811746            5 
 1829000   0.95394728   -4.1303504    1374.3513  0.062618522  0.061801379            6 
 1830000   0.96506742   -4.1293517     1366.769  0.062239023   0.06179118            3 
 1831000   0.94163988   -4.1193378    1370.3773  0.062369254  0.061780894            2 
 1832000   0.95481006   -4.1475844    1374.1869    0.0625085  0.061770361            4 
 1833000   0.94995117   -4.1076149    1372.1922  0.062383716  0.061760101            4 
 1834000   0.94060695   -4.1314927    1375.2169  0.062487138  0.061749752            4 
 1835000   0.96904227   -4.1278191    1371.8522  0.062300284  0.061739091            2 
 1836000   0.96586194   -4.0936641    1378.9843  0.062590064  0.061728801            4 
 1837000   0.95565591   -4.1295041    1370.8856  0.062188603  0.061718126            4 
 1838000   0.93388595   -4.1414496    1368.9357  0.062066363  0.061707514            3 
 1839000   0.96362855    -4.150379    1369.2067  0.062044895  0.061696702            5 
 1840000   0.94673954    -4.148746    1367.1765  0.061919225   0.06168583            6 
 1841000   0.96412864   -4.1307688    1373.9133  0.062190535  0.061675048            4 
 1842000   0.95216979   -4.1293528    1370.9918    0.0620246  0.061664241            3 
 1843000   0.96064091   -4.1082247    1375.2588  0.062183886  0.061653333            2 
 1844000   0.93218575   -4.1180344    1371.1233  0.061963274   0.06164251            5 
 1845000   0.96057371   -4.1379535    1374.6496  0.062088962  0.061631833            4 
 1846000   0.98695615   -4.1194905    1376.5155  0.062139557  0.061621039            6 
 1847000   0.95855146   -4.1280973    1372.6587  0.061931901  0.061610185            4 
 1848000   0.96907927   -4.1344637    1373.2199  0.061923695  0.061599251            3 
 1849000   0.94759771   -4.1383657     1370.886   0.06178502  0.061588395            2 
 1850000   0.93600727   -4.1287146    1377.0779  0.062030537  0.061577251            4 
 1851000   0.93834162   -4.1392158    1373.0965  0.061817779  0.061566024            4 
 1852000   0.93616366   -4.1026364    1377.9225  0.062001551  0.061554847            3 
 1853000   0.94539095   -4.1496488    1373.3178  0.061761009  0.061543811            4 
 1854000   0.97861877   -4.1439047    1375.2497  0.061814534  0.061532745            4 
 1855000   0.93033804   -4.1289526    1377.1817  0.061868001  0.061521856           16 
 1856000   0.96782251   -4.1070291    1381.2809  0.062018718  0.061510863            3 
 1857000   0.97201381   -4.1197628      1385.01  0.062152666  0.061499906            5 
 1858000   0.96200479   -4.1194703    1385.4653  0.062139637   0.06148905            2 
 1859000   0.95625013   -4.1357395    1383.1043  0.062000371  0.061478158            4 
 1860000   0.93317452   -4.1375092    1386.8416   0.06213448  0.061467581            4 
 1861000   0.96434187   -4.1319219    1383.1292  0.061934856  0.061456799            3 
 1862000   0.96870223   -4.1539697     1384.613  0.061968002  0.061446025            2 
 1863000   0.95749747   -4.1260319    1388.3622  0.062102442  0.061435341            7 
 1864000   0.95105542   -4.0988104    1390.6931  0.062173333  0.061424709            3 
 1865000   0.94762935   -4.1190093    1387.2178  0.061984711  0.061414192            1 
 1866000     0.949968    -4.132991    1388.5326  0.062010208  0.061403496            4 
 1867000   0.94592546   -4.1053757    1386.9042  0.061904311  0.061392872            4 
 1868000   0.96100036   -4.1458938    1387.1692  0.061882994  0.061382422            1 
 1869000   0.95679249   -4.1579101    1387.8752  0.061881363   0.06137192            5 
 1870000   0.94803057   -4.1623456    1383.4062  0.061649117  0.061361304            4 
 1871000   0.94832928   -4.1206272    1386.8749  0.061770664   0.06135052            3 
 1872000   0.96241756    -4.121912    1393.1481   0.06201692  0.061339714            2 
 1873000   0.96538621    -4.135883    1389.4106  0.061817522  0.061329133            3 
 1874000   0.94807463   -4.1448688    1394.2498  0.061999724  0.061318598            3 
 1875000   0.94966652   -4.1489813    1388.5868  0.061714968  0.061307855            3 
 1876000    0.9604322   -4.1310099    1389.5508  0.061724894  0.061297281            2 
 1877000   0.98505053   -4.1583519     1388.693  0.061653926  0.061286752            2 
 1878000   0.94181947   -4.1466673    1399.1431  0.062084803  0.061276072            3 
 1879000   0.97925129   -4.1457016    1390.5125  0.061668994  0.061265596            3 
 1880000    0.9394436    -4.111582    1398.2479  0.061979074  0.061255062            3 
 1881000   0.95150526   -4.1484899    1384.2456  0.061325786  0.061244088            4 
 1882000   0.95415609   -4.1755076    1392.7443  0.061669512  0.061233201            7 
 1883000   0.97016276   -4.1241834    1395.4782  0.061757752  0.061222472            3 
 1884000   0.94820118   -4.1449851    1390.0391  0.061484389   0.06121177            4 
 1885000   0.93379459    -4.142185    1390.2775  0.061462312  0.061200667            3 
 1886000   0.92867262   -4.1451439    1390.5386  0.061441261  0.061189566            4 
 1887000   0.96292462   -4.1421596    1392.8129  0.061509136  0.061178319            4 
 1888000   0.93563638   -4.1404736    1392.1837  0.061448786  0.061167267            3 
 1889000   0.96348837   -4.1332779    1396.8701  0.061622995  0.061156156            4 
 1890000   0.96224087   -4.1155039     1395.759  0.061541403  0.061145459            4 
 1891000   0.95478863   -4.1378334    1395.3268  0.061489811  0.061134436            3 
 1892000   0.95559625   -4.1381663     1392.449  0.061330559  0.061123354            3 
 1893000   0.94653648   -4.1370351    1396.2997  0.061467673  0.061112269            5 
 1894000   0.92944599   -4.1766371    1395.9646  0.061420479  0.061101016            4 
 1895000   0.96113034   -4.1501692    1400.4248  0.061584206  0.061089939            3 
 1896000   0.94386032   -4.1311385    1401.7257  0.061608898  0.061079003            3 
 1897000   0.95581428   -4.1503205    1397.3919  0.061386043  0.061068027            3 
 1898000   0.95839016   -4.1685732    1393.7241  0.061192663  0.061056968            4 
 1899000   0.93865658   -4.1499229    1395.4163  0.061234699  0.061045754            3 
 1900000   0.95033155   -4.1569094    1401.1726  0.061454939  0.061034543            3 
 1901000   0.93098144   -4.1544188    1404.7587  0.061579815  0.061023418            2 
 1902000   0.93035519    -4.121349    1400.6281  0.061366461  0.061012424            3 
 1903000    0.9584224   -4.1539991    1401.0635  0.061353278  0.061001426            2 
 1904000   0.94206408   -4.1536179    1403.2629  0.061417317  0.060990476            3 
 1905000   0.92678874   -4.1507901    1403.8631  0.061411335  0.060979283            3 
 1906000   0.95069804   -4.1530802    1399.5915  0.061192352  0.060968301            4 
 1907000   0.95210597   -4.1512139    1403.7968  0.061344031  0.060957211            5 
 1908000   0.93786204   -4.1497765    1406.5698  0.061432994  0.060945937            4 
 1909000   0.95246031   -4.1790151    1397.8664  0.061020883  0.060934913            3 
 1910000   0.93461184   -4.1370363     1406.403  0.061361387  0.060923689            4 
 1911000   0.95080489   -4.1518643     1405.708  0.061298973   0.06091265            4 
 1912000   0.94886437   -4.1414177    1404.9036  0.061231853  0.060901579            2 
 1913000   0.94787915   -4.1738241    1402.7624  0.061106568  0.060890369            6 
 1914000   0.94418837   -4.1648879    1409.2255  0.061356039  0.060879289            4 
 1915000   0.93742512   -4.1400389    1401.7774  0.060999887  0.060868231           10 
 1916000   0.95094653    -4.171742    1404.9757  0.061107153  0.060856885            4 
 1917000   0.95912571   -4.1462749     1405.852  0.061113373  0.060845765            4 
 1918000   0.95457875   -4.1641078    1408.0859  0.061178568  0.060834736            4 
 1919000   0.97218136   -4.1727622    1408.1979  0.061151551  0.060823801            3 
 1920000   0.93541591   -4.1712407    1413.0301  0.061329432  0.060812813            5 
 1921000    0.9651385   -4.1116287    1410.6149  0.061192734  0.060801921            3 
 1922000   0.93048424    -4.162086     1410.457  0.061154048  0.060790956            4 
 1923000   0.94558777   -4.1378981    1416.7523  0.061395054  0.060780153            3 
 1924000   0.95649497   -4.1398319    1411.3488  0.061129104  0.060769189            4 
 1925000    0.9208717   -4.1539857    1415.4876  0.061276521  0.060758446            1 
 1926000   0.93888487   -4.1616129    1412.7093  0.061124492  0.060747818            3 
 1927000   0.95480254   -4.1748469    1416.2989  0.061248008  0.060737049            1 
 1928000   0.96935376   -4.1932126    1408.9297  0.060897722  0.060726224            2 
 1929000   0.95604089   -4.1629405    1416.8024  0.061206255  0.060715243            2 
 1930000   0.95153419    -4.136262    1416.6629  0.061168517  0.060704528            4 
 1931000   0.95255813   -4.1688918    1417.4051   0.06116887  0.060693562            3 
 1932000   0.94354075   -4.1367392     1421.406  0.061309783  0.060682628            4 
 1933000   0.92400897   -4.1486725    1420.9817  0.061259774  0.060671808            2 
 1934000   0.94285134   -4.1581758    1415.4789   0.06099099  0.060661124            4 
 1935000   0.94321654   -4.1640311    1410.5601  0.060747636  0.060650168            3 
 1936000   0.95090885   -4.1537257     1417.529  0.061016227  0.060639087            4 
 1937000    0.9432418   -4.1704905    1416.7904  0.060952951  0.060628206            3 
 1938000   0.94732633   -4.1731708    1415.4584  0.060864223   0.06061707            2 
 1939000   0.94357416   -4.1555599    1421.5898  0.061096348   0.06060597           10 
 1940000   0.92979258   -4.1348993    1421.5673  0.061063888  0.060595033            3 
 1941000   0.93903318   -4.1312722    1428.5898  0.061333926  0.060584393            3 
 1942000   0.92730634   -4.1546855     1424.725  0.061136499   0.06057375            5 
 1943000   0.94266726   -4.1462695    1424.5455  0.061097339  0.060563057            5 
 1944000   0.94610219   -4.1397999    1428.0982  0.061218202  0.060552412            3 
 1945000   0.93205355   -4.1617151    1426.4059   0.06111422  0.060541896            4 
 1946000   0.94613214   -4.1589268    1423.9732  0.060978638  0.060531283            5 
 1947000   0.91372573   -4.1708547    1428.2816  0.061131723  0.060520442            2 
 1948000    0.9430208   -4.1644508    1425.1586  0.060966744  0.060509803            3 
 1949000   0.91411021   -4.1745405    1430.9019  0.061181031  0.060499147            4 
 1950000   0.93421524   -4.1711624    1425.7685   0.06093028  0.060488773            3 
 1951000   0.92834977   -4.1792455    1425.3792  0.060882419  0.060478177            3 
 1952000   0.96165198   -4.1700205    1425.9892  0.060877271  0.060467511            3 
 1953000   0.96441629   -4.1863668    1431.7111  0.061090248  0.060456751            3 
 1954000   0.94195704   -4.1530967    1432.7377  0.061102767  0.060446279            2 
 1955000   0.92734712   -4.1471029    1431.8319  0.061032905  0.060435744            4 
 1956000   0.95021146   -4.1404114    1435.3584  0.061151943  0.060425309            3 
 1957000   0.92961735   -4.1531225    1432.3707   0.06099347   0.06041489            4 
 1958000   0.94287266    -4.131634    1436.1127  0.061121581  0.060404342            6 
 1959000   0.95228857   -4.1651753    1427.5705  0.060727008  0.060393551            4 
 1960000   0.92775526   -4.1398185    1434.7713  0.061002181  0.060382821            2 
 1961000   0.93575418   -4.1700991    1434.1587  0.060945042  0.060371903            2 
 1962000   0.95780399   -4.1856504    1436.8254  0.061027242  0.060361078            4 
 1963000   0.95329517   -4.1897296    1425.5435  0.060517212  0.060350126            3 
 1964000   0.94590054   -4.1596016    1427.9545  0.060588702  0.060339378            2 
 1965000   0.94029251   -4.1567302    1430.5554  0.060668169  0.060328619            3 
 1966000   0.92902503   -4.1400149    1436.4096  0.060885453  0.060317797            4 
 1967000   0.95617625   -4.2043676    1430.2455  0.060593355  0.060307188            3 
 1968000   0.93256798   -4.1709972    1434.3551  0.060736579  0.060296277            2 
 1969000   0.92085847   -4.1670839    1437.3164  0.060831065  0.060285458            2 
 1970000   0.94170487    -4.157644    1441.5578  0.060979604  0.060274701            4 
 1971000   0.92436436   -4.1441416    1436.1597  0.060720434  0.060264056            3 
 1972000   0.93296808   -4.1677555    1437.2599  0.060736136   0.06025324            5 
 1973000   0.92887253   -4.1761047    1434.1922  0.060575781  0.060242334            3 
 1974000   0.94601665   -4.1753271    1433.3722  0.060510479  0.060231518            3 
 1975000   0.93552638   -4.1565387    1440.9621  0.060800089    0.0602207            4 
 1976000   0.92385065   -4.1873113    1438.1956  0.060652648  0.060209758            3 
 1977000   0.93799472   -4.1832969    1438.8877  0.060651142  0.060198875            6 
 1978000   0.93080844   -4.1979117    1432.6817  0.060359019  0.060188122            4 
 1979000   0.92999952   -4.1803872    1440.6356  0.060663449  0.060177572            2 
 1980000    0.9303369   -4.1710383    1440.1029  0.060610391  0.060166736            5 
 1981000   0.92809744   -4.1714052    1439.9975  0.060575363  0.060155873            5 
 1982000   0.91468494   -4.1781398    1444.5932  0.060738025  0.060145193            3 
 1983000   0.92577868   -4.1744591     1441.184   0.06056413  0.060134514            2 
 1984000   0.92680369    -4.166975    1446.6454  0.060762998  0.060123796            6 
 1985000   0.93775941   -4.1618853    1441.5152  0.060517011  0.060112893            6 
 1986000   0.93174887   -4.1901077    1440.4023  0.060439841  0.060102048            6 
 1987000   0.92394217   -4.1835782    1439.8621  0.060386769  0.060091317            5 
 1988000   0.94184384   -4.1584464    1445.2694  0.060583058  0.060080663            4 
 1989000   0.94051897   -4.1847207    1443.6809  0.060486045  0.060069786            5 
 1990000    0.9336747     -4.18088    1441.5428  0.060366114  0.060059052            5 
 1991000   0.93299178   -4.1771462    1444.4932  0.060459285   0.06004824            4 
 1992000   0.92109492   -4.1727449    1445.7683  0.060482274   0.06003715            4 
 1993000   0.92587554   -4.1859191    1443.8336  0.060371034  0.060026003            4 
 1994000   0.95452554   -4.1456382    1444.8629  0.060383774  0.060014982            3 
 1995000   0.91931155   -4.1422833    1451.0684  0.060612715  0.060003993            2 
 1996000    0.9150497    -4.161039    1449.1541  0.060502424  0.059993059            3 
 1997000   0.93758878   -4.1805859     1446.802  0.060373979  0.059982091            4 
 1998000   0.95095131   -4.1384213    1451.4514  0.060537679  0.059971255            3 
 1999000   0.92277298   -4.1682174    1451.8403  0.060523606  0.059960515            4 
 2000000   0.94818754   -4.1801653    1448.6036  0.060358484  0.059949815            4 
 2001000   0.94597647   -4.1673154    1449.0845  0.060348345   0.05993889            4 
 2002000   0.93367824   -4.1792858     1450.869  0.060392482   0.05992818            3 
 2003000   0.93037506   -4.1802754    1449.1947  0.060292674  0.059917424            3 
 2004000   0.94230085   -4.1779251    1448.5894  0.060237419  0.059906532            4 
 2005000   0.93614755   -4.1976904    1445.2397  0.060068149  0.059895454            2 
 2006000   0.92278243    -4.165933    1448.6599  0.060180289  0.059884556            4 
 2007000   0.93352643   -4.1441189    1453.3741  0.060346044  0.059873628            5 
 2008000   0.93681426   -4.1750935    1452.6107  0.060284308  0.059863041            5 
 2009000   0.93737422   -4.1701247    1450.7645  0.060177719  0.059852337            2 
 2010000   0.93539372     -4.19881    1458.6858  0.060476193  0.059841622            7 
 2011000   0.92876971   -4.1792003    1453.1888  0.060218334  0.059830685            8 
 2012000   0.94007081   -4.1881735    1449.5162  0.060036292  0.059819748            4 
 2013000    0.9336359   -4.1877558     1455.298   0.06024582   0.05980845            3 
 2014000   0.93320978   -4.1697234    1455.3468  0.060217927  0.059797246            3 
 2015000   0.94244867   -4.1410056    1451.8242  0.060042356  0.059786084            5 
 2016000   0.93579594   -4.1952194    1451.1541  0.059984874  0.059775372            3 
 2017000   0.94054945    -4.185591    1454.6727  0.060100509  0.059764455            4 
 2018000   0.91050748   -4.1972366    1460.1964  0.060298828  0.059753451            4 
 2019000   0.91389862   -4.1757245    1454.3749   0.06002868  0.059742349            2 
 2020000   0.92719666   -4.1698887    1457.6441  0.060133832  0.059731238            3 
 2021000   0.95510721   -4.1732605    1450.7222  0.059818662  0.059720099            8 
 2022000   0.93109698   -4.1850278    1455.1172  0.059970213  0.059708715            5 
 2023000   0.92368726   -4.1913811    1459.2606  0.060111245   0.05969774            3 
 2024000   0.94128356    -4.177213    1458.1896  0.060037449  0.059686542            3 
 2025000   0.92299246   -4.1783658    1456.5163  0.059938944  0.059675265            4 
 2026000    0.9284518   -4.1857202    1456.6847  0.059916284   0.05966386            3 
 2027000   0.93663176   -4.1842079    1455.8666  0.059853092  0.059652555            3 
 2028000   0.94320802   -4.1586379    1461.5126   0.06005558  0.059641315            7 
 2029000   0.93717383   -4.1735435    1454.9884  0.059758025  0.059630193            7 
 2030000    0.9153259   -4.2037929    1459.3813  0.059908921  0.059618811            2 
 2031000   0.94245875   -4.1848983    1461.1081  0.059950275  0.059607513            3 
 2032000   0.95086774   -4.1998169    1456.9407  0.059749866  0.059596041            4 
 2033000   0.93684283   -4.2009952    1457.0735   0.05972592  0.059584731            2 
 2034000   0.93681799   -4.1979829    1453.7082  0.059558676  0.059573477            4 
 2035000   0.92696256   -4.1872919    1458.7237  0.059734797  0.059561894            2 
 2036000   0.92557481   -4.1956894    1466.8748  0.060039079  0.059550623            4 
 2037000   0.90286411   -4.1377945    1464.7791  0.059923871  0.059539416            4 
 2038000   0.92620343   -4.2075886    1463.1862  0.059829333  0.059528248            3 
 2039000   0.92915054   -4.1970374    1461.4921  0.059730754  0.059517039            5 
 2040000   0.94823421   -4.1840996    1460.6332  0.059666389  0.059505659            2 
 2041000   0.93991292    -4.189401    1456.1701  0.059454927  0.059494157            4 
 2042000    0.9192283   -4.2033569    1461.1807  0.059630294  0.059482878            5 
 2043000   0.91803573    -4.179295    1461.6758  0.059621301  0.059471481            4 
 2044000   0.91732338   -4.2116237    1466.6926  0.059796665  0.059460203            5 
 2045000   0.93310756   -4.2125805    1463.3238  0.059630148  0.059448814            3 
 2046000   0.93686513   -4.1869632    1461.1888  0.059514046  0.059437354            5 
 2047000   0.92382965    -4.183155    1464.3452  0.059613469  0.059425781            2 
 2048000   0.91936268   -4.2052589    1461.3423  0.059462169  0.059414121            3 
 2049000   0.93557207   -4.1891594    1465.1066  0.059586247  0.059402434            3 
 2050000   0.93017175   -4.1890549     1467.072  0.059637071  0.059390719            5 
 2051000   0.92898231   -4.1885584    1467.3741  0.059620269  0.059379131            4 
 2052000   0.91822237   -4.1742535    1465.4365  0.059512527  0.059367507            5 
 2053000   0.90938357   -4.2035364    1460.8515  0.059297431  0.059355724           10 
 2054000   0.92978647   -4.1864667    1464.5827   0.05941994  0.059344028            3 
 2055000   0.94247128   -4.1511765    1468.0562  0.059531881  0.059332647            6 
 2056000   0.93574694   -4.1832256    1473.5873  0.059727113  0.059321066            3 
 2057000   0.93899819   -4.1891568    1469.9329  0.059550029  0.059309655            3 
 2058000   0.91434801   -4.2236169    1468.0759    0.0594459  0.059298065           12 
 2059000   0.90913236   -4.1683086    1471.1631  0.059541975   0.05928678            4 
 2060000   0.92491047   -4.1801376    1465.7103  0.059292486  0.059275398            2 
 2061000   0.91530702   -4.1847334    1468.6279  0.059381689  0.059263787            8 
 2062000   0.93175986   -4.2012729    1472.9711  0.059528416   0.05925244            4 
 2063000   0.91674165   -4.1908794    1472.9713  0.059499567  0.059241239            4 
 2064000   0.93328425   -4.2015404    1475.6264  0.059577939  0.059229943            4 
 2065000   0.92334911   -4.1717004    1474.6387   0.05950923  0.059218637            5 
 2066000   0.92943659   -4.1918653    1475.4237  0.059512087  0.059207356            2 
 2067000   0.92122127   -4.2051337    1475.8138  0.059499025  0.059196096            5 
 2068000    0.9339507   -4.2077372    1472.9658  0.059355488  0.059184444            4 
 2069000   0.91750676   -4.2063242    1475.0561   0.05941099  0.059172814            6 
 2070000   0.93914751   -4.1918097    1478.2834  0.059512214  0.059161187            3 
 2071000    0.9352664   -4.1672747    1472.3906  0.059246363   0.05914982            4 
 2072000   0.88700508   -4.1669243    1478.3662  0.059458101  0.059138391            2 
 2073000   0.91874391   -4.1977842    1476.8902  0.059370082  0.059126757           11 
 2074000   0.91913313   -4.1580256    1479.6956  0.059454178   0.05911543            3 
 2075000   0.93306819   -4.1984476    1473.6542  0.059182899  0.059103693            5 
 2076000   0.90708461   -4.2305251    1469.7365  0.058997131  0.059092088            6 
 2077000   0.95398234   -4.1943893    1473.2713  0.059110547  0.059080454            2 
 2078000   0.94216228   -4.2043434    1472.7098  0.059059583  0.059068732            3 
 2079000   0.91802449    -4.188428    1477.6531  0.059229323  0.059057146            3 
 2080000   0.94114588   -4.2212111    1476.6234  0.059159589  0.059045581            4 
 2081000   0.91434549   -4.2095921    1475.4837  0.059085524  0.059034061            7 
 2082000   0.91570102   -4.1942798     1484.841  0.059431675   0.05902249            5 
 2083000   0.91028393   -4.1778157    1480.4197  0.059226264  0.059010704            7 
 2084000   0.90487067    -4.200818    1484.2026  0.059349111  0.058999254            4 
 2085000   0.91975506   -4.2081117    1476.7754  0.059023796  0.058987477            2 
 2086000   0.91727776    -4.187138    1479.9983  0.059124254   0.05897578            1 
 2087000   0.92810899   -4.1832637    1481.5965  0.059159738  0.058964142            4 
 2088000   0.92598355   -4.1935969    1479.3054  0.059039968  0.058952332            8 
 2089000   0.92788125   -4.1944505    1480.0226  0.059040314  0.058940488            3 
 2090000   0.92956447   -4.2183291    1476.6593  0.058877964  0.058928622            6 
 2091000   0.91174515   -4.2062314    1479.0697  0.058945865  0.058916759            4 
 2092000   0.91838606    -4.195858    1482.9885  0.059073793  0.058904809            4 
 2093000   0.91146005   -4.1771402    1481.5198   0.05898709   0.05889292            3 
 2094000   0.91156689   -4.1769287     1480.238  0.058907911  0.058881153            5 
 2095000   0.90547268   -4.1858453    1485.4418  0.059086786  0.058869307            3 
 2096000   0.92061083   -4.1899616    1491.3328  0.059292812   0.05885754            4 
 2097000   0.92243928   -4.2043958    1484.1666  0.058979758    0.0588457            5 
 2098000    0.9039847   -4.1949783    1487.2087  0.059072476   0.05883395            3 
 2099000   0.90178198   -4.2375135    1485.8603  0.058990802  0.058822361            3 
 2100000   0.92289979   -4.2050098     1485.857   0.05896258  0.058810527            4 
 2101000   0.92007895   -4.1923973    1489.2499  0.059069092  0.058798745            2 
 2102000   0.92157791   -4.2332805    1479.2508  0.058644575   0.05878682            3 
 2103000   0.93196649   -4.1715171    1488.8562  0.058997313  0.058775094            3 
 2104000   0.91217926   -4.1884777    1485.8194  0.058848994  0.058763297            8 
 2105000   0.90439223   -4.2074852    1485.2054  0.058796729  0.058751606            2 
 2106000   0.91509616   -4.2127864    1482.6858  0.058669113  0.058739704            6 
 2107000   0.92990172   -4.2003226    1488.7842  0.058882464  0.058727747            8 
 2108000   0.94128294   -4.1730106    1491.1567  0.058948318  0.058716139            3 
 2109000   0.93053425   -4.2055098    1483.2174  0.058606663   0.05870435            3 
 2110000   0.91185886   -4.2208904    1488.5709   0.05879032  0.058692491            3 
 2111000   0.91442328   -4.2044081     1489.447  0.058797054  0.058680869            2 
 2112000   0.92715298   -4.1958679     1491.718  0.058858824  0.058669345            3 
 2113000   0.90016199   -4.2024684    1489.8551  0.058757496   0.05865764            3 
 2114000   0.90762903   -4.1868693    1493.3301  0.058866684  0.058646034            4 
 2115000   0.89704635   -4.2096782    1496.2904  0.058955491  0.058634453            2 
 2116000   0.91778649   -4.1977938    1493.5827  0.058820994  0.058622754            2 
 2117000   0.89924726   -4.2151266    1492.1211  0.058735674  0.058611124            1 
 2118000   0.92118808   -4.2020031    1493.2788  0.058753495  0.058599433            5 
 2119000   0.90641084   -4.1973159    1492.8614  0.058709352    0.0585879            3 
 2120000   0.90754977   -4.1861299    1494.5852   0.05874942  0.058576237            2 
 2121000   0.91740436   -4.2161745    1490.6858  0.058568513  0.058564246            5 
 2122000   0.90954356    -4.206459    1492.0542  0.058594652  0.058552213            3 
 2123000   0.91261744   -4.2614961    1483.3683  0.058226106  0.058540427            7 
 2124000   0.90084062   -4.2187487    1491.7974  0.058529402  0.058528503            2 
 2125000    0.9073076   -4.2083811    1492.6358  0.058534739  0.058516616            2 
 2126000   0.92266895   -4.2364989    1487.2512  0.058296144  0.058504938            3 
 2127000   0.92355811    -4.201524    1499.2625  0.058739323   0.05849325            9 
 2128000   0.91177921   -4.1789218    1498.4931   0.05868159  0.058481659            4 
 2129000   0.90452628   -4.2427024    1488.9641  0.058281045  0.058469783            6 
 2130000   0.93376113   -4.2249712    1496.6696  0.058555148  0.058457806            5 
 2131000   0.91395473   -4.1993594    1498.4492  0.058597263  0.058446123            2 
 2132000   0.89559909   -4.1907386    1497.1298  0.058518206  0.058434425            4 
 2133000   0.90892885   -4.2121241    1492.9341  0.058326853  0.058422651            2 
 2134000   0.91573119    -4.225364    1500.1855  0.058582688  0.058411052            4 
 2135000   0.89617683   -4.2308759    1498.2148  0.058478329  0.058399329            3 
 2136000   0.89380509   -4.1862796    1497.4389  0.058420682  0.058387522            2 
 2137000   0.88977286   -4.1876252    1497.1661  0.058382705  0.058375641            3 
 2138000   0.89988186    -4.202834    1498.8754  0.058422023  0.058363923            5 
 2139000   0.91204499   -4.1990306    1496.6002  0.058306069  0.058352178            3 
 2140000   0.92854358   -4.1986792    1497.3996  0.058309954  0.058340166            7 
 2141000   0.89734845   -4.2270116    1497.3341  0.058280168  0.058328148            5 
 2142000   0.90193413   -4.2212846    1498.4107  0.058294844  0.058316343            3 
 2143000    0.9056139   -4.1765743    1505.6741   0.05855009  0.058304361            4 
 2144000   0.90834858   -4.2190311     1503.062  0.058421253  0.058292492            7 
 2145000   0.91294682   -4.2131522    1505.3941  0.058484621  0.058280617            3 
 2146000   0.91019855   -4.1936646    1505.4319  0.058458835  0.058268962            4 
 2147000   0.89738979   -4.2061201    1505.7054  0.058442224  0.058257417            1 
 2148000   0.89840536   -4.2220808    1506.9742  0.058464237   0.05824563            3 
 2149000   0.90538297   -4.2253935    1504.2679   0.05833209  0.058233955            5 
 2150000   0.89952142   -4.1874804     1508.166  0.058456046  0.058222231            4 
 2151000   0.90777495   -4.2319763    1508.5226  0.058442687  0.058210403            5 
 2152000   0.90385802   -4.2206295    1507.3539  0.058370273  0.058198628            5 
 2153000   0.89020946   -4.1997771    1510.1916  0.058452997  0.058186904            4 
 2154000    0.9159085   -4.2430468    1504.9734  0.058223978  0.058175046            6 
 2155000   0.92525637   -4.2031011    1509.0763   0.05835562  0.058163599            5 
 2156000   0.90235295   -4.2305607    1508.6816  0.058313298  0.058152011            4 
 2157000   0.91092173   -4.2063918    1507.4384  0.058238231  0.058140343            1 
 2158000   0.90406235   -4.2293655    1501.1305  0.057967659  0.058128715            3 
 2159000   0.90663505   -4.2221735    1504.7753  0.058081493  0.058117008            3 
 2160000   0.90932439   -4.2263097    1508.6718  0.058204929  0.058105397            1 
 2161000   0.90158022   -4.2038786    1512.9022  0.058341132  0.058094075            5 
 2162000   0.88138428   -4.2214925    1512.6006   0.05830252   0.05808249            4 
 2163000   0.87774971   -4.2249071    1515.8212  0.058399644  0.058070929            4 
 2164000   0.91424287   -4.2254628     1511.812  0.058218267  0.058059237            2 
 2165000   0.87547323   -4.2384507    1511.0351  0.058161473  0.058047401            4 
 2166000   0.90528158     -4.21273    1512.0651  0.058174248  0.058035561            3 
 2167000   0.89535469   -4.2387555    1506.6443  0.057938944  0.058023657            4 
 2168000   0.91799541   -4.2250403    1509.5193  0.058022729  0.058011709            4 
 2169000   0.90246144   -4.2479891    1512.8973  0.058125761   0.05799969            2 
 2170000   0.90929167   -4.2286574    1512.2971  0.058075926  0.057987969            4 
 2171000   0.91649014    -4.217522    1509.0334  0.057923898  0.057976117            3 
 2172000   0.90596766   -4.2380044    1509.8609  0.057928978  0.057964101            5 
 2173000   0.89074006    -4.234695    1515.8246  0.058131023  0.057952397            4 
 2174000   0.92154084    -4.230106    1513.4772  0.058014306  0.057940506            2 
 2175000   0.90119205   -4.2232682    1515.9526  0.058082476  0.057928866            2 
 2176000   0.90134965   -4.2152831    1514.5028   0.05800026  0.057917103            9 
 2177000    0.9021132   -4.2373653     1513.958  0.057952764  0.057905304            2 
 2178000   0.92243243   -4.2434755    1513.0381  0.057890958  0.057893499            9 
 2179000   0.90398085   -4.2412516    1511.1548  0.057792367  0.057881976            4 
 2180000   0.89609065   -4.2100297    1524.6196  0.058280566  0.057870206            3 
 2181000   0.91615297   -4.2173748    1524.8738  0.058263555  0.057858507            2 
 2182000   0.90609756   -4.2493973     1515.934  0.057895431  0.057846982            4 
 2183000   0.88466398   -4.2166929     1520.072  0.058026876  0.057835014            2 
 2184000   0.90728062   -4.2187655    1516.4103  0.057860589  0.057823276            4 
 2185000   0.92868812   -4.2361452     1515.866  0.057813347  0.057811474            3 
 2186000   0.90127285    -4.276287    1514.7423  0.057744063  0.057799746            6 
 2187000   0.88162123   -4.2019813    1521.3518   0.05796951  0.057787914            7 
 2188000     0.922258   -4.2191206    1523.8987  0.058040018  0.057776299            2 
 2189000   0.89204681    -4.214148    1520.3761  0.057879401  0.057764786            3 
 2190000    0.9040744   -4.2063491    1526.0015   0.05806703  0.057753144            2 
 2191000   0.90135782    -4.247942    1520.7309   0.05784006  0.057741476            3 
 2192000   0.91665707   -4.2363668    1520.6159  0.057809303  0.057729974            4 
 2193000   0.88523451   -4.1965041    1523.0422   0.05787514  0.057718348            4 
 2194000   0.88706921   -4.2241174    1526.1149  0.057965468  0.057706774            2 
 2195000   0.90354392   -4.2092943     1523.834  0.057852466  0.057695137            2 
 2196000   0.89591764   -4.2467273    1525.0913  0.057873834  0.057683699            4 
 2197000   0.89077668   -4.2345969    1522.5646  0.057751653  0.057672203            4 
 2198000    0.8977141   -4.2141459    1522.8254  0.057735266  0.057660573            3 
 2199000   0.91033942   -4.2453512    1519.6206  0.057587563  0.057648843            3 
 2200000   0.89142388   -4.2203869    1528.5262  0.057898719   0.05763728            2 
 2201000   0.90041451   -4.2312015     1522.013  0.057625814  0.057625735            8 
 2202000   0.89915264   -4.2499399    1522.6155  0.057622444  0.057614109            5 
 2203000   0.91389978   -4.2628106    1524.2155  0.057656814  0.057602361            2 
 2204000   0.88077654   -4.2377232    1525.5292  0.057680323  0.057590666            4 
 2205000   0.88265597   -4.2475431    1524.2402  0.057605448  0.057578957            4 
 2206000   0.88015253   -4.2293763     1532.468  0.057890149    0.0575672            3 
 2207000   0.91440382   -4.2185573    1530.0245  0.057771655  0.057555409            8 
 2208000   0.89076019   -4.2259408    1529.6485  0.057731298  0.057543678            3 
 2209000   0.91175027   -4.2072257    1525.6532  0.057554444  0.057531796            4 
 2210000   0.88621838   -4.2277528    1531.0548   0.05773208  0.057520046            9 
 2211000   0.88716323   -4.2350125    1528.0358  0.057592182  0.057508109            8 
 2212000   0.88695334   -4.2194802    1532.1057  0.057719475   0.05749649            3 
 2213000   0.88816475   -4.2192808    1528.3622  0.057552424  0.057484779            2 
 2214000   0.89086389   -4.2236548    1534.4621  0.057756028  0.057473106            6 
 2215000   0.88821384   -4.2033823    1532.7281  0.057664712  0.057461489            5 
 2216000    0.9019541   -4.2335018    1534.4161  0.057702171  0.057449933            3 
 2217000   0.89678543   -4.2419132    1529.3988  0.057487551  0.057438066            4 
 2218000   0.89815704   -4.1960735    1534.5756  0.057656131  0.057426527            7 
 2219000   0.91055844   -4.2694909     1525.253  0.057280043  0.057414745            4 
 2220000   0.90438188   -4.2531535    1529.7371  0.057422564  0.057402872            3 
 2221000   0.91253384   -4.2241583    1529.8699  0.057401693  0.057391068            7 
 2222000   0.89758099   -4.2591333    1527.8225  0.057299073  0.057379109            6 
 2223000   0.88243778   -4.2308893    1532.5486  0.057450466   0.05736729            2 
 2224000   0.87172973   -4.2311609    1537.9383  0.057626586  0.057355685            3 
 2225000   0.89355048   -4.2423906    1537.2782  0.057575963  0.057343971            3 
 2226000   0.90459486   -4.2365736    1535.0963  0.057468416  0.057332356            4 
 2227000   0.89301907   -4.2488981    1533.9575  0.057399997  0.057320594            3 
 2228000   0.90843155   -4.2386628     1536.472  0.057468283  0.057308891            6 
 2229000   0.89253302   -4.2280707    1533.6168  0.057335755  0.057297228            2 
 2230000   0.89613215   -4.2295185    1541.0813  0.057588986  0.057285492            5 
 2231000   0.89383716   -4.2284816    1542.3492  0.057610535  0.057274044            4 
 2232000   0.89150451     -4.23653    1538.7796  0.057451449  0.057262537            3 
 2233000   0.89279703   -4.2271197    1535.0599  0.057286905  0.057250853            3 
 2234000   0.88266468   -4.2550925    1533.4885  0.057202644  0.057239298            2 
 2235000    0.8773049   -4.2393249    1530.0228   0.05704783  0.057227543            3 
 2236000   0.92256942   -4.2337429    1540.4478  0.057410846  0.057215998            6 
 2237000   0.89286496   -4.2355048    1540.3292  0.057380762  0.057204304            4 
 2238000   0.90363561   -4.2165372    1544.5721   0.05751311  0.057192494            7 
 2239000   0.87573318   -4.2520405    1540.3604  0.057330669  0.057180917            3 
 2240000   0.88960285   -4.2492803    1543.6575  0.057427735  0.057169304            5 
 2241000    0.8941854   -4.2450518    1545.9014  0.057485549  0.057157706            6 
 2242000   0.90546518   -4.2301931    1537.5083  0.057147945  0.057146117            7 
 2243000   0.89360474    -4.236258    1539.0701   0.05718049  0.057134438            8 
 2244000    0.9076386   -4.2198307    1542.6853  0.057289263  0.057122949            2 
 2245000   0.88831234    -4.275366    1539.5153  0.057146077  0.057111514            4 
 2246000   0.88871352   -4.2714534    1543.4773  0.057267635  0.057099902            4 
 2247000   0.87199488   -4.2603891    1543.2848  0.057235008  0.057088257            5 
 2248000   0.89833364   -4.2514286    1543.6441   0.05722287  0.057076607            9 
 2249000   0.91415326   -4.2771221     1543.041  0.057175077  0.057065076            7 
 2250000   0.87284395    -4.246031     1548.334  0.057345705  0.057053553            3 
 2251000   0.89194524   -4.2377741    1545.5501  0.057217166  0.057042107            5 
 2252000   0.88877071   -4.2264125    1549.7164  0.057345931  0.057030607            3 
 2253000   0.89503357   -4.2465667    1547.9568  0.057255391  0.057019018            1 
 2254000   0.90155248   -4.2340621    1551.3965  0.057357161  0.057007288            3 
 2255000   0.88689033   -4.2718664    1545.6917  0.057120907  0.056995766            6 
 2256000   0.91103183   -4.2655061    1542.3822  0.056973337  0.056984302            6 
 2257000   0.91648792   -4.2301793    1546.3669   0.05709522  0.056972848            3 
 2258000   0.87902921   -4.2342389    1547.6357  0.057116759  0.056961326            2 
 2259000   0.87552919   -4.2459259    1549.5708  0.057162859  0.056949757            5 
 2260000   0.89373217   -4.2421531    1552.6911  0.057252621  0.056938146            3 
 2261000   0.89504757   -4.2305182    1554.1354  0.057280534  0.056926645            4 
 2262000   0.88014254   -4.2466577    1551.6966  0.057165363  0.056915543            3 
 2263000   0.88845949   -4.2253426    1553.4703  0.057205419  0.056904295            2 
 2264000   0.89029221   -4.2560533     1554.788   0.05722865  0.056893075            4 
 2265000   0.88858786   -4.2371683    1551.8866  0.057096637  0.056881935            2 
 2266000    0.9196084    -4.251756    1547.0826  0.056894771  0.056870641            5 
 2267000   0.89740998   -4.2419214    1550.1795  0.056983514  0.056859283            5 
 2268000   0.88900543   -4.2478449    1548.4756  0.056895781  0.056847736            2 
 2269000    0.8914187   -4.2463719    1552.0647  0.057002522  0.056836336            5 
 2270000   0.89134211   -4.2125701    1552.9655   0.05701048  0.056824833            4 
 2271000   0.90077842   -4.2348947    1558.6462  0.057193827  0.056813287            2 
 2272000   0.88468987   -4.2376315    1555.1671  0.057041046  0.056801909            3 
 2273000   0.87685535   -4.2400613    1548.5111  0.056771928   0.05679036            3 
 2274000   0.89985085   -4.2447743    1552.4362  0.056890803  0.056778738            2 
 2275000   0.89414078   -4.2497722    1555.9437  0.056994274  0.056766996            2 
 2276000   0.91680833   -4.2267797    1556.0734  0.056973984  0.056755399            3 
 2277000   0.87869869    -4.232093    1556.9665  0.056981647   0.05674395            3 
 2278000   0.88682023   -4.2580053     1554.915  0.056881584   0.05673239            4 
 2279000   0.86708301   -4.2521066     1553.576  0.056807664   0.05672073            4 
 2280000   0.87847405   -4.2578077    1547.9677  0.056577768  0.056708925            5 
 2281000   0.89094393   -4.2283192    1554.9827  0.056809246  0.056697207            4 
 2282000   0.88434794   -4.2495219     1554.712  0.056774467  0.056685466            3 
 2283000   0.87347715   -4.2752725    1553.3007  0.056698085   0.05667379            2 
 2284000   0.88278187   -4.2676494    1554.0934  0.056702181  0.056661952            4 
 2285000   0.87063972   -4.2541643    1554.1709  0.056680192  0.056650241            3 
 2286000   0.87376835   -4.2647477    1553.6034  0.056634712   0.05663834            6 
 2287000   0.87715975   -4.2745728    1562.8563  0.056947105  0.056626536            4 
 2288000   0.88111005   -4.2636164    1555.4132  0.056651123  0.056614683            5 
 2289000   0.89558396   -4.2497553    1555.8258  0.056641392  0.056602939            4 
 2290000   0.88514641    -4.280662    1553.3613  0.056526977  0.056591168            4 
 2291000   0.86463619   -4.2471413    1558.6356  0.056694151   0.05657917            8 
 2292000   0.86503074    -4.236542    1556.7842  0.056602102  0.056567426            4 
 2293000   0.89395174   -4.2813966    1553.3442  0.056452399  0.056555647            8 
 2294000   0.89395705   -4.2558395    1559.3291    0.0566452  0.056543927            6 
 2295000   0.88335726   -4.2850991     1559.723  0.056634823  0.056532204            4 
 2296000   0.86743654   -4.3014074    1558.9388  0.056581692  0.056520484            4 
 2297000   0.88496737   -4.2586367    1561.3394  0.056644152  0.056509032            3 
 2298000   0.87528754   -4.2544382    1559.0674  0.056537112  0.056497513            6 
 2299000   0.87535547   -4.2274305    1562.4772  0.056636117  0.056485958            6 
 2300000   0.88019775    -4.215873    1569.1996  0.056855057  0.056474568            3 
 2301000    0.8985668   -4.2488206    1565.3745  0.056691819  0.056463334            3 
 2302000   0.87865885   -4.2265672    1571.3004  0.056881712  0.056451975            3 
 2303000   0.88419682   -4.2626195    1559.2105  0.056419543  0.056440322            3 
 2304000   0.89609349   -4.2776331    1560.0547  0.056425591  0.056428674            5 
 2305000   0.89068981    -4.279413    1563.6771  0.056532072  0.056417014            5 
 2306000   0.88626692   -4.2549084    1562.2066  0.056454416  0.056405167            4 
 2307000   0.87279289   -4.2328186    1565.3767  0.056544455    0.0563937            3 
 2308000   0.86915185   -4.2192457    1569.7989  0.056679623  0.056382071            9 
 2309000   0.89438275    -4.258526    1563.3557  0.056422538  0.056370682            7 
 2310000    0.8734782   -4.2552889    1564.3653  0.056434534  0.056358999            7 
 2311000   0.88918279   -4.2630537    1565.3624   0.05644607  0.056347503            5 
 2312000   0.88309675   -4.2502983     1563.617  0.056358745  0.056335953            5 
 2313000   0.88470791   -4.2481757    1567.1818  0.056462813  0.056324298            7 
 2314000   0.88022412   -4.2547191    1565.2275   0.05636803  0.056312621            5 
 2315000   0.88922166   -4.2567792    1571.5956  0.056572915  0.056300992            2 
 2316000   0.88694207   -4.2632216    1569.5914  0.056476374  0.056289361            4 
 2317000   0.88370372   -4.2407313    1571.4896  0.056520269  0.056277654            5 
 2318000    0.8920599   -4.2572981    1567.4135   0.05634935  0.056266042            6 
 2319000   0.88065374   -4.2558941    1567.7841  0.056338368  0.056254376            4 
 2320000    0.8973805   -4.2688612    1570.5909  0.056414901  0.056242711            6 
 2321000   0.89369239   -4.2787994    1567.2044  0.056269008  0.056231113            4 
 2322000   0.87999927   -4.2825909    1574.3652  0.056501765  0.056219468            9 
 2323000   0.87096786   -4.2933626    1570.8224  0.056350352  0.056207762            4 
 2324000   0.87172931   -4.2742524    1574.2402  0.056448658  0.056196042            2 
 2325000    0.8697611   -4.2659386    1574.8123  0.056444886  0.056184311            5 
 2326000   0.86973174   -4.2823866    1574.4294  0.056406901  0.056172813            3 
 2327000   0.89514835   -4.2735522    1573.2024   0.05633872   0.05616126            4 
 2328000   0.85797347   -4.2304249    1574.6732  0.056367169  0.056149634            8 
 2329000   0.90370387   -4.2610698    1571.0827  0.056214494  0.056137845            4 
 2330000   0.88050902   -4.2721857    1572.0585  0.056225267  0.056126096            4 
 2331000   0.89461915   -4.2620813    1572.3379  0.056211135  0.056114307            4 
 2332000   0.87360678   -4.2496157    1569.2789  0.056077719  0.056102538            2 
 2333000   0.87393356   -4.2662223    1568.5658  0.056028211  0.056090784            4 
 2334000   0.88417926   -4.2823375     1577.081  0.056308234   0.05607894            2 
 2335000   0.87407397   -4.3083838    1566.8624  0.055919431  0.056067004            2 
 2336000   0.89702438   -4.2427576    1573.5479  0.056133987   0.05605512            4 
 2337000   0.87773127   -4.2770463    1569.2765  0.055957656  0.056043278            4 
 2338000   0.87407667   -4.2885179     1572.461  0.056047227   0.05603132            2 
 2339000   0.88683394   -4.2758578    1567.9919  0.055864041  0.056019333            3 
 2340000   0.87116713    -4.295786    1571.2357  0.055955688  0.056007268            4 
 2341000   0.88033334   -4.2679258     1567.253  0.055790012  0.055995133            8 
 2342000   0.86838011   -4.2813299     1570.254  0.055872973  0.055983078            5 
 2343000    0.8499531   -4.2615563    1575.4647  0.056034452  0.055971054            2 
 2344000   0.86640688   -4.2760084    1573.4236  0.055937982  0.055959267            4 
 2345000   0.85765831   -4.2838687    1571.4189  0.055842889   0.05594736            8 
 2346000   0.89029608   -4.2469481    1578.3393   0.05606491   0.05593544            4 
 2347000   0.85308902   -4.2927945    1570.5066  0.055762911  0.055923511            4 
 2348000   0.88129265   -4.2825207    1577.4716  0.055986356  0.055911427            5 
 2349000   0.90443566   -4.3159372     1567.637  0.055613629  0.055899113            5 
 2350000    0.8856991   -4.2495901    1579.7845  0.056020728  0.055886877            2 
 2351000   0.87288266   -4.2744965    1572.4554  0.055737111  0.055874606            4 
 2352000    0.8690211   -4.2763172    1575.4806    0.0558206  0.055862301            9 
 2353000   0.88064914   -4.2551484    1579.5504   0.05594101  0.055850357            5 
 2354000   0.87831562   -4.2906026     1571.411  0.055629106  0.055838276            6 
 2355000   0.87994148   -4.2548219    1581.4629  0.055961178  0.055826321            4 
 2356000   0.90185874   -4.2968004    1579.2678  0.055859784  0.055814338            3 
 2357000   0.87706052   -4.2485213    1573.6636  0.055637942  0.055802396            3 
 2358000    0.8616437   -4.2863542     1576.691  0.055721338  0.055790451           15 
 2359000   0.87764978   -4.2671037    1576.1675  0.055679225   0.05577822            4 
 2360000   0.87134327   -4.2587462    1581.9694    0.0558605  0.055766111            5 
 2361000   0.86397077   -4.2653818    1577.8363  0.055690959  0.055753946            3 
 2362000   0.86160445   -4.2907842    1572.9607  0.055495368  0.055741893            4 
 2363000    0.8679568   -4.2483612    1576.4074  0.055593435  0.055729731            3 
 2364000   0.88757933    -4.269155    1581.3796  0.055745191  0.055717625            2 
 2365000    0.8578805   -4.2591648    1579.0658   0.05564009  0.055705484           10 
 2366000   0.85536878   -4.2787936    1578.6394  0.055601558  0.055693411            6 
 2367000   0.86926091   -4.2515036    1584.4099  0.055781226  0.055681552            3 
 2368000    0.8554024   -4.2636372    1579.2243  0.055575179  0.055669603            2 
 2369000   0.87192994   -4.2829541    1582.7493  0.055675718  0.055657611            2 
 2370000   0.87635797    -4.264542    1579.4096  0.055534796  0.055645644            3 
 2371000   0.87867346   -4.3051196    1574.9695  0.055355318  0.055633457            4 
 2372000   0.86990885   -4.2620314    1579.1458  0.055478703  0.055621304            5 
 2373000   0.87074246   -4.2675073    1584.0462  0.055627414  0.055609152            4 
 2374000   0.85658132   -4.2853303    1580.0966  0.055465341  0.055597169            7 
 2375000   0.88413751   -4.2849417    1582.1097  0.055512623  0.055585024            5 
 2376000   0.87681061   -4.2913322    1582.8293  0.055514496  0.055572854            3 
 2377000   0.85776505    -4.267427    1588.9694  0.055706402  0.055560669            8 
 2378000    0.8639504   -4.3050422     1576.842  0.055257991   0.05554833           11 
 2379000   0.86229595   -4.2842005    1582.3665  0.055428277   0.05553594            3 
 2380000   0.86575487   -4.2999413    1582.9549  0.055425593  0.055523669            5 
 2381000   0.89529364   -4.2798909     1585.931  0.055506473  0.055511362            4 
 2382000   0.85626261   -4.2804927    1582.5573  0.055365145  0.055499047            3 
 2383000   0.87983262   -4.2593206    1580.7719  0.055279478   0.05548666            2 
 2384000   0.86887991   -4.2916663    1583.7379  0.055359965  0.055474266            6 
 2385000   0.87731971   -4.2665021    1577.4984  0.055118742  0.055461798            6 
 2386000   0.86828057   -4.2910495    1580.7179  0.055208084  0.055449289            4 
 2387000   0.86874945   -4.2978075    1585.8062  0.055362595  0.055436936            4 
 2388000   0.85861006   -4.2748977    1580.9445  0.055169756  0.055424361            6 
 2389000   0.88624249   -4.2721951    1590.3113  0.055473395  0.055411968            4 
 2390000   0.87595223   -4.2916411    1583.7209  0.055220395  0.055399376            2 
 2391000   0.85370932   -4.2545676    1582.0217  0.055138078  0.055386743            3 
 2392000   0.86574546   -4.2989302    1579.4948  0.055026994  0.055374141            4 
 2393000   0.88035625   -4.3003621    1592.1967  0.055446325  0.055361671            2 
 2394000   0.87416659    -4.288879    1584.7374  0.055163512  0.055349204            7 
 2395000   0.85996551   -4.2874757    1578.3498  0.054918224  0.055336544            3 
 2396000   0.86480086   -4.2998796    1581.5104  0.055005232  0.055323679            4 
 2397000    0.8396383   -4.2786317    1583.3999  0.055047974  0.055310892            2 
 2398000   0.85937255    -4.287903    1578.7576   0.05486369  0.055298083            7 
 2399000   0.87152539   -4.2980976     1581.088  0.054921773  0.055285163            3 
 2400000   0.87259439   -4.3007237    1582.9968  0.054965168  0.055272347            7 
 2401000   0.86776613   -4.2830042    1578.4222  0.054783499  0.055259541            3 
 2402000   0.88431358   -4.2771995    1584.6871  0.054978043  0.055246766            5 
 2403000   0.85631655    -4.281111    1583.0027   0.05489675  0.055234061            7 
 2404000   0.87327817   -4.2851813    1586.2846  0.054987682  0.055221279            3 
 2405000   0.85206175   -4.2830545    1585.4211  0.054934895  0.055208251            3 
 2406000   0.86718739   -4.2936157    1581.6292  0.054780728   0.05519535            9 
 2407000   0.84995981   -4.2904811     1584.834  0.054868925  0.055182447            2 
 2408000   0.86180117   -4.2851143    1582.3708  0.054760894  0.055169461            7 
 2409000   0.86665605   -4.2753306    1581.2114  0.054698056  0.055156556            4 
 2410000   0.87475532   -4.2991814    1579.5037   0.05461631  0.055143607            4 
 2411000   0.87895672   -4.2863426    1588.2354  0.054895459  0.055130751            3 
 2412000   0.88159291   -4.2902446    1584.2937  0.054736514  0.055117928            4 
 2413000   0.84984802   -4.2826188    1587.1888  0.054813813  0.055105197            6 
 2414000   0.86013486   -4.2664917    1591.5987  0.054943341  0.055092635            2 
 2415000   0.87137295   -4.2358115    1596.5207  0.055090431  0.055079893            7 
 2416000   0.87621486   -4.2985322    1591.3788  0.054890275  0.055067138            3 
 2417000   0.86881983   -4.2949344    1590.1346  0.054824665  0.055054499            4 
 2418000   0.84727034   -4.2826172    1593.7557  0.054926788  0.055042003            4 
 2419000   0.84766535   -4.2718757    1592.7419  0.054869156  0.055029478            6 
 2420000   0.84375491   -4.3141137    1588.0006  0.054683217   0.05501677            3 
 2421000   0.85792779   -4.2807649    1587.4539  0.054641812  0.055004017           11 
 2422000   0.84990268   -4.2876923    1591.9866  0.054775205  0.054991382            3 
 2423000   0.86794741   -4.2990893    1591.5978  0.054739228  0.054978831            3 
 2424000   0.84311325   -4.3115126    1591.7332  0.054721301  0.054966405            6 
 2425000   0.85892562   -4.2682637    1594.2206  0.054784214  0.054953911            4 
 2426000   0.85101241   -4.2969983    1590.7284  0.054641673  0.054941239            3 
 2427000   0.84412008   -4.2907898    1589.7227  0.054584628  0.054928647            3 
 2428000    0.8558416   -4.2912048     1593.314  0.054685407  0.054916166            8 
 2429000   0.86600962   -4.2884709    1595.4549  0.054736341   0.05490368            4 
 2430000   0.85084607   -4.3071189    1593.2206  0.054637194  0.054891082            5 
 2431000   0.84664612   -4.2653207    1601.1804  0.054887576  0.054878599            4 
 2432000     0.853774   -4.2901005    1597.5421   0.05474034  0.054865985            2 
 2433000   0.85500684   -4.2784269    1597.0098   0.05469961  0.054853169            2 
 2434000   0.86590386   -4.3112173     1596.314  0.054653314  0.054840763            3 
 2435000   0.85999465   -4.2955365    1593.7461  0.054542987  0.054828152            3 
 2436000   0.86219566   -4.3055705     1594.642  0.054551245  0.054815604            4 
 2437000   0.86277458   -4.2905531    1596.3318  0.054586643  0.054803045            1 
 2438000   0.86120347   -4.3068421    1594.6783  0.054507734  0.054790596            3 
 2439000   0.85403171   -4.2841036    1598.7936  0.054625993  0.054778114            4 
 2440000   0.84080581   -4.3126449    1598.7939  0.054603618  0.054765635            6 
 2441000   0.86628603   -4.3048264      1597.74  0.054545269  0.054753152            8 
 2442000   0.87262227   -4.3023331    1598.1398  0.054536576  0.054740729            6 
 2443000   0.85301315   -4.2742422    1604.7247  0.054738869  0.054728348            2 
 2444000   0.86191018   -4.2978749     1602.047  0.054625169  0.054716175            3 
 2445000   0.85333865   -4.2612752    1601.9614  0.054599913  0.054703842            3 
 2446000   0.85343274    -4.272084    1609.4817  0.054833802  0.054691521            3 
 2447000   0.86270917   -4.2890334    1601.2143  0.054529842  0.054679353            6 
 2448000   0.87766638   -4.3115642    1601.3344  0.054511657  0.054667022            6 
 2449000   0.85970292   -4.2889533    1605.8865  0.054644293  0.054654835            5 
 2450000   0.87168587   -4.2917671    1603.5011  0.054540852  0.054642547            4 
 2451000   0.84566253   -4.2960727    1602.7494  0.054493042  0.054630226            3 
 2452000   0.84634521   -4.3016476    1606.0104  0.054581647  0.054617827            5 
 2453000   0.84291892   -4.2948649    1607.8309  0.054621243  0.054605616            6 
 2454000   0.85502454   -4.3093897    1605.5662  0.054522081  0.054593366            3 
 2455000   0.86193673   -4.3003258    1606.9247  0.054545984  0.054581316            4 
 2456000   0.85130995   -4.3120224    1610.9061  0.054658865  0.054569216            4 
 2457000   0.86176856   -4.2869702    1608.1626  0.054543569  0.054557101            5 
 2458000   0.86832982   -4.2903118    1610.6959  0.054607267  0.054545071            3 
 2459000   0.84111759   -4.3066351    1610.9616  0.054594062  0.054532978            3 
 2460000   0.84525144   -4.2781762    1610.0208      0.05454  0.054520856            3 
 2461000   0.84245258   -4.3391463    1609.7414  0.054508377  0.054508776            4 
 2462000   0.86491263   -4.3213434    1610.3495   0.05450682  0.054496627            6 
 2463000   0.85951448    -4.328317    1606.0658  0.054339757  0.054484439            5 
 2464000   0.85244836   -4.2635818    1612.9987  0.054552175   0.05447228            3 
 2465000   0.84724101   -4.2783184     1613.043  0.054531543   0.05446023            2 
 2466000   0.85600349    -4.303945    1611.2102  0.054447493  0.054448048            3 
 2467000   0.86813856   -4.3003725     1615.155  0.054558674  0.054435944            6 
 2468000   0.84857426   -4.2992884    1614.4591  0.054513069  0.054423916            7 
 2469000    0.8434693   -4.2967462     1616.875  0.054572533  0.054412037            4 
 2470000    0.8419161   -4.2978595    1619.6929  0.054645511  0.054400022            3 
 2471000   0.87537002   -4.3377777     1609.442  0.054277688  0.054387988            3 
 2472000    0.8506117   -4.2859746    1616.0531  0.054478597  0.054376049            3 
 2473000   0.83087068    -4.292026    1613.3136  0.054364254  0.054364147            6 
 2474000   0.87388441   -4.3131987    1608.1877  0.054169621  0.054352047            3 
 2475000   0.87297675   -4.3244908    1616.6623  0.054433073  0.054340175            2 
 2476000   0.84530183   -4.2944085    1615.8021  0.054382137  0.054328293            2 
 2477000   0.84319597   -4.3251648    1616.7751  0.054392919  0.054316474            4 
 2478000   0.86949815   -4.3206527    1612.8862  0.054240188  0.054304483            4 
 2479000   0.85315277   -4.3298867    1617.1043  0.054360103  0.054292535            6 
 2480000   0.84518281   -4.3146657    1617.6134  0.054355289  0.054280662            3 
 2481000    0.8642713   -4.3143963    1615.9113  0.054276208  0.054268923            4 
 2482000   0.85406175   -4.3035444    1623.4241  0.054506584  0.054257349            3 
 2483000   0.83801461   -4.3006152    1625.2736  0.054546703  0.054245725            4 
 2484000   0.82844424   -4.3049192    1618.3997  0.054294139  0.054233984            8 
 2485000   0.85969456   -4.3234018    1618.1169  0.054262806  0.054222025            3 
 2486000    0.8587818   -4.3070134    1616.3398  0.054181409  0.054210272            3 
 2487000   0.85932086    -4.315435    1620.4882  0.054298625  0.054198414            4 
 2488000   0.85705221   -4.3257955    1619.4842  0.054243175  0.054186689            4 
 2489000   0.85148824   -4.3047973    1623.7469  0.054364099  0.054175021            2 
 2490000    0.8539592   -4.2840984    1623.3671  0.054329555  0.054163212            2 
 2491000   0.83728848   -4.3150026     1619.236  0.054169544  0.054151445            8 
 2492000   0.86830035   -4.3255347    1624.8559  0.054335737  0.054139718            9 
 2493000   0.84528691   -4.2814554    1625.4013  0.054332174  0.054127963            3 
 2494000   0.84613504    -4.318477    1621.5913  0.054183083  0.054116124            5 
 2495000   0.85657401   -4.2944373     1622.959  0.054207048  0.054104194            3 
 2496000   0.85110733   -4.3274843    1619.5641  0.054071986  0.054092371            3 
 2497000   0.84526988   -4.3338102    1616.9915  0.053964473   0.05408036            3 
 2498000   0.84674729   -4.3273252    1620.7006  0.054066605  0.054068514            2 
 2499000   0.85244955   -4.3119724    1626.2376   0.05422961  0.054056794            3 
 2500000   0.86874247   -4.3478337    1623.1105  0.054103684  0.054044991            2 
 2501000   0.83210301   -4.3393093    1623.6213  0.054099072  0.054033225            2 
 2502000   0.84736552   -4.3299122     1625.738  0.054147948  0.054021304            3 
 2503000    0.8501101   -4.2891445      1631.52  0.054318818  0.054009595            3 
 2504000   0.84188258   -4.3156089    1629.3585  0.054225189  0.053998062            2 
 2505000   0.85566413   -4.3348458    1623.0332  0.053993122  0.053986297            3 
 2506000   0.84840673   -4.3127679    1628.9797  0.054169316  0.053974555            6 
 2507000   0.84840491   -4.3266857    1628.1894   0.05412144  0.053962678            4 
 2508000   0.84444355    -4.286199    1632.1767  0.054232347  0.053950932            2 
 2509000   0.84350743   -4.3033998    1626.6969  0.054028726  0.053939301            4 
 2510000    0.8363502   -4.3400861    1623.9245  0.053915155  0.053927491            3 
 2511000    0.8529645   -4.3456423      1626.35  0.053974179   0.05391556            2 
 2512000   0.84350331   -4.3270487    1623.1847  0.053847688  0.053903632            6 
 2513000   0.84630854   -4.3076638    1628.7359  0.054010344  0.053891724           11 
 2514000   0.85335271   -4.3030755    1628.8165   0.05399153  0.053879901            6 
 2515000    0.8487544   -4.3170414    1625.3471  0.053855106  0.053868166            4 
 2516000   0.86069812   -4.3399193    1627.0536  0.053890222  0.053856278            4 
 2517000   0.85689923   -4.3180175    1625.7569   0.05382588  0.053844521            3 
 2518000   0.82385843    -4.327705    1629.1509   0.05391683  0.053832721            5 
 2519000   0.85686046    -4.343455    1629.6919  0.053913323  0.053820932            6 
 2520000   0.85107075   -4.2794361    1629.2899  0.053878634  0.053809235            4 
 2521000   0.85632119    -4.320109    1631.2635    0.0539225  0.053797634            7 
 2522000   0.84926832   -4.3367977    1630.4269  0.053873477  0.053785925            4 
 2523000   0.85257119   -4.2935449    1631.1403  0.053875686  0.053774169            5 
 2524000    0.8401749   -4.3448621    1629.5937  0.053803277  0.053762359            4 
 2525000   0.84569471   -4.2948138     1635.511  0.053977262  0.053750504            2 
 2526000   0.85185704   -4.3340797    1634.0872  0.053908921  0.053738669            3 
 2527000   0.83785941   -4.3050705    1631.0429  0.053787195  0.053726832            7 
 2528000   0.84172332    -4.310266    1638.0885  0.053998169  0.053715096            4 
 2529000   0.86021957   -4.3664803     1632.945  0.053807336  0.053703248            7 
 2530000   0.84659671   -4.3431469    1633.2869  0.053797329   0.05369141            1 
 2531000   0.84485917   -4.3484166    1633.1711  0.053772261  0.053679643            5 
 2532000   0.84772099   -4.3242292    1636.4127   0.05385771  0.053667972            3 
 2533000   0.81900981    -4.335862    1632.6966  0.053714192  0.053656108            8 
 2534000   0.85531363    -4.336771    1633.4909  0.053719117  0.053644295            6 
 2535000   0.85509512   -4.3374533    1636.7849  0.053806209  0.053632377           17 
 2536000   0.83680247   -4.3308226    1633.5695  0.053679334  0.053620542            4 
 2537000   0.84382067   -4.3144192    1642.4032  0.053948337  0.053608766            3 
 2538000   0.84010701   -4.3008237     1637.468  0.053765039  0.053597005            8 
 2539000   0.84068534   -4.3111092    1636.6488  0.053716976  0.053585186            3 
 2540000   0.83983136   -4.3399158      1635.38    0.0536542  0.053573363            5 
 2541000   0.84356572   -4.3211928    1637.7681  0.053711403  0.053561427            7 
 2542000   0.84759939   -4.3189825    1630.9948  0.053468227  0.053549546            4 
 2543000   0.82700203   -4.3212426    1639.1809  0.053715457   0.05353777            5 
 2544000   0.83414081   -4.3108874    1642.0533  0.053788432  0.053526139            3 
 2545000   0.83390438   -4.3147532    1642.3847   0.05377815  0.053514418            4 
 2546000   0.85656776   -4.3253408    1644.6014  0.053829581  0.053502559            4 
 2547000   0.83870665   -4.3646421    1637.3386  0.053570822  0.053490945            3 
 2548000   0.85464313   -4.3424726    1643.9666  0.053766569  0.053479086            6 
 2549000   0.85098597   -4.3315958    1639.4724  0.053598549   0.05346743            4 
 2550000   0.82679414   -4.3165757    1644.1357  0.053729925  0.053455938           10 
 2551000   0.85661801   -4.3273804    1643.4034  0.053684941  0.053444432            8 
 2552000   0.85698293   -4.3131677    1650.6364  0.053900093  0.053432866            6 
 2553000   0.84947519   -4.3250892    1640.9454  0.053562651  0.053421168            8 
 2554000   0.84334702   -4.3345501    1640.8128  0.053537354  0.053409429            8 
 2555000   0.83356089   -4.2991778     1634.186  0.053300261   0.05339771            4 
 2556000   0.85551672   -4.3360797    1643.0432  0.053568178  0.053386023            5 
 2557000   0.83543846   -4.3315323     1648.024  0.053709555   0.05337432            5 
 2558000    0.8403647   -4.3010253    1645.4438  0.053604501  0.053362811            5 
 2559000   0.84799882   -4.3269591    1640.5341  0.053423671  0.053351129            5 
 2560000    0.8539636   -4.3239237    1648.4496  0.053660468  0.053339514            4 
 2561000   0.82615945   -4.3437327    1641.5988  0.053416594  0.053327978            7 
 2562000   0.85820587    -4.315656    1649.1568  0.053641582  0.053316437            7 
 2563000    0.8394671   -4.3031519    1645.2868  0.053494823  0.053304973            4 
 2564000   0.83638865   -4.3379386    1653.5857  0.053743685  0.053293578           12 
 2565000   0.82822423   -4.3282817    1651.3674  0.053650663  0.053282318            5 
 2566000   0.85885802   -4.3024891    1651.8433  0.053645211  0.053270945            3 
 2567000    0.8436335   -4.3458358    1643.5531  0.053355184  0.053259611            3 
 2568000   0.83888043   -4.3450177    1650.0125  0.053544019  0.053248124            3 
 2569000   0.83423595   -4.3481935    1644.4371  0.053342324  0.053236712            5 
 2570000   0.81943992    -4.331613    1652.2738  0.053575675  0.053225279            4 
 2571000   0.84344499   -4.3453713    1645.2338  0.053326651  0.053213866            5 
 2572000   0.82392956    -4.344789    1654.6382  0.053610622  0.053202394            4 
 2573000   0.84168599   -4.3546597    1648.0596  0.053376718   0.05319096           10 
 2574000   0.82199218   -4.3384648    1650.3915  0.053431479  0.053179429           13 
 2575000   0.83455067   -4.3304122    1645.2295  0.053243673  0.053167826            5 
 2576000   0.85604901   -4.3432359    1651.5573  0.053427707  0.053156376            9 
 2577000   0.83266023     -4.34265    1653.1008  0.053456887  0.053144975            4 
 2578000   0.83524516   -4.3303282    1656.0128  0.053530282  0.053133695            9 
 2579000    0.8327356   -4.3281551    1655.0225  0.053477528  0.053122386            2 
 2580000   0.84352134   -4.3330947    1655.6774  0.053477951  0.053111098            4 
 2581000   0.83341659   -4.3479408    1655.7308  0.053458958  0.053099687            5 
 2582000   0.83286942   -4.3442011    1658.3311  0.053522176  0.053088364            9 
 2583000   0.84741428   -4.3343149    1654.4202  0.053375282  0.053077117            5 
 2584000   0.85057878   -4.3467898    1651.5105  0.053260789  0.053065822            6 
 2585000   0.85153569   -4.3529581     1652.792  0.053281496  0.053054552            6 
 2586000   0.83695302   -4.3405393    1655.6304  0.053352359  0.053043277            4 
 2587000   0.83564525   -4.3683462    1658.1471  0.053412805   0.05303204            7 
 2588000   0.83982389   -4.3510016    1656.0283  0.053323941  0.053020826            3 
 2589000   0.83847554    -4.332978    1654.9774  0.053269519  0.053009688            8 
 2590000   0.82374459   -4.3455154    1658.8756  0.053374374  0.052998421            4 
 2591000   0.84319719   -4.3376183    1657.9686  0.053324605  0.052987211            6 
 2592000   0.82287829   -4.3567826    1660.1144   0.05337302   0.05297606            9 
 2593000   0.83643636   -4.3348794    1660.1642  0.053354036  0.052964934            2 
 2594000   0.83870556   -4.3631353    1658.2927  0.053273345  0.052953826            3 
 2595000   0.83914549   -4.3479329    1655.8971  0.053175886  0.052942598           11 
 2596000   0.83852311   -4.3597483    1659.9184  0.053284491  0.052931411            7 
 2597000   0.84468722   -4.3620226    1658.5366  0.053219633  0.052920181            3 
 2598000   0.84836145   -4.3180767    1664.0322  0.053375423  0.052909046            5 
 2599000    0.8350263   -4.3590984    1660.3275  0.053236102  0.052897827            5 
 2600000    0.8490173    -4.366807    1660.4667  0.053220086  0.052886409            2 
 2601000   0.82213129   -4.3590155    1659.6333  0.053172925  0.052875069            3 
 2602000   0.83465957   -4.3255994     1662.798  0.053253842  0.052863867            5 
 2603000   0.82886251   -4.3344234    1663.8997  0.053268656  0.052852607            5 
 2604000   0.83772164   -4.3717361     1658.023  0.053060132  0.052841209            5 
 2605000   0.85484315     -4.34303    1659.2049  0.053077572  0.052829892           10 
 2606000    0.8330726   -4.3282462    1662.1544  0.053151521  0.052818488            4 
 2607000   0.84747652   -4.3484779    1657.2366  0.052973937  0.052807118            6 
 2608000   0.83665612   -4.3399188    1662.9689  0.053136787  0.052795759            7 
 2609000   0.82461989   -4.3400662     1660.451  0.053035998  0.052784402            4 
 2610000   0.82964105   -4.3720844    1657.2844  0.052914573  0.052772985            4 
 2611000   0.84611262   -4.3246624    1662.0882  0.053047626  0.052761577            3 
 2612000    0.8314586   -4.3188654    1666.9947  0.053183854  0.052750219            5 
 2613000    0.8332405   -4.3297305    1662.3862  0.053016528  0.052738798            3 
 2614000   0.83560866   -4.3257605    1666.0789  0.053113968  0.052727442            5 
 2615000   0.84279739   -4.3499333    1663.2309  0.053002897  0.052715933            5 
 2616000    0.8562931   -4.3379264    1662.3631  0.052954991  0.052704468            3 
 2617000   0.81753895   -4.3231096    1663.8504  0.052982118  0.052693006            6 
 2618000   0.82859686   -4.3658547    1655.1955  0.052686385  0.052681455            3 
 2619000   0.84610414    -4.359489    1660.1996  0.052825494  0.052669836            5 
 2620000   0.83824364   -4.3191649     1662.376  0.052874553  0.052658244            3 
 2621000   0.86286501   -4.3645575     1661.243  0.052818357  0.052646572            4 
 2622000   0.83728427   -4.3735977    1663.5157  0.052870445  0.052634977            3 
 2623000    0.8309879   -4.3649757    1663.0977  0.052837008  0.052623327            6 
 2624000   0.82412805   -4.3536033    1662.3839  0.052794203  0.052611799            4 
 2625000   0.85201895   -4.3382511    1667.2305  0.052927953   0.05260034            3 
 2626000   0.83137475   -4.3302342    1669.0946  0.052966952  0.052589008            5 
 2627000   0.81661877   -4.3638178    1666.4951  0.052864329  0.052577605            2 
 2628000   0.83048835   -4.3575497    1667.2578  0.052868397  0.052566218            2 
 2629000    0.8355635   -4.3468978    1671.2589  0.052975115  0.052554743            5 
 2630000    0.8089544   -4.3319903    1669.9157  0.052912411  0.052543386            6 
 2631000   0.82048801   -4.3601898    1666.5694  0.052786312  0.052532003            5 
 2632000   0.82512443   -4.3270282    1668.2714  0.052820144  0.052520616            4 
 2633000   0.84086159   -4.3530072     1668.524  0.052808076  0.052509208            7 
 2634000   0.82850285   -4.3569944    1669.5111  0.052819258  0.052497696            9 
 2635000   0.82507469   -4.3652381    1665.9435  0.052686386  0.052486274            4 
 2636000   0.81888103   -4.3242164    1662.8784    0.0525695  0.052474752            4 
 2637000   0.84912585   -4.3813674    1667.2794  0.052688642  0.052463106            5 
 2638000   0.82571977   -4.3530364    1668.8952  0.052719713  0.052451466            4 
 2639000   0.80500437   -4.3477921     1667.681  0.052661392  0.052439889            3 
 2640000   0.81714934   -4.3854402    1668.8115  0.052677131   0.05242833            4 
 2641000   0.86011936   -4.3540934    1667.5131  0.052616215  0.052416781            4 
 2642000   0.83699369   -4.3732983    1670.1581  0.052679727   0.05240526            3 
 2643000   0.83477068   -4.3500817    1672.0799   0.05272039  0.052393774            4 
 2644000   0.84227925   -4.3469077    1668.9272  0.052601083  0.052382339            4 
 2645000   0.82686769   -4.3297371    1670.9307   0.05264432  0.052370789            4 
 2646000   0.83423401   -4.3521938    1667.2558  0.052508685   0.05235918            3 
 2647000   0.82987672   -4.3544239     1671.509   0.05262275  0.052347626            3 
 2648000   0.82808113   -4.3610024    1672.9626  0.052648622  0.052336189            3 
 2649000   0.86025359   -4.3841213    1667.1258   0.05244513  0.052324722            5 
 2650000   0.81255163    -4.368423    1668.7844  0.052477497  0.052313175            7 
 2651000   0.82882527    -4.339745    1673.6292  0.052609995  0.052301749            4 
 2652000   0.83508128   -4.3686261    1672.4241  0.052552289  0.052290267            7 
 2653000   0.80867798     -4.36202    1670.2309  0.052463592  0.052278819            4 
 2654000   0.83164492   -4.3554125    1669.7311   0.05242813  0.052267452            4 
 2655000   0.83441375   -4.3559441    1672.2692  0.052488048  0.052255913            6 
 2656000   0.84457605   -4.3508549    1671.9888  0.052459489  0.052244486            7 
 2657000   0.81508675    -4.378878    1678.2843  0.052637193  0.052232918            2 
 2658000   0.82046077   -4.3628155    1676.2345  0.052553126  0.052221411            4 
 2659000   0.82729616   -4.3854723    1674.0546  0.052465043  0.052209953            5 
 2660000   0.83076403   -4.3536824    1672.2743  0.052389545  0.052198387            2 
 2661000   0.81570672   -4.3604957    1677.9685  0.052548181  0.052187031            6 
 2662000   0.83090953   -4.3665691    1676.6987   0.05248869  0.052175637            1 
 2663000   0.82447624   -4.3851165    1670.2108  0.052265955  0.052164138            8 
 2664000   0.83771395   -4.3721528    1676.4982  0.052443013  0.052152479            3 
 2665000   0.82479209    -4.364757    1674.8297  0.052371159  0.052140778            4 
 2666000   0.83494871   -4.3757625    1672.1641  0.052268196  0.052129161            4 
 2667000   0.81995885   -4.3732028    1672.1699  0.052248779  0.052117631            8 
 2668000   0.82172575   -4.3665101    1677.0671  0.052382156  0.052106082            9 
 2669000   0.82316197   -4.3523932    1674.3591  0.052277977  0.052094612            6 
 2670000    0.8245584   -4.3651405    1674.4409  0.052260952  0.052083083            4 
 2671000   0.82439231   -4.3669434    1674.9601  0.052257586  0.052071428           10 
 2672000    0.8264163   -4.3821564    1676.6057  0.052289348  0.052059836            4 
 2673000   0.82279598   -4.3827141     1678.751  0.052336669  0.052048348           10 
 2674000   0.83011337   -4.3358269    1682.1476   0.05242295  0.052036946            5 
 2675000   0.83316313   -4.3510883    1673.1658  0.052123544  0.052025345            3 
 2676000   0.81541595   -4.3539557    1680.2434  0.052324471  0.052013774            3 
 2677000   0.82550986   -4.3813311    1670.3756  0.051997746  0.052002199            6 
 2678000   0.82656643   -4.3721706     1674.264  0.052099327  0.051990525            3 
 2679000   0.83695021   -4.3803292    1677.3679  0.052176432   0.05197902            6 
 2680000   0.82931919   -4.3659647    1681.7701  0.052293846  0.051967486            5 
 2681000   0.82315063   -4.3672974    1679.1732  0.052193621  0.051955875            6 
 2682000   0.80956499   -4.3581793    1682.2271  0.052269049  0.051944402            5 
 2683000   0.83051607   -4.3446445    1686.2943  0.052375894   0.05193301            3 
 2684000   0.82572014   -4.3638717    1685.0276  0.052317053  0.051921721            6 
 2685000   0.82829773   -4.3919603    1679.7285  0.052133101   0.05191031            4 
 2686000   0.80656233   -4.3751772    1681.5537  0.052170317  0.051898939            6 
 2687000   0.83270782   -4.3800511    1677.9942  0.052040509  0.051887552            6 
 2688000   0.81776106   -4.3752971    1685.1097  0.052241744  0.051876211            6 
 2689000   0.82783592   -4.3641499    1680.3492  0.052074786  0.051864895            9 
 2690000   0.82289475   -4.3776715    1677.6644  0.051972256  0.051853459            5 
 2691000   0.82082916   -4.3680714    1687.2616  0.052250142  0.051842122           21 
 2692000   0.79627127   -4.3455193    1683.4459  0.052112614   0.05183076            3 
 2693000   0.83918397   -4.3609332    1682.5639  0.052065972  0.051819435            5 
 2694000   0.82161692   -4.3808043    1685.9323  0.052150837  0.051808159            8 
 2695000   0.81759125   -4.4031598     1683.096  0.052043785  0.051796797            3 
 2696000   0.81567361   -4.3522434     1680.919   0.05195719  0.051785491           10 
 2697000   0.81506425   -4.3587189    1687.8256   0.05215133  0.051774207            3 
 2698000   0.83590402   -4.3572404    1690.8954  0.052226816  0.051762947            3 
 2699000   0.82032961     -4.36792    1685.1911  0.052031341  0.051751697            9 
 2700000   0.81576289   -4.3471352    1686.7441  0.052060002  0.051740329            4 
 2701000   0.83027002   -4.3552891     1692.041  0.052204152  0.051729083            3 
 2702000   0.81016867   -4.3503221    1689.3873  0.052102988  0.051717866            5 
 2703000   0.82756315   -4.3762779    1689.4574  0.052085875  0.051706822            4 
 2704000   0.82465321   -4.3708341     1690.335  0.052093658  0.051695665            5 
 2705000   0.82547792   -4.3589717    1689.3022   0.05204258  0.051684531            4 
 2706000    0.8125474   -4.3438072    1691.4906  0.052090742  0.051673266            4 
 2707000   0.82212263   -4.3710492    1690.6003  0.052044093  0.051662002            5 
 2708000   0.81903284   -4.3949516    1686.3765  0.051894895  0.051650898            6 
 2709000   0.81303339   -4.3736342    1686.6521  0.051884215  0.051639615            3 
 2710000   0.82883417   -4.3943831    1688.4298  0.051919734  0.051628195            3 
 2711000   0.82965928   -4.3826285    1692.9318  0.052038971  0.051616939            7 
 2712000   0.81478809   -4.3739549    1687.7519  0.051860616  0.051605603            3 
 2713000   0.81157605   -4.3670701    1691.0794  0.051943708  0.051594408            6 
 2714000   0.81377319   -4.3806285    1690.8247  0.051916751  0.051583328            6 
 2715000   0.82685778   -4.3988264    1684.3459   0.05169877  0.051572023            4 
 2716000   0.81891275   -4.3782651    1691.6731  0.051904549  0.051560751            7 
 2717000    0.8098263   -4.3619092     1691.528  0.051880995  0.051549495            3 
 2718000   0.81694877   -4.3576775    1691.3541  0.051856578  0.051538268            4 
 2719000   0.81003184   -4.3702798    1690.9454  0.051824978  0.051526914            2 
 2720000   0.81693633   -4.4005971     1687.136  0.051689217  0.051515598            3 
 2721000   0.81716604   -4.3828965    1691.2547  0.051796359  0.051504147            2 
 2722000   0.79779673   -4.3881069    1691.4584  0.051783567  0.051492784           32 
 2723000   0.80968863   -4.3884071    1691.7436  0.051773278  0.051481493            5 
 2724000   0.81987735   -4.3467332    1698.8256  0.051970926  0.051470302            5 
 2725000   0.78623323   -4.3892317    1690.1935  0.051687874  0.051459037            5 
 2726000   0.80905569   -4.3572285    1698.0946  0.051910448  0.051447849            2 
 2727000   0.82516882   -4.3916086    1697.9584  0.051887252   0.05143655            7 
 2728000   0.82943213   -4.3968855    1696.4847  0.051823212  0.051425418            4 
 2729000   0.81841472   -4.3609171    1696.7905  0.051813561  0.051414286            4 
 2730000   0.81298062   -4.3822288    1693.9831  0.051708886  0.051403115            4 
 2731000   0.79325469   -4.3607021     1700.105  0.051876754  0.051391993            9 
 2732000   0.80254258   -4.3870702    1700.4478  0.051868222  0.051380901            9 
 2733000   0.82396613     -4.38958    1702.6418  0.051916142  0.051369714            3 
 2734000   0.82564528   -4.4089393    1695.1021   0.05166734  0.051358561            4 
 2735000   0.81505031   -4.3695477    1692.9212  0.051581999  0.051347394            3 
 2736000   0.81413597   -4.4055096     1694.132  0.051600025  0.051336083            3 
 2737000    0.8277539   -4.3957421    1689.5202  0.051440756  0.051324922            5 
 2738000   0.80839166   -4.3950061    1694.4965  0.051573426  0.051313624            5 
 2739000    0.8010222   -4.3815344    1699.2395  0.051698902  0.051302212            5 
 2740000   0.81743832   -4.3588962    1702.9146  0.051791807   0.05129107            4 
 2741000   0.81173393   -4.3769874    1699.3623  0.051664911   0.05127995            6 
 2742000   0.81153844   -4.3906038    1692.4032  0.051434573  0.051268773            6 
 2743000   0.80512995   -4.3711072    1702.7823  0.051731143  0.051257667            7 
 2744000   0.81642351   -4.4166271    1697.0877  0.051539348  0.051246412            9 
 2745000   0.81703802   -4.4011826    1696.2415  0.051494884  0.051235198            5 
 2746000    0.8329609   -4.3979585    1698.5887  0.051547363  0.051223984            4 
 2747000   0.81930363   -4.4058176    1700.4228  0.051584239  0.051212774            4 
 2748000   0.80711898   -4.3692522    1702.8426  0.051638845  0.051201437            8 
 2749000     0.813054   -4.4091862    1697.7726   0.05146637   0.05119014            5 
 2750000   0.81037694   -4.3755372    1694.3365   0.05134353  0.051178909            3 
 2751000   0.81680942   -4.3928674    1698.2568  0.051443621  0.051167578            5 
 2752000   0.83229833   -4.3884038    1701.4279  0.051520952  0.051156272            4 
 2753000   0.81693718   -4.3902474    1696.9645  0.051367131  0.051144938            8 
 2754000   0.81740835   -4.3749118    1697.8066   0.05137396  0.051133682            5 
 2755000   0.81337327   -4.3853744    1704.3304  0.051552645  0.051122342            3 
 2756000   0.80672043   -4.3658717    1703.3257  0.051503559  0.051111117            5 
 2757000     0.790552   -4.3572251    1705.9211  0.051563327  0.051099947            3 
 2758000   0.82695186   -4.3885472    1698.6595  0.051325222   0.05108883            5 
 2759000    0.8198813    -4.390049    1706.8216  0.051553148  0.051077634           11 
 2760000   0.82194191   -4.3588077    1701.3905  0.051370485   0.05106639            4 
 2761000   0.82064198   -4.3821781    1702.9537  0.051399061  0.051055113            3 
 2762000   0.81443007   -4.3781775    1704.9144   0.05143961  0.051043882            5 
 2763000   0.81170369   -4.4038809     1700.408  0.051285078  0.051032624            7 
 2764000    0.8130418   -4.3701144    1707.3352  0.051475374  0.051021241            2 
 2765000   0.78993516   -4.3897842    1701.9222  0.051293617  0.051009988           10 
 2766000   0.78497223   -4.3954904     1703.429  0.051320468  0.050998699            3 
 2767000   0.80302848   -4.3926003    1703.6963  0.051309972  0.050987368            6 
 2768000   0.82184669   -4.4076556    1700.0779    0.0511825  0.050976044            5 
 2769000   0.80835797   -4.3604239    1705.7406  0.051334435  0.050964779            6 
 2770000   0.82027573   -4.3953413    1701.7367  0.051195449   0.05095344           17 
 2771000    0.8085843   -4.3903681    1704.3155  0.051254526  0.050942055            5 
 2772000   0.80791216   -4.3679823    1699.6679  0.051096318   0.05093068            3 
 2773000   0.83325152   -4.3902758    1705.4853  0.051252714  0.050919221            6 
 2774000   0.81062123   -4.3809169    1705.6233  0.051238384  0.050907769            5 
 2775000    0.8108733   -4.3807114    1704.9124   0.05119857  0.050896488            5 
 2776000   0.78835083   -4.4070514    1704.9137  0.051180167  0.050885101            5 
 2777000   0.81261072   -4.4021922    1700.3541   0.05102491   0.05087367            7 
 2778000   0.81266763   -4.3970998    1705.6615  0.051165752   0.05086222            4 
 2779000    0.8089234   -4.3920508    1703.6649  0.051087468  0.050850777            4 
 2780000   0.81408752   -4.3892192    1706.6167  0.051157576  0.050839356            4 
 2781000   0.82668902    -4.382213    1709.3519   0.05122114  0.050828024            3 
 2782000    0.8184431   -4.3795458    1708.6665  0.051182197  0.050816735            5 
 2783000   0.78319945   -4.3955868    1704.2529  0.051031646  0.050805522            3 
 2784000   0.79039603   -4.4089421    1702.6127   0.05096422  0.050794118            4 
 2785000   0.79168965   -4.3790974    1706.2853  0.051055814  0.050782826            5 
 2786000   0.80305385   -4.3763268    1712.4894  0.051223063  0.050771587            4 
 2787000     0.812825   -4.3666742    1710.3845  0.051141744  0.050760284            5 
 2788000   0.81822774   -4.3953263    1709.9225  0.051109591  0.050749044            4 
 2789000   0.81596204   -4.3941801    1705.5714  0.050961259  0.050737668            3 
 2790000   0.79928485   -4.3952453    1707.0839   0.05098817  0.050726237            4 
 2791000   0.80948059   -4.4019673     1710.171  0.051062074    0.0507149            5 
 2792000   0.81020518   -4.3787599    1712.7315  0.051120211  0.050703638            6 
 2793000   0.80015212   -4.3712945     1710.496  0.051035208  0.050692289            6 
 2794000    0.7970962   -4.3803859    1703.7342  0.050815264  0.050681013            9 
 2795000   0.80130719   -4.3944991    1713.8485  0.051098643  0.050669766           10 
 2796000   0.80247262   -4.4132989    1708.8856  0.050932452  0.050658309            6 
 2797000    0.7922881   -4.3939136    1707.9096  0.050885162  0.050646981            2 
 2798000   0.77724542   -4.4007671    1711.7523  0.050981423  0.050635594            7 
 2799000   0.80897989   -4.4212071    1710.1597  0.050915793  0.050624375            4 
 2800000   0.79262599   -4.4083811    1707.4755  0.050817724  0.050612949            5 
 2801000   0.80728026   -4.3729114    1714.3077  0.051002847  0.050601623            4 
 2802000   0.80330443    -4.397385    1707.4547  0.050780833  0.050590326            6 
 2803000    0.8023978   -4.4142012    1710.4179  0.050850811  0.050578964            7 
 2804000   0.79620965     -4.41268    1706.9945  0.050730936  0.050567661            3 
 2805000   0.79703404   -4.4202897    1704.2481  0.050631257  0.050556338            7 
 2806000   0.79962168   -4.4057282    1706.6022  0.050683127  0.050544946            4 
 2807000   0.81823279   -4.4204628    1710.5873  0.050783377  0.050533488           15 
 2808000   0.80175417   -4.3902271    1712.2373   0.05081426  0.050521942            6 
 2809000   0.79559932   -4.3827457    1709.1471  0.050704495   0.05051051            3 
 2810000   0.80927571   -4.4097816    1711.3711  0.050752405  0.050499019            4 
 2811000   0.79170399    -4.400213     1713.338  0.050792658  0.050487505            6 
 2812000   0.78133494   -4.4052838    1711.6032  0.050723186  0.050476063            3 
 2813000   0.79202784   -4.4247143    1707.0095   0.05056907  0.050464584            5 
 2814000   0.81623541   -4.4244122    1708.1963  0.050586243   0.05045317            4 
 2815000   0.81036297   -4.4048491    1712.5014   0.05069572  0.050441846            5 
 2816000   0.79559657   -4.4110888    1711.7873  0.050656584  0.050430437            8 
 2817000   0.81154585   -4.4257441    1709.7612  0.050578666  0.050418964            5 
 2818000   0.78961677   -4.4101893    1716.1126   0.05074854  0.050407489           10 
 2819000   0.79089953   -4.4080253    1712.2512  0.050616389  0.050396176            4 
 2820000   0.81660729   -4.4084274    1719.9937  0.050827237  0.050384886            4 
 2821000   0.81852099   -4.4264205    1715.3141  0.050670982  0.050373533            3 
 2822000   0.79395444   -4.4106253    1716.6646  0.050692908  0.050362132           10 
 2823000   0.80236552   -4.4041734    1717.3786  0.050696027  0.050350704            3 
 2824000   0.81152688   -4.3838062    1716.1398  0.050641518  0.050339339            8 
 2825000   0.80168081   -4.4126914    1716.6328  0.050638135  0.050327871            5 
 2826000   0.82088965   -4.3873289    1715.8507  0.050597155  0.050316452            7 
 2827000   0.79331524   -4.4262372    1715.4996  0.050568907  0.050304988            3 
 2828000   0.81324488   -4.4469257    1711.0194  0.050419005   0.05029349            6 
 2829000   0.79867594   -4.4269647    1709.3318  0.050351472  0.050282014            3 
 2830000   0.78579609   -4.3936325    1719.0074  0.050618593  0.050270533            7 
 2831000   0.79417935   -4.3941484    1716.6808  0.050532228  0.050259041            5 
 2832000   0.81833814   -4.4474238    1709.6644  0.050307921  0.050247475            8 
 2833000   0.78777344   -4.4210249    1713.0663  0.050390232  0.050235873            3 
 2834000    0.8045233    -4.418224    1715.0604  0.050431086  0.050224281            9 
 2835000   0.79042727   -4.3976579    1719.0695  0.050531144  0.050212857            3 
 2836000   0.78457161   -4.3952206    1719.7037  0.050531961  0.050201385            2 
 2837000   0.79980814   -4.4089022    1717.9215  0.050461798   0.05019002            3 
 2838000   0.79038323    -4.391562     1720.914  0.050531889  0.050178633            5 
 2839000   0.79892087   -4.4243396    1712.6514  0.050271556   0.05016719            6 
 2840000   0.79338181   -4.4246613     1720.197  0.050475264  0.050155805            5 
 2841000   0.82408107   -4.4283923    1715.4375  0.050317891  0.050144482            4 
 2842000   0.79680732   -4.4022088    1718.8385  0.050399911   0.05013304           12 
 2843000   0.80714707   -4.4143986    1715.7561   0.05029183  0.050121606            4 
 2844000   0.79179635   -4.4157194    1722.8152  0.050480988  0.050110203            4 
 2845000   0.79771468   -4.4144769    1722.7126  0.050460241  0.050098862           11 
 2846000   0.80706815   -4.3803112    1724.6965  0.050500601  0.050087616            9 
 2847000   0.78754862   -4.4360006    1717.3393  0.050267514  0.050076256            4 
 2848000   0.81643982   -4.4234629    1717.0763  0.050242166  0.050064916            6 
 2849000   0.79078506   -4.4258381    1718.5377  0.050267279  0.050053649            4 
 2850000   0.79296504   -4.3895266     1720.201  0.050298274  0.050042256            7 
 2851000   0.79884783   -4.4193721    1721.7185  0.050324987  0.050031141            3 
 2852000   0.79057342   -4.4067529    1724.9606  0.050402076   0.05001993            8 
 2853000   0.81406714   -4.4176143     1726.271  0.050422685  0.050008691            5 
 2854000   0.80836221   -4.4054208    1724.7507  0.050360627  0.049997455            4 
 2855000   0.79732966   -4.4437534    1723.9833  0.050320587  0.049986233            6 
 2856000   0.79341297    -4.433038    1723.6455  0.050293111  0.049974991            3 
 2857000   0.79047049   -4.4081709    1726.0786  0.050346475  0.049963924            4 
 2858000   0.81381403   -4.4305589    1723.8823  0.050264821  0.049952829            5 
 2859000   0.80292578   -4.4342168    1726.4313  0.050321536  0.049941611            4 
 2860000   0.78204982   -4.4128317    1731.9278  0.050464098  0.049930451           13 
 2861000   0.78971263   -4.4212052    1723.8514  0.050211215  0.049919319            5 
 2862000   0.80464002    -4.416888    1727.4796  0.050299312  0.049908194            3 
 2863000   0.79073336   -4.4049195    1726.0964  0.050241484  0.049897038            5 
 2864000   0.78709642   -4.4419712    1728.4092  0.050291237  0.049885881           12 
 2865000   0.79086756   -4.4070966    1731.4745  0.050362842  0.049874831            5 
 2866000   0.79634711    -4.433277    1725.6201  0.050175043  0.049863844            6 
 2867000   0.78340307   -4.4307349     1733.612  0.050389839   0.04985281            5 
 2868000   0.78359301   -4.4158655    1732.5597  0.050341694  0.049841846            7 
 2869000   0.77879128   -4.4274304    1730.3638  0.050260362  0.049830935            6 
 2870000   0.79688019   -4.4049032    1732.8374  0.050314676  0.049819959            5 
 2871000   0.78855982   -4.4147376    1738.9266  0.050473895  0.049809072            5 
 2872000   0.80158642   -4.4061724     1738.305  0.050438284  0.049798273            5 
 2873000   0.77855113   -4.4563153    1730.6956  0.050200011  0.049787404            3 
 2874000    0.8071883   -4.4100763    1733.0652  0.050251251  0.049776421            4 
 2875000    0.7875888   -4.4585289    1728.8863  0.050112648  0.049765509            4 
 2876000   0.79599146   -4.4475024    1728.4436  0.050082394  0.049754496            5 
 2877000   0.78481848   -4.4276339    1736.1558  0.050288374  0.049743663            9 
 2878000   0.78405465   -4.4057936    1738.5277  0.050339578  0.049732832            3 
 2879000   0.78930762   -4.4213626    1735.3632  0.050230495  0.049722046            3 
 2880000   0.79044661   -4.4508265    1730.7853  0.050080594  0.049711156            3 
 2881000   0.78809709    -4.456062     1729.839  0.050035838  0.049700207            2 
 2882000   0.79677452   -4.4055434    1736.2168  0.050202891  0.049689245            6 
 2883000   0.80515536   -4.4211136    1738.0455  0.050238336  0.049678369            3 
 2884000   0.78715334   -4.4294477    1731.1587  0.050021924  0.049667489           21 
 2885000   0.80123088   -4.4196421     1734.993  0.050115337  0.049656588            5 
 2886000   0.78028608    -4.406542    1734.9347   0.05009629  0.049645656            7 
 2887000   0.78036668   -4.4184652    1731.9782  0.049993597  0.049634649            3 
 2888000   0.79863914   -4.4274279    1739.7859  0.050201579  0.049623743            3 
 2889000   0.78656959   -4.4305384    1742.7656  0.050270152  0.049612902            4 
 2890000   0.77972825   -4.4260209    1741.5291  0.050217102  0.049602012            5 
 2891000   0.78096897   -4.4148584    1734.6801   0.05000231  0.049591289            5 
 2892000   0.80094849   -4.4470388    1732.8024  0.049930914  0.049580436            4 
 2893000   0.77069648   -4.4503934     1737.144  0.050038714  0.049569534            5 
 2894000   0.79509894   -4.4140997    1744.3187  0.050228021  0.049558661            6 
 2895000   0.77741541   -4.4303113    1738.3215  0.050038041  0.049547748            4 
 2896000   0.78736365   -4.4407148    1735.0043  0.049925308  0.049536783            6 
 2897000   0.77738092   -4.4342722    1738.0424  0.049995468  0.049525866            4 
 2898000   0.79155889   -4.4393415    1736.7311  0.049940509  0.049514965            6 
 2899000    0.7799336   -4.4088505    1740.3405  0.050027036  0.049504129           16 
 2900000    0.7872296   -4.4357282    1738.9408  0.049969563  0.049493239            9 
 2901000   0.79909166   -4.4522664     1735.358  0.049849421  0.049482331            4 
 2902000   0.79815487   -4.4577429    1734.5636  0.049809431   0.04947133           15 
 2903000   0.77319606   -4.4527306    1739.3144  0.049928649  0.049460393            4 
 2904000   0.79996126   -4.4345877    1738.1972  0.049879395  0.049449428           10 
 2905000   0.77787789   -4.4238413    1747.3485  0.050124742  0.049438451            7 
 2906000   0.78065693   -4.4385686    1736.0554  0.049783647  0.049427518            5 
 2907000   0.77863793   -4.4279808    1744.0251  0.049994985  0.049416602            4 
 2908000   0.78755281   -4.4531583    1740.8333  0.049886327  0.049405656            5 
 2909000   0.79672444   -4.4361486    1739.2411  0.049823568  0.049394651            4 
 2910000   0.77149992   -4.4109794    1741.3555  0.049866997  0.049383772            5 
 2911000   0.77910281    -4.447861    1737.8541  0.049749632  0.049372862            6 
 2912000   0.79032996   -4.4568766    1740.0068  0.049794152  0.049361833            5 
 2913000    0.7888243   -4.4175184    1742.4888  0.049848059  0.049350911            8 
 2914000   0.79829599   -4.4020865    1745.6896  0.049922488  0.049340052            5 
 2915000    0.7853035    -4.438576    1746.3627  0.049924604  0.049329101            5 
 2916000   0.79804557   -4.4195586     1744.688  0.049859626    0.0493182           13 
 2917000   0.77953104   -4.4444806    1739.5743  0.049696443  0.049307229            5 
 2918000   0.79616023   -4.4362203    1739.3762  0.049673754  0.049296169            2 
 2919000   0.79426642    -4.430506    1738.4593  0.049630562  0.049285188            3 
 2920000   0.79265098   -4.4242289    1740.9457  0.049684524  0.049274219            6 
 2921000   0.77801355    -4.448111    1743.7242  0.049746782  0.049263285            6 
 2922000   0.80490646   -4.4503472    1742.3235   0.04968981  0.049252262            4 
 2923000   0.80067074   -4.4152047    1744.5876  0.049737358  0.049241316            9 
 2924000    0.7899555    -4.456239    1739.3629  0.049571447  0.049230363            4 
 2925000   0.78327393   -4.4552118    1738.4493  0.049528469   0.04921931            8 
 2926000   0.78198017   -4.4271112    1742.0151  0.049613097  0.049208257            7 
 2927000   0.79220006   -4.4348227    1745.7127  0.049701422  0.049197219            3 
 2928000   0.78234879   -4.4504514    1741.9279  0.049576726  0.049186226            3 
 2929000   0.79524997   -4.4440293     1741.789  0.049555849  0.049175167            9 
 2930000   0.79184285   -4.4370629    1746.8556  0.049683038  0.049164185           14 
 2931000   0.80440473   -4.4373592    1738.9558  0.049441483  0.049153131            3 
 2932000    0.7780589   -4.4313311    1746.1261  0.049628415  0.049142053            2 
 2933000   0.78583546   -4.4402336     1743.536  0.049537902  0.049131014            5 
 2934000   0.78080974   -4.4225021    1748.6809  0.049667145  0.049120053            7 
 2935000   0.79564164   -4.4324415     1747.437  0.049614905  0.049109004            5 
 2936000   0.77913315   -4.4249131    1747.2314  0.049592172  0.049098055            9 
 2937000   0.79379963   -4.4283089     1745.929  0.049538332  0.049087106            4 
 2938000   0.78110077   -4.4347849    1744.9228  0.049492931  0.049076119            4 
 2939000   0.79480426   -4.4157975    1745.0432  0.049479505  0.049065064            2 
 2940000   0.76652321   -4.4172616    1748.2851  0.049554566  0.049054214            4 
 2941000   0.77822147   -4.4402157    1745.9393  0.049471249  0.049043266            8 
 2942000   0.77767753    -4.434303    1748.0992  0.049515614  0.049032196            3 
 2943000   0.78220817   -4.4447401    1750.0715  0.049554636  0.049021258            8 
 2944000   0.78344844   -4.4337594    1744.0325  0.049366862  0.049010202            4 
 2945000   0.78499027   -4.4136221    1753.2984  0.049612291  0.048999257            5 
 2946000   0.78746173   -4.4316795    1749.9645  0.049501145  0.048988378            6 
 2947000   0.78585009   -4.4458139    1753.2859   0.04957827  0.048977452            5 
 2948000   0.77812093   -4.4420345    1750.3655  0.049478898  0.048966512            9 
 2949000   0.78188328   -4.4268636    1745.4261  0.049322542  0.048955463            3 
 2950000   0.76825669   -4.4104002     1748.595  0.049395338  0.048944431            4 
 2951000   0.78620322   -4.4379166    1741.9944  0.049192206  0.048933462            5 
 2952000    0.7823828   -4.4526535    1744.9735  0.049259641   0.04892237            3 
 2953000   0.77679883   -4.4407714    1749.3943  0.049367712  0.048911179            3 
 2954000   0.77490774   -4.4557791    1744.0449  0.049200094  0.048900075            7 
 2955000   0.77394011   -4.4481852    1746.8912  0.049263712  0.048888895           16 
 2956000   0.78567167   -4.4564538    1749.4655  0.049319618  0.048877717            7 
 2957000   0.78949889   -4.4599449    1751.0034  0.049346281   0.04886666           10 
 2958000   0.79784543   -4.4488664    1748.6538  0.049263403  0.048855679            4 
 2959000   0.78794516   -4.4268945    1754.3494  0.049407158  0.048844656            7 
 2960000   0.78184695   -4.4547308    1746.9116   0.04918107  0.048833599            3 
 2961000   0.77283319    -4.467027    1749.3339  0.049232633   0.04882255           12 
 2962000   0.78493856   -4.4323186    1751.3148  0.049271743  0.048811497            4 
 2963000   0.77500949   -4.4497466    1749.8491  0.049213892  0.048800541            4 
 2964000    0.7678315   -4.4382267    1752.8619  0.049281993  0.048789482           10 
 2965000   0.78514049   -4.4656681    1747.6108  0.049117785  0.048778449            5 
 2966000   0.78477351   -4.4484408    1752.7798  0.049246455  0.048767473            5 
 2967000   0.77728458   -4.4512113    1751.2883  0.049187964  0.048756463            3 
 2968000   0.77715844      -4.4697    1747.5805  0.049067287  0.048745502            3 
 2969000    0.7673787   -4.4496258    1750.6935  0.049138137  0.048734561            5 
 2970000   0.77827768   -4.4420031    1748.6184  0.049063367  0.048723505            6 
 2971000   0.77624187   -4.4494395    1753.4885  0.049183453  0.048712632            5 
 2972000   0.78905278   -4.4683853    1756.4566  0.049250129   0.04870171            9 
 2973000   0.76781467   -4.4718292    1746.6017  0.048957329    0.0486908            5 
 2974000   0.77647915   -4.4382764    1751.7951   0.04908639  0.048679811            7 
 2975000   0.75750699   -4.4540353    1753.0014   0.04910368   0.04866897            9 
 2976000   0.78403274   -4.4304985    1758.4771  0.049240511    0.0486581            3 
 2977000   0.77628877   -4.4481005    1754.3509  0.049108467  0.048647232            5 
 2978000   0.76589162   -4.4470071    1755.0285  0.049110939  0.048636398            6 
 2979000   0.77612196   -4.4548993    1760.3908  0.049244457   0.04862541            3 
 2980000   0.75861798   -4.4497161    1755.8802  0.049101794  0.048614476            3 
 2981000   0.78367195   -4.4391818    1756.4735  0.049101908  0.048603549            6 
 2982000   0.77128965   -4.4811485    1753.1551   0.04899271  0.048592492            4 
 2983000   0.77557053   -4.4720662    1753.2172  0.048978021  0.048581481           13 
 2984000   0.77373416   -4.4696559    1749.0413  0.048844986  0.048570411            3 
 2985000   0.77341457   -4.5023137    1750.8506  0.048879134  0.048559398            4 
 2986000   0.79240315    -4.458612    1754.9912  0.048978322  0.048548269            3 
 2987000   0.76766781   -4.4674661    1756.1508  0.048994275  0.048537295            6 
 2988000   0.77015147   -4.4590737    1755.3889  0.048956631  0.048526255            3 
 2989000   0.77047359   -4.4549837    1756.7267  0.048977549  0.048515411           20 
 2990000   0.76624696   -4.4662831    1756.2595  0.048948147  0.048504504            6 
 2991000   0.78086973   -4.4741142    1750.0392  0.048758476  0.048493457            7 
 2992000   0.77753769   -4.4222018    1760.6946  0.049038954  0.048482442            8 
 2993000   0.78475354   -4.4556414    1755.8584  0.048887915  0.048471523            5 
 2994000   0.76686821   -4.4475834    1756.1889  0.048880786  0.048460531           12 
 2995000   0.76711645   -4.4424733    1759.8388   0.04896602  0.048449518            6 
 2996000   0.78372056   -4.4630722     1756.456  0.048855586  0.048438537            4 
 2997000   0.76630398   -4.4613335    1757.2717  0.048861964  0.048427594            4 
 2998000   0.79896888   -4.4708528    1757.5853  0.048854383  0.048416596            7 
 2999000   0.76947172   -4.4370584    1761.8087   0.04895545  0.048405632            5 
 3000000   0.77410682   -4.4619104     1757.923  0.048831193  0.048394656            7 
 3001000   0.77901494   -4.4676472    1754.6319  0.048723532  0.048383657            7 
 3002000   0.77701691   -4.4766105       1753.8   0.04868421  0.048372609            6 
 3003000   0.77643565   -4.4618286    1758.0431  0.048785745  0.048361502            2 
 3004000   0.77544663   -4.4799191    1754.3686  0.048667571   0.04835048            5 
 3005000   0.75838548   -4.4418169    1756.1888  0.048701852  0.048339469            4 
 3006000   0.77391361    -4.464828    1757.6584  0.048726393    0.0483284            6 
 3007000   0.75488953   -4.4715488     1750.466  0.048510863  0.048317329            5 
 3008000   0.78079039   -4.4678225    1755.8187  0.048643026  0.048306322            6 
 3009000   0.77041667    -4.448843    1761.0628  0.048772096  0.048295325            8 
 3010000   0.77466607   -4.4544665    1760.9833   0.04875369  0.048284406            4 
 3011000   0.78209344   -4.4651919    1761.4827   0.04875132  0.048273412            4 
 3012000   0.76810653   -4.4820281    1756.4787  0.048596687  0.048262339           10 
 3013000   0.76267213   -4.4532552    1762.9647  0.048759947  0.048251352           10 
 3014000   0.75154436   -4.4619599    1761.2291  0.048695784  0.048240444           16 
 3015000   0.77034333   -4.4549583    1759.3424  0.048627486  0.048229536           10 
 3016000   0.76660249   -4.4746425    1759.2055  0.048607578  0.048218531            4 
 3017000   0.75476202     -4.45383    1764.6134  0.048740842  0.048207505            4 
 3018000    0.7709517   -4.4622894    1763.8206  0.048702801  0.048196588            4 
 3019000   0.76254016   -4.4505106    1759.7356  0.048573909  0.048185688            3 
 3020000    0.7677305   -4.4663641    1761.5891   0.04860897  0.048174622            3 
 3021000   0.76076212   -4.4541694    1763.4543   0.04864433   0.04816365            5 
 3022000   0.78054778   -4.4705863    1762.1009  0.048590914  0.048152716            4 
 3023000   0.75304454   -4.4639956    1763.2695  0.048607054  0.048141618            3 
 3024000   0.76796832   -4.4890516    1757.5868  0.048434379  0.048130498            5 
 3025000    0.7934739   -4.4447718    1760.2483  0.048491689  0.048119353            4 
 3026000   0.77709506   -4.4753009    1762.5112  0.048537981  0.048108266            3 
 3027000   0.76137212     -4.48152    1759.6233  0.048442444   0.04809711            9 
 3028000   0.78101741   -4.4502878    1759.0843  0.048411611  0.048085939            5 
 3029000   0.78187992   -4.4860172     1761.074  0.048450369   0.04807485            3 
 3030000   0.76927049   -4.4718798    1761.5223  0.048446707  0.048063668            6 
 3031000   0.76459166   -4.4752791    1759.0523  0.048362816  0.048052422            4 
 3032000   0.77340831   -4.4709638    1764.2929    0.0484909  0.048041282            4 
 3033000    0.7851278   -4.4610892    1768.5056  0.048590658  0.048030155            8 
 3034000   0.77350828   -4.4546867    1761.7359  0.048388703  0.048018998           10 
 3035000   0.76370017   -4.4808853     1766.448   0.04850214  0.048007987            4 
 3036000   0.77368423   -4.4725482    1765.3282   0.04845543  0.047996931           10 
 3037000   0.76216315   -4.4510357    1758.4177  0.048249856   0.04798596            3 
 3038000    0.7623095    -4.450481    1765.5856  0.048430589  0.047974958            6 
 3039000   0.76427132   -4.4740906    1763.8537  0.048367164  0.047963839           10 
 3040000   0.76615563   -4.4753289    1761.9117  0.048298018  0.047952727            7 
 3041000   0.77722601   -4.5017307    1763.7893  0.048333588  0.047941582           10 
 3042000   0.74648894   -4.4578546    1760.7186  0.048233581  0.047930414            5 
 3043000    0.7562004    -4.504592    1764.2873  0.048315459  0.047919252           13 
 3044000    0.7517978   -4.4774383    1765.0109  0.048319395  0.047908119            2 
 3045000    0.7597698   -4.4598713    1764.2147  0.048281738  0.047897003            4 
 3046000   0.75437001   -4.4553652    1765.2782  0.048294981   0.04788593            5 
 3047000   0.77119857   -4.4644639    1767.5903  0.048342368  0.047874826            3 
 3048000    0.7639046   -4.4943814    1763.6377  0.048218441   0.04786377            5 
 3049000    0.7714913   -4.4726363    1766.3936  0.048277949  0.047852651            7 
 3050000   0.77094657    -4.485518     1762.066   0.04814388  0.047841629           16 
 3051000   0.77268661   -4.4772058    1769.6008    0.0483339  0.047830614            4 
 3052000   0.77160537   -4.4632236    1767.5498  0.048262063  0.047819611            8 
 3053000   0.77127844   -4.4824666    1769.2288  0.048292085  0.047808618            3 
 3054000    0.7603815   -4.4978398    1766.9543  0.048214207  0.047797653            8 
 3055000   0.75972258   -4.4834045    1769.6871   0.04827297  0.047786607            8 
 3056000   0.75310157   -4.4700977    1770.4438  0.048277809  0.047775649            8 
 3057000    0.7746865    -4.510825    1766.9659  0.048167208  0.047764676            4 
 3058000    0.7546319   -4.4791063    1767.0983  0.048155065  0.047753783            4 
 3059000   0.76346959   -4.4603992    1766.3334  0.048118485  0.047742821            3 
 3060000   0.75188735   -4.4868858    1767.3042  0.048129199  0.047731722            4 
 3061000   0.74700548   -4.4703155    1772.2989  0.048249453    0.0477207            6 
 3062000    0.7567285   -4.4778705    1764.2644  0.048015033  0.047709682            5 
 3063000   0.75212975   -4.4789578    1765.8763  0.048043213  0.047698686            9 
 3064000    0.7400254    -4.505178    1771.5907   0.04818295  0.047687708           11 
 3065000   0.75924467   -4.5171068     1769.957   0.04812281  0.047676682           10 
 3066000   0.76632074   -4.4673522    1767.8199  0.048049029  0.047665757            6 
 3067000   0.76296471   -4.5066454    1766.3161  0.047992505  0.047654823            3 
 3068000   0.77612649   -4.4928739    1769.7557  0.048070286  0.047643849           15 
 3069000   0.75678806   -4.4781257    1771.8537  0.048111591  0.047633002            4 
 3070000     0.769455   -4.4577792    1779.0909  0.048292369  0.047622155            4 
 3071000   0.77031411   -4.5216373    1768.6051  0.047992105    0.0476112           21 
 3072000   0.76266511   -4.4822777    1778.8222   0.04825364  0.047600354            6 
 3073000   0.76599196   -4.5057015    1768.0397  0.047945539  0.047589367           12 
 3074000    0.7462666   -4.4955433    1772.3511  0.048046821  0.047578378            9 
 3075000   0.76835856   -4.5021417    1770.2288  0.047973681  0.047567464            5 
 3076000   0.76326161   -4.4833184    1776.0873  0.048116799  0.047556579            4 
 3077000   0.75863364   -4.4816244    1772.3038  0.047998696  0.047545712            5 
 3078000   0.76767264   -4.4973352    1770.8125  0.047942727   0.04753478           11 
 3079000   0.76335965   -4.4835901    1774.3054  0.048021691  0.047523898            8 
 3080000   0.77096683       -4.477    1773.1353  0.047974441  0.047513068            7 
 3081000   0.74556595   -4.4823106     1777.591  0.048079386  0.047502322            4 
 3082000   0.76164307   -4.5051951    1774.1229  0.047970012  0.047491509            7 
 3083000   0.76182672   -4.4643387    1777.6698  0.048050325  0.047480754            4 
 3084000   0.74880373   -4.4703707    1780.5279  0.048111972  0.047470007            4 
 3085000   0.76662067   -4.4911553    1773.0555  0.047894531   0.04745918           10 
 3086000    0.7577601   -4.5025458    1774.0355  0.047905473  0.047448305            5 
 3087000   0.76471934   -4.5035066    1774.3105  0.047897378  0.047437455            4 
 3088000   0.74818744   -4.4631187    1776.0536  0.047928909  0.047426625            4 
 3089000   0.75082415    -4.501439    1777.3698  0.047948899  0.047415889            3 
 3090000     0.754062   -4.4840434    1777.9077  0.047947888  0.047405004            5 
 3091000   0.74535752   -4.4861596    1776.8224  0.047903118  0.047394195           21 
 3092000   0.74629635   -4.5055226    1780.1413  0.047977073  0.047383314            4 
 3093000   0.75003522   -4.4916909    1770.1762  0.047693075  0.047372468            2 
 3094000   0.74847471   -4.4941796    1775.6843  0.047826015  0.047361632            7 
 3095000   0.75198081   -4.4987705    1770.8364  0.047680033  0.047350697            4 
 3096000   0.77457913   -4.4881572    1775.2623   0.04778376  0.047339787            9 
 3097000   0.75313607   -4.5137268    1773.2407  0.047713936  0.047328855            8 
 3098000   0.76507083   -4.4900186    1775.9691  0.047771926   0.04731792            2 
 3099000   0.75968984   -4.5058794    1776.7076  0.047776369   0.04730698            4 
 3100000   0.75621795   -4.5165187    1776.8468  0.047764699   0.04729602            7 
 3101000   0.74845049   -4.4970925    1771.4754   0.04760495  0.047285071            9 
 3102000   0.74701149   -4.4892568    1775.7007  0.047703113  0.047274034            6 
 3103000   0.75086736   -4.5256505    1771.5392  0.047575981  0.047263021            8 
 3104000   0.77270529   -4.5189681    1781.3769  0.047824768  0.047251979            6 
 3105000   0.76274321   -4.5000602    1776.5935  0.047680984  0.047241035            5 
 3106000   0.74647986    -4.500686    1771.3472  0.047524877  0.047229994            3 
 3107000   0.75772312   -4.4776385    1779.3752  0.047724901  0.047219011            9 
 3108000    0.7501485   -4.4828936    1772.1965  0.047517066  0.047208104            7 
 3109000    0.7609335   -4.4811112    1777.0309  0.047631363  0.047197157            5 
 3110000   0.75603798   -4.4931875     1777.072  0.047617149  0.047186278            6 
 3111000   0.76581897   -4.4947962     1778.063  0.047628387   0.04717539            5 
 3112000   0.75572565    -4.480716    1774.4855  0.047517286  0.047164552            5 
 3113000   0.75496656   -4.5080762    1778.8348   0.04761845  0.047153556            3 
 3114000   0.76313757   -4.4929653    1778.4946  0.047594054  0.047142639            7 
 3115000   0.76414097   -4.4691591    1780.8977  0.047643064  0.047131706            5 
 3116000    0.7367687   -4.4973817    1775.9538  0.047495556  0.047120727            5 
 3117000   0.74481949   -4.4953728    1777.7121  0.047527327  0.047109802            4 
 3118000   0.73931596   -4.5009389    1782.3545  0.047636157  0.047098824            4 
 3119000   0.75263746   -4.4818787    1781.7238  0.047604034  0.047087846            5 
 3120000   0.75270651    -4.479616    1784.4066  0.047660433  0.047076834            5 
 3121000   0.75246488   -4.5031722    1780.0434  0.047528661   0.04706588            4 
 3122000   0.73174756   -4.4805949    1779.0945   0.04748811  0.047054877            4 
 3123000   0.76577577   -4.4946698    1782.6742  0.047568422  0.047043928            4 
 3124000   0.75913135   -4.4908046    1780.8455  0.047504414   0.04703296           10 
 3125000   0.75517034   -4.5136017    1780.4036  0.047477429  0.047022021            8 
 3126000   0.75674725   -4.5120748    1776.4877  0.047357851  0.047011058            7 
 3127000   0.72924662   -4.5168478    1781.9177  0.047487414  0.047000045            4 
 3128000   0.75300943   -4.4761795    1785.8596  0.047577249  0.046989124           11 
 3129000   0.73674557    -4.509124    1779.4488  0.047391307  0.046978211            3 
 3130000   0.75612191   -4.4869108    1780.7271    0.0474102  0.046967281            7 
 3131000   0.76175919   -4.4738312    1775.2042  0.047248064  0.046956412           12 
 3132000   0.74792732   -4.4945124    1780.5403  0.047374954  0.046945497            9 
 3133000   0.75628121   -4.4863259    1774.1001  0.047188533  0.046934537            8 
 3134000   0.74928082   -4.5116747     1778.307  0.047285339   0.04692354            6 
 3135000   0.74709131   -4.5137979    1777.6106  0.047251743   0.04691249            6 
 3136000   0.75221788   -4.4973625    1784.7076  0.047425265  0.046901556            5 
 3137000    0.7382283   -4.5312922     1781.783  0.047332457  0.046890671           11 
 3138000   0.74532741   -4.5149061    1783.9919  0.047376033  0.046879772            5 
 3139000   0.74996099    -4.466084    1781.3352   0.04729041  0.046868844            6 
 3140000   0.73426036   -4.5195838    1781.1692  0.047270944  0.046857865           10 
 3141000   0.76350462   -4.4819377    1789.1227  0.047466907  0.046847014            5 
 3142000   0.74453852    -4.509936    1780.4109  0.047220742  0.046836093            7 
 3143000   0.75820995   -4.4892457    1780.7035  0.047213476  0.046825206            4 
 3144000   0.76340978   -4.4946518    1780.2407  0.047186193   0.04681428            4 
 3145000   0.75141283   -4.5070177    1787.1707  0.047354815  0.046803343            5 
 3146000   0.75305947    -4.502049     1785.025  0.047282926  0.046792369            5 
 3147000    0.7653749   -4.5054137    1782.9347   0.04721255  0.046781445           12 
 3148000   0.75030114   -4.4937573    1784.6264  0.047242335  0.046770611            5 
 3149000   0.76455116   -4.5027407    1785.5889  0.047252803  0.046759799            8 
 3150000   0.76955361   -4.5154888     1782.493  0.047155899  0.046748938            5 
 3151000   0.74785166   -4.5235886    1780.2469  0.047081533  0.046737956            5 
 3152000   0.73560368   -4.5094011    1784.7105  0.047184604  0.046727102            5 
 3153000   0.75266476   -4.5177597    1784.6422  0.047167834  0.046716187            7 
 3154000    0.7291702   -4.4842562    1787.9747  0.047240928  0.046705256            7 
 3155000   0.74321042   -4.5250856    1781.7751  0.047062207  0.046694477            9 
 3156000   0.74433749   -4.4921233    1790.6582  0.047281849  0.046683565            5 
 3157000   0.74866346   -4.4951462    1790.0878  0.047251816  0.046672846            6 
 3158000   0.76598332   -4.5182172    1796.7982  0.047413928  0.046662059            3 
 3159000   0.73956434   -4.5054484    1784.1416  0.047065042  0.046651223           11 
 3160000   0.74472974   -4.5336778     1783.645  0.047037051  0.046640423            8 
 3161000   0.74789046   -4.5367919    1789.4879  0.047176208   0.04662961            5 
 3162000   0.73031218   -4.5062285    1791.1104  0.047204049  0.046618887            9 
 3163000   0.73928973   -4.4771439    1791.9666  0.047211681  0.046608239            5 
 3164000   0.75051703   -4.5047395    1786.6239  0.047056044  0.046597497            5 
 3165000   0.74888717   -4.5148101    1789.9421  0.047128545  0.046586878            4 
 3166000   0.75185599   -4.5126967    1790.8606  0.047137835  0.046576237           10 
 3167000   0.74561936   -4.4801512    1793.1827  0.047184051   0.04656561            6 
 3168000   0.75511613   -4.4948121    1793.7069  0.047182947  0.046554881            7 
 3169000   0.74227689   -4.4964483    1793.6479  0.047166507  0.046544256            9 
 3170000   0.74506028   -4.5031156    1794.3699  0.047170606  0.046533589            6 
 3171000    0.7382421   -4.5123197    1794.8089  0.047167269  0.046522939            7 
 3172000   0.75180824   -4.4993287    1797.1236  0.047213208  0.046512373            4 
 3173000   0.74803617   -4.5266124    1798.1373  0.047224952   0.04650176            5 
 3174000   0.75460433   -4.4987697    1796.3878  0.047164141   0.04649114            4 
 3175000    0.7563224   -4.5281881    1793.4204  0.047071402  0.046480598            5 
 3176000   0.74399316   -4.5149136    1795.8253  0.047119682  0.046469975           20 
 3177000   0.75058849   -4.5295189    1790.4853  0.046964781  0.046459358            8 
 3178000   0.73396817   -4.5020138    1796.2307  0.047100659  0.046448737            4 
 3179000   0.75474537   -4.5106909    1797.2779  0.047113292  0.046438114            3 
 3180000   0.74064892   -4.5287727    1795.8631  0.047061403  0.046427494            9 
 3181000   0.73692505   -4.5221699    1792.3074  0.046953457  0.046416882            7 
 3182000   0.72126436   -4.5056647    1798.1752  0.047092373  0.046406237            5 
 3183000   0.74351232   -4.5049807    1798.2241   0.04707886  0.046395791            7 
 3184000   0.74787947   -4.5394841    1794.7703  0.046973677  0.046385252            6 
 3185000   0.72862153   -4.5107559     1794.547  0.046953087  0.046374694            3 
 3186000   0.72952936    -4.495773    1801.0598  0.047108699  0.046364197            5 
 3187000   0.75575533   -4.5245587    1791.3446  0.046839886  0.046353625            5 
 3188000   0.73543943   -4.5358656    1796.2396  0.046953148  0.046343009            4 
 3189000   0.74479318   -4.5347189     1794.325  0.046888392  0.046332382           10 
 3190000   0.73107071   -4.5092008    1794.8936  0.046888549  0.046321871            7 
 3191000   0.72991477   -4.5256891    1792.5645  0.046813029  0.046311258            7 
 3192000   0.73728602   -4.5198393    1795.6307  0.046878411   0.04630063            7 
 3193000   0.74660947   -4.5202077    1799.4542  0.046963519  0.046290105            4 
 3194000   0.73444489   -4.5086257    1797.2406   0.04689106  0.046279626            8 
 3195000   0.74226824   -4.4999405    1801.2954  0.046982144  0.046269099            8 
 3196000   0.74114902   -4.5066449    1809.7641  0.047188258  0.046258697           16 
 3197000   0.74536523   -4.4959776    1803.2831  0.047004565  0.046248347            8 
 3198000   0.75098465   -4.5084216    1801.9141  0.046954193  0.046237925            9 
 3199000   0.72298858   -4.5182444    1798.3255  0.046846032  0.046227502            6 
 3200000   0.75870298    -4.530307    1800.4902  0.046887766  0.046216989            6 
 3201000   0.73133682   -4.5307238    1798.7326  0.046827361  0.046206507            6 
 3202000   0.73843102   -4.5153775    1807.2896  0.047035436  0.046196085            4 
 3203000   0.74553693   -4.5161123    1802.2647  0.046890016  0.046185704            9 
 3204000   0.75177707   -4.5153151    1810.5231  0.047090177  0.046175357            5 
 3205000   0.74305442   -4.5297575    1802.4835  0.046866445  0.046165017            5 
 3206000   0.76217005    -4.525481    1801.0241  0.046813892   0.04615463            9 
 3207000   0.73721663   -4.5336884    1806.5398  0.046942619  0.046144177            6 
 3208000   0.74682115   -4.5079968    1806.5039  0.046927055  0.046133801            6 
 3209000   0.73986985   -4.5309348    1806.6139  0.046915289  0.046123366            5 
 3210000   0.73915568   -4.5392192    1802.0414  0.046781968  0.046112994            8 
 3211000   0.74097231   -4.5248974    1807.2264  0.046901962  0.046102621            5 
 3212000   0.72899306   -4.5206066    1804.5427  0.046817733  0.046092244            4 
 3213000   0.74258763   -4.5184879    1802.3489  0.046746263  0.046081823            3 
 3214000   0.73691554   -4.5484433    1806.1763  0.046830955  0.046071505            4 
 3215000   0.74684582   -4.5301207    1800.8851   0.04667924  0.046061043            5 
 3216000   0.74386975   -4.5359988    1804.2786  0.046752659  0.046050561            5 
 3217000   0.73522411   -4.5432319    1803.8698  0.046727537  0.046040202            6 
 3218000   0.72912275   -4.5122886    1812.2798  0.046930801   0.04602979           11 
 3219000   0.72217539   -4.4870114    1811.1315  0.046886495  0.046019447            4 
 3220000   0.74398204   -4.4814539    1816.4385  0.047009277  0.046009191            7 
 3221000   0.72696045   -4.5253761    1806.2339  0.046730671  0.045998929            5 
 3222000   0.73819488   -4.5434749    1804.6437  0.046675038  0.045988564           17 
 3223000   0.73409753   -4.5415623    1802.6422  0.046608807  0.045978181            6 
 3224000   0.73147816   -4.5390874    1805.1203  0.046658403  0.045967802            9 
 3225000    0.7264838   -4.5220681    1809.4245  0.046755155  0.045957447            5 
 3226000   0.72411098   -4.5259998    1804.3872   0.04661054  0.045947106            6 
 3227000   0.72738654   -4.5287376    1807.1654  0.046667839    0.0459368            4 
 3228000   0.73248603   -4.5490387    1804.3825   0.04658154  0.045926461            5 
 3229000   0.74539812   -4.5332291    1807.7474  0.046653953  0.045916122           12 
 3230000   0.74330767   -4.5215725    1808.3118  0.046654072  0.045905727            4 
 3231000   0.73801816   -4.4994155    1810.6483  0.046699894  0.045895344            5 
 3232000   0.72997537   -4.5196455    1802.5503  0.046476647  0.045884934            4 
 3233000   0.72725718   -4.5228263    1806.9158  0.046574795  0.045874507            4 
 3234000   0.71749089   -4.5384018    1807.7992  0.046583159  0.045864109            6 
 3235000   0.71380675   -4.5494164     1808.113  0.046576842  0.045853717            6 
 3236000    0.7251953   -4.5264097    1811.9312  0.046660776  0.045843366            9 
 3237000   0.72551042   -4.5496331    1812.3734  0.046657745  0.045832941            4 
 3238000   0.73593806   -4.5082033    1806.1202  0.046482402  0.045822617            9 
 3239000   0.72765602   -4.5393117    1801.5798  0.046351235  0.045812299            8 
 3240000   0.72752741   -4.5475232    1807.4245  0.046487255  0.045801924           10 
 3241000   0.74900341   -4.5389859    1809.6588  0.046530361  0.045791541           11 
 3242000   0.71541678   -4.5546825    1812.3325  0.046584733  0.045781164           10 
 3243000   0.73906648   -4.5296662    1803.0148  0.046330939  0.045770803            5 
 3244000   0.72137371   -4.5397108    1811.8006   0.04654235   0.04576042           11 
 3245000   0.73759881   -4.5139646    1806.0915  0.046381395   0.04575008           10 
 3246000   0.73977791   -4.5124142    1808.2011  0.046421264  0.045739824            3 
 3247000   0.73798981   -4.5375115    1811.0668  0.046480515  0.045729466            7 
 3248000   0.73288262   -4.5307816    1817.1025  0.046621061  0.045719155           10 
 3249000   0.72315003   -4.5162041    1813.2312  0.046507418  0.045708927            5 
 3250000   0.72989605   -4.5463719    1814.1278  0.046516096  0.045698601            7 
 3251000   0.73310481   -4.5277726      1812.58  0.046462114  0.045688279           11 
 3252000   0.72266473   -4.5498091    1814.7895  0.046504446  0.045677971            6 
 3253000   0.75025708   -4.5623284    1804.5524  0.046227903  0.045667636            3 
 3254000   0.73142976   -4.5346272    1810.7315   0.04637194   0.04565714            6 
 3255000   0.73460725   -4.5302279    1812.2758  0.046397231  0.045646774            7 
 3256000   0.72957481   -4.5345719    1811.1867  0.046355107  0.045636433            5 
 3257000   0.71027929   -4.5536789    1813.2878  0.046394632  0.045626118            5 
 3258000   0.72844148   -4.5358486    1812.2805  0.046354628  0.045615742            6 
 3259000   0.72498741    -4.533262    1815.7596  0.046429365  0.045605476            2 
 3260000   0.71735495   -4.5518359    1814.2034  0.046375344   0.04559515            2 
 3261000   0.72006357   -4.5578992     1811.355  0.046288333  0.045584689           11 
 3262000   0.72978951   -4.5344977    1815.0809  0.046369327  0.045574293            6 
 3263000   0.71595046   -4.5492243    1808.1844  0.046178988  0.045563913            6 
 3264000        0.719   -4.5595546    1811.4307  0.046247721  0.045553533            6 
 3265000   0.72186603   -4.5455914    1812.8124  0.046268821  0.045543199            6 
 3266000   0.72827124   -4.5296675    1814.6844   0.04630242  0.045532911           14 
 3267000   0.74912777   -4.5264962    1813.7615  0.046264704  0.045522691           11 
 3268000   0.73113991   -4.5319197    1813.4256  0.046241984  0.045512411            7 
 3269000   0.74251689   -4.5474183    1811.7278  0.046184556  0.045502002            8 
 3270000   0.72732049   -4.5433792     1812.631  0.046193451  0.045491665            9 
 3271000     0.730308   -4.5453244    1817.3837   0.04630041  0.045481325           11 
 3272000   0.71211738   -4.5504211    1815.8254  0.046246573  0.045471029            6 
 3273000   0.73370662   -4.5697296    1814.3065   0.04619377  0.045460772            6 
 3274000   0.72382567   -4.5445267    1815.7547  0.046216523  0.045450537            7 
 3275000   0.71368795   -4.5372602    1820.6609   0.04632725  0.045440289            4 
 3276000   0.72441815   -4.5595295     1816.027  0.046195234  0.045430054            6 
 3277000   0.72525194   -4.5654148    1819.4437  0.046268022  0.045419881            5 
 3278000   0.74671518   -4.5341105     1814.971  0.046140202  0.045409787            4 
 3279000   0.72829662   -4.5478737    1819.2159  0.046234011   0.04539961            5 
 3280000   0.72147493   -4.5507022    1814.0465  0.046088579   0.04538939            4 
 3281000   0.73921424   -4.5364969    1820.6579  0.046242454  0.045379195            4 
 3282000   0.73822329   -4.5380455    1820.4075  0.046222006  0.045368954            7 
 3283000   0.73099564   -4.5315853    1824.6081  0.046314553  0.045358849            5 
 3284000   0.72171472   -4.5461233    1821.4934  0.046221413  0.045348701           11 
 3285000   0.72969141   -4.5804745    1814.2032  0.046022405  0.045338453            7 
 3286000   0.72391259   -4.5500203    1818.4116  0.046115124  0.045328223            4 
 3287000   0.73293882   -4.5718807    1821.7389   0.04618545  0.045317953            6 
 3288000   0.72835562   -4.5534694    1818.3806  0.046086289  0.045307639            5 
 3289000   0.73250719   -4.5505496    1821.0747  0.046140536  0.045297467            6 
 3290000   0.72649794   -4.5723216    1823.2582  0.046181819  0.045287331            6 
 3291000   0.72176125   -4.5433404    1817.5161  0.046022386  0.045277124            4 
 3292000   0.72166675   -4.5302545    1820.4914  0.046083723  0.045266964            4 
 3293000    0.7257962   -4.5206204    1825.8445  0.046205195  0.045256874           14 
 3294000   0.72192022   -4.5474523    1818.2505  0.045999052  0.045246827            8 
 3295000   0.74187939   -4.5435599    1820.0017  0.046029381  0.045236606            4 
 3296000   0.72573747   -4.5424388      1815.32  0.045897046  0.045226388            7 
 3297000   0.73635236    -4.579089    1821.9273  0.046050129  0.045216216            9 
 3298000   0.72006415   -4.5696102    1815.6324  0.045877108  0.045205997            6 
 3299000   0.72821336   -4.5743662    1817.3851  0.045907475  0.045195712            6 
 3300000   0.71823608   -4.5508388    1819.1223  0.045937432  0.045185476            5 
 3301000   0.71062982   -4.5715095    1821.7547  0.045989971   0.04517528            5 
 3302000   0.73383111   -4.5573877    1823.0395  0.046008468  0.045165095           14 
 3303000   0.71254749   -4.5474697    1821.4213  0.045953711  0.045154821            5 
 3304000   0.71571328   -4.5562832    1819.7575  0.045897838   0.04514452            7 
 3305000   0.71624561    -4.540949    1821.5129  0.045928211  0.045134295            8 
 3306000   0.71916403    -4.594345    1822.3005  0.045934172  0.045124075            6 
 3307000   0.70450198   -4.5486642    1821.2923  0.045894877  0.045113836            6 
 3308000   0.72132809   -4.5531526    1824.6167   0.04596475  0.045103637            5 
 3309000   0.72120538   -4.5612718    1823.2348  0.045916058  0.045093476           10 
 3310000   0.71424382   -4.5582338    1820.8004  0.045840896  0.045083261            7 
 3311000   0.73363584   -4.5572728    1826.0146  0.045958286  0.045073055            4 
 3312000   0.71705028   -4.5498761      1823.49  0.045880888  0.045062817            5 
 3313000   0.72707653   -4.5422028    1828.8239  0.046001206  0.045052573            7 
 3314000   0.72034993   -4.5568556    1828.7902  0.045986477  0.045042545            4 
 3315000   0.73764473   -4.5684138    1824.3034  0.045859813  0.045032364            5 
 3316000   0.72706109   -4.5479634    1826.4433   0.04589976  0.045022223            9 
 3317000   0.70797349   -4.5448129    1828.4923    0.0459374  0.045012031            7 
 3318000   0.71941685   -4.5619357    1825.5588  0.045849879  0.045001894            7 
 3319000   0.73908725   -4.5842718    1826.8424  0.045868295  0.044991648           15 
 3320000   0.71176671   -4.5622932     1824.522  0.045796236  0.044981442           13 
 3321000   0.72200935   -4.5449979    1825.9913  0.045819315  0.044971178            5 
 3322000   0.71201595   -4.5641208    1820.6494  0.045671517  0.044960914           11 
 3323000    0.7003791   -4.5560652    1819.3722  0.045625744  0.044950647            9 
 3324000   0.74319459   -4.5809557    1823.7358  0.045721415  0.044940418            7 
 3325000   0.70742695   -4.5683156    1828.3929  0.045824384  0.044930145           10 
 3326000   0.72012714     -4.57633    1824.0685  0.045702257  0.044919867            9 
 3327000   0.71582453    -4.564469    1824.8658   0.04570849  0.044909601            8 
 3328000   0.71484607   -4.5612686    1822.9027    0.0456456  0.044899341            5 
 3329000   0.71909296   -4.5610147     1828.387  0.045769175   0.04488906            8 
 3330000   0.71726738   -4.5685227     1821.004  0.045570671  0.044878866           10 
 3331000   0.73642009   -4.5720588    1825.7508  0.045675744   0.04486864            4 
 3332000   0.72145483   -4.5606561    1828.9847  0.045742914  0.044858383            3 
 3333000   0.72437298   -4.5747551     1826.014  0.045654915  0.044848163            5 
 3334000   0.70098204   -4.5467516    1827.3984  0.045675824  0.044837949            4 
 3335000   0.73061638   -4.5536543    1822.6498  0.045543473  0.044827697            5 
 3336000   0.69606747   -4.5844242    1821.8397  0.045509585  0.044817381            4 
 3337000   0.71767233   -4.5452337    1826.2526  0.045606148  0.044807094            7 
 3338000   0.70711712   -4.5837616     1827.188  0.045615837  0.044796902            7 
 3339000   0.71107601   -4.5926661    1824.1213  0.045525639  0.044786666            4 
 3340000   0.72658808   -4.5561387    1829.0242  0.045634336  0.044776399            6 
 3341000   0.71823498   -4.5762188    1820.8279  0.045416241  0.044766304            7 
 3342000   0.71272407    -4.545308    1832.2479  0.045687411  0.044756168            8 
 3343000   0.72865119   -4.5542704    1824.0128  0.045468462  0.044746063            5 
 3344000   0.71273747   -4.5716695    1829.0569  0.045580565  0.044735965            7 
 3345000   0.73175185   -4.5738758    1828.6764  0.045557458  0.044725798            7 
 3346000   0.72704302   -4.5905579    1827.2391  0.045508047  0.044715611            6 
 3347000   0.71085903   -4.5683264    1823.5202  0.045401859  0.044705368            9 
 3348000   0.71198171    -4.550524    1833.6073   0.04563937  0.044695196            7 
 3349000   0.71409924   -4.5523438    1829.4376  0.045521986  0.044685049            8 
 3350000    0.7194957    -4.583053    1824.7907  0.045392803  0.044674887            6 
 3351000   0.72506922   -4.5705914       1828.4  0.045469015  0.044664723            5 
 3352000   0.71784475    -4.560101    1830.6821  0.045512184  0.044654566            6 
 3353000   0.71188402   -4.5458946    1828.7875  0.045451524  0.044644423            8 
 3354000   0.72589329   -4.5570879    1833.8912  0.045564778  0.044634274            6 
 3355000   0.71230169   -4.5686306    1829.4107  0.045439909  0.044624123            6 
 3356000   0.70645133   -4.5817694     1826.917  0.045364447  0.044613911            9 
 3357000   0.70655086    -4.579359    1831.5095  0.045464937  0.044603707            9 
 3358000    0.7189188   -4.5748872    1831.0842  0.045440842  0.044593558            7 
 3359000   0.72437393   -4.5913192    1824.9809  0.045275898  0.044583473            6 
 3360000   0.72012391   -4.5739752    1832.2825  0.045443514  0.044573309            6 
 3361000   0.71810981   -4.5790206    1830.0293  0.045374127  0.044563133            6 
 3362000   0.70808504    -4.586704    1831.8788  0.045406474  0.044552936            3 
 3363000   0.71515293   -4.5983334    1827.9472  0.045295548  0.044542811            5 
 3364000   0.71931975   -4.5767029    1829.2114  0.045313401  0.044532588            5 
 3365000   0.70500542   -4.5651205    1830.3807  0.045328894  0.044522511            3 
 3366000    0.7177553   -4.5699831    1830.2157  0.045311342  0.044512428            4 
 3367000   0.70477339   -4.5817408    1834.3633  0.045400536  0.044502421            5 
 3368000   0.72423098   -4.5620684    1832.8402  0.045349371   0.04449236            8 
 3369000    0.7343371   -4.5896967    1829.1374  0.045244321  0.044482233           10 
 3370000    0.7260434    -4.555684    1835.6814  0.045392715  0.044472039            5 
 3371000   0.69898797   -4.5742948    1835.0028  0.045362473  0.044461965            2 
 3372000   0.71798558   -4.5653045    1832.0855  0.045276926  0.044451845            5 
 3373000   0.71398468   -4.5527387    1832.2291   0.04526705  0.044441666           13 
 3374000   0.71619847   -4.5896471    1835.7367  0.045340266  0.044431448            5 
 3375000   0.72546323    -4.574135    1828.9744  0.045159861  0.044421327            4 
 3376000    0.7114184   -4.5779384    1833.3544  0.045254602  0.044411189            4 
 3377000   0.72031145   -4.5690413    1833.8605  0.045253688  0.044401107            9 
 3378000   0.71577493   -4.5900549    1835.0668  0.045270051  0.044390972            7 
 3379000   0.71727677   -4.5839392    1831.3043  0.045163862  0.044380813            6 
 3380000    0.7113958   -4.5506517    1835.8593  0.045262803  0.044370664            8 
 3381000   0.70238605   -4.5910578    1832.2629  0.045160774  0.044360509            9 
 3382000   0.72217558   -4.5980898    1834.0519  0.045191501  0.044350358            6 
 3383000   0.69833926    -4.578928    1830.1359   0.04508168  0.044340211            7 
 3384000   0.71969685   -4.5697562     1835.874  0.045209663  0.044330049           12 
 3385000   0.70812964   -4.5921038    1828.4816  0.045014318   0.04431988            8 
 3386000    0.7019381   -4.5652489    1834.4008  0.045146703  0.044309754            9 
 3387000   0.71637383   -4.5846061    1832.2014   0.04507926  0.044299618           14 
 3388000   0.71074141   -4.5897547    1831.5429  0.045049757  0.044289465            6 
 3389000   0.72665439   -4.5794291    1836.1343  0.045149362  0.044279334            8 
 3390000   0.71231282   -4.5793164    1839.4961  0.045218685  0.044269191            9 
 3391000   0.69840336   -4.5599173    1834.3507  0.045078902  0.044259092            6 
 3392000   0.71489799   -4.5742346    1837.5182   0.04514343  0.044249034           18 
 3393000   0.70854031   -4.5701772    1842.3396   0.04524854  0.044238975            5 
 3394000   0.70426585   -4.5772279    1836.9186  0.045102107  0.044228965            3 
 3395000   0.73121385   -4.5814219    1834.5335  0.045030276  0.044218887            5 
 3396000   0.70737318   -4.5634399    1837.9024  0.045099685  0.044208791            9 
 3397000   0.70287791   -4.5662062    1841.4961  0.045174568   0.04419887            5 
 3398000   0.70336053   -4.5574271    1835.8519  0.045022855   0.04418889            4 
 3399000      0.69765    -4.578942    1837.7704  0.045056643  0.044178914            5 
 3400000   0.69299682    -4.583011     1838.821  0.045069142  0.044168875           13 
 3401000   0.70208192   -4.6024476    1833.7835  0.044932459  0.044158801           11 
 3402000   0.71110786   -4.5975799    1839.2857  0.045054029  0.044148646            4 
 3403000    0.7050098    -4.592462    1839.2748  0.045040524  0.044138534            7 
 3404000   0.70718942   -4.5898423    1835.7674  0.044941427  0.044128361            6 
 3405000   0.70649877   -4.6045919    1837.4455  0.044969299  0.044118249            7 
 3406000   0.70770974   -4.5920027    1831.0394  0.044799359  0.044108169            7 
 3407000   0.69108155   -4.5869788    1833.8082  0.044853934  0.044098025           18 
 3408000   0.70770071   -4.6107126    1837.6882  0.044935646    0.0440879            5 
 3409000   0.69616512   -4.5623129     1842.133  0.045031119  0.044077833            8 
 3410000   0.71925143   -4.5921384    1837.6353  0.044907999   0.04406771            6 
 3411000   0.70977962   -4.5977262    1839.2098    0.0449333  0.044057605            5 
 3412000   0.70798788    -4.584804    1840.8582   0.04496039  0.044047571            4 
 3413000   0.69904442   -4.5795583    1839.3427  0.044910213  0.044037442            8 
 3414000   0.69268344   -4.5924217    1839.9826  0.044912677  0.044027275            6 
 3415000   0.71454949   -4.6200533    1834.5013   0.04476577  0.044017237            6 
 3416000   0.70458188   -4.5836024    1837.4745  0.044825197  0.044007092            6 
 3417000   0.70314353   -4.5842479    1840.6142   0.04488865  0.043996974            7 
 3418000   0.71338755   -4.5680671     1842.129  0.044912448  0.043986837            9 
 3419000   0.69232621   -4.5910569    1838.3986  0.044808388  0.043976766            5 
 3420000   0.70747323   -4.6024532    1842.9389  0.044905918  0.043966719            7 
 3421000   0.68456011   -4.5836106    1841.9183  0.044867932   0.04395668            5 
 3422000   0.69597811   -4.5913655    1831.0552  0.044590278  0.043946514            9 
 3423000   0.71928615   -4.6282166    1838.5037  0.044758586  0.043936303            4 
 3424000   0.69209756   -4.5881419     1844.005  0.044879405  0.043926184            5 
 3425000   0.70618772   -4.5687402    1840.7988  0.044788292  0.043916153           12 
 3426000   0.69885697   -4.6030656    1841.6131  0.044795027  0.043906108            7 
 3427000   0.69254241    -4.580587     1838.288  0.044701099  0.043896004            4 
 3428000   0.71119927   -4.5939909    1840.2868  0.044736649  0.043885917            7 
 3429000   0.70618131   -4.5981527    1840.6949  0.044733521   0.04387581            6 
 3430000   0.70571369   -4.6048255    1839.5396   0.04469241  0.043865595            8 
 3431000   0.69952508    -4.589899     1839.651  0.044682091  0.043855461            8 
 3432000    0.6995939   -4.5900418    1842.7294  0.044743818  0.043845369            5 
 3433000   0.70446653   -4.5920396    1836.8388  0.044587795  0.043835345            8 
 3434000   0.69775681   -4.6024035    1844.6645  0.044764718  0.043825261            6 
 3435000   0.71575433   -4.5983399    1842.2969  0.044694249  0.043815204           10 
 3436000   0.68798693   -4.6018412    1835.9946  0.044528391  0.043805035            6 
 3437000   0.69228574   -4.6017634    1839.7486  0.044606454  0.043794899            3 
 3438000   0.70424629   -4.5884955    1841.8924  0.044645442  0.043784852            7 
 3439000    0.7044638   -4.5758273    1843.7535   0.04467756  0.043774778           14 
 3440000   0.71071487   -4.5943895    1839.0709  0.044551135  0.043764683            4 
 3441000   0.69108988   -4.5893748    1840.8319  0.044580837   0.04375459            5 
 3442000   0.70405215   -4.5775576    1846.7773  0.044711827  0.043744524            6 
 3443000   0.70867248   -4.6154539    1838.1302  0.044489549  0.043734443            3 
 3444000   0.69445392    -4.586803    1842.3448  0.044578611  0.043724414            9 
 3445000   0.69886558   -4.5862593    1841.0671  0.044534763   0.04371436            7 
 3446000   0.69637177   -4.5855726    1843.0186  0.044569031  0.043704285            9 
 3447000   0.70384148   -4.5959345    1846.8768  0.044649376  0.043694245            7 
 3448000   0.71415298   -4.5945305    1842.1135  0.044521305  0.043684183            8 
 3449000   0.70196632   -4.5906066    1847.3435   0.04463476  0.043674127            7 
 3450000   0.69923746   -4.6096783    1846.8729  0.044610456  0.043664148            5 
 3451000   0.69513056   -4.5929751    1844.4364  0.044538693  0.043654091           10 
 3452000   0.69916052   -4.6116386    1843.0876   0.04449323  0.043643989           24 
 3453000    0.7028602   -4.5907094    1845.9093  0.044548443  0.043633892            4 
 3454000   0.68614772   -4.6056889    1847.8015  0.044581199  0.043623916           12 
 3455000   0.70647252   -4.6058204     1845.957  0.044523807  0.043613943            6 
 3456000   0.69460304   -4.5956237    1845.1894  0.044492415  0.043603852            3 
 3457000   0.72655778   -4.6130797    1846.9441  0.044521841  0.043593866           12 
 3458000   0.71592941   -4.5859112    1847.1354  0.044513576   0.04358385            9 
 3459000   0.69185747   -4.6153457    1842.4936   0.04438888  0.043573902            8 
 3460000   0.71613115   -4.6360637    1842.2604  0.044370434  0.043563805            8 
 3461000   0.69911275   -4.6117754    1850.1951  0.044548664  0.043553764            4 
 3462000    0.6947767   -4.6092993    1842.4756  0.044349981  0.043543805            4 
 3463000   0.71754808    -4.603722    1846.4092  0.044431831  0.043533784            5 
 3464000   0.68515076   -4.5728188    1853.4277   0.04458785  0.043523892            6 
 3465000   0.70497834   -4.5808564    1849.6978  0.044485276  0.043513996            4 
 3466000   0.70073955   -4.6073888    1851.1562  0.044507507  0.043504078            7 
 3467000   0.68888644   -4.6251248    1845.6494  0.044362306  0.043494084           12 
 3468000   0.69435687    -4.605844    1850.9058  0.044475821  0.043484163            5 
 3469000   0.69247709   -4.6081147    1849.6141  0.044431972  0.043474279            6 
 3470000   0.69036908   -4.5937802    1846.1414  0.044335768  0.043464444            6 
 3471000   0.70573246   -4.6048114    1851.2628  0.044445952  0.043454532           12 
 3472000   0.69604872   -4.5847499    1850.0831  0.044404837  0.043444601            7 
 3473000   0.69854346   -4.6100683    1848.1102  0.044344711  0.043434677           13 
 3474000   0.68453969   -4.6199751    1847.3687  0.044314161  0.043424779            6 
 3475000   0.68235732   -4.6347997    1849.8468  0.044360835  0.043414846            5 
 3476000   0.70153323    -4.588087    1848.5885  0.044317906  0.043404921            9 
 3477000   0.71316133   -4.6154686    1849.9574  0.044337969  0.043395057            9 
 3478000   0.68527366   -4.6177649    1850.0373  0.044327136  0.043385116           18 
 3479000   0.69678865   -4.6135644    1851.9899  0.044361164  0.043375292            9 
 3480000   0.68764089    -4.612079    1854.0964   0.04439886  0.043365385           10 
 3481000    0.6825561   -4.6259683    1853.6409  0.044375202   0.04335552           12 
 3482000   0.70729311   -4.6030782    1851.4832  0.044310818  0.043345638            7 
 3483000   0.68792962   -4.5901191     1850.819  0.044282205  0.043335783            5 
 3484000   0.70539107   -4.5989112      1853.12   0.04432453  0.043325962            5 
 3485000   0.68710373   -4.6177883     1847.334  0.044173458  0.043316115           10 
 3486000   0.69649881   -4.6102623    1855.7867  0.044362848  0.043306256           14 
 3487000   0.67873666   -4.6114878     1855.046  0.044332426  0.043296383           15 
 3488000    0.6908742   -4.6195477    1852.2026  0.044251782  0.043286553           10 
 3489000   0.70621688   -4.6140352    1851.1959  0.044215054  0.043276704            9 
 3490000   0.70166966   -4.6188023    1851.8969  0.044219124   0.04326687           18 
 3491000   0.70171298   -4.6287146     1848.862  0.044134012  0.043257007            4 
 3492000   0.67784887   -4.5875421    1856.4146   0.04430161  0.043247201            9 
 3493000    0.6891197   -4.6376332     1856.854  0.044299408  0.043237427           14 
 3494000   0.70301516   -4.6241321    1855.7868  0.044261277   0.04322765            8 
 3495000   0.70067617   -4.6113603    1854.2667  0.044212368   0.04321785            5 
 3496000   0.70441474   -4.6204504     1854.392  0.044202707  0.043208037            6 
 3497000   0.68871985   -4.5984897    1851.7389  0.044126844  0.043198314            6 
 3498000   0.68788753   -4.6219503    1857.6525  0.044255109   0.04318857            6 
 3499000   0.68818574   -4.6242768    1858.1238  0.044253686  0.043178759            5 
 3500000   0.67799199   -4.5842667    1860.1728  0.044289828  0.043168938            6 
 3501000   0.67779554   -4.6190857    1850.4399  0.044045509  0.043159187           11 
 3502000   0.69258891    -4.603987    1854.4474  0.044128294  0.043149403            4 
 3503000   0.69571586    -4.601692    1854.8163  0.044124472  0.043139698            6 
 3504000   0.67623114   -4.6148507    1855.9027  0.044137717  0.043129952            4 
 3505000   0.68832349    -4.636883    1858.3982  0.044184456  0.043120156            6 
 3506000   0.69213463   -4.6096178    1853.2581   0.04404968  0.043110407            5 
 3507000   0.69459813   -4.6197728    1858.9017  0.044171223  0.043100654           13 
 3508000   0.69718212   -4.6268282    1856.9242  0.044111654  0.043090921           10 
 3509000   0.68748663   -4.6506701    1857.9222  0.044122784  0.043081221            6 
 3510000   0.68858773   -4.6442161    1853.8541  0.044013629   0.04307147            9 
 3511000   0.69122349   -4.5940039    1858.0265  0.044100126  0.043061719            8 
 3512000   0.70996688   -4.6169364    1854.8987  0.044013351  0.043052011            3 
 3513000   0.68115495     -4.61182    1864.9354  0.044238908  0.043042267            5 
 3514000   0.68446747   -4.6256279    1857.1497  0.044041683  0.043032514            7 
 3515000   0.69928422   -4.6290558    1849.9003  0.043857286  0.043022737            6 
 3516000   0.69469572   -4.6175847    1863.1679  0.044159269  0.043013044            4 
 3517000   0.68621041   -4.6473293    1857.6884   0.04401688  0.043003331            6 
 3518000   0.68942758   -4.6079776    1857.0064  0.043988212  0.042993675            7 
 3519000   0.69330083   -4.6121474    1863.8721  0.044138299  0.042984047            6 
 3520000   0.68093935   -4.5921017    1859.1429    0.0440138  0.042974486            7 
 3521000   0.67829013   -4.6234342    1858.1707  0.043978289  0.042964787            9 
 3522000   0.67081185   -4.6205551    1861.4323  0.044042975  0.042955117            5 
 3523000   0.68213968   -4.6304533    1859.0277  0.043973595  0.042945443            7 
 3524000   0.67756144   -4.6358713    1865.3153  0.044109803   0.04293583           11 
 3525000    0.6867325   -4.6282127    1861.4509  0.044005932  0.042926158           11 
 3526000   0.69154678   -4.6369647     1865.381  0.044086334  0.042916539           11 
 3527000   0.69226296   -4.6197242    1864.2794  0.044047807  0.042906919            3 
 3528000   0.68649197    -4.622668    1861.2147  0.043962932  0.042897355            5 
 3529000   0.67347844   -4.6244853    1864.7783  0.044034625  0.042887769           13 
 3530000   0.69043162   -4.6059653    1871.2601  0.044175169  0.042878241           18 
 3531000    0.6893715   -4.6159431    1864.4162  0.044001138  0.042868694           13 
 3532000     0.685249   -4.6375712    1857.8562  0.043833904  0.042859082            4 
 3533000   0.68134838   -4.6279529    1866.6316  0.044028484   0.04284948            5 
 3534000   0.68400683   -4.6455242    1863.3518  0.043938687  0.042839962            9 
 3535000   0.68859451   -4.6649814     1863.401  0.043927415  0.042830409            8 
 3536000   0.70660531   -4.6191472    1872.2657   0.04412391  0.042820924           10 
 3537000   0.68643595   -4.6141678    1864.3685  0.043925373  0.042811382           13 
 3538000   0.69146632   -4.6357261    1865.0245  0.043928409  0.042801836            8 
 3539000   0.67926863   -4.6093153    1871.5865  0.044070511  0.042792295            8 
 3540000   0.67197595   -4.6368822    1868.8889   0.04399456  0.042782831            5 
 3541000   0.68141712   -4.6456996    1864.4742   0.04387824  0.042773312            7 
 3542000   0.67382946   -4.6413546    1860.8389  0.043780323  0.042763746            9 
 3543000   0.69081698   -4.6232765    1868.6588  0.043951896  0.042754229            4 
 3544000    0.6897258   -4.6404585    1865.4228  0.043863402  0.042744721            8 
 3545000   0.68322583   -4.6108444    1867.0772   0.04388992  0.042735253            3 
 3546000    0.6905042   -4.6280668    1868.5764  0.043912776  0.042725767           12 
 3547000    0.6859605   -4.6235656    1869.0868  0.043912386   0.04271622           11 
 3548000   0.69074998   -4.6268725    1865.1223  0.043806894  0.042706626           19 
 3549000   0.68635885    -4.630223    1864.9065  0.043789483  0.042697031           11 
 3550000   0.67421929   -4.6369778    1867.0818  0.043828211   0.04268747           18 
 3551000   0.69130088   -4.6135247      1864.99   0.04376678  0.042677905            4 
 3552000   0.66342119   -4.6362876    1865.6659  0.043770315  0.042668297            9 
 3553000   0.68436467   -4.6485982    1859.0096  0.043601876  0.042658748            7 
 3554000   0.68608017   -4.6636922    1858.2135   0.04357094  0.042649138           11 
 3555000   0.68070031   -4.6440444    1863.6084  0.043685147  0.042639499            5 
 3556000   0.68398078   -4.6321563    1865.6883  0.043721603  0.042629853            9 
 3557000   0.68455969   -4.6128792    1868.9036  0.043784641  0.042620271           11 
 3558000   0.68617546   -4.6191394    1864.2454  0.043663232  0.042610675            8 
 3559000    0.6840273   -4.6449215    1861.8822   0.04359563  0.042601022            5 
 3560000   0.69024727   -4.5981291     1867.412  0.043712829  0.042591388            7 
 3561000   0.68417007   -4.6339622    1869.0583  0.043739077  0.042581756           12 
 3562000   0.67752601   -4.6392293    1863.8042  0.043603879  0.042572089           16 
 3563000   0.67435725   -4.6288067    1866.0457  0.043644067  0.042562447           14 
 3564000   0.67801817   -4.6168848    1865.6385  0.043622299  0.042552881            5 
 3565000   0.67479639   -4.6308772    1865.5469  0.043607921  0.042543268           15 
 3566000   0.67540828   -4.6506588    1869.4745  0.043687476  0.042533628            9 
 3567000   0.68188135   -4.6580063    1866.9562  0.043616395  0.042523955           12 
 3568000    0.6871823   -4.6363476    1865.0621  0.043559934  0.042514335            6 
 3569000   0.66921485   -4.6476343    1860.9005  0.043450559   0.04250471           11 
 3570000   0.67882689   -4.6292141    1856.9624  0.043346461  0.042495013            5 
 3571000   0.68190352   -4.6485318    1863.5999  0.043489215   0.04248527           13 
 3572000   0.68840217   -4.6435364    1863.9967  0.043486297  0.042475553            6 
 3573000   0.68521663   -4.6404289    1865.4637  0.043508343  0.042465847            7 
 3574000   0.66374319   -4.6205914    1868.1593   0.04355902  0.042456158           11 
 3575000    0.6805357    -4.626362    1864.8733   0.04347024  0.042446448            8 
 3576000   0.67611028   -4.6470295    1865.0935  0.043463216  0.042436668            4 
 3577000   0.68271097   -4.6549756    1861.9377  0.043377543  0.042426904           15 
 3578000   0.69712149   -4.6383119    1864.0172  0.043413853  0.042417244            9 
 3579000   0.67980679   -4.6389566    1866.5723  0.043461216  0.042407544            6 
 3580000   0.68641062   -4.6416008    1860.1069  0.043298579  0.042397825            4 
 3581000   0.68547769   -4.6270434    1866.5442  0.043436288   0.04238807            9 
 3582000   0.68572802   -4.6509115    1859.7934  0.043267108  0.042378356            9 
 3583000   0.69698113   -4.6583771    1868.6535  0.043461101  0.042368661            6 
 3584000   0.67926055    -4.634653     1864.406  0.043350215  0.042359003           11 
 3585000   0.68651787   -4.6414675     1858.592  0.043202975  0.042349252           11 
 3586000   0.67283915    -4.642228    1861.6155  0.043261189  0.042339475            5 
 3587000     0.662983   -4.6600786    1862.3759  0.043266794  0.042329688            4 
 3588000   0.67877282   -4.6174599    1868.2892  0.043392075  0.042319849           19 
 3589000   0.69371213   -4.6423951    1864.8466  0.043300051  0.042310056            9 
 3590000   0.67372133   -4.6278083     1872.767  0.043471843  0.042300302            7 
 3591000   0.67386799   -4.6303277    1864.7695  0.043274147  0.042290537            7 
 3592000   0.68661483   -4.6456806    1859.3163  0.043135585  0.042280828           12 
 3593000   0.66885341   -4.6464849    1863.5091  0.043220825  0.042271072            6 
 3594000   0.66523756   -4.6609546    1866.6246  0.043281037  0.042261346            5 
 3595000    0.6682679   -4.6504344    1867.4734  0.043288674  0.042251618            5 
 3596000   0.67251525   -4.6580016    1870.6218  0.043349596  0.042241883           12 
 3597000   0.69222799    -4.632652    1865.8636  0.043227309  0.042232113            8 
 3598000   0.67842836   -4.6404392    1868.2467  0.043270492  0.042222394            5 
 3599000   0.67004184   -4.6537691     1865.619  0.043197624  0.042212716            5 
 3600000   0.67222056   -4.6385551    1863.1565  0.043128622  0.042203012            7 
 3601000   0.67562077   -4.6632953    1863.4864   0.04312428  0.042193291            9 
 3602000   0.67120424   -4.6344783    1867.4009  0.043202871  0.042183558            7 
 3603000   0.69153627   -4.6630578    1867.4789  0.043192685  0.042173804            7 
 3604000   0.68062496   -4.6546149    1867.2541  0.043175503  0.042164044           18 
 3605000   0.67690556   -4.6513372    1869.3804  0.043212676  0.042154362            8 
 3606000   0.67978766   -4.6669143    1866.0214  0.043123069  0.042144591            6 
 3607000   0.67089798   -4.6635154    1869.9757   0.04320247  0.042134875            9 
 3608000   0.65521341    -4.659481    1867.9222  0.043143066  0.042125159            6 
 3609000    0.6580091   -4.6417392    1868.0555  0.043134191  0.042115398            9 
 3610000   0.66842065    -4.640624    1868.4628  0.043131643  0.042105733            9 
 3611000   0.68454018   -4.6220243    1871.4068  0.043187639  0.042096057           16 
 3612000   0.67653052   -4.6680282    1868.5878  0.043110645  0.042086369           14 
 3613000   0.67092497   -4.6616384    1866.7547  0.043056433   0.04207662            6 
 3614000   0.66614566   -4.6556266    1865.8113  0.043022765  0.042066893            6 
 3615000   0.67181896   -4.6804688    1870.4724  0.043118313  0.042057154            4 
 3616000   0.67232331   -4.6636251    1864.9561  0.042979261  0.042047422            6 
 3617000   0.67872109   -4.6781736     1865.686  0.042984194  0.042037705           15 
 3618000   0.67034728   -4.6647514    1865.2871  0.042963125  0.042028015            7 
 3619000    0.6700667   -4.6382735    1872.4742  0.043116749  0.042018365            5 
 3620000    0.6940698   -4.6504281    1868.6912  0.043017754  0.042008699           10 
 3621000   0.68285216   -4.6410011    1869.4246  0.043022752  0.041999004            5 
 3622000    0.6856861   -4.6359896    1871.7695  0.043064825  0.041989331            6 
 3623000   0.65853519   -4.6802526     1866.314  0.042927455  0.041979662            8 
 3624000   0.67719219   -4.6608695    1871.6751  0.043038887  0.041969959            7 
 3625000   0.66737446   -4.6427093     1875.869  0.043123426  0.041960307            6 
 3626000   0.66208997   -4.6459721    1875.0314  0.043092283  0.041950686            5 
 3627000   0.69008948   -4.6862761    1872.2589  0.043016701  0.041940991            6 
 3628000   0.68155418    -4.651236    1877.6006  0.043127541  0.041931373            9 
 3629000   0.68196734   -4.6570573    1868.5716  0.042908321  0.041921704            9 
 3630000   0.68017603   -4.6449205    1874.8838  0.043041409  0.041912018           10 
 3631000   0.68596192    -4.666903    1864.3666  0.042788181  0.041902315            6 
 3632000   0.68338023   -4.6715172    1867.3264   0.04284431  0.041892617            8 
 3633000   0.66853709   -4.6538898    1870.8426   0.04291317  0.041882956            6 
 3634000   0.65439764   -4.6575187    1873.8513  0.042970356  0.041873366            8 
 3635000   0.66742224   -4.6611055    1871.0815  0.042895036  0.041863678            4 
 3636000   0.67203721   -4.6849467    1866.7862  0.042784796  0.041853985            5 
 3637000   0.67570875   -4.6616488    1869.6933  0.042839641  0.041844232            6 
 3638000   0.66047134   -4.6566171    1870.7093  0.042851138  0.041834565           15 
 3639000   0.66598815   -4.6635293    1872.8573  0.042888551   0.04182488            6 
 3640000   0.68132545   -4.6733882    1872.5326  0.042869337   0.04181523           11 
 3641000   0.66278912   -4.6713049     1876.225  0.042942073  0.041805618            7 
 3642000   0.67118576   -4.6733809    1871.1432  0.042814004  0.041795954            5 
 3643000     0.680937   -4.6586868    1869.6899  0.042769007  0.041786275            7 
 3644000    0.6621244   -4.6605271    1872.7847  0.042828045  0.041776577            7 
 3645000   0.66565832   -4.6541586     1874.788  0.042862094  0.041766867            5 
 3646000   0.67301817   -4.6478167    1870.5007  0.042752348  0.041757204           11 
 3647000   0.67247415   -4.6489316    1873.9684  0.042819861  0.041747608            3 
 3648000   0.66259353   -4.6522091    1875.1359  0.042834793  0.041737975           10 
 3649000   0.66263476   -4.6722394    1874.0302  0.042797803  0.041728322           27 
 3650000   0.66678746   -4.6757602    1875.8815  0.042828345  0.041718664            5 
 3651000    0.6581508   -4.6282509    1873.7625  0.042768248  0.041709063           14 
 3652000   0.66791558   -4.6582626    1869.3419  0.042655665  0.041699442           13 
 3653000   0.67279315    -4.665286    1872.1263  0.042707507   0.04168984           12 
 3654000   0.68147289   -4.6702942    1874.9061  0.042759215  0.041680154           17 
 3655000   0.67984326   -4.6837142     1872.745  0.042698244  0.041670446            5 
 3656000   0.66859769   -4.6949707    1875.1791  0.042742047  0.041660828            6 
 3657000   0.66156759   -4.6808727    1871.4054  0.042644368  0.041651135            7 
 3658000   0.66713324   -4.6662866    1872.0286  0.042646907  0.041641494           11 
 3659000   0.66864766   -4.6394114    1872.2876  0.042641149  0.041631903            6 
 3660000   0.65421698   -4.6507264    1873.1023   0.04264805  0.041622274           16 
 3661000   0.67336206     -4.68414    1873.0597   0.04263543  0.041612622           10 
 3662000   0.66648869   -4.6752731    1871.2966  0.042583665  0.041602917           18 
 3663000   0.66643596   -4.6857833    1871.8117  0.042583759  0.041593277           10 
 3664000   0.67723919   -4.6598507    1877.4752  0.042700945  0.041583686           10 
 3665000   0.66312161   -4.6732703    1877.4901  0.042689635  0.041574057           10 
 3666000   0.66345687   -4.6729912    1880.0722  0.042736684   0.04156438            8 
 3667000   0.67451763   -4.6681946     1875.597  0.042623329  0.041554759            8 
 3668000   0.66656063    -4.646108    1875.4306  0.042607929  0.041545136            4 
 3669000   0.65531675   -4.6366034    1884.1512  0.042794386  0.041535572            5 
 3670000   0.65955356   -4.6756799    1877.1648  0.042624088  0.041526036           19 
 3671000   0.65921656   -4.6764117     1876.478  0.042596885  0.041516444           10 
 3672000   0.65295006   -4.6614698     1872.333  0.042491218   0.04150686            6 
 3673000   0.65809454   -4.6984919    1870.1601  0.042430349   0.04149723            7 
 3674000   0.66953779   -4.6688728    1880.5738  0.042655004  0.041487617           13 
 3675000   0.65376196   -4.6736431    1873.6566  0.042486545  0.041477994            8 
 3676000   0.65752897    -4.673423      1873.32  0.042467356  0.041468396            6 
 3677000   0.65709305   -4.6545833    1876.0379  0.042517404  0.041458846            3 
 3678000   0.68691479   -4.6860682    1877.4943  0.042538841  0.041449229            9 
 3679000    0.6664182   -4.6794602    1878.6692  0.042553891  0.041439651            8 
 3680000   0.65824358   -4.6833399    1877.2851  0.042510985    0.0414301            9 
 3681000   0.67582761   -4.6618159      1871.67  0.042372318  0.041420583            6 
 3682000   0.66336527   -4.6782638    1879.7271  0.042543163  0.041411051            6 
 3683000   0.65045281   -4.6797213    1876.7749  0.042464815  0.041401468           12 
 3684000   0.67140623   -4.6700035    1879.6995  0.042519442  0.041391939           16 
 3685000   0.67250636   -4.6501292    1881.0679  0.042538848  0.041382447           16 
 3686000   0.64807771   -4.6683866    1878.5427  0.042470219  0.041372951           11 
 3687000   0.66183314   -4.6685132    1879.9168  0.042489758  0.041363437            4 
 3688000   0.66198812   -4.6889845    1874.2404  0.042349973  0.041353923           16 
 3689000   0.65732312   -4.6737149    1881.3654  0.042499444  0.041344352           18 
 3690000   0.65033454   -4.6651491    1874.0751  0.042323286   0.04133478            6 
 3691000    0.6587295   -4.6625072    1879.9768  0.042445064  0.041325201           14 
 3692000   0.66032756   -4.6847449     1877.349  0.042374256  0.041315589            8 
 3693000   0.65979873   -4.6917169    1876.2114   0.04233711  0.041305961           28 
 3694000   0.66076271   -4.6951918    1876.0809  0.042322706   0.04129626           13 
 3695000   0.65163875   -4.6696979    1878.0739    0.0423562  0.041286609           11 
 3696000   0.66981999   -4.6890206    1876.9027  0.042318333  0.041276997           20 
 3697000   0.65033358   -4.6578722    1873.9291  0.042239859  0.041267331            6 
 3698000   0.66375256   -4.6803063    1876.2878  0.042281589  0.041257709           14 
 3699000   0.66453223   -4.7021384    1873.1833  0.042200219  0.041248001            7 
 3700000   0.64573869   -4.6785524    1881.5178  0.042376528  0.041238389           18 
 3701000   0.66407813   -4.6789407     1875.283  0.042224692   0.04122874           10 
 3702000   0.66539448   -4.6801439    1878.1254  0.042277268  0.041219116           18 
 3703000   0.67186064   -4.6744044    1878.1226  0.042265788  0.041209453            8 
 3704000   0.65594228   -4.6789887    1876.4731  0.042217266  0.041199854           11 
 3705000   0.64425544   -4.6770413    1875.2075  0.042177406   0.04119022            6 
 3706000   0.66169002   -4.6790291    1878.8396  0.042247696  0.041180609           15 
 3707000    0.6481722   -4.7015607    1876.5342  0.042184476  0.041170972            5 
 3708000    0.6488766   -4.6848476     1880.971  0.042272811  0.041161318           11 
 3709000   0.64584226   -4.6696175    1884.0399  0.042330365  0.041151691           18 
 3710000   0.65857506   -4.6942313      1877.92  0.042181492  0.041142096           19 
 3711000    0.6576219   -4.7140418    1875.4683  0.042115071  0.041132492            7 
 3712000   0.65542346   -4.6956988    1877.0497  0.042139225  0.041122835            8 
 3713000   0.66820173   -4.6957182    1877.0908  0.042128799    0.0411132            9 
 3714000   0.65255995   -4.6587131    1880.0809  0.042184547  0.041103591           11 
 3715000   0.65307923   -4.6767842    1879.5127  0.042160446  0.041094062            4 
 3716000   0.65627728    -4.674954    1876.9226  0.042091016  0.041084549            8 
 3717000   0.65915625   -4.6936278    1880.3923  0.042157481  0.041075038            7 
 3718000   0.64867721   -4.6724094    1882.2614  0.042188035  0.041065498            6 
 3719000   0.64093212   -4.6716038    1880.1835   0.04213013  0.041055939           10 
 3720000   0.64904099   -4.6804417    1879.2819  0.042098608  0.041046406           12 
 3721000   0.65196338   -4.7044632    1878.9865  0.042080681  0.041036831            8 
 3722000   0.66550048   -4.6819816    1877.9552  0.042046283  0.041027255           17 
 3723000   0.64658954   -4.6630026    1883.5681  0.042160625  0.041017715            6 
 3724000   0.65852539   -4.6993623    1879.9043  0.042067318   0.04100815            6 
 3725000   0.64639677   -4.6920238    1878.3686   0.04202167  0.040998658            9 
 3726000   0.66628614   -4.6707961    1884.0786  0.042138096  0.040989174            7 
 3727000   0.67161878   -4.6684926    1887.2027  0.042196643   0.04097971           14 
 3728000   0.65930053   -4.6983194    1876.7907  0.041952583  0.040970213           10 
 3729000   0.64773928   -4.6648687     1881.016  0.042035757  0.040960686            9 
 3730000   0.64622174   -4.7026954      1884.93  0.042111929  0.040951122            6 
 3731000   0.64793227   -4.6846696    1892.3226   0.04226576  0.040941651            7 
 3732000   0.64710277   -4.6892503    1882.0021  0.042023984  0.040932161           15 
 3733000   0.66989879   -4.6978642    1883.2753   0.04204115  0.040922596            7 
 3734000   0.65203685   -4.7216955    1875.0847  0.041847096  0.040913025            9 
 3735000   0.64696757   -4.6952621    1884.2198   0.04203971  0.040903432            9 
 3736000   0.65734124   -4.7050775    1886.0249   0.04206872  0.040893902            3 
 3737000   0.65702805   -4.7001374    1880.8496  0.041942058  0.040884387           10 
 3738000   0.65154784    -4.699838     1886.236  0.042050919  0.040874844            7 
 3739000   0.66263815   -4.7013227    1880.8601  0.041919856  0.040865328            7 
 3740000   0.64673732   -4.7070485    1887.3541  0.042053345  0.040855885           10 
 3741000   0.64364963   -4.7008274    1880.6357  0.041892446  0.040846311           12 
 3742000   0.65080285   -4.7047734    1884.4847  0.041966967   0.04083676            4 
 3743000   0.67140938   -4.7180834    1880.7175  0.041871883  0.040827264            7 
 3744000   0.65066013   -4.6916619    1880.7504  0.041861433   0.04081776           11 
 3745000   0.65290449   -4.7064553    1882.2386  0.041883369   0.04080824           12 
 3746000   0.65776908   -4.6735084    1882.4436  0.041876748  0.040798758           18 
 3747000   0.66896938   -4.6821082    1883.2595  0.041883717  0.040789235           12 
 3748000    0.6526032    -4.696077    1878.8136  0.041773692  0.040779698           10 
 3749000   0.64948497   -4.6897954    1886.4382  0.041932031  0.040770157            5 
 3750000    0.6531866    -4.696669    1884.9507  0.041887794  0.040760637           17 
 3751000   0.64397015   -4.7186231    1879.8415  0.041763118  0.040751052            6 
 3752000   0.65553981   -4.7130186    1884.5633   0.04185686  0.040741476           10 
 3753000   0.64023655    -4.716212    1881.2303  0.041771701  0.040731927           18 
 3754000   0.66217456   -4.7156954    1883.3486  0.041807595  0.040722408            9 
 3755000   0.66426213   -4.7291436    1876.6901  0.041648692  0.040712848           12 
 3756000   0.65442123   -4.6970118    1883.2092  0.041782243  0.040703283           12 
 3757000    0.6401467   -4.7027016    1880.7006  0.041715477  0.040693716           12 
 3758000   0.65088137   -4.7045182    1882.3434  0.041740806  0.040684188            8 
 3759000    0.6552042   -4.7127955    1884.6049  0.041779838  0.040674668           17 
 3760000   0.65239965   -4.6727203    1883.7646  0.041750103  0.040665158           12 
 3761000   0.63778336   -4.7046823    1881.8475  0.041696524  0.040655638           13 
 3762000   0.65605913   -4.7017062    1880.7365   0.04166083  0.040646081           24 
 3763000   0.65898548   -4.7093855    1884.4871  0.041732816    0.0406365           14 
 3764000   0.66936358   -4.7074826    1885.1181  0.041735701  0.040626876            9 
 3765000   0.64669934   -4.7062216    1882.7965  0.041673228  0.040617306           19 
 3766000   0.62300506   -4.7100512    1881.4984  0.041633441  0.040607737           10 
 3767000   0.64919197   -4.7104419    1883.6144  0.041669197  0.040598153           10 
 3768000   0.65791884   -4.7076853    1881.5071  0.041611534  0.040588622           23 
 3769000   0.65429207   -4.7007412    1889.9809  0.041787851  0.040579083            6 
 3770000   0.65208295   -4.7146156    1883.6236  0.041636241  0.040569575           17 
 3771000   0.64220471   -4.7072023      1887.85  0.041718598   0.04055999           11 
 3772000   0.64089199   -4.7186928    1882.3359  0.041585718   0.04055047            9 
 3773000    0.6502796   -4.6970546    1883.3145  0.041596309  0.040540924           19 
 3774000   0.63527106    -4.710209    1884.6685  0.041615184  0.040531364           16 
 3775000   0.65003456   -4.7014585    1888.7062  0.041693293  0.040521823            8 
 3776000   0.65933184   -4.7118052    1889.8331  0.041707122  0.040512408           10 
 3777000   0.64917623   -4.7256239    1882.5539  0.041535476  0.040502854           12 
 3778000    0.6496265   -4.7082001    1890.8031  0.041706439  0.040493303            6 
 3779000    0.6486785   -4.7265607    1877.0847  0.041392889   0.04048377           12 
 3780000   0.64606584   -4.7130556    1884.9392  0.041555097  0.040474223           12 
 3781000   0.64502367   -4.7049585    1889.3253  0.041640777  0.040464674            4 
 3782000     0.650678   -4.6952457    1884.7483  0.041528915  0.040455163           14 
 3783000   0.65319039   -4.7194495    1887.7234  0.041583474  0.040445596            5 
 3784000   0.64834215   -4.7268324    1886.6045  0.041547844  0.040435996            9 
 3785000    0.6457413   -4.7066949    1883.9954  0.041479424  0.040426404            5 
 3786000   0.64214328   -4.7124074    1881.6761  0.041417417  0.040416782           19 
 3787000   0.65057669   -4.7060528    1883.6142  0.041449129  0.040407188            6 
 3788000   0.64392571   -4.7022545    1885.4176   0.04147786  0.040397601            9 
 3789000   0.65213229   -4.7361523    1881.5905  0.041382743  0.040388005           13 
 3790000   0.63983134   -4.7055711    1884.0098  0.041425018  0.040378458           15 
 3791000   0.66243117   -4.7045772    1885.0941  0.041437925  0.040368898            4 
 3792000   0.64548406   -4.7001039    1885.5701  0.041437457  0.040359351            9 
 3793000   0.65023484   -4.7275825    1880.4337  0.041313685  0.040349757            7 
 3794000   0.66721407   -4.6942927    1881.8728  0.041334406  0.040340135            8 
 3795000    0.6550343   -4.6870155    1882.6787   0.04134121  0.040330622           10 
 3796000   0.64014666   -4.7054174    1885.1633  0.041384863  0.040321082           27 
 3797000    0.6410684    -4.706055    1890.4898  0.041490866  0.040311551           14 
 3798000   0.64154147   -4.7248391    1887.9289  0.041423752  0.040301989           33 
 3799000   0.65398192   -4.7147283    1881.9102  0.041280824  0.040292439           17 
 3800000   0.63558168   -4.7405988     1880.102  0.041230307  0.040282778            5 
 3801000   0.66101491   -4.7202297    1885.2299  0.041331884  0.040273166            6 
 3802000   0.64574862   -4.6918104    1890.0843  0.041427414  0.040263693           17 
 3803000   0.62968316   -4.7075115    1887.1358  0.041351912  0.040254136           10 
 3804000   0.63780935   -4.7283534    1886.2961  0.041322645  0.040244544           12 
 3805000   0.63200706   -4.6960304      1885.97  0.041304642  0.040234974            6 
 3806000   0.64758947   -4.7044919    1884.5322  0.041262309  0.040225418           14 
 3807000   0.63164738    -4.687402    1886.2089  0.041288172  0.040215863           11 
 3808000   0.63890842   -4.7124073    1883.3425  0.041214602  0.040206305            6 
 3809000   0.63088227   -4.7362528    1887.2502  0.041289275    0.0401967           12 
 3810000   0.64255042   -4.7081439    1891.0457  0.041361455  0.040187121           12 
 3811000   0.62912437   -4.7396063     1882.786  0.041169991  0.040177579           32 
 3812000   0.64068797   -4.7258369     1888.887  0.041292564  0.040168077           16 
 3813000   0.64493011   -4.7022122    1885.0072   0.04119694  0.040158593           17 
 3814000   0.63164665   -4.7180984    1888.1187  0.041254123  0.040149085           10 
 3815000   0.62837493   -4.6981662    1886.4761  0.041207429  0.040139581            6 
 3816000   0.64248245   -4.7092905    1887.7958  0.041225449  0.040130085            7 
 3817000   0.63354973    -4.705317    1892.7097  0.041321931  0.040120569           18 
 3818000   0.63099691   -4.7182635    1885.4022   0.04115161   0.04011104            9 
 3819000   0.64368908   -4.7304891    1882.9622  0.041087594  0.040101538           23 
 3820000   0.63708153   -4.7166715    1888.7411  0.041202904   0.04009201           14 
 3821000   0.65128465   -4.7238071    1885.7092  0.041125998  0.040082451            8 
 3822000   0.63352971   -4.7138248    1883.8779  0.041075306  0.040072936            4 
 3823000   0.63699503   -4.7313805    1882.1488  0.041026871  0.040063369            5 
 3824000   0.64853676   -4.7292683    1883.7291  0.041050582  0.040053771            6 
 3825000   0.64385763   -4.7417124    1884.8085  0.041063366  0.040044176            7 
 3826000   0.64593677   -4.7313535     1886.649  0.041092721  0.040034626           22 
 3827000    0.6371679   -4.7039915    1886.5216  0.041079208  0.040025101            5 
 3828000   0.63716933   -4.7209087     1891.029  0.041166601  0.040015566            5 
 3829000   0.64829919   -4.7256847    1886.2901  0.041052713   0.04000599            7 
 3830000   0.63825898   -4.7052368    1887.0185  0.041057843  0.039996404            7 
 3831000   0.64813051   -4.7112448    1887.4427  0.041056353  0.039986811            7 
 3832000   0.62722925   -4.7063569     1887.155  0.041039382  0.039977258            7 
 3833000   0.64919748   -4.7271539    1890.6566  0.041104804  0.039967716           12 
 3834000    0.6406838   -4.7412505    1882.6473  0.040919999   0.03995811            7 
 3835000   0.64487986   -4.7346823    1887.8067  0.041021441  0.039948559            7 
 3836000   0.64215404   -4.7295297    1885.7623  0.040966334  0.039938971            4 
 3837000   0.62718192   -4.7324825    1885.0114  0.040939349  0.039929375           23 
 3838000   0.63861947   -4.7311641    1888.2463  0.040998922  0.039919778           18 
 3839000     0.636261   -4.7158112    1892.2246  0.041074598  0.039910235            9 
 3840000   0.63971116   -4.7133246    1887.1845  0.040954525  0.039900708            9 
 3841000   0.63107042   -4.7213441    1888.8062  0.040979047  0.039891151            9 
 3842000   0.63700442   -4.7187788    1889.6569  0.040986831  0.039881585            9 
 3843000    0.6311262   -4.7212049    1887.5835  0.040931205  0.039871992           17 
 3844000   0.62583662   -4.7405147    1887.9082  0.040927598  0.039862447            6 
 3845000   0.64642187   -4.7264203    1888.9886  0.040940368   0.03985287            9 
 3846000   0.62519503   -4.7254612    1890.4287  0.040960927  0.039843301            8 
 3847000   0.62649736   -4.7398742    1885.7833   0.04084965  0.039833709           12 
 3848000   0.63371473   -4.7464117    1886.8879  0.040862957  0.039824195           10 
 3849000   0.64489871   -4.7423351    1882.5255  0.040757892  0.039814667           17 
 3850000   0.64399241   -4.7402055    1884.2489  0.040784607  0.039805088           15 
 3851000   0.63454632   -4.7344985    1885.6754  0.040804885  0.039795506            7 
 3852000   0.65114515   -4.7225817    1890.6541  0.040902001  0.039785975           14 
 3853000   0.62758533   -4.7222436    1889.1112  0.040858015  0.039776424            5 
 3854000   0.62125271   -4.7390422    1886.6398  0.040793976  0.039766933           10 
 3855000    0.6319181   -4.7369356    1882.4879  0.040693643   0.03975736           11 
 3856000   0.62525719   -4.7108027    1887.9358  0.040800826  0.039747805            8 
 3857000   0.63992664   -4.7393811    1884.6153  0.040718505  0.039738286           10 
 3858000    0.6394888   -4.7232379    1895.4206  0.040941348  0.039728713            9 
 3859000   0.64685314   -4.7022368    1887.7814  0.040765772  0.039719183            8 
 3860000   0.64497621   -4.7437193    1887.2031  0.040742726  0.039709698            8 
 3861000   0.63997687   -4.7453976    1886.4053  0.040714955  0.039700169           11 
 3862000   0.65168583   -4.7101832    1889.4459  0.040770021  0.039690689            7 
 3863000   0.64672881   -4.7201541    1894.8332  0.040875684  0.039681204           11 
 3864000   0.63695265     -4.73075    1891.3646  0.040790299  0.039671718           11 
 3865000   0.62420093   -4.7421693     1886.253  0.040669534  0.039662196            7 
 3866000   0.63240176    -4.724689    1887.4987  0.040685866  0.039652696            9 
 3867000   0.63725479   -4.7374639    1892.5649   0.04078452  0.039643211            9 
 3868000   0.62645404   -4.7341545    1888.9212  0.040695475  0.039633722           19 
 3869000   0.63000936   -4.7189893    1884.6979  0.040593994  0.039624198            6 
 3870000   0.64079106   -4.7258095    1895.2848  0.040811472  0.039614696           15 
 3871000   0.62548546   -4.7129095    1892.8346  0.040748183  0.039605251            5 
 3872000    0.6377106   -4.7261997    1888.3046  0.040640164  0.039595743           10 
 3873000   0.62904548   -4.7341918    1889.7616  0.040661022  0.039586257           12 
 3874000   0.62528633   -4.7449643    1891.3376  0.040684427  0.039576828           19 
 3875000   0.62493428   -4.7404961     1892.771  0.040704752  0.039567318            8 
 3876000   0.63742928    -4.754757    1886.4657  0.040558687  0.039557798           11 
 3877000   0.62057018   -4.7495933    1894.2164  0.040714823  0.039548328            7 
 3878000    0.6396533   -4.7513249    1892.0255  0.040657244  0.039538824           10 
 3879000   0.63491135   -4.7405692    1890.9475  0.040623604  0.039529311            9 
 3880000   0.61524389   -4.7466493    1889.7431  0.040587266  0.039519829            4 
 3881000   0.62577115   -4.7491215    1889.7294  0.040576513  0.039510315            3 
 3882000   0.61793336   -4.7485678    1890.0558  0.040573068   0.03950078            6 
 3883000   0.62090545   -4.7293631    1887.3317  0.040504156   0.03949134            7 
 3884000   0.61925024   -4.7341895    1892.0335  0.040594609  0.039481847            8 
 3885000   0.63880983   -4.7495964    1886.2295  0.040459664  0.039472371           10 
 3886000   0.65101088   -4.7583076    1886.3945  0.040452791  0.039462852            9 
 3887000   0.62848711   -4.7567936    1889.4872  0.040508687  0.039453304           10 
 3888000   0.63416756   -4.7411791    1891.5946  0.040543438  0.039443765            8 
 3889000   0.64559125   -4.7491711    1889.4735   0.04048756  0.039434216           12 
 3890000   0.63218746   -4.7379984    1895.6426   0.04060931  0.039424757            9 
 3891000   0.62767125   -4.7571638    1891.4456  0.040508986  0.039415274            7 
 3892000   0.62603728   -4.7507059    1887.2842  0.040409477  0.039405786            9 
 3893000   0.62611578   -4.7441114    1890.7985  0.040474323  0.039396271            6 
 3894000   0.63376235   -4.7604428    1884.5798  0.040330848  0.039386678           13 
 3895000   0.63146927   -4.7659531    1889.2777  0.040421003  0.039377132           20 
 3896000   0.64902434   -4.7652803    1889.1286   0.04040744  0.039367609            5 
 3897000   0.61374573   -4.7414069    1886.3617  0.040337904  0.039358045            9 
 3898000   0.62792563    -4.744517     1889.476  0.040394134  0.039348552           11 
 3899000    0.6368371   -4.7651841    1892.2194  0.040442408  0.039339046            8 
 3900000   0.61656021   -4.7715305    1886.6491  0.040313014  0.039329462           12 
 3901000   0.62087845   -4.7573872     1884.416  0.040254978   0.03931988            5 
 3902000   0.64462272   -4.7669655      1885.37  0.040265035  0.039310294            7 
 3903000   0.61846155   -4.7459607    1889.8401  0.040350161  0.039300767            7 
 3904000    0.6150119   -4.7506433    1887.4172  0.040288106  0.039291236           12 
 3905000   0.62741162   -4.7615505    1890.3111  0.040339545  0.039281679            9 
 3906000   0.61798338   -4.7295067     1889.063   0.04030259  0.039272176            6 
 3907000   0.62550884   -4.7677567    1894.0124  0.040397842  0.039262632           27 
 3908000   0.62296103   -4.7428061    1892.4853  0.040354941   0.03925318           16 
 3909000   0.63568754   -4.7451259    1887.4094  0.040236408  0.039243664           14 
 3910000   0.61268713   -4.7476471    1889.7861   0.04027677  0.039234117            8 
 3911000    0.6176283   -4.7561824    1889.7558  0.040265827  0.039224603           21 
 3912000   0.62914318   -4.7482804    1891.7461  0.040297931  0.039215114            9 
 3913000   0.63455925    -4.748604    1886.2427  0.040170429  0.039205566           23 
 3914000   0.63382461   -4.7651815    1888.6257  0.040210904  0.039196061           15 
 3915000   0.62610878   -4.7644083    1889.2164  0.040213206  0.039186525           12 
 3916000   0.63246519   -4.7619278     1889.575  0.040210568  0.039176971           23 
 3917000   0.62078944   -4.7678843    1886.2353   0.04012925  0.039167429           10 
 3918000   0.62003501   -4.7321088    1885.9597  0.040113147  0.039157879            4 
 3919000   0.62350952    -4.752452    1896.6474  0.040330174  0.039148394           15 
 3920000   0.62166776   -4.7678242    1891.6753  0.040214185  0.039138888            5 
 3921000    0.6352543   -4.7552154    1893.4923  0.040242546  0.039129342           36 
 3922000   0.62941631   -4.7389343    1889.8774  0.040155477  0.039119789            8 
 3923000   0.60727373   -4.7533357    1888.7858  0.040122053  0.039110258           15 
 3924000   0.64207701   -4.7594264     1890.298  0.040143944  0.039100741           10 
 3925000    0.6273703   -4.7581913    1892.2937  0.040176088  0.039091236            9 
 3926000   0.62142748   -4.7396259    1887.3373  0.040060648  0.039081731           14 
 3927000   0.62429368   -4.7762845    1892.0636  0.040150742  0.039072222            4 
 3928000   0.62661954   -4.7707375    1888.1409  0.040057301  0.039062633            8 
 3929000   0.61176195   -4.7545223     1890.859  0.040104754  0.039053076            9 
 3930000   0.61527787    -4.764899    1883.2268  0.039932714  0.039043474           10 
 3931000   0.63623664   -4.7457114    1894.6338  0.040164373  0.039033904           13 
 3932000   0.62017317   -4.7558492    1893.2286  0.040124378  0.039024414            8 
 3933000   0.63433054   -4.7553738    1888.7849   0.04002002  0.039014888           12 
 3934000   0.62145602   -4.7392978    1891.3787  0.040064791  0.039005346           15 
 3935000   0.62066788   -4.7319622    1894.6144  0.040123134  0.038995819            6 
 3936000   0.62458327   -4.7614856    1892.0656  0.040058977  0.038986268           11 
 3937000    0.6219427   -4.7654438    1890.4639  0.040014899  0.038976657            7 
 3938000   0.60919258    -4.746482    1889.1303  0.039976517  0.038967104           17 
 3939000   0.62482316   -4.7869377     1886.803  0.039917132  0.038957486           12 
 3940000   0.62353085   -4.7777826    1881.0274  0.039784844  0.038947876           13 
 3941000   0.62276354     -4.76131    1886.5725  0.039892001  0.038938267            5 
 3942000   0.61945059   -4.7700376    1884.4174  0.039836322  0.038928726           13 
 3943000   0.62251485   -4.7622302     1890.032  0.039944881  0.038919201           11 
 3944000   0.61474158   -4.7718847    1889.5932  0.039925481  0.038909657           11 
 3945000    0.6304129   -4.7433856    1889.7325  0.039918304  0.038900097           10 
 3946000   0.62366468   -4.7622804    1892.5628  0.039967959  0.038890562           12 
 3947000   0.61577422   -4.7562687    1892.1336  0.039948771   0.03888103           20 
 3948000   0.63301379   -4.7754915    1892.2154  0.039940379  0.038871467           10 
 3949000   0.62250368    -4.764093     1889.279  0.039868301  0.038861876           12 
 3950000   0.62644416   -4.7731596    1886.1833  0.039792897   0.03885234           10 
 3951000   0.63190149   -4.7612076    1891.3703  0.039892227  0.038842764            5 
 3952000   0.60713267    -4.785215    1891.2524  0.039879647   0.03883329            7 
 3953000   0.62995092   -4.7636915    1889.0339  0.039822791  0.038823748            9 
 3954000   0.63769753   -4.7722282     1895.586   0.03995081  0.038814283           12 
 3955000    0.6148058   -4.7735355    1888.7039    0.0397957  0.038804782           11 
 3956000   0.61680428   -4.7728175    1888.2982  0.039777094   0.03879523           14 
 3957000   0.61468093   -4.7758479    1888.5388  0.039772108  0.038785668            7 
 3958000   0.62514687    -4.794457    1886.7347  0.039724076    0.0387761           16 
 3959000   0.62580364    -4.765053    1890.2004  0.039786992   0.03876653           14 
 3960000   0.62789622   -4.7894805    1889.4617  0.039761399  0.038756938            9 
 3961000   0.61420998   -4.8010166    1885.3071  0.039663956  0.038747327           10 
 3962000   0.60439558   -4.7799138    1893.8692  0.039834031  0.038737706            7 
 3963000   0.61156189   -4.7674036    1893.6132  0.039818597  0.038728152            9 
 3964000   0.60878976   -4.7836783    1892.0997  0.039776733  0.038718649            8 
 3965000   0.60593697   -4.7766976    1889.3135  0.039708145  0.038709137           16 
 3966000     0.621168   -4.7706876    1890.0314  0.039713216  0.038699603            9 
 3967000   0.61533909   -4.7632081    1890.3205  0.039709279  0.038690071            8 
 3968000   0.61149695   -4.7649225    1890.2779  0.039698376  0.038680529            9 
 3969000   0.62127548   -4.7763368    1889.4603  0.039671207   0.03867101            9 
 3970000   0.61903043   -4.7582943     1886.636  0.039601931  0.038661489            8 
 3971000   0.61977603    -4.773017    1891.3579   0.03969105  0.038651983            6 
 3972000   0.59387415   -4.7612883    1892.2584  0.039699949  0.038642505           11 
 3973000   0.61498402    -4.762089    1891.9697  0.039683902  0.038633007            9 
 3974000   0.61307018   -4.7881185    1888.7446  0.039606287  0.038623474           11 
 3975000   0.63252947   -4.7959945    1890.8882  0.039641263  0.038613936           19 
 3976000   0.61504047    -4.784518      1891.45  0.039643067  0.038604361            9 
 3977000   0.61714252   -4.7814871    1891.8058  0.039640554   0.03859484            6 
 3978000   0.61808831   -4.7562641    1893.4337  0.039664692  0.038585378           16 
 3979000    0.6160138   -4.7784528    1894.3405  0.039673714  0.038575888           14 
 3980000     0.611075   -4.7830302     1893.733  0.039651026  0.038566362           10 
 3981000   0.61331968   -4.7835007    1895.4843  0.039677725   0.03855686           19 
 3982000    0.6292899   -4.7705516    1893.5874  0.039628064  0.038547317            8 
 3983000    0.6068415   -4.7730374    1892.2229  0.039589566  0.038537777           14 
 3984000   0.61803713   -4.7783776    1892.6962   0.03958953  0.038528297           25 
 3985000   0.62174248   -4.7482974    1894.0285  0.039607455  0.038518841            4 
 3986000   0.62387822   -4.7682105     1890.887   0.03953184   0.03850939            9 
 3987000   0.61061941   -4.7751021    1891.8079  0.039541174  0.038499934           15 
 3988000   0.60825422   -4.7817375    1889.2368  0.039477532  0.038490445           11 
 3989000    0.6077323   -4.7968417    1894.6885  0.039581527  0.038480937           12 
 3990000   0.62391303   -4.7597035    1892.5384  0.039526701  0.038471447            9 
 3991000   0.62770297   -4.7700991    1891.0465  0.039485644  0.038462021           12 
 3992000   0.60845611   -4.7885302    1895.2936  0.039564412  0.038452576            8 
 3993000   0.61198018   -4.7801702    1892.2943  0.039491909  0.038443119           13 
 3994000   0.59957556   -4.7695827    1892.5836  0.039488057  0.038433685            8 
 3995000    0.6176568   -4.7569847    1896.6582  0.039563167  0.038424272            5 
 3996000   0.61969473   -4.7864043    1889.9542  0.039413458   0.03841486            9 
 3997000   0.61537329   -4.7783796    1897.3071  0.039556899  0.038405457           12 
 3998000   0.61182121   -4.7699913    1897.5778  0.039552648  0.038396025           12 
 3999000   0.61368448   -4.7673521    1891.5137  0.039416389  0.038386574            4 
 4000000   0.60342178   -4.7832762    1894.1981   0.03946246  0.038377187            5 
 4001000   0.60714225   -4.7750091    1894.0642  0.039449809  0.038367808           12 
 4002000   0.60280143   -4.7594501    1896.2973  0.039486452  0.038358385            7 
 4003000   0.62608548   -4.7981708    1893.2504  0.039413157  0.038348973           13 
 4004000   0.62473043   -4.7895748    1897.6653  0.039495198  0.038339505            9 
 4005000   0.62143271    -4.794308    1896.9134  0.039469693  0.038330043           18 
 4006000    0.6220056   -4.7808743    1894.2863   0.03940519  0.038320604            6 
 4007000   0.60252342   -4.7874702    1892.7909  0.039364257  0.038311185           12 
 4008000   0.61375927   -4.7714446    1897.2796  0.039447763  0.038301759            8 
 4009000   0.60646075     -4.79118    1898.0455  0.039453844  0.038292331            6 
 4010000   0.60643391   -4.7743906     1895.689  0.039395034  0.038282895           13 
 4011000   0.62229309   -4.7937388    1891.5611  0.039299449  0.038273499            9 
 4012000    0.5964795   -4.8008487    1896.1198  0.039384342  0.038264041           10 
 4013000   0.60954294   -4.7894824    1893.5914  0.039322025  0.038254611            9 
 4014000   0.61662398   -4.7708432    1891.3663  0.039266034  0.038245158            7 
 4015000   0.61004282   -4.8033357    1888.3144   0.03919291  0.038235651           19 
 4016000   0.60644349   -4.7961773    1893.5813   0.03929244  0.038226183            8 
 4017000   0.60321916   -4.8022988    1895.9164  0.039331102  0.038216744           11 
 4018000   0.61204719   -4.8031881    1891.7603  0.039235116  0.038207363           13 
 4019000   0.61227767   -4.8030972    1889.5406  0.039179328  0.038197921            7 
 4020000   0.60953324    -4.790853    1898.9011  0.039363622  0.038188492           17 
 4021000   0.61163979   -4.7670216    1897.6048  0.039326968  0.038179181           18 
 4022000    0.5985235   -4.7886885    1896.0349  0.039284662   0.03816983           17 
 4023000   0.61216164   -4.7745007    1896.1818   0.03927794  0.038160445           16 
 4024000   0.61210589    -4.773643     1898.284  0.039311712  0.038151066            9 
 4025000   0.59304425   -4.7936155    1894.1074  0.039215475  0.038141669           16 
 4026000   0.61256191   -4.7889111    1897.4566  0.039275059  0.038132236           13 
 4027000   0.60725205   -4.7881026    1899.0034  0.039297314   0.03812284           10 
 4028000   0.60499384   -4.7776462    1900.5847  0.039320272  0.038113482           10 
 4029000   0.60873041   -4.7814552    1899.5692  0.039289509  0.038104133            6 
 4030000   0.60841134   -4.7920044    1897.3308  0.039233473  0.038094718           12 
 4031000   0.61104691   -4.7648445    1899.1171   0.03926067  0.038085328           12 
 4032000   0.59717112   -4.7788148    1896.6234  0.039199392  0.038075949           15 
 4033000   0.62295205    -4.783622    1896.5837  0.039188852  0.038066649            7 
 4034000   0.60776681   -4.7854014    1897.7214   0.03920264  0.038057296           11 
 4035000   0.62566461   -4.7953518     1900.322  0.039246633  0.038047948            9 
 4036000   0.59927121   -4.7802025    1895.9664  0.039146977  0.038038562           11 
 4037000   0.59394197   -4.8007145    1894.8585   0.03911441  0.038029202            7 
 4038000   0.60894832    -4.816383    1890.4704  0.039014166  0.038019779           10 
 4039000   0.60468992   -4.7924004    1894.8426  0.039094714  0.038010352           21 
 4040000    0.6044696   -4.8002454    1900.4095  0.039199866  0.038000987           10 
 4041000   0.60949276    -4.795326    1890.7576  0.038991124  0.037991656            8 
 4042000   0.60669269   -4.7941263    1898.5582  0.039142302  0.037982301           12 
 4043000   0.60904968   -4.7776864    1899.4329  0.039150649  0.037972987           46 
 4044000    0.5897968   -4.7938628    1895.0601  0.039050858  0.037963618           11 
 4045000   0.60941262    -4.769598    1897.5033  0.039091539   0.03795427           11 
 4046000   0.61067525   -4.8030189    1898.5902  0.039104264  0.037944949           16 
 4047000   0.60112098   -4.8209384    1895.6005  0.039033038  0.037935608           15 
 4048000   0.60781936   -4.7833068    1895.9289  0.039030156  0.037926223           10 
 4049000   0.59552631    -4.784487    1899.8519  0.039101258   0.03791689            7 
 4050000   0.61075707   -4.7974959    1895.6039  0.039004195  0.037907491           13 
 4051000   0.59802972   -4.8008969    1898.9133  0.039062644  0.037898118           13 
 4052000   0.59753807    -4.777119    1903.2549  0.039142294  0.037888815            6 
 4053000   0.60453465   -4.7947374    1901.6105  0.039098825  0.037879552            8 
 4054000   0.60366758   -4.8175864    1892.5975  0.038903911  0.037870214            5 
 4055000   0.60905028   -4.8083895    1895.0526  0.038944773  0.037860849           11 
 4056000   0.59761609   -4.8111511    1899.3008  0.039022452  0.037851459           19 
 4057000   0.59834054   -4.8046111    1895.3553  0.038931791  0.037842101            7 
 4058000   0.60903746   -4.8152496    1900.4731  0.039027294  0.037832798           11 
 4059000   0.61672917   -4.7979723    1904.9751  0.039110106  0.037823487            7 
 4060000   0.59680509   -4.7878622    1902.0067  0.039039546  0.037814212            9 
 4061000   0.59112824   -4.8058325    1897.0296  0.038927801  0.037804938           13 
 4062000   0.61160582   -4.8115739    1895.5434  0.038887727  0.037795633           26 
 4063000   0.59514778   -4.7893113    1897.3404  0.038915014  0.037786314            6 
 4064000   0.59977001   -4.8055732      1899.73  0.038954438  0.037777058            9 
 4065000   0.59241883   -4.7933683    1901.0289  0.038971482  0.037767787           18 
 4066000   0.61068577   -4.8197874    1902.9271  0.039000801  0.037758522           14 
 4067000   0.58024792   -4.7770473    1900.5804  0.038943127  0.037749281           11 
 4068000   0.59982788     -4.81122    1899.0494  0.038902193  0.037739989            9 
 4069000   0.61214776    -4.817929    1899.3045  0.038897856  0.037730735           10 
 4070000   0.60591456   -4.8120362    1898.0159  0.038861915  0.037721451           12 
 4071000   0.59819505    -4.799865    1902.9282  0.038952923  0.037712199            9 
 4072000   0.60533623   -4.7855269    1897.2886  0.038827943  0.037702969           14 
 4073000   0.58755856   -4.7865903    1898.9754  0.038852921  0.037693715            7 
 4074000   0.60265555   -4.8008923    1894.4576  0.038750973  0.037684411           13 
 4075000   0.58272609    -4.799278    1898.2756  0.038819543  0.037675072            8 
 4076000   0.59680021     -4.82086    1901.1183  0.038868138  0.037665725           16 
 4077000   0.60763626   -4.8122257    1897.9217  0.038793265  0.037656403            7 
 4078000   0.59727608   -4.8012751    1896.1551  0.038747651  0.037647075            5 
 4079000   0.59734556   -4.8268722     1897.337  0.038762299  0.037637781           18 
 4080000    0.6036829   -4.8077607    1901.7996  0.038843947  0.037628476            7 
 4081000   0.59264383   -4.8067452    1896.6271  0.038728806  0.037619198           18 
 4082000    0.5852089   -4.8036523    1898.5959  0.038759511  0.037609895           10 
 4083000   0.59364776   -4.8166968    1897.9016  0.038735847  0.037600583           12 
 4084000   0.59308249   -4.7963084     1901.072  0.038791054   0.03759125           15 
 4085000   0.59905106   -4.8021575    1899.1491  0.038742332  0.037581924           12 
 4086000   0.58800608   -4.8252616    1898.9587  0.038728967  0.037572562            9 
 4087000   0.59969806   -4.7954968    1896.1621  0.038662469    0.0375632           14 
 4088000   0.59711242   -4.7971387    1896.6291  0.038662531   0.03755387            9 
 4089000   0.59541811   -4.8119164     1900.773  0.038737527  0.037544553           12 
 4090000   0.59992054   -4.8110254    1894.5324  0.038600905  0.037535249            9 
 4091000   0.59452531   -4.7953845    1906.6934  0.038839187  0.037525931            6 
 4092000    0.6019167   -4.8145702    1900.3779  0.038701081   0.03751669           28 
 4093000   0.59365976   -4.8161637    1896.4707  0.038612076  0.037507405           11 
 4094000   0.59536493   -4.8237187    1899.9384  0.038673229  0.037498147           18 
 4095000   0.59434791   -4.7882631    1900.5526  0.038676284  0.037488857            9 
 4096000   0.59984687   -4.8065503    1895.2241  0.038558434  0.037479513           26 
 4097000   0.60136305   -4.8172319    1902.4822  0.038696652  0.037470214           16 
 4098000   0.59793877   -4.8285387    1896.9286  0.038574276  0.037460932           22 
 4099000   0.58587089   -4.8153749    1897.1943  0.038570267  0.037451637           14 
 4100000   0.59136306   -4.8014285    1903.2502  0.038683947   0.03744235            9 
 4101000   0.59040665   -4.8228633     1895.774  0.038522595  0.037433067           11 
 4102000   0.59847184   -4.8033441    1903.7705  0.038675656  0.037423785           11 
 4103000   0.59468094   -4.7980392    1900.6396   0.03860264  0.037414502           15 
 4104000   0.60362084   -4.8457999    1895.5268  0.038489416  0.037405225           12 
 4105000   0.58483061   -4.8220419    1900.7277  0.038585621   0.03739592           13 
 4106000   0.59393844   -4.8103036     1901.434  0.038590559  0.037386657           12 
 4107000   0.58547593   -4.7991197    1903.9151  0.038631506  0.037377412           19 
 4108000   0.59377604   -4.8184811    1898.9876  0.038522145  0.037368197            9 
 4109000   0.58669484   -4.8072087    1901.2351  0.038558349  0.037358963           13 
 4110000   0.57757705   -4.8361649    1891.7732  0.038357121  0.037349675           18 
 4111000   0.60388466   -4.8264742    1902.7974   0.03857126  0.037340381           11 
 4112000   0.60610403   -4.8143039    1900.6567  0.038518497  0.037331121            9 
 4113000   0.61045389   -4.8228397    1897.9053  0.038453386  0.037321842           11 
 4114000   0.59770219   -4.8134824    1902.3941  0.038534965  0.037312583            7 
 4115000   0.59136814   -4.8030932    1900.6107  0.038489485  0.037303332           16 
 4116000   0.59480255   -4.8129412    1906.9625  0.038608732  0.037294138            8 
 4117000   0.59086938   -4.8292115    1900.3832   0.03846618   0.03728496           14 
 4118000     0.600096    -4.813884     1901.285  0.038475089   0.03727573           11 
 4119000   0.58946464   -4.8422706     1902.151  0.038483268  0.037266534           19 
 4120000   0.57699975   -4.8248713    1901.6833  0.038464469  0.037257327           10 
 4121000   0.59540241   -4.8281839    1905.8689  0.038539774  0.037248141           14 
 4122000   0.59336929   -4.8205146    1900.1523  0.038414853  0.037238957           12 
 4123000   0.60334346   -4.7864785    1898.6527  0.038375227  0.037229782           12 
 4124000   0.58963533   -4.8056143    1903.8587  0.038471118  0.037220567            9 
 4125000   0.59902652     -4.81287    1902.8118  0.038440641  0.037211345           18 
 4126000   0.59286802   -4.7949719    1898.2813  0.038339822  0.037202124           22 
 4127000   0.59279888   -4.8151797    1902.1837  0.038409331  0.037192876           22 
 4128000   0.58088174   -4.8240135    1903.2248  0.038421044  0.037183647           14 
 4129000   0.58807044   -4.8030737    1905.7004  0.038461702  0.037174432           12 
 4130000   0.59502803   -4.8411946     1903.505  0.038408092  0.037165256           14 
 4131000    0.5883756   -4.8360009    1901.4955  0.038358257  0.037156044           17 
 4132000   0.58173491   -4.8147456    1907.5153   0.03847038  0.037146887           13 
 4133000   0.58222814   -4.8268567    1904.2733  0.038395704  0.037137682           19 
 4134000   0.58988275   -4.8352592    1900.0939  0.038302167  0.037128467           13 
 4135000   0.59523886   -4.8553178    1899.2453  0.038275803  0.037119249            7 
 4136000    0.5765854   -4.8415855    1898.5856  0.038253256  0.037110003           11 
 4137000   0.60041582   -4.8419352    1902.5769  0.038324408  0.037100812           12 
 4138000   0.58728502   -4.8244991     1902.469  0.038312974  0.037091605            9 
 4139000   0.58585006    -4.834463    1900.9763  0.038273662  0.037082449           16 
 4140000   0.58337041   -4.8275589    1902.3149  0.038291363  0.037073226           10 
 4141000   0.58539759   -4.8198648     1896.993  0.038175018  0.037064004           11 
 4142000   0.58835816   -4.8468929    1904.0909  0.038308604  0.037054774           57 
 4143000   0.58356871   -4.8349561    1900.7499  0.038232158   0.03704554           17 
 4144000    0.5922888   -4.8472437    1900.1987  0.038211847  0.037036295           21 
 4145000    0.5862494   -4.8292407    1900.4822  0.038208328  0.037027063           18 
 4146000   0.59583101   -4.8231632    1904.6461  0.038282804  0.037017886           21 
 4147000   0.59768832   -4.8271864     1901.701  0.038214391  0.037008735           20 
 4148000   0.59153663   -4.8229206    1909.9801  0.038371506  0.036999628           14 
 4149000   0.58026053   -4.8253249    1908.7276  0.038337101  0.036990508           12 
 4150000   0.59155653   -4.8221977    1903.1723  0.038216311  0.036981376           15 
 4151000   0.58615707    -4.840013    1899.2462  0.038128286  0.036972166            5 
 4152000   0.59746107   -4.8270806    1895.9232  0.038052409  0.036962957           28 
 4153000   0.58640403   -4.8319884    1900.3121  0.038131313   0.03695372           12 
 4154000   0.57962481   -4.8366106    1906.4858  0.038245984   0.03694454            8 
 4155000   0.58679613   -4.8111676    1903.4129  0.038175148   0.03693535            6 
 4156000   0.58871705   -4.8329004    1902.7111   0.03815189  0.036926208            9 
 4157000    0.6005136   -4.8082027    1903.1332  0.038151174   0.03691702           20 
 4158000   0.59406675   -4.8495368    1898.0921  0.038040967  0.036907848            7 
 4159000   0.58703648   -4.8221114    1902.1794  0.038113717  0.036898689           11 
 4160000   0.58211298   -4.8609015    1894.9936  0.037960609  0.036889495            6 
 4161000   0.58394039   -4.8278512    1900.7172  0.038066113   0.03688032            5 
 4162000   0.58682876   -4.8184005    1908.2376  0.038207544  0.036871182           11 
 4163000    0.5860066   -4.8346713    1907.5211  0.038184025  0.036862056           28 
 4164000   0.58998415   -4.8370582    1899.3945  0.038012218  0.036852914           46 
 4165000   0.58882411   -4.8483155    1903.2198  0.038079628  0.036843731           30 
 4166000   0.58300127   -4.8324077     1905.116  0.038108418   0.03683457           39 
 4167000   0.58577735   -4.8526375    1904.1744  0.038080441  0.036825417           16 
 4168000   0.59241491   -4.8492636    1902.5889  0.038039605  0.036816236           16 
 4169000   0.57915663   -4.8238526     1905.812  0.038094907  0.036807064            9 
 4170000   0.57905458   -4.8229944    1905.8779  0.038087088  0.036797925            9 
 4171000   0.59838427    -4.822077    1903.0719  0.038021895  0.036788824           11 
 4172000   0.57901452   -4.8406735    1898.5507  0.037922474  0.036779673            8 
 4173000   0.58724373   -4.8422362     1905.807  0.038058292  0.036770513            9 
 4174000   0.57059429   -4.8320084    1899.6188  0.037925626  0.036761365           12 
 4175000   0.59406558    -4.838616    1904.8995  0.038021947  0.036752202           10 
 4176000   0.58075048   -4.8412716    1904.6306  0.038007474  0.036743114           13 
 4177000   0.58657571   -4.8448613    1903.3173  0.037972175  0.036733986           22 
 4178000   0.57512082   -4.8391551    1904.4005  0.037984692  0.036724836            8 
 4179000   0.58576299   -4.8562259    1904.3786  0.037975166  0.036715686           11 
 4180000   0.59324648   -4.8546621     1903.809  0.037954725  0.036706522           13 
 4181000   0.57441276   -4.8156231    1904.6049   0.03796151  0.036697386            7 
 4182000   0.57589816   -4.8578774    1899.6854  0.037854404    0.0366882            7 
 4183000    0.5933603   -4.8517391    1902.9663  0.037910716  0.036679035           17 
 4184000   0.58871955   -4.8433235    1905.1729  0.037945605  0.036669903           11 
 4185000   0.57496929   -4.8372385    1903.4715  0.037902659  0.036660785           13 
 4186000   0.57950314   -4.8520782    1903.4085  0.037892349  0.036651683           10 
 4187000   0.59231622   -4.8447519    1901.2255  0.037839851  0.036642542           28 
 4188000    0.5836924   -4.8449408    1906.9816  0.037945353  0.036633505           10 
 4189000   0.58751667   -4.8276979    1904.4807  0.037886541  0.036624454           22 
 4190000   0.57334262   -4.8453445    1908.0035  0.037947565  0.036615362           12 
 4191000   0.58219183   -4.8259423    1905.7356  0.037893414  0.036606297            6 
 4192000   0.59215887   -4.8351904    1903.0695  0.037831375  0.036597188            6 
 4193000   0.58982643    -4.849639    1904.2063  0.037844945   0.03658812           15 
 4194000   0.58227784    -4.839414    1903.6212  0.037824297  0.036579007           16 
 4195000   0.58209605   -4.8580667    1903.1682  0.037806281  0.036569925           12 
 4196000   0.57062543   -4.8486111    1905.1093  0.037835822  0.036560859           21 
 4197000   0.58338551   -4.8504963    1903.0164  0.037785252  0.036551772            7 
 4198000   0.58176569   -4.8510405    1905.3567  0.037822707  0.036542688           17 
 4199000   0.58894733    -4.822112    1904.5167  0.037797029  0.036533605           36 
 4200000   0.57795795   -4.8440688    1905.6744     0.037811   0.03652451           13 
 4201000   0.57330924   -4.8481286    1905.8419  0.037805323  0.036515435           15 
 4202000   0.59664241   -4.8381015    1906.3471  0.037806345  0.036506398           15 
 4203000    0.5749846   -4.8234159    1908.8509  0.037846993  0.036497371           16 
 4204000   0.57393216    -4.867162    1904.4676  0.037751102   0.03648832           14 
 4205000   0.57445726   -4.8590551    1903.9609  0.037732083  0.036479259           12 
 4206000   0.57928605   -4.8374446      1909.75  0.037837811  0.036470216           17 
 4207000   0.58791008     -4.84097    1907.3483  0.037781243  0.036461209           18 
 4208000   0.56413536   -4.8409825    1910.4123  0.037832942  0.036452237           19 
 4209000   0.58475753   -4.8510552    1908.8182  0.037792394  0.036443285           17 
 4210000   0.58905416   -4.8448277    1907.7932  0.037763127  0.036434297            8 
 4211000   0.57779618    -4.837927    1908.9351  0.037776757  0.036425282           13 
 4212000   0.57801376    -4.853418    1912.4568  0.037837465  0.036416301            7 
 4213000   0.57866433   -4.8586327    1912.0441  0.037820319  0.036407306           11 
 4214000   0.57991728   -4.8366827    1909.0436  0.037752008  0.036398296           15 
 4215000   0.57396697   -4.8461802    1904.0135  0.037643603  0.036389274           13 
 4216000   0.58917983   -4.8433434    1913.1318  0.037814908  0.036380254           13 
 4217000   0.58208723    -4.821573    1904.1768  0.037628978  0.036371226            7 
 4218000   0.57936571   -4.8532711    1907.4741  0.037685201  0.036362224           23 
 4219000   0.58028951   -4.8560589    1905.6873  0.037640975  0.036353161           24 
 4220000   0.57282321   -4.8488018    1907.0413  0.037658794  0.036344117            9 
 4221000   0.57252459   -4.8503505    1906.6972  0.037643078  0.036335073           12 
 4222000   0.58093935   -4.8541983    1906.3793  0.037627887  0.036326059            8 
 4223000   0.58848366   -4.8388122    1908.3726  0.037658312  0.036317052           12 
 4224000    0.5863346   -4.8593881    1909.2831  0.037667359  0.036308048            6 
 4225000   0.58030662   -4.8469197      1907.35  0.037620316  0.036299068            6 
 4226000   0.58241847   -4.8815618    1903.6691  0.037538829  0.036290056           10 
 4227000   0.58837613   -4.8408668    1908.5627  0.037626423  0.036281017            7 
 4228000   0.56344903   -4.8550306    1906.9047  0.037584845  0.036272006            5 
 4229000   0.56921561   -4.8822551    1907.9544  0.037596642  0.036262991           11 
 4230000   0.58498253   -4.8312829    1908.0203  0.037589051  0.036254012            7 
 4231000   0.57018272   -4.8680929    1909.4249  0.037607832  0.036245018           18 
 4232000   0.57335352   -4.8738926    1904.0946  0.037493986  0.036236039           33 
 4233000   0.57868767   -4.8510314    1906.9315  0.037540978  0.036227044           14 
 4234000   0.56877871   -4.8373129    1906.3139  0.037519956  0.036218061           16 
 4235000   0.59371238   -4.8665077    1908.2875  0.037549931  0.036209056            9 
 4236000   0.57002885   -4.8638049    1907.1087  0.037517877  0.036200057           12 
 4237000    0.5771362   -4.8842079    1907.4612  0.037515954  0.036191066           11 
 4238000   0.56767743   -4.8603541    1907.8132  0.037514024  0.036182126           15 
 4239000   0.57188624   -4.8687495    1908.6888  0.037522388  0.036173121           18 
 4240000   0.56387398    -4.860722    1910.6316  0.037551722  0.036164132           31 
 4241000   0.58642518   -4.8585573    1910.9905   0.03754992  0.036155163           12 
 4242000   0.56882005   -4.8720452    1907.0966  0.037464573  0.036146207           12 
 4243000   0.59843821   -4.8728693    1908.0229  0.037473936  0.036137218           18 
 4244000   0.55519166   -4.8595925    1907.3168   0.03745124  0.036128196           13 
 4245000    0.5644488   -4.8541828    1910.0593  0.037496257  0.036119231           16 
 4246000   0.58355405   -4.8537895    1911.0606  0.037507077  0.036110311           16 
 4247000   0.56178067   -4.8591855    1910.4929  0.037487107  0.036101393           13 
 4248000    0.5738487   -4.8577048    1907.1207  0.037412129  0.036092484           13 
 4249000    0.5662771   -4.8683647     1906.192  0.037385111  0.036083556            8 
 4250000   0.57521559   -4.8475743    1914.0691  0.037530767  0.036074646           10 
 4251000   0.57455396   -4.8697394    1908.8429  0.037419487  0.036065732           10 
 4252000   0.56702886   -4.8630746    1911.0438  0.037453823  0.036056786           12 
 4253000   0.59280226   -4.8583371    1909.5078  0.037414919   0.03604787            8 
 4254000   0.56476768   -4.8570626    1909.2897  0.037401851  0.036038956            8 
 4255000   0.57051218   -4.8664986    1907.3367  0.037354812  0.036030031           12 
 4256000   0.57184909   -4.8618035    1913.1993  0.037460825  0.036021129            8 
 4257000   0.56499446    -4.858946    1910.1183  0.037391714   0.03601224            7 
 4258000   0.57286729   -4.8617949    1908.9258  0.037359594  0.036003373           18 
 4259000   0.56827531   -4.8641354    1909.8027   0.03736798  0.035994473           15 
 4260000   0.57170953   -4.8697816    1909.7656  0.037358482  0.035985553           16 
 4261000   0.57113157   -4.8860166    1907.7803  0.037310887  0.035976635           17 
 4262000   0.57574448   -4.8550698    1913.5691  0.037415319  0.035967725           20 
 4263000   0.56823017    -4.898179    1907.9691  0.037297074  0.035958762           20 
 4264000   0.58381877   -4.8716061    1905.2247  0.037234692  0.035949825            6 
 4265000   0.56906829   -4.8619028    1910.4936  0.037328909  0.035940918            7 
 4266000   0.56638777   -4.8576551    1909.4585   0.03729994  0.035932026           28 
 4267000   0.56407477   -4.8574134    1908.7014  0.037276412  0.035923073           18 
 4268000   0.56055404   -4.8712984     1905.077  0.037196911  0.035914126           25 
 4269000   0.57490661   -4.8851225    1908.6222  0.037257403  0.035905165           14 
 4270000   0.56207217   -4.8795843    1913.4611  0.037343113  0.035896256            8 
 4271000   0.56515683   -4.8733887    1909.5463  0.037257985  0.035887351            9 
 4272000   0.56021884   -4.8652353    1908.6296  0.037231382  0.035878446           10 
 4273000   0.57639773   -4.8840189    1909.5786  0.037241177  0.035869545           23 
 4274000   0.55696267   -4.8806025    1908.4027  0.037209536  0.035860629           18 
 4275000   0.57612548   -4.8722249    1907.3546  0.037180402  0.035851706           10 
 4276000   0.56383783    -4.885458     1912.027  0.037262766  0.035842769           17 
 4277000   0.56603063   -4.8630612    1907.9297  0.037174221  0.035833893           25 
 4278000   0.57111311   -4.8792931    1907.9457  0.037165843  0.035825025           22 
 4279000   0.57048888   -4.8846095    1906.1567  0.037122317  0.035816097           40 
 4280000   0.56556621   -4.8699298    1912.6661  0.037240383  0.035807231           29 
 4281000   0.55400073   -4.8685013    1909.2358  0.037164912  0.035798343           13 
 4282000   0.56777682   -4.8671273    1910.4268  0.037179409  0.035789422           11 
 4283000   0.56545225   -4.8806399    1906.0756  0.037086068  0.035780543            8 
 4284000   0.56457982   -4.8648872    1914.5003  0.037241291  0.035771656            9 
 4285000   0.56572149   -4.8650533    1912.9599  0.037202643  0.035762782           10 
 4286000   0.55813382   -4.8790198    1910.4682  0.037145516  0.035753906           24 
 4287000   0.56715328   -4.8820053    1913.6465  0.037198634  0.035745035            7 
 4288000   0.55807952   -4.8754551    1908.2958  0.037085972  0.035736169           13 
 4289000   0.58090934   -4.8845528    1911.8451  0.037146288  0.035727329           16 
 4290000    0.5760475   -4.8808051    1914.4286  0.037187812  0.035718439           10 
 4291000   0.57002393   -4.8712831    1912.5395  0.037142459  0.035709611           26 
 4292000   0.56077568   -4.8906689    1910.3123  0.037090562  0.035700777           12 
 4293000   0.55991729   -4.8950955    1912.9625  0.037133367   0.03569189           16 
 4294000   0.55937308   -4.8818208    1914.4462  0.037153512  0.035682997           14 
 4295000    0.5618004   -4.8840361    1910.2564   0.03706357  0.035674122           15 
 4296000   0.54623251   -4.8623149    1912.9873  0.037107917  0.035665281           13 
 4297000   0.56158333   -4.8554778    1910.2097  0.037045413  0.035656479           55 
 4298000   0.57082695   -4.8742122    1916.6776    0.0371622  0.035647676           18 
 4299000   0.56882879    -4.882413     1912.145  0.037065694  0.035638895           30 
 4300000    0.5574057   -4.8756748    1911.0338  0.037035538  0.035630121            5 
 4301000   0.56668199   -4.8987617    1916.5689  0.037134172  0.035621318           23 
 4302000   0.55624405   -4.8730849    1911.1452  0.037020479  0.035612527           15 
 4303000   0.56573757    -4.879556    1907.7498  0.036946119  0.035603714           23 
 4304000    0.5698021    -4.876693    1911.8234  0.037016408  0.035594884            6 
 4305000   0.54847571   -4.8815814    1912.6037  0.037022913  0.035586039           22 
 4306000   0.57424945   -4.8984287    1912.1456  0.037005451  0.035577194           20 
 4307000   0.56195138   -4.8802679     1918.847  0.037126518  0.035568385           14 
 4308000   0.54783866   -4.8860774    1909.2677    0.0369326  0.035559554           17 
 4309000   0.55359442   -4.8709853    1914.3018  0.037021386  0.035550749           10 
 4310000   0.55950099   -4.8728622    1915.5529  0.037036986  0.035541935           12 
 4311000   0.56018224   -4.8761918    1911.5054  0.036950155  0.035533113           13 
 4312000    0.5514916   -4.8839259    1912.5604  0.036961975  0.035524307            9 
 4313000   0.56522067   -4.8873234    1907.8827  0.036863025  0.035515467           16 
 4314000   0.56034957   -4.8800577    1911.5667  0.036925643  0.035506642           18 
 4315000   0.56559716   -4.8719505    1914.1606   0.03696718  0.035497808           13 
 4316000   0.55616729   -4.8967519    1910.4654  0.036887268  0.035488967           29 
 4317000   0.54946067   -4.8887942    1911.3606  0.036896003  0.035480157           24 
 4318000    0.5596653   -4.8886301    1910.8266  0.036877153  0.035471313           15 
 4319000   0.54879578   -4.8928249    1910.3745  0.036859892  0.035462475           12 
 4320000   0.55249346   -4.8733214    1915.1925  0.036944301  0.035453645           12 
 4321000    0.5741242   -4.8758486    1915.4595  0.036940899  0.035444852           19 
 4322000   0.56506512   -4.9113672    1908.3865  0.036795977  0.035436043           21 
 4323000   0.55977016   -4.9020245    1913.8839  0.036893436  0.035427227           26 
 4324000   0.55740528   -4.8915298    1912.6133  0.036860417  0.035418455           16 
 4325000   0.55573789   -4.8878292    1914.7411  0.036892892  0.035409658            8 
 4326000   0.57218093   -4.8862543    1910.5339   0.03680332  0.035400839           13 
 4327000   0.56146522   -4.9078083     1910.741  0.036798803  0.035392032           27 
 4328000    0.5656723   -4.8946301    1912.9166  0.036832189  0.035383232           25 
 4329000   0.55962307   -4.8907986    1915.4848  0.036873119  0.035374454            9 
 4330000   0.55887207   -4.8985672    1911.4605  0.036787153   0.03536567           13 
 4331000   0.54735029   -4.8805223    1908.0587  0.036713206  0.035356877           10 
 4332000   0.56779866   -4.8985683    1909.4913  0.036732288  0.035348061           18 
 4333000   0.57893044   -4.8909158    1912.0421  0.036772868  0.035339272            9 
 4334000   0.55679492   -4.8865815    1907.5015  0.036677078  0.035330494           17 
 4335000   0.56007703   -4.8941836    1913.9299  0.036792194  0.035321715            9 
 4336000   0.55219211   -4.9055318    1909.1116  0.036691105   0.03531291           18 
 4337000   0.55911794   -4.8938895    1912.4735  0.036747243  0.035304107           20 
 4338000   0.56035328   -4.8962963    1915.1827  0.036790816  0.035295317           13 
 4339000   0.55869777   -4.9109261    1910.1612  0.036685896  0.035286567           14 
 4340000   0.55446839   -4.8955313    1909.5128  0.036664991    0.0352778           21 
 4341000   0.56017391    -4.914156    1910.1673   0.03666911  0.035269035           15 
 4342000    0.5654278    -4.889002    1914.4333   0.03674254  0.035260284           17 
 4343000   0.56269152   -4.9094347    1912.4499  0.036696022   0.03525153           17 
 4344000   0.54823204    -4.898603    1914.8292  0.036733218  0.035242745           28 
 4345000   0.55422538   -4.8879746    1916.1002  0.036749141  0.035234038            6 
 4346000   0.55944019   -4.8834706    1917.6461  0.036770327    0.0352253           17 
 4347000   0.55407275   -4.9039931    1915.4088  0.036718979  0.035216524           22 
 4348000   0.56919849   -4.8975743     1914.492  0.036692962  0.035207778           16 
 4349000   0.55211026   -4.8981073    1909.5294  0.036589435  0.035199021           14 
 4350000   0.55339833   -4.8814336    1916.2413  0.036709603  0.035190278           20 
 4351000    0.5613005   -4.8801566     1915.666  0.036690148  0.035181573           16 
 4352000   0.54729633   -4.8942644    1913.8234  0.036646435  0.035172883           22 
 4353000   0.53711453   -4.8887195    1916.8526  0.036696006  0.035164191           13 
 4354000   0.55806661   -4.8877807    1911.2862  0.036581041   0.03515551            5 
 4355000   0.53844595    -4.867275    1917.5327  0.036692169  0.035146822            6 
 4356000   0.56412975   -4.8751073    1916.6225  0.036666332  0.035138126           11 
 4357000   0.55425362   -4.8870935    1911.2623  0.036555396  0.035129467           11 
 4358000   0.55783668    -4.913523    1914.1707  0.036602622    0.0351208           11 
 4359000   0.55968992   -4.9173944    1912.7876  0.036567784  0.035112052            7 
 4360000   0.54731563   -4.9078689    1921.7906  0.036731472  0.035103296            7 
 4361000   0.55106753   -4.8983294    1915.2025  0.036597158   0.03509456           12 
 4362000   0.55629551   -4.9066374    1914.1661  0.036568968  0.035085856            5 
 4363000    0.5382545    -4.901847    1914.9864  0.036576255  0.035077138           23 
 4364000   0.54984499   -4.8817992     1920.389   0.03667104    0.0350684           17 
 4365000   0.55590866   -4.8954626    1916.2233   0.03658311  0.035059703           14 
 4366000   0.56020242   -4.8940721    1910.5417  0.036466288  0.035050984           13 
 4367000   0.56071929   -4.8976146    1917.0869  0.036582836  0.035042271           13 
 4368000   0.56105676   -4.9062654    1914.1232  0.036517918  0.035033549           12 
 4369000   0.55486973   -4.8950892    1914.5307  0.036517332  0.035024854           24 
 4370000   0.55410155   -4.9023793     1912.013  0.036460966  0.035016137           18 
 4371000   0.55413538   -4.9078269    1913.3793  0.036478671  0.035007451           18 
 4372000   0.55466955   -4.9115218    1914.2149  0.036486254  0.034998736           17 
 4373000   0.55391614   -4.9246828     1916.902  0.036529119  0.034990043           19 
 4374000   0.55768188   -4.9063424    1913.7285  0.036460304  0.034981341           21 
 4375000   0.56862271   -4.9140057     1917.946  0.036532305  0.034972642           11 
 4376000   0.55473022   -4.9059553    1915.2438  0.036472498  0.034963918           13 
 4377000    0.5498028   -4.9099465      1910.49  0.036373658  0.034955202           10 
 4378000   0.55146161   -4.9135643    1918.5944  0.036519614  0.034946501           11 
 4379000   0.55604079   -4.9149306    1914.5249   0.03643383   0.03493783           22 
 4380000   0.54345021   -4.9151168    1913.0715   0.03639786  0.034929148           14 
 4381000    0.5497258   -4.8906659    1913.7432  0.036402328  0.034920466           12 
 4382000   0.55445514   -4.8926438    1916.3437  0.036443476   0.03491181           16 
 4383000   0.55260514   -4.9148663    1915.3092  0.036415491  0.034903156           11 
 4384000   0.54494191     -4.89422    1914.8005  0.036397515  0.034894489           11 
 4385000    0.5421743   -4.9145404    1913.9066  0.036372227  0.034885792           10 
 4386000   0.55055645    -4.893503    1918.9577  0.036459905  0.034877144           27 
 4387000   0.54576304   -4.9065206    1916.0931  0.036397179  0.034868448           40 
 4388000   0.55043895   -4.9220007    1915.6087  0.036379686  0.034859785           13 
 4389000   0.55586391   -4.9160959    1915.5114  0.036369549  0.034851129           15 
 4390000   0.55989995    -4.917087    1914.9178  0.036349995  0.034842494           26 
 4391000   0.55466037   -4.9033034    1919.6243  0.036431039  0.034833836           44 
 4392000   0.53871917    -4.892813    1915.5194  0.036344857  0.034825191           40 
 4393000   0.53576494   -4.9183271    1916.7463  0.036359858  0.034816549            9 
 4394000     0.549797   -4.9176915    1918.6341  0.036387387   0.03480791           10 
 4395000   0.55184758   -4.9167572    1917.4461  0.036356581  0.034799271            5 
 4396000   0.55012452    -4.926127    1918.0849  0.036360421  0.034790665           20 
 4397000   0.55286459   -4.9160572    1919.6638  0.036382076  0.034782044           21 
 4398000   0.53855767    -4.909834    1915.5953  0.036296712  0.034773457           14 
 4399000   0.55359965   -4.9169967    1919.5716  0.036363787   0.03476486           12 
 4400000   0.54938382    -4.903012    1921.4839   0.03639174  0.034756225           26 
 4401000   0.54427555   -4.8994694    1919.6936  0.036349572  0.034747619           15 
 4402000   0.55783541   -4.9285015    1918.5326  0.036319335  0.034738991           65 
 4403000   0.53973308   -4.9255014    1917.5906  0.036293259  0.034730336           27 
 4404000   0.56118292   -4.9042516    1917.0439  0.036274672  0.034721724           25 
 4405000   0.54006256   -4.9209974    1917.3616  0.036272447  0.034713127           21 
 4406000    0.5557701   -4.9121511    1919.9542  0.036313251  0.034704517           12 
 4407000   0.53801007   -4.9254068    1917.1746   0.03625245  0.034695941           12 
 4408000   0.54797561   -4.9186342    1920.7083  0.036311031  0.034687361            7 
 4409000   0.54184218    -4.899469    1919.4823  0.036279622  0.034678772           13 
 4410000   0.53475649   -4.9268925    1916.0186  0.036205945  0.034670169           23 
 4411000   0.54062169   -4.9185527    1920.2092  0.036276907  0.034661569           21 
 4412000   0.55810871   -4.9132459    1922.9074  0.036319646  0.034653008            7 
 4413000   0.54260733   -4.9475849     1918.497  0.036228132  0.034644396           22 
 4414000   0.55263778   -4.9153736    1917.7319   0.03620548  0.034635826           16 
 4415000   0.53538442   -4.9257904    1917.1092  0.036185526  0.034627242           20 
 4416000   0.55144605    -4.912647    1919.1323   0.03621551  0.034618688           28 
 4417000   0.55221432   -4.9143814    1921.6935  0.036255632  0.034610173           12 
 4418000   0.55436372   -4.9305253    1918.9286  0.036195273  0.034601661            9 
 4419000   0.53916456   -4.9412311    1920.5551  0.036217756   0.03459312           11 
 4420000   0.55085661   -4.9251769    1918.4005  0.036168939  0.034584559           10 
 4421000   0.54971676   -4.9156385    1921.8157  0.036225131  0.034576031           27 
 4422000   0.53946336    -4.927666    1914.1153  0.036071824  0.034567468           28 
 4423000   0.54259703   -4.9425786     1917.685  0.036130925  0.034558885           18 
 4424000   0.54958971   -4.9083051    1919.1631  0.036150601  0.034550331           20 
 4425000   0.55035366   -4.9225104    1922.1191  0.036198099  0.034541824           34 
 4426000   0.55723099   -4.9214255    1923.8543  0.036222592  0.034533289           11 
 4427000   0.55102822   -4.9309187    1918.7019  0.036117422   0.03452476           22 
 4428000   0.53266949   -4.9266467    1914.3495  0.036027354  0.034516195           15 
 4429000   0.53921486   -4.9197154    1917.2361  0.036073533  0.034507643           15 
 4430000   0.55361615   -4.9289101    1914.8181  0.036019905  0.034499089           24 
 4431000   0.54077673   -4.9418391    1919.4243  0.036098403  0.034490538            9 
 4432000   0.54387183   -4.9290921    1916.2964  0.036031445  0.034481993           11 
 4433000   0.54337543   -4.9267087    1917.6544  0.036048846  0.034473457           15 
 4434000   0.55322462   -4.9399764    1916.9191  0.036026896   0.03446494           13 
 4435000    0.5423724   -4.9226003    1920.8981  0.036093538  0.034456426           10 
 4436000   0.54314627   -4.9049199    1918.9753  0.036049281  0.034447913            8 
 4437000   0.55165413   -4.9317256    1917.2538  0.036008823   0.03443938           20 
 4438000   0.54521644     -4.92874    1922.5628  0.036100398   0.03443086           30 
 4439000   0.54623876   -4.9278904    1915.4485  0.035958708  0.034422299           54 
 4440000   0.55064116   -4.9286629     1916.759  0.035975207  0.034413735           53 
 4441000   0.54539523   -4.9330481     1915.546  0.035944344  0.034405192           30 
 4442000   0.54914944    -4.926033    1917.8681  0.035979816  0.034396628           31 
 4443000   0.54022549   -4.9039394    1916.5759   0.03594748   0.03438806           19 
 4444000   0.53507666   -4.9293681    1915.2508  0.035914544  0.034379504           14 
 4445000   0.55878306   -4.9476598    1913.8077   0.03587941  0.034370921           25 
 4446000   0.53593351   -4.9449738    1913.5036  0.035865639  0.034362314           18 
 4447000    0.5258242   -4.9209673    1913.6995  0.035861245  0.034353719           18 
 4448000   0.53830449   -4.9463779    1918.3659  0.035940609  0.034345135           31 
 4449000   0.53366471   -4.9451563    1917.5074  0.035916448  0.034336562           25 
 4450000   0.53807922   -4.9268667    1914.4551  0.035851219  0.034327993           23 
 4451000    0.5568311   -4.9323879    1912.0676  0.035798464  0.034319455           34 
 4452000   0.55214166   -4.9496613    1918.9968  0.035920125  0.034310898           27 
 4453000    0.5339919   -4.9289728    1915.1007  0.035839148  0.034302364           27 
 4454000   0.53376146   -4.9250445    1918.5915  0.035896413  0.034293843            9 
 4455000   0.54051296   -4.9331858    1921.8861  0.035949983  0.034285304           19 
 4456000   0.54026103   -4.9371545    1918.7485  0.035883237  0.034276773           23 
 4457000   0.55214768    -4.938679    1912.5277  0.035758876  0.034268196           41 
 4458000   0.53535617   -4.9389918    1914.9132  0.035795446   0.03425964           24 
 4459000   0.54878311    -4.933849    1920.9477  0.035900195  0.034251057           35 
 4460000   0.53825762   -4.9243468     1917.593  0.035829465  0.034242481           27 
 4461000   0.54048251   -4.9312738    1916.0148  0.035791953  0.034233918           11 
 4462000   0.53964103   -4.9424862    1913.9507  0.035745381  0.034225361           28 
 4463000    0.5343174   -4.9615074    1916.0757   0.03577705  0.034216787           18 
 4464000   0.53211323   -4.9352577    1916.6695  0.035780121  0.034208218           11 
 4465000   0.54063364   -4.9533671    1918.7201  0.035810378  0.034199649           23 
 4466000   0.51798571   -4.9569053    1919.0565  0.035808638  0.034191064           39 
 4467000   0.54227832   -4.9483832    1915.1292  0.035727355  0.034182496           19 
 4468000    0.5442259   -4.9414951    1914.2258  0.035702511  0.034173926           29 
 4469000   0.54751704   -4.9372696    1915.4794  0.035717898  0.034165352           37 
 4470000   0.54244235   -4.9351216    1915.5554  0.035711323  0.034156832           67 
 4471000   0.53956881   -4.9415802    1919.2703  0.035772578  0.034148256           36 
 4472000   0.52977666   -4.9513799    1915.0987  0.035686841   0.03413965           17 
 4473000   0.54830496   -4.9385062    1913.5046  0.035649165  0.034131042           24 
 4474000   0.53663592   -4.9388611    1915.3441   0.03567546   0.03412246           12 
 4475000   0.53725068   -4.9562315    1917.1776  0.035701631  0.034113874           14 
 4476000   0.53464241   -4.9377456    1918.4217  0.035716817   0.03410529           23 
 4477000   0.53616943   -4.9332196    1914.6192  0.035638062  0.034096727           17 
 4478000   0.53863413   -4.9580793    1914.7532  0.035632597  0.034088145           36 
 4479000    0.5325456   -4.9490318    1915.0588  0.035630327   0.03407957           32 
 4480000   0.53785198   -4.9600694    1912.7476  0.035579383  0.034071011           46 
 4481000   0.53594483   -4.9297861    1911.0672  0.035540193  0.034062449           50 
 4482000   0.54239288   -4.9387779    1916.2129  0.035627936  0.034053881           18 
 4483000   0.52668929   -4.9604299     1913.093  0.035561993   0.03404532           29 
 4484000   0.53277765   -4.9615902    1914.4487  0.035579257   0.03403674           45 
 4485000   0.52889734   -4.9435325    1910.1544  0.035491535  0.034028155           26 
 4486000   0.53531077   -4.9565348     1914.303  0.035560689  0.034019574           12 
 4487000   0.52304444   -4.9424138    1910.9589  0.035490656  0.034010977           24 
 4488000    0.5280639   -4.9499543    1910.8717  0.035481129  0.034002365           27 
 4489000   0.53397439    -4.957344    1908.7722   0.03543425  0.033993781           38 
 4490000    0.5288356   -4.9655413    1911.0201  0.035468079  0.033985187           16 
 4491000   0.52962096   -4.9535986    1914.7019    0.0355285  0.033976611            6 
 4492000   0.54132956   -4.9327071    1917.2244  0.035567386  0.033968042           15 
 4493000   0.54251438   -4.9286411    1917.9515  0.035572957   0.03395949           22 
 4494000   0.53246601   -4.9530752     1910.502  0.035426902  0.033950939           17 
 4495000   0.52458156   -4.9358222    1915.1122  0.035504489  0.033942385           22 
 4496000   0.55345001   -4.9240083    1921.6693   0.03561813  0.033933879           23 
 4497000   0.53649805   -4.9548696    1916.2119  0.035509079  0.033925327           25 
 4498000   0.53797638   -4.9558643    1914.2564  0.035464954  0.033916778           17 
 4499000   0.53309504   -4.9342475    1916.5727  0.035499976  0.033908205           11 
 4500000    0.5242149   -4.9673759    1916.4998  0.035490738  0.033899611           14 
 4501000   0.52750096   -4.9663479    1911.2079  0.035384876  0.033891003           42 
 4502000   0.52359984   -4.9653406    1910.1612  0.035357642  0.033882408           27 
 4503000   0.53264108   -4.9474783    1915.1105  0.035441381  0.033873839           25 
 4504000   0.53845064   -4.9405269     1915.497  0.035440664  0.033865257           21 
 4505000   0.53264568   -4.9597377    1917.8478  0.035476281  0.033856727           23 
 4506000   0.53918409   -4.9343709    1917.7711  0.035466991  0.033848214           22 
 4507000   0.52846951   -4.9467478    1912.7737  0.035366721  0.033839695           18 
 4508000   0.51572037   -4.9446061    1917.5141  0.035446504  0.033831204           39 
 4509000   0.52661841   -4.9550142    1917.0513  0.035430089  0.033822689           22 
 4510000   0.52892212   -4.9478471    1920.5174  0.035486279  0.033814158           15 
 4511000   0.52738358   -4.9412919    1913.1095  0.035341563  0.033805628           16 
 4512000   0.53367001   -4.9568126    1912.9218  0.035330263  0.033797093           19 
 4513000   0.53247388   -4.9388789    1915.3248  0.035366807  0.033788568           24 
 4514000   0.53483343   -4.9746851    1910.3215  0.035266606  0.033780035           13 
 4515000    0.5234796   -4.9646453    1912.7074  0.035302832  0.033771493           10 
 4516000   0.53760614   -4.9695396    1915.9799  0.035355401  0.033762953           20 
 4517000   0.54104449   -4.9561626    1919.8272  0.035418552  0.033754417           15 
 4518000   0.51791123   -4.9630685    1916.1635  0.035343138  0.033745879           28 
 4519000    0.5205381   -4.9380785    1917.1917  0.035354277  0.033737373           22 
 4520000   0.53413169   -4.9396502    1914.9348  0.035304845  0.033728884           11 
 4521000   0.54862146   -4.9541485    1912.9395  0.035260258  0.033720405           27 
 4522000   0.53663719   -4.9447001    1918.9215    0.0353627  0.033711913           13 
 4523000   0.53855989   -4.9340582    1918.3851  0.035344998  0.033703429            8 
 4524000    0.5224897   -4.9581845    1916.0005   0.03529326  0.033694956           23 
 4525000   0.52365378   -4.9472904      1914.13  0.035251012  0.033686459           28 
 4526000   0.53573245   -4.9640378    1911.9929  0.035203876  0.033677927           10 
 4527000   0.53251239   -4.9697492    1916.7438  0.035283554  0.033669388           13 
 4528000   0.52612473   -4.9674809    1913.4661  0.035215439  0.033660851           50 
 4529000   0.51630239   -4.9598315    1914.9094  0.035234221  0.033652291           25 
 4530000   0.52839892   -4.9760387    1913.6366  0.035203029  0.033643765           22 
 4531000   0.52958759   -4.9545581    1914.4083  0.035209452   0.03363523           36 
 4532000   0.53438101   -4.9754377    1913.4212  0.035183533  0.033626705           23 
 4533000   0.52025309   -4.9663791     1912.138  0.035152181  0.033618193           32 
 4534000   0.52806451   -4.9693342    1914.9057  0.035195297  0.033609713           45 
 4535000   0.51502637   -4.9509658     1915.322  0.035195185  0.033601243            9 
 4536000   0.52258833   -4.9630906    1917.8738  0.035234307  0.033592753           36 
 4537000   0.53391861   -4.9633122    1918.4763  0.035237607  0.033584263           31 
 4538000   0.53278677   -4.9602058    1912.6416  0.035122697  0.033575768           10 
 4539000   0.51614139    -4.956117    1916.5357  0.035186453  0.033567263           42 
 4540000   0.52824188   -4.9588097    1913.1658  0.035116846  0.033558751           18 
 4541000    0.5244136   -4.9718872    1912.6467  0.035099587  0.033550234           28 
 4542000   0.51979673   -4.9687261     1914.543  0.035126652  0.033541694           10 
 4543000   0.52074194   -4.9603824    1915.9507  0.035144741   0.03353317           17 
 4544000   0.52576292   -4.9421586     1917.682  0.035168758  0.033524706           20 
 4545000   0.53252216   -4.9576085    1913.5107  0.035084538  0.033516249           23 
 4546000   0.51141385   -4.9723568    1916.2058  0.035126225  0.033507766           18 
 4547000   0.51371108   -4.9539561     1914.522   0.03508764  0.033499246           42 
 4548000    0.5272425   -4.9711613     1912.282  0.035038881  0.033490718           24 
 4549000   0.51889393   -4.9552349    1915.8229  0.035096044  0.033482189           67 
 4550000   0.52823389   -4.9754889     1912.631  0.035029871   0.03347366           64 
 4551000   0.53313254   -4.9627582    1908.9881   0.03495547  0.033465107           44 
 4552000   0.51800192    -4.970964    1913.4305  0.035029117  0.033456573           70 
 4553000   0.51528277   -4.9759835    1912.3024  0.035000777  0.033448035           31 
 4554000   0.52786987    -4.966909    1912.4293  0.034995412  0.033439509           23 
 4555000   0.51525001   -4.9790774    1914.4809  0.035025263   0.03343097           15 
 4556000   0.52795522   -4.9899566    1913.9494  0.035007854  0.033422414           27 
 4557000   0.52856495    -4.978818      1912.02  0.034964889  0.033413841           35 
 4558000   0.52399123   -4.9725875    1911.6417  0.034950301  0.033405291           14 
 4559000   0.51433739   -4.9828029     1913.627  0.034978925  0.033396731           12 
 4560000   0.52578122   -4.9661629    1914.8102  0.034992876  0.033388197           19 
 4561000    0.5263589   -4.9669003     1912.467  0.034942392  0.033379675           20 
 4562000   0.51805469   -4.9870653     1912.812  0.034941034  0.033371152           31 
 4563000   0.52947422   -4.9710563    1908.9609  0.034863044  0.033362621           35 
 4564000   0.51280211   -4.9865669    1911.9248  0.034909524  0.033354105           40 
 4565000   0.51883918   -4.9731943    1914.0994  0.034941574  0.033345557           30 
 4566000    0.5092661   -4.9794317    1913.9756  0.034931662  0.033337047           32 
 4567000   0.51986329   -4.9611908    1910.5185  0.034860932   0.03332855           45 
 4568000   0.53862681    -4.951229    1918.8984  0.035006173  0.033320053           35 
 4569000   0.51766121   -4.9462169     1909.339  0.034824159  0.033311575           18 
 4570000   0.52433254   -4.9717631    1916.7021  0.034950804   0.03330304           17 
 4571000    0.5257638   -4.9885018    1911.8656  0.034854984  0.033294507           25 
 4572000   0.51680339   -4.9737032    1911.5461  0.034841537  0.033285999           15 
 4573000   0.51309794    -4.979606    1916.6242  0.034926455   0.03327749           14 
 4574000   0.50217991    -4.960757    1911.1731  0.034819507  0.033268992           14 
 4575000   0.50827547   -4.9858728    1909.0378  0.034773003  0.033260487           20 
 4576000   0.51892238   -4.9686252    1912.8103  0.034834104  0.033251974           28 
 4577000   0.51164455   -4.9881341    1907.5288  0.034730334  0.033243443           24 
 4578000   0.53213772   -4.9757596    1914.5356  0.034850292  0.033234926           26 
 4579000   0.52508418   -4.9661102    1915.0525  0.034852087  0.033226418           28 
 4580000   0.53350612   -4.9814987    1910.9639  0.034770085  0.033217903           32 
 4581000   0.51252402    -4.974486    1910.9507  0.034762255  0.033209385           34 
 4582000    0.5170017   -4.9900899    1909.6639  0.034731266  0.033200871           40 
 4583000   0.50817927   -4.9852894    1913.1562  0.034787188  0.033192342           34 
 4584000   0.52401718   -4.9990576    1914.3679  0.034801628  0.033183827           15 
 4585000   0.51552666   -4.9989758    1905.3753  0.034630594   0.03317529           47 
 4586000   0.52002246   -4.9781749    1910.8453  0.034722439  0.033166784           25 
 4587000   0.51576643   -4.9700757     1911.958  0.034735085  0.033158251           61 
 4588000   0.51811058   -4.9787215    1913.2327  0.034750667  0.033149747           35 
 4589000   0.52227385   -4.9772661    1912.1144  0.034722786  0.033141233           32 
 4590000    0.5207615   -4.9670862     1913.488  0.034740159  0.033132747           23 
 4591000   0.52340033   -4.9880364    1913.8557  0.034739266   0.03312424           41 
 4592000   0.52239693   -4.9780256    1906.3698  0.034595852  0.033115745           20 
 4593000   0.51830311   -4.9774791    1914.3892   0.03473382  0.033107252           11 
 4594000   0.52297491   -4.9708914    1909.7015  0.034641226  0.033098751           23 
 4595000   0.50825611   -4.9849517    1912.1308  0.034677743  0.033090254           19 
 4596000   0.52239922   -4.9743256    1915.4831  0.034730981  0.033081758           18 
 4597000   0.52790209   -4.9905768    1909.3895  0.034612963  0.033073241           19 
 4598000    0.5151273   -4.9915733    1908.8635  0.034595902  0.033064733           26 
 4599000   0.50851066   -5.0037533    1908.8473  0.034588086  0.033056195           25 
 4600000   0.50752254    -4.988216    1915.7739  0.034706048  0.033047676           63 
 4601000   0.51282498   -4.9829726     1913.474   0.03465685  0.033039196           35 
 4602000   0.51577262   -4.9880016    1909.9426  0.034585373  0.033030714           17 
 4603000   0.51973405    -4.992091    1908.1494  0.034545394  0.033022208           15 
 4604000   0.51083528   -4.9927604    1908.6619  0.034547168  0.033013675           36 
 4605000   0.51898553   -4.9974264    1910.9849  0.034581703  0.033005155           27 
 4606000    0.5222655   -5.0064835     1907.259  0.034506785  0.032996614           31 
 4607000   0.49197312    -4.996401    1910.2589  0.034553558  0.032988067           45 
 4608000   0.52000495   -5.0169288    1908.6884  0.034517658  0.032979527           72 
 4609000   0.51929946   -4.9777857     1912.316  0.034575757   0.03297099          117 
 4610000   0.52080045   -4.9777473    1910.2518  0.034530943  0.032962465           57 
 4611000    0.5132347   -4.9869271    1905.9201   0.03444517  0.032953958           67 
 4612000   0.50775182   -4.9804869    1910.8738  0.034527208  0.032945448           27 
 4613000    0.5073907   -5.0024462    1914.6757  0.034588404  0.032936957           40 
 4614000   0.52177176   -4.9895999    1904.9963  0.034406088  0.032928475           14 
 4615000   0.50994992    -5.003244    1909.6681  0.034482992  0.032919979           13 
 4616000   0.51452749   -4.9747137    1912.7891  0.034531865  0.032911484           24 
 4617000   0.51260083   -4.9924439    1908.7664  0.034451779  0.032903016           24 
 4618000   0.52678914   -4.9882774    1911.2294  0.034488765  0.032894532           32 
 4619000   0.51975235   -4.9825789    1911.5732  0.034487502  0.032886058           40 
 4620000   0.50993065   -5.0047344    1908.5594  0.034425675  0.032877558           13 
 4621000   0.51889288     -4.98194    1908.9342  0.034424984  0.032869064           12 
 4622000   0.50704134    -5.004201      1910.54  0.034446488  0.032860563           14 
 4623000   0.52079017   -5.0014368    1910.1865  0.034432664   0.03285207           30 
 4624000   0.49969438   -5.0143798    1907.2589  0.034372457  0.032843561           36 
 4625000   0.52263494   -5.0097533     1907.821  0.034375153  0.032835025           28 
 4626000   0.50647252   -4.9937722    1911.2697  0.034429847  0.032826516           22 
 4627000    0.5160103   -4.9950692    1907.2253  0.034349565  0.032818033           16 
 4628000    0.5056005   -4.9860669    1905.8451  0.034317291   0.03280953           12 
 4629000   0.52644549   -5.0008866    1910.2454  0.034389095  0.032801046           27 
 4630000   0.50258417   -4.9923466    1910.7122  0.034390068  0.032792564           26 
 4631000    0.5137484   -4.9838625    1910.2963  0.034375159  0.032784095           17 
 4632000   0.51024334   -4.9803353    1907.5634  0.034318569  0.032775631           13 
 4633000   0.49285843   -4.9639882    1912.3369  0.034397023  0.032767189           22 
 4634000   0.51728732   -4.9855204    1908.8953   0.03432771  0.032758767           11 
 4635000   0.51087919   -4.9752511    1910.6573  0.034351983  0.032750344           23 
 4636000   0.51768152    -4.987983    1912.4039  0.034375968  0.032741939            8 
 4637000    0.5003612   -4.9920441    1906.4755  0.034262013  0.032733474           10 
 4638000   0.51194903   -5.0171962    1908.4654   0.03429038  0.032724979           12 
 4639000   0.51461398   -5.0194878    1910.1629  0.034313483  0.032716497           20 
 4640000   0.50886476   -4.9957758    1909.0645   0.03428636  0.032708027           17 
 4641000    0.5063011    -4.984356    1912.4495  0.034339753  0.032699563           14 
 4642000   0.50559808   -4.9878686     1910.341  0.034294503  0.032691108           25 
 4643000   0.49609086   -4.9886263    1911.9034  0.034315159  0.032682685           20 
 4644000   0.51044758   -4.9817231    1911.1395  0.034294063  0.032674269           33 
 4645000   0.52238278   -4.9869615    1907.4039  0.034219661   0.03266585           24 
 4646000   0.50828662   -5.0051091    1909.0706  0.034242191  0.032657425           14 
 4647000   0.51138932   -4.9920882     1910.822  0.034266228  0.032649001           39 
 4648000   0.51087139   -4.9979441    1908.7111  0.034221011  0.032640589           39 
 4649000   0.50581123   -5.0147224    1911.8384  0.034269707  0.032632148           32 
 4650000    0.5077888   -5.0034016    1910.5532  0.034239304  0.032623691           17 
 4651000   0.51519712    -4.997721    1912.6046  0.034268699  0.032615253           11 
 4652000   0.51497058   -5.0085339    1911.0316  0.034233153   0.03260683           13 
 4653000   0.50096128   -4.9734313    1915.1516  0.034299584  0.032598419           14 
 4654000   0.51018544   -5.0010986    1905.1526  0.034113175   0.03258998           19 
 4655000       0.5109   -5.0027701    1912.3451  0.034234607  0.032581516           11 
 4656000   0.50484231   -4.9956244    1910.6697  0.034197266  0.032573055           12 
 4657000   0.49769459   -5.0093474    1909.9707  0.034177415  0.032564614           13 
 4658000   0.48961702   -4.9928428    1910.6632  0.034182468  0.032556164           22 
 4659000   0.50751996   -4.9894448     1909.943  0.034162249  0.032547739           34 
 4660000   0.50621086   -4.9910917    1911.1465  0.034176439  0.032539296           18 
 4661000   0.50642771   -4.9916927    1906.7854  0.034091136  0.032530865           17 
 4662000   0.49287772   -4.9890812    1912.0578  0.034178067  0.032522461           23 
 4663000   0.50115862   -4.9890514    1907.8222  0.034095043  0.032514037           24 
 4664000   0.50281536   -4.9791687    1911.6233  0.034155649  0.032505648           35 
 4665000   0.49952565   -5.0159412    1906.2352  0.034052076  0.032497223           39 
 4666000   0.51410289   -4.9801701    1910.3898  0.034118978  0.032488787           23 
 4667000    0.4965699   -5.0162361    1912.6103  0.034151315  0.032480358           29 
 4668000    0.4938296   -5.0085601    1909.6674  0.034091462  0.032471931           16 
 4669000   0.51753839   -5.0054317    1909.3467  0.034078438  0.032463512           46 
 4670000   0.50657714   -5.0251009    1904.3505  0.033981987  0.032455062           31 
 4671000   0.49404268   -4.9994621    1905.5161  0.033995506  0.032446641           31 
 4672000   0.51351183   -5.0002453    1913.3086  0.034127222  0.032438228           30 
 4673000   0.50350223   -4.9996009    1910.5232  0.034070247  0.032429835           34 
 4674000   0.50481707   -5.0012977    1905.5391  0.033974096  0.032421415           25 
 4675000   0.50621892   -5.0027253    1910.6554  0.034058029  0.032412998           24 
 4676000   0.51529118   -4.9982178    1911.5029  0.034065848  0.032404566           31 
 4677000   0.51053304   -5.0172539    1905.6208  0.033953759  0.032396178           32 
 4678000   0.50405857   -5.0064612    1909.0031  0.034006754  0.032387742           17 
 4679000    0.5101003   -5.0218984    1909.1089   0.03400137  0.032379314           22 
 4680000   0.51218241   -5.0135239    1912.2832  0.034050627    0.0323709           31 
 4681000   0.49800865   -5.0214522    1906.8526  0.033946674  0.032362489           14 
 4682000   0.51196972   -5.0131301    1907.4052  0.033949259  0.032354083           15 
 4683000   0.50587614   -5.0286086     1904.106  0.033883302  0.032345653           19 
 4684000   0.50284684   -5.0316846    1904.2059  0.033877846  0.032337215           11 
 4685000   0.50297406   -5.0169494    1904.8278  0.033881676  0.032328788           12 
 4686000   0.49823137   -5.0176449    1912.7852  0.034015955   0.03232038           10 
 4687000   0.50062949   -5.0079075    1905.2346  0.033874451  0.032311997           19 
 4688000   0.50637649   -5.0217973    1910.9377  0.033968602   0.03230359           19 
 4689000   0.49077509   -5.0056938    1911.4424  0.033970328  0.032295188           19 
 4690000   0.50214843   -5.0072619    1906.9978  0.033884112  0.032286809           23 
 4691000   0.50599121   -5.0244116    1906.7704  0.033872849  0.032278407           18 
 4692000   0.50029226   -5.0164894    1905.4954  0.033842985  0.032269996           50 
 4693000   0.49599498   -5.0248154    1905.6099  0.033837806  0.032261581           33 
 4694000   0.49819805   -5.0185601    1909.3732  0.033897409  0.032253151           30 
 4695000   0.49619891   -5.0368419    1911.2761  0.033923964  0.032244763           36 
 4696000   0.48810203   -5.0314233    1904.8007  0.033801829  0.032236364           32 
 4697000   0.51314509   -5.0090259    1907.8492  0.033848719  0.032227928           32 
 4698000   0.50715199   -5.0175777    1905.6616  0.033802711   0.03221953           47 
 4699000    0.5077586   -5.0287786    1909.4328  0.033862396  0.032211133           27 
 4700000   0.50246942   -5.0331032    1904.9407  0.033775544  0.032202742           62 
 4701000   0.50723244   -5.0230649    1908.1551  0.033825341  0.032194339           38 
 4702000   0.49535475   -5.0408851    1909.5803  0.033843405  0.032185961           19 
 4703000   0.50591867   -5.0425392    1904.6082  0.033748107  0.032177573           13 
 4704000   0.50646115   -5.0146777      1905.91  0.033763995  0.032169178           10 
 4705000   0.48933039   -5.0086575     1908.363  0.033800266  0.032160802           15 
 4706000    0.5054466   -5.0145598    1909.4357  0.033812079  0.032152441           48 
 4707000   0.50032513   -5.0186129    1907.6405  0.033773112  0.032144056           52 
 4708000    0.5088487   -5.0223251    1906.6824   0.03374898   0.03213568           27 
 4709000   0.50056294    -5.011643     1907.594  0.033757945  0.032127308           41 
 4710000   0.50710457   -5.0197021    1905.7827  0.033718732  0.032118934           28 
 4711000   0.49224736   -5.0164716    1911.6232  0.033814887  0.032110572           38 
 4712000    0.4934817    -5.002271    1908.8196  0.033758128  0.032102218           32 
 4713000   0.51456163    -5.033107    1906.8589  0.033716297  0.032093862           22 
 4714000   0.49930664   -5.0021281    1909.5041  0.033755907  0.032085533           25 
 4715000   0.49936211   -5.0325097    1905.3404  0.033675158  0.032077195           44 
 4716000   0.48360516   -5.0170263    1906.0143  0.033679925  0.032068854           40 
 4717000   0.50229135   -5.0163101    1912.5258  0.033787821  0.032060511           43 
 4718000   0.49301904   -5.0251197    1909.4681  0.033726651  0.032052157           50 
 4719000   0.49631363   -5.0178451     1908.986  0.033710992  0.032043803           29 
 4720000   0.50029704   -5.0114886    1904.9088  0.033631864  0.032035431           40 
 4721000   0.49040025   -5.0157944    1909.7494  0.033710186  0.032027098           24 
 4722000   0.50278721   -5.0078265     1908.934  0.033688657  0.032018747           27 
 4723000   0.49920171   -5.0251745    1908.9927   0.03368256  0.032010413           44 
 4724000   0.49414242   -5.0301475      1904.83  0.033601996  0.032002079           30 
 4725000   0.51439545   -5.0256537    1907.6641  0.033644869  0.031993741           44 
 4726000    0.4909483   -5.0195109    1907.7953  0.033640063  0.031985403           34 
 4727000   0.50593563    -5.019643    1909.1857  0.033657458  0.031977064           22 
 4728000   0.48645517   -5.0206599    1905.6161  0.033587424  0.031968723           47 
 4729000   0.50998937   -5.0352337    1906.3945  0.033594038  0.031960395           33 
 4730000   0.49373511   -5.0269834    1904.8593   0.03355989   0.03195205           51 
 4731000   0.49973958    -5.012533    1908.0594  0.033609164  0.031943721           82 
 4732000   0.49629529   -5.0290307    1905.2879  0.033553253  0.031935391           77 
 4733000   0.49007254   -5.0134991    1908.0645   0.03359505   0.03192703          104 
 4734000   0.49069549   -5.0123157    1908.7789  0.033600531  0.031918688          187 
 4735000   0.49726911    -5.014578     1908.454  0.033587716  0.031910386          121 
 4736000   0.49718868    -5.011133    1908.1455  0.033575196  0.031902047           73 
 4737000   0.49517477   -5.0356194     1907.348  0.033554077  0.031893691           77 
 4738000   0.50012148   -5.0413622    1903.6308  0.033481617   0.03188532           83 
 4739000   0.50347009   -5.0196642    1905.3189  0.033504236  0.031876958           50 
 4740000    0.4877893   -5.0446583    1905.1369  0.033493968  0.031868613           81 
 4741000   0.49783997   -5.0152181    1905.6456  0.033495845  0.031860289           27 
 4742000   0.48497019   -5.0123603    1905.5781  0.033487595  0.031851968           63 
 4743000   0.48299583   -5.0366104     1906.474  0.033496275  0.031843654           49 
 4744000   0.49511388   -5.0428135    1904.4918  0.033454395  0.031835322           44 
 4745000   0.48231684   -5.0283621    1908.7796  0.033522648  0.031826998           15 
 4746000   0.50538879   -5.0373794    1904.9484  0.033448315  0.031818668           33 
 4747000   0.49419995   -5.0194422    1903.4074  0.033414216  0.031810343           88 
 4748000   0.49477952   -5.0437013    1907.1118  0.033472195  0.031802013           57 
 4749000   0.47857285   -5.0297856    1908.5986  0.033491237  0.031793688           46 
 4750000   0.48468105   -5.0187836    1908.0351  0.033474299  0.031785377           28 
 4751000   0.50154167   -5.0344005    1906.1981  0.033435033  0.031777067           16 
 4752000   0.48429686   -5.0359711    1908.1704  0.033462583  0.031768765           25 
 4753000   0.49364487   -5.0319592    1907.3636  0.033441398  0.031760451           48 
 4754000   0.48793501   -5.0343676    1907.7063  0.033440371  0.031752139           17 
 4755000   0.49102621   -5.0176661    1904.5573  0.033378152  0.031743822           15 
 4756000   0.49099728   -5.0318148    1905.0519  0.033379799  0.031735544           19 
 4757000   0.48567458   -5.0334079    1906.7805  0.033403064  0.031727261           18 
 4758000   0.47977778   -5.0164519    1906.2852  0.033387368  0.031718988           23 
 4759000   0.49200339    -5.049758    1908.9773  0.033427494  0.031710699           16 
 4760000   0.49351898   -5.0299722    1906.9678  0.033385291  0.031702408           19 
 4761000   0.49697641    -5.033272    1911.7816  0.033462536   0.03169413           18 
 4762000   0.49169961   -5.0533738    1904.7416  0.033332312  0.031685865           25 
 4763000   0.50304745   -5.0366166    1904.4442  0.033320109  0.031677576           39 
 4764000   0.48461473   -5.0561327     1904.232  0.033309403  0.031669292           32 
 4765000   0.47031846   -5.0226236    1911.1539  0.033423468   0.03166102           72 
 4766000   0.48524892   -5.0444196    1906.1145  0.033328342  0.031652725           68 
 4767000   0.48795756   -5.0488644    1901.1082  0.033233832  0.031644415           40 
 4768000   0.48543884    -5.023128    1908.5253  0.033356497  0.031636124           50 
 4769000   0.49030944   -5.0435798    1907.3333  0.033328673   0.03162783           25 
 4770000   0.49756539    -5.050522    1907.1753  0.033318925  0.031619556           39 
 4771000   0.48804066   -5.0252616    1907.7555  0.033322075  0.031611278           26 
 4772000   0.48943049   -5.0483064    1906.7486   0.03329751  0.031603001           41 
 4773000    0.4795093   -5.0457387    1904.0786  0.033243917  0.031594721           46 
 4774000   0.47668914   -5.0308576    1908.5673  0.033315307  0.031586423           57 
 4775000   0.48919819   -5.0291158    1904.1556  0.033231336  0.031578133           60 
 4776000   0.49688416   -5.0410202    1907.3511  0.033280135  0.031569842           37 
 4777000    0.4837157   -5.0367788    1903.3218  0.033202878  0.031561545           44 
 4778000    0.4950771   -5.0369386    1903.0555  0.033191284   0.03155326           51 
 4779000   0.48679774   -5.0312988    1907.6765  0.033264917  0.031545008           33 
 4780000   0.49939616     -5.04261     1905.678  0.033223118  0.031536736           25 
 4781000   0.48167718   -5.0447072    1904.7752  0.033200433  0.031528439           17 
 4782000   0.48633499   -5.0328536    1907.8558  0.033247173  0.031520169           31 
 4783000   0.47042441   -5.0542146    1902.8434  0.033152892  0.031511874           42 
 4784000   0.48708565   -5.0642149    1906.4656  0.033209059  0.031503582           30 
 4785000   0.48054238   -5.0369603    1903.7665  0.033155111   0.03149532           34 
 4786000   0.49099181   -5.0317126    1907.0975  0.033206184  0.031487051           39 
 4787000   0.47640854   -5.0382808    1906.3195  0.033185703  0.031478783           95 
 4788000    0.4877335   -5.0366943    1907.1888  0.033193901  0.031470537           84 
 4789000   0.47481842   -5.0446572    1905.6455  0.033160116  0.031462289           63 
 4790000   0.48030638   -5.0540035    1903.0983  0.033108877  0.031454056           34 
 4791000   0.49246433   -5.0597141     1906.889  0.033167902  0.031445815           83 
 4792000   0.47976151    -5.032244    1903.1774  0.033096435  0.031437593           51 
 4793000   0.47634298   -5.0472917    1907.4103  0.033163126  0.031429351           59 
 4794000   0.48257945   -5.0582092    1903.1697  0.033082494  0.031421098           41 
 4795000   0.48983999   -5.0476836    1905.1591  0.033110168  0.031412835           57 
 4796000   0.48590344   -5.0548967    1904.3121  0.033088548  0.031404571          145 
 4797000   0.48344809   -5.0635218    1904.2126  0.033079922  0.031396303           88 
 4798000   0.48771354   -5.0658195    1906.3893  0.033110832  0.031388021          135 
 4799000   0.48431973   -5.0589018    1903.5442  0.033054528  0.031379787          140 
 4800000   0.48357151   -5.0550155    1906.8506  0.033105045  0.031371511           53 
 4801000   0.48245549   -5.0407218    1904.1446  0.033051181  0.031363261           49 
 4802000   0.48710293   -5.0430258    1905.8318  0.033073576  0.031355006           35 
 4803000   0.47410362    -5.065055    1906.6007  0.033080032  0.031346757           25 
 4804000   0.48078606   -5.0548224    1901.6665  0.032987553  0.031338512           34 
 4805000   0.48251057   -5.0414563    1904.5692  0.033031031  0.031330274           32 
 4806000    0.4805458   -5.0617239    1902.7557  0.032992712  0.031322017           15 
 4807000   0.48919602   -5.0489692     1903.828  0.033004438  0.031313774           15 
 4808000   0.47747415   -5.0654545    1905.0388  0.033018559  0.031305522           31 
 4809000   0.47913183   -5.0691623    1908.2755   0.03306778   0.03129726           25 
 4810000   0.47293335   -5.0397573    1905.4828  0.033012523  0.031288984           56 
 4811000   0.47509659   -5.0537235    1903.4437   0.03297034  0.031280725           59 
 4812000   0.47575268   -5.0509111    1899.3908  0.032893301  0.031272448           48 
 4813000   0.47795188   -5.0867974    1902.7757  0.032945074  0.031264151           65 
 4814000   0.48026647     -5.06614    1896.9672  0.032837682  0.031255853           66 
 4815000   0.48470197   -5.0613576    1902.6694  0.032929551  0.031247568          159 
 4816000   0.48643736   -5.0501695    1903.1134  0.032930395  0.031239276           78 
 4817000   0.49064778    -5.079535    1904.5459  0.032948341  0.031231017           84 
 4818000   0.48951048   -5.0834576    1898.3045   0.03283355  0.031222758           44 
 4819000   0.47974265   -5.0527013    1907.0433  0.032977853   0.03121451           24 
 4820000   0.48464629    -5.051876    1902.0988  0.032885525   0.03120627           39 
 4821000    0.4721168   -5.0817832    1900.1951  0.032845798  0.031198015          144 
 4822000   0.48243398   -5.0547881    1901.7411  0.032865704  0.031189742           97 
 4823000   0.48118236   -5.0714211    1902.3873  0.032870054  0.031181485           84 
 4824000   0.47935848   -5.0844485    1905.1035  0.032910163  0.031173236           36 
 4825000   0.47844085   -5.0689686    1903.0904  0.032868573  0.031164994           39 
 4826000    0.4809256   -5.0776898    1903.5776  0.032870176  0.031156763           74 
 4827000   0.48088648   -5.0650879    1899.5505  0.032793841   0.03114852           27 
 4828000   0.48317161   -5.0711209    1899.2162   0.03278128  0.031140281           27 
 4829000   0.47638101   -5.0598696     1903.738  0.032852523  0.031132053           57 
 4830000   0.46908184     -5.07047    1898.6953  0.032758719   0.03112381           38 
 4831000   0.47852269   -5.0643047    1903.8765  0.032841311  0.031115561           26 
 4832000   0.47279711   -5.0792064    1898.9734  0.032749956  0.031107323           33 
 4833000   0.47280449   -5.0651753    1901.1813  0.032781248  0.031099059           75 
 4834000   0.47734623   -5.0691282    1898.4103  0.032726698  0.031090806           27 
 4835000   0.47007644   -5.0808392    1901.5462  0.032773978   0.03108255           50 
 4836000   0.46817638    -5.056932     1903.551  0.032801748  0.031074308           53 
 4837000    0.4712855   -5.0664553    1896.2405  0.032669018  0.031066079           78 
 4838000   0.48167575   -5.0636405    1903.1848   0.03278188  0.031057826           56 
 4839000   0.45729476   -5.0694507    1900.9212  0.032736122  0.031049563           73 
 4840000   0.48086019   -5.0820222    1902.4554  0.032755775  0.031041306          103 
 4841000   0.47315198   -5.0799703    1899.4616  0.032697474   0.03103304           68 
 4842000   0.47369327   -5.0871465     1898.642  0.032676614  0.031024765           57 
 4843000   0.48746696    -5.100929    1898.1918  0.032662121  0.031016498           70 
 4844000   0.47173022   -5.0874822    1903.9672  0.032754734  0.031008252           49 
 4845000   0.47167834   -5.0918439    1900.0805  0.032681123  0.031000001           94 
 4846000   0.48467781   -5.0769743    1900.1577  0.032675706   0.03099177           48 
 4847000   0.47020472   -5.0627089    1902.7453  0.032713454  0.030983535           40 
 4848000   0.47690354   -5.0683292    1898.0473  0.032625951  0.030975317           99 
 4849000    0.4814677   -5.0671853    1902.4764  0.032695339  0.030967108           52 
 4850000   0.47969784   -5.0708551    1901.0095  0.032663393  0.030958911           57 
 4851000   0.47732715   -5.0883129    1902.7652   0.03268682   0.03095071           37 
 4852000   0.47564082   -5.0731917     1902.908  0.032682536  0.030942507           94 
 4853000   0.47833381    -5.082102      1901.36  0.032649221  0.030934297           89 
 4854000   0.48061793     -5.06526    1900.3721  0.032625534  0.030926112           91 
 4855000   0.47479797   -5.0924617    1899.6566  0.032606532  0.030917896          117 
 4856000   0.47259122    -5.062376    1901.2088  0.032626455  0.030909662          123 
 4857000   0.47506768   -5.0768293    1900.7586  0.032612013  0.030901431          116 
 4858000   0.47565173   -5.0684774    1904.1623  0.032663686  0.030893208           43 
 4859000   0.46957987   -5.0614088    1902.7014   0.03263191  0.030885011           47 
 4860000   0.47050946   -5.0762696    1902.0186  0.032613487  0.030876803           44 
 4861000   0.47079384   -5.0656291    1901.4069  0.032596292  0.030868594           53 
 4862000   0.46073756   -5.0885497    1900.5275  0.032574515  0.030860382           53 
 4863000   0.48129434   -5.0820604    1900.3155  0.032564183  0.030852169           53 
 4864000   0.48145424   -5.0760573    1898.5884  0.032527898   0.03084396           49 
 4865000   0.47402401   -5.0947241    1897.6281  0.032504763  0.030835751           39 
 4866000   0.46924897   -5.0829883    1902.5488  0.032582354  0.030827532           19 
 4867000    0.4633947   -5.0962447    1902.0827  0.032567679  0.030819331           28 
 4868000   0.46472958   -5.0810693    1898.5095  0.032499821  0.030811122           15 
 4869000   0.47236952   -5.0670857    1899.2665  0.032506102  0.030802905           39 
 4870000   0.47565608   -5.0855439    1901.8919  0.032544351  0.030794694           42 
 4871000   0.47850463    -5.085791    1899.3609   0.03249437  0.030786506           29 
 4872000   0.47036313    -5.093849    1900.0814  0.032500024  0.030778321           37 
 4873000   0.47366193   -5.0709987    1895.2994  0.032411577   0.03077013           31 
 4874000   0.45342126   -5.0637236    1904.4608  0.032561566  0.030761957           13 
 4875000   0.47175307    -5.081031    1898.9273  0.032460296  0.030753785           29 
 4876000   0.45979186   -5.0815686    1896.4529   0.03241135  0.030745615           71 
 4877000   0.46992015   -5.0804648    1900.5842  0.032475296  0.030737409          105 
 4878000   0.46651631   -5.0916023    1896.9758  0.032406994  0.030729201          100 
 4879000   0.46476856   -5.0923461    1902.3577  0.032492275  0.030720988           83 
 4880000   0.47150853     -5.08985    1899.8325  0.032442495   0.03071279          123 
 4881000   0.46549813   -5.0924265    1900.9912  0.032455631    0.0307046           54 
 4882000   0.47671313   -5.0943183    1901.1813  0.032452227   0.03069639           51 
 4883000   0.46699288   -5.0782278    1900.6404   0.03243635  0.030688211           42 
 4884000    0.4752574    -5.089437    1900.2468  0.032422993  0.030680016           45 
 4885000   0.47025463   -5.0744676    1896.8278  0.032358031  0.030671829          107 
 4886000   0.47147474   -5.0826319    1899.3729  0.032394816   0.03066364           79 
 4887000   0.47030023   -5.0861869    1900.4816  0.032407093  0.030655482           45 
 4888000   0.47907024   -5.1083915    1896.9786  0.032340742  0.030647309           73 
 4889000   0.47089675   -5.0856609    1903.3047  0.032441957  0.030639125          127 
 4890000   0.47506454   -5.1024213    1898.2455  0.032349106  0.030630932          106 
 4891000    0.4717257   -5.0975659    1898.3137  0.032343653  0.030622757           55 
 4892000   0.48180361   -5.1021276    1897.1776  0.032317689  0.030614573          116 
 4893000   0.47542941   -5.0948983       1890.6   0.03219906  0.030606394           83 
 4894000   0.46626553   -5.1110275    1896.6618  0.032295699  0.030598216           54 
 4895000   0.46886985   -5.1020706    1900.2614  0.032350381  0.030590034           44 
 4896000   0.46623796   -5.0966243    1899.1122  0.032324214  0.030581861           87 
 4897000   0.46708525   -5.1208193    1901.2765  0.032354443  0.030573675           51 
 4898000   0.47337961   -5.0923015    1899.4055  0.032316005  0.030565518          167 
 4899000   0.46167783   -5.0842083    1898.8661  0.032300233  0.030557365           96 
 4900000   0.46673346   -5.0916512    1897.8976  0.032277171  0.030549199          107 
 4901000   0.47230156   -5.0882506    1899.6822  0.032300929  0.030541046          100 
 4902000   0.47365499   -5.1071724    1894.8749  0.032212616   0.03053289          122 
 4903000    0.4723888   -5.0848875    1901.4102  0.032317123  0.030524725           44 
 4904000   0.46984046   -5.0937158    1892.8985  0.032165893  0.030516569           80 
 4905000   0.46511788   -5.0947242    1897.8351  0.032243205  0.030508421           59 
 4906000    0.4712426   -5.1028668    1899.2671  0.032260958  0.030500261          100 
 4907000   0.45507672   -5.1031412    1898.6097  0.032243219  0.030492124           43 
 4908000   0.46038051   -5.0975593    1896.1494  0.032194875  0.030483966           72 
 4909000   0.46843615   -5.0934039    1897.7179  0.032214944  0.030475801          139 
 4910000   0.47418918   -5.0889175    1899.6222  0.032240703  0.030467657          117 
 4911000    0.4591349   -5.0915114    1899.4269  0.032230824  0.030459538          102 
 4912000   0.46433721   -5.0933668    1898.9477  0.032216132   0.03045144          112 
 4913000   0.47359986   -5.0875198    1897.8126  0.032190321  0.030443332           75 
 4914000   0.47029925   -5.0953607    1903.9327  0.032287557   0.03043522           54 
 4915000   0.46908466   -5.0888659    1901.2565  0.032235614  0.030427108           69 
 4916000   0.46951968   -5.0871049    1900.5115  0.032216428  0.030419002           83 
 4917000   0.46959842    -5.101325    1900.5772  0.032210989  0.030410895           97 
 4918000   0.46844218   -5.0805032    1900.3491  0.032200575  0.030402796           91 
 4919000     0.463667   -5.0938933    1897.6767  0.032148755   0.03039471          109 
 4920000   0.46518514   -5.0974041     1901.503  0.032207029   0.03038662           84 
 4921000   0.46253967   -5.1094818    1897.3838  0.032130729  0.030378522          141 
 4922000   0.47073561   -5.1264143    1901.6333  0.032196149  0.030370429          162 
 4923000   0.46589793   -5.0891918    1900.3194  0.032167368  0.030362353           70 
 4924000     0.470689   -5.0891834    1900.3282  0.032160984  0.030354259           41 
 4925000   0.47477222   -5.1184576      1899.61  0.032142302  0.030346155          133 
 4926000    0.4638982   -5.0895935    1895.0988  0.032059459  0.030338072          167 
 4927000   0.46651203    -5.110712    1902.0298  0.032170182  0.030329999           75 
 4928000   0.47154743   -5.0972703    1898.9925  0.032112292  0.030321919           31 
 4929000    0.4549142   -5.1050485    1898.4676  0.032096902  0.030313829           63 
 4930000   0.45699912   -5.1014123    1897.9864  0.032082259  0.030305721           90 
 4931000   0.45890466   -5.1017277    1897.6886  0.032070719  0.030297607          141 
 4932000    0.4600939   -5.0956671    1899.6799  0.032097863  0.030289498          214 
 4933000   0.45391178   -5.0988507    1906.8153  0.032211895  0.030281393           75 
 4934000   0.45995165   -5.1070968    1900.3639  0.032096404  0.030273296           82 
 4935000   0.45345102   -5.1040502    1895.9881   0.03201601  0.030265201           80 
 4936000   0.45552184   -5.1087838    1899.0699  0.032061552  0.030257105           90 
 4937000   0.45533113   -5.1037109    1895.2278  0.031990207  0.030249016          119 
 4938000   0.46360073     -5.10199     1900.006  0.032064365  0.030240917           99 
 4939000   0.47063912   -5.1005869    1896.3225  0.031995723  0.030232803          130 
 4940000   0.46364966    -5.110806    1895.7925  0.031980306  0.030224704          150 
 4941000   0.46730829   -5.0966085    1901.5882  0.032071582  0.030216616          171 
 4942000    0.4610568   -5.1204483    1896.3344    0.0319765  0.030208531          194 
 4943000   0.46727928   -5.1277269    1900.0972  0.032033469  0.030200447          171 
 4944000    0.4592508   -5.1091311    1900.0711   0.03202655  0.030192368          185 
 4945000   0.45922427   -5.1143704    1898.3093  0.031990383  0.030184289          197 
 4946000   0.46213157     -5.11025    1896.2191  0.031948697  0.030176221          186 
 4947000   0.46944767   -5.1137472    1893.0873  0.031889483  0.030168133          211 
 4948000   0.46595004   -5.1051187    1895.2676  0.031919758  0.030160056          192 
 4949000   0.45775868    -5.115833    1896.5117  0.031934258  0.030151951          214 
 4950000   0.46232526   -5.1125341     1894.842  0.031899697  0.030143855          191 
 4951000   0.45666701   -5.1300868    1895.1296  0.031898095   0.03013578          153 
 4952000   0.46973081   -5.1240545    1896.9684  0.031922597  0.030127691          239 
 4953000   0.45900261   -5.1005197    1895.9477  0.031898979  0.030119601          140 
 4954000   0.45863352   -5.1106685    1895.1905  0.031879803  0.030111543          135 
 4955000   0.46543513   -5.1255409    1896.6548  0.031897995  0.030103477          196 
 4956000   0.45572993   -5.1103157    1892.6512  0.031824239  0.030095419          108 
 4957000   0.46212015   -5.1197382    1898.7482  0.031920318  0.030087359          157 
 4958000   0.45422046   -5.1175899    1895.6683  0.031862113  0.030079293          245 
 4959000   0.45310875   -5.1057787    1897.7766  0.031891117  0.030071229          166 
 4960000   0.45322603   -5.1095666    1899.5677  0.031914779  0.030063185          150 
 4961000   0.45719544   -5.1116799    1896.2537   0.03185268  0.030055127          215 
 4962000   0.45697432   -5.1045585    1893.0422  0.031792326  0.030047064          271 
 4963000   0.45975487   -5.1153258    1903.2131  0.031956698  0.030039016          183 
 4964000   0.44279702   -5.1197614    1897.7409  0.031858395  0.030030977          217 
 4965000   0.45523747    -5.123324    1895.9982  0.031822729  0.030022909          228 
 4966000   0.46119118   -5.1154954    1894.5711  0.031792374  0.030014836          219 
 4967000   0.45840656   -5.1233955    1898.6669   0.03185469  0.030006787          202 
 4968000   0.45323068   -5.1108941    1898.6478  0.031847958  0.029998727          197 
 4969000   0.45007406   -5.1200378    1895.3453  0.031786163  0.029990673          189 
 4970000   0.46314939   -5.1103438    1894.7105  0.031769123   0.02998263          207 
 4971000   0.45483742   -5.1222019    1897.6251  0.031811592  0.029974584          215 
 4972000   0.45312856   -5.1241118    1894.2396  0.031748451  0.029966538          270 
 4973000   0.46308302   -5.1083927    1894.6976  0.031749741  0.029958508          256 
 4974000   0.44925989   -5.1260117    1895.9543  0.031764414  0.029950471          151 
 4975000   0.45737938   -5.1058479    1897.0333  0.031776103  0.029942429          181 
 4976000   0.45723872   -5.1220598    1899.9917  0.031819261  0.029934384          178 
 4977000   0.45509799   -5.1273062    1893.5648  0.031705258  0.029926338          141 
 4978000   0.44815262   -5.1332914     1891.917  0.031671304  0.029918287          180 
 4979000   0.45158619   -5.1263231    1896.5189  0.031741964  0.029910218          212 
 4980000   0.44883087   -5.1149892    1893.8632  0.031691151  0.029902163          247 
 4981000   0.46527334   -5.1123232    1894.1663   0.03168986  0.029894108          193 
 4982000    0.4480473   -5.1324589     1894.101  0.031682406  0.029886059          187 
 4983000   0.45931261   -5.1229559    1891.8851  0.031638992  0.029877999          164 
 4984000   0.45384212   -5.1182805    1895.4095  0.031691572  0.029869944          157 
 4985000   0.45003572   -5.1253296    1895.8747   0.03169299  0.029861901          165 
 4986000   0.45764329    -5.134148    1899.7135  0.031750794  0.029853862          225 
 4987000    0.4600645   -5.1346434    1894.6384  0.031659622  0.029845819          198 
 4988000   0.46214941    -5.120484    1896.9728  0.031692274  0.029837797          255 
 4989000   0.45903801   -5.1025071    1896.0882  0.031671147  0.029829773          268 
 4990000   0.45578744    -5.120542    1899.7251  0.031725536  0.029821764          251 
 4991000   0.45248634   -5.0958834    1893.9066  0.031622029  0.029813766          227 
 4992000   0.45682836   -5.1153548    1891.2235  0.031570905  0.029805765          290 
 4993000   0.44733351    -5.128879    1894.7907  0.031624118  0.029797739          343 
 4994000   0.45306179     -5.13734    1892.9633  0.031587293  0.029789706          472 
 4995000   0.44866086   -5.1257187    1892.1423  0.031567272  0.029781694          386 
 4996000   0.44830368    -5.140307    1893.4426  0.031582644  0.029773657          409 
 4997000   0.44673583   -5.1172938    1893.8529  0.031583164  0.029765633          295 
 4998000   0.44768685   -5.1211823    1894.9509  0.031595152  0.029757607          285 
 4999000   0.45660234   -5.1313229    1894.8852  0.031587738  0.029749581          338 
 5000000   0.45064679    -5.137867    1891.2382  0.031520636  0.029741552          438 
 5001000    0.4513894   -5.1359159    1893.1844  0.031546764  0.029733513          376 
 5002000   0.45030655   -5.1385398    1892.8866  0.031535496  0.029725455          496 
 5003000   0.45123835   -5.1340739     1895.372  0.031570591  0.029717409          472 
 5004000   0.45815672   -5.1415911    1891.9406  0.031507137  0.029709364          425 
 5005000   0.46003902   -5.1349288    1887.5198  0.031427236  0.029701321          600 
 5006000   0.45737656   -5.1405885      1893.36  0.031518179  0.029693273          472 
 5007000   0.45750915   -5.1413803    1890.6462  0.031466717  0.029685224          438 
 5008000   0.44257492   -5.1514952    1889.7868  0.031446132  0.029677167          468 
 5009000   0.44816157   -5.1522179    1888.2666  0.031414563  0.029669115          533 
 5010000   0.45080468   -5.1490983    1891.5837  0.031463468  0.029661076          500 
 5011000   0.44572943   -5.1441635    1892.0582   0.03146508  0.029653035          452 
 5012000   0.45246248   -5.1349736    1890.5126  0.031433104  0.029644991          486 
Loop time of 12393.2 on 48 procs for 5000000 steps with 4000 atoms

Performance: 69715.649 tau/day, 403.447 timesteps/s
99.4% CPU use with 48 MPI tasks x no OpenMP threads

MPI task timing breakdown:
Section |  min time  |  avg time  |  max time  |%varavg| %total
---------------------------------------------------------------
Pair    | 868.67     | 915.53     | 965.69     |  89.4 |  7.39
Neigh   | 84.215     | 87.444     | 92.794     |  21.5 |  0.71
Comm    | 798.53     | 856.96     | 908.75     | 104.1 |  6.91
Output  | 14.283     | 14.287     | 14.37      |   0.3 |  0.12
Modify  | 10387      | 10406      | 10424      |   8.6 | 83.97
Other   |            | 112.7      |            |       |  0.91

Nlocal:        83.3333 ave          89 max          75 min
Histogram: 1 3 3 2 3 11 6 10 4 5
Nghost:        2296.40 ave        2318 max        2278 min
Histogram: 3 4 4 9 8 4 7 6 1 2
Neighs:        15537.0 ave       17164 max       13279 min
Histogram: 1 1 1 7 9 4 9 7 6 3
FullNghs:      31074.4 ave       33521 max       27555 min
Histogram: 1 2 4 2 8 6 7 8 5 5

Total # of neighbors = 1491569
Ave neighs/atom = 372.89225
Neighbor list builds = 269805
Dangerous builds = 0

#clear
#
#next RN
#
#jump SELF
Total wall time: 3:26:36
