
units lj                  # Use reduced LJ style units
atom_style atomic         # Uncharged point particles
atom_modify map hash      # Needed for indexing of clusters etc
                          # Used to be able to find where atoms are in relation to each other.

lattice fcc 1.0 spacing 1 1 1
Lattice spacing in x,y,z = 1.5874011 1.5874011 1.5874011
region box block 0 10 0 10 0 10 units lattice
create_box 2 box
Created orthogonal box = (0.0000000 0.0000000 0.0000000) to (15.874011 15.874011 15.874011)
  3 by 4 by 4 MPI processor grid
create_atoms 1 box
Created 4000 atoms
  using lattice units in orthogonal box = (0.0000000 0.0000000 0.0000000) to (15.874011 15.874011 15.874011)
  create_atoms CPU = 0.002 seconds
set type 1 type/fraction 2 0.71 78393
Setting atom values ...
  2865 settings made for type/fraction
mass 1 1.0
mass 2 1.0
pair_style lj/cut  3.5
pair_modify tail  yes
pair_coeff 1  1  1.0  1.0   # Intearaction between 1 and 1 set with epsilon = 1 and sigma = 1
pair_coeff 1  2  1.5  0.8
pair_coeff 2  2  0.5  0.88

write_data data.0
System init for write_data ...
Neighbor list info ...
  update every 1 steps, delay 10 steps, check yes
  max neighbors/atom: 2000, page size: 100000
  master list distance cutoff = 3.8
  ghost atom cutoff = 3.8
  binsize = 1.9, bins = 9 9 9
  1 neighbor lists, perpetual/occasional/extra = 1 0 0
  (1) pair lj/cut, perpetual
      attributes: half, newton on
      pair build: half/bin/atomonly/newton
      stencil: half/bin/3d
      bin: standard
WARNING: Not all mixed pair coeffs generated from mixing. Use write_data with 'pair ij' option to store all pair coeffs. (../write_data.cpp:312)


#############################
#   M E L T   S Y S T E M   #
#############################

velocity all create 2.4 6229865 mom yes dist gaussian # Assign velocities
                                                    # Temperature 2.4, random number seed, zero linear momentum
                                                                                # Gaussian distribution

timestep 0.002   # simulation timestep
thermo 1000       # output thermodynamic data every 1000 steps bf 100

# Define a fix  in this case with index 1 applied to all
# particles in the simulation. This fix is for simulations
# in the anisotropic NPT ensemble. Note that we use the MTK
# correction.
fix 1 all npt temp 2.4 2.4 0.1 iso 5.68 5.68 0.5 mtk yes tchain 5 pchain 5 # Use NPT ensemble
                                                                         # Set temperature and pressure and damping
                                                                         # Numbers of thermostats in chain and in barostat
run 10000          # run for 10000 steps
Per MPI rank memory allocation (min/avg/max) = 3.642 | 3.644 | 3.648 Mbytes
Step Temp E_pair E_mol TotEng Press Volume 
       0          2.4   -4.1166387            0   -0.5175387   -3.7043072         4000 
    1000    2.3625254    -3.732948            0  -0.19004588    5.8415729    3637.2053 
    2000     2.377759   -3.6641723            0 -0.098425387    5.7633747    3681.8013 
    3000    2.3450486   -3.7034477            0  -0.18675424     5.484216     3682.004 
    4000    2.3909272   -3.6838844            0 -0.098390173    5.5480331    3688.7152 
    5000    2.4009455   -3.6948929            0 -0.094375093    5.6756193    3688.2448 
    6000    2.4238747   -3.7236881            0 -0.088784981    5.7296045    3652.7944 
    7000    2.4011295   -3.6486982            0 -0.047904431     5.669139    3696.7217 
    8000    2.4125169   -3.6914046            0 -0.073533901    5.5797389    3687.4369 
    9000    2.3999964   -3.7566818            0  -0.15758726    5.7937067     3630.362 
   10000    2.4002248   -3.6780256            0 -0.078588523    5.8135808    3672.6209 
Loop time of 2.80242 on 48 procs for 10000 steps with 4000 atoms

Performance: 616610.479 tau/day, 3568.348 timesteps/s
99.5% CPU use with 48 MPI tasks x no OpenMP threads

MPI task timing breakdown:
Section |  min time  |  avg time  |  max time  |%varavg| %total
---------------------------------------------------------------
Pair    | 1.1719     | 1.2545     | 1.3446     |   2.8 | 44.76
Neigh   | 0.21544    | 0.22331    | 0.24087    |   0.9 |  7.97
Comm    | 0.83016    | 0.96965    | 1.1298     |   6.3 | 34.60
Output  | 0.0002451  | 0.00025228 | 0.00032813 |   0.0 |  0.01
Modify  | 0.25881    | 0.33928    | 0.43628    |   7.7 | 12.11
Other   |            | 0.01543    |            |       |  0.55

Nlocal:        83.3333 ave          92 max          75 min
Histogram: 2 4 4 5 8 15 1 4 4 1
Nghost:        1735.19 ave        1763 max        1705 min
Histogram: 2 1 8 6 7 3 8 6 3 4
Neighs:        10397.5 ave       11754 max        9049 min
Histogram: 3 2 3 5 12 7 5 6 4 1

Total # of neighbors = 499081
Ave neighs/atom = 124.77025
Neighbor list builds = 908
Dangerous builds = 211

# Equilibrate just above the melting temperature to avoid step fn in T

fix 1 all npt temp 1.25 1.25 0.1 iso 5.68 5.68 0.5 mtk yes tchain 5 pchain 5
run 2000
Per MPI rank memory allocation (min/avg/max) = 3.644 | 3.646 | 3.649 Mbytes
Step Temp E_pair E_mol TotEng Press Volume 
   10000    2.4002248   -3.6780256            0 -0.078588523    5.8135808    3672.6209 
   11000    1.2516282   -5.4601175            0   -3.5831445    5.9289028    2795.4181 
   12000    1.2488848   -5.4822655            0   -3.6094067    5.6195262    2800.5561 
Loop time of 0.669364 on 48 procs for 2000 steps with 4000 atoms

Performance: 516310.919 tau/day, 2987.910 timesteps/s
99.7% CPU use with 48 MPI tasks x no OpenMP threads

MPI task timing breakdown:
Section |  min time  |  avg time  |  max time  |%varavg| %total
---------------------------------------------------------------
Pair    | 0.3032     | 0.32134    | 0.3849     |   2.3 | 48.01
Neigh   | 0.042016   | 0.044627   | 0.052244   |   0.7 |  6.67
Comm    | 0.18433    | 0.25509    | 0.27949    |   3.0 | 38.11
Output  | 5.0668e-05 | 5.1837e-05 | 6.8685e-05 |   0.0 |  0.01
Modify  | 0.039113   | 0.04349    | 0.047885   |   1.2 |  6.50
Other   |            | 0.004763   |            |       |  0.71

Nlocal:        83.3333 ave          92 max          77 min
Histogram: 5 1 11 2 11 5 7 3 1 2
Nghost:        2087.62 ave        2120 max        2059 min
Histogram: 3 2 5 8 8 9 5 7 0 1
Neighs:        13614.8 ave       15200 max       12046 min
Histogram: 1 5 5 11 6 2 5 4 6 3

Total # of neighbors = 653508
Ave neighs/atom = 163.37700
Neighbor list builds = 146
Dangerous builds = 13

#############################
# L I N E A R  Q U E N C H  #
#############################

# Define solid atoms. This closely follows ten Wolde  Ruiz-Montero and Frenkel  Faraday Discuss  1996  104  93-110
# Compute components of the per-atom q6 vector
compute q6 all orientorder/atom degrees 1 6 components 6 nnn NULL cutoff 1.3 # compute the Q6 parameter.
                                                                             # Use all neighbours within 1.3 unit cell.

# get number of connections
compute coord_number all coord/atom orientorder q6 0.5

# An atom is solid if it has 8 or more connections (of a possible 14)
variable is_solid atom c_coord_number>=8
group solid dynamic all var is_solid    # Must be dynamic to update
dynamic group solid defined

# do clustering
compute cluster solid cluster/atom 1.3 # Create a cluster where all atoms within are solid and max 1.3 units from another member

# define chunks one chunk per cluster
compute clus_chunks solid chunk/atom c_cluster nchunk every compress yes  # Says which atoms are in which chunk

# count the size of each chunk
compute size_chunks solid property/chunk clus_chunks count


# Find the maximum entry in the vector of chunk sizes
variable max_n equal max(c_size_chunks)


# Thermo style which includes this variable
# thermo_style custom step temp pe vol v_max_n

thermo ${N}  # Print the thermo information every 100 steps
thermo 1000  

# Reset the npt fix at a lower temperature (below freezing)
fix 1  all npt temp  ${temp} ${temp}  0.1  iso  5.68  5.68  0.5  mtk yes tchain  5  pchain  5
fix 1  all npt temp  0.45 ${temp}  0.1  iso  5.68  5.68  0.5  mtk yes tchain  5  pchain  5
fix 1  all npt temp  0.45 0.45  0.1  iso  5.68  5.68  0.5  mtk yes tchain  5  pchain  5

dump dmp2 all dcd ${N} traj.dcd
dump dmp2 all dcd 1000 traj.dcd


compute msd all msd com yes
variable twopoint equal c_msd[4]/6/(step*dt+1.0e-6)
fix 9 all vector 10 c_msd[4]
variable fit equal slope(f_9)/6/(10*dt)
thermo_style custom step temp pe c_msd[4] v_twopoint v_fit v_max_n

fix 1 all npt temp 1.25 ${temp} 0.1 iso 5.68 5.68 0.5 mtk yes tchain 5 pchain 5
fix 1 all npt temp 1.25 0.45 0.1 iso 5.68 5.68 0.5 mtk yes tchain 5 pchain 5
run 5000000 # 5000000  # Run for this many steps
Neighbor list info ...
  update every 1 steps, delay 10 steps, check yes
  max neighbors/atom: 2000, page size: 100000
  master list distance cutoff = 3.8
  ghost atom cutoff = 3.8
  binsize = 1.9, bins = 8 8 8
  4 neighbor lists, perpetual/occasional/extra = 1 3 0
  (1) pair lj/cut, perpetual
      attributes: half, newton on
      pair build: half/bin/atomonly/newton
      stencil: half/bin/3d
      bin: standard
  (2) compute orientorder/atom, occasional
      attributes: full, newton on
      pair build: full/bin/atomonly
      stencil: full/bin/3d
      bin: standard
  (3) compute coord/atom, occasional
      attributes: full, newton on
      pair build: full/bin/atomonly
      stencil: full/bin/3d
      bin: standard
  (4) compute cluster/atom, occasional
      attributes: full, newton on
      pair build: full/bin/atomonly
      stencil: full/bin/3d
      bin: standard
Per MPI rank memory allocation (min/avg/max) = 9.843 | 9.848 | 9.851 Mbytes
Step Temp PotEng c_msd[4] v_twopoint v_fit v_max_n 
   12000    1.2488848   -5.4822655 7.4961508e-31  5.20566e-33 8.3333333e+20            3 
   13000    1.2601684   -5.5499693   0.63845938 0.0040926882  0.053145682            1 
   14000    1.2421141   -5.5463868    1.2305791 0.0073248752  0.050897945            2 
   15000     1.257469   -5.4964284     1.852912  0.010293955  0.050765249            2 
   16000    1.2608413   -5.5153708    2.4897589  0.012967494  0.051197173            3 
   17000    1.2567498   -5.5105026    3.0999915  0.015196036  0.051424861            3 
   18000    1.2714135   -5.4948423    3.6963124  0.017112557  0.051477959            2 
   19000    1.2509778   -5.5323475    4.3478151  0.019069364  0.051504708            2 
   20000    1.2303414   -5.5265596    5.0714537  0.021131057  0.051943347            3 
   21000    1.2210214   -5.5178442     5.695647  0.022601773  0.052544258            2 
   22000    1.2648104    -5.513758    6.2429078  0.023647378   0.05273077            2 
   23000    1.2383196   -5.5001277     6.913412  0.025048594  0.052583304            1 
   24000    1.2512885   -5.4922653    7.5554411   0.02623417  0.052471777            2 
   25000    1.2651639    -5.549693     8.126213  0.027087376  0.052471053            3 
   26000    1.2441612   -5.4995231     8.865652  0.028415551  0.052470016            3 
   27000    1.2344691   -5.5446949    9.3277744  0.028789427  0.052466087            2 
   28000    1.2185411   -5.4912394    10.029075  0.029848436  0.052348326            7 
   29000    1.2476247   -5.5355227    10.664799  0.030645973  0.052382358            4 
   30000    1.2571416   -5.4758232    11.296484  0.031379122  0.052396061            4 
   31000    1.2319049   -5.4509321    12.032441  0.032345271  0.052425191            4 
   32000    1.2251179   -5.5415481     12.67504  0.033007915  0.052508132            5 
   33000    1.2787357   -5.5082894    13.447883  0.033959299  0.052677278            3 
   34000    1.2469447   -5.4918415    14.174928  0.034742469  0.052955615            2 
   35000    1.2662535   -5.4809533    14.844006  0.035342871  0.053229035            3 
   36000    1.2482173   -5.4944209    15.466177  0.035801336  0.053394245            2 
   37000    1.2738614   -5.4966248    16.191046  0.036466319  0.053553707            2 
   38000     1.247377   -5.5657718    16.793179  0.036827147  0.053715945            2 
   39000    1.2415669   -5.5049432    17.546709  0.037492968  0.053866334            5 
   40000    1.2745926   -5.4941259    18.156795  0.037826656  0.053977309            1 
   41000    1.2338962   -5.5319365    18.872836  0.038359422  0.054102618            1 
   42000    1.2476746    -5.539462     19.34586  0.038384642  0.054164444            1 
   43000    1.2413367   -5.5253116    19.886572  0.038539869  0.054137738            2 
   44000    1.2460959   -5.5391463    20.485879  0.038799013  0.054094569            2 
   45000    1.2377848   -5.5064779    21.053269  0.038987535  0.054016406            3 
   46000    1.2630151   -5.4844553    21.898178  0.039670613  0.053968093            1 
   47000    1.2542302   -5.5437094    22.417139  0.039746701   0.05395509            4 
   48000     1.236489   -5.5480221    23.098394  0.040101378  0.053920292            2 
   49000    1.2476233   -5.5036067     23.74814  0.040387993  0.053892441            3 
   50000    1.2659424   -5.5259369    24.275004   0.04045834  0.053860422            3 
   51000    1.2357205   -5.5258692    25.032966  0.040903539  0.053828864            1 
   52000    1.2332038   -5.5247394    25.613187  0.041046774   0.05380257            2 
   53000    1.2217354   -5.5832342    25.905427  0.040731804  0.053744574            2 
   54000    1.2574106   -5.4988049    26.810185  0.041373742   0.05366724            1 
   55000    1.2437358     -5.50693      27.5258  0.041705757  0.053621117            1 
   56000     1.255125   -5.5263518    28.051032  0.041742607  0.053565373            5 
   57000     1.238584    -5.535676    28.521633  0.041698293  0.053507125            5 
   58000    1.2501632   -5.5383709    29.137209  0.041863805  0.053452257            3 
   59000    1.2446554   -5.5059305    29.833231  0.042137332  0.053394298            3 
   60000    1.2672429   -5.4921052    30.420361  0.042250501  0.053328074            2 
   61000    1.2625781   -5.5612397    30.951539  0.042283523  0.053286022            4 
   62000     1.245133   -5.4962664    31.786422  0.042723686  0.053254832            5 
   63000    1.2356635   -5.5042572    32.404388  0.042862947  0.053221666            2 
   64000    1.2426948   -5.4708119     33.16741  0.043186732  0.053189632            2 
   65000    1.2257261   -5.5017723    33.697878  0.043202407  0.053173361            1 
   66000    1.2645337   -5.5143846    34.201029  0.043183117  0.053147565            3 
   67000    1.2138132   -5.5640317    34.617882  0.043057066  0.053101126            3 
   68000    1.2391278   -5.5283406    35.266781  0.043219094  0.053032448            1 
   69000    1.2373423   -5.5164667     36.06347  0.043554915  0.052987462            4 
   70000     1.241864   -5.4977563    36.686487   0.04367439  0.052955726            2 
   71000     1.233688   -5.5484417     37.37695  0.043869659  0.052922307            1 
   72000    1.2494889   -5.5323576     38.02823  0.044014155  0.052904484            3 
   73000     1.244912   -5.4735768    38.729298  0.044211527  0.052894509            2 
   74000    1.2399011   -5.4964822    39.346318  0.044308917  0.052887955            3 
   75000    1.2438592    -5.543179    39.679932  0.044088813  0.052867143            3 
   76000    1.2478425   -5.5645285    40.233288  0.044115447  0.052824885            1 
   77000    1.2363449   -5.5646233    41.017583  0.044391324  0.052800163            1 
   78000    1.2158587   -5.5521546    41.820835  0.044680379  0.052788577            3 
   79000    1.2198793   -5.5566931    42.271011  0.044589674   0.05278545            3 
   80000    1.2776807    -5.524674    43.207722  0.045008043  0.052790884            1 
   81000    1.2480097   -5.5259028    43.814931   0.04507709   0.05280106            1 
   82000    1.2108416   -5.4871233    44.724916  0.045452151  0.052812901            4 
   83000    1.2234237   -5.5737546    45.179702  0.045361147  0.052839143            1 
   84000     1.202475   -5.4929165    45.897358  0.045533093  0.052864277            6 
   85000    1.2522804     -5.55541     46.52219   0.04560999  0.052883372            2 
   86000    1.1924053   -5.4695326    47.221367  0.045757138  0.052894259            2 
   87000    1.2441906   -5.5518715    48.072813  0.046046756  0.052920601            1 
   88000    1.2410109   -5.5325705    48.605299  0.046027745  0.052954937            3 
   89000    1.2383287    -5.527514    49.245428  0.046109951  0.052985655            2 
   90000    1.2378999   -5.5606634    49.720237  0.046037256  0.053006842            1 
   91000    1.2595881   -5.5198255    50.434886  0.046185793  0.053016187            8 
   92000    1.2620613    -5.509374    51.089363  0.046276597  0.053035352            2 
   93000    1.2253478   -5.5504177    51.465012  0.046115602  0.053046452            4 
   94000    1.2564976    -5.512567    52.298822  0.046364204  0.053040473            2 
   95000    1.2543143   -5.5330933    52.692614  0.046221591  0.053026416            2 
   96000    1.2392796   -5.5145004    53.088147  0.046083461  0.053007083            4 
   97000    1.2368415   -5.5314937    53.815691  0.046233412  0.052992106            2 
   98000    1.2299014   -5.5499921    54.227077   0.04611146  0.052965889            3 
   99000    1.2279947   -5.5410037    54.986395  0.046284844  0.052945178            2 
  100000    1.2524632   -5.5662671    55.466733  0.046222277  0.052914916            3 
  101000     1.234747   -5.5212538    56.351436  0.046494584  0.052893064            1 
  102000    1.2269619     -5.51402    57.024639  0.046588757  0.052874446            3 
  103000    1.2304562   -5.5178641    57.588851  0.046592921   0.05285979            3 
  104000    1.2449965   -5.5772738    57.925318  0.046414517   0.05284554            3 
  105000    1.2476035   -5.4686385    58.853995  0.046709519  0.052829423            3 
  106000     1.209969   -5.5429252    59.170289  0.046517522  0.052817854            3 
  107000    1.2369624   -5.5265529    59.975418  0.046709827  0.052802483            4 
  108000    1.2557505   -5.5238733    60.727121  0.046857346  0.052787314            2 
  109000    1.2403741   -5.5436439    61.218988  0.046803507  0.052769703            1 
  110000    1.2481798   -5.5197086    61.992098  0.046963711   0.05275741            4 
  111000    1.2757991   -5.5434114    62.742716  0.047104141  0.052742564            2 
  112000     1.246696   -5.5837668    63.222971  0.047040901  0.052731202            2 
  113000    1.2612601    -5.569431    63.567262  0.046878512  0.052719956            2 
  114000    1.2384332   -5.5271253    64.959066  0.047484697   0.05271894            3 
  115000     1.260006   -5.5430075    65.571091  0.047515283  0.052727305            2 
  116000    1.2237763   -5.5306611    66.211525   0.04756575  0.052737977            3 
  117000    1.2456964     -5.56898     66.26961  0.047200577  0.052740716            2 
  118000    1.2195972   -5.5359167    67.372315  0.047579319   0.05274257            2 
  119000    1.2366448   -5.5349021    68.017643  0.047631403  0.052753477            2 
  120000    1.2124599   -5.5749956     68.71375  0.047717882  0.052765506            2 
  121000    1.2239322   -5.5368075    69.485947  0.047855335  0.052782482            2 
  122000    1.2422947   -5.5531555    69.839272   0.04770442  0.052790582            2 
  123000    1.2162043   -5.5434338    70.566529  0.047809301  0.052797988            4 
  124000    1.2197595   -5.5590361    71.204622  0.047852568  0.052798999            4 
  125000    1.2210833    -5.568848     71.97596  0.047983973  0.052807051            4 
  126000     1.214752    -5.572414    72.629973  0.048035696  0.052820983            1 
  127000    1.2017977   -5.5306587    73.395368   0.04815969  0.052836507            3 
  128000    1.2381229   -5.5341154    73.760383  0.048021083  0.052851616            3 
  129000    1.2396301   -5.5472866    74.346714  0.048027593  0.052862305            4 
  130000    1.2213735    -5.508669    75.550497  0.048429806  0.052873463            5 
  131000    1.2423313   -5.5755748    75.665683  0.048133386  0.052879978            2 
  132000    1.2238853   -5.5510894    76.216206  0.048116291   0.05288294            2 
  133000    1.2396221   -5.5682961    76.842785  0.048147108  0.052886784            3 
  134000    1.2534205   -5.5631677    77.363435  0.048111589  0.052890952            3 
  135000    1.2240341   -5.5371492    77.878062  0.048072878  0.052886895            2 
  136000     1.251731   -5.5404917    78.450862  0.048070381  0.052880834            1 
  137000    1.2305834    -5.541535    79.145116  0.048141798  0.052871963            2 
  138000    1.2473613   -5.5362098    79.529454  0.048025033  0.052861523            3 
  139000     1.262955   -5.5413672    79.958009  0.047936456  0.052848582            2 
  140000     1.236383   -5.5574909    80.892161  0.048150095  0.052834634            2 
  141000     1.256075   -5.5762585    81.086217  0.047923296  0.052815645            5 
  142000    1.2210418   -5.5391323     82.07069   0.04816355  0.052797779            3 
  143000    1.2460952   -5.5428778    82.765425  0.048231599  0.052790292            2 
  144000    1.2397072   -5.5464917    83.190761  0.048142801  0.052773932            1 
  145000    1.2250974   -5.5812272    83.355073  0.047905214  0.052754454            2 
  146000    1.2381711   -5.5568156     84.37526  0.048159395  0.052737787            2 
  147000    1.2481558   -5.5592582    85.295301  0.048353345   0.05272869            5 
  148000    1.2481302   -5.5510281    85.543015  0.048166112  0.052716289            2 
  149000    1.2349237   -5.5509298    86.298373  0.048265309  0.052697445            3 
  150000    1.2209655   -5.5561575    87.101026  0.048389459  0.052682922            1 
  151000    1.2398592   -5.5401254     87.75063    0.0484275    0.0526695            2 
  152000    1.2287109   -5.5531311    88.243031  0.048378855  0.052659208            2 
  153000    1.2330195   -5.5944912    88.891988  0.048416115  0.052644677            2 
  154000    1.2146663   -5.5686774    89.295506  0.048320079  0.052630279            1 
  155000    1.2049512   -5.5455084    90.137658  0.048461106  0.052622755            3 
  156000    1.2175668     -5.58269    90.767451  0.048486886  0.052620747            2 
  157000    1.2261982   -5.5460074    91.482882  0.048557793  0.052617077            2 
  158000    1.2518382   -5.5944675    92.060236  0.048554977   0.05260819            3 
  159000    1.2362963   -5.5696807    92.325053  0.048388392  0.052595853            2 
  160000     1.214147   -5.5627157    93.070106  0.048474013  0.052581769            2 
  161000    1.2085496    -5.569764    93.413344  0.048350592   0.05256737            3 
  162000    1.2410132   -5.5526593    94.027628  0.048368121  0.052552179            4 
  163000    1.2160781   -5.5186936    95.054557  0.048596399  0.052538995            3 
  164000     1.252479   -5.5574335    95.324638  0.048437316  0.052525833            1 
  165000    1.2370854   -5.5246042    96.465153  0.048719774  0.052515423            2 
  166000    1.2248851   -5.5672007    96.860369  0.048624683  0.052504034            2 
  167000    1.2331337   -5.5583197    97.575724  0.048690481  0.052495067            4 
  168000    1.2269669   -5.5597527    98.237822  0.048729078  0.052490126            2 
  169000    1.2280603   -5.5465401    98.625105  0.048631708  0.052481614            2 
  170000    1.2485695   -5.5551976     99.06963  0.048563544  0.052465267            2 
  171000    1.1982058   -5.5519201    100.05321  0.048758875   0.05245331            3 
  172000    1.1931726   -5.5289478    100.55227  0.048717184   0.05244367            2 
  173000    1.2245147   -5.5381889    101.19957  0.048747383  0.052431041            1 
  174000    1.2103031     -5.58101    101.46122   0.04859254  0.052415654            3 
  175000    1.2358306   -5.5506481    101.69172  0.048424629  0.052398642            2 
  176000    1.2061973   -5.5715268    102.31515  0.048444674   0.05237992            2 
  177000    1.2439159   -5.5034207    102.84962   0.04842261  0.052357261            2 
  178000     1.232154   -5.5964396    102.95915  0.048201848  0.052328848            3 
  179000    1.2547145   -5.6096199    103.19422  0.048042002  0.052297753            5 
  180000    1.2368246    -5.571694    103.93956  0.048120165  0.052265837            3 
  181000    1.2363885    -5.523626    104.67018  0.048190689  0.052235482            6 
  182000    1.2190481   -5.5674983    105.70372  0.048399138  0.052208091            3 
  183000    1.2376879   -5.5607712    105.96789  0.048254959  0.052181547            2 
  184000    1.2191178   -5.5359972    106.51969  0.048242615  0.052154331            2 
  185000      1.23028   -5.5316596     107.1482  0.048264953  0.052122219            3 
  186000    1.2327215   -5.5559609    107.58641  0.048201797  0.052091996            3 
  187000    1.1986466   -5.5777281    107.94225  0.048102606  0.052061386            3 
  188000    1.2351687   -5.5882873    108.45416  0.048073653   0.05203055            2 
  189000    1.2101195   -5.5898767    109.39699  0.048235006  0.051999804            2 
  190000    1.1876803   -5.5719766    109.05716  0.047832087  0.051968876            5 
  191000    1.2342177    -5.560909    110.09539  0.048034639  0.051935575            4 
  192000    1.2396261   -5.5392157    110.93715  0.048149805   0.05190757            2 
  193000    1.2198202   -5.5680489    110.30088  0.047625597  0.051871143            2 
  194000    1.2457509   -5.6158671    110.89643  0.047635925  0.051832808            3 
  195000    1.2011623   -5.5940702    111.64886  0.047713189  0.051792045            2 
  196000     1.215349   -5.6079939    112.46971  0.047818755  0.051752539            3 
  197000    1.2040325   -5.5544499     112.9427    0.0477761  0.051714078            1 
  198000    1.2179111    -5.594469    113.36093  0.047710831  0.051676829            6 
  199000    1.2209819   -5.5579029    114.52823  0.047959895  0.051643701            4 
  200000    1.2157256   -5.5740992    114.73589  0.047806621  0.051611745            1 
  201000    1.2282404   -5.6183794    115.24574  0.047780158  0.051578705            3 
  202000    1.2364386   -5.5987474    115.94489  0.047832052  0.051544983            4 
  203000    1.2245903   -5.5338529    117.33945  0.048168903  0.051512194            2 
  204000    1.2075939   -5.5899796    117.56973   0.04802685  0.051481817            4 
  205000    1.2086489   -5.5570438     118.3883  0.048125325  0.051456314            2 
  206000    1.2218908   -5.5775182     119.1697  0.048207808  0.051436775            4 
  207000    1.2108404   -5.5560504    119.64794  0.048167447   0.05141373            2 
  208000    1.2379191   -5.5612315    119.93006  0.048048904  0.051387448            2 
  209000    1.2087917   -5.5242841    120.61457  0.048091932  0.051365029            2 
  210000    1.2315544   -5.5621099    121.43225  0.048187401  0.051340957            2 
  211000    1.2112298   -5.5560169    121.48954   0.04798165  0.051315198            2 
  212000    1.2137038     -5.54216    122.13445  0.048008825  0.051285913            4 
  213000    1.2428976    -5.565563    122.47548  0.047916856  0.051259018            3 
  214000    1.2394313   -5.5606476    122.50214  0.047703325  0.051231617            1 
  215000    1.2352059   -5.5490339    123.81383  0.047989855  0.051201039            2 
  216000    1.2159026   -5.5912714    124.17149  0.047905668  0.051170436            3 
  217000    1.1969496   -5.5876569    124.03458  0.047632326  0.051138097            4 
  218000    1.2211246   -5.5686936    124.94571  0.047762123  0.051104095            2 
  219000    1.2262318   -5.5544764    124.65941  0.047435088  0.051066533            2 
  220000    1.2027859   -5.5838184    125.50833  0.047541036  0.051027604            5 
  221000     1.210013   -5.5782211    125.52146  0.047330866  0.050987335            2 
  222000    1.2363429   -5.5933074    125.85574  0.047243147   0.05094623            4 
  223000    1.2031814    -5.570798    126.46342  0.047258378  0.050905104            4 
  224000     1.216987   -5.5762161    126.70891  0.047138729  0.050862384            1 
  225000     1.201188   -5.6119019    127.19125  0.047107869  0.050815845            2 
  226000     1.226284   -5.5778242     127.6077  0.047052987  0.050770063            4 
  227000    1.1889873   -5.5825334    128.06663   0.04701418  0.050722594            2 
  228000    1.2088447   -5.5908503    128.46931  0.046955158  0.050676096            6 
  229000    1.1939856   -5.6009946    129.21409  0.047021139  0.050629582            3 
  230000    1.2154992   -5.5600153    129.67287  0.046982924  0.050582989            2 
  231000    1.1824833   -5.5987803    130.47032  0.047067215  0.050537031            4 
  232000    1.2127783   -5.5956892    130.77808  0.046974885  0.050492395            2 
  233000      1.20045   -5.5758007    131.91936   0.04718146  0.050451278            3 
  234000     1.205878   -5.5871987    131.81032  0.046940996  0.050409235            2 
  235000    1.2237661   -5.5930008    132.42828  0.046960381   0.05036457            2 
  236000    1.2084952   -5.6152754    132.71604  0.046863009  0.050322505            3 
  237000    1.2166325    -5.589843    133.44343  0.046921036  0.050276063            2 
  238000    1.2429749   -5.5880625    134.05879  0.046939351  0.050234458            3 
  239000    1.1784608   -5.5662017    134.81755  0.047007515  0.050191894            2 
  240000    1.2001111   -5.5591099    135.50698  0.047051036  0.050151446            5 
  241000    1.1977309   -5.5571873    135.30703  0.046786662  0.050111432            3 
  242000    1.2150641   -5.5935527    135.57164  0.046684448  0.050067076            3 
  243000    1.2051646   -5.5624779    136.52015  0.046817609  0.050024156            3 
  244000    1.2322347   -5.5670591    136.00254  0.046448956  0.049977417            2 
  245000    1.2370776    -5.585317    137.37865  0.046727432  0.049932763            4 
  246000    1.1972111   -5.6034228    137.61068  0.046616082  0.049885891            2 
  247000    1.1938452   -5.6018247    138.18267  0.046620333  0.049842473            3 
  248000    1.2199586   -5.6374357    138.77009  0.046629736   0.04979993            3 
  249000    1.2187682   -5.5906214    139.36234  0.046640677   0.04975861            3 
  250000     1.210134   -5.5711166    140.39864  0.046799547  0.049719268            1 
  251000     1.209266   -5.5842687    141.46893  0.046968436  0.049681966            2 
  252000    1.2311751   -5.5818664    141.42681  0.046768126  0.049644902            2 
  253000    1.1996118    -5.636056    141.82198   0.04671343  0.049609086            4 
  254000     1.204628   -5.6186314    142.78244  0.046844632  0.049574908            2 
  255000    1.1928354   -5.6119694    142.81459  0.046671435  0.049540973            6 
  256000    1.2109395   -5.5584827    145.11995  0.047239568  0.049511735            3 
  257000    1.2087643   -5.6025702    144.24835  0.046773137  0.049483092            3 
  258000    1.2167619   -5.6074432    144.71062  0.046741156  0.049453018            1 
  259000    1.2300582    -5.589229    145.57664  0.046839331  0.049421953            2 
  260000    1.2043314   -5.5564456    146.68757  0.047015246   0.04939081            2 
  261000    1.1968808   -5.5534488    146.78257  0.046865444  0.049360375            4 
  262000    1.1970982   -5.6020353     146.7883   0.04668839  0.049331735            4 
  263000    1.2061106   -5.5539806    147.77894  0.046824759  0.049302324            2 
  264000    1.1997309   -5.6258082    147.73434  0.046633313  0.049270951            4 
  265000    1.2449819   -5.5664424    148.52509  0.046706003  0.049241349            1 
  266000     1.225837    -5.591824    149.29726  0.046772325  0.049212857            4 
  267000    1.2149505   -5.6215028    149.88805   0.04678154  0.049185791            1 
  268000    1.2235913   -5.6231874    149.99986  0.046641746  0.049158771            4 
  269000    1.1987757   -5.5924622    150.98334  0.046773031  0.049130509            3 
  270000    1.1951266   -5.5806597    152.46507  0.047057121  0.049105732            3 
  271000    1.2123623   -5.5787929    152.11058  0.046774471  0.049082079            4 
  272000    1.2072471   -5.6220517    153.12693  0.046913889  0.049057049            2 
  273000    1.1964688   -5.5982213    153.47241    0.0468475  0.049032893            1 
  274000    1.2066334   -5.5642757     154.2844  0.046923479  0.049010226            3 
  275000     1.202191   -5.5761539    154.90891  0.046942095  0.048987312            2 
  276000    1.1864192   -5.5743626    155.72696  0.047019009  0.048968185            2 
  277000    1.2001327   -5.6394426    156.22209  0.046998221  0.048948339            1 
  278000    1.2265243   -5.5827782    156.51356  0.046916536  0.048927339            2 
  279000    1.2054182   -5.5819893    157.05192  0.046909177  0.048907752            2 
  280000    1.2206388   -5.5996446    157.65162  0.046920125  0.048887023            2 
  281000    1.1842438   -5.6121595    158.23279  0.046925501  0.048866516            6 
  282000    1.2003057   -5.6423105    158.41121  0.046811823  0.048845024            6 
  283000    1.2032632   -5.6232859    159.35341  0.046923856  0.048825481            5 
  284000    1.2051944   -5.5472258    160.15149  0.046992808  0.048806116            3 
  285000    1.2109526    -5.538741    160.81941  0.047023219  0.048786923            2 
  286000    1.2026577   -5.5816532    160.51375  0.046769741  0.048767547            2 
  287000    1.2209815   -5.5968737    161.51935  0.046898765  0.048747807            2 
  288000    1.1848727   -5.5982059    161.55195  0.046745355     0.048726            3 
  289000    1.2261787   -5.6214244    162.02662  0.046720477  0.048703711            2 
  290000    1.2217621   -5.6383461    162.40671  0.046668594  0.048682022            3 
  291000    1.2181925   -5.6027194    163.18885  0.046732202  0.048660945            1 
  292000    1.2035169   -5.5523079    163.94749  0.046788667   0.04863725            3 
  293000    1.2121257   -5.6003077    164.66355  0.046832637  0.048618516            8 
  294000    1.1848486   -5.6211933    165.24863   0.04683918  0.048600455            3 
  295000    1.1762923   -5.5682094    165.82728  0.046843865   0.04858208            2 
  296000    1.2331726   -5.6161573    165.55564  0.046609134  0.048561842            2 
  297000    1.1930489   -5.5860502    167.84646  0.047094966  0.048543366            7 
  298000    1.1834848   -5.5886538    168.13864  0.047018636  0.048526929            1 
  299000    1.2235097   -5.5715662    168.24389  0.046890716  0.048511235            4 
  300000    1.2159481   -5.5973805    169.05017  0.046958379   0.04849352            3 
  301000     1.209138   -5.5499618    169.05593  0.046803967  0.048476678            3 
  302000    1.2404917   -5.5747008    169.75675  0.046842371  0.048459598            2 
  303000    1.1957263   -5.6321989    169.58209  0.046639739    0.0484405            4 
  304000    1.1895026   -5.5796657    169.87986  0.046567944  0.048420541            3 
  305000    1.2187495   -5.6149872    170.39983  0.046557331  0.048401035            3 
  306000    1.1944792   -5.5799477    172.00514  0.046842359  0.048380751            2 
  307000    1.1949276   -5.5836051    172.17256  0.046735223  0.048364181            1 
  308000    1.2177496   -5.5799688    172.75774  0.046741814  0.048346984            2 
  309000    1.1979763    -5.607539    173.28134  0.046731754  0.048327813            2 
  310000    1.2263157   -5.5942926    173.39672  0.046612023  0.048310616            2 
  311000    1.2170338   -5.6220557    173.90438  0.046598172  0.048293746            3 
  312000    1.1828785   -5.6209064    175.17099  0.046787124  0.048276789            2 
  313000    1.2213423    -5.577319    175.64095  0.046762766  0.048260049            2 
  314000    1.1998835   -5.5843395    175.95266  0.046696566  0.048243831            1 
  315000    1.2061631    -5.624855    175.60872  0.046457334   0.04822568            5 
  316000    1.2167949   -5.6162016    176.68498   0.04659414  0.048209285            5 
  317000    1.2149358   -5.6164443    176.98536  0.046526119  0.048193413            5 
  318000    1.2158342   -5.6344982    177.33479  0.046471381  0.048177182            2 
  319000    1.1860155   -5.6060216    178.88365  0.046730316  0.048159055            2 
  320000    1.2009952   -5.6094978     179.4965   0.04674388   0.04814121            3 
  321000    1.1952468   -5.6047513    179.51745  0.046603699  0.048124413            4 
  322000    1.2071582   -5.5711925    180.18433  0.046631555  0.048109425            1 
  323000     1.180875    -5.639836    180.27164  0.046509712  0.048094569            3 
  324000    1.2170906    -5.625649    181.70426  0.046734636  0.048081286            5 
  325000    1.2043578   -5.6603351    182.10877  0.046694557  0.048067697            6 
  326000    1.1833815   -5.6042296    182.82416  0.046734193  0.048054043            3 
  327000    1.2017895   -5.5904541    183.03072  0.046643915   0.04804019            2 
  328000     1.197725   -5.6072038    183.40076   0.04659572  0.048026838            6 
  329000    1.1812852   -5.5991899    184.28493  0.046678047   0.04801168            3 
  330000    1.2292112   -5.6108116    184.48123  0.046586169  0.047996394            4 
  331000    1.1952834   -5.5740558    186.40341  0.046929357  0.047983195            2 
  332000    1.2224425   -5.6376966      185.191  0.046483684  0.047969881            1 
  333000    1.1929563   -5.5710541    186.33572  0.046630559  0.047953441            2 
  334000     1.190456   -5.6310531    186.43747  0.046516335  0.047936691            4 
  335000    1.2110762   -5.5579234    187.42583  0.046623342  0.047920365            2 
  336000     1.211816   -5.6131186    186.85675   0.04634344  0.047904654            3 
  337000    1.2039781   -5.6473635    187.58768  0.046386667  0.047887316            5 
  338000    1.2109966   -5.5847653    188.22195  0.046405807  0.047869917            2 
  339000    1.2106475   -5.6262308    188.78704  0.046407828  0.047854099            6 
  340000    1.2043964    -5.644712    189.37689  0.046415905  0.047838511            4 
  341000    1.2025059   -5.6202482    190.33148  0.046513068  0.047822822            3 
  342000    1.2107769   -5.5749954    190.95124  0.046528079  0.047807102            4 
  343000    1.1827049   -5.6286192    191.17898  0.046447761  0.047792542            3 
  344000    1.2026917   -5.6074595    192.30954  0.046586612  0.047777271            5 
  345000    1.1635946    -5.606643    191.95793   0.04636665  0.047763057            2 
  346000    1.1917995   -5.6656167    192.99899  0.046483379  0.047746502            3 
  347000    1.1917942   -5.5853249    193.86163  0.046556588  0.047731969            3 
  348000    1.1799763   -5.6210377    194.30304  0.046528505  0.047719268            3 
  349000    1.1781189   -5.6035448     194.7728  0.046507355   0.04770474            2 
  350000    1.1895325   -5.6233182    194.29141  0.046259859  0.047690213            4 
  351000     1.190581   -5.6312106    194.79076  0.046246619  0.047676344            1 
  352000    1.1756522   -5.5941145    196.79691  0.046590178  0.047663326            1 
  353000    1.1838124   -5.6383607    196.93587  0.046490999  0.047649622            2 
  354000    1.1903424   -5.6153534    196.49397  0.046255644  0.047635357            3 
  355000    1.1713702    -5.573092    198.28602  0.046546015   0.04762142            3 
  356000    1.1949683   -5.6228565    198.39507  0.046440794  0.047608586            3 
  357000    1.2145854   -5.5973209    199.24267   0.04650856  0.047596781            3 
  358000    1.1967691   -5.6587526    199.84215  0.046518191  0.047585964            2 
  359000    1.1984165   -5.6414597    201.00195  0.046657834  0.047576702            2 
  360000    1.1862606   -5.6269076    201.41741    0.0466244  0.047566138            1 
  361000    1.2099104   -5.6461999    201.02787  0.046405324  0.047555645            2 
  362000     1.183232   -5.6180767     201.9737  0.046494867  0.047543236            4 
  363000    1.2210765   -5.6519475    202.20239   0.04641928  0.047533281            1 
  364000    1.1877551   -5.5877651    203.37717  0.046560706  0.047523559            1 
  365000    1.1875323   -5.6060826    204.87894  0.046776013  0.047514243            2 
  366000    1.1939739   -5.6318362    203.94562  0.046435705  0.047503665            4 
  367000    1.2011593    -5.570499    204.61566  0.046461321  0.047492748            5 
  368000    1.1783437   -5.6354264    205.56332  0.046549664  0.047481944            6 
  369000     1.195462   -5.5860939    206.45235  0.046624289  0.047471747            3 
  370000    1.2153821   -5.6366419    206.34253  0.046473542  0.047461605            2 
  371000    1.2033109   -5.6434328    205.98556  0.046268095  0.047451187            4 
  372000    1.1795077   -5.6401408    206.69469  0.046302575  0.047439622            2 
  373000    1.1619367   -5.6641287    207.79365  0.046423962  0.047428541            3 
  374000    1.2107743   -5.6674704     207.5576  0.046247237  0.047417174            1 
  375000    1.2136655   -5.6517726     208.4786  0.046328579  0.047407329            2 
  376000    1.2097538   -5.6805064    208.47931  0.046205521   0.04739682            6 
  377000    1.1960004   -5.6530734    209.73999  0.046361625  0.047386739            1 
  378000    1.2002353    -5.595349     211.4526  0.046616534  0.047377325            2 
  379000    1.2374168   -5.6349835    211.03178  0.046401007   0.04736821            5 
  380000    1.1737331   -5.6158762    212.03119  0.046498069  0.047358222            4 
  381000     1.177132   -5.6568804    212.31672  0.046438478  0.047349597            2 
  382000    1.1691947   -5.6100627    213.00262   0.04646654  0.047340165            3 
  383000      1.18679   -5.6131545    213.00662  0.046346087  0.047331475            2 
  384000    1.2004039   -5.6022551     214.8091  0.046616558  0.047323006            3 
  385000     1.205294   -5.5858344    216.24102  0.046805416  0.047316108            2 
  386000    1.1715374   -5.6414486    215.47905  0.046519656  0.047308948            2 
  387000    1.1832076   -5.6066662    216.15624  0.046545272  0.047299796            3 
  388000    1.1882672   -5.7072998     215.2817  0.046237478  0.047290972            3 
  389000    1.1917106   -5.6499136    216.55234  0.046390819  0.047281128            2 
  390000    1.1827616   -5.6726968    216.92106  0.046350653  0.047271297            3 
  391000    1.1521906   -5.6203828    218.22301  0.046509593  0.047263364            5 
  392000    1.1820944   -5.6093405    219.00126  0.046556391  0.047255921            3 
  393000    1.1858694   -5.6250223    219.78568  0.046604258  0.047248547            1 
  394000    1.1849594   -5.6465255    219.81621  0.046492429  0.047241521            3 
  395000    1.1966527   -5.6336375     220.3677  0.046491075   0.04723308            1 
  396000    1.1988941   -5.6321018    221.47886  0.046607503  0.047224862            1 
  397000    1.1970387   -5.6360908    220.29411  0.046241417  0.047218348            2 
  398000    1.1759792   -5.6397048      222.948  0.046680905  0.047209902            2 
  399000    1.1887366   -5.6254199      222.465  0.046463032  0.047202718            4 
  400000    1.1764169   -5.6267973    224.14969  0.046697853  0.047194592            2 
  401000    1.1862777   -5.6039625    223.26648  0.046397855  0.047186865            1 
  402000    1.1780489   -5.6609713    223.96151  0.046426515  0.047178699            2 
  403000    1.1889024    -5.673229    224.66119  0.046455995  0.047171628            2 
  404000    1.1613554   -5.6232458    225.32373  0.046477666  0.047164426            2 
  405000    1.1805437   -5.6303196    225.63885  0.046427747  0.047158469            3 
  406000    1.1808234   -5.6694062    225.94295  0.046375811  0.047151755            2 
  407000    1.1614006   -5.6266275     226.3323  0.046341585  0.047146086            3 
  408000     1.177488   -5.6622366    227.44546  0.046455364  0.047139427            2 
  409000    1.1848512   -5.6445494    227.99137  0.046453009  0.047133021            3 
  410000    1.1738451   -5.6225851    229.43785  0.046633708  0.047127055            2 
  411000    1.2126731    -5.646237    228.91367  0.046413963  0.047122241            3 
  412000    1.1847619   -5.6667703    230.01948  0.046524976  0.047116815            2 
  413000     1.172695   -5.6522063    231.54853   0.04672085  0.047113055            5 
  414000     1.163001   -5.6674336    231.45731  0.046589636  0.047109775            5 
  415000     1.189789   -5.6918412    232.12289  0.046611022  0.047106116            2 
  416000    1.1804982   -5.6714559    232.36476  0.046547428  0.047101847            3 
  417000    1.1805244   -5.5985645    233.85333   0.04673328  0.047097084            3 
  418000    1.2102203   -5.6162544    235.08027  0.046866082  0.047093589            2 
  419000    1.1947137   -5.6698565    233.62313  0.046464425  0.047089873            2 
  420000    1.1810479   -5.6423908    236.09051  0.046843356  0.047087681            3 
  421000    1.1749494   -5.6565995    235.35719  0.046586934  0.047084418            4 
  422000    1.1663197   -5.6934772    236.41751  0.046685923  0.047080924            3 
  423000    1.1651835   -5.7013233    236.09021  0.046511073  0.047077152            3 
  424000    1.2098448    -5.646436    237.59311  0.046696759  0.047074999            2 
  425000    1.1785433   -5.6552334    238.18916  0.046703757   0.04707386            2 
  426000     1.182211   -5.6424905    239.52264  0.046854976   0.04707307            1 
  427000    1.1809094   -5.6665443    239.04901  0.046652812  0.047072494            3 
  428000    1.1831435   -5.6843318    239.63245  0.046657409   0.04707103            2 
  429000    1.1832006   -5.6353624     240.4401  0.046705536  0.047068493            1 
  430000    1.1680073   -5.6254694    241.08426  0.046721757  0.047066544            1 
  431000    1.2131095    -5.652891    241.50031  0.046693795  0.047064121            5 
  432000    1.1718835   -5.6615175    242.11288  0.046703874  0.047062103            1 
  433000    1.1782222   -5.6404688    243.28889  0.046822342  0.047060208            4 
  434000    1.1712126   -5.6434381     244.5258  0.046951958  0.047060264            3 
  435000    1.1537467   -5.6561582    244.13264  0.046768706  0.047059436            2 
  436000    1.1743645   -5.6482483    245.72594  0.046965967  0.047058708            4 
  437000    1.1855762   -5.6726162    245.04055  0.046727794  0.047056215            2 
  438000    1.2215902   -5.6250827     245.6882  0.046744331  0.047054535            1 
  439000    1.1869261   -5.6844626    245.05228  0.046517137  0.047052959            1 
  440000     1.197151    -5.643411    246.66253  0.046716388  0.047050775            4 
  441000    1.1910049   -5.6537322    247.51215  0.046771004   0.04704881            4 
  442000    1.1982227   -5.6650143    247.20943  0.046608112   0.04704697            2 
  443000    1.1793509   -5.6998142    247.76768  0.046607916  0.047046461            2 
  444000    1.2002727   -5.6088686    249.80097  0.046884566  0.047046115            2 
  445000    1.1878097   -5.6195567    250.08809  0.046832976  0.047045307            3 
  446000    1.1587025   -5.6484138    250.35246  0.046777366  0.047044611            1 
  447000    1.2097477   -5.6405783    250.91981  0.046778488  0.047043106            2 
  448000    1.1863231   -5.6689546    251.86419  0.046849737  0.047041486            2 
  449000    1.1785435   -5.6711831    251.60646  0.046697561  0.047039932            4 
  450000    1.1825931   -5.6132207    252.95716  0.046843919  0.047038668            4 
  451000    1.1645605   -5.6736154    252.53393   0.04666185  0.047037118            1 
  452000    1.1738513   -5.6616624    252.54004  0.046559742  0.047034916            6 
  453000    1.2008893   -5.6471537    254.41458    0.0468018  0.047033452            2 
  454000    1.1963347   -5.6656338    255.61232  0.046918561  0.047033618            2 
  455000    1.1920887   -5.6445929    256.43579  0.046966261  0.047033509            3 
  456000    1.2013016   -5.6301182    257.28343  0.047018171  0.047034642            2 
  457000    1.1793669   -5.6633439    257.73287  0.046997241  0.047036526            3 
  458000    1.1855754   -5.6191466      258.329  0.047003094  0.047039819            1 
  459000    1.1584787   -5.6441976    258.73418  0.046974251  0.047042368            3 
  460000    1.1797329   -5.6946013    259.02426  0.046924684  0.047043609            1 
  461000    1.1749525   -5.6688345     259.8287  0.046968312  0.047045347            2 
  462000    1.1519686    -5.668741    260.71673  0.047026828  0.047047785            3 
  463000    1.1893162   -5.6116827    261.80636  0.047121376  0.047049816            2 
  464000    1.1743719   -5.6902158    261.23193  0.046916654  0.047053562            2 
  465000    1.1996149   -5.6194393    263.40036  0.047204365  0.047056132            4 
  466000    1.1812844   -5.6261318    262.80408  0.046996438  0.047059322            3 
  467000    1.1694094   -5.6885031    263.23976  0.046973547  0.047061264            5 
  468000     1.183719   -5.6725176    263.75406  0.046964754  0.047062844            3 
  469000     1.161017   -5.6605601    263.97037  0.046903051  0.047064398            5 
  470000    1.1845719    -5.609753    265.93643   0.04715185  0.047065581            2 
  471000    1.1747198   -5.6684483    264.40675  0.046781095  0.047065261            1 
  472000    1.1722328   -5.6345382    266.72108  0.047090586  0.047065823            5 
  473000    1.1819864   -5.6489637    266.31551  0.046919575  0.047066123            2 
  474000    1.1875707   -5.6557918    266.74283  0.046895716  0.047066502            2 
  475000    1.1799135   -5.6202792    268.17977  0.047049082  0.047066511            1 
  476000    1.1653327    -5.641497    267.91309  0.046903553  0.047066155            4 
  477000    1.1900656   -5.6789303    267.76579  0.046779488  0.047064698            2 
  478000    1.1877685   -5.6760817    268.41356  0.046794553  0.047062268            3 
  479000    1.1720502   -5.6997398      267.418  0.046523661  0.047060243            2 
  480000    1.1673843   -5.7239666    267.93188  0.046515952  0.047057699            2 
  481000     1.168088   -5.6434667    270.29959  0.046829451  0.047057056            2 
  482000      1.16527   -5.6543774    271.21129  0.046889919  0.047056933            3 
  483000    1.1744957   -5.6732564    271.38221  0.046822328  0.047054993            3 
  484000    1.1574647   -5.6701322     272.1751  0.046862104  0.047054114            4 
  485000    1.1764331   -5.6669338     271.9877  0.046733281  0.047053307            3 
  486000    1.1827013    -5.632228    273.30519   0.04686303  0.047052992            2 
  487000    1.1726719    -5.655041    272.70509  0.046664116  0.047051871            2 
  488000    1.1552198   -5.7083324    273.34254  0.046677346  0.047050605            2 
  489000    1.1626991   -5.6607721    274.39601   0.04676142  0.047050099            3 
  490000    1.1442824   -5.6502224    274.72975  0.046722747  0.047049759            2 
  491000    1.1914305     -5.69565    274.47659  0.046584621  0.047048422            2 
  492000     1.172098   -5.6769026    274.81127  0.046546624  0.047046415            3 
  493000    1.1772235   -5.6287986    277.74692  0.046948431  0.047045158            6 
  494000    1.1622883   -5.6382674    277.66674  0.046839868  0.047043904            2 
  495000    1.1463893   -5.6737106    277.51088  0.046719004  0.047043187            1 
  496000    1.1617792   -5.6719434     279.3045   0.04692616  0.047041275            3 
  497000    1.1844322   -5.6587652    278.78303  0.046744304  0.047038884            3 
  498000    1.1534473   -5.6777741    278.34642  0.046577379  0.047035603            2 
  499000    1.1614078   -5.6661126    279.46084  0.046670146  0.047033154            4 
  500000    1.1676663   -5.6311475    280.38038  0.046730063  0.047030744            2 
  501000    1.1674836   -5.6426581    281.17445   0.04676887  0.047028484            2 
  502000    1.1890495   -5.6687883    281.45249   0.04672186    0.0470263            2 
  503000    1.1772255   -5.7079527    280.81444  0.046523267  0.047023824            3 
  504000    1.1848137   -5.6531408     282.6689  0.046737583  0.047021762            4 
  505000    1.1850581   -5.6631939    282.20948  0.046569222  0.047019163            3 
  506000    1.1509522   -5.6275027    282.95836   0.04660052  0.047015703            2 
  507000    1.1866886   -5.6553969    283.66482  0.046624724  0.047011216            3 
  508000    1.1521258   -5.6753874    284.54259  0.046676935  0.047008205            3 
  509000    1.1616928    -5.682393    285.40751  0.046726835  0.047005447            2 
  510000    1.1824792   -5.7117463    285.88281  0.046712877  0.047003219            3 
  511000    1.1767852   -5.7221408    285.12478  0.046497845  0.046999435            2 
  512000    1.1685279   -5.6910522    285.87945  0.046529858  0.046995816            6 
  513000    1.1474598   -5.6750308    286.95355  0.046613637  0.046993379            2 
  514000    1.2002155   -5.6937667    287.66481  0.046638264  0.046990548            3 
  515000    1.1862327   -5.6617491    288.54799  0.046690613  0.046988828            1 
  516000    1.1706605   -5.6805981    288.61991  0.046611742  0.046986869            2 
  517000    1.1598843    -5.642671    290.17028  0.046771483  0.046984062            3 
  518000    1.1669088   -5.6575072     291.2187  0.046849854   0.04698279            2 
  519000    1.1643913   -5.6577075    291.31751  0.046775451  0.046981881            8 
  520000    1.1927469    -5.664424    292.26936  0.046838038  0.046979985            4 
  521000    1.1730277    -5.688583     290.9937  0.046544097  0.046978284            1 
  522000    1.1821877   -5.7027996    291.98296  0.046612861  0.046977089            3 
  523000    1.1416825   -5.6939686    291.89233  0.046509294  0.046974278            3 
  524000    1.1663602   -5.7260303    291.81328  0.046407964   0.04697104            3 
  525000    1.1556246   -5.6780419    293.21963  0.046542798  0.046968555            3 
  526000    1.1788898   -5.7095972    294.49414  0.046656232  0.046965241            2 
  527000    1.1595836   -5.7112028    294.34967  0.046544855  0.046961558            2 
  528000    1.1867862   -5.6604192    295.23078  0.046595766    0.0469587            4 
  529000    1.1735838   -5.6491681    295.63486   0.04657134  0.046956462            2 
  530000    1.1759944   -5.7113258    296.46413  0.046613856  0.046953505            5 
  531000    1.1854664    -5.673222     297.7675  0.046730619  0.046950632            1 
  532000    1.1818104    -5.619389    298.36554  0.046736457  0.046948755            2 
  533000    1.1886989   -5.6875062    297.64901  0.046536743  0.046945691            1 
  534000    1.1817235   -5.6767183    298.03125  0.046509247  0.046941569            4 
  535000    1.1820368   -5.6823351    299.16743  0.046599288  0.046937022            2 
  536000    1.2057872   -5.7191963    297.67721  0.046280661   0.04693224            3 
  537000    1.1710004    -5.709599    298.83273  0.046373795  0.046927417            3 
  538000    1.1734553   -5.6764639    299.62731  0.046410673  0.046922281            2 
  539000     1.167479   -5.6770566    300.02022  0.046385316  0.046917214            2 
  540000    1.1513612   -5.6796292    300.51274  0.046375422  0.046911894            2 
  541000    1.1846936   -5.7157517    300.27569  0.046253186  0.046906908            2 
  542000    1.1900792   -5.6718101    302.18152  0.046460874  0.046901771            2 
  543000    1.1707805   -5.6954197     301.5832  0.046283487  0.046896501            3 
  544000    1.1701927    -5.628491    303.85556  0.046546501  0.046891949            2 
  545000    1.1876651   -5.6647518    303.07224  0.046341321  0.046887016            3 
  546000    1.1612657    -5.732986    302.54343  0.046175737  0.046881473            3 
  547000    1.1655217   -5.6551498     303.9211  0.046301204  0.046875784            3 
  548000     1.170152   -5.6935923    303.45721  0.046146169  0.046869182            2 
  549000    1.1524335   -5.6861035    305.69186  0.046401314  0.046863336            5 
  550000    1.1618206   -5.6941936    305.60645  0.046304007  0.046857415            3 
  551000    1.1694939   -5.7034387    304.95786  0.046121879  0.046851904            3 
  552000    1.1856795   -5.6883124    305.96279  0.046190035   0.04684644            4 
  553000    1.1467383   -5.6842808    307.46858   0.04633342  0.046840503            2 
  554000    1.1692322   -5.6979243    307.54224  0.046260866  0.046834664            3 
  555000    1.1637051    -5.698791    307.95347  0.046239259   0.04682849            2 
  556000    1.1578874   -5.7162114    306.43489  0.045928491  0.046821866            3 
  557000    1.1610336   -5.6556942    308.81403   0.04620198  0.046815473            4 
  558000    1.1455045   -5.6643916     308.3561  0.046050792  0.046808401            4 
  559000    1.1265341   -5.7331007    308.52457  0.045993525  0.046801692            3 
  560000    1.1663821   -5.7132411    309.64211  0.046077695  0.046794734            4 
  561000     1.138406   -5.6868517     310.0487  0.046055956  0.046787069            2 
  562000     1.179972   -5.6624239    310.17937  0.045993382  0.046778895            2 
  563000    1.1687619   -5.6653664     311.6242  0.046125548  0.046771514            6 
  564000    1.1603459   -5.7177397    310.71648  0.045909646   0.04676499            2 
  565000    1.1744358   -5.6734068    312.48348  0.046089008  0.046756683            5 
  566000    1.1559613   -5.6965481    312.08629  0.045949101  0.046748273            2 
  567000    1.1671834   -5.6489994    313.85382   0.04612784   0.04674017            2 
  568000    1.1408701    -5.705487    313.79095  0.046037404   0.04673266            3 
  569000    1.1524761    -5.709612    313.30619  0.045885499    0.0467239            4 
  570000    1.1606791   -5.6908234    314.08161  0.045918364  0.046715872            3 
  571000    1.1654189     -5.73195    314.53441  0.045904029  0.046707083            1 
  572000    1.1192057   -5.7117276    315.92307  0.046026088  0.046698623            2 
  573000    1.1518431   -5.6644232    315.46637  0.045879343  0.046690402            3 
  574000    1.1816123    -5.639706    317.78791  0.046136456  0.046683068            3 
  575000    1.1488407   -5.6709929    317.30008  0.045985519   0.04667606            2 
  576000    1.1681455   -5.6745684    318.50214  0.046079592  0.046668953            3 
  577000    1.1505645   -5.6889874    316.92626  0.045772134  0.046661991            5 
  578000    1.1285048    -5.691287    317.08011  0.045715126  0.046653334            3 
  579000    1.1442847   -5.7035646    318.98719  0.045910649  0.046645198            4 
  580000    1.1534401   -5.6991149    319.01837  0.045835972   0.04663693            2 
  581000    1.1629933   -5.7324013    319.78775  0.045867433  0.046629397            4 
  582000    1.1575284    -5.725993    318.34652  0.045582262   0.04662137            2 
  583000    1.1529337   -5.6996478    320.63573  0.045831293  0.046613211            2 
  584000    1.1361618   -5.6629541    321.63532  0.045895451  0.046606216            3 
  585000    1.1594472   -5.7067337      321.699  0.045826068  0.046598743            1 
  586000    1.1767372   -5.7277645    321.09174   0.04566151  0.046590313            4 
  587000    1.1759438   -5.6912599    321.32946   0.04561747  0.046581219            4 
  588000    1.1512334   -5.7039634    322.59494  0.045719237   0.04657203            3 
  589000    1.1455271   -5.7267932    322.82158  0.045673681  0.046562904            2 
  590000    1.1526537   -5.6691239    324.27837   0.04580203  0.046554428            1 
  591000    1.1500133   -5.7126229    323.83154  0.045661526  0.046545439            4 
  592000    1.1515263   -5.7111838    324.91454  0.045736844  0.046536241            5 
  593000    1.1622502   -5.6966629    324.70178  0.045629817  0.046528213            4 
  594000    1.1370665   -5.7044508    326.15464  0.045756824  0.046519814            2 
  595000    1.1472086   -5.6820098    327.00352  0.045798812  0.046511918            2 
  596000    1.1598452    -5.675077    328.36726  0.045912649  0.046504655            1 
  597000    1.1306507   -5.7376159    329.13682  0.045943163  0.046497471            2 
  598000    1.1542115   -5.7129828    327.94015  0.045699575  0.046489871            4 
  599000    1.1697826   -5.6909242     330.0595  0.045918127  0.046482564            3 
  600000    1.1457501   -5.6951102    331.00722  0.045973225  0.046475548            2 
  601000    1.1501933   -5.6799276    329.86902   0.04573891   0.04646791            2 
  602000    1.1842149   -5.6995094    329.42242   0.04560111  0.046459529            2 
  603000    1.1643837   -5.6598724    331.54953  0.045819449  0.046451896            3 
  604000    1.1643458   -5.7234732    331.13927  0.045686986  0.046443797            3 
  605000    1.1857852   -5.7147352    331.53214  0.045665584  0.046435627            4 
  606000    1.1584411   -5.7158387    332.20877  0.045683275  0.046428571            3 
  607000    1.1443253   -5.7147137    332.79987  0.045689164  0.046420158            2 
  608000    1.1291387   -5.7274898    332.23699  0.045536868  0.046411037            2 
  609000    1.1309741   -5.7125123    332.28294  0.045468382  0.046401062            4 
  610000    1.1751266   -5.7140477    333.90155  0.045614966  0.046391649            3 
  611000     1.136123   -5.7155937    333.59288  0.045498211  0.046381987            2 
  612000    1.1640954   -5.7272061    335.42283  0.045673044  0.046372975            6 
  613000    1.1529267   -5.7041429    334.89008  0.045526112  0.046363193            3 
  614000    1.1543979   -5.7163985    333.44689  0.045256093  0.046353229            2 
  615000    1.1585927   -5.7046273    336.18767  0.045553885  0.046344094            3 
  616000    1.1481817   -5.6958389    336.66223  0.045544133  0.046334507            3 
  617000    1.1509707   -5.7195862    335.51105  0.045314836  0.046324596            2 
  618000    1.1414204   -5.7380074    336.00847  0.045308585  0.046314117            1 
  619000    1.1514834   -5.7217585    335.71983   0.04519653  0.046303352            3 
  620000    1.1488809   -5.6818654     338.6579  0.045518535  0.046292655            2 
  621000    1.1665422   -5.6909707    338.57201   0.04543371  0.046282088            2 
  622000    1.1534734   -5.7186295    336.93295   0.04514107  0.046271346            4 
  623000    1.1674676   -5.7327011    337.51027  0.045145836  0.046260398            3 
  624000    1.1533636   -5.7236139    338.99642  0.045271957  0.046249019            5 
  625000     1.152037   -5.7094132    340.27662  0.045370216  0.046238139            3 
  626000    1.1324883   -5.6930903     340.4232  0.045317253  0.046227521            2 
  627000    1.1695076   -5.7455582    340.59693  0.045268066  0.046216913            5 
  628000    1.1283259    -5.687067    341.32155  0.045292138  0.046206333            1 
  629000    1.1503772     -5.72802    341.87616  0.045293609  0.046195817            2 
  630000    1.1419493   -5.6583914     343.3744  0.045419894  0.046186216            2 
  631000    1.1461391   -5.6845005    342.96656  0.045294051  0.046176253            3 
  632000    1.1565403   -5.7094214    343.49899  0.045292588   0.04616576            3 
  633000    1.1737717   -5.7015824    343.31685  0.045197058  0.046155338            2 
  634000    1.1844278   -5.7367331    343.71414  0.045177989  0.046145196            3 
  635000    1.1322321   -5.7019011    344.98676  0.045273853  0.046134633            2 
  636000    1.1411748   -5.6859706    345.54473  0.045275777  0.046124083            1 
  637000    1.1544057   -5.7069485      346.802  0.045369179  0.046113772            5 
  638000    1.1515187   -5.7209709     345.9594   0.04518801  0.046104127            4 
  639000    1.1529016   -5.7307068    346.85362   0.04523391  0.046094014            6 
  640000    1.1468961    -5.712709    348.82296  0.045419656  0.046084179            3 
  641000    1.1442023   -5.7076482    348.42334  0.045296847  0.046074074            2 
  642000    1.1423169   -5.7254804    347.44342  0.045099094   0.04606386            5 
  643000    1.1744614   -5.7205688    348.97999  0.045228096  0.046053439            2 
  644000    1.1481796   -5.7021655     349.3873  0.045210572  0.046043545            2 
  645000     1.165203   -5.7212693    350.59876  0.045296997  0.046033679            5 
  646000    1.1499711   -5.7324446    349.73936  0.045116016   0.04602315            3 
  647000    1.1515983   -5.7416907    349.50154  0.045015654  0.046012337            4 
  648000    1.1264189   -5.7212449    349.89857  0.044997244   0.04600166            2 
  649000    1.1507994   -5.6798028    352.38527   0.04524721  0.045990563            2 
  650000    1.1508972   -5.6978123    352.62403  0.045208209  0.045981236            2 
  651000     1.163015   -5.6949404    352.68694  0.045146817  0.045971395            3 
  652000    1.1770981   -5.7622544    352.59724   0.04506611  0.045961822            1 
  653000    1.1584468   -5.7297712    354.34533   0.04522018  0.045952063            8 
  654000    1.1423783   -5.6789162    355.09214  0.045246196  0.045942129            1 
  655000    1.1520517   -5.7862091     353.4762  0.044971527  0.045932365            3 
  656000    1.1700022   -5.7698501    355.39677  0.045146947  0.045922784            3 
  657000    1.1620631   -5.7197223    354.91815  0.045017523  0.045913215            3 
  658000    1.1491683   -5.7420803    355.80819  0.045061827  0.045903605            2 
  659000    1.1574817   -5.6959355    358.10739  0.045284192   0.04589391            2 
  660000    1.1529736   -5.7036301    358.38637  0.045250804  0.045884931            2 
  661000    1.1495167   -5.7058119    359.32761   0.04530101  0.045875857            2 
  662000    1.1542036   -5.7236167    360.18981  0.045341114  0.045867888            4 
  663000      1.15694   -5.7537646    359.42921  0.045177126  0.045859501            4 
  664000    1.1374731   -5.6997052    360.21968  0.045208293   0.04585133            3 
  665000    1.1595334   -5.7339498    361.08144    0.0452483  0.045843074            2 
  666000    1.1252899   -5.7238707    361.82277  0.045273119  0.045835169            5 
  667000    1.1479847   -5.7260397    362.10972  0.045241095  0.045827568            5 
  668000    1.1470761   -5.7254273     362.2892  0.045195758  0.045820219            6 
  669000    1.1759561   -5.7397848    361.99044  0.045090987   0.04581293            4 
  670000    1.1368606   -5.7657192     361.9628  0.045020249  0.045804949            2 
  671000    1.1527517   -5.7630939     364.7069  0.045293951  0.045796991            2 
  672000    1.1307592   -5.7489967    363.48734  0.045075315  0.045788969            2 
  673000     1.135742   -5.7538955    364.01192  0.045073294   0.04578079            1 
  674000    1.1543274   -5.7008523    366.02056  0.045254767  0.045772584            1 
  675000    1.1548004   -5.7763594    363.68868  0.044899838  0.045765108            3 
  676000    1.1415748   -5.7390577    367.55057  0.045309488  0.045756798            3 
  677000     1.115349   -5.7147949    366.26888  0.045084795  0.045748694            2 
  678000    1.1475925   -5.7442354    365.56412  0.044931677  0.045740142            3 
  679000     1.127979   -5.7254442    366.92552  0.045032587  0.045731467            3 
  680000    1.1752917   -5.7043812    367.94115  0.045090827  0.045722212            2 
  681000    1.1627939   -5.7190584    368.34672  0.045074243  0.045713959            3 
  682000    1.1242461   -5.7355874     369.8594  0.045192986  0.045705216            3 
  683000    1.1519872   -5.7363676    369.45228  0.045077145  0.045697201            1 
  684000    1.1458011    -5.737751    369.11711  0.044970408  0.045688691            3 
  685000    1.1271668   -5.7278916    370.16224  0.045031903  0.045680219            7 
  686000    1.1544534   -5.7372173    370.85613   0.04505055  0.045671555            2 
  687000     1.132518   -5.7271421    371.28874   0.04503745   0.04566321            4 
  688000    1.1093017   -5.7279514    371.96533   0.04505394  0.045654651            3 
  689000    1.1528133     -5.73737    371.27956  0.044905607  0.045645639            1 
  690000    1.1511223   -5.7185789    373.13332   0.04506441  0.045637514            3 
  691000     1.142813   -5.7259536    372.31318  0.044900287  0.045629191            2 
  692000    1.1564916   -5.7243433    374.16433  0.045058325  0.045620731            6 
  693000    1.1469582   -5.7051826    373.64067  0.044930335  0.045612454            2 
  694000    1.1522176   -5.7529212    374.14387  0.044926017  0.045603597            4 
  695000    1.1106738   -5.6963061    374.99536  0.044963472  0.045595297            2 
  696000    1.1515684     -5.74223    373.67777  0.044741112  0.045586831            3 
  697000    1.0980623   -5.7277411    375.55791  0.044901711   0.04557817            2 
  698000    1.1448445   -5.7255296    376.40169  0.044938119    0.0455696            3 
  699000    1.1189098   -5.7653836    377.38724  0.044991326   0.04556165            2 
  700000    1.1459435   -5.7024472    379.21356  0.045144471  0.045553979            2 
  701000    1.1675578   -5.7277795     378.9306  0.045046433  0.045546671            3 
  702000    1.1292867   -5.7403478    379.94998  0.045103274  0.045539475            3 
  703000    1.1335594   -5.7610549    379.70824   0.04501046  0.045531834            6 
  704000    1.1229952   -5.7548896    380.05608  0.044987699  0.045524081            3 
  705000    1.1366385   -5.7645007    381.57536   0.04510347  0.045516682            3 
  706000    1.1589598   -5.6991312     381.5397  0.045035376   0.04550991            3 
  707000    1.1240349   -5.7372763     382.2339    0.0450535  0.045502881            2 
  708000    1.1415294   -5.7859074    380.36764  0.044770203  0.045495517            3 
  709000    1.1357181   -5.7039362     383.8695  0.045118652  0.045488367            2 
  710000    1.1059963   -5.7712486    382.83994  0.044934265  0.045481362            3 
  711000    1.0961926   -5.8076525    384.23909  0.045035055  0.045473765            3 
  712000    1.1491658    -5.750908    385.10509  0.045073161  0.045467009            3 
  713000    1.1421651    -5.746771    386.10771  0.045127129  0.045460058            7 
  714000    1.1491916    -5.741104    386.32977  0.045089843  0.045453274            2 
  715000    1.1478932   -5.7596409     384.9484  0.044865781  0.045445731            4 
  716000    1.1192071   -5.7878978    386.88265  0.045028241  0.045437795            3 
  717000    1.1462864   -5.7323188    387.05648  0.044985644  0.045430685            2 
  718000     1.123687   -5.7670568    387.74958  0.045003434  0.045423705            5 
  719000    1.1313166   -5.7062194    388.46572  0.045023844  0.045417237            3 
  720000    1.1488151   -5.7366769    390.08765  0.045149034   0.04541129            2 
  721000    1.1396707   -5.7734335    390.01242  0.045077718  0.045404651            5 
  722000    1.1172201   -5.7268099    389.03081  0.044901986  0.045397782            3 
  723000    1.1198238   -5.7121216     391.4726  0.045121323  0.045391349            3 
  724000    1.1223916   -5.7681362    388.84386   0.04475643  0.045383993            1 
  725000    1.1294503   -5.7351453    390.09144  0.044838096  0.045377323            4 
  726000    1.1478581   -5.7395717    392.00895  0.044996436  0.045369887            3 
  727000    1.1358424   -5.7500017    392.08683   0.04494347  0.045362952            3 
  728000    1.1598267   -5.7864097    390.55691  0.044706606  0.045355472            2 
  729000    1.1410109   -5.7261325    393.68228  0.045002547  0.045347652            3 
  730000    1.1249159   -5.7455157    392.47076  0.044802598  0.045340529            1 
  731000    1.0961882   -5.7820171    391.66879  0.044649885  0.045332532            3 
  732000      1.16092   -5.7544723    393.29245  0.044773731  0.045324322            2 
  733000    1.1369102   -5.6975118    394.96855    0.0449032  0.045317108            3 
  734000    1.1391623   -5.7802275    394.71632  0.044813388  0.045310033            4 
  735000    1.1109145   -5.7421948    395.22805  0.044810436  0.045301787            3 
  736000    1.1438737   -5.7869274    393.47112  0.044550625  0.045293226            2 
  737000    1.1331295   -5.7407767    397.22564  0.044914704  0.045285434            5 
  738000    1.1282524   -5.7610002     395.9081   0.04470507  0.045277774            2 
  739000    1.1426248   -5.7728441    396.92543  0.044759296   0.04526935            3 
  740000    1.1188738   -5.7800564    398.44101  0.044869483  0.045261026            2 
  741000    1.1301868   -5.7576868    396.44869  0.044584873  0.045252067            4 
  742000     1.133948   -5.8033272    397.54989  0.044648461  0.045243496            3 
  743000    1.1303565   -5.7639751    399.02153  0.044753425  0.045234766            4 
  744000    1.1179558   -5.7920846     397.9202  0.044569915  0.045226905            3 
  745000     1.128885   -5.7559912    398.74694  0.044602566  0.045218387            4 
  746000    1.1468799   -5.7219948    400.67412  0.044758057  0.045210032            6 
  747000     1.146075   -5.7403501    399.29836  0.044544663  0.045202127            2 
  748000     1.124131   -5.7550616    401.54542  0.044735453  0.045194221            1 
  749000    1.1380598    -5.762659    401.56204  0.044677575  0.045186598            5 
  750000    1.1407951    -5.725575    402.80244  0.044755827  0.045179334            4 
  751000    1.1324898   -5.7109592    402.82689  0.044698944  0.045171165            6 
  752000    1.1389531   -5.7523346    403.38829  0.044701716  0.045163318            2 
  753000    1.1383631   -5.7797513    403.37353  0.044640719   0.04515592            2 
  754000    1.1262011     -5.76784     403.1598  0.044557891  0.045147204            4 
  755000    1.1297572   -5.7298778    403.68978   0.04455737  0.045138185            2 
  756000    1.1426415   -5.7934741    401.92875  0.044304316  0.045129145            6 
  757000    1.1372372   -5.7601168    403.84737  0.044456998  0.045119901            5 
  758000    1.1190492   -5.7429452    405.16343  0.044543034  0.045110569            3 
  759000    1.1131772   -5.7801824     404.3536  0.044395432  0.045100686            5 
  760000    1.1235602   -5.7812377    404.21658  0.044321993  0.045091094            6 
  761000    1.1125426   -5.7644402    405.89878  0.044447961  0.045081753            2 
  762000    1.1437501    -5.787093      405.287  0.044322725  0.045072878            2 
  763000    1.1252888   -5.7912008    405.90071  0.044331664  0.045063808            2 
  764000    1.1255681   -5.7672798    405.92696  0.044276501  0.045054111            4 
  765000    1.1134877   -5.7693948    406.44002  0.044274512  0.045043823            3 
  766000    1.1414814   -5.7740468    407.09567   0.04428804  0.045033435            2 
  767000    1.1258795   -5.7573661    407.20288  0.044241947  0.045023319            2 
  768000    1.1551601    -5.735025    409.04343  0.044384052  0.045013437            4 
  769000    1.1190436   -5.7634713    407.44644  0.044153277  0.045003131            3 
  770000    1.1151069   -5.7954451    408.29755  0.044188047  0.044992802            3 
  771000    1.1292359   -5.7403831    408.70164   0.04417441  0.044983179            3 
  772000    1.1157828    -5.794824    410.57407  0.044319308  0.044973781            3 
  773000    1.1110051   -5.7874855    409.63998  0.044161274  0.044963687            2 
  774000    1.1353499   -5.7627435    410.40348  0.044186421  0.044953996            6 
  775000    1.1398616   -5.7568638    411.86146  0.044286179  0.044944429            3 
  776000    1.1450062   -5.7653283    411.97477  0.044241277  0.044934532            2 
  777000    1.1386038   -5.7926657    410.81262  0.044059697  0.044925006            3 
  778000    1.1327555   -5.7740071    412.57449  0.044191783   0.04491496            4 
  779000    1.1046169   -5.7827741    411.28669  0.043997293  0.044905024            3 
  780000    1.1538248   -5.8145636    410.88604  0.043898082  0.044894715            3 
  781000    1.1313066   -5.8064274    412.50638  0.044014766  0.044884097            4 
  782000    1.1462669   -5.7639235    414.28386  0.044147896  0.044873775            2 
  783000    1.1238638   -5.8123527    412.42986  0.043894195  0.044863971            3 
  784000    1.1333326   -5.7848366    413.30238   0.04393095  0.044853429            3 
  785000    1.1267325   -5.7378786    416.44309  0.044208396  0.044843507            2 
  786000    1.1121123   -5.8061836    415.48987  0.044051089  0.044833577            3 
  787000    1.1242201   -5.7635966    416.02398  0.044051671  0.044823334            4 
  788000    1.0973227   -5.7433553    418.55387  0.044263311  0.044813192            3 
  789000    1.0873629    -5.794457     415.6482  0.043900316  0.044802826            3 
  790000     1.106034   -5.8046971    417.42498  0.044032171  0.044792173            3 
  791000    1.0996928   -5.7822834    418.40052   0.04407928  0.044782036            5 
  792000    1.1424648   -5.7572926    418.79401  0.044065027  0.044772228            4 
  793000    1.1301997   -5.7982428    417.74149  0.043898854  0.044761438            2 
  794000    1.1421936   -5.7581189    418.86687  0.043961679  0.044750652            2 
  795000     1.139421   -5.7741341    419.71148  0.043994914   0.04474034            3 
  796000    1.1372019   -5.7877514     418.9731  0.043862343  0.044730014            6 
  797000    1.1090896   -5.7772705    420.38468  0.043954902  0.044719497            3 
  798000    1.1322084   -5.7886036    421.05366  0.043969681  0.044708724            2 
  799000    1.1101837   -5.7736634    419.65738  0.043769021  0.044697602            2 
  800000    1.1214189   -5.7786311    420.70181  0.043823105   0.04468613            3 
  801000    1.0930334   -5.7727648    420.13055  0.043708963  0.044674441            2 
  802000    1.1201786   -5.8058065    421.60225  0.043807383  0.044662551            2 
  803000    1.1257372   -5.7356087    421.75252  0.043768423   0.04465073            3 
  804000    1.1181028   -5.7296027    423.26054  0.043870289  0.044639406            2 
  805000    1.1253782   -5.8050773    422.98781  0.043787558    0.0446278            4 
  806000    1.1228088   -5.8175378    420.85695  0.043512918  0.044616272            2 
  807000    1.1302195   -5.8029722    423.37774  0.043719304  0.044604658            4 
  808000     1.116744   -5.7873477     422.7734  0.043602867   0.04459411            5 
  809000    1.1220026   -5.7865918    424.64666   0.04374193  0.044583034            4 
  810000    1.1278113   -5.7959303     424.7159  0.043695051  0.044572221            1 
  811000    1.0986258   -5.8073406    425.53448  0.043725285  0.044561134            2 
  812000    1.1104978   -5.7534195    427.11369  0.043833507  0.044550085            2 
  813000    1.1345439   -5.8067444    427.83779  0.043853812  0.044539532            4 
  814000    1.1373778   -5.7519686    427.17759  0.043732349  0.044529499            4 
  815000    1.1110044   -5.7307696    427.88854  0.043751385   0.04451847            6 
  816000    1.1128816   -5.7968817    426.87423  0.043594182  0.044506932            6 
  817000    1.1360062   -5.7654944    430.11356  0.043871233  0.044495791            3 
  818000    1.1307915   -5.8243655    428.20882  0.043623555  0.044485017            2 
  819000    1.1273028   -5.7778244    429.02971  0.043653817  0.044473595            2 
  820000    1.1320577   -5.8224622    428.08467   0.04350454  0.044462287            2 
  821000    1.1245808   -5.8086306    429.51785  0.043597021  0.044451188            5 
  822000    1.1202144   -5.7553148    431.61227  0.043756313  0.044440309            4 
  823000    1.1238627   -5.7715538    432.11307  0.043753855  0.044429767            5 
  824000     1.115098   -5.7854852    431.65803  0.043654736  0.044419587            3 
  825000    1.1214561   -5.8201448     432.2356  0.043660162  0.044409311            3 
  826000    1.1330128   -5.7649452    432.73059  0.043657242  0.044399165            4 
  827000     1.115113   -5.7493903    435.13567  0.043846802  0.044389752            4 
  828000    1.1024367   -5.7992269    433.88204  0.043667677  0.044379971            3 
  829000    1.0989784    -5.839556    432.52248  0.043478336  0.044369464            2 
  830000    1.1298002   -5.7870924    434.76562  0.043651167  0.044358462            5 
  831000    1.1222388   -5.7406163    434.74841  0.043596912  0.044348098            3 
  832000    1.1266976    -5.742172    436.48179  0.043718128    0.0443376            1 
  833000    1.1185092   -5.7786107    434.18666  0.043436041  0.044326983            4 
  834000    1.1208984   -5.8065959    435.02781  0.043468007  0.044316019            4 
  835000    1.1222351   -5.8016363    437.01101  0.043613873  0.044305427            4 
  836000    1.1089716   -5.7900984     437.3051  0.043591018  0.044295211            3 
  837000    1.1378426    -5.820838    438.23908  0.043631928   0.04428519            3 
  838000    1.1005084    -5.767212    438.06467  0.043562517   0.04427448            2 
  839000    1.1215443   -5.7836219    437.95869  0.043500068  0.044263277            4 
  840000    1.1388268   -5.7717204    437.61382   0.04341407  0.044252451            2 
  841000    1.1231788   -5.8214286    439.05513  0.043505264  0.044241084            3 
  842000    1.1466456   -5.8574285    435.95126  0.043146404   0.04422963            5 
  843000    1.1255951   -5.8211613    436.55503  0.043154906  0.044217376            6 
  844000    1.1226724   -5.7818255    439.29286  0.043374098  0.044205727            4 
  845000    1.1118366   -5.7881863    438.64461  0.043258838  0.044194025            2 
  846000    1.1067034   -5.7700825    439.47573  0.043289571  0.044182032            4 
  847000    1.1304703   -5.7901271    440.10761   0.04330063  0.044169618            3 
  848000    1.1228817   -5.7998039      438.602  0.043101612  0.044157526            3 
  849000    1.1134289   -5.7991409    440.66768    0.0432536  0.044145676            5 
  850000    1.1295398   -5.8198025    439.07305  0.043046377  0.044134031            3 
  851000    1.0755177   -5.7688408    442.93776  0.043374242  0.044122727            5 
  852000    1.1084015   -5.7564759     443.9684  0.043424139  0.044111004            3 
  853000    1.1136277    -5.808201    442.63161  0.043242635  0.044099425            2 
  854000    1.1151139   -5.7936078    444.11637  0.043336882  0.044087813            2 
  855000    1.1232503   -5.7740551    444.01607   0.04327642  0.044075931            3 
  856000    1.1314796   -5.7605071    442.47992  0.043076316  0.044063715            2 
  857000    1.1351046   -5.7734643     445.0651   0.04327743  0.044051732            4 
  858000    1.1159989   -5.8218951    444.85301  0.043206392   0.04403985            2 
  859000    1.1249181   -5.7472469    445.46148  0.043215122  0.044028424            2 
  860000    1.1217646   -5.7964616      445.911   0.04320843  0.044017087            3 
  861000     1.124251   -5.8083509    445.49755   0.04311823  0.044005682            4 
  862000    1.1144738   -5.7847344    446.55678  0.043170609   0.04399392            4 
  863000    1.0990662    -5.802735    449.58496  0.043412993  0.043982873            5 
  864000    1.0936864   -5.7940054    446.45284  0.043060652  0.043971897            2 
  865000    1.0985953   -5.7741408    447.78614   0.04313932  0.043960979            4 
  866000    1.1093338   -5.8119899    449.42525  0.043247234  0.043950196            2 
  867000    1.0682419    -5.810975    449.98888  0.043251527  0.043939586            4 
  868000    1.1246379   -5.8089134    450.02305  0.043204978   0.04392855            5 
  869000     1.097867   -5.8060942    449.31756  0.043087607  0.043917243            2 
  870000    1.1070141   -5.7563115    451.92895  0.043288213   0.04390642            2 
  871000    1.0970762    -5.810495    452.34146  0.043277981  0.043895656            2 
  872000    1.1221988   -5.7918553    452.99732  0.043291028  0.043884388            3 
  873000    1.1183593   -5.8285794    448.78606  0.042839448  0.043873141            4 
  874000    1.1260361   -5.7924431    453.07761   0.04319962  0.043861553            3 
  875000    1.1055713   -5.7993791    452.16651  0.043063477  0.043850872            3 
  876000    1.0928211   -5.8158992    452.06312  0.043004482  0.043840034            5 
  877000    1.1120779   -5.8039539    452.85702  0.043030884  0.043828893            4 
  878000    1.1075354   -5.7791429    453.40174  0.043033574   0.04381727            2 
  879000    1.1243596   -5.8073303    452.79782  0.042927362  0.043806212            4 
  880000    1.0888035   -5.8112299    453.64814  0.042959104  0.043794691            3 
  881000    1.0758864   -5.7954991    454.89588  0.043028365  0.043783173            2 
  882000    1.1110294    -5.801673    454.55086  0.042946982  0.043771576            1 
  883000    1.1116563   -5.8226556    452.34614  0.042690274  0.043759546            3 
  884000    1.0964808   -5.8100953    454.94552  0.042887021  0.043747325            2 
  885000     1.132531   -5.8419087    453.56299   0.04270838  0.043735585            2 
  886000    1.1246894   -5.8035627    455.66672  0.042858044  0.043723495            1 
  887000    1.0999579   -5.7946478    454.92903   0.04274042  0.043711978            5 
  888000     1.101641   -5.8213576    456.02107   0.04279477  0.043700249            2 
  889000    1.0866886   -5.8189479    456.28112  0.042771009  0.043688682            3 
  890000    1.1087042    -5.809624    456.35629  0.042729989  0.043676902            4 
  891000    1.1377213   -5.8203417    457.43687  0.042783096   0.04366477            5 
  892000    1.0940071   -5.7944804     456.9749  0.042691975   0.04365321            5 
  893000    1.1158015   -5.7945134    458.92779  0.042826408  0.043641354            3 
  894000    1.0896538    -5.813462    460.60562  0.042934901  0.043629703            2 
  895000    1.1409038   -5.8230124    458.43531  0.042684852  0.043618137            5 
  896000    1.1030123    -5.781668    461.70144  0.042940982  0.043606745            4 
  897000    1.1247223   -5.8325686    459.91678  0.042727312  0.043595579            3 
  898000    1.1091279   -5.8050331    462.12657  0.042884797  0.043584302            2 
  899000    1.1131953   -5.7999884    461.72157  0.042799552  0.043573383            4 
  900000    1.1306975   -5.7956457    463.40085  0.042907486  0.043561738            5 
  901000    1.0974772   -5.7836501    461.64523  0.042697487  0.043550449            3 
  902000    1.0942467   -5.7665536    461.60423  0.042646363  0.043539094            2 
  903000    1.0799206   -5.8462986    461.13921  0.042556221  0.043527014            4 
  904000    1.0844169   -5.8096741    463.16631  0.042696009  0.043515015            5 
  905000    1.1097394   -5.7979235    461.77378  0.042520605  0.043502928            4 
  906000    1.1107339   -5.8331164    460.60293  0.042365979   0.04349076            2 
  907000    1.0896827   -5.8373782    461.51011  0.042402619  0.043478317            5 
  908000     1.108715   -5.8210023    463.80506  0.042566544  0.043466055            3 
  909000    1.0937508   -5.8163125    465.42229  0.042667977  0.043453523            2 
  910000    1.0707176   -5.7947811    465.26069  0.042606291  0.043441555            3 
  911000    1.1129269   -5.8015513    465.26544  0.042559956  0.043430024            2 
  912000     1.091273   -5.8193336    466.26441   0.04260457  0.043418269            5 
  913000    1.1190607   -5.8140671    466.76731  0.042603807   0.04340606            3 
  914000    1.1153748   -5.7887832    466.78317   0.04255864  0.043394179            2 
  915000    1.1160351   -5.8153136    468.40804  0.042660113  0.043382495            5 
  916000    1.1177265   -5.7879175    468.85424  0.042654134  0.043370997            3 
  917000    1.0920061   -5.8104527    468.78527  0.042601352  0.043359092            2 
  918000    1.1065596   -5.8026357        467.6  0.042447349  0.043347266            3 
  919000    1.0852537   -5.8483138    466.86854  0.042334834  0.043335475            2 
  920000    1.1047807    -5.850737    469.65661   0.04254136  0.043323796            3 
  921000    1.1195069   -5.8318585    470.85648  0.042603735  0.043312173            2 
  922000    1.0969575    -5.841929    470.27501  0.042504972  0.043300376            5 
  923000      1.09767   -5.7979465    471.15577   0.04253844  0.043288903            4 
  924000    1.1242982    -5.776259    471.90713  0.042560167  0.043277906            1 
  925000    1.0934576   -5.8352691    471.59348  0.042485899  0.043266999            3 
  926000    1.0932851   -5.8587177    471.56618  0.042437561  0.043255152            2 
  927000    1.0761003   -5.8357939    472.03197  0.042433654  0.043243689            2 
  928000    1.0879159   -5.8015976    476.21084  0.042763186  0.043232954            2 
  929000    1.0987948   -5.8007605    473.88266  0.042508312  0.043222486            5 
  930000    1.1075359   -5.8290861    474.45992   0.04251433  0.043211738            5 
  931000    1.1057033   -5.8434655    475.17635  0.042532792  0.043200908            3 
  932000    1.1119348   -5.8309901    475.95333  0.042556628  0.043189962            2 
  933000    1.0824698   -5.8355229    475.98356  0.042513715  0.043179149            5 
  934000    1.1085299   -5.8165732    476.23722   0.04249083  0.043168324            6 
  935000    1.1031281   -5.8399345    477.25459   0.04253606   0.04315759            4 
  936000     1.096232   -5.7959977    477.50188  0.042512632  0.043146865            4 
  937000    1.0754592   -5.8109604    478.38628  0.042545916  0.043136443            4 
  938000    1.1061702   -5.8201908    478.08752  0.042474016  0.043125647            2 
  939000    1.1093176   -5.8043038    479.23735  0.042530826  0.043115139            1 
  940000     1.119314   -5.7903397    478.74794  0.042442193  0.043104574            2 
  941000    1.1244067   -5.8464975    478.31206  0.042358489  0.043093676            6 
  942000    1.0956259   -5.8097991    479.61752  0.042429009  0.043083124            3 
  943000    1.0884549   -5.8360515    479.97144  0.042415291  0.043072221            5 
  944000    1.0967888   -5.8362564     480.5663  0.042422872  0.043061037            5 
  945000    1.1018104   -5.8628915    480.14897  0.042341179  0.043050175            3 
  946000     1.103348   -5.7874489    482.06683  0.042465365  0.043039299            3 
  947000    1.0947658    -5.801904    481.05907  0.042331844  0.043028826            2 
  948000    1.0806945   -5.8272503    482.80342  0.042440526  0.043018372            3 
  949000    1.0994057   -5.8300441    482.12895  0.042336578  0.043007269            3 
  950000    1.0952599   -5.8462481     482.8517  0.042355412  0.042996333            5 
  951000    1.1092067   -5.8605167     481.3695  0.042180993  0.042985484            3 
  952000    1.0789542   -5.8096051    484.50147  0.042410843  0.042974387            5 
  953000    1.0992577   -5.8217361    484.76351  0.042389254  0.042962939            5 
  954000    1.1141877   -5.8796685    483.68043  0.042250212  0.042952141            1 
  955000    1.0976494   -5.8010437    485.95772  0.042404688  0.042941169           12 
  956000    1.0979993   -5.7928395    483.76754  0.042169416  0.042930134            4 
  957000    1.0878686   -5.8223014     484.8343  0.042218243  0.042919441            6 
  958000    1.1150689   -5.8188934    486.19691  0.042292703  0.042908854            2 
  959000       1.1034   -5.8491616     485.1538  0.042157959  0.042898229            7 
  960000    1.0810291   -5.8064464    486.30569  0.042214035   0.04288715            3 
  961000    1.1019829   -5.8694893    487.46123  0.042270311  0.042876567            2 
  962000    1.0905794   -5.8565962    486.79913  0.042169016  0.042865806            2 
  963000    1.0980475   -5.8416614    486.34432  0.042085871  0.042855084            6 
  964000    1.0917708   -5.8227952    489.40322   0.04230664  0.042844701            3 
  965000    1.0844537   -5.8432839     489.0502  0.042232314  0.042834055            1 
  966000     1.080808   -5.8213876     489.7601  0.042249836  0.042823614            3 
  967000    1.1006098   -5.8222457    491.24595   0.04233419  0.042813683            3 
  968000    1.1002759   -5.8505673    488.75892  0.042076353  0.042803283            2 
  969000    1.1124738   -5.8476785     490.5113  0.042183634  0.042792415            6 
  970000    1.1035518   -5.8393792    489.85082  0.042083404  0.042781789            5 
  971000    1.0852076   -5.8518539    489.89353  0.042043729   0.04277087            3 
  972000     1.082094   -5.8359842    491.66204  0.042152096  0.042760025            1 
  973000    1.1083152   -5.8405089    492.32171  0.042165271    0.0427492            4 
  974000    1.1046815   -5.8234713    493.33935  0.042209048  0.042738667            3 
  975000    1.1363654   -5.8363033    492.80052  0.042119702  0.042727892            3 
  976000     1.105128   -5.8213922    492.86419  0.042081983  0.042717517            3 
  977000     1.095517   -5.8408388    493.64182  0.042105239   0.04270661            3 
  978000    1.0691742   -5.8356156    493.97358  0.042090455  0.042695726            3 
  979000    1.0694274   -5.8180856    494.71426  0.042110509    0.0426849            4 
  980000    1.0993463     -5.86266    495.52838  0.042136767  0.042674056            1 
  981000    1.0952442   -5.8485454    495.63551  0.042102915  0.042663552            1 
  982000    1.0687878   -5.8421268    496.39836  0.042124776  0.042652519            6 
  983000    1.0994269   -5.8539585    494.04575  0.041882481  0.042641548            3 
  984000     1.106923   -5.8791034    495.11351  0.041930345  0.042630432            5 
  985000    1.0916042   -5.8543303     497.2181  0.042065829  0.042619052            5 
  986000    1.0825141   -5.8103642    496.38041  0.041952367   0.04260816            5 
  987000    1.0840393   -5.8377672    497.21608  0.041980419  0.042597084            7 
  988000    1.1298645   -5.8217909    497.28328  0.041943596  0.042585686            8 
  989000    1.0747451   -5.8391201    496.49068  0.041834402  0.042574058            3 
  990000    1.0945319   -5.8143091    497.89244  0.041910138  0.042563232            4 
  991000    1.0852043   -5.8169515    498.29994  0.041902114  0.042552075            6 
  992000    1.1111857   -5.8311626    498.97421  0.041916517  0.042540851            3 
  993000    1.1014864   -5.8447907    498.82345  0.041861652  0.042529301            4 
  994000    1.0997749   -5.8700593     500.0027  0.041918402  0.042518018            3 
  995000    1.1168907   -5.8447237    497.84269  0.041695367  0.042506606            3 
  996000    1.0977662    -5.841671    501.21998  0.041936076  0.042495593            5 
  997000    1.0753678   -5.8687279    499.39352   0.04174135  0.042484735            8 
  998000    1.1034641   -5.8686906    500.55761  0.041796728  0.042473831            2 
  999000    1.0981098   -5.8483646    502.76738  0.041939221  0.042462982            3 
 1000000     1.094948   -5.8430801    499.79745  0.041649787  0.042451741            4 
 1001000    1.0876559   -5.8970095    500.54344  0.041670283   0.04244072            4 
 1002000     1.102188   -5.8596377    503.21338  0.041850747  0.042429699            4 
 1003000    1.0950549   -5.8540888    502.69596  0.041766032  0.042418723            4 
 1004000    1.0817388   -5.8451652    501.65749  0.041638237  0.042407558            3 
 1005000    1.0842009   -5.8588819    504.66551  0.041846228  0.042396492            6 
 1006000    1.0794452   -5.8471416    504.51745  0.041792367  0.042385525            2 
 1007000    1.0849412   -5.8653915    503.74333  0.041686803   0.04237496            4 
 1008000    1.0814249   -5.8379149    505.88354  0.041822383  0.042364002            5 
 1009000    1.0836283   -5.8120386    506.49541  0.041831467  0.042353437            3 
 1010000    1.0911817   -5.8550018    506.30485  0.041774327  0.042342938            4 
 1011000    1.0565413   -5.8419584    507.35551  0.041819611  0.042332131            6 
 1012000    1.0759124   -5.8187127    506.94996  0.041744891  0.042321208            3 
 1013000    1.0899357   -5.8431614    507.14555  0.041719772  0.042310216            2 
 1014000    1.0958272   -5.8669798    506.79784  0.041650052  0.042299444            2 
 1015000    1.0843027     -5.84308     508.1595  0.041720813   0.04228875            3 
 1016000    1.1003488   -5.7929031    509.67697  0.041804214  0.042278167            5 
 1017000    1.1070158   -5.8350497    508.37445  0.041656379  0.042267648            4 
 1018000    1.1054938   -5.8208192    509.74033   0.04172727  0.042257078            3 
 1019000     1.076418   -5.8617706    509.94825  0.041703324  0.042246167            5 
 1020000    1.0850636   -5.8558945    510.01993  0.041668295  0.042235337            7 
 1021000    1.1139219   -5.8714206    509.34514  0.041572408  0.042224755            2 
 1022000    1.1069898   -5.8581227    511.42218  0.041701091  0.042214333            2 
 1023000    1.0991161   -5.8657876    512.47489  0.041746081  0.042203917            3 
 1024000    1.1088569   -5.8509871    512.32242  0.041692905  0.042193538            2 
 1025000    1.0937349   -5.8682297    512.00549  0.041626463  0.042183278            3 
 1026000    1.0882842   -5.8569345    511.92383  0.041579259  0.042172776            3 
 1027000    1.0777627   -5.9027468    511.69353  0.041520085  0.042162076            2 
 1028000    1.1037842   -5.8262446    515.15883  0.041760606   0.04215173            2 
 1029000    1.0669888   -5.8784661    513.08728  0.041552258  0.042141662            4 
 1030000    1.0608519   -5.8585756    513.92308  0.041579537  0.042130892            5 
 1031000     1.085485   -5.8538435    514.05047  0.041549505  0.042120307            2 
 1032000    1.0718066   -5.8524423    514.64667  0.041557386  0.042109675            5 
 1033000    1.0975881   -5.9211262    513.41411  0.041417724  0.042099181            1 
 1034000    1.0758921   -5.8661275    514.64555  0.041476914  0.042088494            1 
 1035000    1.0805625    -5.845586    516.60051  0.041594244   0.04207809            2 
 1036000    1.0974396   -5.8389981    517.65684  0.041639063  0.042067871            3 
 1037000    1.0750952   -5.8742841    516.58241  0.041512569  0.042057368            4 
 1038000    1.0952851   -5.8324978    518.05768  0.041591015  0.042047184            4 
 1039000     1.094475   -5.8846288    516.71327  0.041443156  0.042036812            6 
 1040000    1.0627894   -5.8475289    518.89633  0.041578231  0.042026208            3 
 1041000    1.0757829   -5.8433669    519.15799  0.041559237  0.042015929            2 
 1042000     1.106708   -5.8704437    517.80633  0.041411254  0.042005518            2 
 1043000     1.081106   -5.8612697    517.69912  0.041362985  0.041994811            5 
 1044000    1.0929616   -5.8305968    522.78793  0.041729561  0.041984702            2 
 1045000    1.0502111   -5.8750531    519.75821  0.041448023  0.041974562            2 
 1046000    1.0891518   -5.8594509    520.14149  0.041438933  0.041964176            2 
 1047000    1.1071086   -5.8534237    520.37268  0.041417756  0.041953744            3 
 1048000    1.0921375   -5.8617433    520.89324  0.041419628  0.041943617            4 
 1049000    1.0859915   -5.8581346    522.92309  0.041541395  0.041933379            4 
 1050000    1.0771252    -5.848633    522.16125  0.041441369  0.041923479            4 
 1051000    1.0776778   -5.8560561    523.52208  0.041509838  0.041913585            5 
 1052000    1.0848437   -5.8859675    522.33711  0.041376514  0.041903508            3 
 1053000    1.0681231   -5.8320642      523.862  0.041457898  0.041893648            3 
 1054000    1.0779161   -5.8752886    523.26299  0.041371204  0.041883441            1 
 1055000    1.0873125   -5.8301278    526.01049  0.041549012  0.041873682            6 
 1056000     1.058975   -5.8766965     525.1628  0.041442772   0.04186357            1 
 1057000     1.090571   -5.8976183    525.12602  0.041400663   0.04185396            6 
 1058000    1.0978693   -5.8577643    527.81991  0.041573717  0.041844034            2 
 1059000    1.0858113   -5.8557906    526.41173  0.041423649  0.041834369            3 
 1060000    1.0789335   -5.8475919    527.40952  0.041463013  0.041824503            3 
 1061000    1.0736185   -5.8660799    528.10883  0.041478859  0.041814679            3 
 1062000    1.0645858   -5.8878916     526.3937  0.041305218  0.041804749            4 
 1063000    1.0654649   -5.8344611    528.51958  0.041433018  0.041794646            4 
 1064000     1.067615   -5.8716019    528.14971  0.041365109  0.041784896            2 
 1065000    1.0432849   -5.8620029     526.9692  0.041233896   0.04177499            3 
 1066000    1.0826579    -5.872752    530.87245  0.041500348  0.041764932            5 
 1067000    1.0860207   -5.8791725     530.2528  0.041413058  0.041755139            4 
 1068000    1.0509773   -5.8350606    531.04879  0.041436391  0.041745318            5 
 1069000    1.0842124   -5.8718565     531.8105  0.041457008  0.041735674            3 
 1070000    1.0980748   -5.8730852    532.48762  0.041470999  0.041726231            3 
 1071000    1.0500322   -5.8647061    533.44622  0.041506864  0.041716793            2 
 1072000    1.0696755   -5.8162389    533.43887  0.041467574  0.041707747            6 
 1073000    1.0853681   -5.8816879    532.54435  0.041359456  0.041698555            3 
 1074000    1.0948474   -5.8437243    532.24327  0.041297584  0.041689097            4 
 1075000    1.0727055    -5.893686    532.14359  0.041251441  0.041679511            3 
 1076000    1.0817469   -5.8835074    533.78902  0.041340537  0.041669819            2 
 1077000    1.0836613   -5.9136705    533.50621   0.04128027  0.041660784            3 
 1078000    1.1027447   -5.8759146    535.27302  0.041378557  0.041651466            4 
 1079000    1.0793547    -5.866733    536.57831  0.041441018  0.041641839            2 
 1080000    1.0984644   -5.8799445      534.753  0.041261805  0.041632574            3 
 1081000    1.0806922     -5.87637    535.80164  0.041304474  0.041623749            5 
 1082000    1.0678602   -5.8256247     538.2744  0.041456746  0.041614568            4 
 1083000    1.0973471   -5.8401484    539.28633  0.041496332  0.041605612            2 
 1084000    1.0696089   -5.8700776    538.85145   0.04142462  0.041596833            2 
 1085000    1.0672178   -5.8958427    535.95428  0.041163923   0.04158773            2 
 1086000    1.0724317    -5.867898    539.98688  0.041435457  0.041578848            2 
 1087000    1.0986177   -5.8641716     539.4376  0.041355229  0.041569843            4 
 1088000    1.0778062   -5.8731662    538.22876  0.041224629  0.041561189            5 
 1089000    1.0952136   -5.8602608    540.15732  0.041334352  0.041552691            4 
 1090000    1.0833827   -5.8807472    539.94879  0.041280488  0.041543569            1 
 1091000    1.0700946   -5.8818271    542.43083  0.041432236  0.041534586            2 
 1092000    1.0874488   -5.8386029    543.32793  0.041462754  0.041525522            7 
 1093000    1.0754831   -5.8683831    542.46461  0.041358997  0.041516625            2 
 1094000    1.0610867   -5.9151924    538.95367  0.041053753  0.041507479            2 
 1095000    1.0875855   -5.8916692    540.88121  0.041162953  0.041497912            6 
 1096000    1.0759251   -5.8784162    542.61252  0.041257035  0.041488668            3 
 1097000    1.0961116   -5.9121031    542.32601  0.041197661  0.041479518            8 
 1098000    1.0893774   -5.8751547    543.56644  0.041254284  0.041470471            3 
 1099000    1.0690123   -5.8951245    544.48123  0.041286111  0.041460986            2 
 1100000    1.0979893   -5.8950072      543.614  0.041182879  0.041451776            2 
 1101000    1.0634414   -5.9003334    543.45611  0.041133524  0.041442736            3 
 1102000    1.0712701   -5.8941894    545.30175  0.041235765  0.041433844            2 
 1103000    1.0934593   -5.8846266    546.21792  0.041267598   0.04142519            2 
 1104000    1.0777711   -5.8666612    545.00394  0.041138582  0.041416272            3 
 1105000     1.088472   -5.8842295    548.00028  0.041327321  0.041407297            4 
 1106000    1.0614415   -5.8366866    547.58113  0.041258373  0.041398776            3 
 1107000    1.0717554   -5.8903067    549.27781  0.041348827  0.041390569            3 
 1108000    1.0816405   -5.8944532    546.95198  0.041136581  0.041381764            3 
 1109000    1.0719757    -5.876871    548.75978  0.041235331  0.041373138            2 
 1110000    1.1010182    -5.879608    548.90012  0.041208718  0.041364559            2 
 1111000    1.0859412   -5.8723544    550.24216  0.041272289  0.041356181            2 
 1112000    1.0674279   -5.8912617    548.86232  0.041131769  0.041347705            4 
 1113000    1.0755191   -5.9234865    547.58708  0.040999332  0.041338759            2 
 1114000    1.0753204   -5.8800206    550.01679  0.041144284  0.041330078            2 
 1115000    1.0838252   -5.9248842    547.63526  0.040929391  0.041321452            5 
 1116000    1.0678409   -5.9166142    548.70405  0.040972524  0.041312561            4 
 1117000    1.0540188   -5.9295769    550.96456  0.041104488  0.041303384            3 
 1118000     1.083947   -5.8609579    552.75657  0.041201294  0.041294572            4 
 1119000      1.06697   -5.8980472    552.08588  0.041114528  0.041285623            2 
 1120000    1.0749461   -5.9172816    551.18082  0.041010477  0.041276532            6 
 1121000    1.0758452   -5.8603458    553.64019  0.041156719  0.041267602            2 
 1122000    1.0814865   -5.8826489    552.64517  0.041046136  0.041258595            2 
 1123000    1.0999074   -5.8929724    551.67875  0.040937871  0.041249309            2 
 1124000    1.0686499   -5.8827503    553.84077  0.041061742  0.041240083            5 
 1125000    1.0815456    -5.892332    551.27246  0.040834997  0.041230736            3 
 1126000    1.0945067   -5.8876546    552.46801  0.040887212  0.041221555            3 
 1127000    1.0636856   -5.8967539    553.27309  0.040910462  0.041212292            3 
 1128000    1.0789669   -5.8744789    552.37794  0.040808063  0.041202764            6 
 1129000    1.0586215   -5.9261159    552.50512  0.040781305  0.041193403            4 
 1130000    1.0533209   -5.9156111    554.92948  0.040924003  0.041183869            5 
 1131000    1.0749097   -5.9137257    553.34981  0.040771427  0.041173992            4 
 1132000    1.0734155   -5.8973998    553.52349  0.040748195  0.041164435            2 
 1133000    1.0609045   -5.8880395    556.30639  0.040916916  0.041154999            3 
 1134000    1.0458247   -5.9265769    554.32851  0.040735487  0.041145652            4 
 1135000    1.0876799   -5.9414902    554.18071  0.040688745   0.04113605            2 
 1136000    1.0687994   -5.8832091     556.1194  0.040795144   0.04112651            4 
 1137000    1.0600691   -5.9038343    555.54213  0.040716955  0.041116855            7 
 1138000    1.0500498   -5.8918343     559.0037  0.040934659  0.041107189            3 
 1139000    1.0679955   -5.8941162    556.83244  0.040739863   0.04109739            2 
 1140000    1.0837722   -5.8934842    556.39931  0.040672464  0.041087677            1 
 1141000    1.0343228   -5.9232532    556.25445  0.040626238  0.041077809            3 
 1142000    1.0930477   -5.8993173     556.6143  0.040616922  0.041067916            3 
 1143000    1.0646908   -5.8623182    557.43248  0.040641038  0.041058189            4 
 1144000     1.044552   -5.9123685    556.00952  0.040501859  0.041048583            4 
 1145000    1.0625264    -5.917234    559.98143  0.040755563  0.041038736            4 
 1146000    1.0858117   -5.9173529    558.38103  0.040603623   0.04102909            2 
 1147000    1.0791441   -5.9073445    558.88648  0.040604946  0.041019228            2 
 1148000    1.0627409   -5.8818925     560.1154  0.040658784  0.041009615            2 
 1149000    1.0686573   -5.9032846    561.25683  0.040706182  0.040999951            4 
 1150000    1.0669905   -5.8798609    561.85813  0.040714357  0.040990285            7 
 1151000    1.0637038   -5.9046823    561.82381  0.040676499  0.040981022            2 
 1152000    1.0550975   -5.8318462    564.89615  0.040863437  0.040971577            4 
 1153000    1.0727765   -5.9004356    562.21831  0.040634454  0.040962268            4 
 1154000      1.06702   -5.9303757    562.25671  0.040602016  0.040952761            3 
 1155000    1.0716101   -5.9021394    564.22398  0.040708801  0.040943374            4 
 1156000    1.0636475   -5.9112987    561.70763  0.040492188  0.040934005            2 
 1157000    1.0546796   -5.8932436     566.5314  0.040804624  0.040924591            4 
 1158000    1.0656524    -5.879821    564.64542  0.040633666  0.040915206            5 
 1159000    1.0861136   -5.8967981    562.99315  0.040479806  0.040905863            5 
 1160000    1.0567334    -5.925189    565.77118  0.040644481  0.040896448            4 
 1161000    1.0845527   -5.9427974    563.74608  0.040464117  0.040887046            4 
 1162000     1.043828   -5.9111065    564.20942  0.040462523  0.040877468            1 
 1163000    1.0684819   -5.9171096    566.29194  0.040576952  0.040868093            5 
 1164000    1.0686433   -5.9158891    566.28461  0.040541567  0.040858885            4 
 1165000    1.0674365    -5.935168    567.09824  0.040564967  0.040849647            3 
 1166000    1.0485402   -5.8889114    567.14916  0.040533816  0.040840387            2 
 1167000    1.0737222    -5.903355    569.14739  0.040641773  0.040831211            2 
 1168000     1.075485   -5.9235864    568.41282  0.040554568  0.040821948            4 
 1169000    1.0510014   -5.9503136     566.5283  0.040385536   0.04081253            1 
 1170000    1.0556851   -5.9100697    567.64901  0.040430841  0.040803139            5 
 1171000     1.067954   -5.9076412     570.8372  0.040623199  0.040793788            4 
 1172000    1.0690567   -5.9102187    569.73607  0.040510244  0.040784382            4 
 1173000    1.0679066   -5.9485185    569.67352  0.040471265  0.040775048            3 
 1174000    1.0238591   -5.9195247    570.74771   0.04051304  0.040766098            2 
 1175000    1.0639554   -5.8938367    572.04481  0.040570554   0.04075701            3 
 1176000    1.0669479   -5.8568741    571.40143  0.040490464   0.04074795            6 
 1177000    1.0411287   -5.9418544    570.15839  0.040368054  0.040738889            4 
 1178000    1.0656272   -5.8826588    574.29078  0.040626116  0.040729681            2 
 1179000    1.0405413     -5.92072    571.44194  0.040390298  0.040720504            4 
 1180000    1.0568948   -5.9405364     572.2597   0.04041382  0.040711204            2 
 1181000    1.0636929   -5.9272357    572.09494  0.040367975   0.04070164            2 
 1182000    1.0659783    -5.869078     575.0734   0.04054381  0.040692129            5 
 1183000    1.0543811   -5.9213168    571.71302  0.040272824  0.040682478            4 
 1184000    1.0787432   -5.8766383    574.66568  0.040446627  0.040672839            5 
 1185000    1.0798038   -5.8782813    576.78351  0.040561428  0.040663738            3 
 1186000     1.056616   -5.8803853    575.52486   0.04043879  0.040654326            4 
 1187000    1.0706384   -5.9302722    575.15459  0.040378727   0.04064489            3 
 1188000    1.0691378   -5.9372313    574.31145  0.040285596  0.040635341            4 
 1189000     1.077685    -5.893844    577.78917  0.040495456   0.04062651            2 
 1190000    1.0672096   -5.9151109    576.31642  0.040358293  0.040617156            4 
 1191000    1.0693479   -5.9117022    575.21307  0.040247206  0.040607694            3 
 1192000    1.0326986   -5.9227535    578.16847  0.040420055  0.040598371            4 
 1193000     1.071532   -5.9373115    578.09521  0.040381057  0.040588854            5 
 1194000    1.0733291   -5.9507231    576.63321  0.040245199  0.040579246            3 
 1195000    1.0602186   -5.9395386    576.65835  0.040213274  0.040569914            2 
 1196000    1.0419513   -5.9102499    578.34704  0.040297313  0.040560381            2 
 1197000    1.0509711   -5.9268611    578.39964   0.04026731   0.04055108            4 
 1198000    1.0882766    -5.929051    578.29158  0.040226181  0.040541743            2 
 1199000    1.0788648   -5.9225057    580.52388  0.040347781  0.040532293            3 
 1200000    1.0328037   -5.9190115    578.69561  0.040187195  0.040522603            6 
 1201000     1.065795   -5.9089511    579.76316  0.040227807  0.040512603            6 
 1202000    1.0457559   -5.9058304    578.42866  0.040101821  0.040502892            3 
 1203000    1.0835236   -5.9292371    576.98135  0.039968229  0.040493107            3 
 1204000    1.0800138   -5.9165822    579.93513  0.040139475  0.040482955            3 
 1205000    1.0411569   -5.9258688    580.11862  0.040118853  0.040473115            3 
 1206000     1.064145   -5.9450364    579.38501  0.040034896  0.040463147            3 
 1207000    1.0555142   -5.9232719    578.20283  0.039920107  0.040453092            2 
 1208000    1.0805759   -5.9311225    578.23992  0.039889619  0.040442904            2 
 1209000    1.0510403   -5.9221918    578.05104  0.039843606  0.040432318            6 
 1210000    1.0577241   -5.9528535    579.23186  0.039892002  0.040421433            3 
 1211000    1.0637692    -5.893613    579.01787  0.039844335  0.040411274            3 
 1212000     1.052044   -5.8900893    581.92071   0.04001105  0.040400914            6 
 1213000    1.0606736   -5.9243798    582.78258  0.040037275  0.040390626            6 
 1214000    1.0493536   -5.9694035    579.25551  0.039762185  0.040379921            4 
 1215000    1.0683467   -5.9212561    580.85771  0.039839349  0.040369271            5 
 1216000    1.0542489   -5.9426618    581.65233  0.039861042  0.040358703            3 
 1217000    1.0599814    -5.954675    580.18648  0.039727916  0.040348087            3 
 1218000    1.0359135    -5.906523     582.9975  0.039887623  0.040337597            4 
 1219000    1.0531749   -5.9215552    580.80361  0.039704923   0.04032711            4 
 1220000    1.0601435   -5.9064758    582.26381  0.039772118  0.040316514            8 
 1221000    1.0403954   -5.9357099    581.40234  0.039680749  0.040305763            3 
 1222000    1.0613355   -5.9106492    584.56901  0.039864226   0.04029524            2 
 1223000     1.086685   -5.9162463    584.50756  0.039827444  0.040284892            2 
 1224000    1.0357116   -5.9259372      584.989  0.039827683  0.040274775            3 
 1225000    1.0769057   -5.9366136    583.80029  0.039714305  0.040264443            3 
 1226000    1.0602226    -5.901467    585.38294  0.039789488  0.040254002            4 
 1227000    1.0404077   -5.9145532    586.46185  0.039830335  0.040243672            4 
 1228000     1.054067   -5.9112053    585.08743   0.03970463  0.040233309            2 
 1229000    1.0447793   -5.9347532    587.51809  0.039837137  0.040222809            4 
 1230000     1.059632   -5.9265388    585.04481  0.039637182  0.040212057            8 
 1231000    1.0708588   -5.9199714    585.70599  0.039649742   0.04020121            4 
 1232000    1.0600004   -5.9419612    584.19746  0.039515521  0.040190419            3 
 1233000    1.0687014   -5.9384715    586.05942  0.039609315  0.040179656            3 
 1234000     1.066153   -5.8934638    587.64929  0.039684582  0.040168994            2 
 1235000     1.038645   -5.9377057    586.45978  0.039572185  0.040158244            3 
 1236000    1.0618106   -5.9183002     588.2013  0.039657585  0.040147366            2 
 1237000    1.0487493   -5.9267818    587.99265  0.039611469   0.04013629            2 
 1238000    1.0206175   -5.9526387    589.20994  0.039661412  0.040125296            5 
 1239000    1.0551153   -5.9429808    587.88459  0.039540261  0.040114328            3 
 1240000    1.0293405   -5.9033519    589.87397  0.039642068  0.040103312            4 
 1241000    1.0654007   -5.9071407    590.13831  0.039627875  0.040092343            6 
 1242000    1.0350156   -5.9486947    587.03483  0.039387737  0.040081307            4 
 1243000    1.0583637   -5.9222486    587.31113  0.039374573  0.040070123            2 
 1244000    1.0615117   -5.9264667     588.0712  0.039393837  0.040059104            3 
 1245000    1.0638976   -5.9436802    589.60241  0.039464686  0.040047762            3 
 1246000    1.0921469   -5.9095299    589.90966  0.039453562  0.040036465            3 
 1247000    1.0858767   -5.9600395    588.13277  0.039303179  0.040025357            7 
 1248000    1.0504581   -5.9254296    591.45834  0.039493746  0.040014051            2 
 1249000    1.0746025   -5.9324167     590.1424  0.039374326  0.040002807            6 
 1250000    1.0512514     -5.93182     590.4321   0.03936214  0.039991521            3 
 1251000    1.0537289   -5.9712837    590.24908  0.039318484  0.039980304            5 
 1252000    1.0421237   -5.9075875    592.62553  0.039445256  0.039969044            3 
 1253000     1.037135   -5.9359172    591.83063  0.039360909   0.03995764            2 
 1254000    1.0310865   -5.9543365    591.51012  0.039308222  0.039946303            3 
 1255000    1.0514139   -5.9396766    591.29527  0.039262634  0.039935052            3 
 1256000    1.0219732   -5.9406112    591.19783  0.039224909  0.039923991            2 
 1257000    1.0170438   -5.9337321    593.45729  0.039343496  0.039913156            3 
 1258000    1.0536272   -5.9459848    592.55997   0.03925278  0.039902029            3 
 1259000    1.0411959   -5.9326448    594.78758  0.039369048  0.039890738            3 
 1260000    1.0611421   -5.9775547    594.75388  0.039335574   0.03987971            4 
 1261000    1.0405882   -5.9478835    593.42551  0.039216595  0.039868673            3 
 1262000    1.0359651   -5.9954901    592.34267  0.039114017  0.039857479            3 
 1263000    1.0345525   -5.9191573     595.6704  0.039302613  0.039846296            4 
 1264000    1.0484575   -5.9204311     593.9821  0.039160212  0.039834934            8 
 1265000    1.0580031   -5.9390649    594.06377  0.039134636  0.039823672            5 
 1266000    1.0547937   -5.9747919    594.36368  0.039123465  0.039812523            3 
 1267000    1.0533866   -5.9928405    593.78415  0.039054469  0.039801049            7 
 1268000    1.0640229   -5.9202819    594.65377  0.039080821  0.039789889            5 
 1269000    1.0422059   -5.9522837    594.44933  0.039036599  0.039778713            2 
 1270000    1.0484482   -5.9920949    594.73559  0.039024645  0.039767438            6 
 1271000    1.0492654   -5.9194372    595.87045  0.039068348   0.03975596            4 
 1272000    1.0592616   -5.9521936    594.90573  0.038974432  0.039744653            5 
 1273000     1.031917   -5.9697412    596.12586  0.039023688  0.039733172            6 
 1274000    1.0327027   -5.9824099    595.65729  0.038962408  0.039721804            4 
 1275000     1.039769   -5.9457368    597.22399  0.039034248   0.03971034            5 
 1276000    1.0246614   -5.9396557    600.74193  0.039233407  0.039699045            3 
 1277000    1.0594207    -5.962564    600.59743  0.039193254   0.03968769            3 
 1278000    1.0445565   -5.9588674    597.59672  0.038966923  0.039676224            5 
 1279000    1.0652863   -5.9355614    599.62318  0.039068489  0.039664973            2 
 1280000    1.0326893   -5.9266291     599.9103   0.03905666  0.039653625            6 
 1281000    1.0558978   -5.9740944    598.33495  0.038923689  0.039642203            2 
 1282000    1.0542317   -5.9105159    602.59794  0.039170433   0.03963064            3 
 1283000    1.0679895   -5.9421541    602.07583   0.03910599  0.039619534            3 
 1284000    1.0557169   -5.9467541    599.60976  0.038915483  0.039608084            2 
 1285000    1.0447718   -5.9467969    599.50884  0.038878654  0.039596676            3 
 1286000     1.058606   -5.9292689    602.28163  0.039028099  0.039585301            5 
 1287000    1.0391077   -5.9694379    600.41791  0.038877098  0.039573785            6 
 1288000     1.041675   -5.9447874    601.06961  0.038889079  0.039562519            1 
 1289000    1.0358143   -5.9425341     604.0538  0.039051836  0.039551564            4 
 1290000     1.037475   -5.9142455    605.31539  0.039103062  0.039540851            3 
 1291000    1.0297255   -5.9558514    602.34624  0.038881115  0.039529944            2 
 1292000    1.0328392   -5.9508798    605.71152   0.03906808  0.039519022            2 
 1293000    1.0405118   -5.9554537    603.73089  0.038910215  0.039508297            5 
 1294000    1.0406314    -5.947228    607.31735  0.039111112  0.039497643            2 
 1295000    1.0328176   -5.9406311    605.13568   0.03894052  0.039486952            2 
 1296000    1.0691517   -5.9399693    605.85012  0.038956412  0.039476287            2 
 1297000    1.0422584   -5.9950427    604.55834  0.038843378  0.039465404            3 
 1298000    1.0389402   -5.9499296    607.07836  0.038975241   0.03945442            4 
 1299000    1.0643095   -5.8997719     609.1214  0.039076302  0.039443749            4 
 1300000    1.0561308   -5.9631199    607.12751   0.03891843  0.039432986            3 
 1301000     1.042627   -5.9724447    605.81754  0.038804608  0.039422164            6 
 1302000    1.0439855   -5.9290799    609.18349  0.038990238   0.03941129            6 
 1303000    1.0281498   -5.9638029    604.66913  0.038671599  0.039400405            4 
 1304000     1.037071   -5.9947587    606.14416  0.038736207  0.039389296            2 
 1305000    1.0565097    -5.921413    609.04429  0.038891717  0.039378374            3 
 1306000    1.0413053   -5.9438351     609.4215  0.038886007  0.039367386            4 
 1307000    1.0361857   -5.9700702    608.19043  0.038777763   0.03935644            3 
 1308000     1.034319   -5.9654683    608.53965  0.038770365   0.03934575            5 
 1309000    1.0523639   -5.9945503    607.55616  0.038678136  0.039335049            3 
 1310000    1.0208513   -5.9650736    609.85529  0.038794866  0.039324059            4 
 1311000    1.0521597   -5.9608985     609.9342   0.03877029  0.039313391            2 
 1312000    1.0363719   -5.9714164    609.44444  0.038709631  0.039302744            3 
 1313000    1.0310372   -5.9512061    610.03323  0.038717519  0.039292022            5 
 1314000    1.0489284   -5.9853542    609.96568   0.03868377  0.039281179            5 
 1315000    1.0209688   -5.9895725    612.40546  0.038808965  0.039270455            8 
 1316000     1.034882    -5.941456    613.48191  0.038847638   0.03925978            4 
 1317000     1.061975   -5.9927406    610.34805  0.038619846  0.039249065            2 
 1318000    1.0363029    -5.976188    611.18404  0.038643402  0.039238145            4 
 1319000    1.0529131   -5.9588462    613.12083  0.038736469  0.039227047            2 
 1320000    1.0455679   -5.9748214    612.98929  0.038698819  0.039216143            4 
 1321000     1.049121   -5.9681254     614.0269   0.03873498   0.03920546            3 
 1322000    1.0153244   -5.9844212    612.19634  0.038590289  0.039194692            7 
 1323000    1.0656525   -5.9746962    613.74195  0.038658475   0.03918392            5 
 1324000    1.0323796   -5.9499378    615.76744  0.038756763  0.039173102            3 
 1325000    1.0503872   -5.9791698    613.03601  0.038555724  0.039162159            3 
 1326000     1.040663   -5.9658698    614.03317  0.038589314  0.039151262            3 
 1327000     1.006579   -5.9589383    615.17444  0.038631904   0.03914018            4 
 1328000    1.0407066    -5.964416    615.16984  0.038602525  0.039129243            5 
 1329000    1.0452145    -5.963442    614.71794  0.038545143  0.039118126            3 
 1330000    1.0556733    -5.974219    612.89068  0.038401671  0.039106855            3 
 1331000    1.0359938    -5.956018    614.74995  0.038489228  0.039095733            3 
 1332000    1.0346087   -5.9601324    615.26036  0.038492265  0.039084407            3 
 1333000    1.0346379   -5.9127393    618.32263  0.038654828  0.039073139            2 
 1334000    1.0294867   -5.9634932    615.33146  0.038438997  0.039061739            9 
 1335000    1.0357776   -5.9739382    613.10343  0.038271125  0.039050285            5 
 1336000    1.0251922   -5.9745231    614.43678  0.038325648  0.039038859            4 
 1337000    1.0566257    -5.983825    614.44007  0.038297187  0.039027195            4 
 1338000      1.03599   -5.9954182    615.46241  0.038332238  0.039015572            4 
 1339000    1.0558399   -5.9255016    617.41902  0.038425381  0.039004137            3 
 1340000    1.0171723   -5.9934951    616.61352  0.038346612  0.038992849            4 
 1341000    1.0252719   -5.9740282     617.3627  0.038364572  0.038981461            2 
 1342000    1.0602883   -5.9401882     616.8597  0.038304751  0.038969901            2 
 1343000     1.063598   -5.9595093    616.98347  0.038283909  0.038958369            6 
 1344000    1.0442924   -5.9987052    617.71163  0.038300572  0.038946834           10 
 1345000    1.0466341   -5.9207881    618.91673  0.038346761  0.038935435            2 
 1346000    1.0191216   -5.9904614    614.64675   0.03805391   0.03892363            5 
 1347000    1.0455166   -5.9983082    616.84484  0.038161645  0.038911532            3 
 1348000    1.0114097   -5.9901102      619.148  0.038275717  0.038899661            4 
 1349000    1.0135863   -5.9783641    617.64719  0.038154633  0.038887873            2 
 1350000    1.0345345   -5.9886587    619.64576  0.038249738  0.038876125            4 
 1351000    1.0208698   -5.9855459     620.1743  0.038254028   0.03886425            3 
 1352000    1.0185213   -5.9621587    619.26197    0.0381695  0.038852393            9 
 1353000     1.047528   -5.9660522    621.21648   0.03826167   0.03884066           11 
 1354000    1.0395822   -6.0018503    619.57813  0.038132578  0.038829042            3 
 1355000    1.0385474   -5.9687719     622.8376  0.038304895    0.0388173            6 
 1356000    1.0475619   -5.9899084    621.57926  0.038199315   0.03880581            3 
 1357000    1.0286207   -5.9870006    620.58478  0.038110094  0.038794116            5 
 1358000    1.0351187   -5.9477044    622.19894  0.038181084  0.038782538            7 
 1359000    1.0579761   -5.9354952    623.63516  0.038241057   0.03877102            5 
 1360000    1.0322012   -5.9816259    622.64577  0.038152314  0.038759718            3 
 1361000    1.0338048   -6.0145186    622.24438  0.038099705   0.03874816            5 
 1362000    1.0405775   -5.9893088    622.23799   0.03807134  0.038736881            6 
 1363000    1.0239332   -5.9845985    622.53231  0.038061403  0.038725419            4 
 1364000    1.0349102   -6.0019726    623.99563    0.0381229  0.038713957            2 
 1365000    1.0317682   -6.0023189    626.34704  0.038238525  0.038702568            4 
 1366000    1.0291428   -5.9793849    625.76367  0.038174943  0.038691264            6 
 1367000    1.0232217   -5.9447346    624.62497  0.038077601  0.038679899            3 
 1368000    1.0479064    -5.962171     623.9527  0.038008814  0.038668558            2 
 1369000    1.0382441   -5.9888602    626.45287   0.03813324  0.038657219            3 
 1370000    1.0285798   -5.9468128    626.55131  0.038111394   0.03864603            5 
 1371000    1.0097423   -6.0338355      622.965  0.037865609  0.038634486            7 
 1372000    1.0392157   -5.9802716    624.08569  0.037906079  0.038623057            3 
 1373000    1.0236163   -5.9800526    626.05505     0.037998  0.038611696            4 
 1374000    1.0204598   -5.9554155    627.18537  0.038038899  0.038600444            6 
 1375000    1.0463504   -6.0160657     625.2545  0.037894212  0.038588686            3 
 1376000    1.0138959   -5.9814987    625.81245  0.037900463  0.038577073            4 
 1377000    1.0247818   -6.0030635    626.75197  0.037929797  0.038565464            3 
 1378000    1.0463898   -5.9820544    626.33088  0.037876807   0.03855376            3 
 1379000     1.024537   -6.0371948    627.31064  0.037908547  0.038542445            2 
 1380000    1.0426171    -6.001642    627.11456  0.037869236  0.038531015            4 
 1381000    1.0526174   -5.9446674    629.64296  0.037994386   0.03851976            4 
 1382000     1.049885   -5.9648136    628.50885  0.037898508  0.038508725            5 
 1383000    1.0165035    -6.000125    630.30041  0.037979055  0.038497807            4 
 1384000     1.055053   -5.9737703    631.39977  0.038017809  0.038486674            4 
 1385000    1.0280044   -6.0335446    629.10516  0.037852296   0.03847546            2 
 1386000    1.0473083   -5.9917729     627.5674  0.037732527  0.038464011            2 
 1387000    1.0364648   -5.9673965    630.45634  0.037878896  0.038452763            2 
 1388000    1.0571209   -5.9713873    630.95552  0.037881575   0.03844133            2 
 1389000    1.0417823   -5.9938972    631.48441  0.037886034  0.038429976            4 
 1390000    1.0251636   -5.9878191    630.19399  0.037781414  0.038418579            4 
 1391000    1.0342318   -5.9948075    629.83425  0.037732701  0.038407191            4 
 1392000   0.99952094   -5.9727876      632.645  0.037873863   0.03839586            4 
 1393000    1.0173562   -6.0107249    632.06874    0.0378122  0.038384543            2 
 1394000    1.0335389   -6.0089379    631.17843  0.037731852  0.038372945            4 
 1395000    1.0228381   -6.0165879    631.40752   0.03771849  0.038361653            3 
 1396000     1.005768   -6.0223182    632.73175   0.03777052  0.038350261            5 
 1397000    1.0335515   -6.0101578    632.92323  0.037754905   0.03833893            3 
 1398000    1.0235878   -6.0098668    634.26458  0.037807855  0.038327684            4 
 1399000    1.0175917   -6.0214541    631.79299  0.037633607  0.038316331            3 
 1400000    1.0297294   -5.9848963     636.1364  0.037865262  0.038304938            1 
 1401000    1.0423912   -5.9488967    636.86188  0.037881387  0.038293817            2 
 1402000    1.0288823   -5.9888624    635.37616  0.037766058  0.038282714            3 
 1403000    1.0466481   -5.9998241    635.19945  0.037728644  0.038271404            4 
 1404000    1.0155842   -5.9927374    634.40715  0.037654745  0.038260066            2 
 1405000    1.0370269   -5.9955297    633.60731  0.037580505  0.038248521            3 
 1406000    1.0253973   -6.0392349    633.75776  0.037562693  0.038236882            2 
 1407000    1.0288485   -5.9844246     635.4737  0.037637628  0.038225068            5 
 1408000    1.0255248   -5.9707521    635.93468   0.03763818   0.03821353            6 
 1409000    1.0367617   -5.9497289    637.07463  0.037678888  0.038201975            4 
 1410000    1.0310944   -5.9852991    635.18821  0.037540674  0.038190309            3 
 1411000    1.0348842   -6.0196328    635.40631   0.03752695  0.038178722            3 
 1412000    1.0149378   -5.9855688    636.98515  0.037593552  0.038167261            2 
 1413000    1.0273735    -5.984623    636.88702  0.037561159   0.03815579            4 
 1414000    1.0297648   -5.9732534    637.74616  0.037585229  0.038144295            3 
 1415000    1.0328514   -5.9900207    637.18909  0.037525859  0.038132737            3 
 1416000    1.0134208   -5.9772322    640.41917  0.037689452  0.038121345            3 
 1417000   0.99847948   -5.9715304    637.25269  0.037476634  0.038110074            3 
 1418000    1.0110664   -5.9942806     637.5746  0.037469123  0.038098673            7 
 1419000    1.0286956   -5.9854322    639.70292  0.037567707  0.038087092            1 
 1420000    1.0088144   -6.0174623    637.03298  0.037384564  0.038075748            4 
 1421000    1.0296675   -5.9973254    637.10804  0.037362658  0.038064246            3 
 1422000    1.0236418   -6.0175957    637.63814  0.037367449  0.038052396            2 
 1423000    1.0154078   -6.0681373    637.29047  0.037320829   0.03804073            2 
 1424000    1.0096047   -5.9681497    638.80616  0.037383319  0.038028661            6 
 1425000    1.0097719   -6.0422935    638.67322  0.037349311  0.038016966            3 
 1426000    1.0243341   -5.9857025    637.81929  0.037273217  0.038005042            7 
 1427000    1.0376192   -5.9927018    640.47872  0.037402401  0.037993016            3 
 1428000    1.0239411   -6.0082556    640.27552  0.037364351  0.037981347           11 
 1429000    1.0192189   -6.0600842    639.82175  0.037311742  0.037969557            2 
 1430000    1.0049658   -6.0210138     639.9145  0.037291055  0.037957722            6 
 1431000    1.0129629   -5.9753503    639.83769  0.037260522  0.037945837            2 
 1432000    1.0262712   -6.0108952    640.09874  0.037249694  0.037933888            2 
 1433000    1.0208765   -5.9965812    638.38878  0.037124261  0.037921854            4 
 1434000    1.0429619   -6.0095659    642.02286  0.037309557  0.037909972            5 
 1435000    1.0268765   -6.0255428    640.94586  0.037221014  0.037898224            5 
 1436000    1.0391753   -5.9790201     643.1069  0.037320502  0.037886559            3 
 1437000    1.0171629   -5.9984853    641.88099  0.037223439  0.037875079           10 
 1438000   0.99484786   -6.0175465    642.30055  0.037221868  0.037863515            3 
 1439000    1.0148783   -6.0169355    641.73564  0.037163287  0.037851749            3 
 1440000     1.011277   -6.0295184    643.10752  0.037216871  0.037840344            2 
 1441000    1.0259128   -6.0447223    643.50055  0.037213772  0.037828401            2 
 1442000    1.0133585   -5.9994205    645.43053  0.037299499  0.037816699            3 
 1443000    1.0151697   -6.0230572    643.04706  0.037136005  0.037804898            5 
 1444000    1.0062709   -6.0311377    642.45805  0.037076296  0.037793068            3 
 1445000    1.0007999   -5.9987141    646.08109  0.037259579  0.037781541            2 
 1446000    1.0043423   -6.0734639    642.30188  0.037016014  0.037769793            2 
 1447000    1.0106267   -6.0196517    646.50938  0.037232745  0.037757905            4 
 1448000    1.0182673   -5.9710022    646.21321  0.037189986  0.037746393            6 
 1449000    1.0275381   -6.0027137    646.67071  0.037190632  0.037734828            1 
 1450000    1.0172731    -6.009492       645.33  0.037087931  0.037723339            4 
 1451000    1.0123508    -6.038728     646.9341  0.037154497   0.03771194            3 
 1452000    1.0226901   -6.0318393    645.69061  0.037057542  0.037700432            3 
 1453000    1.0264903   -6.0288888    647.71864   0.03714835  0.037689021            3 
 1454000    1.0095342   -5.9928188    648.09644  0.037144454  0.037677758            6 
 1455000    1.0125588   -6.0031533    649.30068  0.037187897  0.037666397            5 
 1456000    1.0434293    -6.003892    648.09653  0.037093437  0.037655084            4 
 1457000    1.0265529   -6.0102937    650.43434   0.03720169  0.037643878            7 
 1458000    1.0248995   -6.0015436    648.85864  0.037086113  0.037632464            6 
 1459000    1.0242564    -6.040489    649.62041  0.037104204  0.037621038            5 
 1460000    1.0443005   -6.0293241    649.79279   0.03708863  0.037609707            2 
 1461000    1.0098385   -5.9938832     651.5045  0.037160877  0.037598486            5 
 1462000    1.0351219   -5.9974754    651.72259   0.03714789  0.037587163            3 
 1463000     1.023272   -5.9946919    651.59423  0.037115187  0.037575814            3 
 1464000   0.99743941   -6.0402586    650.97856  0.037054791  0.037564601            5 
 1465000    1.0223525   -6.0182866    650.91747  0.037026022  0.037553494            2 
 1466000     1.005559   -6.0202079    651.29831  0.037022414   0.03754244            5 
 1467000    1.0088163   -6.0067254    652.56969  0.037069398  0.037531177            6 
 1468000   0.98982796   -6.0102511    652.37458  0.037033071  0.037520082            5 
 1469000    1.0072073   -5.9972475    652.14097  0.036994609  0.037508942            4 
 1470000    1.0092417   -6.0204031    652.28171  0.036977421  0.037497694            5 
 1471000    1.0134874    -6.001235    653.24116  0.037006637  0.037486613            8 
 1472000    1.0026432    -6.018086    651.09691  0.036860106   0.03747534            3 
 1473000   0.99420042   -6.0176459    655.18801  0.037066531  0.037464196            3 
 1474000    1.0171095   -6.0332375    653.03073  0.036919421  0.037453179            4 
 1475000    1.0149287   -6.0755631    651.86216  0.036828371  0.037442067            3 
 1476000    1.0032523   -6.0576553    654.32069  0.036942225  0.037430877            5 
 1477000    1.0119836   -6.0592279    651.98208  0.036785267  0.037419636            4 
 1478000    1.0079113   -6.0162782    653.26215  0.036832553  0.037408392            6 
 1479000    1.0121584   -6.0445081    654.25018  0.036863319  0.037397033            3 
 1480000    1.0037565   -6.0352543    654.52983  0.036854157  0.037385604            3 
 1481000    1.0324062   -5.9886596    656.01318  0.036912738  0.037374326            5 
 1482000    1.0005418   -6.0151719    656.21742  0.036899315  0.037363158            3 
 1483000    1.0336323   -6.0324633    656.66344  0.036899497  0.037351859            7 
 1484000     1.005765   -6.0463023    655.26779  0.036796259  0.037340644            8 
 1485000    1.0265055   -6.0436381    653.32288  0.036662339  0.037329176            5 
 1486000    1.0229835     -6.07774    654.03282   0.03667748  0.037317551            5 
 1487000    1.0092936   -6.0483611    656.03452  0.036764992   0.03730626            7 
 1488000    1.0204257   -6.0527461      656.526  0.036767809  0.037294856            4 
 1489000   0.99400863   -6.0286274    657.10971  0.036775784   0.03728359            5 
 1490000    1.0112961   -6.0861972    655.57479  0.036665256  0.037272152            8 
 1491000    1.0243075    -6.043717    657.13606  0.036727926  0.037260859            9 
 1492000    1.0031351   -6.0371582    658.04302  0.036753966  0.037249584            4 
 1493000    1.0310809   -6.0130096    660.21403  0.036850526   0.03723855           10 
 1494000    1.0312975   -6.0234407    661.70794  0.036909189  0.037227541            4 
 1495000    1.0260344   -6.0393131    658.07344  0.036681908  0.037216482            4 
 1496000    1.0152347   -6.0122236     659.5222  0.036738091  0.037205362            2 
 1497000    1.0141585   -6.0348842    658.59026  0.036661671  0.037194107            3 
 1498000   0.99512871   -6.0431595    656.68458  0.036531185   0.03718279            2 
 1499000    1.0056573   -6.1025402    656.94551   0.03652132  0.037171416            3 
 1500000     1.016124   -6.0310427    660.85871  0.036714373  0.037160028            2 
 1501000    1.0119607   -6.0294141    662.01482  0.036754099  0.037148826            3 
 1502000    1.0330043   -6.0515568    661.42028  0.036696642  0.037137779            3 
 1503000    1.0098574   -6.0663581    659.85432  0.036585402  0.037126731            5 
 1504000    1.0088898   -6.0458629    661.51535  0.036653111  0.037115763            4 
 1505000     1.020846   -6.0199494    663.06624  0.036714631  0.037104607            7 
 1506000   0.99413812   -6.0236779    664.48487  0.036768751  0.037093747            5 
 1507000    1.0092237   -6.0069228    663.32684  0.036680316  0.037082699            6 
 1508000    1.0000358    -6.034802    664.32862  0.036711352  0.037071738            3 
 1509000    1.0339176   -6.0557665    665.14461  0.036732086  0.037060945            3 
 1510000    1.0077178   -6.0297922    665.23538  0.036712769  0.037050122            3 
 1511000    1.0218201   -6.0379153    666.08683  0.036735431  0.037039509            5 
 1512000    1.0240111   -6.0227141    665.60785  0.036684736  0.037028758            5 
 1513000    1.0127268   -6.0329213    665.61354  0.036660803  0.037018011            2 
 1514000   0.99947987   -6.0405826    665.25119  0.036616644  0.037007224            3 
 1515000    1.0049121   -6.0229482    668.07196  0.036747632  0.036996598            6 
 1516000     1.010491   -6.0448613     664.6562  0.036535631  0.036985914            3 
 1517000    1.0102776   -5.9993239    667.10971  0.036646325  0.036975351            3 
 1518000    1.0241475   -6.0285095    667.62521  0.036650483  0.036964686            3 
 1519000    1.0116077   -6.0089375    668.93234  0.036698066  0.036953896            5 
 1520000    1.0142044   -6.0662588    665.99707  0.036512997   0.03694314            5 
 1521000    1.0050807   -5.9985174    668.50903  0.036626618  0.036932525            2 
 1522000   0.99718869   -6.0500595    667.86909  0.036567515  0.036921817            3 
 1523000    1.0064987   -6.0812823    668.04158  0.036552943  0.036911165            5 
 1524000    1.0101332   -6.0599725    667.97584  0.036525363  0.036900607            5 
 1525000    1.0256662   -6.0632904    668.52852  0.036531613  0.036889996            3 
 1526000    0.9818352   -6.0394494    668.88985  0.036527406  0.036879415            5 
 1527000    1.0244558    -6.043567    670.37381  0.036584469  0.036868686            3 
 1528000   0.99375105   -6.0566215    669.87503  0.036533324  0.036858121            4 
 1529000    1.0033249   -6.0125693    672.53066  0.036654167  0.036847549            4 
 1530000    1.0043912   -6.0316979     670.7976  0.036535817  0.036837242            3 
 1531000    1.0147629    -6.065113    668.33181  0.036377738   0.03682665            4 
 1532000    1.0182584   -6.0284579    672.36695  0.036573485   0.03681592            5 
 1533000    1.0223122    -6.051854     669.7663  0.036408257  0.036805499            4 
 1534000    1.0102975   -6.0807522     670.7461   0.03643775  0.036794803            3 
 1535000    1.0003391   -6.0457529    671.71756  0.036466752  0.036783998            4 
 1536000   0.98211761   -6.0428078     671.1799   0.03641384  0.036773473            5 
 1537000    1.0208983   -6.0622235    672.92873  0.036484967  0.036762784            3 
 1538000    1.0208481   -6.0835239    669.97831  0.036301382   0.03675216            5 
 1539000    1.0300188   -6.0312154    674.45773  0.036520345  0.036741712            3 
 1540000    1.0025646   -6.0453596    673.57509  0.036448869  0.036731183            4 
 1541000   0.96779451   -6.0935251    672.09378   0.03634511  0.036720535            3 
 1542000    1.0069451   -6.0838735    671.79593  0.036305444  0.036709889            3 
 1543000    1.0158619   -6.0392196     673.5386  0.036376031   0.03669917            3 
 1544000   0.99277259   -6.0382061    674.89361  0.036425605  0.036688589            4 
 1545000    1.0078276   -6.0378013    675.25654  0.036421604  0.036677948            4 
 1546000    1.0265386   -6.0435751    676.41623  0.036460556  0.036667537            3 
 1547000    1.0165116   -6.0672195    673.31323  0.036269836  0.036657027            4 
 1548000    1.0340102   -6.0729422     676.5574  0.036421049  0.036646461            6 
 1549000   0.99852359   -6.0759082    675.16212  0.036322473  0.036635609            2 
 1550000   0.98978275   -6.0468967    676.48679  0.036370257  0.036624951            3 
 1551000   0.99817541   -6.0039169     676.2768  0.036335525  0.036614344            5 
 1552000    1.0012856   -6.0269317    674.65863  0.036225227  0.036603864            5 
 1553000   0.97946794   -6.0643153    675.82235  0.036264346  0.036593252            3 
 1554000   0.99634905    -6.040617    676.69823  0.036287979  0.036582588            2 
 1555000    0.9882564   -6.0577764    675.40357  0.036195261  0.036571786            5 
 1556000    1.0100774   -6.0636953    673.93055   0.03609311  0.036560865            6 
 1557000   0.99242359    -6.083272    675.19901  0.036137819  0.036549951            3 
 1558000   0.96873311   -6.0287415    676.74215  0.036197162  0.036539179            8 
 1559000   0.99312205   -6.0736405    676.17302  0.036143523  0.036528454            3 
 1560000    1.0309556   -6.0342006     677.2099  0.036175743  0.036517751            5 
 1561000    1.0158545    -6.062708    675.88101  0.036081625  0.036507009            5 
 1562000   0.99734624   -6.0611041    674.81072  0.036001426  0.036496211            4 
 1563000    1.0159704   -6.0520129    676.39882  0.036063064  0.036485165            3 
 1564000     1.006247   -6.0639926    677.03031  0.036073652  0.036474161            4 
 1565000   0.99918924   -6.0620164    675.25132  0.035955874  0.036463087            3 
 1566000    1.0209997    -6.048596    678.65163  0.036113859  0.036452076            6 
 1567000    0.9906771   -6.0503282    677.53353  0.036031351   0.03644136            3 
 1568000     1.030026   -6.0822288    679.10545  0.036091914  0.036430603            4 
 1569000    1.0118446   -5.9774634    681.99622  0.036222446  0.036419721            4 
 1570000     1.010388   -6.0815853    678.68462    0.0360236  0.036408997            3 
 1571000    1.0013079   -6.1055919    677.30975   0.03592774  0.036397984            3 
 1572000   0.99700937    -6.059496    679.02139  0.035995621  0.036387099            5 
 1573000   0.99245126   -6.0534477    680.54058   0.03605322  0.036376294            3 
 1574000    1.0052509   -6.0440293    679.81373  0.035991832  0.036365483            7 
 1575000   0.98398562   -6.0622896    679.65734  0.035960706  0.036354769            2 
 1576000    1.0032046   -6.0441995    681.28996  0.036024215  0.036344014            5 
 1577000   0.97321321   -6.0630067     681.7067  0.036023393  0.036333316            8 
 1578000    1.0160293   -6.0188834    683.89775  0.036116273  0.036322526            3 
 1579000   0.99187431   -6.0278061    681.95289  0.035990758  0.036311736            3 
 1580000   0.99978901   -6.0956412    681.37052  0.035937264  0.036300871            2 
 1581000   0.98529667   -6.0618007    681.08587  0.035899529  0.036290031            5 
 1582000   0.97880199   -6.0414286    682.36003  0.035943954  0.036279469            2 
 1583000   0.99436737   -6.0643939    683.09052  0.035959703  0.036268692            4 
 1584000    1.0061883   -6.0498265     683.4501  0.035955919  0.036257959            3 
 1585000   0.99341201   -6.0788828    684.42146  0.035984304  0.036247238            3 
 1586000   0.97938613   -6.0869384    680.96249   0.03577987  0.036236375            3 
 1587000    1.0070235   -6.0635337    683.40603  0.035885635  0.036225516            7 
 1588000    1.0147492    -6.082395    685.72179  0.035984561  0.036214663            5 
 1589000   0.99396665   -6.0513081    683.92227  0.035867541   0.03620387            3 
 1590000    0.9872196   -6.0463474    685.06157  0.035904694   0.03619292            2 
 1591000   0.97124209   -6.0460908     687.1243  0.035990169  0.036182164            5 
 1592000   0.99772972   -6.0495978    687.64323  0.035994725  0.036171425            8 
 1593000   0.99559257   -6.0313189    686.61046  0.035918103  0.036160856            3 
 1594000   0.99419924    -6.039976     686.3431  0.035881593  0.036150313            5 
 1595000    1.0006795   -6.1017454    683.17508  0.035693578  0.036139593            4 
 1596000   0.98429007   -6.0998187    684.48067  0.035739383  0.036128869            4 
 1597000   0.97636235   -6.0691386     686.4627  0.035820429  0.036118056            2 
 1598000   0.98486368   -6.0896432     684.6956  0.035705862  0.036107514            6 
 1599000   0.98766672   -6.0585571    687.39588  0.035824259  0.036097031            5 
 1600000   0.99099992   -6.0761461    687.15667   0.03578941  0.036086275            3 
 1601000   0.98347185   -6.0347186     689.6252  0.035895544   0.03607542            5 
 1602000   0.99525302   -6.0395574      687.948  0.035785893  0.036064628            4 
 1603000     0.991651   -6.0853708    688.68641  0.035801955  0.036054061            6 
 1604000   0.99087317   -6.0526334    691.55927   0.03592889  0.036043659            5 
 1605000    1.0102061   -6.1188014     687.1964  0.035679979  0.036033257           10 
 1606000   0.99946693   -6.1096351    686.76697   0.03563548   0.03602288            4 
 1607000   0.97509643   -6.0728967     687.6945  0.035661403  0.036012323            6 
 1608000    0.9943276   -6.0705661    690.88062  0.035804344  0.036001844            4 
 1609000   0.99082428   -6.0594205    692.26729   0.03585391  0.035991495            6 
 1610000    1.0049766    -6.029237    691.74921  0.035804825   0.03598129            6 
 1611000    0.9693912   -6.0403139    691.22356  0.035755408  0.035971126            2 
 1612000   0.99045824   -6.0712172    691.51353  0.035748218  0.035960913            3 
 1613000    1.0081073   -6.0636265    692.87185  0.035796231  0.035950809            3 
 1614000   0.96620985   -6.1022034    692.17773  0.035738214  0.035940718            3 
 1615000   0.99205512    -6.070887    692.71077   0.03574359  0.035930546            3 
 1616000   0.99994192   -6.0922915    694.40196  0.035808682  0.035920494            2 
 1617000   0.97538787   -6.0630696     694.6659  0.035800139  0.035910593            4 
 1618000   0.97906915   -6.0553904    693.08136  0.035696403  0.035900591            3 
 1619000    1.0096204   -6.0231677    696.17499   0.03583359  0.035890773            3 
 1620000   0.98935077   -6.0691932     696.7896  0.035843087  0.035880891            3 
 1621000   0.98869263   -6.0469461    696.35398   0.03579858  0.035871045            3 
 1622000   0.96625351   -6.1188486    696.12213  0.035764598  0.035861272            8 
 1623000   0.98915142   -6.0767969    698.39076  0.035859045  0.035851383            4 
 1624000   0.98437236   -6.0724787    697.50235  0.035791377  0.035841761            5 
 1625000    1.0035874   -6.0362988    697.20547  0.035754127  0.035832051            4 
 1626000   0.97741806   -6.0746093    697.56312  0.035750468   0.03582227            3 
 1627000    1.0014466   -6.0881054    698.03739  0.035752786  0.035812532            5 
 1628000   0.97408073   -6.0573795    697.71382  0.035714262  0.035802983            2 
 1629000     1.002129   -6.0545968     701.3294  0.035877297   0.03579357           10 
 1630000   0.99917544   -6.0540233    702.16952  0.035898237  0.035784156            2 
 1631000   0.98118759   -6.0742992    701.08688  0.035820911  0.035774708            7 
 1632000    0.9992128   -6.0554208     702.1091  0.035851159  0.035765402            4 
 1633000   0.97731147   -6.1318518    700.25119  0.035734394  0.035756036            4 
 1634000    1.0002679   -6.0943519    701.03624  0.035752562  0.035746585            5 
 1635000   0.97876816   -6.0921462    701.88817  0.035774117  0.035737112            4 
 1636000   0.97439473   -6.0797234     703.0047  0.035809123  0.035727847            5 
 1637000   0.98870089   -6.0816653    703.76734  0.035826071  0.035718645            1 
 1638000    0.9987641    -6.123321    701.09282  0.035668133  0.035709269            4 
 1639000   0.97921373   -6.0774454    702.21105  0.035703226  0.035699995            4 
 1640000     1.003076   -6.1124745     700.5121  0.035595127  0.035690706            3 
 1641000    0.9822159   -6.1063933    702.73302  0.035686219  0.035681403            2 
 1642000    1.0041377   -6.1307433    704.58813  0.035758634  0.035671972            5 
 1643000   0.97483043     -6.05697    704.93033  0.035754227  0.035662759            6 
 1644000   0.97414597   -6.1050064    703.68726  0.035669468  0.035653504            5 
 1645000   0.98692081   -6.0835618    704.53993  0.035690979  0.035643959            7 
 1646000   0.97835003   -6.0648388    704.43325  0.035663895  0.035634582            7 
 1647000   0.98906222   -6.0703389    704.24919  0.035632928  0.035625223            4 
 1648000   0.99389645   -6.0629201    706.46852  0.035723529  0.035615987            4 
 1649000    0.9853736   -6.0461912    705.04916  0.035630137  0.035606718            6 
 1650000   0.99052235   -6.1028168    705.42672  0.035627612  0.035597577            6 
 1651000   0.97760286   -6.0997008    705.78126  0.035623928  0.035588185            6 
 1652000   0.99266428   -6.1123543    706.71735  0.035649584  0.035578939            5 
 1653000   0.98793649   -6.1219562    704.87209  0.035534991  0.035569596            8 
 1654000   0.98603956   -6.0685686    708.32637  0.035687544  0.035560533            2 
 1655000    1.0061566   -6.0769619    708.47035   0.03567323  0.035551583            5 
 1656000   0.98273872   -6.1114329    707.44136  0.035599908  0.035542349            5 
 1657000   0.97552036   -6.1107889    708.75188  0.035644331  0.035533259            3 
 1658000   0.98993909   -6.1232809    709.09079  0.035639867  0.035524202            4 
 1659000    0.9988112   -6.0779226    711.78865    0.0357539  0.035515153            3 
 1660000   0.99797789    -6.121013    708.62177  0.035573382  0.035506357            3 
 1661000   0.97917796   -6.0845465    711.59441  0.035701104   0.03549738           11 
 1662000   0.99991824   -6.0639434    712.14028  0.035706993  0.035488548            5 
 1663000   0.97234666   -6.1203446    709.09422  0.035532883  0.035479337            4 
 1664000   0.98285738   -6.1166202    709.32968  0.035523321  0.035470183            2 
 1665000   0.98796563   -6.1202744    710.47189  0.035559154  0.035461109            5 
 1666000   0.98249398   -6.1015027    709.87908  0.035508157  0.035452029            6 
 1667000   0.96735287   -6.0671022    711.04763  0.035545273  0.035443048            3 
 1668000    0.9817398   -6.0760265    710.88072  0.035515623   0.03543408            3 
 1669000   0.98952398   -6.0817009    712.72203  0.035586281  0.035424974            4 
 1670000   0.96992148   -6.0989461     710.5776  0.035457964   0.03541586            4 
 1671000   0.95765178   -6.0831913    712.35063  0.035525166  0.035406823            2 
 1672000   0.97039796   -6.1033108    715.20043  0.035645954  0.035397911            5 
 1673000   0.97485621   -6.0390773    715.07122  0.035618212  0.035388966            5 
 1674000   0.95393834   -6.1050544    714.23298  0.035555206  0.035380204            4 
 1675000    1.0247076   -6.0956444    715.23897  0.035584028  0.035371293            5 
 1676000   0.98507247   -6.1297398     712.1223  0.035407831  0.035362423           16 
 1677000   0.98224014   -6.1144597    715.57956  0.035558515  0.035353521            3 
 1678000   0.96800099   -6.1061265    714.74918  0.035496086   0.03534451            4 
 1679000   0.99202026   -6.1070708    715.04177  0.035489467  0.035335631            4 
 1680000   0.99595476   -6.0843489     714.3804  0.035435536  0.035326715            5 
 1681000   0.97902341    -6.082594    716.76502   0.03553267  0.035317933            3 
 1682000   0.98912074     -6.10889    715.20182  0.035434097  0.035309053            3 
 1683000    0.9866462    -6.078714    717.92269  0.035547766  0.035300241            4 
 1684000   0.98425514   -6.0979276    718.11662  0.035536254  0.035291333            7 
 1685000   0.97903754   -6.0930171    716.16053  0.035418424  0.035282745            4 
 1686000   0.96630667   -6.0877127    718.11279   0.03549391  0.035274093            3 
 1687000   0.97308289   -6.0878519    718.56477  0.035495197  0.035265244            6 
 1688000   0.98012536   -6.1105344    716.42422  0.035368494  0.035256594            5 
 1689000   0.97297063   -6.1178163    717.09435  0.035380617  0.035247873            5 
 1690000   0.99541688   -6.1087591    717.92229  0.035400507  0.035239058            8 
 1691000   0.99292932   -6.0697024    720.50463  0.035506832  0.035230463            4 
 1692000   0.99153836   -6.0801194    719.89936  0.035456036  0.035221837            3 
 1693000   0.99264395   -6.0830895    720.92787  0.035485719  0.035213471            2 
 1694000    0.9973145   -6.0891054    721.22086  0.035479184  0.035205013            3 
 1695000   0.97175468    -6.116044     721.5236  0.035473137  0.035196354            4 
 1696000   0.97728315   -6.0948393     719.7623  0.035365679  0.035187497            4 
 1697000   0.99939824   -6.0812803    721.03377  0.035407276  0.035178825            4 
 1698000   0.97931361   -6.0945751    719.31866  0.035302251  0.035170109            4 
 1699000   0.97114792     -6.14707    717.13253  0.035174246  0.035161023            4 
 1700000   0.96143752   -6.1219444    717.94554  0.035193409  0.035152032            5 
 1701000   0.97869244   -6.0984264    722.01825  0.035372244   0.03514309            7 
 1702000   0.96701242    -6.118932    720.59769  0.035281908   0.03513424            5 
 1703000   0.96849524    -6.088741    723.66156  0.035411116  0.035125462            3 
 1704000   0.96768931   -6.1219877    722.43334  0.035330269  0.035116857            5 
 1705000   0.97277818   -6.1085973    723.60545  0.035366835  0.035108119            2 
 1706000   0.99478927   -6.1397839     723.2941  0.035330896  0.035099476            4 
 1707000   0.98733921   -6.1230373    724.04841  0.035347022  0.035090774            4 
 1708000   0.96474462   -6.1049622    723.42814  0.035296065  0.035082013            7 
 1709000   0.98842748   -6.1025323    724.60333  0.035332715  0.035073363            3 
 1710000   0.97115765   -6.1285699    721.14488  0.035143513  0.035064655            4 
 1711000   0.98181506   -6.1202225    722.10586  0.035169777   0.03505559            6 
 1712000   0.97320223   -6.1011199    724.78056  0.035279427  0.035046728            2 
 1713000   0.96683253   -6.1333714     722.6982   0.03515753  0.035037825            6 
 1714000   0.99009093   -6.1268176    723.67211  0.035184369  0.035028992            7 
 1715000    0.9874994    -6.146832    723.05943  0.035134083  0.035020215            5 
 1716000   0.99393377   -6.0934392    725.87712  0.035250443  0.035011578            6 
 1717000   0.96197404   -6.1364028    723.96459  0.035137089  0.035002835            6 
 1718000   0.97340064   -6.1170538    725.46332  0.035189335   0.03499405            5 
 1719000   0.98583662   -6.1436354    725.84142  0.035187193  0.034985507            3 
 1720000   0.97779174   -6.1361032    727.72315  0.035257905  0.034977053            4 
 1721000   0.98429517    -6.135338    726.66618  0.035186238  0.034968522            6 
 1722000    0.9830932   -6.1195641    728.77086  0.035267657   0.03495987            9 
 1723000   0.97158638   -6.0904329    728.20967  0.035220046  0.034951412            3 
 1724000   0.99598096    -6.102752    727.69868  0.035174917  0.034942799            4 
 1725000   0.96719843   -6.1046428    727.78835  0.035158858  0.034934128            4 
 1726000   0.99074867   -6.1225876    726.81008  0.035091255  0.034925361            3 
 1727000   0.97483754   -6.1600453    725.55864   0.03501055  0.034916717            4 
 1728000   0.97311554   -6.1070089    729.15961  0.035163947  0.034908048            2 
 1729000   0.96381949   -6.1470431    727.76466  0.035076376  0.034899518            8 
 1730000   0.99319848   -6.0972877    729.00812  0.035115998  0.034891011            3 
 1731000   0.99757388   -6.1191503    730.49655  0.035167367  0.034882451            4 
 1732000   0.98688775   -6.1182017    728.47161  0.035049635  0.034874023            3 
 1733000   0.99093956   -6.1081534    728.57559   0.03503441  0.034865554            5 
 1734000   0.98711768   -6.1009347    732.03477  0.035180448    0.0348571            3 
 1735000    0.9700736   -6.1030301    731.57556  0.035138115  0.034848803            4 
 1736000   0.97686302   -6.1441219    731.65988  0.035121922  0.034840508            2 
 1737000   0.95175557   -6.1143861    732.33838  0.035134253  0.034832094            2 
 1738000   0.96053943   -6.1413519    730.45274  0.035023626  0.034823432            4 
 1739000   0.98022017   -6.0958465     732.8549  0.035118598   0.03481492            6 
 1740000    0.9658308   -6.1165324    730.99247  0.035009218  0.034806465            3 
 1741000   0.96311443   -6.1249585    731.69367  0.035022672  0.034797978            4 
 1742000   0.96173701   -6.1220396    736.71424   0.03524274  0.034789464            4 
 1743000   0.95725316    -6.129657    734.73666  0.035127972  0.034781109            3 
 1744000   0.96870043   -6.1374682    732.50201  0.035001052  0.034772555            3 
 1745000   0.97224209   -6.1219996    736.71593  0.035182231  0.034763993            6 
 1746000   0.97940884   -6.1216575    734.08231  0.035036384  0.034755522            5 
 1747000    0.9719376   -6.1279452    734.59702  0.035040881  0.034747212            2 
 1748000   0.95935207   -6.1291416    733.80954  0.034983293  0.034738838            3 
 1749000   0.97660698   -6.1702231    733.38622  0.034943121  0.034730301            3 
 1750000    0.9734945   -6.1266184    734.83746   0.03499226   0.03472171            5 
 1751000   0.95162255   -6.1324121    734.69658  0.034965571  0.034713249            5 
 1752000   0.95368526   -6.1392048    734.14966  0.034919599  0.034704838            3 
 1753000   0.95871329   -6.1575538    736.42298  0.035007748  0.034696371            6 
 1754000   0.96279006   -6.0975933    736.28605  0.034981283  0.034687938            6 
 1755000   0.97725149   -6.1487363    735.74967  0.034935882  0.034679449            6 
 1756000   0.96952042   -6.1338184    735.61133  0.034909421  0.034670968            3 
 1757000   0.97346538   -6.1167119    738.78936  0.035040284  0.034662609            3 
 1758000   0.94805321   -6.1459606    735.45381   0.03486224  0.034654247            4 
 1759000   0.95303029   -6.1188174    737.49066  0.034938917  0.034645865            4 
 1760000   0.95548261   -6.1518149    737.30578  0.034910312  0.034637407            4 
 1761000   0.96327916   -6.1331785    739.08145  0.034974515  0.034628863            3 
 1762000   0.94977528   -6.1342524    740.04885  0.035000418  0.034620452            9 
 1763000   0.97922342   -6.1331839    737.61093   0.03486533  0.034612094            4 
 1764000   0.94585163   -6.1302231    738.61833  0.034893156  0.034603638            4 
 1765000   0.98632566   -6.1409616     741.1728  0.034993994  0.034595169           11 
 1766000   0.94804993   -6.1510619    737.00615  0.034777565  0.034586709           11 
 1767000   0.96591979   -6.1764397    735.65577  0.034694198  0.034578179            7 
 1768000   0.97393537   -6.1341461     740.9378  0.034923539  0.034569611            4 
 1769000   0.96444085   -6.1532145    737.23529   0.03472938  0.034561084            3 
 1770000   0.97416642    -6.131491    742.27905  0.034947225  0.034552668            4 
 1771000   0.96048184   -6.1541295    739.91922  0.034816451  0.034544259            3 
 1772000   0.95077688   -6.1482303    737.33626  0.034675332  0.034535665            4 
 1773000     0.988284   -6.1444461    742.29967  0.034889061  0.034527025            5 
 1774000    1.0001423   -6.1611869    739.16791  0.034722281  0.034518532            2 
 1775000   0.98673687   -6.1436188    739.77689  0.034731309  0.034509936            7 
 1776000   0.95685139   -6.1567533    738.36783  0.034645638  0.034501251            5 
 1777000   0.96783032   -6.1235946    742.58996   0.03482414  0.034492914            6 
 1778000   0.95819704   -6.1489721    742.46612  0.034798749  0.034484502            3 
 1779000   0.97775612   -6.1548986    741.63015  0.034740029  0.034476049            4 
 1780000   0.97749537   -6.1254372    742.25018   0.03474954  0.034467583            6 
 1781000   0.97023893   -6.1625184    742.00356   0.03471849  0.034459041            5 
 1782000   0.96132864   -6.1599161    740.32096  0.034620322  0.034450429            4 
 1783000   0.95998396   -6.1649864    740.69922  0.034618584  0.034441928            3 
 1784000   0.95618706   -6.1336797    744.69998   0.03478606  0.034433495            4 
 1785000     0.964397   -6.1695226     743.9313  0.034730686  0.034424864            6 
 1786000    0.9723001   -6.1637561    742.68022  0.034652866  0.034416133            4 
 1787000   0.96697007    -6.162739    741.81321  0.034593043  0.034407576            2 
 1788000   0.96191978   -6.1629697    743.51924  0.034653208  0.034398989            3 
 1789000   0.95830424   -6.1676114    741.83263  0.034555274  0.034390307            5 
 1790000   0.97774025   -6.1540115    742.32099  0.034558705  0.034381743            6 
 1791000   0.95910095   -6.1601723    744.84864  0.034657018  0.034373012            7 
 1792000   0.96308048   -6.1074165    744.64742  0.034628321  0.034364495            9 
 1793000   0.94510338    -6.152441    744.54095   0.03460406  0.034356048            9 
 1794000   0.95715835   -6.1455824    746.09297  0.034656864  0.034347706            4 
 1795000   0.97686137   -6.1415188    745.80277  0.034624084  0.034339272            6 
 1796000   0.94977834    -6.170382     742.3845    0.0344462  0.034330635            7 
 1797000    0.9656126   -6.1647694    745.22362  0.034558691  0.034322215            5 
 1798000   0.96748517   -6.1294401    747.45474  0.034642878  0.034313671            4 
 1799000   0.96265359   -6.1345484     746.3172  0.034570928  0.034305049            5 
 1800000   0.95246097   -6.1844274    745.19538  0.034499786  0.034296318            5 
 1801000   0.96211984   -6.1336448    746.32811  0.034533042  0.034287531            2 
 1802000   0.96515474   -6.1512485    744.37703  0.034423651  0.034278682            2 
 1803000   0.96270751   -6.1201988    746.18472  0.034488109  0.034269909            4 
 1804000   0.98359342   -6.1322572    745.31066  0.034428615  0.034261201            4 
 1805000   0.96825743    -6.131329    745.63801  0.034424654  0.034252682            4 
 1806000   0.96879556   -6.1553747    747.96022  0.034512745  0.034243987            4 
 1807000   0.98380454   -6.1711078    747.73533  0.034483275  0.034235357            3 
 1808000   0.94776438   -6.1677844    746.44414   0.03440469  0.034226555            5 
 1809000   0.94724954   -6.1595479    743.43335  0.034246976  0.034217724            4 
 1810000   0.94641853   -6.1755686    745.87622  0.034340526   0.03420901            4 
 1811000   0.95853877   -6.1231752    749.09905  0.034469863  0.034200185            4 
 1812000   0.96710018   -6.1809733    746.82683   0.03434634  0.034191372            4 
 1813000   0.96454254   -6.1999204     743.8664  0.034191322  0.034182452            4 
 1814000    0.9450049   -6.1597624    746.36842  0.034287414  0.034173599            6 
 1815000   0.96664285   -6.1243525     750.6418  0.034464729  0.034164853            2 
 1816000   0.96073578   -6.1810978    747.92461  0.034321063  0.034156137            8 
 1817000   0.96309283   -6.1496334    749.85726  0.034390812  0.034147478            5 
 1818000    0.9710846   -6.1507457    751.31627  0.034438773  0.034138774            4 
 1819000    0.9497009   -6.1577509    748.74683  0.034302127  0.034130232            6 
 1820000   0.96194626    -6.135189    748.71298   0.03428173  0.034121632            4 
 1821000   0.96103612   -6.1424455    753.06225  0.034461937  0.034112943            3 
 1822000   0.97344959   -6.1482731     751.1646  0.034356229  0.034104349            3 
 1823000    0.9526395   -6.1522453    751.66224  0.034360132  0.034095586            7 
 1824000   0.96241657   -6.1855595    751.44117  0.034331194  0.034086969            3 
 1825000   0.95472072   -6.1543514    751.98353  0.034337148  0.034078332            2 
 1826000   0.97155897   -6.1816468     750.1217  0.034233374  0.034069835           13 
 1827000   0.93447284   -6.1460101    756.35266  0.034498844  0.034061143            4 
 1828000   0.95557714   -6.1626617    752.25808  0.034293312  0.034052654            5 
 1829000   0.95653455   -6.1485634    752.00097  0.034262847  0.034044059            2 
 1830000    0.9653419   -6.1557861    752.62695   0.03427263  0.034035615            5 
 1831000   0.97241111   -6.1649756    754.84807     0.034355   0.03402714            4 
 1832000   0.94900136   -6.1504794    757.36393  0.034450688  0.034018625            7 
 1833000   0.95729986   -6.1664909    755.00774  0.034324775  0.034010221            3 
 1834000    0.9623217   -6.1608108    754.13485  0.034266396  0.034001762            5 
 1835000   0.96008942   -6.1346135     756.9843  0.034377125  0.033993475            4 
 1836000   0.95313106   -6.1586876    754.71439  0.034255373  0.033985264            4 
 1837000   0.97778187   -6.1380633    755.65998  0.034279622  0.033977014            2 
 1838000   0.97047112   -6.1378186    758.07384  0.034370413  0.033968826            4 
 1839000   0.96107551   -6.1554674     756.7056  0.034289723  0.033960601            4 
 1840000   0.96622787   -6.1784912    755.74079  0.034227391  0.033952387            6 
 1841000    0.9674973   -6.1944663    755.40352  0.034193532  0.033943982            2 
 1842000   0.95479664   -6.1877051    758.24695  0.034303608  0.033935581           11 
 1843000   0.95484989   -6.1614509    757.01082  0.034229102  0.033927165            2 
 1844000   0.95291108   -6.1892452    754.37798  0.034091557  0.033918851            5 
 1845000   0.96668021   -6.1812089    757.09099  0.034195618  0.033910593            3 
 1846000   0.94736329   -6.1571315    758.08818   0.03422211  0.033902162            4 
 1847000   0.95270463   -6.1947171    757.57583  0.034180465  0.033893928            4 
 1848000   0.96094273   -6.1911876    756.13612  0.034097047  0.033885708           10 
 1849000   0.93906506   -6.1775405    758.31341  0.034176736  0.033877285            4 
 1850000   0.96619236    -6.154451    759.78168    0.0342244  0.033869044            4 
 1851000   0.94551388   -6.1707767    760.67217  0.034246001  0.033860656            8 
 1852000   0.94867611   -6.1518275    760.27089  0.034209453  0.033852521            8 
 1853000   0.95150846   -6.1602735    759.38648  0.034151218  0.033844439            5 
 1854000   0.95421973   -6.1603072    761.52947   0.03422912  0.033836327            3 
 1855000   0.95619081   -6.1533799    758.10451  0.034056806  0.033828209            2 
 1856000   0.96138569   -6.1553637    760.77612   0.03415841   0.03382015            5 
 1857000   0.93565613   -6.1362517    761.02907  0.034151367  0.033812089            7 
 1858000   0.96245281   -6.1462798    763.24921  0.034232562  0.033804101            3 
 1859000   0.92413616   -6.1624345    761.42731  0.034132477   0.03379608            2 
 1860000   0.94514562   -6.1864244    761.97915  0.034138851  0.033787875            3 
 1861000   0.93485605   -6.1746204     762.4017  0.034139428  0.033779777            9 
 1862000   0.95520036   -6.1520063    764.95294  0.034235273  0.033771669            7 
 1863000    0.9542659   -6.1801735    763.40823  0.034147801  0.033763639            6 
 1864000   0.95572513    -6.158362    764.10552  0.034160654   0.03375556            7 
 1865000   0.94085351   -6.1445613    764.85871  0.034175992  0.033747415            4 
 1866000   0.97855382   -6.1596076     766.2231  0.034218609  0.033739397            5 
 1867000   0.96372757    -6.148409    766.51881   0.03421348  0.033731208            2 
 1868000   0.95720857   -6.1498207    766.64548  0.034200815  0.033723189            2 
 1869000   0.94643265   -6.1621172    766.20581  0.034162913  0.033715234            4 
 1870000   0.97329725   -6.1858256    765.96451  0.034133891  0.033707113            6 
 1871000   0.96767213   -6.1817515    764.41938  0.034046828  0.033699028            4 
 1872000   0.94292185    -6.167501    766.50834  0.034121632  0.033690937            7 
 1873000   0.96099778   -6.1621839    767.21296  0.034134764  0.033682814            6 
 1874000   0.93727725   -6.1187608    767.54589  0.034131354  0.033674795            3 
 1875000   0.94346464   -6.1678518    766.03107  0.034045825  0.033666902            4 
 1876000     0.960696   -6.1690384    767.11554   0.03407585   0.03365876            3 
 1877000   0.93746353   -6.1577296    766.59544  0.034034605  0.033650665            4 
 1878000   0.93171586   -6.1956765    765.44546  0.033965453  0.033642541           12 
 1879000   0.96906668   -6.1191334    768.31566   0.03407467  0.033634429            2 
 1880000   0.97422134   -6.1892441    766.47182  0.033974815  0.033626455            4 
 1881000   0.95053025   -6.1498493    767.98322  0.034023712  0.033618528            9 
 1882000   0.94256327   -6.1916069    768.53767  0.034030184  0.033610503            3 
 1883000   0.95467603   -6.1881515    766.60349  0.033926513  0.033602445            3 
 1884000   0.97263799   -6.1435535    770.48915  0.034080376  0.033594421            4 
 1885000   0.93720773   -6.1711794    770.14579  0.034047117  0.033586369            7 
 1886000   0.93771939   -6.1890054     768.3809  0.033951082  0.033578119            8 
 1887000   0.95455916    -6.154838     770.0575  0.034007132  0.033570086            4 
 1888000   0.96293158   -6.1823118    768.18401  0.033906427  0.033562114            5 
 1889000    0.9598088    -6.187439    767.06959  0.033839315  0.033553972            4 
 1890000   0.92918369   -6.2054857    768.74336   0.03389521   0.03354582            4 
 1891000   0.94442756   -6.2234796    768.44339  0.033864066  0.033537633            2 
 1892000   0.95687042   -6.2189746    767.65076  0.033811256  0.033529622            4 
 1893000   0.95702033   -6.1788863    771.25482  0.033952052   0.03352169            4 
 1894000   0.94287963   -6.1801838    769.17733   0.03384272  0.033513679            4 
 1895000   0.95176889   -6.1695856    771.07441  0.033908285   0.03350579            5 
 1896000   0.93815274   -6.1957409     774.6209  0.034046277  0.033497984            5 
 1897000   0.94041329   -6.1917699    771.95055  0.033911024  0.033489997            6 
 1898000   0.95374068    -6.186569    772.06367  0.033898124  0.033482143            5 
 1899000   0.91667688   -6.1416994    775.15156  0.034015778  0.033474393            3 
 1900000   0.92810577   -6.1973659    771.87109  0.033853995  0.033466714           10 
 1901000   0.94245232   -6.1735619    775.50344  0.033995417  0.033458883            4 
 1902000     0.964409   -6.1641221    775.90422  0.033995103  0.033451212            4 
 1903000   0.94202917   -6.2045931    774.54726  0.033917817   0.03344351            4 
 1904000   0.93342503   -6.2039003    773.89638  0.033871515   0.03343581           11 
 1905000    0.9582545   -6.1554146    775.69564  0.033932443  0.033428056            3 
 1906000   0.94172876   -6.1981353    775.01849  0.033885034  0.033420293            8 
 1907000   0.94956425   -6.1928712    774.78141  0.033856905   0.03341243            7 
 1908000   0.93934854   -6.1861364    775.06041  0.033851346  0.033404614            2 
 1909000   0.94033592   -6.1681174    773.66197  0.033772567  0.033396799            4 
 1910000   0.95553554    -6.197778    776.07419   0.03386013  0.033388887            4 
 1911000    0.9351022    -6.207135    778.06626  0.033929281  0.033380958            6 
 1912000    0.9418834   -6.1876715    775.91317  0.033817694   0.03337315            4 
 1913000   0.95231407   -6.1956062    776.19535  0.033812308  0.033365327            9 
 1914000    0.9433282    -6.164326    776.91925   0.03382616  0.033357437            7 
 1915000   0.93287952   -6.1820917    776.96838  0.033810635  0.033349677            7 
 1916000    0.9609258   -6.2370741    775.95869  0.033749073  0.033341852            4 
 1917000   0.92243898   -6.1987722    778.49545  0.033841743  0.033333992            6 
 1918000   0.95752571   -6.1821436    778.22924  0.033812532  0.033326205            5 
 1919000   0.95453122   -6.1910956    778.98147  0.033827578  0.033318322            9 
 1920000   0.96083684   -6.2057491    777.57417  0.033748879  0.033310519            7 
 1921000    0.9485907    -6.221295    777.18992  0.033714642  0.033302736            7 
 1922000   0.93216124   -6.2159481    775.51124  0.033624317  0.033294822            7 
 1923000   0.92971883     -6.20513    778.34586   0.03372967  0.033286953            5 
 1924000   0.94632312   -6.1885485    779.45228   0.03376006  0.033279245            7 
 1925000   0.94979354   -6.1818133    779.18279  0.033730857  0.033271634            4 
 1926000   0.94679811   -6.2165396    778.28398  0.033674454   0.03326394            3 
 1927000   0.94403838   -6.2175369     778.8298  0.033680583  0.033256179           10 
 1928000   0.94990618   -6.2067863     781.4315  0.033775566  0.033248484            4 
 1929000   0.96576596   -6.1714258    779.86537    0.0336904   0.03324084            6 
 1930000   0.94974721   -6.1774461    783.74598    0.0338405  0.033233278            7 
 1931000   0.93717142   -6.2040348    782.68104  0.033777017  0.033225477            3 
 1932000   0.93407475   -6.2079484    780.25279  0.033654796  0.033217779            4 
 1933000   0.94471439   -6.2217612    783.79053    0.0337899  0.033210163            5 
 1934000   0.94839862   -6.2149535    780.62866  0.033636189  0.033202636            6 
 1935000   0.93188827   -6.1744145    783.06885  0.033723895  0.033195001            4 
 1936000   0.94837379   -6.2069269     782.4649   0.03368048   0.03318741            3 
 1937000    0.9343926    -6.204846    781.31504  0.033613622  0.033179768            3 
 1938000   0.94154039   -6.1903607    785.22012  0.033764195  0.033172211            4 
 1939000   0.92778538   -6.1885934    784.04095  0.033696104  0.033164699            4 
 1940000   0.91840037   -6.2416061    782.81021  0.033625868  0.033157055            3 
 1941000   0.92965154   -6.2151807    783.03638  0.033618254  0.033149353            4 
 1942000   0.94391497   -6.1947743    784.90335  0.033681057  0.033141743            8 
 1943000   0.93427212   -6.1908706    785.53487  0.033690808  0.033134188            6 
 1944000   0.96415977   -6.1855009    785.79072  0.033684444  0.033126507            3 
 1945000   0.92058828   -6.1956814    787.04105  0.033720696  0.033118934            4 
 1946000   0.92967732   -6.2175559    784.72153   0.03360404  0.033111304            4 
 1947000   0.93846478    -6.200838    786.29568  0.033654155  0.033103713            3 
 1948000   0.92388911   -6.2078771     784.8974  0.033577062  0.033096115            8 
 1949000   0.91594728   -6.2063069    783.21845  0.033488047  0.033088384            6 
 1950000   0.94951032   -6.2052106    787.57266  0.033656951   0.03308067            6 
 1951000   0.92635386   -6.2117362    785.68733  0.033559172  0.033073112            7 
 1952000   0.93372366   -6.1914904    786.60561  0.033581182  0.033065429            2 
 1953000   0.95475355   -6.1835808    788.33294  0.033637692  0.033057793            4 
 1954000   0.94706247   -6.1880411    789.73274  0.033680175  0.033050278            3 
 1955000    0.9373498   -6.2374063    786.26404  0.033515091   0.03304275            6 
 1956000   0.92524966   -6.1604152    789.56251  0.033638485  0.033035264            4 
 1957000   0.93116483   -6.1877707    790.87614  0.033677233  0.033027915            4 
 1958000   0.94731684   -6.1788087    788.00061   0.03353765  0.033020426            3 
 1959000   0.95911174   -6.2161641    787.62088  0.033504376  0.033012887           12 
 1960000   0.91507721   -6.2315451    788.21246  0.033512434  0.033005325            5 
 1961000   0.95361316   -6.2170893    791.36733  0.033629412  0.032997717            2 
 1962000   0.93412509    -6.220302    789.89897  0.033549905  0.032990155            3 
 1963000   0.94692158   -6.2250363    789.32506  0.033508451  0.032982668            3 
 1964000   0.93669004   -6.2531669      789.465  0.033497327  0.032975186            5 
 1965000   0.93740323    -6.209578    789.99218  0.033502637  0.032967521            6 
 1966000   0.93039007   -6.2117907    794.01327  0.033656039  0.032960085            6 
 1967000   0.93538458   -6.2178495    793.13484  0.033601713  0.032952672            4 
 1968000   0.95811579   -6.2329453    792.24282  0.033546867  0.032945232            3 
 1969000   0.94401697   -6.1881781    792.41108  0.033536951  0.032937751            4 
 1970000   0.93093531   -6.2085713    792.86413  0.033539092  0.032930298            4 
 1971000   0.92327425   -6.2002214    791.49729  0.033464286  0.032922886            9 
 1972000    0.9441633   -6.2217882     794.1982  0.033561452  0.032915414            2 
 1973000   0.95855719   -6.1867685    793.13256  0.033499432  0.032907876            5 
 1974000   0.93128945   -6.1986615    793.07333  0.033479961  0.032900421            3 
 1975000   0.94724247   -6.2217541    792.62701  0.033444178  0.032892893            4 
 1976000   0.93475359   -6.2277884    792.15394  0.033407302   0.03288529            4 
 1977000   0.92568461   -6.1992389    791.87502  0.033378647  0.032877701            7 
 1978000   0.92393148   -6.2694773    791.66799   0.03335305  0.032870094            6 
 1979000   0.92811146   -6.2072998    792.62717  0.033376586   0.03286244            5 
 1980000   0.95192552   -6.1997232    793.40972  0.033392665  0.032854911            3 
 1981000   0.93255579   -6.2079761    794.53214  0.033423024  0.032847437            3 
 1982000   0.95613765   -6.2635553     794.9658  0.033424394  0.032839974            4 
 1983000   0.91607191   -6.2594431    792.61901  0.033308918  0.032832355            6 
 1984000   0.90919377   -6.2166078    795.95949  0.033432438  0.032824854            2 
 1985000   0.91342996   -6.2328994    793.42732  0.033309291  0.032817441            9 
 1986000   0.93800264   -6.2071114    797.21299  0.033451367  0.032809893            6 
 1987000   0.95768636   -6.2265448    795.41748   0.03335923  0.032802451            4 
 1988000   0.93800544   -6.2411019    794.07532  0.033286189  0.032795049            5 
 1989000   0.93094125   -6.2255087     796.0606  0.033352631  0.032787587            4 
 1990000   0.92822105   -6.2065045    795.48384  0.033311718  0.032780176            4 
 1991000   0.93338539   -6.2167768      798.608  0.033425749  0.032772805            5 
 1992000   0.93239122   -6.2078542    796.47028   0.03331954  0.032765395           14 
 1993000   0.93634795   -6.2054722    798.65183  0.033394039  0.032757935            4 
 1994000   0.93150688   -6.2050475    796.21802  0.033275578  0.032750536            4 
 1995000   0.95109328   -6.2466485    796.46585   0.03326925  0.032743155            9 
 1996000   0.92613199   -6.2360666    796.93101  0.033272003  0.032735786            7 
 1997000    0.9295229   -6.2413366    799.40148  0.033358433   0.03272835            4 
 1998000   0.90627943   -6.2430905    797.28853  0.033253609  0.032721017            5 
 1999000   0.93374882    -6.213066    798.85008  0.033302071  0.032713581            5 
 2000000    0.9016347   -6.2342955    797.45865  0.033227444  0.032706101            9 
 2001000   0.93529289   -6.2439924    797.75931   0.03322336  0.032698519            5 
 2002000   0.94579717   -6.2415687     798.9071  0.033254541  0.032691077            2 
 2003000   0.93205046   -6.2043276    799.10167  0.033246034   0.03268363            7 
 2004000   0.92301835   -6.2682541     797.4321  0.033160018  0.032676121            3 
 2005000   0.93376997   -6.2227185    799.87657  0.033245078  0.032668618            4 
 2006000   0.92222041   -6.2234656    800.07572  0.033236778  0.032661154            8 
 2007000   0.92246694   -6.2120693    799.73026  0.033205873  0.032653639            3 
 2008000   0.92727837   -6.2306159    799.84576   0.03319413  0.032646182            2 
 2009000   0.91120199   -6.2192168    802.15028  0.033273199  0.032638825            6 
 2010000   0.92898467   -6.2423534    799.47571  0.033145759  0.032631426            5 
 2011000   0.91592715    -6.237587    799.85653  0.033145057  0.032623988            4 
 2012000   0.90644557   -6.2478192    799.15806  0.033099654   0.03261643            3 
 2013000   0.93184787   -6.2328811    801.85697   0.03319494  0.032608913            8 
 2014000   0.93878302   -6.2164626    800.23078  0.033111171  0.032601449            7 
 2015000    0.9155649   -6.2242102    800.97257  0.033125417  0.032594123            6 
 2016000   0.94093159   -6.2201675    802.68317  0.033179695  0.032586698            3 
 2017000   0.94298146   -6.2175278    802.53491  0.033157119  0.032579196            4 
 2018000   0.91398116    -6.194554    800.60834  0.033061131  0.032571634            3 
 2019000   0.92798921   -6.2477732    798.67123  0.032964802  0.032564085            2 
 2020000   0.91750575   -6.2422296    797.11368  0.032884228  0.032556367            8 
 2021000   0.92492133   -6.2563114    800.50128   0.03300764  0.032548774            6 
 2022000   0.93882801   -6.2528259    801.69872  0.033040666  0.032541133            3 
 2023000   0.91909695   -6.2350821    801.69047  0.033023994   0.03253357            3 
 2024000   0.92586703   -6.2601069    800.37999  0.032953722  0.032525941            8 
 2025000   0.93271852   -6.2315679    802.57217  0.033027661  0.032518227            4 
 2026000   0.92146128   -6.2530667    801.09607  0.032950645  0.032510621            6 
 2027000   0.93434331   -6.2453389    800.26033   0.03290003  0.032502944            6 
 2028000   0.91323289   -6.2671997    803.51102  0.033017383   0.03249527            4 
 2029000   0.93489284   -6.2671259    802.38985  0.032955062  0.032487498            7 
 2030000   0.90194422   -6.2698305    803.13599  0.032969458  0.032479732            4 
 2031000   0.93231115   -6.2316521    804.90144  0.033025662  0.032472141            6 
 2032000    0.9346458   -6.2466463    803.37447  0.032946788  0.032464478            4 
 2033000   0.92295233   -6.2669032    802.91675  0.032911819  0.032456748            4 
 2034000   0.92189364   -6.2678555    805.33712  0.032994802  0.032449084            3 
 2035000   0.92862236   -6.2628112    802.21683  0.032850812  0.032441373            3 
 2036000    0.9429191   -6.2520591    801.29533   0.03279696  0.032433558            3 
 2037000   0.93952181   -6.2727828    803.58651  0.032874591  0.032425797            7 
 2038000   0.93726853    -6.260436    805.23675  0.032925938  0.032418102            2 
 2039000   0.93919407   -6.2566867    804.38051  0.032874796  0.032410476            3 
 2040000   0.92732244   -6.2321345    805.69975  0.032912571  0.032402844            4 
 2041000   0.92163843   -6.2722088     805.1662  0.032874661  0.032395183            2 
 2042000   0.92712617   -6.2637167    804.39123  0.032826935   0.03238761            3 
 2043000   0.93029735   -6.2565449    806.01454  0.032877082  0.032380036            4 
 2044000   0.91807216   -6.2466302    804.51469  0.032799849  0.032372509            2 
 2045000   0.92424891   -6.2178073    809.14247  0.032972391  0.032365003            7 
 2046000   0.93925834   -6.2350064    807.67334  0.032896438  0.032357607            7 
 2047000   0.92524042   -6.2342204    810.16681  0.032981876  0.032350144           12 
 2048000   0.93991189   -6.2427844    808.63922  0.032903614  0.032342768            9 
 2049000   0.93366352   -6.2456418    809.39071  0.032918119  0.032335412            3 
 2050000   0.91339251   -6.2398411    807.42633  0.032822209  0.032328075            4 
 2051000   0.92122734   -6.2559304    804.81567  0.032700133  0.032320599            7 
 2052000   0.94465981   -6.2333099    810.06117  0.032897221  0.032312998            4 
 2053000   0.91342784   -6.2509907    808.98677  0.032837586  0.032305424            3 
 2054000   0.92847639   -6.2424786    810.43196  0.032880232  0.032297803            3 
 2055000   0.91539484   -6.2762094    806.38434  0.032700095  0.032290296            5 
 2056000   0.92331004   -6.2654064    808.97206  0.032789075  0.032282596            4 
 2057000   0.91342956   -6.2301097    808.10428  0.032737979  0.032275014            6 
 2058000   0.91439573     -6.25124    810.01799  0.032799562  0.032267494            7 
 2059000   0.93314852   -6.2276476    810.39401  0.032798851  0.032259923            2 
 2060000   0.92328467   -6.2231311    810.36069  0.032781581  0.032252287            3 
 2061000   0.92866042   -6.2581159    809.44681  0.032728724  0.032244588            4 
 2062000   0.91069072   -6.2463215    808.10526  0.032658635  0.032236794            3 
 2063000   0.91819411   -6.2089172    810.58493  0.032742969  0.032229158            7 
 2064000   0.92269515   -6.2441607    812.03367  0.032785597  0.032221564            3 
 2065000   0.90980145   -6.2771452    811.47752  0.032747277  0.032213958            5 
 2066000   0.91239326   -6.2273535    812.47936  0.032771836  0.032206516            2 
 2067000   0.89888258   -6.2696647    812.29236  0.032748442   0.03219898            4 
 2068000   0.92320625   -6.2665065    811.35392   0.03269479  0.032191457            5 
 2069000    0.9337838   -6.2525717    809.22398    0.0325932  0.032183981            4 
 2070000   0.92595548   -6.2530782    813.32443  0.032742529  0.032176376            7 
 2071000   0.91372454   -6.2457886    813.42278  0.032730677  0.032168658            4 
 2072000   0.93008556   -6.2482847    813.05514  0.032700094  0.032160992            2 
 2073000   0.91610452   -6.2582944    812.18746  0.032649439  0.032153385            5 
 2074000   0.92124955   -6.2439133    809.99493  0.032545602  0.032145721            8 
 2075000   0.90239273    -6.269654    812.32148  0.032623353  0.032138113            4 
 2076000   0.92012805   -6.2692312    810.45558  0.032532738   0.03213038            8 
 2077000   0.92291503   -6.3101395     811.1232  0.032543861  0.032122632            7 
 2078000    0.9070853   -6.2396504    813.16878  0.032610233  0.032114919            6 
 2079000   0.92344058   -6.2627268     813.3032  0.032599936  0.032107277            6 
 2080000   0.90954677   -6.2687219    813.15584  0.032578359   0.03209956            5 
 2081000   0.93343337   -6.2462438    812.38247  0.032531734  0.032091946            7 
 2082000   0.95109747   -6.2632171    814.07761  0.032583958  0.032084314            5 
 2083000   0.94559577   -6.2543675    811.50227  0.032465285   0.03207661            5 
 2084000   0.90492064   -6.2935323    809.08951  0.032353228  0.032068778            5 
 2085000   0.91607319   -6.2327875    810.77664  0.032405141  0.032060924            5 
 2086000    0.9235939   -6.2904351    811.85807  0.032432809   0.03205327            6 
 2087000   0.91093387   -6.2831899    813.07288  0.032465775  0.032045563            5 
 2088000   0.91327665    -6.264038    812.91267  0.032443833  0.032037794            7 
 2089000   0.91092939   -6.2830038    812.40564  0.032408076  0.032030149            4 
 2090000     0.938629   -6.2683472    817.19851  0.032583673  0.032022351            7 
 2091000   0.93507312   -6.2439964    815.05765   0.03248277  0.032014727            9 
 2092000   0.92945936   -6.2589298    815.86767  0.032499509   0.03200717            4 
 2093000   0.89788718   -6.2565473    815.85916  0.032483642  0.031999448            8 
 2094000   0.93070326     -6.24199    815.10334  0.032438051    0.0319917            4 
 2095000   0.91443934   -6.2988444    814.17718  0.032385727  0.031984074            3 
 2096000   0.90769222   -6.2575019    816.70229   0.03247067  0.031976396            5 
 2097000   0.90065107    -6.319566    814.81313  0.032380112  0.031968591            5 
 2098000   0.92161956   -6.2680432    815.29935  0.032383991  0.031960813            6 
 2099000   0.90882863   -6.2685807    816.31365  0.032408832  0.031953112            4 
 2100000    0.9151628   -6.2566245    819.17376  0.032506895  0.031945472            6 
 2101000   0.92621947   -6.2711588    815.15278  0.032331936  0.031937867            5 
 2102000   0.92294724    -6.326396    813.96131  0.032269319  0.031930163            5 
 2103000    0.9089263   -6.3041832    814.10642  0.032259725  0.031922323            7 
 2104000   0.91571879   -6.2358542    816.11807  0.032324068  0.031914445           12 
 2105000   0.90706543   -6.2728914    814.92032  0.032261295  0.031906737            8 
 2106000    0.9317358   -6.3075757    814.51658  0.032230001  0.031898844            9 
 2107000   0.90501302    -6.270545    816.51224  0.032293634  0.031890945            9 
 2108000   0.91070979    -6.241477    816.89325  0.032293376  0.031883113            8 
 2109000   0.91099292     -6.24565    818.63197  0.032346767  0.031875465            7 
 2110000   0.93632212   -6.2553361    818.01121   0.03230692  0.031867707            4 
 2111000   0.91127035   -6.2797994    817.47889  0.032270602  0.031859925            5 
 2112000   0.91014328    -6.288866     817.9297   0.03227311  0.031852066            4 
 2113000   0.90219062   -6.2799764    818.35544  0.032274627  0.031844151            4 
 2114000   0.88676818   -6.2791473     817.9487  0.032243326  0.031836318           13 
 2115000   0.91863799   -6.2859887    817.67917  0.032217461  0.031828404            4 
 2116000   0.90169563   -6.2623124      818.017   0.03221554  0.031820556            2 
 2117000   0.90969602   -6.2651509    820.80682  0.032310141  0.031812723            5 
 2118000   0.92323214    -6.282517    818.07483  0.032187395  0.031804867            6 
 2119000   0.92062188   -6.2810061    817.12011  0.032134659  0.031796952            7 
 2120000   0.90262264   -6.2733598    816.42137  0.032092035  0.031789019            8 
 2121000   0.91861063    -6.301891    817.24481  0.032109257  0.031781152            5 
 2122000   0.93051867    -6.257416    819.70352  0.032190682  0.031773259            4 
 2123000   0.91095927   -6.2624361    819.96095  0.032185624  0.031765392            3 
 2124000   0.91418787   -6.2601455    819.40951  0.032148835  0.031757532            6 
 2125000   0.90047535   -6.2616931    821.11424  0.032200558  0.031749712            6 
 2126000   0.91527536   -6.2609502    819.41129  0.032118661  0.031742033           14 
 2127000   0.89840536   -6.2932664     819.8712   0.03212158  0.031734237            7 
 2128000   0.91493126    -6.275511    820.66189  0.032137449  0.031726359            4 
 2129000   0.90997467   -6.2596815    818.44945  0.032035754  0.031718449            3 
 2130000   0.91173456    -6.304699    820.13136  0.032086516  0.031710535            5 
 2131000   0.90085956   -6.2830383     820.8263  0.032098635  0.031702658            6 
 2132000   0.91074889   -6.3134713    821.32521  0.032103081  0.031694745            6 
 2133000   0.89459537   -6.2995194    822.30316  0.032126237  0.031686794            4 
 2134000   0.91800567   -6.2931881    819.73408  0.032010859  0.031678777            2 
 2135000    0.9081726   -6.2659453    823.11094  0.032127671   0.03167087            5 
 2136000   0.89187659   -6.2780965    820.82952  0.032023624  0.031662994            9 
 2137000   0.91157929   -6.2839189    823.90919  0.032128732  0.031655083           10 
 2138000    0.9385069   -6.2921501    820.09023  0.031964851  0.031647248            7 
 2139000   0.91807598   -6.3077243    821.74069  0.032014208  0.031639275           11 
 2140000   0.90660297   -6.3115832    820.90279  0.031966619  0.031631408            2 
 2141000   0.91187542   -6.3241796    820.89827  0.031951513  0.031623426            5 
 2142000   0.91268004   -6.3106789    822.71059  0.032007104  0.031615564            6 
 2143000   0.91947513   -6.2830461    824.78472  0.032072823  0.031607794            8 
 2144000   0.90541206   -6.3106397    823.44206  0.032005677  0.031600065            4 
 2145000   0.91414975    -6.314438    825.08718  0.032054669  0.031592353            5 
 2146000   0.90559394   -6.3060915    823.04208  0.031960317  0.031584583            5 
 2147000   0.94148164   -6.2822444    824.95095  0.032019521   0.03157683            7 
 2148000   0.88144523   -6.2925858    824.04445  0.031969447    0.0315691            4 
 2149000    0.8901192   -6.2870361    826.75145  0.032059541   0.03156143           10 
 2150000   0.91415873   -6.3035835     825.1377  0.031982081  0.031553809            8 
 2151000   0.87419866   -6.3063384    824.18708  0.031930384  0.031546204            4 
 2152000   0.91694859   -6.2904657    826.56894  0.032007781  0.031538534            4 
 2153000   0.91314753   -6.3356479    823.52917  0.031875258  0.031530772            4 
 2154000   0.92236169    -6.275031    827.10451  0.031998782  0.031523051           14 
 2155000   0.90405291   -6.2823675    825.84989  0.031935417  0.031515394            3 
 2156000   0.91113413    -6.268544    827.30711  0.031976929  0.031507699           10 
 2157000   0.91145726    -6.315574    825.56132  0.031894658  0.031500038            6 
 2158000   0.90804846   -6.2987319    824.26677  0.031829888  0.031492289            7 
 2159000   0.92760619    -6.289965     827.2378  0.031929821  0.031484644            6 
 2160000   0.90926056   -6.2942146    826.82195  0.031898995  0.031476857            7 
 2161000   0.90686751   -6.3456819    825.46146   0.03183177  0.031469218            6 
 2162000   0.91570476   -6.2971112    826.97147  0.031875249  0.031461549            4 
 2163000   0.91717053    -6.304962    827.40545  0.031877233  0.031453909           11 
 2164000     0.904435   -6.3125001    827.49399  0.031865911  0.031446166            3 
 2165000   0.90381583    -6.290194    829.95364  0.031945868  0.031438452            8 
 2166000   0.92374452   -6.2844715     827.8634    0.0318507  0.031430704            5 
 2167000   0.90090985   -6.2888374    826.11199  0.031768651  0.031422895            4 
 2168000   0.90220252   -6.2969842    828.96164  0.031863532   0.03141506            7 
 2169000   0.90806597   -6.2546773    828.95374  0.031848538  0.031407322            8 
 2170000   0.90735298   -6.2820435     829.8986  0.031870146  0.031399549            5 
 2171000   0.91983275   -6.2839991    830.49349  0.031878301  0.031391723            4 
 2172000   0.91709524   -6.2617139    827.88527  0.031763554  0.031383895            4 
 2173000   0.89622386   -6.2953644    828.48625  0.031771984  0.031376084            8 
 2174000   0.91474208   -6.3032602     828.7555   0.03176769   0.03136825            8 
 2175000    0.8849191   -6.2746629    832.40533  0.031892924  0.031360442            6 
 2176000   0.90565967   -6.3040118    829.36118  0.031761688  0.031352724            7 
 2177000   0.89344639   -6.3052539    830.00709  0.031771823  0.031344928            6 
 2178000   0.89992981   -6.2952051    829.47797   0.03173699  0.031337079            8 
 2179000   0.88437323   -6.3216875    828.04165  0.031667495   0.03132935            9 
 2180000   0.89972188   -6.3254664    829.68772  0.031715891  0.031321544            9 
 2181000   0.90077124   -6.2975228    831.49117  0.031770257  0.031313704            8 
 2182000   0.91054024   -6.2568505    832.86975  0.031808347  0.031305997            2 
 2183000   0.90643043   -6.3260938    830.63824  0.031708591  0.031298274            6 
 2184000   0.89343432    -6.279874    832.29721  0.031757372  0.031290446            6 
 2185000   0.92708869   -6.2893208    832.17781  0.031738284  0.031282822            4 
 2186000   0.92991437   -6.3171933    833.17064  0.031761613  0.031275169            4 
 2187000   0.89453003   -6.3037688    832.16126  0.031708629  0.031267552            9 
 2188000   0.88792949   -6.2773321    832.96021  0.031724566  0.031259948            5 
 2189000   0.90077935   -6.3316772    829.82166  0.031590592  0.031252237            5 
 2190000   0.89191556   -6.3201924    831.46193  0.031638582  0.031244445            6 
 2191000   0.88831525   -6.3209574    834.67074  0.031746187  0.031236674            5 
 2192000   0.90285593   -6.3097197    832.55218  0.031651162  0.031228917            6 
 2193000   0.92155637   -6.3205554    832.29861  0.031627094  0.031221225            7 
 2194000   0.90535535   -6.2948986    836.21026  0.031761253  0.031213586            4 
 2195000   0.91284024   -6.3042251     831.9883  0.031586496  0.031205884           14 
 2196000   0.90301579   -6.3279365    832.44162  0.031589315  0.031198224            2 
 2197000   0.90417037   -6.3476419    833.08944  0.031599508  0.031190384            5 
 2198000   0.90757269   -6.3222965    834.84017  0.031651508  0.031182497            4 
 2199000    0.8824899   -6.3234251    832.80191  0.031559872  0.031174716            4 
 2200000   0.90156571   -6.2922318    835.65195  0.031653483  0.031166989            7 
 2201000   0.88571925   -6.3278235    833.85081  0.031570908   0.03115935            8 
 2202000   0.91405368    -6.312538    835.27547  0.031610486  0.031151539            4 
 2203000   0.88261472    -6.316458    832.11968  0.031476762  0.031143855            5 
 2204000   0.89739661   -6.3543135    833.49704  0.031514558  0.031136067           10 
 2205000   0.89366979    -6.299084     832.6821  0.031469467  0.031128357            4 
 2206000   0.90245537    -6.331358    834.74607   0.03153317  0.031120727            8 
 2207000   0.91552501   -6.3092825    835.94091  0.031563998  0.031112982            5 
 2208000   0.89097404   -6.2683577    837.95429   0.03162569  0.031105326            4 
 2209000   0.90885774   -6.3264842    838.46737  0.031630729  0.031097734            7 
 2210000   0.89716588   -6.2982087    836.62187  0.031546828  0.031090104            6 
 2211000   0.91250656   -6.3256714     837.2492  0.031556204  0.031082453            7 
 2212000    0.8780673   -6.3459365    836.31789  0.031506852  0.031074781            9 
 2213000   0.90899093   -6.3370009    836.96676  0.031517049  0.031066956            6 
 2214000   0.90986662   -6.3063171    838.25425  0.031551274  0.031059329            5 
 2215000    0.9058772   -6.2851149    837.51219  0.031509112  0.031051686            6 
 2216000   0.90790156   -6.3450263    836.38672  0.031452569  0.031044015            4 
 2217000   0.88695964   -6.2968193    836.55835  0.031444833  0.031036271            5 
 2218000   0.88787339    -6.316822     838.0276  0.031485858  0.031028563            6 
 2219000   0.88489075   -6.3160075      837.212   0.03144104  0.031020917            3 
 2220000   0.88354283   -6.3008868     839.2305  0.031502646  0.031013219            6 
 2221000   0.90292715    -6.316347     839.4738  0.031497591  0.031005485            6 
 2222000   0.89380292   -6.2987121    838.55112  0.031448812  0.030997783            4 
 2223000   0.89698831   -6.2847113    838.79479  0.031443799  0.030990064            3 
 2224000   0.90984145   -6.3067973    836.25832  0.031334619  0.030982423            6 
 2225000   0.89975595   -6.3395488    837.94891  0.031383854  0.030974733            4 
 2226000      0.89627   -6.3477159    836.82981  0.031327861  0.030966908            7 
 2227000   0.91637955   -6.3465326    836.63427  0.031306476  0.030959117            7 
 2228000   0.90705459   -6.3037466    838.92443  0.031378083  0.030951401            3 
 2229000   0.89702289    -6.344857    838.02632  0.031330429  0.030943642            5 
 2230000   0.91102047   -6.3349811    838.66387  0.031340204  0.030935829            4 
 2231000   0.92054471   -6.3302455    840.02245  0.031376903  0.030928095            7 
 2232000   0.88721279   -6.3128646    842.70276  0.031462917  0.030920439            7 
 2233000   0.88497313   -6.3345609    839.19882  0.031318063  0.030912745            6 
 2234000   0.90453907   -6.3368253    840.24852  0.031343201  0.030905097            7 
 2235000   0.92598281   -6.3181621    838.57358  0.031266725  0.030897416            5 
 2236000   0.91437064   -6.3047221    842.30097  0.031391658  0.030889626           11 
 2237000   0.89015368    -6.334303    841.16562  0.031335331  0.030881783            5 
 2238000   0.90584446   -6.3326387    839.73507  0.031268062  0.030873851            4 
 2239000    0.9081907   -6.3113069    840.24266  0.031272989  0.030866086            7 
 2240000   0.89442538   -6.2998102    841.74022   0.03131474  0.030858452            4 
 2241000   0.89217114   -6.3039725    841.21215   0.03128113  0.030850693            7 
 2242000   0.89654874   -6.3142244    841.97013  0.031295351  0.030842991            5 
 2243000   0.90890444   -6.3241151    841.52554  0.031264881  0.030835258           14 
 2244000   0.88531808   -6.3316452    838.58291  0.031141671  0.030827482            5 
 2245000   0.89704134   -6.3659449    837.42789  0.031084925  0.030819651            6 
 2246000   0.90516687   -6.3120626    841.38133   0.03121777  0.030811883            9 
 2247000   0.89197046   -6.3192756    842.91608  0.031260795  0.030804222            1 
 2248000   0.89508317    -6.272217    846.17078  0.031367541  0.030796527            6 
 2249000   0.89788037   -6.3029817    840.41271  0.031140237  0.030788789            6 
 2250000   0.88960553    -6.307537    842.28967  0.031195914  0.030781095            3 
 2251000   0.88705177   -6.3667517     839.6329    0.0310837  0.030773241           23 
 2252000   0.88555767   -6.3470062    841.34058  0.031133088  0.030765439            7 
 2253000    0.8908106   -6.3489794    841.45097  0.031123353  0.030757644            3 
 2254000   0.90680368   -6.3435332     843.8741  0.031199131  0.030749912            9 
 2255000   0.88921597   -6.3464599    840.74465  0.031069647  0.030742131            5 
 2256000   0.91001609   -6.2917074    846.50107  0.031268509  0.030734425            8 
 2257000   0.89431103   -6.3279067    845.09217  0.031202635  0.030726741            5 
 2258000   0.87780916   -6.3194082    841.73859   0.03106505  0.030719053           11 
 2259000   0.89242514   -6.3160708     847.2351  0.031254062  0.030711424            5 
 2260000   0.88579043   -6.3073875    845.55995  0.031178464   0.03070377            8 
 2261000    0.8779582   -6.3101382    844.38056  0.031121206  0.030696153            6 
 2262000   0.87700076   -6.3177572    845.61693  0.031152996  0.030688493            4 
 2263000   0.89019165   -6.3409084    841.80281  0.030998778  0.030680913            6 
 2264000   0.89529726   -6.3304299    845.53578  0.031122489  0.030673224            4 
 2265000   0.89694357   -6.3359983     844.7145  0.031078532  0.030665548            6 
 2266000    0.8925817   -6.3406062    846.17633  0.031118577   0.03065793            5 
 2267000   0.90547319   -6.3307265    843.84745  0.031019242  0.030650345            5 
 2268000   0.89333353   -6.3588039    842.94959  0.030972575  0.030642673            5 
 2269000    0.8849174   -6.3385774    846.79507  0.031100157  0.030634886            9 
 2270000   0.89149416   -6.3196083    847.23077  0.031102451  0.030627292            4 
 2271000   0.89053962    -6.349786    844.38656  0.030984389  0.030619532            6 
 2272000    0.8859775   -6.3384301    847.60496  0.031088797  0.030611763            5 
 2273000   0.86686866   -6.3840152    846.13922  0.031021382  0.030603983            7 
 2274000    0.8618599   -6.3207572    850.09464  0.031152691  0.030596279            9 
 2275000   0.87983511   -6.3652361    845.94073   0.03098684  0.030588541           14 
 2276000   0.89382777   -6.3362868    846.54694  0.030995421  0.030580888           10 
 2277000   0.90575013   -6.3563153    846.96045  0.030996942  0.030573251           12 
 2278000   0.89825596   -6.3347499    850.19668  0.031101722  0.030565641            7 
 2279000   0.90893459   -6.3128077    846.84977  0.030965693  0.030557969           10 
 2280000   0.88891778    -6.331477    848.14537  0.030999465  0.030550272            5 
 2281000   0.91439138   -6.3337496    848.70418   0.03100629  0.030542654           13 
 2282000   0.87305504   -6.3780725     845.2536  0.030866696  0.030534961            7 
 2283000   0.89198977   -6.3587478    850.75585  0.031054017  0.030527294            5 
 2284000   0.86287988   -6.3240678    851.43792  0.031065306  0.030519763            7 
 2285000   0.88336343   -6.3598125    848.20834  0.030933929  0.030512276            9 
 2286000   0.85968575   -6.3084048    850.34016   0.03099811  0.030504742            5 
 2287000   0.89086845   -6.3215028    850.83289   0.03100251  0.030497211            6 
 2288000   0.88346583   -6.3202875    851.55481  0.031015254  0.030489783            9 
 2289000   0.88998046   -6.3203682    850.43981  0.030961111  0.030482256            5 
 2290000   0.86918018   -6.3318246    850.86735   0.03096315  0.030474723            4 
 2291000   0.88074879   -6.3761335    851.27916  0.030964614  0.030467187            2 
 2292000   0.87818733   -6.3444483    853.92137   0.03104717  0.030459558           13 
 2293000    0.8930719   -6.3833614    849.28218  0.030865031   0.03045194            4 
 2294000   0.89050269   -6.3698657    848.13142  0.030809773  0.030444321            5 
 2295000   0.88768178   -6.3260662    851.67159  0.030924894   0.03043675            5 
 2296000   0.87434986   -6.3344194     853.6953  0.030984876   0.03042921            5 
 2297000   0.89804989   -6.3818908    849.86036  0.030832258  0.030421625            9 
 2298000   0.86629892   -6.3511018     851.4338  0.030875899  0.030414065            3 
 2299000   0.87093081    -6.341017    852.42484  0.030898392  0.030406503            6 
 2300000   0.88667712   -6.3753769    848.20919  0.030732217  0.030398797           12 
 2301000   0.88826651   -6.3683431    849.15631  0.030753162  0.030391217            8 
 2302000   0.86777295   -6.3700196    852.94349    0.0308769  0.030383701           12 
 2303000   0.87451152   -6.3383842    852.82931  0.030859361   0.03037616            8 
 2304000   0.90947807   -6.3496716    852.69031   0.03084094  0.030368705            7 
 2305000   0.89851202   -6.3381734    854.16287  0.030880798  0.030361253            4 
 2306000   0.88273515   -6.3373418    853.02827  0.030826405  0.030353809            5 
 2307000   0.89816367   -6.3646027     853.7909   0.03084059  0.030346322           12 
 2308000   0.87214332   -6.3610175    853.19329   0.03080565   0.03033877            7 
 2309000   0.87602345   -6.3823665    853.19167   0.03079225  0.030331187            6 
 2310000   0.87440602   -6.3652165     853.9841  0.030807507  0.030323713            4 
 2311000   0.88745387   -6.3594026    854.36444  0.030807891  0.030316244           16 
 2312000   0.88903398   -6.3533326    853.79087  0.030773892  0.030308798            7 
 2313000   0.89819634   -6.4031877    851.98752  0.030695616  0.030301177            5 
 2314000   0.87847509   -6.3431535    856.74503  0.030853681  0.030293664            4 
 2315000   0.87601862   -6.3722798    856.67677  0.030837897  0.030286177            6 
 2316000   0.85886867   -6.3866211    854.70669  0.030753695  0.030278674           14 
 2317000   0.87534954   -6.3365368    859.04098  0.030896309  0.030271235            5 
 2318000   0.87436915   -6.3699616     854.7003   0.03072693  0.030263791            3 
 2319000   0.88382733   -6.3886485    852.89305  0.030648737  0.030256342            7 
 2320000   0.88484413   -6.3469727    857.35327  0.030795735  0.030248865            7 
 2321000   0.87549983   -6.3593707    858.10926   0.03080961  0.030241455            4 
 2322000   0.85871214   -6.3388011    857.04819  0.030758261  0.030234077            4 
 2323000   0.88236394   -6.3385666    858.96168  0.030813663  0.030226739            3 
 2324000   0.86848269   -6.3315775    857.09615  0.030733511  0.030219326            5 
 2325000   0.87276304   -6.3397575     858.0506  0.030754502  0.030211844           12 
 2326000   0.85567358   -6.3720299    855.74263  0.030658592  0.030204404            4 
 2327000    0.8702404   -6.3480264    860.47393  0.030814852  0.030196959            4 
 2328000   0.86455564   -6.4068459    857.07831  0.030680066   0.03018944            9 
 2329000   0.88496926   -6.3495994    857.41839  0.030679061  0.030181899            6 
 2330000   0.88057794   -6.3696189    858.12157  0.030691043  0.030174486           18 
 2331000   0.87005772   -6.3240652    859.78728  0.030737426  0.030167076            5 
 2332000    0.8855868   -6.3218585    859.32533  0.030707738  0.030159704            2 
 2333000   0.88013612   -6.3438239    859.46898  0.030699706  0.030152401            6 
 2334000   0.87756906   -6.3589091    858.09627  0.030637542  0.030144936            6 
 2335000   0.90231954   -6.3370065    859.33708  0.030668704  0.030137505            4 
 2336000    0.8675632   -6.3622221    859.65186  0.030666804  0.030130046           13 
 2337000   0.87368061   -6.3683224     857.7056  0.030584282   0.03012261           12 
 2338000   0.88130293    -6.343486    859.86903  0.030648311  0.030115095            4 
 2339000   0.87630466   -6.3901595    859.10193  0.030607878  0.030107604            7 
 2340000   0.87297116   -6.4060824    856.10859  0.030488198  0.030100064            8 
 2341000   0.86299626   -6.3447879    862.36208  0.030697782  0.030092636            5 
 2342000   0.88576037   -6.3538999     859.2014   0.03057221  0.030085184           10 
 2343000   0.91268447     -6.38922    857.71378  0.030506252  0.030077694           13 
 2344000   0.86638198   -6.4120814    859.67552  0.030562981  0.030070174            4 
 2345000   0.87128807   -6.3224206    863.91041  0.030700441  0.030062759            4 
 2346000   0.88400106    -6.369208    860.08772  0.030551567  0.030055314            8 
 2347000   0.86768558    -6.354384    861.19244  0.030577774  0.030047857            7 
 2348000   0.87125154   -6.3593762     861.6275  0.030580192  0.030040424            5 
 2349000   0.88938001   -6.3526065     859.9577  0.030507936  0.030033001            5 
 2350000   0.87818557   -6.3800591    860.85593  0.030526806  0.030025504            6 
 2351000   0.86276861   -6.3956839    859.63368  0.030470498  0.030017907            7 
 2352000   0.87842079   -6.3995205    858.20807  0.030407032   0.03001039            7 
 2353000    0.8672816   -6.3942658    861.09135  0.030496223  0.030002896            9 
 2354000    0.8644209   -6.3750138    862.13851  0.030520338  0.029995349            5 
 2355000   0.88965764   -6.3502706    863.90825  0.030570002  0.029987724            4 
 2356000   0.85953053    -6.364325    862.13019  0.030494135  0.029980204            9 
 2357000   0.88344413   -6.3675814    859.61518  0.030392278  0.029972653            7 
 2358000   0.87874731   -6.3670453    864.34007  0.030546369  0.029965118            7 
 2359000   0.87878853   -6.3983227    858.95288  0.030343114  0.029957607            9 
 2360000   0.87928425   -6.3711577    862.92891  0.030470654  0.029950065            5 
 2361000   0.85622048   -6.3679954    863.37446  0.030473474  0.029942593            3 
 2362000    0.8619988   -6.3855895    861.67045  0.030400453  0.029935156           11 
 2363000   0.87004014   -6.3853098    861.70675  0.030388868   0.02992765            6 
 2364000   0.86223573   -6.3706854     862.3663  0.030399263  0.029920104            3 
 2365000    0.8950122   -6.3798453    863.54026  0.030427775  0.029912693           13 
 2366000   0.87337395   -6.3724285    864.75248  0.030457611  0.029905339            6 
 2367000   0.87367088   -6.3140734    866.96788  0.030522739  0.029898023            7 
 2368000    0.8545428   -6.3845571    865.31968  0.030451847  0.029890666            6 
 2369000   0.89049348   -6.3769582    862.97996  0.030356689  0.029883165            6 
 2370000   0.87103694   -6.3795846    862.05152  0.030311235  0.029875727            6 
 2371000   0.86123568   -6.3763163    864.21346  0.030374436  0.029868134            4 
 2372000   0.87255224   -6.3502116    864.72276  0.030379524  0.029860605            6 
 2373000   0.87946885   -6.3774405    864.12142  0.030345604  0.029853148            5 
 2374000   0.85907136   -6.3849166    866.39203  0.030412526  0.029845623            9 
 2375000   0.86267227   -6.4212861    861.38487  0.030224031  0.029838082            7 
 2376000   0.87293091   -6.3587896    866.04561  0.030374776  0.029830641            6 
 2377000   0.87067125   -6.3744475    863.06138  0.030257376  0.029823122            9 
 2378000    0.8723049   -6.3656149    864.03827  0.030278885   0.02981558            5 
 2379000   0.87118481   -6.3817567    865.70174  0.030324427  0.029807971            4 
 2380000   0.88081341   -6.3718353    862.75432  0.030208485  0.029800369            6 
 2381000   0.88480635   -6.3500787    863.33415  0.030216091  0.029792804            6 
 2382000    0.8664246   -6.3891936    865.54167  0.030280635  0.029785255            8 
 2383000     0.887312   -6.3929872    864.49272  0.030231246  0.029777768           15 
 2384000   0.87609869   -6.4216435    865.74291  0.030262266    0.0297702            6 
 2385000   0.86115556   -6.3943875    866.16876  0.030264457  0.029762685            4 
 2386000   0.86438984   -6.3959653    863.30514  0.030151758  0.029755166            5 
 2387000   0.84689402   -6.3784662    864.33238  0.030174989  0.029747565            6 
 2388000   0.86685136   -6.3620397    866.05105  0.030222329  0.029740023            3 
 2389000   0.86071763   -6.3786103     863.2976  0.030113632  0.029732424            9 
 2390000   0.88535158   -6.3570048    865.54951   0.03017955  0.029724856            3 
 2391000   0.87213537   -6.3720586    865.26993  0.030157184  0.029717276            5 
 2392000   0.85690403   -6.3919945    862.56804  0.030050447  0.029709709            6 
 2393000   0.87609072   -6.3986989    864.68533  0.030111622  0.029702056            9 
 2394000   0.86694038   -6.4293251    862.58097  0.030025793  0.029694395           10 
 2395000   0.84972846   -6.4224918     863.9054  0.030059339  0.029686724            9 
 2396000   0.86131825   -6.3800299    866.44704  0.030135192  0.029679051            4 
 2397000   0.88335453   -6.3890163    866.15892  0.030112603  0.029671411            5 
 2398000   0.86953214    -6.373131    865.12906  0.030064257  0.029663729            8 
 2399000   0.86184894    -6.391115    866.62313  0.030103624  0.029656002            7 
 2400000   0.84278811   -6.4070678    866.53366  0.030087974  0.029648328           10 
 2401000   0.84830898   -6.4230642    862.94418   0.02995086  0.029640578            7 
 2402000   0.87320929   -6.3846273    866.02268  0.030045194  0.029632793            6 
 2403000   0.86171551   -6.3532458    865.77956   0.03002426  0.029625101            6 
 2404000   0.86148143   -6.4027674    864.21003  0.029957364  0.029617422            4 
 2405000   0.87239725    -6.389853    864.62806  0.029959392  0.029609744            9 
 2406000   0.85611413   -6.4084773    864.36807  0.029937935   0.02960197            5 
 2407000   0.85737537    -6.405381    867.27292  0.030026067  0.029594249            7 
 2408000   0.86328683   -6.3817772    867.15399  0.030009482  0.029586609            4 
 2409000   0.86059161   -6.3904296    864.85434  0.029917474  0.029578964           11 
 2410000   0.87864158    -6.373443    867.71114  0.030003843  0.029571287           11 
 2411000   0.86293547   -6.3907344      868.902  0.030032559   0.02956364            9 
 2412000   0.86206615   -6.3729166    867.19044  0.029960974  0.029556031            3 
 2413000   0.87600779     -6.43301    866.94319  0.029940019  0.029548338            8 
 2414000    0.8646605   -6.3836933    866.83851  0.029924003   0.02954065            4 
 2415000   0.86360878   -6.4211234    866.36036  0.029895112  0.029532892           13 
 2416000    0.8532879   -6.4052607    869.20137  0.029980731   0.02952516            9 
 2417000   0.87132709   -6.4240722    867.16052  0.029897963   0.02951744            7 
 2418000   0.87043968   -6.4045618    868.51514  0.029932283  0.029509772            4 
 2419000   0.85665775   -6.3720629    870.58882  0.029991347  0.029502114            6 
 2420000   0.85456685   -6.3933066    866.81016  0.029848835  0.029494427            5 
 2421000   0.86658001   -6.4156439    867.32929  0.029854374  0.029486719            6 
 2422000   0.85296278    -6.391804    868.15427  0.029870433  0.029479022            4 
 2423000    0.8849354   -6.3885461    868.89948  0.029883735  0.029471297           13 
 2424000   0.86627963    -6.405717    867.36325  0.029818593  0.029463585            7 
 2425000   0.84792532    -6.394909    869.85144  0.029891802  0.029455933            4 
 2426000   0.85382617    -6.397781    866.82899  0.029775659   0.02944827            6 
 2427000   0.85587941   -6.3841011    868.57765  0.029823432  0.029440662            7 
 2428000   0.86453879    -6.400204     872.7846   0.02995554  0.029433043           10 
 2429000   0.84979931   -6.4055363    869.93177  0.029845333  0.029425319            5 
 2430000   0.86411952    -6.444024    869.24801  0.029809603  0.029417517            5 
 2431000   0.86104028   -6.4018661    869.80538  0.029816447  0.029409797            5 
 2432000   0.85760381   -6.3801228    870.33065  0.029822185  0.029402153            9 
 2433000   0.86293602   -6.4123933    867.50993  0.029713314  0.029394467            6 
 2434000   0.87038768   -6.4275269    867.08614  0.029686597  0.029386691            5 
 2435000   0.84550493   -6.4288577     871.2145  0.029815691  0.029378905            7 
 2436000    0.8693911   -6.3921875    867.90492  0.029690234  0.029371172            9 
 2437000   0.88087129   -6.3737265    870.53441  0.029767966  0.029363399            3 
 2438000    0.8667474   -6.4062901    869.36938  0.029715935  0.029355659            8 
 2439000    0.8716017   -6.4102321    870.83871  0.029753953  0.029347912            8 
 2440000   0.85844378   -6.4172501     869.7145  0.029703364  0.029340134            3 
 2441000   0.86392648   -6.4176855    869.74779  0.029692332  0.029332378            4 
 2442000   0.85157032    -6.404055    870.74354  0.029714153  0.029324639            7 
 2443000   0.86292034   -6.4133119    868.48332  0.029624892  0.029316874            7 
 2444000   0.85942071   -6.3935851    872.21137  0.029739886  0.029309196            6 
 2445000   0.86201947   -6.3993647    872.98409  0.029754059  0.029301533            9 
 2446000   0.85828974   -6.4211563     870.6856  0.029663587  0.029293803            7 
 2447000   0.87075375   -6.3823668    873.06246  0.029732409  0.029286099            7 
 2448000   0.87038145   -6.3674861    873.32612  0.029729239  0.029278442            4 
 2449000   0.84678877   -6.3895752    871.71449   0.02966226  0.029270768            6 
 2450000   0.85430899    -6.390224     873.3012  0.029704123   0.02926307            4 
 2451000   0.87343323   -6.3968279    871.75643  0.029639482  0.029255435            6 
 2452000   0.86057446   -6.4246626     872.1443  0.029640576  0.029247818            3 
 2453000   0.84280794   -6.4138353    872.88297  0.029653586  0.029240097           12 
 2454000   0.85381164   -6.4013356    871.96994  0.029610498  0.029232318            4 
 2455000   0.85345019   -6.4335453     870.8209  0.029559433  0.029224541           10 
 2456000   0.85802418   -6.3757497    873.47454  0.029637437  0.029216788            9 
 2457000   0.86479131   -6.3998604    870.57016  0.029526867  0.029208985            8 
 2458000   0.85290257   -6.3862724    871.49822  0.029546319  0.029201113           13 
 2459000   0.85389566   -6.4533848    870.31062  0.029494056  0.029193241            6 
 2460000   0.86043135   -6.4270416    873.53933  0.029591441  0.029185485            5 
 2461000   0.86447298   -6.3847263      874.749  0.029620378  0.029177775            6 
 2462000   0.85855161   -6.3976634    874.97534  0.029616008  0.029170058            4 
 2463000   0.86137002   -6.4093694    872.17039  0.029509081  0.029162329            5 
 2464000   0.85790461   -6.4173098    872.29799   0.02950142  0.029154628           11 
 2465000    0.8540652   -6.4494436    872.61223  0.029500075  0.029146874            4 
 2466000   0.85995914   -6.4067862    874.15164  0.029540134   0.02913908            4 
 2467000      0.86583   -6.4452543    872.56853  0.029474683  0.029131221            8 
 2468000   0.85214155   -6.3985022    873.09363  0.029480471  0.029123347            6 
 2469000   0.85667953   -6.4291465    873.05605  0.029467262  0.029115518            6 
 2470000   0.85468523   -6.4201216    874.59666   0.02950731  0.029107625            8 
 2471000   0.84373785   -6.4162615    871.14053  0.029378812  0.029099812            7 
 2472000   0.86697257   -6.4272439    872.67632    0.0294187  0.029091935            9 
 2473000   0.86397993   -6.4149411    872.01159  0.029384405  0.029084149            5 
 2474000   0.85473288   -6.4302182    874.92797  0.029470762  0.029076254           12 
 2475000   0.84312124   -6.4017017    875.42215  0.029475493  0.029068391            4 
 2476000   0.85395434   -6.4418377     873.6172  0.029402841  0.029060626            7 
 2477000   0.84800523    -6.386919    875.24808  0.029445838  0.029052852            5 
 2478000   0.84851236   -6.4077949    874.89115  0.029421951  0.029045008            5 
 2479000   0.85326491   -6.4352996    871.23004  0.029287012  0.029037142            7 
 2480000   0.86571166   -6.4094974    876.03623  0.029436701   0.02902931            6 
 2481000   0.85708402    -6.423909    872.95128  0.029321217   0.02902151           22 
 2482000   0.85147321   -6.4074716    875.40548  0.029391804   0.02901365            6 
 2483000   0.86876936   -6.4479516     870.6297  0.029219684  0.029005813            6 
 2484000   0.83531984   -6.4374202     872.9165  0.029284638  0.028997863            9 
 2485000   0.85743384   -6.3996819    872.03571  0.029243317  0.028990004            6 
 2486000   0.86256451   -6.4154775    876.29222  0.029374236   0.02898217            8 
 2487000   0.84802501   -6.4490883    873.63838  0.029273501  0.028974331            7 
 2488000   0.84011326   -6.4368172    872.52125  0.029224318  0.028966425            7 
 2489000   0.88146066   -6.4143541    876.71307  0.029352922  0.028958555           10 
 2490000   0.84502086   -6.4317318    874.40568  0.029263912  0.028950786           10 
 2491000    0.8582762    -6.428737    876.10778  0.029309106  0.028942991            6 
 2492000   0.86426823   -6.4246613     879.0557  0.029395924  0.028935228            6 
 2493000   0.85754792   -6.4186946    878.14694  0.029353755  0.028927494            7 
 2494000   0.86293309   -6.4364045    878.27534  0.029346276  0.028919779            6 
 2495000   0.84393173   -6.4290697    877.71657  0.029315851  0.028912072           10 
 2496000   0.86042775   -6.4598359    875.58577  0.029232965  0.028904402            3 
 2497000   0.86679724   -6.4102746    878.05424  0.029303639  0.028896687            6 
 2498000   0.85845584   -6.4375935     877.3796  0.029269402  0.028888954            4 
 2499000   0.87186362   -6.4095599    877.41569  0.029258893  0.028881234            5 
 2500000    0.8511131   -6.4002956    877.39177  0.029246392  0.028873443            6 
 2501000   0.84247896    -6.453522    874.93501  0.029152839  0.028865648           13 
 2502000   0.86005495   -6.4642431    873.48142  0.029092773  0.028857852            5 
 2503000    0.8500248   -6.4229944    876.36058  0.029177007  0.028850058            8 
 2504000   0.85933373   -6.4305306    877.13379  0.029191087  0.028842325            6 
 2505000   0.82526847   -6.4300147    876.15126  0.029146748  0.028834531            5 
 2506000   0.85598804   -6.4349344    878.34567   0.02920809  0.028826843           15 
 2507000   0.85838713   -6.4109347    880.53431   0.02926919  0.028819117            8 
 2508000   0.86222571   -6.4175416    878.74152  0.029197951  0.028811395           12 
 2509000   0.84472033   -6.4344787    880.25479  0.029236575  0.028803681            8 
 2510000   0.86692948   -6.4374979    880.40037   0.02922976   0.02879601            7 
 2511000   0.85234935   -6.4707351    877.82046  0.029132499  0.028788343            8 
 2512000   0.85282163   -6.4404657    880.89137  0.029222776  0.028780623            3 
 2513000    0.8541756   -6.4169826    881.24227  0.029222784  0.028772963            4 
 2514000   0.85114588   -6.4144118    881.81419  0.029230118  0.028765381            5 
 2515000   0.85899534   -6.4013537    880.23311  0.029166107  0.028757872            8 
 2516000   0.85009899    -6.418879    881.55448   0.02919828  0.028750247            4 
 2517000   0.87070894   -6.4026778    883.10822  0.029238121  0.028742643           11 
 2518000   0.84681449   -6.4255796    879.71684  0.029114272  0.028735069            7 
 2519000   0.85515122   -6.4628724    879.29933  0.029088902  0.028727461            3 
 2520000   0.84895019   -6.4524516    878.46944  0.029049915  0.028719812            7 
 2521000   0.85645687   -6.4355207     880.9004  0.029118749  0.028712114            4 
 2522000   0.85389869    -6.403026    878.60207   0.02903126  0.028704504            6 
 2523000   0.86261371   -6.4675806    881.41371  0.029112621  0.028696795            6 
 2524000   0.84469301    -6.418631    881.03684  0.029088644  0.028689101            2 
 2525000   0.84332323   -6.4831463    879.45304  0.029024853  0.028681449            9 
 2526000   0.85064654   -6.4700425    879.96527  0.029030261  0.028673665            6 
 2527000   0.84287013   -6.4507867    881.88145  0.029081963  0.028665936            9 
 2528000   0.82213473   -6.4588121    882.51362  0.029091298  0.028658228            5 
 2529000   0.83735279   -6.4451595    882.37604  0.029075262  0.028650594            7 
 2530000   0.85469543    -6.426509    882.32829  0.029062197  0.028642958            8 
 2531000   0.85934479   -6.4556439    882.84018  0.029067568  0.028635324            4 
 2532000   0.84194172   -6.4715456    883.70606  0.029084586  0.028627606            6 
 2533000   0.83224425   -6.4531667    880.44579  0.028965844  0.028619902            6 
 2534000   0.83932473   -6.4722927    878.35494  0.028885653  0.028612061            6 
 2535000   0.84279988   -6.4373571    881.22053  0.028968459  0.028604211            7 
 2536000   0.85109091   -6.3906658    884.31008  0.029058559  0.028596545            7 
 2537000   0.84523039   -6.4342696    883.02788  0.029004989  0.028588933            6 
 2538000   0.84398315   -6.4290721    881.73624  0.028951151  0.028581268            6 
 2539000   0.85346161   -6.4493651    880.58461   0.02890195  0.028573591            5 
 2540000   0.82846903   -6.4285575    882.81086  0.028963611  0.028565943            8 
 2541000   0.84117062   -6.4543286     882.5634  0.028944097  0.028558284            8 
 2542000   0.84320878   -6.4702939    883.23143   0.02895461  0.028550531            4 
 2543000   0.84966158   -6.4619566    882.23963  0.028910723  0.028542758            8 
 2544000   0.81518247   -6.4344853     881.7851   0.02888447  0.028534985            7 
 2545000    0.8459726   -6.4216144    883.97645  0.028944874  0.028527276            5 
 2546000   0.85344084   -6.4519377    881.75145  0.028860679  0.028519526            5 
 2547000   0.86303798   -6.4644922    882.93545  0.028888086  0.028511808            6 
 2548000   0.84398909   -6.4300013    883.07619  0.028881351  0.028504046            2 
 2549000    0.8401546   -6.4548864    881.02823  0.028803068  0.028496365           12 
 2550000   0.85246952   -6.4451138    883.41771   0.02886986  0.028488552            6 
 2551000   0.85665923   -6.4524558    883.45846  0.028859874  0.028480788            6 
 2552000   0.84155265   -6.4542434     882.6985  0.028823749  0.028472951            5 
 2553000   0.84284473   -6.4563545    883.05956  0.028824245   0.02846514            6 
 2554000   0.83895695   -6.4713274    882.02512  0.028779206  0.028457262            4 
 2555000   0.82953074   -6.4700251    882.97389  0.028798887  0.028449447            4 
 2556000    0.8418402   -6.4814109    878.19292  0.028631746  0.028441546            5 
 2557000   0.85227239   -6.4387021    881.25357  0.028720296  0.028433643            8 
 2558000   0.82892087   -6.4575444    881.27326   0.02870971  0.028425874            5 
 2559000   0.84272824   -6.4603218     881.7529   0.02871411  0.028418029            5 
 2560000   0.84140748   -6.4726461    879.82212  0.028640043   0.02841013            8 
 2561000   0.83641196    -6.472861    881.70722    0.0286902  0.028402241            6 
 2562000   0.84323478   -6.4790927    882.69727  0.028711204  0.028394343            4 
 2563000   0.84314783   -6.4607844    881.95279  0.028675796  0.028386418            4 
 2564000    0.8372892   -6.4788612    882.73647  0.028690083  0.028378536            7 
 2565000   0.83199315   -6.4616989    881.57805  0.028641262  0.028370683            4 
 2566000   0.85145741   -6.4546858    881.15972  0.028616515   0.02836285            7 
 2567000   0.83313175   -6.4351607    881.52804  0.028617324   0.02835502           11 
 2568000     0.843343   -6.4324762     881.0132  0.028589473  0.028347167            6 
 2569000    0.8460677   -6.4526081    884.49832  0.028691395  0.028339325            5 
 2570000   0.85623248   -6.4577716    882.60459  0.028618826   0.02833144            9 
 2571000   0.83693842   -6.4675342    879.91531  0.028520527  0.028323501            4 
 2572000   0.84211159   -6.4767444    881.11193  0.028548209  0.028315504            7 
 2573000   0.85578389   -6.4832913    881.82812   0.02856031   0.02830748            6 
 2574000    0.8361307   -6.4707514    881.75259  0.028546769  0.028299468           10 
 2575000   0.85551269   -6.4700225    881.34393  0.028522457   0.02829147            7 
 2576000   0.82924078   -6.4687344    882.04496  0.028534063  0.028283531            7 
 2577000   0.85893696   -6.4731156    883.99969  0.028586201  0.028275585            6 
 2578000   0.83522377   -6.4441511    883.50231  0.028559035   0.02826771            7 
 2579000   0.83513175   -6.4186145    887.16821  0.028666415  0.028259915            4 
 2580000   0.84990705   -6.4666665    883.66929   0.02854229   0.02825209            5 
 2581000   0.85185645   -6.4375172    885.31773  0.028584455  0.028244143            4 
 2582000   0.85314153   -6.4617047    882.33425  0.028477093  0.028236288            6 
 2583000   0.83311217   -6.4528403    884.25447  0.028528019  0.028228346            7 
 2584000   0.83151676   -6.4937895    881.48195  0.028427565  0.028220396            8 
 2585000    0.8345657   -6.4832471    884.69385  0.028520111  0.028212494            7 
 2586000   0.83053873   -6.4718239    886.29191   0.02856058  0.028204586            8 
 2587000   0.82229236   -6.4666873     884.0854  0.028478463  0.028196687            4 
 2588000   0.83273964   -6.4712305    883.66924  0.028454058   0.02818872           12 
 2589000   0.85441008   -6.4739013    885.22498  0.028493143  0.028180783            6 
 2590000   0.84926702   -6.4324251     887.1218  0.028543173  0.028172946            6 
 2591000   0.83795469   -6.4745992    884.87694  0.028459956  0.028165097            5 
 2592000   0.83485151   -6.4451777    888.56087  0.028567415   0.02815725            8 
 2593000    0.8291076   -6.4841135    886.73428  0.028497695  0.028149377            4 
 2594000   0.83788301   -6.4641286    887.78902  0.028520593  0.028141574            5 
 2595000   0.86244151   -6.4861996    885.51314  0.028436517  0.028133728            5 
 2596000   0.83070358   -6.4858972    885.00429  0.028409228   0.02812587            8 
 2597000   0.84266603   -6.4781577    885.91442  0.028427494  0.028118075            7 
 2598000   0.85221913   -6.5332363    885.51053  0.028403597  0.028110298            3 
 2599000   0.82567559   -6.4635207    884.72803  0.028367578  0.028102463            9 
 2600000   0.83024842   -6.4748484    887.89115   0.02845805  0.028094659            5 
 2601000   0.84053109   -6.4866414    885.49483  0.028370333  0.028086821            3 
 2602000   0.83143185   -6.4720495    887.15692  0.028412661  0.028078995            6 
 2603000   0.83987421   -6.4582821    887.55354  0.028414443  0.028071217            5 
 2604000    0.8194383   -6.4682255    887.87235  0.028413734  0.028063479            8 
 2605000   0.83014087   -6.4618227    888.31696  0.028417049  0.028055703            5 
 2606000   0.82401154   -6.5092036    884.63455   0.02828839  0.028047911            8 
 2607000    0.8340593   -6.4803301    883.36823  0.028237061  0.028040027           11 
 2608000   0.83855857   -6.4586808    887.22611  0.028349505   0.02803222           10 
 2609000   0.82064268   -6.4846456    886.93566  0.028329362  0.028024427            8 
 2610000   0.82021732    -6.452469    890.86126  0.028443846  0.028016656            5 
 2611000   0.83856003   -6.4915955    888.06915  0.028343838  0.028008884            5 
 2612000    0.8454493    -6.463555    889.56247   0.02838063  0.028001061            5 
 2613000   0.82660383   -6.4731181    887.46099  0.028302749  0.027993333            6 
 2614000   0.83997624   -6.5263868     886.6641  0.028266517  0.027985483            6 
 2615000   0.84052484   -6.4951619    887.37217  0.028278272  0.027977542            5 
 2616000   0.83199881   -6.4967972    889.32176  0.028329567    0.0279697            8 
 2617000   0.84127671   -6.4586084    890.32013  0.028350533  0.027961891            5 
 2618000    0.8377909   -6.4624993    888.78091  0.028290709  0.027954101            5 
 2619000   0.85851813   -6.4497933    888.94454  0.028285113  0.027946302            4 
 2620000   0.79908063   -6.4673287    888.82118  0.028270394   0.02793858            3 
 2621000   0.80956489   -6.4825064    889.83155  0.028291732   0.02793078            6 
 2622000   0.84425293   -6.4740068    888.22211   0.02822979  0.027922951           10 
 2623000   0.83122137   -6.4917398    889.91909  0.028272941  0.027915149            6 
 2624000   0.84286846   -6.4945936    886.37315  0.028149554  0.027907313            4 
 2625000    0.8429931   -6.4811005    890.56109  0.028271781  0.027899543            7 
 2626000   0.83591267   -6.4845104    890.44344  0.028257281  0.027891704            5 
 2627000    0.8267512   -6.4717862    889.44329  0.028214798  0.027883937            5 
 2628000   0.82060015   -6.4853747     888.1345   0.02816256  0.027876247            5 
 2629000    0.8437536   -6.4780527    891.27282  0.028251326  0.027868522            5 
 2630000   0.82950555   -6.4675128    890.22851  0.028207494  0.027860776            9 
 2631000   0.83014422   -6.4696775    893.77869   0.02830922  0.027853063            8 
 2632000   0.80792887   -6.4609196    893.02793  0.028274694  0.027845387            7 
 2633000   0.84839941   -6.4728372    891.74741  0.028223427  0.027837745            7 
 2634000   0.82796286   -6.4921309    892.09501  0.028223709  0.027830078            6 
 2635000    0.8282151    -6.474169    890.95039  0.028176799  0.027822429            8 
 2636000   0.81842169   -6.4867599    889.39514  0.028116943  0.027814625            7 
 2637000    0.8400284    -6.497102    889.57885  0.028112086  0.027806814            6 
 2638000   0.81360397   -6.4534247    892.84382  0.028204568  0.027799057            8 
 2639000    0.8364492   -6.4821778    890.44179  0.028118031  0.027791287            4 
 2640000   0.80525613   -6.4807202    891.75226  0.028148746  0.027783484            4 
 2641000   0.83703463    -6.482176    890.88772  0.028110808  0.027775725           10 
 2642000   0.84681206   -6.5086093    888.24093  0.028016683  0.027767918           13 
 2643000   0.82712784   -6.4900647    892.48957  0.028140042  0.027760088           14 
 2644000   0.81506403   -6.5180322    891.51106  0.028098558  0.027752248           17 
 2645000   0.82370711    -6.524586    889.45612  0.028023192  0.027744394           14 
 2646000   0.84347934   -6.5039961    890.93655  0.028059226  0.027736506           11 
 2647000   0.81784558   -6.5022758    891.58087   0.02806891  0.027728647            7 
 2648000   0.84233977   -6.5014493    888.99853  0.027977043  0.027720753           12 
 2649000     0.847103   -6.4984681    890.06924  0.028000165  0.027712836            5 
 2650000   0.82277901   -6.4994423    890.33727  0.027998027  0.027704923            7 
 2651000   0.82841528   -6.5083123    891.05573   0.02801005  0.027697076            9 
 2652000   0.83371975   -6.4979498    890.99262  0.027997506  0.027689237           22 
 2653000   0.82662337   -6.5046198    891.89203  0.028015204  0.027681422           11 
 2654000    0.8248699   -6.5308511    890.56644  0.027963026  0.027673562            8 
 2655000   0.82540152   -6.4814049    891.79333  0.027991002  0.027665758           10 
 2656000   0.84475381   -6.4640271    891.70108  0.027977569  0.027657957           18 
 2657000   0.83822529   -6.4948363    892.74347  0.027999732   0.02765018            8 
 2658000   0.80545266   -6.4959737    889.69531  0.027893633  0.027642367           16 
 2659000   0.81855445   -6.5062771    892.37117  0.027967004  0.027634544            5 
 2660000   0.83016089   -6.5018671    893.45835   0.02799055  0.027626775           12 
 2661000   0.83125602   -6.5294055     892.1812  0.027940035  0.027618998            9 
 2662000   0.83011672   -6.5389268    891.14019  0.027896951  0.027611204            5 
 2663000   0.83448083   -6.5015399    892.21761  0.027920191   0.02760342            8 
 2664000   0.84140677   -6.4919832    892.83581  0.027929048  0.027595666           10 
 2665000   0.83357912    -6.530907    893.24086  0.027931234  0.027587821           12 
 2666000   0.82734769   -6.4786701    894.28187  0.027953297  0.027580007            7 
 2667000     0.831823   -6.5053713    895.09653   0.02796827   0.02757223            8 
 2668000   0.82965902   -6.4843744    897.15515  0.028022087   0.02756451            4 
 2669000   0.80866411   -6.4740571     893.1862  0.027887667  0.027556842            6 
 2670000   0.84178705    -6.519506    892.94656  0.027869743  0.027549074           15 
 2671000   0.83487639   -6.5307079    891.55647  0.027815939  0.027541214            8 
 2672000   0.81454842   -6.5133254    894.27504  0.027890314  0.027533347            7 
 2673000   0.81806296   -6.5173843    892.30935  0.027818598  0.027525518            8 
 2674000   0.82811289    -6.533275    890.98976  0.027767071  0.027517676            8 
 2675000   0.82325703   -6.5217197    892.08726   0.02779088  0.027509799            8 
 2676000   0.81028503   -6.5218288    893.92329  0.027837671  0.027501988            5 
 2677000   0.83480067   -6.5056972    894.97631  0.027860052  0.027494233            6 
 2678000   0.84060675   -6.4889433    895.21631  0.027857117  0.027486536            6 
 2679000   0.80850572   -6.4941223     895.3619  0.027851247  0.027478847            6 
 2680000   0.80995672   -6.5153696    893.34512  0.027778144  0.027471121           10 
 2681000   0.82066595    -6.510168    897.75611   0.02790489   0.02746333            9 
 2682000   0.81031142   -6.5338041    892.79549  0.027740352  0.027455581            6 
 2683000   0.81924652   -6.4876223    897.07377  0.027862895  0.027447815            5 
 2684000   0.81054097   -6.4947642    893.72559  0.027748559  0.027440068            5 
 2685000   0.81632932   -6.5102902    894.28436  0.027755567  0.027432321            8 
 2686000   0.82693818   -6.4785574    896.29523  0.027807621  0.027424649            5 
 2687000   0.83011752   -6.4878668    896.53501  0.027804708   0.02741697            3 
 2688000    0.8264389   -6.5123506    895.99663  0.027777673  0.027409219            6 
 2689000   0.81167397   -6.5211941    893.41988  0.027687489  0.027401418            6 
 2690000   0.80244428   -6.5043777    897.04874  0.027789614  0.027393668           10 
 2691000    0.8083667   -6.5174905    896.16981  0.027752069  0.027385942            9 
 2692000   0.82034115    -6.507022    893.77009  0.027667474  0.027378123            6 
 2693000   0.80894144   -6.5229509    895.33729  0.027705696  0.027370314            7 
 2694000   0.81821919   -6.4940814    895.49328  0.027700238  0.027362519           10 
 2695000   0.80263961   -6.5050609    895.83366  0.027700484   0.02735474            7 
 2696000   0.81363231   -6.5183378    896.46208  0.027709634  0.027346964            9 
 2697000   0.83666128   -6.5364267    896.92155  0.027713557  0.027339192            4 
 2698000   0.83547439   -6.4952173    897.24059  0.027713139  0.027331556            5 
 2699000   0.82145566   -6.4646608    898.30181  0.027735637   0.02732386           10 
 2700000   0.82212204    -6.511866    895.63941  0.027643192  0.027316085            9 
 2701000   0.83632548    -6.514004    895.72947  0.027635736  0.027308367            8 
 2702000   0.80256117   -6.4815483     898.3234  0.027705508  0.027300607            7 
 2703000    0.8177882   -6.5283945    896.87791  0.027650694  0.027292914           12 
 2704000   0.82837894   -6.5203489    894.99419  0.027582415  0.027285192           10 
 2705000   0.80989249    -6.502709    898.93762  0.027693703  0.027277478            6 
 2706000   0.82122478    -6.486073    898.53396  0.027671038  0.027269838           10 
 2707000   0.83550328   -6.5239479    897.16172  0.027618573  0.027262094            7 
 2708000   0.79872682   -6.5201958    898.40888  0.027646753   0.02725437            8 
 2709000   0.81724567    -6.519088    897.30839  0.027602694  0.027246637            9 
 2710000   0.81189923   -6.5091039    898.29305  0.027622788    0.0272389           15 
 2711000   0.80975835   -6.4901447    896.33275  0.027552341  0.027231249            5 
 2712000   0.79576513   -6.5371427    897.34717  0.027573352  0.027223605            9 
 2713000   0.82564858   -6.5111408    898.34586  0.027593865   0.02721592           15 
 2714000   0.82033052    -6.523905    896.97899  0.027541728  0.027208173           11 
 2715000    0.8170804   -6.5431276    897.08233  0.027534756  0.027200429            7 
 2716000   0.82339779   -6.5619207    895.33083  0.027470877  0.027192676            5 
 2717000   0.78651134   -6.5625038    895.50142  0.027465999  0.027184877            9 
 2718000   0.80798305   -6.5016107    898.56937  0.027549956  0.027177108            8 
 2719000   0.79595394   -6.5230157    897.84548  0.027517638  0.027169395            6 
 2720000   0.83028235    -6.509003    898.77825  0.027536098  0.027161682            7 
 2721000   0.82732701   -6.5061452    897.35705  0.027482453  0.027154008           10 
 2722000   0.82542207   -6.5609063    897.45507  0.027475357  0.027146273            8 
 2723000   0.83413852   -6.5294565     897.1498  0.027455925  0.027138541           11 
 2724000   0.80651609   -6.5121497    898.35605  0.027482748  0.027130856           11 
 2725000   0.80415267   -6.5384687    896.23816  0.027407895  0.027123098            8 
 2726000     0.817219   -6.5315026    897.72377  0.027443255  0.027115303            6 
 2727000   0.80712747    -6.562215    897.20781  0.027417425  0.027107526           10 
 2728000   0.84637014   -6.5502212    897.04211  0.027402313  0.027099708           12 
 2729000   0.80970471   -6.5222515    897.13181  0.027395011  0.027091923           12 
 2730000   0.82057008   -6.5543698    897.66463   0.02740124  0.027084058            7 
 2731000   0.80730675   -6.5399796    896.83073  0.027365761  0.027076255           22 
 2732000   0.82763552   -6.5394483    896.73038  0.027352684  0.027068456           18 
 2733000   0.81258273     -6.53101    899.01528  0.027412345  0.027060671           14 
 2734000   0.81293654   -6.5087374    900.56472  0.027449547   0.02705295           14 
 2735000   0.82877052   -6.5380488    898.78546  0.027385297  0.027045195            4 
 2736000   0.82077713   -6.5358757    898.83016  0.027376649  0.027037427           14 
 2737000   0.82166073   -6.5269485    901.49508  0.027447786  0.027029706            8 
 2738000   0.81127529   -6.4985941    898.58314  0.027349134  0.027021934            7 
 2739000   0.80742691   -6.5372662    897.02296  0.027291681  0.027014121            8 
 2740000    0.8206241   -6.5197858    900.98878  0.027402335  0.027006279            8 
 2741000   0.80209127   -6.5396078     898.2277  0.027308394  0.026998499           10 
 2742000   0.80391042   -6.5124924    899.01191  0.027322268  0.026990733            9 
 2743000   0.82072411   -6.4901541     899.2034  0.027318125  0.026982999            7 
 2744000   0.82975005   -6.5579508    898.63882  0.027291024  0.026975251           10 
 2745000   0.81163587   -6.5432687    899.91484  0.027319819  0.026967478           13 
 2746000   0.79244835   -6.5217068    901.20742  0.027349096  0.026959766            7 
 2747000    0.8102775   -6.5437029    900.55796  0.027319438  0.026952058           11 
 2748000   0.81078579   -6.5184341    896.93224  0.027199546  0.026944294            7 
 2749000   0.82787617   -6.5190881    899.59852  0.027270478   0.02693654            7 
 2750000   0.82504416   -6.5003364    905.20244  0.027430377  0.026928818           14 
 2751000   0.79768423   -6.5431344    901.84036  0.027318562   0.02692117            7 
 2752000   0.79073912   -6.5617544    898.68893  0.027213207  0.026913392           10 
 2753000   0.81511098   -6.5507651    897.93246  0.027180423  0.026905602            7 
 2754000   0.82280886   -6.5293945    902.50856  0.027309022  0.026897851            7 
 2755000   0.79513532   -6.5676704    897.70441  0.027153794  0.026890096            9 
 2756000   0.80902569   -6.5682283    898.03576   0.02715396  0.026882376            9 
 2757000   0.82121742   -6.5245325    902.93014  0.027292049  0.026874618            9 
 2758000    0.8037547   -6.5252162    901.24107  0.027231118  0.026866855            5 
 2759000   0.80582605   -6.5715279    900.28136   0.02719226  0.026859114            7 
 2760000   0.82990104   -6.5339971    899.84756   0.02716931  0.026851347            8 
 2761000   0.81294253   -6.5253546    899.54819  0.027150434  0.026843615           10 
 2762000   0.82548758   -6.5483767    902.33274  0.027224618  0.026835846            9 
 2763000   0.82797334   -6.5553071     900.3683  0.027155516  0.026827999            7 
 2764000   0.81454404   -6.5520586    900.24581  0.027141999  0.026820194           10 
 2765000   0.81218814   -6.5405513    902.01068  0.027185373  0.026812407           11 
 2766000   0.81986731   -6.5545476    899.71962   0.02710652  0.026804654            5 
 2767000   0.80769053   -6.5375826    902.89162  0.027192254  0.026796878            8 
 2768000   0.82895037   -6.5169613    904.07092  0.027217935  0.026789102           11 
 2769000   0.82153564   -6.5430693    903.09663  0.027178784  0.026781347            7 
 2770000    0.8216384   -6.5520723    901.48985  0.027120633  0.026773588            8 
 2771000   0.81935505   -6.5816845     901.3607  0.027106962  0.026765788            6 
 2772000     0.807262   -6.5266444    903.54916  0.027162974   0.02675803           16 
 2773000   0.80315352   -6.5532632    901.49417  0.027091422  0.026750277            8 
 2774000   0.82896318   -6.5424938    900.01735  0.027037291  0.026742517           10 
 2775000   0.81890685   -6.5702317    901.78637  0.027080672  0.026734788            7 
 2776000   0.80270224   -6.5420755    902.36323  0.027088233  0.026727042           10 
 2777000   0.80307204   -6.5436803    900.18104  0.027012995  0.026719286            4 
 2778000   0.81305538   -6.5621488    901.80774  0.027052068  0.026711492            9 
 2779000   0.80720745   -6.5670453    901.42588  0.027030883  0.026703634           10 
 2780000   0.81415535   -6.5607529    899.37695  0.026959741  0.026695791            7 
 2781000   0.81544075   -6.5531051    902.16337  0.027033542  0.026687956            9 
 2782000   0.81439175   -6.5607042    899.93161  0.026956974  0.026680128            9 
 2783000   0.81161561   -6.5320107    900.31843   0.02695887  0.026672327           11 
 2784000   0.78818166   -6.5454444    902.60237  0.027017552  0.026664535            6 
 2785000   0.80675789   -6.5567977    899.43676  0.026913129  0.026656708            7 
 2786000   0.80639758   -6.5433797    902.31354  0.026989517  0.026648948           13 
 2787000   0.78253413   -6.5368966    902.55865  0.026987162  0.026641193           12 
 2788000   0.81099317   -6.5255345    903.56026   0.02700742  0.026633363            2 
 2789000   0.78408979   -6.5481665    901.93951   0.02694931  0.026625597           15 
 2790000   0.81409133   -6.5651621     899.9306  0.026879648  0.026617799            6 
 2791000   0.80283485   -6.5441082    901.02615  0.026902728  0.026610003           12 
 2792000   0.80794969    -6.552561    902.80338  0.026946137  0.026602198            5 
 2793000   0.80307813   -6.5427595    902.37366  0.026923668  0.026594395            9 
 2794000   0.80289008   -6.5423787    901.40167  0.026885041  0.026586662            8 
 2795000   0.82106226   -6.5426133    902.23681  0.026900322  0.026578884            7 
 2796000   0.81563215   -6.5469084    902.44251  0.026896832  0.026571115            4 
 2797000   0.81521597    -6.547086    902.84174   0.02689911  0.026563368            4 
 2798000    0.8101261   -6.5540212    901.58258  0.026851995  0.026555671           10 
 2799000   0.80680019   -6.5701105    902.15075  0.026859317  0.026547909            8 
 2800000   0.80351121   -6.5392151     905.4056  0.026946595  0.026540194            3 
 2801000   0.79738185   -6.5454648    902.39624  0.026847443  0.026532442            7 
 2802000     0.808571    -6.567711    904.53515  0.026901474   0.02652464            8 
 2803000   0.81848446   -6.5674896    903.85439  0.026871637  0.026516866            9 
 2804000   0.81109653   -6.5521115    903.83884  0.026861592  0.026509072            8 
 2805000   0.79254493   -6.5661526    902.38011  0.026808678  0.026501284            6 
 2806000   0.80612221   -6.5867422    902.03129  0.026788765  0.026493502           10 
 2807000    0.7913237   -6.5607131    903.68672  0.026828367  0.026485738            6 
 2808000    0.7970365   -6.5578891    905.29628   0.02686658  0.026477963            5 
 2809000   0.81555085   -6.6081027     902.6808  0.026779423   0.02647018            9 
 2810000   0.80746357   -6.5615389    905.03477  0.026839703   0.02646238           17 
 2811000   0.78758121   -6.5826045    902.29152   0.02674883  0.026454593           10 
 2812000   0.83856449   -6.6027276    900.57571  0.026688469  0.026446792           12 
 2813000   0.81506773   -6.5469718    904.01261  0.026780798  0.026438989           11 
 2814000   0.79676892   -6.5736288    902.07924  0.026714026  0.026431208           13 
 2815000   0.80058676   -6.5400326    903.65866  0.026751293  0.026423426           10 
 2816000   0.81702585    -6.568781    904.22205  0.026758465  0.026415628           13 
 2817000   0.78483693   -6.5564838    904.37561  0.026753509  0.026407832            9 
 2818000   0.78441069   -6.5587941    905.38419   0.02677384  0.026400083            6 
 2819000   0.78700862   -6.5668327    902.17919  0.026669599  0.026392295            8 
 2820000   0.79647323   -6.5695969      902.832  0.026679433  0.026384466           12 
 2821000   0.79977384   -6.5592763    905.25786  0.026741636  0.026376651           17 
 2822000   0.80646586   -6.5636143    901.02999  0.026607311  0.026368819            9 
 2823000   0.78275997   -6.6045618    904.37869  0.026696738  0.026360917           10 
 2824000   0.80564152   -6.5838758     903.4019   0.02665846  0.026353025           15 
 2825000   0.82041714   -6.5818068    903.89406  0.026663542  0.026345186           11 
 2826000   0.80383448   -6.5615322    903.68558  0.026647959  0.026337385           14 
 2827000   0.81374173   -6.5748164    903.20153  0.026624264    0.0263296           15 
 2828000   0.78729513   -6.5721277    902.23654  0.026586414  0.026321725            8 
 2829000   0.81149235   -6.5819457    904.24509  0.026636181  0.026313925           10 
 2830000   0.82796732   -6.5404778    902.94898  0.026588604   0.02630612           13 
 2831000   0.82201726    -6.567057    903.14861  0.026585088  0.026298314           10 
 2832000   0.79765412   -6.5366335    905.53549  0.026645936  0.026290514            6 
 2833000   0.80049889   -6.5612708    901.15361  0.026507636  0.026282691           10 
 2834000   0.80700669   -6.5799852    902.30851  0.026532243  0.026274824           15 
 2835000   0.78523782    -6.590863    905.75961  0.026624327  0.026266995            8 
 2836000   0.80103443   -6.5701997    903.57212  0.026550662   0.02625918            5 
 2837000   0.78693833   -6.5731343      903.149  0.026528874  0.026251373            9 
 2838000   0.78764069   -6.5748581    904.97056  0.026573014  0.026243557           22 
 2839000   0.80426832   -6.5946682    901.88288  0.026473021  0.026235711            7 
 2840000   0.80997632   -6.5665628    906.55401  0.026600763  0.026227876            8 
 2841000     0.788467   -6.5726839    905.24402  0.026552975  0.026220073            5 
 2842000   0.80996631   -6.5803229    907.73974  0.026616812  0.026212316           16 
 2843000   0.81239065   -6.5953392    904.36391  0.026508498  0.026204589            6 
 2844000   0.78508437   -6.5741156    905.77793   0.02654061  0.026196834            5 
 2845000   0.78393259   -6.5753098    906.29139  0.026546321  0.026189078           13 
 2846000   0.80688283   -6.6000745    905.01796  0.026499706   0.02618128           11 
 2847000   0.78294154   -6.5738537    907.86723  0.026573798  0.026173554            8 
 2848000   0.80407901   -6.5710058     906.8822  0.026535645  0.026165878           12 
 2849000   0.79081014   -6.5715569    904.16044  0.026446719  0.026158176           10 
 2850000   0.78419931   -6.5780867    904.24257  0.026439841  0.026150397            8 
 2851000   0.77388954   -6.6201033    905.55629  0.026468967  0.026142657            7 
 2852000   0.79939857   -6.5894847     904.8612  0.026439376  0.026134853           10 
 2853000   0.80753275   -6.5674844    905.88147   0.02645991    0.0261271            7 
 2854000   0.79592894   -6.5737294    905.26347  0.026432594  0.026119321           10 
 2855000   0.81115726   -6.5942459    903.67987  0.026377112  0.026111567            4 
 2856000   0.78613463   -6.6033398    906.26439  0.026443289  0.026103801           11 
 2857000    0.7796699   -6.5976336    905.75755   0.02641925  0.026096007            9 
 2858000   0.79361385   -6.5989718    904.26217  0.026366403  0.026088183           13 
 2859000   0.78949349    -6.619554    905.24353  0.026385785  0.026080413           13 
 2860000   0.79211865   -6.5934024    906.77826  0.026421278  0.026072617            9 
 2861000   0.79081979   -6.6065196    906.65155  0.026408352  0.026064842            8 
 2862000   0.77262245   -6.6241385    904.61818  0.026339919  0.026057063           14 
 2863000   0.78555066   -6.5811522    907.81789  0.026423853  0.026049349           14 
 2864000   0.80035553   -6.5684586    909.37722  0.026459998  0.026041624           10 
 2865000    0.7872078   -6.5740761    907.33472  0.026391353  0.026033945           13 
 2866000   0.80407419   -6.5878851    907.28838  0.026380797   0.02602623           13 
 2867000   0.79832088   -6.5783244    907.49509  0.026377604  0.026018539            7 
 2868000   0.79416903    -6.573456    908.18518  0.026388458  0.026010831            9 
 2869000   0.79173919   -6.5856615    907.68089  0.026364613  0.026003118            9 
 2870000   0.79898523   -6.5876407    908.10398  0.026367711  0.025995405            4 
 2871000   0.79099673    -6.597575    908.79215  0.026378502    0.0259877           10 
 2872000   0.78883753   -6.5355112    910.31001  0.026413359  0.025980032           10 
 2873000   0.78462372   -6.5778033    908.98454  0.026365719  0.025972451            6 
 2874000   0.79381344   -6.5640977    910.76945    0.0264083  0.025964817            9 
 2875000   0.78559385   -6.5975018    908.34813  0.026328931  0.025957218           11 
 2876000   0.79896216   -6.6085112    908.63829  0.026328184  0.025949586           10 
 2877000   0.78566227   -6.5897092    905.95994  0.026241453  0.025941895           13 
 2878000   0.78292183    -6.592228    908.74651  0.026313022  0.025934279            7 
 2879000   0.78795438   -6.5866632    907.07902  0.026255616  0.025926666            4 
 2880000   0.78726103   -6.6021658     908.0779  0.026275402  0.025919015           11 
 2881000   0.81918497    -6.597047    908.90907  0.026290324  0.025911398           10 
 2882000   0.79668705   -6.5785825    906.84376  0.026221483  0.025903668            8 
 2883000   0.80696302   -6.6181245     907.0422  0.026218124  0.025895952            7 
 2884000   0.77988635   -6.5897674    910.60402  0.026311952   0.02588822            5 
 2885000   0.78962014   -6.5999006    906.84384  0.026194218  0.025880539            5 
 2886000    0.7936023   -6.5918462    908.72261  0.026239392  0.025872834           10 
 2887000   0.78994685   -6.6092812    908.02075  0.026210044  0.025865111           19 
 2888000   0.79233316   -6.5866499    910.94513  0.026285351  0.025857469           13 
 2889000   0.78833547   -6.6114212    911.51532    0.0262927  0.025849881            8 
 2890000   0.77139761   -6.5639283    910.88213  0.026265344  0.025842304            9 
 2891000   0.80316015   -6.5827358    909.95618  0.026229568  0.025834673            7 
 2892000   0.78757893   -6.5958011    911.43931  0.026263235  0.025827037            7 
 2893000   0.81721585   -6.5827176    911.31322  0.026250525  0.025819381            6 
 2894000   0.78808483   -6.5956739    912.47956  0.026275039  0.025811825            6 
 2895000   0.78151937    -6.578301    911.85602  0.026248014  0.025804296            9 
 2896000   0.78586572   -6.5987396    909.57938   0.02617344  0.025796703           14 
 2897000   0.77750318   -6.5731004     915.1243  0.026323907  0.025789118           15 
 2898000   0.79576223   -6.5615428    910.66952  0.026186724  0.025781554           13 
 2899000   0.81960663   -6.6190964    909.64073  0.026148118  0.025773947           13 
 2900000   0.80387093   -6.5844621    910.73981  0.026170684  0.025766361           20 
 2901000   0.79355545   -6.5959845    910.46614  0.026153801  0.025758808           15 
 2902000   0.78994144      -6.5809    912.46653  0.026202232  0.025751277           11 
 2903000   0.78545048    -6.615345    911.35293  0.026161239  0.025743703            4 
 2904000   0.78324156   -6.5957014    911.50237  0.026156519  0.025736043            8 
 2905000   0.79257357   -6.6167848    911.69996  0.026153183  0.025728407           11 
 2906000   0.77536267   -6.6430021    909.36523  0.026077232   0.02572073           14 
 2907000   0.78139248   -6.6004204    909.36541  0.026068266  0.025713104            9 
 2908000   0.77529942   -6.5923081    911.98466  0.026134361  0.025705575            5 
 2909000   0.78045693   -6.6088737    911.37749  0.026107983  0.025697978            7 
 2910000   0.78982114   -6.6130611    910.13859  0.026063533  0.025690411            8 
 2911000    0.7870465   -6.6362541    909.88585  0.026047345  0.025682831           13 
 2912000   0.78762256   -6.5775012    912.87031  0.026123807  0.025675274            7 
 2913000   0.78976997   -6.6125237    912.17746  0.026095018  0.025667767           14 
 2914000   0.77189141   -6.5981627    911.53015  0.026067552  0.025660227            5 
 2915000   0.78977699   -6.5989599    912.49624  0.026086227  0.025652662            9 
 2916000    0.7792884    -6.591306    913.27104  0.026099424   0.02564509           11 
 2917000   0.78909281   -6.5826879     910.6435  0.026015413  0.025637553           15 
 2918000   0.79094473   -6.5929971    912.02589  0.026045976  0.025630009           22 
 2919000   0.77390671   -6.6291767    910.93841  0.026006007  0.025622435           16 
 2920000   0.78896524    -6.626534    912.62605  0.026045264  0.025614883           11 
 2921000   0.79052296   -6.6021188    914.33845  0.026085201  0.025607289            8 
 2922000   0.79720266   -6.6249283    912.81963  0.026032958    0.0255997            7 
 2923000   0.78959215   -6.6544015    908.51436   0.02590131  0.025592061           14 
 2924000   0.79999252   -6.5971391    913.05265  0.026021792  0.025584495           10 
 2925000    0.7725289   -6.6108664    913.08919  0.026013937  0.025576967            6 
 2926000   0.78028574     -6.58613     913.9523  0.026029628  0.025569468            4 
 2927000    0.7658309   -6.5962202    913.32973   0.02600301  0.025561946            6 
 2928000   0.79101768   -6.6269447    912.92771  0.025982687  0.025554399           14 
 2929000   0.77097089   -6.6232976    912.92833  0.025973834  0.025546839           19 
 2930000   0.77119242   -6.5791726    914.97453  0.026023166  0.025539273            6 
 2931000   0.79043325   -6.6239378    913.49921  0.025972342  0.025531731           12 
 2932000   0.78625291   -6.6076796    914.74054  0.025998765  0.025524192           11 
 2933000   0.78216723   -6.6027212    913.47383   0.02595391  0.025516662            4 
 2934000   0.77930675   -6.6093854    912.14024  0.025907187  0.025509095           15 
 2935000   0.79375755   -6.6019066    914.07213  0.025953212  0.025501622            8 
 2936000   0.77942748   -6.6338215    912.90502  0.025911246  0.025494105            9 
 2937000   0.77137181   -6.5917227    913.04216  0.025906315  0.025486567            7 
 2938000   0.77543864   -6.6197886    912.92795  0.025894258  0.025478979            3 
 2939000   0.77809496   -6.6078319    913.00625  0.025887667  0.025471427            7 
 2940000   0.77327849   -6.6293962    912.63379  0.025868305   0.02546389            4 
 2941000   0.79775278    -6.632288    911.82485  0.025836588  0.025456323           17 
 2942000   0.79855436   -6.6187451    912.60681  0.025849955  0.025448744           11 
 2943000   0.78330866    -6.620251    916.57639  0.025953573  0.025441164            8 
 2944000   0.75940695   -6.6278064    911.17903  0.025791979  0.025433589            7 
 2945000    0.7720376   -6.6142499    911.17923  0.025783227  0.025425905           14 
 2946000   0.77029484    -6.622006    911.70167  0.025789253  0.025418257           14 
 2947000   0.77151461   -6.6450531    911.64743  0.025778968  0.025410641           10 
 2948000   0.78717601   -6.6459843    911.57001  0.025768035  0.025403031           10 
 2949000   0.79227024   -6.6060166    912.55289  0.025787072   0.02539542            8 
 2950000   0.76719148   -6.6328143    911.30779  0.025743158  0.025387772           31 
 2951000   0.78218461   -6.6319313     912.9504   0.02578082  0.025380121           10 
 2952000   0.77551154   -6.6416622    910.48107  0.025702379  0.025372468            8 
 2953000    0.7803865   -6.6551757    911.34415  0.025718031  0.025364807            9 
 2954000   0.77413948   -6.6165394    914.57409  0.025800443  0.025357175           11 
 2955000   0.78172807   -6.6283678      911.757  0.025712267  0.025349575           14 
 2956000   0.78132885   -6.6474368     912.3569  0.025720481  0.025341973           15 
 2957000   0.77085609   -6.6341827    911.67453  0.025692552  0.025334371           15 
 2958000   0.78130489   -6.6075126    913.41157  0.025732803  0.025326772            7 
 2959000    0.7771587   -6.6242326    913.88099  0.025737327  0.025319142            8 
 2960000   0.77275754   -6.6415258    912.85771  0.025699823   0.02531149            5 
 2961000   0.77688916   -6.5988352    913.13422  0.025698925  0.025303872           14 
 2962000   0.78212991   -6.6274546    912.59935  0.025675201  0.025296276           20 
 2963000   0.76375697   -6.6285098    912.14665  0.025653804  0.025288676            8 
 2964000   0.79549518   -6.6087269    915.54236   0.02574062  0.025281059           11 
 2965000   0.77129847   -6.6528085    912.79248  0.025654651  0.025273437           10 
 2966000   0.78004635   -6.6117741    914.12462  0.025683429  0.025265776            9 
 2967000   0.77761355   -6.6316161    915.19862  0.025704938  0.025258223            8 
 2968000   0.78527322   -6.6134216    915.30579  0.025699286  0.025250656           12 
 2969000   0.78433422   -6.6514697    912.83682  0.025621332  0.025243123           13 
 2970000   0.78840803   -6.6287287    912.64149  0.025607225   0.02523559            9 
 2971000   0.78166694   -6.6444845    912.26983  0.025588181  0.025228011           11 
 2972000   0.77098083   -6.6291148    913.22084  0.025606237  0.025220411           22 
 2973000   0.77583701   -6.6535242    912.85688  0.025587422   0.02521279            8 
 2974000   0.77147061   -6.6363869    912.80222  0.025577287  0.025205184           11 
 2975000    0.7762533   -6.6285759     913.1658  0.025578874  0.025197586            9 
 2976000   0.76193647   -6.6702142    913.81575  0.025588479  0.025189987           13 
 2977000   0.76557504    -6.654425    912.93352  0.025555188  0.025182365            9 
 2978000   0.78134716   -6.6428679    915.31182  0.025613158  0.025174776           11 
 2979000   0.75888947   -6.6364255    913.03495  0.025540868  0.025167221           12 
 2980000   0.78796217   -6.6365279    915.04147  0.025588408  0.025159688           12 
 2981000   0.77411772   -6.6506043    910.73655  0.025459481  0.025152126           13 
 2982000   0.77067362   -6.6198285    916.03686  0.025599063  0.025144533           13 
 2983000   0.77002332   -6.6181782    914.20192   0.02553922   0.02513693           11 
 2984000   0.78778662   -6.6769162    912.68537  0.025488309  0.025129306            9 
 2985000   0.78654167   -6.6544124    914.36507  0.025526663  0.025121682            5 
 2986000   0.77918467   -6.6440401    914.42269  0.025519722  0.025114022            4 
 2987000   0.77564097   -6.6306983    915.03649  0.025528303  0.025106415            9 
 2988000   0.75200324    -6.643541    913.77474   0.02548457  0.025098841           14 
 2989000   0.76496306   -6.6155887    915.42137  0.025521952   0.02509126            5 
 2990000   0.75898435    -6.637025    914.39407  0.025484785  0.025083637           10 
 2991000   0.77553249   -6.6323874    914.32159  0.025474245  0.025076037            6 
 2992000    0.7748244   -6.6190229    913.75635  0.025449987  0.025068426            6 
 2993000   0.79194076   -6.6386789    914.49842  0.025462145  0.025060816           10 
 2994000   0.76915083   -6.6254417    913.91025   0.02543727  0.025053203           19 
 2995000   0.76237284   -6.6091172    915.43214  0.025471122   0.02504557            9 
 2996000   0.77763038   -6.6435969    912.90869  0.025392431  0.025037983           13 
 2997000   0.75963382    -6.648553    913.69237  0.025405749  0.025030351           10 
 2998000   0.77956957   -6.6630282     910.8621  0.025318604  0.025022716            9 
 2999000   0.77302817   -6.6608771    913.91606  0.025395022  0.025015084           11 
 3000000   0.78185833   -6.6862346    911.89091  0.025330303   0.02500743            5 
 3001000   0.79253772   -6.6452899     913.1045  0.025355562  0.024999772           29 
 3002000   0.77819441   -6.6356191    914.62665  0.025389369  0.024992178            5 
 3003000   0.78555153   -6.6734821    913.49222  0.025349434  0.024984536            8 
 3004000   0.77394622   -6.6335087    915.40761   0.02539413   0.02497689            6 
 3005000   0.77949266    -6.638925    913.99414  0.025346482  0.024969261           14 
 3006000   0.78002364   -6.6348381    913.17519  0.025315347  0.024961637           11 
 3007000   0.78109178    -6.657133    915.78873  0.025379357  0.024954009            8 
 3008000   0.77418671   -6.6580908     916.3916  0.025387622  0.024946367           13 
 3009000   0.77518495   -6.6331845    914.88339  0.025337415  0.024938723            6 
 3010000   0.76152808   -6.6630528    916.22414  0.025366117  0.024931151            8 
 3011000   0.77769568    -6.669136    913.99852  0.025296096  0.024923553           28 
 3012000   0.76945682   -6.6375341    917.64755  0.025388655  0.024915989           18 
 3013000   0.76178962   -6.6681436    915.40742  0.025318271  0.024908422            5 
 3014000   0.74925033   -6.6522261    913.53189  0.025258015  0.024900842            5 
 3015000    0.7737646   -6.6578531    916.19042  0.025323118  0.024893286           15 
 3016000    0.7567125   -6.6859175    913.26595  0.025233918  0.024885605           23 
 3017000   0.75900992   -6.6565398     913.2303  0.025224569  0.024877962            8 
 3018000   0.77058127   -6.6817595    913.98714  0.025237109  0.024870331            7 
 3019000   0.77970697    -6.679002    913.74246  0.025221996  0.024862722            8 
 3020000   0.77270796   -6.6454408    914.61978  0.025237853  0.024855134           13 
 3021000   0.75661071   -6.6650649    916.20986   0.02527336  0.024847535            6 
 3022000   0.76302512   -6.6554932        915.6   0.02524818  0.024839972           14 
 3023000   0.76697822   -6.6504798    917.16381  0.025282937  0.024832412            5 
 3024000   0.77950235   -6.6492001    916.47517  0.025255599  0.024824848           11 
 3025000    0.7713181   -6.6432322    915.64434  0.025224362  0.024817271            7 
 3026000   0.76941836   -6.6289433    918.21909  0.025286933  0.024809769            8 
 3027000   0.76082975   -6.6488503    914.95756  0.025188789  0.024802212           15 
 3028000   0.76106549   -6.6533743    914.95423  0.025180378  0.024794632           17 
 3029000   0.76279827    -6.676583    916.60257  0.025217414  0.024787057           12 
 3030000   0.74761723   -6.6413288    915.30972  0.025173535  0.024779514           17 
 3031000   0.76545904   -6.6855886    914.06369  0.025130971  0.024771972           12 
 3032000   0.76604495   -6.6191653    918.38191  0.025241367  0.024764479            5 
 3033000   0.75366914   -6.6317427    917.67608  0.025213652  0.024756981           15 
 3034000   0.75907991    -6.635115    917.70935  0.025206256    0.0247495           11 
 3035000   0.77922966   -6.6451689    919.51279  0.025247468  0.024742058            6 
 3036000   0.76583656   -6.6323846     917.9925  0.025197423  0.024734586            8 
 3037000   0.77721403   -6.6447968    918.28972  0.025197281  0.024727067           18 
 3038000   0.76514818   -6.6676766    917.64325  0.025171254  0.024719557           14 
 3039000   0.76242196   -6.6516685    917.49049  0.025158783  0.024712046            7 
 3040000   0.76734067   -6.6707072    915.66323  0.025100417  0.024704538           12 
 3041000     0.761567   -6.6560945      915.733  0.025094075  0.024697048           10 
 3042000   0.75990687   -6.6274881    918.28645  0.025155776  0.024689602           13 
 3043000   0.77689946   -6.6505641    916.41225  0.025096184  0.024682123           13 
 3044000    0.7547655   -6.6384518    914.59594  0.025038216  0.024674626           10 
 3045000   0.76263596    -6.650861     917.5231  0.025110101  0.024667084            5 
 3046000   0.76410158   -6.6590392    918.22485  0.025121056  0.024659568            8 
 3047000   0.76061673   -6.6967626    913.94104  0.024995653  0.024652018           18 
 3048000   0.75395421   -6.6870508    917.55309  0.025086207  0.024644438           18 
 3049000   0.78119991   -6.6961413    915.89971   0.02503279  0.024636848            9 
 3050000   0.74938295   -6.7020729    915.86341   0.02502359   0.02462926           11 
 3051000   0.75431417   -6.6760556    917.60938  0.025063077  0.024621734           15 
 3052000   0.75362781   -6.6865174    915.28708  0.024991456  0.024614232           16 
 3053000    0.7579275   -6.6725003    916.36485  0.025012688  0.024606732            8 
 3054000   0.74562212   -6.6941515    919.37365  0.025086598  0.024599295           26 
 3055000   0.77501429   -6.6916536    917.98253   0.02504044  0.024591793           14 
 3056000   0.76400818   -6.6867825    917.11063   0.02500847  0.024584324            7 
 3057000   0.77262633   -6.6653832    918.69195  0.025043396   0.02457684           10 
 3058000   0.76597948   -6.6686009    919.45543  0.025056012  0.024569369            9 
 3059000   0.76077027   -6.6664272    920.93655   0.02508817  0.024561916           12 
 3060000     0.778077   -6.6766354    919.30862  0.025035638  0.024554473            9 
 3061000    0.7764006   -6.6439933    917.81197  0.024986714  0.024547001            9 
 3062000   0.78018101   -6.6502683    920.40184  0.025049038    0.0245396            5 
 3063000   0.74396228   -6.6366825    918.69323  0.024994375  0.024532218            8 
 3064000   0.74152556   -6.6852502    918.78705  0.024988769  0.024524805           14 
 3065000   0.76366314   -6.6643379    918.25872  0.024966251  0.024517399            7 
 3066000     0.762271   -6.6499824    918.13869  0.024954846  0.024509955            9 
 3067000   0.76026146   -6.6819338    917.35181  0.024925329  0.024502527            8 
 3068000   0.75018404   -6.6838969    917.65418  0.024925418  0.024495018           12 
 3069000   0.75859691   -6.6719492    922.80741  0.025057223  0.024487548            9 
 3070000   0.75948073   -6.7126943    917.79808  0.024913086  0.024480076           23 
 3071000   0.77754368   -6.6855706    916.07805    0.0248583  0.024472546            8 
 3072000   0.76522252   -6.6790253    917.05395  0.024876681  0.024465077            7 
 3073000   0.75668416   -6.6658806    918.10837  0.024897179  0.024457657           13 
 3074000   0.75117286   -6.6678749    918.68283  0.024904653  0.024450179           23 
 3075000   0.77449176    -6.697327     918.6891  0.024896724  0.024442696           21 
 3076000   0.75213041   -6.6891095    917.19913  0.024848264  0.024435206           21 
 3077000    0.7575371   -6.6836879    919.03896  0.024890016  0.024427695           13 
 3078000   0.74797065   -6.7061179    918.60614  0.024870212  0.024420222           19 
 3079000   0.76597553    -6.676198    918.53995  0.024860343  0.024412738            6 
 3080000   0.75469828   -6.6848094    917.64107  0.024827951  0.024405253           15 
 3081000   0.74802616   -6.6845112    918.49626  0.024843023  0.024397773            8 
 3082000   0.76610404   -6.6756856    919.41569  0.024859823  0.024390278           18 
 3083000    0.7502298   -6.6980433    916.45299  0.024771678  0.024382802           17 
 3084000   0.76156973   -6.6909424    916.79592  0.024772912  0.024375303           11 
 3085000   0.75162549   -6.6623835    919.66553  0.024842397  0.024367792           11 
 3086000   0.76078224   -6.6848522    919.79416   0.02483782  0.024360252           28 
 3087000   0.76473885   -6.6838645    917.42504   0.02476582  0.024352744           20 
 3088000   0.76249795   -6.6739272    919.84182   0.02482302  0.024345239           10 
 3089000   0.75016626   -6.6870012    917.89632  0.024762499  0.024337765            7 
 3090000   0.75907737   -6.6961848    917.19195   0.02473549  0.024330251           15 
 3091000   0.76081073   -6.6831437    920.65036  0.024820726  0.024322805           14 
 3092000   0.76473689   -6.6744516    917.70502  0.024733318  0.024315336           16 
 3093000   0.74742036   -6.6644246    919.89073   0.02478421  0.024307879           16 
 3094000   0.75590647   -6.6644174    921.33195  0.024815017  0.024300484            4 
 3095000   0.75916439    -6.666166    919.12823  0.024747664   0.02429308            8 
 3096000   0.73494026   -6.6607373    919.32992  0.024745099  0.024285628           12 
 3097000   0.75848327   -6.6966068    921.34491  0.024791328  0.024278182            6 
 3098000   0.76068183   -6.6921459    920.83684  0.024769659  0.024270723            5 
 3099000   0.75772414   -6.6605668    921.35966  0.024775725  0.024263303            7 
 3100000   0.75817574   -6.6803479    918.61673  0.024693998  0.024255926            4 
 3101000   0.76097826   -6.6644055    919.41418  0.024707465  0.024248538            7 
 3102000   0.73168578   -6.6768378    921.72687  0.024761629  0.024241112           16 
 3103000   0.75658656   -6.6963877    919.77425   0.02470121  0.024233699           15 
 3104000   0.75129489   -6.7042483    916.45188  0.024604056   0.02422627           17 
 3105000   0.75299064    -6.689098    919.16649  0.024668988  0.024218864           13 
 3106000   0.75278318    -6.681807    919.29713   0.02466455  0.024211471           10 
 3107000   0.76131623   -6.6733094    921.83154  0.024724588  0.024204055           10 
 3108000   0.76078549   -6.6806437    921.80499  0.024715921  0.024196643           17 
 3109000   0.76351976   -6.6972147    919.33805  0.024641848  0.024189207            8 
 3110000   0.74726204   -6.6766096    920.52538  0.024665739  0.024181815           15 
 3111000   0.76465036   -6.6928118    918.60278  0.024606311  0.024174403           11 
 3112000   0.78471642   -6.7241072    918.80223  0.024603744   0.02416697           21 
 3113000   0.74036886   -6.7154166     917.8442  0.024570195  0.024159487           13 
 3114000   0.73942037   -6.7011873      918.166  0.024570916  0.024152003           21 
 3115000    0.7540086   -6.6856811    919.01341  0.024585698  0.024144557           10 
 3116000   0.76197705   -6.6771085    918.29441   0.02455858  0.024137107            9 
 3117000   0.75236954     -6.71848    918.71494  0.024561944  0.024129651            6 
 3118000   0.75377998   -6.6883275    918.30644  0.024543148  0.024122191            8 
 3119000   0.74393539   -6.7034949     919.3583  0.024563383  0.024114787           12 
 3120000   0.75118037   -6.6854034    921.83278  0.024621602   0.02410739           12 
 3121000   0.74760926   -6.6883278    919.11329    0.0245411  0.024099974           11 
 3122000   0.74298922    -6.698297    920.69477  0.024575453  0.024092596           13 
 3123000   0.76607875   -6.6899902    921.15943  0.024579983   0.02408518           13 
 3124000   0.75088798    -6.711817    917.82294  0.024483113  0.024077738           10 
 3125000   0.75976634    -6.690473     920.0533  0.024534755  0.024070337           19 
 3126000   0.76732718   -6.6771357    921.41311  0.024563156  0.024062909            8 
 3127000    0.7433391   -6.7096358    920.97884  0.024543728  0.024055554           17 
 3128000    0.7497834   -6.6923957    919.67214  0.024501069  0.024048139           13 
 3129000   0.74700498   -6.7119152    918.85949  0.024471596  0.024040694           22 
 3130000   0.76510816   -6.7079247    920.46749  0.024506589  0.024033289           11 
 3131000   0.74940342   -6.7140669    919.41282  0.024470691  0.024025895           12 
 3132000   0.75005445   -6.6991577    921.60256  0.024521141  0.024018483            8 
 3133000   0.73444854   -6.6789411        922.7  0.024542504  0.024011076           26 
 3134000   0.75279325    -6.703926    920.27185  0.024470109    0.0240037           10 
 3135000   0.74281115   -6.7275101    922.13792  0.024511907  0.023996313           10 
 3136000   0.75693162   -6.7483472    919.68793  0.024438986  0.023988935           14 
 3137000   0.75549249   -6.7198385     922.2085  0.024498154  0.023981548           10 
 3138000   0.74619955   -6.7253112    922.04112  0.024485902  0.023974192           23 
 3139000   0.76588613   -6.7386706    921.00308  0.024450544  0.023966835           17 
 3140000   0.73362181   -6.6856147    925.98113  0.024574871  0.023959478            7 
 3141000    0.7555377   -6.7147692    923.28519  0.024495521  0.023952162            8 
 3142000   0.74777848   -6.7102741    921.16291  0.024431437  0.023944835           26 
 3143000    0.7558958   -6.6909807    923.33449  0.024481241  0.023937496           15 
 3144000   0.75439511   -6.7156452    923.87894  0.024487885   0.02393014            6 
 3145000   0.73337426   -6.7217856    921.83948  0.024426059  0.023922784           33 
 3146000   0.76267086   -6.6838834    923.00988  0.024449297   0.02391548           40 
 3147000   0.73797811   -6.7458343    920.20656  0.024367296  0.023908168           11 
 3148000   0.74194086   -6.7246835     922.7057  0.024425712  0.023900828           18 
 3149000   0.74268665   -6.7017162    922.03526  0.024400213  0.023893512            3 
 3150000   0.74468518   -6.6933871    924.06662  0.024446207  0.023886169            8 
 3151000   0.75598528   -6.7155557    922.46496   0.02439609  0.023878838            8 
 3152000   0.76734305   -6.7475229      919.236  0.024302982  0.023871485           10 
 3153000   0.73918105   -6.7025607    922.78192  0.024388993  0.023864124           16 
 3154000   0.75214873   -6.7167139    921.83569  0.024356259  0.023856753            9 
 3155000   0.76409987   -6.7425054    921.55176   0.02434104  0.023849379           12 
 3156000   0.75848741   -6.7047069    922.02466  0.024345814  0.023842034            7 
 3157000   0.74864115   -6.7246208    923.43335  0.024375286  0.023834742           12 
 3158000   0.75519913   -6.7129077    923.82558  0.024377918  0.023827429           11 
 3159000    0.7484607   -6.7074762    922.80963    0.0243434  0.023820123            8 
 3160000   0.74574706   -6.6962869    922.69427  0.024332655  0.023812807            7 
 3161000    0.7538911   -6.7367108    919.53849  0.024241761    0.0238055            7 
 3162000   0.74068772    -6.681729    925.78818  0.024398803  0.023798215           15 
 3163000   0.75076769   -6.7352848    922.21429   0.02429693  0.023790959            9 
 3164000   0.75426867   -6.7191305    922.17481  0.024288211  0.023783665            6 
 3165000   0.73505964    -6.739304    922.66356  0.024293406   0.02377639            5 
 3166000    0.7270428   -6.7735747    918.66095  0.024180379  0.023769004           11 
 3167000   0.75775685   -6.7269892    922.27079  0.024267729  0.023761646           17 
 3168000   0.74119526   -6.7318867    923.63338  0.024295912  0.023754347           12 
 3169000   0.74046862   -6.7450816    921.85978  0.024241606  0.023747067            9 
 3170000     0.741679   -6.7155988     924.9887  0.024316212  0.023739759           18 
 3171000   0.73586505   -6.7237625    926.18184  0.024339899  0.023732517            6 
 3172000   0.74674235   -6.7182433    924.27661  0.024282172  0.023725262           12 
 3173000   0.74736524   -6.7300646    926.59254  0.024335344  0.023718059           10 
 3174000   0.75065538   -6.7218915    923.44331  0.024244993  0.023710886            8 
 3175000   0.75473455   -6.7097552    926.14074  0.024308156  0.023703708            7 
 3176000   0.75107113   -6.7100339    923.44554  0.024229784   0.02369649           13 
 3177000   0.74049629   -6.7101448    924.12266  0.024239919  0.023689274            8 
 3178000   0.74793987   -6.6917302    926.48141  0.024294142  0.023682096           12 
 3179000   0.72393765   -6.7159415    924.36886  0.024231122  0.023674888           18 
 3180000   0.73178464   -6.7050694    927.15489  0.024296512  0.023667704            9 
 3181000   0.74994907   -6.7261362    926.72295  0.024277558  0.023660524            7 
 3182000   0.74092187   -6.7145429    926.02377  0.024251618  0.023653344           31 
 3183000    0.7490254   -6.7361332    926.44573  0.024255046  0.023646157           20 
 3184000   0.72353756   -6.7394838    923.95865  0.024182335  0.023638913           19 
 3185000   0.76453474   -6.7576159    926.86031  0.024250662  0.023631661           18 
 3186000   0.73155303    -6.704191    927.12292  0.024249919  0.023624476           19 
 3187000   0.74755187   -6.7271684    924.73837  0.024179959  0.023617288           19 
 3188000   0.72651804   -6.7126934    925.21628  0.024184867  0.023610079            7 
 3189000   0.72355863   -6.7309317    925.55854  0.024186227  0.023602879           14 
 3190000   0.74325989   -6.7235089    925.64067  0.024180791  0.023595671           37 
 3191000   0.74989742   -6.7157914    925.46521  0.024168631  0.023588485            8 
 3192000   0.74284814    -6.726161    924.43421  0.024134143  0.023581266           14 
 3193000   0.74995856   -6.7629923    925.87941  0.024164302  0.023574044            6 
 3194000   0.75141526   -6.7283537    925.18285  0.024138563   0.02356681           14 
 3195000   0.73043911    -6.720157    928.20951  0.024209951  0.023559603            8 
 3196000   0.73391937   -6.7055808    926.13463  0.024148275   0.02355241           10 
 3197000   0.74850691   -6.7253701    925.15775  0.024115258  0.023545206           14 
 3198000   0.73381146   -6.7187701    925.63483  0.024120149  0.023537998           12 
 3199000   0.72258581   -6.7450041    925.94132  0.024120593    0.0235308           23 
 3200000   0.74923208   -6.7528095    924.04724   0.02406373  0.023523571           19 
 3201000    0.7440589   -6.7600932    924.35616  0.024064255   0.02351633           11 
 3202000   0.73958694   -6.7412026    924.70143  0.024065725  0.023509082           13 
 3203000   0.73663159   -6.7763396    924.43318  0.024051233  0.023501827           24 
 3204000   0.73944595   -6.7456578     923.9004  0.024029869  0.023494596           12 
 3205000   0.74959528   -6.7438556    925.92656  0.024075054   0.02348737           14 
 3206000   0.74049892   -6.7305826    926.72971   0.02408842  0.023480157           12 
 3207000   0.72662553   -6.7605542    924.45964  0.024021922  0.023472943           15 
 3208000    0.7237566   -6.7494721    926.54723  0.024068663  0.023465681           17 
 3209000   0.73402525   -6.7655418    925.56414  0.024035633  0.023458449           27 
 3210000   0.72970756   -6.7493011    926.49582  0.024052332  0.023451221           19 
 3211000   0.73884291   -6.7194778     925.4188   0.02401689  0.023444037           14 
 3212000   0.74990122   -6.7478628    924.29803  0.023980335  0.023436819           10 
 3213000   0.74922366   -6.7392079    925.97679  0.024016412  0.023429597           18 
 3214000   0.73887601   -6.7578758     923.6934  0.023949736  0.023422395           22 
 3215000   0.72891493   -6.7320309    924.97355  0.023975468    0.0234152           13 
 3216000   0.76173334   -6.7420507     925.7049  0.023986964  0.023407981           11 
 3217000    0.7514567   -6.7774318    922.19833  0.023888673   0.02340075           18 
 3218000   0.72995348   -6.7397634    924.20358  0.023933177  0.023393488            9 
 3219000   0.74320783   -6.7400037    925.08793  0.023948636   0.02338625           11 
 3220000   0.75228008   -6.7579839     925.5223   0.02395244  0.023379001           12 
 3221000   0.73641108   -6.7732925    922.67878  0.023871437  0.023371788           13 
 3222000   0.73711449   -6.7289034    925.78528  0.023944374  0.023364565            9 
 3223000   0.74473776   -6.7509408    928.53519  0.024008046  0.023357407           35 
 3224000   0.74084678   -6.7238512    926.87251  0.023957623  0.023350229           13 
 3225000   0.74922008   -6.7287033    925.90106  0.023925092  0.023343032           22 
 3226000   0.73956533   -6.7475958    925.14462  0.023898136  0.023335846           14 
 3227000    0.7283686   -6.7501726     925.7391  0.023906081  0.023328638           13 
 3228000   0.74066539    -6.725416      927.875  0.023953816  0.023321469           25 
 3229000   0.73591913   -6.7054333      928.173  0.023954088  0.023314329            8 
 3230000   0.72028164   -6.7289845    925.56506  0.023879387  0.023307173            6 
 3231000   0.74848381   -6.7776864    924.39889  0.023841919  0.023300014            7 
 3232000   0.73984894   -6.7613994    923.78497  0.023818713   0.02329278            5 
 3233000   0.74277194   -6.7325185    928.37456  0.023929646  0.023285585           18 
 3234000   0.74232956   -6.7372737    927.32202  0.023895125  0.023278397            8 
 3235000    0.7327096   -6.7192674    926.12132  0.023856809   0.02327124            7 
 3236000   0.75691802   -6.7333866    926.87183  0.023868764  0.023264054           12 
 3237000   0.72691849   -6.7279838    925.52925  0.023826826  0.023256864            7 
 3238000   0.72673897   -6.7306533    924.43095  0.023791202   0.02324968           15 
 3239000   0.72957587   -6.7202089    925.71715  0.023816948  0.023242462           13 
 3240000   0.72398531   -6.7422441    925.97694  0.023816279  0.023235308            9 
 3241000   0.74716582   -6.7475529     927.0172  0.023835678  0.023228128           17 
 3242000   0.73998383   -6.7652321     923.8326  0.023746468  0.023220925           28 
 3243000   0.73701941   -6.7822727    923.46845  0.023729789  0.023213731           21 
 3244000   0.73308084   -6.7700274    926.76005   0.02380703  0.023206547           13 
 3245000   0.73767582    -6.721903    927.68869  0.023823541  0.023199376           18 
 3246000   0.75164578   -6.7398725    927.40141  0.023808827  0.023192218           18 
 3247000   0.72913121   -6.7383128     927.0651  0.023792863  0.023185095           39 
 3248000   0.72856327   -6.7313696    928.11224  0.023812403  0.023177957            8 
 3249000   0.74517701   -6.7743203    925.27354  0.023732265  0.023170771           19 
 3250000   0.73049949   -6.7592844    926.65019  0.023760261  0.023163586           22 
 3251000   0.72057551   -6.7345198    928.71633  0.023805914  0.023156412           11 
 3252000   0.72079313   -6.7292685    927.63371  0.023770851  0.023149267           21 
 3253000   0.75155171   -6.7614179    924.73727  0.023689345  0.023142125           11 
 3254000   0.72634658   -6.7637742    927.13686  0.023743517  0.023134961           29 
 3255000   0.72840623   -6.7399456    928.15263  0.023762228  0.023127799           20 
 3256000    0.7228864   -6.7746591    925.59382   0.02368944  0.023120618           15 
 3257000   0.72968373   -6.7521177     926.8753  0.023714955  0.023113473           10 
 3258000   0.73704566   -6.7632951    926.79673  0.023705666  0.023106313            9 
 3259000   0.72613283   -6.7508919    928.67145  0.023746329  0.023099144           22 
 3260000   0.71591054    -6.746377    927.55305  0.023710456  0.023091974           12 
 3261000    0.7158486   -6.7773138    925.29306  0.023645432  0.023084809           21 
 3262000   0.73205465   -6.7381753    927.94076  0.023705824  0.023077647            8 
 3263000   0.73044744   -6.7783142     925.4605  0.023635215  0.023070503           19 
 3264000   0.70594426   -6.7287843    928.86868  0.023714989  0.023063358            9 
 3265000   0.72425543   -6.7446831     927.1626  0.023664181  0.023056215            9 
 3266000   0.73667392   -6.7384192     929.4999  0.023716572  0.023049116            8 
 3267000   0.74085342   -6.7538825    926.50882  0.023633018  0.023041994           12 
 3268000    0.7290499    -6.729399    928.47852  0.023676013  0.023034857           25 
 3269000   0.71912731   -6.7443553    926.30957  0.023613479  0.023027717           10 
 3270000   0.72059771   -6.7832725    927.49141  0.023636376  0.023020571           19 
 3271000   0.72708043   -6.7517682    927.63775  0.023632879  0.023013431            6 
 3272000   0.72442522   -6.7692853    926.78398  0.023603911  0.023006302           29 
 3273000   0.73139484   -6.7704232    925.18242  0.023555923  0.022999134           18 
 3274000   0.73353452   -6.7951395    923.94938  0.023517343  0.022991957           20 
 3275000   0.72085843   -6.7477713     926.8455  0.023583855  0.022984793           20 
 3276000   0.73231761   -6.7743029    927.75506  0.023599793  0.022977605           47 
 3277000   0.71186171   -6.7599091    927.25077  0.023579767  0.022970397           36 
 3278000    0.7150573   -6.7405276    927.81833  0.023587002  0.022963214           20 
 3279000   0.73100509   -6.7829479     925.9369  0.023531994  0.022956014           30 
 3280000   0.70699965   -6.7802551    924.87437  0.023497824  0.022948806           26 
 3281000    0.7195955   -6.7404294    926.66163  0.023536057  0.022941648           10 
 3282000   0.72052386   -6.7603683    926.63002  0.023528083  0.022934517           21 
 3283000   0.72765348   -6.7784457    926.58636  0.023519808   0.02292736           13 
 3284000   0.73224688   -6.7732679    926.05832  0.023499247  0.022920184           13 
 3285000   0.72869667   -6.7830543    927.42209  0.023526689  0.022913033           16 
 3286000   0.71749725   -6.8048414    924.93174  0.023456374   0.02290586           10 
 3287000   0.71679864   -6.7855282     928.5422  0.023540772  0.022898673           17 
 3288000   0.72012466   -6.7936089    927.60769  0.023509927  0.022891486           10 
 3289000   0.71617253   -6.7978614    923.86105  0.023407851  0.022884331           18 
 3290000     0.734496   -6.7581276    926.97793  0.023479684  0.022877186           12 
 3291000     0.714504   -6.8107218    925.20762  0.023427723  0.022870056           10 
 3292000    0.7301215   -6.7421331    927.16518   0.02347016  0.022862916           13 
 3293000   0.70784989   -6.7541742    929.62874  0.023525376  0.022855804            7 
 3294000   0.73781622   -6.7729062    927.28943  0.023459053  0.022848668            7 
 3295000   0.72010237    -6.753948    926.83867  0.023440533   0.02284153           13 
 3296000   0.72089376   -6.7647841    926.10532   0.02341488  0.022834406           14 
 3297000   0.72307541   -6.7667075    927.31023  0.023438232  0.022827258           16 
 3298000   0.71258491   -6.7855541    926.69119  0.023415484  0.022820126           15 
 3299000   0.73470252   -6.7862685    928.05223  0.023442766  0.022813012           22 
 3300000   0.71713646   -6.7873612    926.91595  0.023406968   0.02280587           32 
 3301000   0.74246734   -6.7609379    925.95063  0.023375508  0.022798787           17 
 3302000   0.72201463   -6.7592956    927.08376  0.023397026  0.022791708           30 
 3303000   0.72432154   -6.7859328      928.264   0.02341972   0.02278462            6 
 3304000    0.7222535   -6.7760648     926.6047   0.02337078  0.022777558           11 
 3305000    0.7370397   -6.7647809    926.08657  0.023350645  0.022770481           15 
 3306000   0.71460078   -6.7503605    928.39568  0.023401787  0.022763377            8 
 3307000   0.72477103   -6.7715048    926.88557  0.023356657  0.022756247           32 
 3308000   0.72051566   -6.7848107    927.96577  0.023376808  0.022749129           14 
 3309000    0.7095296   -6.7693582    926.19024  0.023325029  0.022742028           18 
 3310000   0.72900617   -6.7671158     928.5288  0.023376858  0.022734908           20 
 3311000   0.71401709   -6.7641684    927.61605  0.023346825  0.022727805           13 
 3312000   0.72699542   -6.7648557    927.17841  0.023328764  0.022720699            6 
 3313000   0.72173187   -6.7778236    928.08769  0.023344594  0.022713582           19 
 3314000    0.7484475   -6.7948512    925.91141  0.023282826  0.022706484           10 
 3315000   0.72349003   -6.7714043    926.51979  0.023291096  0.022699365           11 
 3316000   0.73378714   -6.7980122    927.97529   0.02332065  0.022692273           19 
 3317000   0.72340805   -6.7586026    929.30519   0.02334703  0.022685201           14 
 3318000   0.72252297   -6.7810142    929.15529  0.023336229  0.022678111           13 
 3319000   0.73115202   -6.7555127    929.59853  0.023340327  0.022671034           33 
 3320000   0.71968895   -6.7804923    927.25891  0.023274571  0.022663978           13 
 3321000   0.72155648   -6.7572542    928.94145  0.023309782  0.022656904           17 
 3322000   0.71705554   -6.7799551    927.53838  0.023267569  0.022649837           12 
 3323000    0.7219446   -6.7838683    928.11672  0.023275071  0.022642781           28 
 3324000   0.72412289    -6.793757    927.91548  0.023263023   0.02263572           27 
 3325000    0.7293759   -6.8096835    928.26815  0.023264866  0.022628666           25 
 3326000   0.71638715   -6.7967227    926.04588  0.023202192  0.022621601           14 
 3327000    0.7219426   -6.8013152     926.6755  0.023210988  0.022614522           15 
 3328000   0.71437238      -6.7899    928.24317  0.023243269  0.022607441           27 
 3329000   0.71884616   -6.7853905    927.26986  0.023211922  0.022600345           19 
 3330000   0.72889771   -6.7865181    926.90775   0.02319589  0.022593281           18 
 3331000   0.70775977   -6.7864404    928.42167  0.023226801  0.022586175            6 
 3332000   0.72449056    -6.807554    925.59925  0.023149241    0.0225791           22 
 3333000   0.71729095   -6.8011941    925.81535  0.023147698  0.022572037            7 
 3334000   0.71458291   -6.8051428    925.39574  0.023130267  0.022564973            8 
 3335000   0.72904271   -6.8051003    925.96383  0.023137527  0.022557915           14 
 3336000   0.72869429   -6.7990903    927.25701  0.023162895  0.022550824           15 
 3337000   0.69967005   -6.8127386    927.29482  0.023156898  0.022543745           28 
 3338000   0.72477972   -6.8058585    927.16681  0.023146765  0.022536665           23 
 3339000   0.70941939   -6.8037314    927.99616  0.023160531  0.022529564           17 
 3340000   0.73382552   -6.7930184      927.786  0.023148353  0.022522488           10 
 3341000   0.71332477   -6.8017905    926.67249  0.023113651  0.022515374           18 
 3342000   0.73299878   -6.7820077    928.66824  0.023156499  0.022508331           13 
 3343000   0.70391303   -6.8078624    929.24159  0.023163865  0.022501303           13 
 3344000   0.70738473   -6.8007176    928.26806  0.023132677  0.022494254           16 
 3345000   0.72445616   -6.7781887    930.63575  0.023184747   0.02248723           12 
 3346000   0.70599808   -6.7945056    930.12825  0.023165179  0.022480209           16 
 3347000   0.71641967   -6.7967713    928.38264  0.023114795  0.022473161           12 
 3348000   0.70439572   -6.7914472    928.58928  0.023113035  0.022466108           12 
 3349000   0.70358671   -6.7719665     929.5988  0.023131253  0.022459098           10 
 3350000   0.72217742   -6.7782627    931.19742  0.023164115  0.022452082           25 
 3351000   0.71772913   -6.8275219    927.71302  0.023070552  0.022445019           30 
 3352000    0.7174026   -6.7782042     929.5389  0.023109062  0.022438016           22 
 3353000   0.72371095   -6.7873538    928.83727  0.023084732  0.022431004           20 
 3354000   0.71468428   -6.7796708    928.58664  0.023071622  0.022424011            9 
 3355000   0.69604315   -6.8220488    929.49744  0.023087368  0.022417012           15 
 3356000   0.71357856   -6.7942698    929.98031  0.023092479  0.022410009           18 
 3357000   0.70055441   -6.7717748    930.97737  0.023110351  0.022403013           10 
 3358000   0.70136923   -6.7596699    930.76706  0.023098249  0.022396052           17 
 3359000   0.70994422     -6.80457    929.55199  0.023061228  0.022389082           25 
 3360000   0.72555065   -6.7781061    931.22403  0.023095834   0.02238215           20 
 3361000   0.71495263   -6.7904408    930.96616  0.023082569  0.022375215           13 
 3362000   0.71699448   -6.7621009     933.3789  0.023135507  0.022368284           27 
 3363000   0.71534017   -6.7918186    931.38589  0.023079242  0.022361369           19 
 3364000   0.72910698   -6.7651716    933.10451  0.023114955  0.022354439           15 
 3365000   0.72504685   -6.7723069    932.27411  0.023087521  0.022347514           13 
 3366000   0.72031424   -6.8042192    927.44089  0.022961004  0.022340578           14 
 3367000   0.72562914   -6.7985428    929.56962  0.023006871  0.022333634           11 
 3368000   0.71664976   -6.7849155    927.84114  0.022957273  0.022326677           16 
 3369000   0.71078104   -6.7978429    929.78791  0.022998613  0.022319738            7 
 3370000   0.71704752   -6.8097022    928.13074   0.02295081  0.022312798           13 
 3371000   0.71607432    -6.772157    930.87398  0.023011816  0.022305851           12 
 3372000    0.7160493   -6.8174691    929.77478  0.022977827   0.02229893            6 
 3373000   0.70552844   -6.8096302    930.00666  0.022976743   0.02229198            9 
 3374000   0.72387599   -6.8064035    926.12587  0.022874083  0.022285016           12 
 3375000   0.70107241   -6.8177033    930.54875  0.022976512  0.022278036           10 
 3376000   0.69764919   -6.8038105    930.36951  0.022965282  0.022271079           13 
 3377000   0.71748002   -6.7914154    930.16279   0.02295338  0.022264108           14 
 3378000   0.70607424   -6.8168199    927.47638  0.022880313  0.022257116           14 
 3379000   0.71586652   -6.8178905    928.75214  0.022905005  0.022250125           29 
 3380000   0.71867159   -6.8085361    930.30663  0.022936554  0.022243126           22 
 3381000   0.70626428   -6.8490084    927.83903   0.02286895  0.022236115           15 
 3382000   0.71112197   -6.8183341    930.39925  0.022925272  0.022229106           17 
 3383000   0.70449237   -6.8074426    930.32537  0.022916676  0.022222147            6 
 3384000   0.70779518   -6.8216551    929.20193  0.022882238  0.022215188           10 
 3385000    0.7152311   -6.8076859    928.02521  0.022846509  0.022208223           16 
 3386000   0.71375699   -6.8107306    929.35518  0.022872494  0.022201252           24 
 3387000   0.69301554   -6.8136484    931.80852  0.022926103   0.02219428           10 
 3388000   0.71076572   -6.7760342    931.13037  0.022902656  0.022187353           19 
 3389000   0.71625204   -6.8003629    929.62276  0.022858827  0.022180411           32 
 3390000   0.70689084   -6.8099643    928.55942  0.022825944  0.022173449           15 
 3391000   0.69530339   -6.8213716    930.87964  0.022876232  0.022166529           16 
 3392000   0.69168322   -6.7801407    931.06842  0.022874126  0.022159611           58 
 3393000   0.70171568   -6.8210387    929.41633  0.022826808  0.022152664           50 
 3394000    0.7138578   -6.8002262    930.29394  0.022841631  0.022145703           11 
 3395000   0.69386477   -6.8206239    931.41579   0.02286244  0.022138723           25 
 3396000   0.69983938   -6.8180073    928.73443  0.022789911  0.022131735           28 
 3397000   0.70652886   -6.8238071    928.23931  0.022771056  0.022124798           20 
 3398000     0.728504   -6.8150939    928.12189  0.022761475   0.02211784           16 
 3399000   0.71124771   -6.8346787    927.27939  0.022734123  0.022110894           12 
 3400000   0.70343589   -6.8002237    928.79608   0.02276461  0.022103956           19 
 3401000   0.71274974   -6.8142495    929.34965   0.02277148  0.022097008           14 
 3402000   0.71514474   -6.8350434    930.39559  0.022790407  0.022090088           25 
 3403000   0.70392667   -6.8199916    930.43325  0.022784632   0.02208313           21 
 3404000   0.70706977   -6.8311735    931.02395    0.0227924  0.022076171           16 
 3405000   0.71178104   -6.8071292     930.5499  0.022774104   0.02206927           21 
 3406000   0.72289976   -6.8136485    930.90882  0.022776199  0.022062364           20 
 3407000   0.71357407   -6.8104548    931.24256  0.022777677  0.022055466            7 
 3408000   0.70982061   -6.8389858    929.85403  0.022737041  0.022048557           24 
 3409000    0.7167989   -6.8152703    928.62553   0.02270034  0.022041656           11 
 3410000   0.70494741   -6.8189233    932.48862  0.022788089  0.022034749           12 
 3411000   0.72041918   -6.7968062     931.2735  0.022751722  0.022027869           12 
 3412000   0.71717136   -6.8212187    931.57752   0.02275248  0.022020975            9 
 3413000   0.70128403   -6.8322922    929.82972  0.022703138  0.022014067           19 
 3414000   0.67913489   -6.8523726    929.39979  0.022685994  0.022007158           10 
 3415000   0.70197302   -6.8351711    930.29303  0.022701148  0.022000207            9 
 3416000    0.7112284   -6.8608787    927.29044  0.022621254  0.021993269           30 
 3417000   0.69723875   -6.8503899    930.00107   0.02268074   0.02198634           15 
 3418000   0.71058679   -6.8206676    931.33862  0.022706715  0.021979443           18 
 3419000   0.71922746   -6.8550789    929.95479  0.022666345   0.02197253           23 
 3420000   0.69106671   -6.8271056    931.86406  0.022706239  0.021965615           61 
 3421000   0.70424365   -6.8719675    929.52925  0.022642727    0.0219587           14 
 3422000   0.70100883   -6.8153536    933.39335   0.02273021  0.021951803           13 
 3423000   0.69336798   -6.8098586    930.64616  0.022656689   0.02194493           21 
 3424000   0.71192615   -6.8661288    930.67999  0.022650895  0.021938019           38 
 3425000   0.71056083   -6.8302952    929.70326  0.022620517  0.021931121           18 
 3426000   0.70515591   -6.8264642    930.59992  0.022635725  0.021924231           12 
 3427000   0.72323445   -6.8296209      930.011  0.022614799  0.021917357           36 
 3428000   0.70476122   -6.8178529    932.74013  0.022674546  0.021910499           41 
 3429000     0.705765   -6.8250738    933.57918  0.022688325  0.021903666           14 
 3430000    0.7142785   -6.8375709    929.56113   0.02258409  0.021896804           31 
 3431000   0.71066863   -6.8311116    932.35845   0.02264545  0.021889934           15 
 3432000   0.70933957   -6.8482671    929.96447  0.022580722  0.021883077           11 
 3433000   0.70791737   -6.8354625     932.1508  0.022627216  0.021876194           12 
 3434000    0.7011433   -6.8414237    933.21938  0.022646558  0.021869376           19 
 3435000   0.70434144   -6.8493101    930.74923   0.02258004  0.021862546           21 
 3436000   0.71136188   -6.8237355    931.15869  0.022583398  0.021855686           10 
 3437000   0.70726915   -6.8363699    931.11166  0.022575688  0.021848843           12 
 3438000   0.70290082     -6.85248    931.99618  0.022590561  0.021841973           32 
 3439000   0.69814838   -6.8500715     930.7451  0.022553676  0.021835136           15 
 3440000   0.69562645   -6.8583482    930.90607  0.022551019  0.021828282           11 
 3441000   0.69188442   -6.8402569    929.65233  0.022514103  0.021821405           18 
 3442000   0.68846364   -6.8530202    929.79075  0.022510913  0.021814557            7 
 3443000   0.69571517   -6.8514718    931.06322  0.022535173   0.02180773           23 
 3444000   0.70154963   -6.8668717    929.02542  0.022479322  0.021800873           25 
 3445000   0.68833157   -6.8512407    931.64669  0.022536204  0.021794004           23 
 3446000   0.70448514   -6.8479618    931.82719   0.02253403   0.02178712           38 
 3447000   0.72036112   -6.8777379    929.11473  0.022461917   0.02178025           12 
 3448000   0.68437703    -6.850466    931.54617  0.022514167  0.021773376           11 
 3449000   0.69421737   -6.8768775    930.46197  0.022481443  0.021766503           12 
 3450000   0.71183621   -6.8464038    931.05851  0.022489336  0.021759644           15 
 3451000   0.70945076   -6.8430004    929.60699  0.022447769  0.021752792           21 
 3452000   0.69865016    -6.851087    930.40695  0.022460577  0.021745945           15 
 3453000   0.71021762   -6.8405774    931.19765  0.022473155  0.021739107           21 
 3454000   0.69850041   -6.8697464    931.43999  0.022472495  0.021732272           20 
 3455000   0.70213663   -6.8491257    934.43178  0.022538152  0.021725442           14 
 3456000   0.68888201    -6.823933    933.42364  0.022507322  0.021718636           14 
 3457000   0.70476218    -6.810701    933.55648  0.022504013  0.021711848           10 
 3458000   0.69149667   -6.8425141    931.17574  0.022440132  0.021705028           22 
 3459000   0.69681555   -6.8545396    930.13564  0.022408587    0.0216982           37 
 3460000   0.70020597   -6.8585425     930.5066  0.022411045   0.02169138           11 
 3461000   0.69577562   -6.8304707    932.53576  0.022453428  0.021684554           15 
 3462000   0.71246493   -6.8396765    930.23081   0.02239146  0.021677715           15 
 3463000   0.69955177   -6.8724518    928.90068  0.022352986  0.021670881           21 
 3464000    0.7036981   -6.8794431    931.18112  0.022401393  0.021664037           16 
 3465000   0.69623282   -6.8611827    931.00161  0.022390611  0.021657179           28 
 3466000   0.69448922   -6.8594037    928.99776  0.022335972   0.02165034           83 
 3467000   0.69494007   -6.8680414    931.04207  0.022378667  0.021643468           35 
 3468000   0.70371978   -6.8446953    930.56886  0.022360844   0.02163664           18 
 3469000    0.6880448   -6.8661155    932.18552  0.022393233  0.021629813           16 
 3470000   0.68871246   -6.8728492    932.88751  0.022403639  0.021623011           18 
 3471000    0.6815341    -6.848233    929.68927  0.022320399  0.021616167           29 
 3472000   0.70409935   -6.8447195    930.59815  0.022335785  0.021609345           17 
 3473000   0.68683533   -6.8701134    930.26325  0.022321318  0.021602538           33 
 3474000     0.699494   -6.8727809    930.97746  0.022332025  0.021595722           27 
 3475000   0.68249305   -6.8500414    931.06302   0.02232765  0.021588888           25 
 3476000   0.70217668   -6.8499141    931.11226  0.022322407  0.021582052           22 
 3477000   0.71029122   -6.8743667    929.46206  0.022276437  0.021575225           19 
 3478000   0.69821974   -6.8688355    931.65551  0.022322587  0.021568387           16 
 3479000   0.69844731   -6.8621095    930.89964  0.022298065  0.021561548           10 
 3480000    0.6881309   -6.8579959     931.8708  0.022314914  0.021554708           12 
 3481000   0.69202885   -6.8859073    931.04742  0.022288792  0.021547838           28 
 3482000   0.68839432   -6.8939516    928.97992   0.02223291  0.021541001           14 
 3483000    0.7081725   -6.8726731    931.14021  0.022278214  0.021534183           13 
 3484000   0.68117676   -6.8829722    931.30034  0.022275649  0.021527362           16 
 3485000    0.6829129   -6.8505573    930.82972  0.022258004  0.021520546           34 
 3486000   0.68017995   -6.8582758    929.99037  0.022231554  0.021513727           27 
 3487000   0.69562548   -6.8733412    929.45238  0.022212322  0.021506914           34 
 3488000    0.6960791   -6.8716777    930.47234  0.022230322  0.021500129           18 
 3489000   0.69587397   -6.8784596    930.73609   0.02223025  0.021493331           17 
 3490000   0.69401892   -6.8597108    930.78833  0.022225127  0.021486545           46 
 3491000   0.68555567   -6.8811382    930.31471  0.022207455  0.021479756           19 
 3492000   0.70087446   -6.8419632    935.06722   0.02231451  0.021472977           11 
 3493000   0.68906095   -6.8866657    932.04702  0.022236068  0.021466203           15 
 3494000   0.70958376   -6.8662383    931.55146  0.022217884  0.021459419           10 
 3495000   0.68648098   -6.8704644    929.87414  0.022171534  0.021452633           42 
 3496000   0.69007479   -6.8689803    933.43851  0.022250155  0.021445854            9 
 3497000   0.70401451   -6.8529273     932.8691  0.022230223  0.021439076            9 
 3498000   0.68781882   -6.8640772    931.78985  0.022198157  0.021432327           30 
 3499000   0.68158916   -6.8484757    934.86281     0.022265  0.021425574           27 
 3500000   0.67717038   -6.8785444     931.7227  0.022183874   0.02141882           26 
 3501000   0.68674468   -6.8896207    930.84996  0.022156764  0.021412049           22 
 3502000   0.69782477    -6.879952       930.56  0.022143537  0.021405268           21 
 3503000   0.68789467   -6.8748027    932.02097  0.022171971  0.021398493           33 
 3504000     0.699967   -6.8642231    933.59736  0.022203133  0.021391738            9 
 3505000   0.69983726   -6.8823486    932.34046  0.022166915  0.021384953           17 
 3506000   0.69734258   -6.8761821    930.15339  0.022108609  0.021378171           17 
 3507000   0.68377566    -6.868796     931.8307  0.022142161  0.021371416           19 
 3508000   0.69156695   -6.8806208    930.62639   0.02210724  0.021364653           19 
 3509000   0.69007995   -6.8799674    930.72624  0.022103311  0.021357911           16 
 3510000   0.69107555   -6.8436119    932.43719  0.022137635  0.021351181           29 
 3511000   0.68220356   -6.8757085    932.41585  0.022130823  0.021344431           17 
 3512000   0.68736483   -6.8769396    932.02049  0.022115141  0.021337663           30 
 3513000   0.68025538   -6.8743917     932.8178  0.022127759  0.021330915           18 
 3514000   0.68281552      -6.8838    931.49747  0.022090151  0.021324146           13 
 3515000   0.67700385   -6.8800405    931.64647  0.022087399  0.021317369            9 
 3516000   0.68327949   -6.8697367    933.51227  0.022125338  0.021310609            8 
 3517000   0.69548866   -6.8878662    931.68882  0.022075842  0.021303863           34 
 3518000   0.70100128   -6.9048366    931.27662  0.022059802  0.021297084           19 
 3519000   0.68867998   -6.8812157    931.86811  0.022067541  0.021290315           15 
 3520000   0.68328349   -6.8845803    930.86011  0.022037408  0.021283574           17 
 3521000   0.69283941   -6.9019711    932.11161  0.022060769  0.021276834           39 
 3522000   0.67853333   -6.8811047    931.88933  0.022049246  0.021270118           38 
 3523000   0.68710294   -6.8762602    931.97681  0.022045057  0.021263397           55 
 3524000   0.69831482   -6.8675985    932.56947  0.022052816  0.021256685           18 
 3525000   0.69481296   -6.8935191    929.89264  0.021983278  0.021249957           24 
 3526000   0.68054278   -6.8719189    931.88243  0.022024069  0.021243246          132 
 3527000   0.70021664   -6.8642691    932.56382  0.022033925  0.021236544           50 
 3528000   0.68281989   -6.8777031    933.07403   0.02203973  0.021229833           30 
 3529000   0.67910886   -6.8953211    929.60214    0.0219515  0.021223118           30 
 3530000   0.67778587   -6.8668858    931.40543  0.021987853  0.021216381           50 
 3531000   0.67769191   -6.8705848    932.65822  0.022011192  0.021209648           33 
 3532000   0.67952234   -6.8823062     932.9393  0.022011592  0.021202913           43 
 3533000   0.67667324    -6.907817     930.8133  0.021955215  0.021196217           34 
 3534000   0.68463995   -6.8759488     934.1017  0.022026544  0.021189516           24 
 3535000   0.68234252   -6.8571392    933.47266  0.022005485   0.02118281           15 
 3536000   0.68346802   -6.8797693    933.14599  0.021991563  0.021176134           21 
 3537000   0.69085882   -6.8708889    933.51589   0.02199406  0.021169477           14 
 3538000   0.68100037   -6.8742348    933.15657   0.02197938  0.021162783           14 
 3539000   0.68574343   -6.8797514    931.16752  0.021926333  0.021156073           14 
 3540000   0.69128168   -6.8792361    932.20212  0.021944494  0.021149379           16 
 3541000   0.69097412   -6.8713279    932.25588  0.021939562  0.021142691           17 
 3542000   0.69204478    -6.867815    933.69503  0.021967227   0.02113602           26 
 3543000   0.68954308   -6.8716682    935.67684   0.02200764  0.021129351           19 
 3544000   0.69246897   -6.8754578    935.03704  0.021986386  0.021122688           45 
 3545000   0.68454097   -6.8780571    933.88212  0.021953035  0.021116006           21 
 3546000   0.70325205   -6.8774915    932.77186  0.021920753  0.021109338           15 
 3547000   0.67620638   -6.8622526    933.55543  0.021932982  0.021102677            8 
 3548000   0.70252671   -6.8541999    931.99833  0.021890228  0.021096059           12 
 3549000   0.70285801   -6.8805446    934.74134  0.021948468  0.021089412           11 
 3550000   0.68340441   -6.8913929    931.50768  0.021866377  0.021082763           13 
 3551000   0.68443058   -6.8601959    933.86846  0.021915621  0.021076106           13 
 3552000   0.68464237   -6.8739968    933.78186   0.02190742  0.021069472           27 
 3553000   0.68702008   -6.8729191    934.76132  0.021924227  0.021062846           18 
 3554000   0.67364375   -6.8562524    936.10273  0.021949511  0.021056212           21 
 3555000    0.6737207   -6.8514135    934.70623  0.021910601  0.021049604           36 
 3556000   0.68171698   -6.8527288    935.47499  0.021922455  0.021043009           12 
 3557000   0.68112401   -6.8777607    933.76106  0.021876138  0.021036401           20 
 3558000   0.69593981   -6.8942612    932.13079  0.021831806  0.021029791           20 
 3559000   0.67829099   -6.8914364    934.07497  0.021871194  0.021023166           21 
 3560000    0.6784315   -6.8689372    935.70803  0.021903278  0.021016588           24 
 3561000    0.6831305   -6.8638081    937.29625  0.021934294  0.021009995           76 
 3562000   0.68016688   -6.8911203    934.34266  0.021859037  0.021003385           19 
 3563000   0.68425373   -6.8637579     934.6643  0.021860424  0.020996775           41 
 3564000   0.67787373   -6.8654581    933.38076  0.021824279  0.020990179           19 
 3565000   0.68872482   -6.8806081    932.35086  0.021794083  0.020983546           22 
 3566000   0.68528276   -6.8843196    934.55404  0.021839457  0.020976895           32 
 3567000   0.68040077   -6.8801003     932.5163  0.021785728  0.020970251           34 
 3568000   0.68517924   -6.8988454    933.18442  0.021795226  0.020963603           37 
 3569000   0.67339131   -6.9098622    934.26274  0.021814298  0.020956937           39 
 3570000    0.6684874   -6.8820303    933.34493  0.021786763  0.020950304           45 
 3571000   0.67678341   -6.9225649    930.65111  0.021717799  0.020943667           36 
 3572000   0.69845908    -6.898671    932.32165  0.021750692  0.020937017           26 
 3573000   0.69001458   -6.9043958    932.67495  0.021752844  0.020930364           23 
 3574000   0.68326284   -6.9112009    932.80554  0.021749803  0.020923736           22 
 3575000   0.67433918   -6.9020003    933.90667  0.021769386   0.02091712           45 
 3576000   0.68003255   -6.9257845    933.73813  0.021759371  0.020910482           31 
 3577000   0.67888274   -6.9095012    934.62874  0.021774036  0.020903853           15 
 3578000     0.688939   -6.9223402    931.89231  0.021704218  0.020897216           15 
 3579000   0.66491882   -6.9040237    932.07123   0.02170232   0.02089057           52 
 3580000   0.68570485   -6.9181915    934.05115  0.021742345  0.020883902           45 
 3581000   0.67841128   -6.9063647    933.81889  0.021730869  0.020877266           41 
 3582000   0.66981313   -6.9189346    932.27195  0.021688813   0.02087064           45 
 3583000   0.67642017   -6.9053967    933.70466  0.021716082  0.020864019           32 
 3584000   0.67848902   -6.8939159    933.78181  0.021711817  0.020857408           30 
 3585000   0.67939193   -6.9174671    931.09969  0.021643414  0.020850778           29 
 3586000   0.68688655   -6.9267241    930.92319  0.021633277  0.020844124           22 
 3587000   0.67662283   -6.9096101    933.26109  0.021681561  0.020837479           45 
 3588000   0.69184907   -6.8921818    933.78991    0.0216878  0.020830856           19 
 3589000   0.68375642   -6.9102439    932.12427  0.021643082  0.020824262           24 
 3590000   0.67851037   -6.9069765    933.56195  0.021670426  0.020817635           27 
 3591000   0.65150297   -6.9078175    932.97417  0.021650751  0.020811018           31 
 3592000   0.67392826   -6.9213847    932.91222  0.021643287  0.020804368           18 
 3593000   0.68351466    -6.904761    931.91089  0.021614039  0.020797729           23 
 3594000   0.66890692   -6.9491182    932.14638  0.021613485   0.02079108           73 
 3595000   0.68111866   -6.9366629    930.45533  0.021568274  0.020784461           86 
 3596000   0.67707045     -6.92501    931.57354  0.021588189  0.020777821           25 
 3597000   0.68609953   -6.9304845    932.31644  0.021599399  0.020771175          102 
 3598000   0.65783961   -6.8893609    932.66582  0.021601487  0.020764561           73 
 3599000   0.66016581   -6.8983513    933.43339  0.021613258   0.02075797           35 
 3600000   0.66965511   -6.9255393    932.01324   0.02157438  0.020751402           33 
 3601000   0.68470083    -6.927926    931.81049  0.021563697  0.020744832           42 
 3602000   0.67829584    -6.911555    932.85579  0.021581894  0.020738229           59 
 3603000   0.69078884   -6.9237607    931.94131  0.021554753  0.020731635           13 
 3604000   0.69006224   -6.9265993    930.75438  0.021521328  0.020725019           22 
 3605000   0.67703174   -6.9551657     930.9004  0.021518733  0.020718422           18 
 3606000    0.6781363   -6.9167805    933.54327  0.021573841  0.020711808           19 
 3607000   0.66374096   -6.9377871    931.52435  0.021521217  0.020705204           36 
 3608000   0.67139673   -6.9453472    930.69179  0.021496022   0.02069857           72 
 3609000   0.67056106   -6.9331413    931.62457  0.021511604  0.020691951           44 
 3610000   0.68437227   -6.9319113    931.70547  0.021507513  0.020685342           45 
 3611000   0.67584547   -6.9353889    931.48857  0.021496552  0.020678717           29 
 3612000   0.67911906   -6.9080894    931.98667  0.021502092  0.020672106           15 
 3613000   0.66531738   -6.9405976    930.54964  0.021462996  0.020665493           22 
 3614000   0.66867893   -6.9363861    932.19686  0.021495039  0.020658908           18 
 3615000   0.66416108   -6.9208408    935.74626  0.021570914   0.02065232           65 
 3616000   0.67306832   -6.9171281    931.85876  0.021475359  0.020645746           18 
 3617000   0.67381792   -6.9280513    933.33141   0.02150335   0.02063918           29 
 3618000    0.6777305   -6.9290471     932.5415  0.021479213  0.020632612           69 
 3619000   0.68231508   -6.9290324    932.80456  0.021479335  0.020626062           26 
 3620000   0.67927218   -6.9532743    934.37713  0.021509602  0.020619524           66 
 3621000   0.66648055   -6.9190494    935.22965  0.021523282  0.020612991           66 
 3622000   0.67511989     -6.92481     935.3915  0.021521063  0.020606457           47 
 3623000   0.68136012   -6.9108098    933.90411  0.021480911  0.020599923           73 
 3624000   0.67586272   -6.9567443    931.29404  0.021414966  0.020593375           77 
 3625000   0.67158182    -6.965308    932.01914  0.021425727  0.020586795           73 
 3626000   0.66572686   -6.9254454    932.96586  0.021441576  0.020580218           46 
 3627000    0.6831424   -6.9286289    933.57478  0.021449655  0.020573673           95 
 3628000   0.67005141    -6.934964    933.35782  0.021438759  0.020567124           54 
 3629000   0.65542164   -6.9412603    932.32241  0.021409075  0.020560588           45 
 3630000   0.65077987   -6.9228753    935.40621  0.021473972  0.020554057           29 
 3631000     0.676079   -6.9360188    932.49646  0.021401277  0.020547528           98 
 3632000   0.66375909   -6.9416858    932.09883  0.021386262  0.020540971           85 
 3633000   0.67118702   -6.9622533    933.22261  0.021406152  0.020534406           55 
 3634000   0.67694429   -6.9247251    933.68831  0.021410941  0.020527856           21 
 3635000   0.68358991   -6.9391291    931.71394  0.021359788  0.020521312           29 
 3636000   0.66697039   -6.9511002    933.20029  0.021387979  0.020514743          126 
 3637000   0.66969379   -6.9568452    930.83003  0.021327789  0.020508168          124 
 3638000   0.66900033   -6.9404894    936.20851  0.021445128  0.020501629           49 
 3639000    0.6696383   -6.9192159    932.75753  0.021360207  0.020495094           34 
 3640000   0.66388516   -6.9283883    934.55354  0.021395457  0.020488557           43 
 3641000   0.66707157   -6.9286885    932.91549  0.021352089  0.020482021           41 
 3642000   0.65485876    -6.946786    932.48202  0.021336308  0.020475464           22 
 3643000   0.67102343   -6.9378402    934.19414  0.021369616  0.020468918           38 
 3644000   0.66622234   -6.9330242    935.55846  0.021394952  0.020462385           22 
 3645000   0.66731729   -6.9477708    933.42148  0.021340226   0.02045584           71 
 3646000   0.66480598   -6.9382172    934.24141  0.021353113  0.020449321           58 
 3647000   0.68033498   -6.9278744    931.40422  0.021282429  0.020442799           71 
 3648000   0.66022035   -6.9450795    935.16152  0.021362425  0.020436254           28 
 3649000   0.67944695   -6.9285039    933.39703  0.021316275  0.020429717           43 
 3650000   0.67110423   -6.8898621    932.87566  0.021298531  0.020423207           43 
 3651000   0.66860488    -6.956775    931.27576   0.02125618  0.020416714           51 
 3652000   0.66412333   -6.9468442    932.73709  0.021283705  0.020410218           50 
 3653000   0.67305906   -6.9438922    932.60514  0.021274869  0.020403709           46 
 3654000   0.66526198   -6.9561444     932.7739  0.021272895  0.020397187           56 
 3655000   0.66345146   -6.9524506    934.29647  0.021301789  0.020390661           46 
 3656000   0.66815544   -6.9283694    932.54601  0.021256063  0.020384161           17 
 3657000   0.67009373   -6.9313063    932.83864  0.021256919  0.020377673           29 
 3658000   0.68500912   -6.9614704    934.52612  0.021289551  0.020371184           23 
 3659000   0.66495929   -6.9366555    934.25524  0.021277563  0.020364706           35 
 3660000   0.65873381    -6.951784    933.35579   0.02125127  0.020358208           48 
 3661000   0.66274364   -6.9319746    932.77966  0.021232351  0.020351665           19 
 3662000   0.66751738    -6.967849    933.35684  0.021239688  0.020345148           21 
 3663000   0.65918411   -6.9389699    934.49485  0.021259779  0.020338645           49 
 3664000   0.66886169   -6.9481302     932.3046  0.021204162  0.020332129           30 
 3665000   0.66660582   -6.9335196    932.97279  0.021213569  0.020325611           36 
 3666000   0.67482281   -6.9337659    931.95615  0.021184673  0.020319094           21 
 3667000   0.66346228   -6.9402258    932.08439   0.02118181  0.020312569           36 
 3668000   0.67938861   -6.9637145    931.13259  0.021154412  0.020306037           63 
 3669000   0.65937274   -6.9441214       932.44  0.021178341   0.02029951           40 
 3670000   0.66980925   -6.9564057    929.46998  0.021105131  0.020292998           47 
 3671000   0.66600903   -6.9472137    931.64926  0.021148853  0.020286466           43 
 3672000    0.6621704   -6.9606579    932.87473  0.021170904   0.02027994           89 
 3673000   0.67125012   -6.9758916    930.24844  0.021105555  0.020273409           41 
 3674000   0.65721855   -6.9830049    929.74218  0.021088328  0.020266864           34 
 3675000   0.65889511   -6.9713887    927.83124  0.021039257  0.020260319           50 
 3676000    0.6640608   -6.9340433    932.51169  0.021139638  0.020253783           64 
 3677000    0.6422792   -6.9828629    930.15945  0.021080579  0.020247238           37 
 3678000   0.67921212   -6.9516104    931.18165  0.021098007  0.020240701           23 
 3679000   0.65529566   -6.9577531    931.78809  0.021106009  0.020234169           47 
 3680000   0.66569246   -6.9364258    930.87645   0.02107963  0.020227649           43 
 3681000   0.66184817   -6.9489641     933.7644  0.021139283  0.020221142           56 
 3682000   0.67019816   -6.9654445    932.52726  0.021105542  0.020214658           63 
 3683000   0.67180966   -6.9376415    934.02061  0.021133601  0.020208175           48 
 3684000   0.66628003   -6.9596402    931.77344  0.021077032  0.020201694           47 
 3685000   0.64278093   -6.9657369    931.65541  0.021068643  0.020195201           30 
 3686000   0.66427889   -6.9239103    933.39854  0.021102336  0.020188717           39 
 3687000   0.66187355   -6.9592184     932.0381  0.021065864  0.020182242           44 
 3688000   0.65412679   -6.9484335    931.01787  0.021037099  0.020175758           87 
 3689000   0.66151621   -6.9257783    933.03781  0.021077026  0.020169284           85 
 3690000   0.63586887   -6.9236307    932.16309   0.02105156  0.020162806           64 
 3691000   0.65504705    -6.919455    936.03234  0.021133215  0.020156357           42 
 3692000   0.65155736   -6.9546434    933.07825  0.021060813  0.020149922           62 
 3693000   0.65887183   -6.9095313    934.18555  0.021080096  0.020143491           79 
 3694000   0.66791896   -6.9727651    933.09464   0.02104978   0.02013704          104 
 3695000   0.66639155   -6.9470437    931.33413  0.021004378  0.020130584           55 
 3696000   0.65442799   -6.9776588    932.76762  0.021031016   0.02012412          114 
 3697000   0.65970322   -6.9615856    933.83706  0.021049433  0.020117672           63 
 3698000   0.66843035   -6.9472961    934.12972  0.021050336   0.02011123          105 
 3699000   0.64672136   -6.9715025    931.45005  0.020984276  0.020104795           68 
 3700000   0.65862909      -6.9856    931.50287  0.020979794   0.02009834           99 
 3701000   0.66076052   -6.9577807    934.56784  0.021043138  0.020091877          172 
 3702000   0.66365891   -6.9562602    932.31671   0.02098678  0.020085429          192 
 3703000   0.66123724   -6.9962562    931.23098  0.020956679  0.020078962          141 
 3704000   0.65370816   -6.9539886    932.27363  0.020974479  0.020072485          116 
 3705000   0.66339563   -6.9893554    930.50183  0.020928966  0.020066025           99 
 3706000   0.66073239   -7.0050414    930.17559  0.020915983  0.020059558           84 
 3707000   0.64495617   -6.9771985    933.68898  0.020989322  0.020053073          120 
 3708000   0.66933884   -6.9649812    931.74539  0.020939981  0.020046605           76 
 3709000   0.66511178    -6.977158    931.41362  0.020926881  0.020040145           87 
 3710000   0.66399622   -6.9846461    931.28461  0.020918343  0.020033681           65 
 3711000   0.66675292   -6.9690235    930.91218  0.020904343  0.020027231           62 
 3712000   0.65816915   -6.9636205    932.39991   0.02093211  0.020020793           81 
 3713000   0.65772757   -6.9839049     933.1725  0.020943812  0.020014346          132 
 3714000   0.65145867   -7.0101301    930.14239  0.020870185  0.020007884           83 
 3715000   0.66509685   -6.9776042    931.71625  0.020899871  0.020001411           90 
 3716000   0.66260469   -6.9784797    932.63091  0.020914758  0.019994956          110 
 3717000   0.64609099   -6.9915204    930.98137   0.02087215   0.01998848           62 
 3718000   0.65941667    -6.997893    931.26924  0.020872988  0.019981981           48 
 3719000   0.65179852   -7.0003003     931.4701  0.020871876  0.019975486           48 
 3720000   0.64727111   -6.9746672    931.89447  0.020875772  0.019969016           41 
 3721000   0.64235957    -6.973059    932.39389  0.020881347  0.019962558           39 
 3722000   0.64435597   -6.9954732    929.37699   0.02080819  0.019956079          113 
 3723000   0.65546747   -6.9879429    932.34114  0.020868948  0.019949598           81 
 3724000   0.65716202    -6.975205    932.30628  0.020862564  0.019943143           69 
 3725000   0.65906934   -7.0007436    930.11212  0.020807877    0.0199367           81 
 3726000   0.67346906   -6.9821902    932.48132  0.020855281  0.019930272           81 
 3727000   0.66425247   -6.9808895    929.91755  0.020792361  0.019923855           93 
 3728000   0.65166076   -6.9707339    933.79634  0.020873488  0.019917439          119 
 3729000   0.65102533    -6.972922    933.12066   0.02085279  0.019911048          118 
 3730000   0.64300897   -6.9978353    932.02225   0.02082266   0.01990463          150 
 3731000   0.65609864   -7.0000622    931.85601  0.020813366  0.019898219          159 
 3732000   0.66425892   -6.9842697    932.83596   0.02082967  0.019891788           70 
 3733000   0.65906459   -6.9895179    933.54538  0.020839927  0.019885371          152 
 3734000   0.63833555   -7.0057827    931.93429  0.020798391  0.019878949          146 
 3735000   0.64902291   -6.9956155    930.59258  0.020762887  0.019872551           62 
 3736000   0.64048664   -7.0141043    931.90347  0.020786569  0.019866157          130 
 3737000    0.6741836   -7.0097213    933.71183  0.020821333  0.019859746          126 
 3738000   0.64555089   -6.9907267     933.0687  0.020801425  0.019853334          144 
 3739000   0.65118087   -6.9951422    932.28702  0.020778439  0.019846942           81 
 3740000   0.65754097   -6.9770425    933.43449  0.020798451  0.019840556          149 
 3741000   0.65887598   -6.9949974    933.87203  0.020802638  0.019834152          181 
 3742000   0.65771252   -6.9932074    932.01254  0.020755668  0.019827765          115 
 3743000   0.64568794   -6.9724088    932.44935  0.020759848  0.019821391          189 
 3744000    0.6527811   -6.9662361    933.02318  0.020767076  0.019815029          121 
 3745000   0.64914554   -6.9741031    933.50666  0.020772289   0.01980866          113 
 3746000   0.65732352   -6.9767191    932.05001  0.020734339  0.019802276          161 
 3747000   0.66875042   -7.0284032    932.49801  0.020738769    0.0197959          196 
 3748000   0.63910494   -6.9485877    934.44853  0.020776604  0.019789515          200 
 3749000   0.65030725   -7.0021319    934.88207  0.020780699  0.019783124          112 
 3750000   0.63662249   -7.0205369    932.69118  0.020726471  0.019776725          197 
 3751000   0.65216459    -7.022703    930.56829  0.020673782  0.019770321          193 
 3752000   0.64700443   -6.9994324    933.31721  0.020729327  0.019763915          217 
 3753000   0.66130017    -7.023314    932.20532  0.020699115  0.019757495          246 
 3754000   0.65724411   -7.0197347    930.08801  0.020646599  0.019751085          322 
 3755000   0.64483577   -7.0009589    932.82155  0.020701765  0.019744714          126 
 3756000   0.65612563   -6.9902683    932.46312  0.020688301  0.019738334          202 
 3757000   0.65776138   -7.0160863    932.25344  0.020678144  0.019731938          197 
 3758000   0.66275131   -6.9857573    935.00212  0.020733593  0.019725548          103 
 3759000   0.65007423   -7.0046005    931.89929  0.020659291   0.01971917          165 
 3760000   0.64771213   -6.9866254    934.18567   0.02070447  0.019712781          175 
 3761000   0.63358508   -7.0117709    931.52267   0.02063996  0.019706386          308 
 3762000   0.65316818   -7.0147186    931.39087  0.020631554  0.019699972          234 
 3763000   0.65283011   -7.0235565    928.71325  0.020566774  0.019693552          246 
 3764000   0.63613346    -6.993144    929.01833  0.020568064  0.019687147          314 
 3765000   0.66067955    -7.024743     930.3017  0.020591007  0.019680738          213 
 3766000   0.64926082   -7.0260385    930.20353  0.020583367  0.019674305          437 
 3767000   0.64664478   -7.0269073    930.92967  0.020593967  0.019667892          319 
 3768000   0.64906654   -7.0199447     930.8444  0.020586615  0.019661468          275 
 3769000   0.65828489   -7.0035063    932.96968  0.020628144  0.019655081          275 
 3770000   0.64365787   -7.0295207     930.5645  0.020569507  0.019648708          320 
 3771000   0.64671309   -7.0246809    930.11535  0.020554127  0.019642315          267 
 3772000   0.64182367   -7.0365316    930.22398  0.020551078  0.019635912          366 
 3773000   0.65617093   -7.0303443    930.02847  0.020541313  0.019629516          378 
 3774000   0.64596093   -7.0311842    930.46671  0.020545546  0.019623118          350 
 3775000   0.64735212   -7.0297857    932.23784  0.020579202  0.019616724          293 
 3776000   0.64694484   -7.0277278    932.87377  0.020587786  0.019610343          406 
 3777000    0.6490571    -7.037945    931.40411   0.02054991  0.019603964          447 
 3778000   0.64029297   -7.0259618    931.80426  0.020553297  0.019597586          371 
 3779000   0.64998508   -7.0345737    930.50891  0.020519293  0.019591213          274 
 3780000    0.6482557   -7.0261318    932.35654  0.020554598  0.019584853          395 
 3781000   0.65357548   -7.0399656    930.11851  0.020499835  0.019578467          438 
 3782000   0.65578393   -7.0321377    931.43115  0.020523338  0.019572088          366 
 3783000    0.6521892   -7.0540921    930.76745  0.020503292   0.01956571          478 
 3784000   0.63518179   -7.0279302    930.64827  0.020495249  0.019559323          428 
 3785000   0.64970816   -7.0459891    930.13078  0.020478441  0.019552953          437 
 3786000   0.64872389   -7.0401955    930.20593  0.020474686  0.019546582          440 
 3787000   0.63893801   -7.0152184    933.36838  0.020538869  0.019540223          451 
 3788000   0.65564552   -7.0308262    930.71757  0.020475131  0.019533872          473 
 3789000   0.63692214   -7.0163424     931.0398  0.020476814  0.019527515          421 
 3790000    0.6580893   -6.9990286     931.8913  0.020490134  0.019521177          561 
 3791000   0.64618384   -7.0210198    928.95665   0.02042022  0.019514848          555 
 3792000    0.6515228   -7.0058277    931.32588  0.020466901    0.0195085          539 
 3793000   0.65800073   -7.0399619    930.82784  0.020450563  0.019502149          573 
 3794000    0.6442366   -7.0470743    929.11983  0.020407657  0.019495784          522 
 3795000   0.64973273   -7.0485049    929.91921  0.020419833  0.019489415          493 
 3796000   0.65962636   -7.0224727    929.28243  0.020400475  0.019483031          459 
 3797000   0.63282979   -7.0245691    930.62298  0.020424523  0.019476661          471 
 3798000   0.64504219   -7.0408799    932.59809  0.020462482  0.019470298          426 
 3799000   0.64575525   -7.0179068    930.64744  0.020414307  0.019463947          523 
 3800000   0.64791146   -7.0482942    930.14749  0.020397971  0.019457583          592 
 3801000   0.64360455   -7.0485852    930.51522  0.020400667  0.019451218          504 
 3802000   0.66053382   -7.0308271    931.01339   0.02040622  0.019444859          417 
 3803000   0.65087033   -7.0427713    931.44846  0.020410388  0.019438499          507 
 3804000   0.64172113   -7.0479649    929.64461  0.020365506  0.019432155          471 
 3805000    0.6458313   -7.0608548    930.55595  0.020380113  0.019425811          583 
 3806000    0.6444281   -7.0338359    931.79424  0.020401871  0.019419466          468 
 3807000   0.65119512   -7.0642256    929.86475  0.020354276  0.019413119          468 
 3808000   0.64545818   -7.0539208    930.08924  0.020353844  0.019406784          452 
 3809000   0.63404201   -7.0429149    930.90086  0.020366257  0.019400457          454 
 3810000   0.63227696    -7.046725    929.85523  0.020338041   0.01939412          435 
 3811000    0.6398008   -7.0548219     930.7937  0.020353225  0.019387791          533 
 3812000   0.63762684   -7.0496618    932.35184  0.020381948  0.019381448          477 
 3813000    0.6498262   -7.0445702    929.47434  0.020313715  0.019375086          530 
 3814000   0.62911372   -7.0617037    929.72528  0.020313872  0.019368727          631 
 3815000   0.64406722   -7.0444984     929.5393  0.020304485  0.019362381          532 
 3816000   0.64425309   -7.0561885    929.02183  0.020287863  0.019356014          562 
 3817000   0.64655169   -7.0423683    930.05407  0.020305084  0.019349671          511 
 3818000   0.64216426   -7.0642441    930.45484  0.020308513  0.019343315          611 
 3819000   0.64638215    -7.051877    929.88809  0.020290829  0.019336977          497 
 3820000   0.64563623   -7.0456061    929.66774   0.02028071  0.019330647          611 
 3821000    0.6275685   -7.0693816    930.03962  0.020283513  0.019324309          592 
 3822000   0.64042594   -7.0743492    927.49288  0.020222677  0.019317962          642 
 3823000   0.64002667   -7.0508122    927.44348  0.020216311  0.019311609          579 
 3824000   0.63874246   -7.0637807     928.8688  0.020242085  0.019305259          673 
 3825000   0.63520399   -7.0503769     928.5554  0.020229965  0.019298909          764 
 3826000   0.63603129    -7.063256     928.8621  0.020231358  0.019292573          724 
 3827000    0.6450791   -7.0704155    928.27034  0.020213186  0.019286237          666 
 3828000    0.6303455   -7.0661155    929.12095  0.020226423  0.019279911          665 
 3829000   0.62943698   -7.0809113    931.24603   0.02026739  0.019273578          686 
 3830000   0.64179517   -7.0840253    929.82959  0.020231279  0.019267249          642 
 3831000   0.63397319   -7.0738743    928.91833  0.020206176  0.019260901          602 
 3832000   0.64491996    -7.065394    928.59056  0.020193775  0.019254548          558 
 3833000   0.63765866   -7.0942749    927.61061  0.020167202  0.019248185          648 
 3834000    0.6378435   -7.0645082    928.80937  0.020187997  0.019241815          591 
 3835000   0.65422463   -7.0821969    926.79948  0.020139059  0.019235466          635 
 3836000    0.6367113   -7.0648281    929.36257  0.020189489  0.019229109          609 
 3837000   0.63906326   -7.0617115     927.6738   0.02014755  0.019222759          639 
 3838000   0.62414496    -7.076653    928.47309  0.020159655  0.019216426          645 
 3839000   0.63558915   -7.0661652    927.90518  0.020142076  0.019210089          671 
 3840000   0.63261464   -7.0824508    927.95434  0.020137898  0.019203731          578 
 3841000   0.64740944   -7.0841281     930.0812  0.020178799  0.019197386          553 
 3842000   0.64404631    -7.098503    927.49316  0.020117412  0.019191064          577 
 3843000   0.63480901   -7.0489529    930.08071  0.020168287  0.019184748          587 
 3844000   0.62894291   -7.0571174    930.64319  0.020175234  0.019178416          549 
 3845000   0.65504643    -7.065116    928.16524  0.020116282  0.019172081          558 
 3846000   0.64376803   -7.0626644    929.81143   0.02014672  0.019165754          652 
 3847000   0.64713166   -7.0619911    930.91086  0.020165299  0.019159441          658 
 3848000   0.63129224   -7.0697295    926.22287  0.020058534  0.019153103          768 
 3849000   0.64280671   -7.0896222    929.80524  0.020130883  0.019146784          629 
 3850000     0.631963   -7.0626668    929.23034  0.020113211  0.019140468          622 
 3851000   0.62573979   -7.0674642    929.87212  0.020121876   0.01913417          644 
 3852000   0.64442001   -7.0875161    928.60172  0.020089168  0.019127884          559 
 3853000   0.64067597   -7.0862351    927.01668  0.020049673  0.019121576          591 
 3854000   0.62258275   -7.0715863    932.67768  0.020166876  0.019115271          620 
 3855000   0.64550267   -7.0823878    929.39282  0.020090636  0.019108967          638 
 3856000   0.64514261   -7.0997919    926.64469  0.020026035  0.019102653          752 
 3857000   0.63624267   -7.0814573    927.89984  0.020047961   0.01909635          734 
 3858000   0.63908543   -7.0931943    926.37975  0.020009931  0.019090032          807 
 3859000    0.6244695   -7.0826071    927.08179  0.020019906  0.019083718          788 
 3860000    0.6224277   -7.0843544    927.85248  0.020031358  0.019077407          720 
 3861000   0.63311782   -7.0582089    927.46402  0.020017785  0.019071096          748 
 3862000   0.62344692   -7.0826696    928.68674  0.020038985  0.019064799          759 
 3863000   0.63444046   -7.0837399    929.97648   0.02006162  0.019058492          826 
 3864000   0.63358702   -7.0799972    930.12039  0.020059532  0.019052183          878 
 3865000   0.64098059   -7.0680977    929.12018  0.020032777   0.01904589          859 
 3866000   0.62743033    -7.098271    926.67428  0.019974872  0.019039599          935 
 3867000   0.63680698   -7.0874351    928.52317   0.02000955  0.019033292          783 
 3868000   0.63363682   -7.0912244    929.26631  0.020020387  0.019027002          795 
 3869000   0.62907405   -7.0928333    927.62809  0.019979928  0.019020698          859 
 3870000   0.62713738   -7.1042545    927.10992  0.019963607  0.019014399          900 
 3871000   0.63776475   -7.1244534    926.13758  0.019937518  0.019008087          965 
 3872000   0.63985759   -7.1167431    929.76094  0.020010351   0.01900177          949 
 3873000   0.63223639   -7.1083948    925.97752  0.019923778  0.018995445          862 
 3874000    0.6188095   -7.1059646    928.25514  0.019967629  0.018989142          866 
 3875000   0.63092197   -7.1095033    928.53234  0.019968437   0.01898285          857 
 3876000   0.62954419   -7.0919354    927.96734  0.019951138   0.01897653          914 
 3877000   0.63864041   -7.0897078    928.35503  0.019954325  0.018970214          922 
 3878000   0.63334049   -7.1275506    927.75495  0.019936285  0.018963887          929 
 3879000    0.6333426   -7.1227808    928.96154  0.019957067   0.01895758          926 
 3880000   0.64203357   -7.1363377    925.32716  0.019873865  0.018951261          999 
 3881000   0.64159575   -7.1154037     925.9387  0.019881875  0.018944939          975 
 3882000    0.6182893   -7.1194864    926.41024  0.019886876  0.018938618         1043 
 3883000   0.62395742   -7.1401263     924.0743  0.019831623  0.018932285         1035 
 3884000   0.62709098   -7.1541941    927.50845  0.019900199  0.018925964         1037 
 3885000   0.63972104   -7.1482136    924.63366  0.019833412  0.018919631         1080 
 3886000   0.63063767   -7.1445872    924.45601  0.019824498  0.018913306         1086 
 3887000    0.6367267    -7.119289    928.33259  0.019902508  0.018906996         1055 
 3888000   0.62994042    -7.123265    927.66011  0.019882976  0.018900702         1006 
 3889000   0.63745194   -7.1296478     927.2197  0.019868426  0.018894399          997 
 3890000   0.63339949   -7.1074641    928.32454  0.019886987  0.018888114         1080 
 3891000   0.63359155   -7.1295761    926.98475  0.019853182  0.018881814         1147 
 3892000   0.62665974   -7.1325714     927.0563  0.019849612  0.018875509         1005 
 3893000   0.62733588   -7.1141661     926.2941  0.019828198   0.01886921         1006 
 3894000    0.6307096   -7.0976435    928.11326  0.019862037  0.018862917          981 
 3895000   0.62178272   -7.1178242    925.83862  0.019808272  0.018856638          908 
 3896000   0.61764768   -7.1240849    928.25567  0.019854887  0.018850375         1088 
 3897000   0.63327076   -7.1246776    928.66817  0.019858613  0.018844103         1142 
 3898000   0.63907263    -7.136565    923.98778  0.019753459  0.018837812         1048 
 3899000   0.62664506   -7.1140157    925.86135  0.019788436  0.018831535         1102 
 3900000   0.63214602   -7.1068308    925.91297  0.019784465  0.018825267         1061 
 3901000   0.62097122   -7.1440624    927.61174  0.019815683  0.018818998         1050 
 3902000   0.62438938   -7.1262548    927.12609  0.019800233  0.018812726          950 
 3903000   0.61692826   -7.1466087    927.77827  0.019809084  0.018806458         1060 
 3904000   0.63299945   -7.1484084    925.13768  0.019747645  0.018800189         1073 
 3905000   0.63492311   -7.1419396    926.41194  0.019769781  0.018793915         1071 
 3906000   0.63061389   -7.1176303    925.60201   0.01974744  0.018787657         1079 
 3907000    0.6273544   -7.1389827    926.00404  0.019750961  0.018781388         1052 
 3908000   0.62990134   -7.1457293    925.41208  0.019733284  0.018775126         1093 
 3909000   0.63020019   -7.1278463    924.91116  0.019717557  0.018768864         1118 
 3910000   0.63004467   -7.1325449    926.57102  0.019747891  0.018762598         1058 
 3911000   0.63579248   -7.1430858    924.13071  0.019690844  0.018756318         1086 
 3912000   0.61726514   -7.1375464    926.47526  0.019735755  0.018750046         1098 
 3913000   0.62978711   -7.1265163    925.94899  0.019719503  0.018743779         1145 
 3914000   0.61955728   -7.1027119    924.71795  0.019688255   0.01873751          999 
 3915000   0.62976493   -7.1325576    925.83164  0.019706931  0.018731251         1091 
 3916000   0.62342481   -7.1319868    927.11254  0.019729157  0.018725001         1084 
 3917000   0.62423755   -7.1593557    926.60042  0.019713225  0.018718738         1056 
 3918000   0.61506171   -7.1431901    926.16991  0.019699037  0.018712482         1211 
 3919000   0.60922461   -7.1327491    926.34618  0.019697758  0.018706233         1132 
 3920000   0.62013576   -7.1556359    926.01898  0.019685778  0.018699976         1290 
 3921000   0.60645687   -7.1305631    927.75529  0.019717659  0.018693723         1321 
 3922000   0.62015844    -7.152927    925.86161  0.019672395  0.018687464         1293 
 3923000   0.62338118   -7.1512672     924.8298  0.019645463  0.018681205         1232 
 3924000   0.63248235   -7.1058746    926.91266   0.01968469  0.018674961         1249 
 3925000   0.62802152   -7.1409127    924.92045  0.019637377  0.018668719         1342 
 3926000   0.62295948   -7.1293144    926.43349  0.019664491  0.018662468         1225 
 3927000   0.62504283   -7.1322949    927.71052  0.019686583  0.018656227         1228 
 3928000   0.62441575   -7.1264219    926.12958  0.019648031  0.018649989         1263 
 3929000   0.63169359   -7.1599975    925.52669  0.019630243  0.018643749         1253 
 3930000   0.63083965   -7.1449876    925.56283  0.019626014  0.018637506         1224 
 3931000   0.62170693   -7.1388938    926.13582  0.019633168   0.01863126         1291 
 3932000   0.61515175   -7.1587756    925.63221  0.019617502  0.018625012         1358 
 3933000   0.62269278    -7.141325    924.82875   0.01959549  0.018618769         1313 
 3934000   0.61866175   -7.1385026    928.36817  0.019665484  0.018612551         1229 
 3935000   0.62753507   -7.1497157    925.69356  0.019603845  0.018606318         1343 
 3936000   0.62600356   -7.1376257    926.54818  0.019616958  0.018600093         1277 
 3937000   0.62441355   -7.1540579    926.34321  0.019607637  0.018593866         1362 
 3938000   0.61998935   -7.1381631    924.91679  0.019572473  0.018587645         1356 
 3939000   0.61834068   -7.1520971    926.30215  0.019596813  0.018581412         1418 
 3940000   0.60672091   -7.1562808    925.14759  0.019567419  0.018575177         1417 
 3941000   0.61611852   -7.1625395    926.28567  0.019586519  0.018568941         1485 
 3942000   0.63340985   -7.1404794    924.17104  0.019536848   0.01856271         1463 
 3943000   0.62739093   -7.1732114    923.15436  0.019510406  0.018556476         1414 
 3944000   0.61827403   -7.1401369    924.55572  0.019535068  0.018550255         1458 
 3945000   0.62094496   -7.1714293    925.57072  0.019551557  0.018544032         1506 
 3946000   0.60772431   -7.1650465    923.50909  0.019503064  0.018537795         1498 
 3947000   0.62832054   -7.1917579    923.25704  0.019492801  0.018531551         1462 
 3948000   0.63026225   -7.1520633    924.87123  0.019521936  0.018525306         1411 
 3949000   0.62523221   -7.1599873    925.52146  0.019530714  0.018519071         1479 
 3950000   0.63985563   -7.1592083    921.97098  0.019450865  0.018512839         1540 
 3951000   0.62026857   -7.1576222    923.76157  0.019483708  0.018506601         1482 
 3952000   0.62652381   -7.1687538    922.77285  0.019457929  0.018500353         1527 
 3953000    0.6164863   -7.1942885    923.51608  0.019468675  0.018494105         1592 
 3954000    0.6132442   -7.1715122    924.13461  0.019476787  0.018487864         1479 
 3955000   0.61199685   -7.1658679     924.3037  0.019475426  0.018481613         1526 
 3956000   0.64092153   -7.1587706    924.03263  0.019464792  0.018475375         1485 
 3957000   0.60729876   -7.1997318    923.36057   0.01944572  0.018469139         1536 
 3958000   0.61605766   -7.1667755    923.61453  0.019446154  0.018462911         1377 
 3959000   0.60741913   -7.1824351    926.70297  0.019506251   0.01845669         1461 
 3960000   0.61652868   -7.1740626    924.39073  0.019452667   0.01845046         1491 
 3961000   0.62112947   -7.1871551    921.65199  0.019390137  0.018444242         1444 
 3962000   0.61702343   -7.1960648    924.80238  0.019451506   0.01843801         1475 
 3963000   0.60998173   -7.1707708    924.99107  0.019450565  0.018431784         1381 
 3964000   0.61795557   -7.1874678    923.45294  0.019413323  0.018425571         1498 
 3965000   0.62132864   -7.1604385     924.5312  0.019431089  0.018419355         1482 
 3966000   0.63666582      -7.1812    923.00155  0.019394048  0.018413144         1497 
 3967000   0.61265463   -7.1631459    924.26991  0.019415804  0.018406932         1441 
 3968000   0.61603821   -7.2101361    922.64358  0.019376755  0.018400721         1517 
 3969000   0.61475487   -7.1843733    921.74421   0.01935299  0.018394504         1475 
 3970000   0.62023573   -7.1714453    923.85738  0.019392472  0.018388284         1473 
 3971000   0.61948621   -7.1892153    923.12738  0.019372269  0.018382079         1435 
 3972000    0.6151451   -7.1869466    924.04413  0.019386626  0.018375864         1604 
 3973000   0.60962745   -7.1735592    924.62279  0.019393883  0.018369666         1545 
 3974000   0.62159734   -7.1895237    922.84723   0.01935177  0.018363469         1590 
 3975000   0.61913681   -7.1927819    923.80677  0.019367018  0.018357266         1581 
 3976000   0.61379518   -7.1911106    922.81217  0.019341301  0.018351074         1527 
 3977000   0.61369356   -7.2010609      924.576  0.019373397  0.018344865         1555 
 3978000    0.6231544   -7.1908962    924.31618  0.019363084   0.01833867         1472 
 3979000   0.60060115   -7.1722632    923.69086  0.019345122  0.018332471         1543 
 3980000   0.61461472   -7.2047573    922.48071  0.019314923  0.018326275         1529 
 3981000    0.6169552   -7.2004856     923.1558  0.019324202  0.018320084         1573 
 3982000   0.63215948   -7.1586497    923.91141  0.019335163  0.018313907         1526 
 3983000   0.61603192   -7.1865089    924.64871  0.019345734  0.018307731         1467 
 3984000   0.60268047   -7.1848694    923.75953  0.019322279  0.018301539         1484 
 3985000   0.62261903   -7.1966153    921.49521   0.01927008  0.018295353         1503 
 3986000   0.61543282   -7.1699441    922.69546  0.019290338   0.01828917         1557 
 3987000   0.62315349   -7.2032758    920.73875  0.019244602  0.018282987         1698 
 3988000   0.61026223   -7.1857629    922.83187  0.019283514   0.01827679         1613 
 3989000   0.62613572   -7.1872576    924.41715  0.019311798    0.0182706         1664 
 3990000   0.61573712   -7.1978536      921.868  0.019253718  0.018264419         1646 
 3991000   0.61678696   -7.1974438    924.98249  0.019313925  0.018258249         1679 
 3992000   0.63062584   -7.2031626    923.27381  0.019273418  0.018252065         1739 
 3993000   0.61698545   -7.2058861    923.71095  0.019277714  0.018245877         1805 
 3994000   0.62764773   -7.2108136    922.98353   0.01925771  0.018239694         1765 
 3995000   0.61432785   -7.1904777    922.38813   0.01924047  0.018233512         1925 
 3996000   0.62011071   -7.1988997    923.78287  0.019264741  0.018227322         1875 
 3997000    0.5946282   -7.1860821    924.74573  0.019279996   0.01822114         1832 
 3998000    0.6147001   -7.1997016    922.69507   0.01923243  0.018214947         1800 
 3999000   0.60599933    -7.207062    922.74299   0.01922862  0.018208755         1865 
 4000000   0.60994838   -7.2432001    921.70111  0.019202107  0.018202567         1911 
 4001000   0.60348259   -7.2064049    921.98214   0.01920316  0.018196378         1904 
 4002000   0.61508237   -7.2047467    922.14925  0.019201842  0.018190203         2014 
 4003000   0.59834108   -7.2139735    922.80953   0.01921079  0.018184009         1908 
 4004000   0.59108686   -7.2165436    921.74104  0.019183755  0.018177828         1989 
 4005000   0.60239037   -7.2126732    922.56211  0.019196049  0.018171659         1920 
 4006000   0.60949013   -7.2291957    921.69147  0.019173146    0.0181655         2037 
 4007000   0.60876523   -7.2151688    923.08307  0.019197302  0.018159319         2028 
 4008000   0.62694316   -7.2171633    921.95293  0.019169015   0.01815314         1966 
 4009000   0.61051976   -7.2469785    922.53402  0.019176312  0.018146963         1987 
 4010000   0.59245612   -7.2060258    920.85243  0.019136584   0.01814078         1970 
 4011000   0.63136836   -7.2381058    921.57799  0.019146887    0.0181346         1907 
 4012000   0.61282408   -7.2001998    922.58568  0.019163046  0.018128421         1942 
 4013000   0.61525951   -7.2122364     923.7702  0.019182868  0.018122251         1973 
 4014000   0.59496525   -7.2310826    920.55134  0.019111263  0.018116075         2016 
 4015000   0.59357285   -7.2155704    921.47401  0.019125654  0.018109897         2010 
 4016000   0.61488233   -7.2140841    922.09322  0.019133741  0.018103731         1993 
 4017000   0.62118554   -7.2423649    919.30373  0.019071109  0.018097555         2059 
 4018000   0.61504714   -7.2483618    922.74389  0.019137711  0.018091396         1945 
 4019000   0.60082559   -7.2171466    923.71912  0.019153171  0.018085237         1903 
 4020000    0.6050063   -7.2316312    922.70979  0.019127483   0.01807908         2005 
 4021000    0.6170447   -7.2445123    923.12601  0.019131352  0.018072915         1993 
 4022000   0.60474505    -7.225741    920.32713  0.019068605  0.018066757         1943 
 4023000   0.60967204   -7.2394328    921.71808  0.019092677  0.018060606         1980 
 4024000   0.60651964   -7.2215693    922.82071  0.019110767  0.018054453         1981 
 4025000    0.6019853    -7.234831    922.08421   0.01909077    0.0180483         1972 
 4026000   0.60524289   -7.2311344    924.31055  0.019132111  0.018042144         1970 
 4027000   0.60487603   -7.2315447    921.44885  0.019068141  0.018036004         1983 
 4028000   0.60224206    -7.221767    921.73061  0.019069236  0.018029852         2038 
 4029000   0.59265105   -7.2309116    919.35326  0.019015332  0.018023702         2053 
 4030000   0.61205595   -7.2456439    922.14437  0.019068328  0.018017561         1980 
 4031000   0.59676493   -7.2030851    922.28812   0.01906657  0.018011433         1893 
 4032000   0.61427539   -7.2304853    922.11576  0.019058279  0.018005297         2009 
 4033000    0.6076382   -7.2250324    920.69354  0.019024166  0.017999157         2084 
 4034000   0.58717456   -7.2347535    922.16862  0.019049922  0.017993028         2096 
 4035000   0.60434108   -7.2552958    921.87802  0.019039199  0.017986886         2196 
 4036000   0.60196507    -7.230847     922.6766   0.01905097  0.017980745         2092 
 4037000   0.61354294   -7.2450301    920.58891  0.019003156  0.017974607         2191 
 4038000   0.61440016   -7.2425435    921.28399  0.019012795  0.017968467         2213 
 4039000   0.61697758   -7.2541691     920.6074  0.018994128  0.017962327         2180 
 4040000   0.61430822   -7.2473552    920.08843  0.018978722  0.017956195         2131 
 4041000   0.61302783    -7.232687    920.27465  0.018977865  0.017950062         2170 
 4042000   0.60781941   -7.2422271    922.51729  0.019019406  0.017943926         2139 
 4043000   0.59492236   -7.2805319    920.66174  0.018976456  0.017937792         2189 
 4044000   0.61553962   -7.2599791    919.03092  0.018938158  0.017931666         2129 
 4045000   0.59421736   -7.2527195    920.60678  0.018965941  0.017925536         2226 
 4046000   0.62033816   -7.2421469     920.5135  0.018959332  0.017919393         2187 
 4047000   0.60220602   -7.2469526    919.31059  0.018929878  0.017913255         2154 
 4048000   0.60119178   -7.2655216    921.52495  0.018970787  0.017907116         2181 
 4049000   0.61106412   -7.2721556    920.88669  0.018952965   0.01790097         2200 
 4050000   0.59833493   -7.2551504     920.1085  0.018932274  0.017894834         2210 
 4051000   0.58681965   -7.2574462    918.87156  0.018902155  0.017888699         2231 
 4052000   0.60226511   -7.2521609    919.95309  0.018919733  0.017882565         2269 
 4053000   0.60578948   -7.2747478    918.62655   0.01888779  0.017876437         2258 
 4054000   0.60434955   -7.2395044    920.04758  0.018912341  0.017870317         2224 
 4055000   0.60036706   -7.2623475    919.53619  0.018897168  0.017864199         2242 
 4056000   0.61054783   -7.2528714    919.28735  0.018887396  0.017858079         2242 
 4057000    0.6086629   -7.2725595    920.38027   0.01890519  0.017851969         2252 
 4058000   0.60037828   -7.2525209     918.8364  0.018868827  0.017845852         2213 
 4059000   0.60357736   -7.2498095    918.80143   0.01886346  0.017839731         2215 
 4060000   0.60112242   -7.2696657    919.83268  0.018879981  0.017833616         2221 
 4061000   0.60011131   -7.2543414    919.07766  0.018859839  0.017827509         2257 
 4062000   0.59625908    -7.262956    917.63083  0.018825513  0.017821406         2196 
 4063000   0.59990989   -7.2588671    919.67479  0.018862802  0.017815307         2327 
 4064000   0.60951836   -7.2641573     920.5497  0.018876101    0.0178092         2356 
 4065000   0.60040104   -7.2611297    920.38477  0.018868076  0.017803087         2308 
 4066000   0.59938727   -7.2649936    919.36415  0.018842518  0.017796983         2275 
 4067000   0.59949209   -7.2496654    920.38108  0.018858722  0.017790882         2261 
 4068000   0.59981072   -7.2785513    920.76189  0.018861887  0.017784801         2291 
 4069000   0.61910764   -7.2639702    920.22933  0.018846345  0.017778715         2306 
 4070000   0.60125128   -7.2558526    921.67396  0.018871293  0.017772633         2256 
 4071000   0.61355303   -7.2604197     919.0276  0.018812487  0.017766545         2265 
 4072000   0.59363411   -7.2561751    918.77697  0.018802738  0.017760451         2273 
 4073000   0.59892349   -7.2669801    919.11814  0.018805101  0.017754358         2205 
 4074000    0.5928575   -7.2753008    916.86656   0.01875443  0.017748284         2300 
 4075000   0.59258205   -7.2634708    919.64258  0.018806597  0.017742203         2326 
 4076000   0.60594266   -7.2481158    920.61711  0.018821907   0.01773612         2352 
 4077000   0.58709213   -7.2709928    920.16908  0.018808133  0.017730045         2341 
 4078000   0.59753543    -7.280009     919.0916  0.018781502  0.017723962         2553 
 4079000   0.60854085   -7.2602918    921.67844  0.018829747  0.017717881         2332 
 4080000   0.59150644   -7.2602798    920.31272  0.018797237  0.017711817         2360 
 4081000   0.59446644   -7.2657845    919.32179  0.018772396  0.017705749         2371 
 4082000   0.60056346    -7.293627    919.65526  0.018774605   0.01769967         2368 
 4083000   0.59364872   -7.2883564     920.3144   0.01878346  0.017693599         2488 
 4084000   0.59124929   -7.2738098    919.19655  0.018756051  0.017687522         2482 
 4085000   0.59049933   -7.2763679    917.39152  0.018714637  0.017681444         2461 
 4086000   0.59019679   -7.2640594    919.20204  0.018746982  0.017675371         2457 
 4087000   0.59973443    -7.284022    918.48317  0.018727738  0.017669308         2545 
 4088000   0.59895395   -7.2857867     918.1051   0.01871545  0.017663229         2536 
 4089000   0.59844067    -7.271128    919.82262  0.018745875  0.017657166         2520 
 4090000   0.59263994   -7.2889729    919.51431   0.01873501  0.017651102         2509 
 4091000   0.61259953   -7.2867611    919.12426  0.018722486  0.017645036         2473 
 4092000   0.61200768   -7.2744655    919.17595  0.018718963  0.017638968         2548 
 4093000   0.59480898   -7.2854293    918.44812  0.018699571  0.017632913         2455 
 4094000   0.59711082   -7.2717408    918.57402  0.018697566  0.017626858         2468 
 4095000   0.60998243   -7.2924242    918.28567  0.018687132  0.017620804         2585 
 4096000   0.59588072   -7.2834449    918.72591  0.018691526  0.017614738         2688 
 4097000   0.58690986   -7.2930093    919.21804  0.018696974  0.017608688         2628 
 4098000   0.60909349   -7.2759024    918.56375  0.018679107  0.017602631         2567 
 4099000   0.59761476    -7.282169    917.88839   0.01866082  0.017596586         2466 
 4100000   0.58807561   -7.3040386    917.75387  0.018653534  0.017590531         2522 
 4101000   0.59686665   -7.2947773     918.3902  0.018661916   0.01758448         2508 
 4102000   0.59505142   -7.2904131    917.18668  0.018632917  0.017578429         2445 
 4103000   0.59775982   -7.2879451    917.36564   0.01863201  0.017572394         2482 
 4104000   0.59296512   -7.2871407    918.60518  0.018652639  0.017566358         2480 
 4105000   0.59338557   -7.3007098    919.91141  0.018674612  0.017560317         2497 
 4106000   0.59480192   -7.3078476    919.58252  0.018663389  0.017554273         2492 
 4107000   0.60376256   -7.2696108    920.60344   0.01867956  0.017548231         2579 
 4108000    0.5992406   -7.3003916    917.69353  0.018615984  0.017542188         2479 
 4109000    0.5990694   -7.2915335    917.44721  0.018606457  0.017536142         2524 
 4110000   0.59803981   -7.2986562     919.4703   0.01864295  0.017530096         2557 
 4111000   0.60090691   -7.2824827     917.4661  0.018597789  0.017524057         2523 
 4112000   0.59937254   -7.2867027    917.14052  0.018586668   0.01751802         2537 
 4113000   0.60709777   -7.2752098    918.68827  0.018613507  0.017511981         2447 
 4114000   0.58985331   -7.2970956    919.24465  0.018620253  0.017505963         2462 
 4115000   0.59259031   -7.2871425     919.4248  0.018619376  0.017499936         2505 
 4116000   0.60054392   -7.2758096    918.22642   0.01859059  0.017493923         2466 
 4117000    0.5970404   -7.2963458    919.27876  0.018607375  0.017487902         2546 
 4118000   0.59054903   -7.2925928    918.29965  0.018583043  0.017481879         2579 
 4119000    0.6011569    -7.287655    917.95249  0.018571508  0.017475866         2628 
 4120000   0.59736574   -7.3037375    918.19471  0.018571899  0.017469851         2583 
 4121000   0.59221139    -7.305571    917.65762  0.018556532  0.017463836         2685 
 4122000   0.58967756   -7.2825023    918.28347  0.018564683  0.017457831         2563 
 4123000   0.59716374   -7.3051361    918.37556  0.018562041  0.017451821         2641 
 4124000   0.60101079   -7.3135613    919.34564  0.018577143  0.017445808         2694 
 4125000   0.60248331   -7.3089498    918.25566  0.018550619  0.017439796         2687 
 4126000   0.58561204    -7.316885    917.72194  0.018535344   0.01743378         2662 
 4127000   0.58188497   -7.2944584     917.1657  0.018519621  0.017427773         2581 
 4128000   0.58753741   -7.3060906    918.92261  0.018550602  0.017421765         2665 
 4129000    0.5964364   -7.2979314    917.44727  0.018516333  0.017415754         2641 
 4130000   0.59972418   -7.3117441    918.42057  0.018531489  0.017409754         2716 
 4131000   0.59293514   -7.3103247    917.68719  0.018512208   0.01740375         2677 
 4132000   0.59519868   -7.2814049    917.27414  0.018499398  0.017397738         2674 
 4133000   0.58430473   -7.3090726    917.08543  0.018491117   0.01739174         2609 
 4134000   0.59620109   -7.2896409    916.88347  0.018482573  0.017385748         2714 
 4135000    0.5904138   -7.3170657    917.07602  0.018481983  0.017379749         2755 
 4136000   0.59211131   -7.3197158    918.21522  0.018500468  0.017373768         2633 
 4137000   0.59730095   -7.3061219    916.40377  0.018459507   0.01736778         2704 
 4138000   0.59148587   -7.3135517     919.2104  0.018511568  0.017361791         2606 
 4139000   0.58360045   -7.3118183     916.8533  0.018459638  0.017355794         2703 
 4140000   0.58602257    -7.289373    918.70749  0.018492502  0.017349809         2576 
 4141000   0.59629233   -7.3223561    916.41101  0.018441822   0.01734383         2734 
 4142000   0.58719196   -7.3389302    915.94935  0.018428081  0.017337842         2687 
 4143000   0.58465326    -7.331215    916.78079  0.018440357   0.01733186         2671 
 4144000   0.58750908   -7.3078238    916.37005  0.018427647  0.017325866         2735 
 4145000    0.5885922   -7.3114766    917.49498  0.018445818  0.017319877         2718 
 4146000   0.59707584   -7.3157808    915.27615  0.018396771  0.017313888         2737 
 4147000   0.59419022   -7.3299802    916.79472   0.01842285  0.017307913         2807 
 4148000   0.58158103   -7.3341593    916.53952  0.018413282  0.017301932         2777 
 4149000   0.58585055   -7.3102804    916.27283  0.018403487  0.017295957         2748 
 4150000   0.58735406   -7.3247362    916.14236  0.018396433  0.017289985         2774 
 4151000   0.59002119   -7.3116821      917.074  0.018410704  0.017283997         2623 
 4152000   0.58432591   -7.3296146    916.75546  0.018399877  0.017278033         2744 
 4153000   0.57548387   -7.3064948    916.04635  0.018381217  0.017272059         2696 
 4154000   0.59264843   -7.3239813    916.37209  0.018383327  0.017266091         2818 
 4155000   0.58952654   -7.3036967    917.39716  0.018399462  0.017260115         2771 
 4156000    0.5877256   -7.3055413    916.86012  0.018384266   0.01725415         2697 
 4157000   0.58491049   -7.3172705    915.47525  0.018352082  0.017248188         2760 
 4158000   0.58255935   -7.3261766    917.03575  0.018378943  0.017242223         2802 
 4159000   0.58008536   -7.3170372    915.76263  0.018349015  0.017236259         2755 
 4160000   0.58436485   -7.3456149    915.16725  0.018332677  0.017230297         2816 
 4161000   0.58743515   -7.3040621     916.6425  0.018357817  0.017224335         2827 
 4162000   0.57172765   -7.3291597    913.68202   0.01829413  0.017218372         2851 
 4163000   0.56940413   -7.3325561    916.30404  0.018342222  0.017212415         2869 
 4164000   0.58166824   -7.3154611    916.21972  0.018336129  0.017206455         2752 
 4165000   0.59414753   -7.3256286    917.26683  0.018352678    0.0172005         2771 
 4166000    0.5848184   -7.3166808    917.47752  0.018352487   0.01719455         2780 
 4167000   0.58621967   -7.3366848    915.51796  0.018308894  0.017188599         2819 
 4168000   0.58603315   -7.3065757    916.81877   0.01833051  0.017182654         2794 
 4169000   0.58709395    -7.331383    916.28847  0.018315513  0.017176707         2819 
 4170000   0.57886861    -7.319046    916.00302  0.018305416   0.01717076         2733 
 4171000   0.59319707   -7.3155866    916.08722   0.01830271  0.017164821         2822 
 4172000   0.58820221   -7.3479891    912.73013  0.018231267   0.01715887         2824 
 4173000   0.57730149   -7.3377072    915.09357  0.018274095  0.017152928         2690 
 4174000    0.5809618   -7.3429583    917.37108  0.018315187  0.017146999         2726 
 4175000   0.57703221   -7.3329527    915.06754  0.018264821  0.017141064         2760 
 4176000   0.58949943    -7.325684    916.49645  0.018288962  0.017135128         2753 
 4177000   0.58178734   -7.3363326    914.82807  0.018251298  0.017129189         2870 
 4178000   0.58638982   -7.3480703    915.35757  0.018257491   0.01712326         2779 
 4179000   0.59052459   -7.3339731    916.47248  0.018275355  0.017117331         2782 
 4180000   0.57495422   -7.3121542    915.24595   0.01824653  0.017111405         2850 
 4181000   0.59458699   -7.3324484    914.79295  0.018233137  0.017105473         2818 
 4182000    0.5824621    -7.335851    915.17221  0.018236334  0.017099544         2837 
 4183000   0.58139425   -7.3384581    914.71404  0.018222847   0.01709362         2918 
 4184000   0.57989111   -7.3555423    916.67686  0.018257586  0.017087687         2799 
 4185000   0.56992517   -7.3185249    914.41417  0.018208167  0.017081774         2834 
 4186000   0.60065401   -7.3095394    914.06948  0.018196956  0.017075857         2914 
 4187000   0.57345435   -7.3407834     915.3104  0.018217308  0.017069938         2888 
 4188000   0.57894184   -7.3432438    916.25984   0.01823185   0.01706401         2855 
 4189000   0.59109857   -7.3454246    915.40026  0.018210398  0.017058092         2846 
 4190000   0.58509696   -7.3451563    915.44777  0.018206996  0.017052181         2963 
 4191000   0.56552586   -7.3546399    914.94852  0.018192725  0.017046264         2828 
 4192000   0.58061158   -7.3440558    916.13216  0.018211915  0.017040353         2895 
 4193000   0.58786746   -7.3340098    916.68922  0.018218643  0.017034454         2915 
 4194000   0.57082146   -7.3157057     916.0652    0.0182019   0.01702855         2856 
 4195000   0.57939124   -7.3461282    915.83974  0.018193082  0.017022652         2791 
 4196000   0.57800232   -7.3572182    914.28457   0.01815786  0.017016753         2881 
 4197000   0.56570876   -7.3559827    913.42107  0.018136388  0.017010849         2954 
 4198000   0.57937389   -7.3525702     914.5088   0.01815366  0.017004955         2896 
 4199000   0.58234419   -7.3448748    913.85292   0.01813632  0.016999063         2995 
 4200000   0.57660407   -7.3660684      915.566  0.018165992  0.016993171         2973 
 4201000   0.57740366   -7.3579612    915.15743  0.018153563  0.016987271         2975 
 4202000   0.58389853   -7.3329991    916.20736  0.018170065  0.016981385         2982 
 4203000   0.57850054   -7.3292693    915.01163  0.018142034  0.016975493         2864 
 4204000   0.58308594   -7.3341577    915.08276  0.018139129  0.016969612         2989 
 4205000   0.58193746   -7.3391853     914.0881  0.018115103  0.016963737         2988 
 4206000   0.58256905   -7.3304967    914.90469  0.018126975  0.016957848         2925 
 4207000   0.57820934    -7.355874    915.85738  0.018141538  0.016951966         3043 
 4208000   0.58539929   -7.3633048    913.46812  0.018089911  0.016946085         3001 
 4209000   0.58115266   -7.3489459    914.89634   0.01811389  0.016940205         2955 
 4210000   0.56708605    -7.335963    915.36539  0.018118872   0.01693434         2972 
 4211000   0.57925227    -7.353083    915.46072  0.018116455  0.016928474         2945 
 4212000   0.58288139   -7.3445066    916.16361  0.018126061  0.016922604         2913 
 4213000    0.5800076   -7.3533818     916.3556  0.018125556  0.016916732         3001 
 4214000   0.58698887   -7.3561031    913.15412  0.018057944  0.016910866         3004 
 4215000   0.58031482   -7.3393464    915.27429  0.018095577  0.016905008         2974 
 4216000   0.57190219   -7.3388079    915.66835  0.018099074  0.016899153         2872 
 4217000   0.56844881    -7.370202    916.05718  0.018102466  0.016893297         2946 
 4218000   0.56717532   -7.3419271    914.78467  0.018073034  0.016887438         2867 
 4219000   0.57625745   -7.3476315    912.26478  0.018018977  0.016881582         2862 
 4220000    0.5745862   -7.3690582    912.86593  0.018026578  0.016875725         2926 
 4221000   0.56827571   -7.3702219    914.47491  0.018054073   0.01686987         2935 
 4222000   0.57904466    -7.346938    915.19532  0.018064016  0.016864014         2900 
 4223000   0.58738889   -7.3514482    915.37738  0.018063331  0.016858158         2938 
 4224000   0.55932277   -7.3583961    912.75079  0.018007236  0.016852302         2908 
 4225000   0.57744921   -7.3466365    914.01087  0.018027828  0.016846451         2878 
 4226000   0.57875021   -7.3618517     915.0139  0.018043341  0.016840594         2825 
 4227000   0.56408015   -7.3591065    914.49426  0.018028828  0.016834748         2924 
 4228000   0.57906409   -7.3664324    913.98653  0.018014556    0.0168289         2920 
 4229000   0.57317877   -7.3672844    913.07508  0.017992336  0.016823047         2890 
 4230000   0.58016585   -7.3503174    916.49622  0.018055481  0.016817213         2881 
 4231000    0.5577252   -7.3744176    912.16221  0.017965851  0.016811375         2904 
 4232000   0.58376417   -7.3590723    914.27458  0.018003201  0.016805542         2911 
 4233000   0.57527933   -7.3626646    914.49077  0.018003204  0.016799714         2942 
 4234000   0.56745072   -7.3499878    913.41725  0.017977823  0.016793891         2931 
 4235000   0.57562334   -7.3621845    914.08124  0.017986644  0.016788067         2944 
 4236000    0.5756652    -7.381926    913.42785  0.017969544  0.016782236         2927 
 4237000   0.56435692   -7.3440087     914.2184  0.017980851   0.01677641         2951 
 4238000    0.5767317   -7.3787546    915.50369  0.018001882  0.016770586         3034 
 4239000   0.55912373    -7.360812    913.20843  0.017952513  0.016764766         3063 
 4240000   0.56582543   -7.3646501    914.27825  0.017969305  0.016758951         2979 
 4241000   0.56807933   -7.3552388    914.43465  0.017968141  0.016753137         2986 
 4242000   0.56570876    -7.374225     914.3864  0.017962958   0.01674732         2967 
 4243000   0.57377555   -7.3748217    911.50923  0.017902216  0.016741501         2971 
 4244000   0.57001762   -7.3642413    915.67901  0.017979874  0.016735686         3044 
 4245000   0.56035378   -7.3658287     911.8201  0.017899884  0.016729868         3119 
 4246000   0.57869057    -7.356153    915.36985  0.017965337  0.016724053         3049 
 4247000   0.57069258    -7.373347    913.06632  0.017915908  0.016718241         3111 
 4248000    0.5651119   -7.3719493    913.31072  0.017916485   0.01671243         3155 
 4249000   0.57697739   -7.3768748    913.96269  0.017925055  0.016706617         3185 
 4250000   0.58503075   -7.3673937    913.44105  0.017910609  0.016700811         3084 
 4251000   0.56432703   -7.3838273    914.12718  0.017919846  0.016695005         3109 
 4252000   0.57277054   -7.3764001    911.48142  0.017863778  0.016689193         3168 
 4253000   0.57584432   -7.3685461    913.39216  0.017897017  0.016683389         3144 
 4254000   0.57428498   -7.3639384    914.23236  0.017909269  0.016677581         3158 
 4255000   0.57954518   -7.3687714     914.2351  0.017905114  0.016671781         3124 
 4256000   0.57079354   -7.3935471    914.25389  0.017901274  0.016665984         3171 
 4257000   0.56574676   -7.3608453    913.67293  0.017885697  0.016660187         3119 
 4258000   0.57044608   -7.3651377    914.08703  0.017889601  0.016654392         3139 
 4259000   0.57896938   -7.3762697    912.45967  0.017853559  0.016648601         3074 
 4260000   0.57219025   -7.3894625    912.01189  0.017840608  0.016642804         3159 
 4261000   0.56536064   -7.3809178    913.07344  0.017857182  0.016637017         3210 
 4262000    0.5668301   -7.3767978    912.38888  0.017839607  0.016631231         3175 
 4263000   0.57903088   -7.3887367    912.12033  0.017830173  0.016625442         3179 
 4264000   0.57702425   -7.3856434    913.86565  0.017860101   0.01661966         3202 
 4265000   0.57758945    -7.384512    912.05949  0.017820623  0.016613886         3173 
 4266000   0.56935309   -7.3743561    912.80069  0.017830925  0.016608103         3228 
 4267000   0.56591401   -7.3785525    913.22784  0.017835088  0.016602329         3223 
 4268000   0.56993196    -7.373946    912.19096  0.017810664  0.016596554         3146 
 4269000   0.56495458   -7.3536934    913.22682  0.017826712   0.01659078         3157 
 4270000   0.56471845   -7.3814331    915.88928  0.017874498   0.01658501         3237 
 4271000   0.56043784   -7.3784644    911.69953  0.017788565  0.016579239         3105 
 4272000   0.56404402   -7.3720272    912.34843  0.017797059  0.016573469         3197 
 4273000   0.55907595   -7.3875993    913.32727  0.017811983  0.016567702         3204 
 4274000   0.56592899   -7.4040791    912.68495  0.017795292  0.016561941         3223 
 4275000    0.5573431   -7.3962161    913.29537  0.017803029  0.016556184         3280 
 4276000   0.57426919   -7.3915608    915.27374  0.017837421  0.016550426         3215 
 4277000   0.55817972   -7.3995287    912.93082  0.017787601  0.016544676         3114 
 4278000   0.55920786   -7.3923687    914.03273  0.017804908  0.016538916         3133 
 4279000   0.57637011   -7.3675343    913.32832  0.017787028   0.01653317         3155 
 4280000   0.57359425   -7.3891872    910.22785  0.017722505  0.016527423         3117 
 4281000   0.56357233   -7.3658799    913.06029  0.017773501  0.016521685         3091 
 4282000   0.58179854   -7.4027267    913.74464  0.017782669  0.016515951         3177 
 4283000   0.56975782   -7.3962188    912.98724   0.01776378  0.016510212         3161 
 4284000   0.55391123   -7.3934063    911.91243  0.017738726  0.016504468         3109 
 4285000   0.57781588   -7.4086202    911.12998   0.01771937  0.016498731         3056 
 4286000   0.55254555   -7.4067959    912.19394  0.017735922  0.016492993         3161 
 4287000   0.55426511    -7.369977    912.91874  0.017745874   0.01648726         3167 
 4288000   0.57174028   -7.3890164    912.38466  0.017731356  0.016481536         3190 
 4289000   0.56790967   -7.3928911    914.85807  0.017775279   0.01647581         3149 
 4290000   0.57001686   -7.3850133    913.42828  0.017743362  0.016470082         3076 
 4291000    0.5866138   -7.4055065    913.55437  0.017741676  0.016464366         3099 
 4292000   0.57048336   -7.3797849    911.59693  0.017699536  0.016458651         3145 
 4293000   0.56229987   -7.3719261    913.62977  0.017734874  0.016452947         3144 
 4294000   0.56075348   -7.3552741    914.83014  0.017754039  0.016447239         3083 
 4295000   0.57172868    -7.390025    913.62496  0.017726522  0.016441536         3148 
 4296000    0.5566161   -7.3948363    914.38133  0.017737068  0.016435824         3187 
 4297000   0.56376438   -7.3851276    912.10413  0.017688778  0.016430122         3114 
 4298000   0.55139289   -7.3681847    914.44544  0.017730057  0.016424422         3072 
 4299000   0.56674781   -7.3882207    912.62016  0.017690551  0.016418722         3159 
 4300000   0.56555282   -7.3806191    910.96042  0.017654272  0.016413024         3161 
 4301000   0.57420769   -7.3803848     913.2105  0.017693763  0.016407327         3199 
 4302000   0.56701148   -7.3859175    911.64747  0.017659373  0.016401631         3196 
 4303000   0.56379307   -7.3954985    913.43809  0.017689947  0.016395934         3169 
 4304000   0.56722681   -7.3903348    911.96667  0.017657347  0.016390246         3137 
 4305000   0.56883945    -7.379865    911.43871  0.017643026  0.016384557         3133 
 4306000   0.55423083   -7.3955553     912.0686  0.017651119   0.01637887         3170 
 4307000   0.57142537   -7.3873939    912.17332  0.017649047  0.016373189         3197 
 4308000   0.55049287   -7.3732799     912.1854  0.017645183  0.016367508         3146 
 4309000   0.56117641   -7.3959386    914.01468  0.017676465  0.016361836         3133 
 4310000   0.57056524   -7.3931086    912.68516  0.017646658  0.016356156         3172 
 4311000   0.56338048   -7.3938227    910.90758  0.017608203   0.01635048         3207 
 4312000   0.55631422   -7.3921601    912.22066  0.017629496  0.016344809         3156 
 4313000   0.56230565   -7.3943166    912.05572  0.017622222   0.01633914         3225 
 4314000   0.55786798   -7.3917037    910.17558  0.017581818  0.016333468         3149 
 4315000   0.56490205   -7.4060461    912.36415  0.017620011  0.016327798         3173 
 4316000   0.56539379    -7.380023    913.89717  0.017645528  0.016322129         3131 
 4317000   0.57348515   -7.3788171    912.42355  0.017612994  0.016316466         3095 
 4318000   0.56568971   -7.4038443    912.94019  0.017618886  0.016310807         3147 
 4319000   0.56599708   -7.3992698    913.39169  0.017623518  0.016305148         3178 
 4320000   0.55731558   -7.3914923    910.92737  0.017571901  0.016299492         3211 
 4321000   0.55605553   -7.3891385    912.17617  0.017591919  0.016293834         3187 
 4322000   0.55690749   -7.4020971    912.57796  0.017595595  0.016288182         3204 
 4323000   0.56816024   -7.4024935    912.45177  0.017589093  0.016282532         3188 
 4324000   0.55145557   -7.4006065    912.48201  0.017585608  0.016276887         3176 
 4325000   0.55567051    -7.413572    912.75165  0.017586737  0.016271239         3263 
 4326000   0.56206673   -7.3793051    913.50366  0.017597158  0.016265601         3204 
 4327000   0.55766619   -7.4117525    912.24376  0.017568827  0.016259958         3216 
 4328000   0.56317049   -7.3928182    910.94918  0.017539841  0.016254318         3136 
 4329000   0.55268734   -7.3921936    911.65168  0.017549312  0.016248682         3172 
 4330000   0.56241556   -7.4068825    912.09984  0.017553885  0.016243043         3141 
 4331000   0.55929806   -7.4191625    912.54406  0.017558379  0.016237411         3136 
 4332000   0.55867528   -7.3979042    911.45401  0.017533357  0.016231783         3139 
 4333000   0.55750336   -7.3853284    912.93834  0.017557857  0.016226165         3069 
 4334000   0.55468955   -7.4111205    909.37381  0.017485268  0.016220544         3123 
 4335000    0.5683601   -7.3892824    912.16809   0.01753495  0.016214924         3178 
 4336000   0.56687234   -7.3881409    911.65934  0.017521128  0.016209313         3072 
 4337000   0.56764379   -7.3947617    912.03557  0.017524317  0.016203703         3140 
 4338000   0.56439882   -7.4041428    912.37616   0.01752682  0.016198091         3198 
 4339000   0.55174711   -7.4048006    911.61852   0.01750823  0.016192482         3197 
 4340000   0.55746316   -7.3983603    911.67579  0.017505296  0.016186873         3119 
 4341000    0.5618013   -7.3906799     910.9778  0.017487864  0.016181269         3095 
 4342000   0.56023429   -7.4102613    911.09104   0.01748601  0.016175666         3144 
 4343000   0.56252885   -7.4063191    910.85295  0.017477415  0.016170063         3131 
 4344000   0.55661727   -7.3855205    913.35992  0.017521484  0.016164457         3126 
 4345000   0.56193238   -7.4149212    910.29012  0.017458575  0.016158858         3191 
 4346000   0.56332696   -7.4068334    912.30812  0.017493253  0.016153257         3123 
 4347000   0.55424517   -7.3972989    911.94135  0.017482198  0.016147661         3161 
 4348000   0.54769272    -7.405051    911.59896  0.017471615  0.016142063         3184 
 4349000   0.57304205   -7.3927052    912.45004  0.017483905  0.016136477         3168 
 4350000   0.56109492   -7.4030685     911.7273   0.01746604  0.016130884         3192 
 4351000   0.56563163    -7.400861     911.7728  0.017462897  0.016125294         3144 
 4352000   0.55802937   -7.4071733     913.2578   0.01748732  0.016119707         3192 
 4353000   0.55626175   -7.3930118    911.58365  0.017451253  0.016114123         3116 
 4354000   0.55831503   -7.3968401    910.76028  0.017431486  0.016108537         3272 
 4355000   0.55996298   -7.4033776    913.56844  0.017481218  0.016102957         3234 
 4356000   0.55756254   -7.3905852    912.23566  0.017451708   0.01609738         3152 
 4357000   0.56188606   -7.4069073    910.97842  0.017423656  0.016091805         3288 
 4358000   0.55016819   -7.3966115    912.37665  0.017446395  0.016086228         3258 
 4359000   0.55203336   -7.4162036    911.51126  0.017425848  0.016080658         3211 
 4360000   0.54503794   -7.4212565    910.90013  0.017410171  0.016075083         3220 
 4361000   0.55658716    -7.393532    911.39351  0.017415606  0.016069514         3208 
 4362000   0.54550394    -7.392076    912.01047    0.0174234  0.016063943         3212 
 4363000   0.54963062     -7.41079    910.87335  0.017397688  0.016058378         3289 
 4364000   0.55504798   -7.3999796    910.31525  0.017383044  0.016052822         3267 
 4365000   0.55081959   -7.4159361    913.16334  0.017433435  0.016047257         3273 
 4366000   0.55786392   -7.4044187     911.5075  0.017397837  0.016041694         3218 
 4367000    0.5450328   -7.3869859    912.34606  0.017409855  0.016036132         3210 
 4368000   0.56347793   -7.4111299     911.0606  0.017381345  0.016030579         3237 
 4369000   0.55133011    -7.403076    911.39756  0.017383794  0.016025025         3263 
 4370000   0.54945954   -7.4062545    912.25615  0.017396189  0.016019476         3256 
 4371000   0.54435839   -7.4200589    909.73501  0.017344143   0.01601392         3214 
 4372000   0.55462974   -7.4162383    912.07685  0.017384813  0.016008366         3243 
 4373000   0.55224146   -7.4194535    908.81637  0.017318705  0.016002814         3207 
 4374000   0.56738059   -7.4023434    911.73816  0.017370412  0.015997271         3216 
 4375000   0.56263981   -7.4236353    910.36547  0.017340295  0.015991727         3276 
 4376000   0.55235232   -7.4071238    909.50578  0.017319961  0.015986191         3310 
 4377000   0.55073798   -7.4164851    909.93413  0.017324159  0.015980649         3294 
 4378000    0.5534175   -7.4099216    911.37574  0.017347642  0.015975108         3299 
 4379000   0.56157817   -7.4268628    911.59811  0.017347913  0.015969572         3229 
 4380000    0.5562482   -7.4213882    910.99449  0.017332467  0.015964041         3270 
 4381000   0.54559555   -7.4000776    912.29801  0.017353306  0.015958513         3307 
 4382000    0.5415568   -7.3969303     912.7704   0.01735833  0.015952985         3228 
 4383000   0.55409726   -7.4115556    910.78251  0.017316574  0.015947463         3243 
 4384000   0.55299299   -7.4113056    912.14517  0.017338526  0.015941947         3256 
 4385000   0.55513254   -7.4126961    910.63244  0.017305824  0.015936427         3287 
 4386000   0.54651306   -7.4119005    912.15981  0.017330898  0.015930911         3233 
 4387000   0.53833289    -7.404822     910.6809  0.017298855  0.015925402         3161 
 4388000   0.54808703   -7.4037388    909.54696  0.017273377  0.015919886         3253 
 4389000    0.5417521   -7.4167448    912.39847  0.017323583  0.015914368         3266 
 4390000    0.5312427   -7.4010826     911.9151  0.017310461  0.015908859         3312 
 4391000    0.5454532   -7.4052241    911.33139  0.017295441  0.015903349         3281 
 4392000    0.5545079   -7.4178471    911.58424  0.017296301  0.015897844         3248 
 4393000   0.55488611   -7.4081662     909.8684  0.017259815  0.015892337         3265 
 4394000   0.55317371   -7.4224346    911.02319  0.017277788  0.015886833         3309 
 4395000   0.55634876   -7.4097128    910.02316  0.017254895  0.015881327         3312 
 4396000   0.54607748   -7.4077163    912.00015  0.017288447  0.015875825         3292 
 4397000   0.55542346   -7.4230533    909.62761   0.01723955  0.015870323         3278 
 4398000   0.56011833   -7.4250265    911.16718  0.017264802  0.015864824         3316 
 4399000   0.56000426   -7.4278749    910.81762  0.017254255  0.015859324         3337 
 4400000   0.53803162   -7.4089937    910.32637   0.01724103  0.015853829         3382 
 4401000   0.54650745   -7.4361133    910.51815  0.017240744  0.015848337         3357 
 4402000   0.54914859   -7.4156192    910.23502  0.017231467  0.015842843         3380 
 4403000   0.55592039     -7.43036    911.22515  0.017246293  0.015837349         3276 
 4404000   0.54901339   -7.4283292    910.35273  0.017225869  0.015831864         3329 
 4405000   0.54611111   -7.4158532    911.61819  0.017245898  0.015826385         3365 
 4406000   0.54210751   -7.4162016    910.88731  0.017228161  0.015820899         3289 
 4407000   0.54765045   -7.4190308    909.70947  0.017201979  0.015815416         3310 
 4408000   0.55696255   -7.4264703    911.15557  0.017225415   0.01580993         3287 
 4409000   0.53793367    -7.418842    910.46883  0.017208529  0.015804452         3289 
 4410000   0.54214669   -7.4371923    910.42465  0.017203792  0.015798982         3292 
 4411000   0.55325773   -7.4363429    907.88908  0.017151989  0.015793504         3287 
 4412000   0.54004721   -7.4272229     911.5592  0.017217422  0.015788032         3294 
 4413000    0.5547026   -7.4291817    911.55001  0.017213347  0.015782561         3266 
 4414000   0.55231311   -7.4151073    908.27993   0.01714771  0.015777084         3349 
 4415000   0.56080025   -7.4272317    911.90797  0.017212306  0.015771619         3342 
 4416000   0.54642392   -7.4265123    910.87964  0.017189003  0.015766156         3342 
 4417000   0.55302927   -7.4059162    908.71984  0.017144363  0.015760692         3266 
 4418000   0.54366718   -7.4239245     909.4205  0.017153699   0.01575523         3328 
 4419000   0.54583489   -7.4351393    911.56713  0.017190298  0.015749782         3336 
 4420000   0.54436056   -7.4229417    909.70436  0.017151289  0.015744334         3342 
 4421000   0.55243664   -7.4310388    909.42459  0.017142136  0.015738883         3251 
 4422000   0.54167251   -7.4075909    910.04699  0.017149988  0.015733447         3284 
 4423000   0.54331724   -7.4366832    911.58578  0.017175103     0.015728         3301 
 4424000   0.52884921    -7.434901    910.45159  0.017149857  0.015722556         3347 
 4425000   0.54331444    -7.420556    911.40331  0.017163904  0.015717114         3344 
 4426000   0.54470943   -7.4479298    909.32339  0.017120865  0.015711674         3338 
 4427000   0.53707616   -7.4322711    910.88791  0.017146448  0.015706236         3282 
 4428000   0.53468125   -7.4139425    911.73035   0.01715843  0.015700803         3312 
 4429000   0.53198266   -7.4323056    910.95311  0.017139932  0.015695373         3227 
 4430000   0.55851435   -7.4325001    911.76567  0.017151348  0.015689951         3260 
 4431000   0.53231455   -7.4329689    909.36212  0.017102274   0.01568453         3341 
 4432000   0.54127314   -7.4481022    911.44022  0.017137489  0.015679105         3352 
 4433000   0.53404487   -7.4130587     910.5434  0.017116764  0.015673686         3319 
 4434000   0.53808717   -7.4258762    909.82717  0.017099443  0.015668269         3333 
 4435000   0.53831209    -7.444398     910.0184  0.017099181  0.015662849         3374 
 4436000    0.5440799    -7.434866    910.17168  0.017098206  0.015657439         3345 
 4437000   0.53830377   -7.4394991    909.58633  0.017083358  0.015652026         3406 
 4438000    0.5406622   -7.4230604    911.75585  0.017120247  0.015646616         3362 
 4439000   0.54499925   -7.4397403    909.91246  0.017081784  0.015641211         3331 
 4440000   0.54952413   -7.4206702     910.2079  0.017083482  0.015635796         3375 
 4441000   0.54095513   -7.4296511    910.80182   0.01709078  0.015630395         3342 
 4442000   0.54417902   -7.4374939    909.13796  0.017055717  0.015624991         3398 
 4443000   0.53201777   -7.4465417    910.36447  0.017074883  0.015619585         3417 
 4444000   0.54377467   -7.4413335    908.55716   0.01703715  0.015614182         3373 
 4445000   0.54703189   -7.4450498    910.24887  0.017065033  0.015608786         3372 
 4446000   0.54011919   -7.4377027    909.86476  0.017053995  0.015603396         3433 
 4447000   0.53678276    -7.426964    911.53611   0.01708148  0.015598003         3343 
 4448000   0.53594859   -7.4388922    908.60477  0.017022721  0.015592613         3437 
 4449000   0.54846447   -7.4138539    909.95035  0.017044099   0.01558723         3314 
 4450000   0.53741055      -7.4384     910.3064  0.017046936   0.01558185         3385 
 4451000   0.54836384   -7.4562513    909.55579  0.017029053  0.015576461         3408 
 4452000   0.52888119   -7.4375705    911.02931   0.01705281   0.01557108         3412 
 4453000   0.54056765   -7.4150072    911.10633  0.017050422  0.015565706         3315 
 4454000    0.5361235   -7.4243939    908.18518  0.016991939  0.015560328         3361 
 4455000   0.53610087   -7.4236946    909.06544  0.017004591  0.015554949         3342 
 4456000    0.5261637   -7.4345882     909.1424  0.017002214  0.015549572         3350 
 4457000    0.5480713   -7.4416895    910.08179  0.017015964    0.0155442         3404 
 4458000   0.53105184   -7.4544428    909.24711  0.016996544  0.015538827         3346 
 4459000   0.54086207    -7.418375    911.80065  0.017040455  0.015533458         3292 
 4460000   0.54709672   -7.4250254    908.99405  0.016984194  0.015528094         3383 
 4461000   0.53161799   -7.4517116    907.53551   0.01695314  0.015522729         3397 
 4462000    0.5402288   -7.4500477    909.32317  0.016982728  0.015517364         3328 
 4463000   0.54978091   -7.4356312    908.74455  0.016968118  0.015512011         3351 
 4464000   0.53927577   -7.4496702    911.35446  0.017013039  0.015506659         3336 
 4465000   0.53319244   -7.4396135    908.91243  0.016963651  0.015501303         3352 
 4466000   0.53036165   -7.4321412    910.63979  0.016992084  0.015495951         3278 
 4467000   0.52480174   -7.4264054    910.52799  0.016986195  0.015490599         3314 
 4468000   0.54230509   -7.4173304    909.57658  0.016964648  0.015485254         3374 
 4469000    0.5223456   -7.4380318    911.22464  0.016991584  0.015479906         3360 
 4470000   0.53121622     -7.45322    907.70619  0.016922189  0.015474555         3338 
 4471000   0.52927856   -7.4249492     910.7351  0.016974858  0.015469211         3380 
 4472000    0.5419248   -7.4425473    909.30145  0.016944347  0.015463863         3312 
 4473000   0.53584497   -7.4360522    909.66674  0.016947365  0.015458522         3385 
 4474000   0.53596167   -7.4368618    909.31316  0.016936991  0.015453182         3331 
 4475000   0.53006465   -7.4385972    909.30357  0.016933027  0.015447845         3363 
 4476000   0.52975452   -7.4556541    909.35932  0.016930282  0.015442514         3362 
 4477000   0.54310451   -7.4478857    908.56038  0.016911629   0.01543718         3388 
 4478000   0.54679628   -7.4294278    909.53603  0.016926009  0.015431852         3396 
 4479000   0.52649002   -7.4441199    910.04435  0.016931688  0.015426525         3349 
 4480000   0.55318614   -7.4302366    909.07767  0.016909927  0.015421203         3423 
 4481000    0.5443124   -7.4451213    909.00966  0.016904888  0.015415882         3354 
 4482000   0.52991353   -7.4340976    907.27767  0.016868914  0.015410559         3307 
 4483000   0.53505263   -7.4477241    909.58803  0.016908098  0.015405242         3357 
 4484000   0.52406249   -7.4562271    910.02888   0.01691252   0.01539993         3359 
 4485000   0.54704204    -7.435472    910.23466  0.016912573  0.015394616         3373 
 4486000   0.54276497   -7.4388737    907.94427  0.016866256  0.015389308         3439 
 4487000   0.52469924   -7.4414738    910.65377  0.016912818  0.015383992         3425 
 4488000   0.53326881   -7.4575932    908.69132  0.016872611  0.015378683         3418 
 4489000   0.52726428   -7.4490349    910.75339  0.016907132   0.01537338         3371 
 4490000   0.52724667   -7.4569403    907.96372  0.016851591  0.015368071         3380 
 4491000   0.53344549    -7.439509    908.27303  0.016853578  0.015362769         3321 
 4492000   0.54166243   -7.4407247    910.32958  0.016887978  0.015357475         3362 
 4493000   0.52736135   -7.4456711    909.68261   0.01687222  0.015352179         3425 
 4494000   0.54438751   -7.4385425    906.44979  0.016808519  0.015346885         3327 
 4495000   0.53606319   -7.4426489    910.88576  0.016887018  0.015341603         3397 
 4496000   0.53278876    -7.429611    908.85085  0.016845545   0.01533632         3408 
 4497000   0.53023177   -7.4543307    909.06182  0.016845709  0.015331035         3368 
 4498000   0.53818097   -7.4499714    908.30848  0.016828007  0.015325751         3373 
 4499000   0.53242157   -7.4331065    910.44817  0.016863899   0.01532048         3382 
 4500000   0.54175587   -7.4417529    910.47563   0.01686066  0.015315204         3339 
 4501000   0.53488237   -7.4375009    909.92943  0.016846801   0.01530993         3351 
 4502000     0.528206   -7.4457762    909.45066  0.016834197  0.015304654         3360 
 4503000   0.52596729   -7.4471558    908.53062  0.016813432  0.015299379         3363 
 4504000   0.53910345   -7.4589493    910.41647  0.016844591  0.015294114         3382 
 4505000   0.53168286   -7.4560902    908.73762  0.016809797  0.015288842         3390 
 4506000   0.53508472   -7.4650949    908.06098  0.016793553  0.015283574         3399 
 4507000   0.53476175   -7.4375665    910.44576  0.016833921  0.015278311         3337 
 4508000   0.52985311   -7.4589833    909.13395  0.016805937  0.015273046         3414 
 4509000   0.51908436   -7.4399447    909.25984  0.016804536  0.015267787         3374 
 4510000   0.53581828   -7.4703044    907.99146  0.016777374  0.015262528         3371 
 4511000   0.53357002   -7.4465449    909.57289  0.016802869  0.015257271         3408 
 4512000   0.53347608   -7.4446161     908.1972  0.016773737  0.015252011         3442 
 4513000   0.53363473   -7.4509466    908.87225  0.016782485  0.015246758         3372 
 4514000   0.53069446   -7.4487019    910.66791  0.016811917  0.015241514         3394 
 4515000   0.52790715   -7.4616288    906.67755  0.016734543  0.015236266         3374 
 4516000     0.521061    -7.434694    910.63993  0.016803955  0.015231019         3388 
 4517000   0.52805712    -7.449746    909.34798    0.0167764  0.015225773         3382 
 4518000   0.52912114   -7.4536668    908.33005  0.016753911  0.015220537         3385 
 4519000   0.52563074   -7.4443726    908.88651  0.016760465    0.0152153         3369 
 4520000   0.52898462   -7.4556009    908.27589  0.016745499  0.015210071         3349 
 4521000   0.52651374   -7.4642679    909.61677  0.016766511  0.015204842         3347 
 4522000   0.54045645   -7.4472168    908.43889  0.016741097  0.015199614         3325 
 4523000   0.52090905   -7.4552026     910.9067  0.016782864   0.01519439         3342 
 4524000    0.5249479     -7.45911    907.97899  0.016725225  0.015189162         3307 
 4525000   0.51623979   -7.4598928    909.79939  0.016755053  0.015183942         3314 
 4526000   0.52654731   -7.4682381    907.52951  0.016709558  0.015178715         3424 
 4527000   0.52252713    -7.459136    908.90406   0.01673117  0.015173496         3367 
 4528000   0.52697487   -7.4519745    908.78699   0.01672532  0.015168279         3412 
 4529000   0.54040038   -7.4431757    908.77994  0.016721497  0.015163062         3318 
 4530000   0.52426068   -7.4830101    907.82443  0.016700229  0.015157843         3411 
 4531000   0.52798102   -7.4472487    907.92982  0.016698481  0.015152621         3297 
 4532000   0.52837458   -7.4617541    909.04009  0.016715212  0.015147411         3393 
 4533000   0.52636937   -7.4623067    908.48309  0.016701285  0.015142205         3362 
 4534000   0.51999514    -7.457612    908.10424  0.016690638  0.015137004         3285 
 4535000   0.53584488   -7.4402571    909.31826  0.016709266    0.0151318         3345 
 4536000   0.53968435   -7.4391405    907.99372  0.016681249  0.015126602         3371 
 4537000    0.5174326   -7.4558499     910.3207  0.016720313  0.015121402         3361 
 4538000   0.52492993   -7.4592562    909.06017   0.01669348  0.015116207         3352 
 4539000   0.51427198    -7.458004    907.09597  0.016653741  0.015111004         3333 
 4540000   0.52861315   -7.4594095    908.87767  0.016682777  0.015105814         3349 
 4541000   0.53072711   -7.4745451    908.82992  0.016678226   0.01510062         3297 
 4542000   0.52759929   -7.4459677    907.17767   0.01664424  0.015095432         3326 
 4543000   0.52445819   -7.4455936    907.13295  0.016639756  0.015090247         3366 
 4544000   0.52753276   -7.4764858    908.34833  0.016658383  0.015085056         3367 
 4545000   0.52218879   -7.4622011    908.51971   0.01665786  0.015079871         3337 
 4546000   0.53033431   -7.4609294    908.03354  0.016645284  0.015074686         3358 
 4547000   0.52579135   -7.4695464    908.76659  0.016655058  0.015069505         3407 
 4548000   0.52020986   -7.4589519    909.40553  0.016663103  0.015064324         3391 
 4549000   0.52799598   -7.4617144    908.12292  0.016635944  0.015059139         3368 
 4550000   0.52116876   -7.4596818     908.2294  0.016634238  0.015053959         3407 
 4551000   0.52940172   -7.4552382    908.36816  0.016633124  0.015048787         3410 
 4552000   0.52293781   -7.4598931    910.77064  0.016673452  0.015043616         3427 
 4553000   0.52043229   -7.4604018    907.43253  0.016608693  0.015038444         3407 
 4554000   0.51168889   -7.4482536    907.76842  0.016611192  0.015033277         3370 
 4555000   0.51670975     -7.44945    907.98198  0.016611452  0.015028105         3379 
 4556000   0.54027784   -7.5019842    906.23397  0.016575834  0.015022937         3390 
 4557000   0.52470742   -7.4692974    908.45552  0.016612821  0.015017778         3406 
 4558000   0.52514895    -7.470684    908.50593  0.016610098  0.015012618         3412 
 4559000   0.52456667   -7.4566527    906.94413  0.016577907  0.015007455         3367 
 4560000   0.51797453   -7.4750982    908.94238  0.016610789  0.015002303         3389 
 4561000   0.52639101   -7.4763007    906.87475   0.01656937   0.01499715         3374 
 4562000    0.5127196   -7.4535802    908.26464  0.016591127  0.014992002         3307 
 4563000   0.52644974   -7.4609233    908.10056  0.016584494  0.014986855         3383 
 4564000   0.51710118    -7.482378    906.79299  0.016556986  0.014981711         3371 
 4565000   0.52104731   -7.4528093    908.58762  0.016586119  0.014976565         3434 
 4566000   0.52734375   -7.4602611    909.11745  0.016592157  0.014971428         3402 
 4567000   0.52580934    -7.468058    907.50145  0.016559037  0.014966291         3419 
 4568000   0.51815921   -7.4806876    908.86723  0.016580328  0.014961155         3410 
 4569000   0.52009982   -7.4693181    907.18498  0.016546016  0.014956023         3303 
 4570000   0.52751416   -7.4617008    908.01113   0.01655746  0.014950895         3335 
 4571000   0.53509849   -7.4782069    908.08023  0.016555098  0.014945764         3394 
 4572000   0.51305229   -7.4724915    908.35593  0.016556502  0.014940636         3343 
 4573000   0.51954667   -7.4706055    908.18222  0.016549716   0.01493551         3345 
 4574000   0.51189004   -7.4823731    906.51227  0.016515673  0.014930376         3373 
 4575000   0.50950459   -7.4681104    908.23494  0.016543442   0.01492525         3335 
 4576000    0.5199812   -7.4735414    907.03497  0.016517974  0.014920124         3380 
 4577000   0.51592722   -7.4713477    907.87181  0.016529601  0.014915004         3417 
 4578000   0.51503478   -7.4816402     908.6665  0.016540456  0.014909881         3354 
 4579000   0.51530244   -7.4745417    906.12127  0.016490523  0.014904767         3382 
 4580000   0.52302396   -7.4832766    907.50222  0.016512049  0.014899654         3379 
 4581000   0.51630379   -7.4732765    907.87866  0.016515293  0.014894542         3274 
 4582000   0.51854716   -7.4844264     908.0675  0.016515123  0.014889433         3341 
 4583000   0.50945641   -7.4693662    908.02466   0.01651074  0.014884322         3376 
 4584000   0.51533691    -7.488924    909.80789  0.016539556  0.014879219         3417 
 4585000   0.52739375   -7.4680888    908.19657  0.016506662  0.014874113         3285 
 4586000   0.52949036   -7.4613976    908.18533  0.016502859  0.014869014         3324 
 4587000   0.53290452   -7.4700147    908.48923  0.016504782  0.014863917         3355 
 4588000   0.52051051   -7.4638561    908.13574  0.016494764  0.014858822         3393 
 4589000   0.51442741   -7.4645975    906.80917   0.01646708  0.014853726         3400 
 4590000   0.51689579    -7.463426     908.2395  0.016489461  0.014848633         3393 
 4591000   0.51134427   -7.4721119    907.50345  0.016472509   0.01484354         3350 
 4592000   0.52381911   -7.4884682    908.06413  0.016479096  0.014838453         3410 
 4593000    0.5106982   -7.4787899    907.24062  0.016460567  0.014833357         3400 
 4594000   0.51534774   -7.4756658    908.20232  0.016474429  0.014828272         3373 
 4595000   0.51846383   -7.4750007    907.79219  0.016463406  0.014823191         3377 
 4596000   0.51461507   -7.4801924    906.19276  0.016430823  0.014818108         3390 
 4597000   0.51848616   -7.4670915    907.32221  0.016447723   0.01481303         3428 
 4598000   0.51881682   -7.4827001    906.87022  0.016435954  0.014807952         3444 
 4599000   0.52732124   -7.4787928    907.58668  0.016445363  0.014802876         3422 
 4600000   0.51742744   -7.5044334    906.09167  0.016414704  0.014797802         3445 
 4601000   0.51405724   -7.4801944    906.53478  0.016419162  0.014792727         3456 
 4602000   0.51982015   -7.4738296    908.32926  0.016448089  0.014787655         3392 
 4603000   0.50669558    -7.479446    908.53406  0.016448223  0.014782586         3373 
 4604000   0.52122022   -7.4762921    906.94845  0.016415951  0.014777525         3419 
 4605000     0.521913   -7.4817398     906.5545  0.016405257  0.014772461         3412 
 4606000   0.51019081   -7.4768774    907.10871  0.016411722  0.014767402         3368 
 4607000   0.51613485   -7.4900842    906.63767  0.016399639   0.01476234         3455 
 4608000   0.50743087   -7.4789253    906.91931  0.016401174  0.014757285         3369 
 4609000   0.50660625   -7.4736489    907.45459  0.016407293  0.014752227         3376 
 4610000    0.5147093   -7.4808713    906.63653  0.016388947  0.014747175         3413 
 4611000   0.51104949    -7.464524    907.97267   0.01640954  0.014742123         3422 
 4612000   0.51778513   -7.4881038    906.38447  0.016377285  0.014737075         3490 
 4613000   0.51711338   -7.4654837    907.08945   0.01638647  0.014732026         3460 
 4614000   0.51962023   -7.4852328    906.46319  0.016371608  0.014726983         3438 
 4615000   0.50093377   -7.4861429    907.20781  0.016381506  0.014721934         3478 
 4616000   0.51910639   -7.4743428    907.57104  0.016384515  0.014716888         3409 
 4617000   0.51508892   -7.4790515    906.42898  0.016360353  0.014711852         3371 
 4618000   0.51894033   -7.4736628    907.12472  0.016369365  0.014706813         3426 
 4619000   0.51167413   -7.4974339    907.86482  0.016379173  0.014701777         3410 
 4620000    0.5143922   -7.4818227    907.49717  0.016368997   0.01469674         3385 
 4621000   0.52458969   -7.4783313     908.1502  0.016377231   0.01469171         3413 
 4622000   0.51844827   -7.4843853    907.02063  0.016353322  0.014686677         3380 
 4623000   0.50867465   -7.4838475    906.47631  0.016339973  0.014681651         3407 
 4624000    0.5077749   -7.4875209    908.35763  0.016370344  0.014676618         3418 
 4625000   0.50433406   -7.4665675    905.78957  0.016320533  0.014671595         3460 
 4626000   0.51285601   -7.4976487    906.28864  0.016325995  0.014666569         3466 
 4627000   0.51022343   -7.4918474    904.53003  0.016290794  0.014661545         3488 
 4628000   0.52444257   -7.4951577    907.60676  0.016342674  0.014656524         3416 
 4629000   0.50417528   -7.4782184    906.49028  0.016319044  0.014651505         3451 
 4630000   0.50335695   -7.4822363     907.0325  0.016325279  0.014646497         3461 
 4631000   0.50920419   -7.4748694    907.65858   0.01633302  0.014641491         3468 
 4632000   0.50751467   -7.4909395    906.47133  0.016308134  0.014636482         3490 
 4633000   0.50359737   -7.4805456     907.7935  0.016328396   0.01463148         3459 
 4634000   0.50976131   -7.4881208    906.09245  0.016294282  0.014626474         3423 
 4635000   0.50621541    -7.477657    907.70069  0.016319682  0.014621476         3438 
 4636000   0.53546127    -7.462663    906.47465  0.016294123  0.014616479         3435 
 4637000   0.50578575   -7.4844836    907.83645  0.016315083  0.014611487         3415 
 4638000   0.50716705   -7.4803891    905.78599  0.016274723  0.014606493         3417 
 4639000   0.50705587   -7.5001214    906.42125  0.016282626    0.0146015         3450 
 4640000    0.4998395   -7.4705986    905.59794  0.016264331  0.014596512         3450 
 4641000   0.50970132   -7.4871594    908.12944  0.016306282  0.014591522         3487 
 4642000   0.50981219   -7.4948092    905.43192  0.016254343  0.014586531         3507 
 4643000   0.50181781    -7.493223    906.15287  0.016263782  0.014581545         3414 
 4644000   0.51153591   -7.4814085    906.10102  0.016259349  0.014576558         3401 
 4645000   0.51405287   -7.4912176    907.49081  0.016280782  0.014571579         3429 
 4646000   0.51117404   -7.4767373    908.86493  0.016301925  0.014566604         3420 
 4647000    0.5163378   -7.4953296    909.22749  0.016304919  0.014561626         3422 
 4648000   0.51053492   -7.4871266    906.58022  0.016253948  0.014556653         3419 
 4649000   0.51600467   -7.4942446    907.86952  0.016273563  0.014551678         3414 
 4650000   0.49656006   -7.4876914    905.46702  0.016227008  0.014546701         3412 
 4651000   0.51821855   -7.4894331    906.57345  0.016243343  0.014541729         3399 
 4652000   0.51703558   -7.4827846    905.51775   0.01622094  0.014536761         3421 
 4653000   0.48843552   -7.4902048     907.5283  0.016253462  0.014531791         3386 
 4654000   0.50045977   -7.4901614    906.49564  0.016231479  0.014526827         3412 
 4655000   0.51578173   -7.4989628    904.76064  0.016196932  0.014521864         3430 
 4656000   0.50892881   -7.4826708    905.88786  0.016213629  0.014516904         3459 
 4657000   0.49879638    -7.495437    906.77542  0.016226029  0.014511942         3394 
 4658000   0.50938701   -7.4826184    906.84307  0.016223756  0.014506982         3408 
 4659000     0.504198   -7.4823335    906.25922  0.016209831  0.014502026         3409 
 4660000   0.49474604   -7.5037388    905.70406  0.016196425  0.014497075         3458 
 4661000    0.5098782   -7.4861086    905.29147  0.016185573  0.014492124         3401 
 4662000   0.51002389   -7.5027414    906.09899  0.016196536  0.014487173         3375 
 4663000   0.50407852   -7.5146544    908.09537   0.01622874  0.014482228         3397 
 4664000   0.52432302   -7.4893831    906.53376  0.016197358  0.014477284         3415 
 4665000   0.50704622   -7.4897665    907.16231  0.016205114  0.014472344         3396 
 4666000   0.50521376   -7.4849983    906.22171  0.016184843  0.014467406         3421 
 4667000   0.50116946   -7.5029683     908.1174  0.016215224  0.014462466         3407 
 4668000   0.50115923   -7.4930843    906.60487  0.016184748  0.014457533         3394 
 4669000   0.50446494   -7.4946286    905.93412   0.01616931  0.014452599         3455 
 4670000   0.51348896   -7.4973837    906.36675  0.016173568  0.014447671         3437 
 4671000   0.50767649   -7.4969491    906.37339  0.016170224  0.014442735         3419 
 4672000   0.50428891   -7.5157245    907.17827  0.016181119  0.014437809         3350 
 4673000   0.51716209   -7.4986662    905.40774  0.016146083  0.014432883         3405 
 4674000   0.50447548    -7.493795     905.2648   0.01614008  0.014427961         3370 
 4675000   0.51383732   -7.4978853    904.89239  0.016129989  0.014423041         3429 
 4676000   0.50576745   -7.5055763    905.44907   0.01613646  0.014418122         3402 
 4677000   0.50288104   -7.5033151    908.24906    0.0161829  0.014413211         3386 
 4678000   0.51245758   -7.4900473    906.72236  0.016152244  0.014408299         3409 
 4679000   0.50311763   -7.4839243    906.95651  0.016152962  0.014403393         3412 
 4680000   0.49352474   -7.4879655    904.71227  0.016109549  0.014398481         3426 
 4681000   0.49923242   -7.5056934    906.55066  0.016138835  0.014393575         3430 
 4682000   0.50656796    -7.511378    906.77386  0.016139361  0.014388668         3436 
 4683000   0.50036138   -7.4960196    906.00395  0.016122214  0.014383759         3409 
 4684000   0.50566192   -7.5040024    905.94557  0.016117734  0.014378859         3462 
 4685000   0.49679153   -7.5169753    904.66055  0.016091436  0.014373954         3439 
 4686000   0.49460115   -7.4913748    906.66618  0.016123669  0.014369056         3468 
 4687000   0.48896237   -7.4931467    905.75201  0.016103976  0.014364154         3455 
 4688000   0.51016398   -7.4932891    905.73374  0.016100216  0.014359257         3372 
 4689000   0.50339419   -7.5092585    905.46959  0.016092088  0.014354362         3433 
 4690000   0.50990886   -7.4988233    906.52396  0.016107391  0.014349474         3433 
 4691000   0.50665595   -7.5133313    906.26247  0.016099312  0.014344585         3407 
 4692000   0.50359127    -7.497403    905.89602  0.016089372  0.014339698         3427 
 4693000   0.51603745   -7.5217379    906.86882  0.016103218  0.014334808         3408 
 4694000   0.50772307   -7.4979051    906.01935  0.016084707  0.014329924         3452 
 4695000   0.51401801   -7.4975687    906.07171   0.01608221  0.014325044         3433 
 4696000   0.50001531   -7.5114944    904.84313  0.016056983  0.014320165         3394 
 4697000   0.50422271   -7.5161136     904.1032  0.016040437  0.014315288         3425 
 4698000   0.49638565   -7.5094663    906.07225   0.01607195  0.014310416         3414 
 4699000   0.50600253   -7.4934688    905.10894  0.016051446  0.014305545         3448 
 4700000   0.50054103   -7.5059072    906.05164  0.016064745  0.014300671         3433 
 4701000   0.50177644   -7.5032838     905.5971  0.016053271  0.014295805         3395 
 4702000   0.50005243   -7.5179728    906.50509  0.016065949  0.014290939         3426 
 4703000   0.49546364   -7.4959381    905.98082  0.016053243   0.01428607         3408 
 4704000   0.50361933   -7.5130247    906.96009  0.016067178  0.014281212         3406 
 4705000   0.49425938    -7.516741    905.17824  0.016032204  0.014276347         3422 
 4706000    0.4959564   -7.4999788    906.66991  0.016055212  0.014271486         3379 
 4707000   0.49847736   -7.5072828    905.32174  0.016027932  0.014266626         3399 
 4708000   0.50516157    -7.517508    906.69903  0.016048907   0.01426177         3419 
 4709000   0.49471466   -7.5083626    905.29134  0.016020587  0.014256914         3411 
 4710000   0.48383278   -7.5081302    904.97214  0.016011538  0.014252061         3444 
 4711000   0.49068505   -7.5016036    905.51827    0.0160178  0.014247212         3408 
 4712000   0.49205108   -7.5200757    905.64844  0.016016703  0.014242363         3411 
 4713000   0.49445607   -7.5101063    905.35113  0.016008047  0.014237515         3363 
 4714000   0.48656078   -7.5129064    905.85152  0.016013497  0.014232672         3450 
 4715000   0.49194944   -7.4995336    906.61459  0.016023588  0.014227832         3379 
 4716000   0.50457723   -7.5127107    905.33682  0.015997611  0.014222997         3477 
 4717000   0.49097316   -7.5103838    906.26978  0.016010702  0.014218161         3486 
 4718000   0.49155664   -7.4985718    905.12122  0.015987022  0.014213327         3498 
 4719000   0.49297876   -7.5094321    903.48042  0.015954659  0.014208492         3495 
 4720000   0.48857015    -7.512556    906.39766  0.016002784   0.01420366         3460 
 4721000   0.50435073   -7.5235263     905.1665  0.015977662  0.014198834         3458 
 4722000   0.49432458   -7.5128713    904.34082  0.015959707   0.01419401         3433 
 4723000   0.49672707   -7.5030762    905.72198  0.015980697  0.014189185         3417 
 4724000   0.50382105   -7.5079855    906.19146  0.015985596  0.014184363         3471 
 4725000   0.48763441   -7.5048067     905.8657  0.015976467   0.01417954         3433 
 4726000   0.48960168   -7.5173042    905.79032  0.015971758  0.014174724         3411 
 4727000   0.49272116   -7.5043006    905.17598  0.015957548  0.014169907         3448 
 4728000   0.49928559   -7.5067703     905.8384  0.015965849  0.014165093         3439 
 4729000   0.49892451   -7.5095205    905.31427  0.015953237  0.014160284         3448 
 4730000     0.491045   -7.4905655    907.08657  0.015981088  0.014155476         3504 
 4731000   0.48452504   -7.5084406    905.18718  0.015944254  0.014150665         3394 
 4732000   0.48951058   -7.5229502       907.06  0.015973866  0.014145859         3450 
 4733000   0.50212063   -7.4950923     904.3878  0.015923442  0.014141058         3445 
 4734000   0.49684725   -7.5124782    905.41441   0.01593815  0.014136256         3462 
 4735000   0.48780024   -7.5036288    905.74281  0.015940563  0.014131457         3441 
 4736000   0.50736984   -7.5225116    904.45499  0.015914537  0.014126661         3401 
 4737000   0.48436584   -7.5020588    905.54274  0.015930313   0.01412187         3397 
 4738000   0.50060477   -7.5236101    906.13335  0.015937339  0.014117077         3411 
 4739000   0.49564066   -7.5065464    906.29979  0.015936903  0.014112283         3367 
 4740000   0.49563579   -7.5134085     905.4854  0.015919223    0.0141075         3420 
 4741000   0.49716174   -7.5096771    904.58465  0.015900033  0.014102714         3396 
 4742000   0.47907241   -7.5109138    904.88322  0.015901926  0.014097928         3441 
 4743000   0.49372896    -7.509857    904.92908   0.01589938   0.01409314         3418 
 4744000   0.48881624   -7.5086658     905.7795  0.015910966  0.014088355         3396 
 4745000   0.48873691   -7.5346736    905.78057  0.015907632  0.014083573         3455 
 4746000   0.49334402   -7.5226458    904.30124  0.015878305  0.014078796         3411 
 4747000   0.49423074   -7.5066183    905.38976  0.015894069   0.01407402         3486 
 4748000   0.49916948   -7.5149255    905.17248  0.015886908  0.014069247         3379 
 4749000   0.49632231   -7.5040681    906.77001  0.015911596  0.014064478         3438 
 4750000   0.48555952   -7.5166497    904.95105  0.015876334  0.014059707         3411 
 4751000   0.49234178   -7.5047051    905.53263  0.015883194  0.014054939         3357 
 4752000   0.49211818   -7.5081405    905.45566  0.015878501  0.014050172         3443 
 4753000   0.49630974   -7.5202664    905.54536  0.015876733  0.014045408         3416 
 4754000   0.49221462   -7.5166429    904.73135  0.015859125  0.014040645         3438 
 4755000   0.48842985   -7.5241726    905.08316  0.015861955  0.014035889         3416 
 4756000    0.4986146   -7.5154491    904.75222  0.015852821  0.014031135         3428 
 4757000    0.4923267   -7.5062054    904.81631  0.015850612  0.014026385         3358 
 4758000   0.50344211   -7.5181146    905.50835  0.015859401  0.014021635         3455 
 4759000   0.50128886   -7.5147295    905.44863  0.015855023  0.014016881         3514 
 4760000   0.48147375   -7.5101858    905.06604  0.015844994  0.014012131         3458 
 4761000   0.49389281   -7.5329291    904.64049  0.015834217  0.014007381         3420 
 4762000   0.50457416   -7.5093249    903.73055  0.015814968  0.014002632         3464 
 4763000   0.47580157    -7.517079    906.15563  0.015854077  0.013997886         3379 
 4764000   0.48440794    -7.516421    905.88694  0.015846049  0.013993147         3416 
 4765000   0.48986115   -7.5228032    904.23325  0.015813803  0.013988406         3444 
 4766000    0.4908995   -7.5230403    904.88988  0.015821966  0.013983665         3458 
 4767000   0.48630798   -7.5291745    906.16743   0.01584098  0.013978922         3474 
 4768000   0.47757769   -7.5246874    904.32099  0.015805386  0.013974186         3471 
 4769000    0.4836997   -7.5233963    904.47742  0.015804806  0.013969448         3417 
 4770000   0.49954481   -7.5231133    904.28215  0.015798081  0.013964721         3426 
 4771000   0.48607162   -7.5129686    906.34486  0.015830798  0.013959988         3455 
 4772000   0.47081289   -7.5154207    906.41867   0.01582877  0.013955259         3474 
 4773000   0.48220698   -7.5224224    903.73034  0.015778517  0.013950533         3427 
 4774000   0.48469084   -7.5119967      906.136  0.015817204  0.013945809         3461 
 4775000   0.50038953   -7.5254573    904.43107  0.015784137  0.013941092         3470 
 4776000   0.48707123   -7.5055104    905.74362  0.015803734  0.013936372         3443 
 4777000   0.48425541   -7.5305172    904.95179  0.015786613  0.013931657         3539 
 4778000    0.4887521   -7.5203755    903.47648  0.015757578  0.013926944         3464 
 4779000   0.48073917   -7.5350496    904.05608  0.015764387  0.013922228         3514 
 4780000   0.48455169    -7.518616    904.81566  0.015774332   0.01391752         3442 
 4781000   0.48392368   -7.5195754    905.96552  0.015791074  0.013912814         3533 
 4782000   0.48318053   -7.5008027    904.92502   0.01576964  0.013908109         3502 
 4783000   0.48257449   -7.5182807    906.32751  0.015790778  0.013903404         3494 
 4784000   0.49523271   -7.5324436    905.23765  0.015768493  0.013898696         3536 
 4785000    0.4927639   -7.5150133    904.78611  0.015757334  0.013893993         3512 
 4786000   0.49413404   -7.5134919    904.43558  0.015747938  0.013889295         3528 
 4787000   0.47343002   -7.5205547    901.82745  0.015699245  0.013884597         3492 
 4788000   0.47224651   -7.5312103    904.87839  0.015749067    0.0138799         3487 
 4789000   0.48763948   -7.5477737    903.04898  0.015713945  0.013875205         3426 
 4790000   0.47982845   -7.5024931    905.09891  0.015746328  0.013870516         3509 
 4791000   0.47015857   -7.5160162    905.42585  0.015748728  0.013865826         3466 
 4792000   0.49263469   -7.5358443    905.14158  0.015740498  0.013861136         3534 
 4793000   0.48522614   -7.5304665    904.56929  0.015727264  0.013856447         3507 
 4794000   0.47764806   -7.5386567    904.38661  0.015720807  0.013851761         3513 
 4795000   0.49962008   -7.5229168    904.58772  0.015721024  0.013847076         3465 
 4796000   0.48151883   -7.5207637     904.7688  0.015720892  0.013842394         3478 
 4797000   0.48601163   -7.5022197    904.70138  0.015716444  0.013837717         3476 
 4798000   0.47577157   -7.5402213    904.78238  0.015714575  0.013833038         3506 
 4799000   0.47929156   -7.5250955    903.84784  0.015695073  0.013828361         3487 
 4800000   0.47569318   -7.5298314    904.85836  0.015709347  0.013823686         3498 
 4801000   0.48898563   -7.5201405    904.87832  0.015706421  0.013819011         3437 
 4802000   0.48822064   -7.5220165    903.70132  0.015682725  0.013814342         3455 
 4803000   0.48080376   -7.5283065    903.99375  0.015684533  0.013809678         3473 
 4804000   0.48260851   -7.5256881    904.39536  0.015688235  0.013805017         3529 
 4805000   0.48711819   -7.5297903    904.37274  0.015684578  0.013800351         3501 
 4806000   0.47725746   -7.5309234    904.56141  0.015684585  0.013795691         3448 
 4807000   0.48384516   -7.5267826    904.96877  0.015688384  0.013791033         3470 
 4808000   0.47781412   -7.5243615      905.615  0.015696322   0.01378638         3469 
 4809000   0.48178604   -7.5329407    904.95703  0.015681656  0.013781723         3492 
 4810000   0.48112425   -7.5238282    903.97619  0.015661403  0.013777066         3483 
 4811000   0.47973343   -7.5344476    904.87613  0.015673736   0.01377242         3426 
 4812000     0.477397   -7.5209016    903.09806  0.015639687  0.013767773         3468 
 4813000   0.47583896   -7.5258941    904.94956  0.015668494  0.013763125         3449 
 4814000   0.47461713   -7.5279604    905.24705  0.015670389  0.013758483         3448 
 4815000   0.48477442   -7.5308097    904.46552  0.015653609  0.013753843         3488 
 4816000   0.47030991    -7.546089     903.1427  0.015627469  0.013749208         3424 
 4817000   0.48116136   -7.5417151    903.12673  0.015623949  0.013744567         3477 
 4818000   0.46715104   -7.5309683    905.02456  0.015653531  0.013739933         3450 
 4819000     0.495204    -7.535995    904.55009  0.015642078  0.013735296         3425 
 4820000   0.48706876   -7.5216664    904.91407  0.015645126  0.013730664         3472 
 4821000   0.46964584   -7.5174269    904.32623  0.015631719  0.013726034         3478 
 4822000   0.48739063   -7.5341503    903.64259  0.015616663  0.013721405         3474 
 4823000    0.4725176   -7.5302133    904.25727  0.015624046  0.013716773         3445 
 4824000   0.48678261   -7.5459185    904.64164  0.015627447  0.013712145         3479 
 4825000   0.47735505   -7.5464553    904.88926  0.015628485  0.013707522         3450 
 4826000   0.47698769   -7.5277949    903.94271  0.015608902  0.013702898         3449 
 4827000   0.48329724   -7.5324598    904.10596  0.015608486  0.013698278         3458 
 4828000    0.4716839   -7.5377097    904.14668  0.015605956   0.01369366         3470 
 4829000   0.47835398   -7.5205997    904.86024  0.015615038  0.013689044         3489 
 4830000   0.48119652   -7.5549431    905.22682   0.01561813  0.013684425         3428 
 4831000   0.47594391    -7.527325     904.5056  0.015602456  0.013679815         3451 
 4832000   0.48117391   -7.5277836    904.93432  0.015606621  0.013675204         3498 
 4833000   0.47134118     -7.53829    905.23188  0.015608523  0.013670596         3473 
 4834000    0.4746748   -7.5309923    903.22388  0.015570678   0.01366599         3455 
 4835000   0.48044744   -7.5225531     902.9453  0.015562656  0.013661385         3493 
 4836000   0.47365685    -7.557278     904.3248  0.015583209  0.013656782         3442 
 4837000   0.48151683   -7.5371237    904.18222  0.015577531  0.013652176         3486 
 4838000   0.47626254   -7.5244185     904.2806  0.015576006  0.013647576         3548 
 4839000   0.48423802   -7.5321813     903.5207  0.015559701  0.013642977         3578 
 4840000   0.48517704   -7.5488357    904.34546  0.015570686   0.01363838         3582 
 4841000   0.48885865   -7.5407172    902.33282  0.015532824  0.013633783         3568 
 4842000   0.46945808   -7.5545187    903.52445  0.015550125  0.013629189         3556 
 4843000   0.46571608   -7.5345932     903.2816  0.015542735  0.013624593         3524 
 4844000   0.47542316   -7.5394932    903.83098  0.015548978  0.013620005         3572 
 4845000   0.47146274   -7.5289621    905.30505  0.015571122  0.013615414         3568 
 4846000   0.46824366   -7.5380735    902.53883   0.01552034  0.013610827         3534 
 4847000    0.4753539   -7.5396865    904.04998  0.015543119  0.013606239         3497 
 4848000   0.47512715   -7.5392354    904.96305  0.015555608  0.013601661         3536 
 4849000    0.4793128   -7.5329039    903.43037   0.01552606   0.01359708         3528 
 4850000    0.4739743   -7.5338947    903.09669  0.015517125    0.0135925         3504 
 4851000   0.46366689   -7.5410002    903.30021  0.015517423  0.013587925         3510 
 4852000   0.48213813   -7.5474383    904.01925  0.015526574  0.013583353         3488 
 4853000   0.47467565   -7.5410418    904.32233  0.015528579  0.013578782         3498 
 4854000   0.46203808   -7.5351959    903.54817  0.015512089  0.013574211         3512 
 4855000    0.4778653   -7.5471897    902.98361  0.015499204  0.013569638         3507 
 4856000   0.48058229   -7.5571183    902.73042  0.015491667  0.013565072         3542 
 4857000   0.47180864   -7.5478957    903.42696  0.015500428  0.013560506         3522 
 4858000   0.47977747    -7.542112     901.2858  0.015460508  0.013555943         3550 
 4859000   0.47641311   -7.5323271    904.73477  0.015516477  0.013551383         3502 
 4860000   0.47642972   -7.5543351    902.87186  0.015481342  0.013546821         3540 
 4861000   0.47272846   -7.5482125    903.29777  0.015485459  0.013542262         3561 
 4862000   0.48691597   -7.5599927    904.10727  0.015496148  0.013537712         3533 
 4863000   0.47159839   -7.5516635    902.57379  0.015466684  0.013533157         3466 
 4864000   0.48047223   -7.5606752    903.84205  0.015485233  0.013528607         3548 
 4865000   0.47729748   -7.5427769    903.77261   0.01548086  0.013524054         3542 
 4866000   0.47713891   -7.5406153    904.67158  0.015493074  0.013519505         3559 
 4867000    0.4728238   -7.5579151    901.17734  0.015430062  0.013514956         3587 
 4868000   0.47070881   -7.5552237    904.98816  0.015492128  0.013510405         3579 
 4869000   0.46453273   -7.5377111    902.29879  0.015442918   0.01350586         3605 
 4870000   0.47204216   -7.5524615    902.57205  0.015444423   0.01350132         3588 
 4871000   0.46773944   -7.5477051    903.18343  0.015451711  0.013496779         3581 
 4872000   0.47293679   -7.5405696    902.30351  0.015433489  0.013492238         3603 
 4873000    0.4765215   -7.5452902    904.21159  0.015462952  0.013487707         3480 
 4874000   0.47407841     -7.55361    902.96752  0.015438509  0.013483169         3532 
 4875000    0.4838603   -7.5657322    902.77089  0.015431981  0.013478632         3548 
 4876000   0.46367807   -7.5463078    903.06403  0.015433826    0.0134741         3566 
 4877000   0.47949994   -7.5554519    903.67844   0.01544116  0.013469565         3560 
 4878000   0.46591621   -7.5596963    903.80252  0.015440114  0.013465037         3527 
 4879000   0.47016368   -7.5718216    902.12378  0.015408277  0.013460508         3590 
 4880000   0.47052022   -7.5526236    904.06473  0.015438264  0.013455983         3552 
 4881000   0.46288324   -7.5695953     901.3858  0.015389363  0.013451461         3565 
 4882000   0.47834135   -7.5476486    903.30041  0.015418893  0.013446942         3530 
 4883000   0.47310783   -7.5567431    902.37668  0.015399971  0.013442426         3547 
 4884000   0.47801047   -7.5523397    901.53597  0.015382473  0.013437911         3566 
 4885000   0.45968164    -7.552158    904.60105  0.015431611    0.0134334         3522 
 4886000   0.46713683   -7.5574853     902.3999  0.015390911  0.013428887         3538 
 4887000   0.46474175   -7.5466041    904.10073  0.015416764  0.013424376         3542 
 4888000   0.47510457   -7.5414525    902.67505  0.015389305  0.013419865         3494 
 4889000   0.46475711   -7.5653295    902.92403  0.015390401   0.01341536         3507 
 4890000   0.47273023   -7.5506401    902.38208  0.015378018  0.013410856         3429 
 4891000   0.48022903   -7.5678889    903.28438  0.015390247  0.013406357         3521 
 4892000   0.47740202   -7.5498737    902.78943   0.01537867  0.013401858         3529 
 4893000   0.47221258   -7.5491469    903.17907  0.015382163  0.013397358         3551 
 4894000   0.46373799   -7.5628049    902.94121  0.015374969   0.01339286         3565 
 4895000   0.46486426   -7.5613121    904.39325  0.015396548  0.013388365         3560 
 4896000   0.47387666   -7.5620937    902.57949  0.015362532  0.013383869         3513 
 4897000   0.45778644   -7.5605761    902.18391  0.015352663  0.013379381         3551 
 4898000    0.4643738   -7.5519123    902.53721   0.01535554  0.013374886         3587 
 4899000   0.47401781   -7.5525847    904.29923  0.015382378  0.013370401         3554 
 4900000   0.47143039   -7.5528793    902.56139  0.015349684  0.013365915         3509 
 4901000   0.47494724   -7.5618143    903.93577  0.015369921  0.013361434         3590 
 4902000   0.47214426    -7.570124    902.85695  0.015348445  0.013356954         3587 
 4903000   0.47328043   -7.5595423      903.511  0.015356431  0.013352474         3513 
 4904000    0.4603586   -7.5592142    901.94966  0.015326768  0.013347994         3492 
 4905000   0.47390851   -7.5628341    902.70875   0.01533654  0.013343521         3568 
 4906000   0.46759789   -7.5528069    902.06716  0.015322516  0.013339045         3590 
 4907000   0.47145094   -7.5663457     901.9123  0.015316764  0.013334575         3497 
 4908000   0.46295789   -7.5585389    903.61085  0.015342483  0.013330106         3561 
 4909000   0.46656545   -7.5667257    902.92963  0.015327793  0.013325637         3551 
 4910000   0.46752543   -7.5515253    902.32619   0.01531443  0.013321171         3533 
 4911000   0.45696302   -7.5578821    904.29048  0.015344643  0.013316704         3541 
 4912000   0.47033615   -7.5630436    903.38708  0.015326192  0.013312244         3505 
 4913000   0.46615874   -7.5638671    902.74057  0.015312107   0.01330778         3573 
 4914000   0.46378507   -7.5571737    901.55203  0.015288835  0.013303322         3570 
 4915000    0.4684121   -7.5551209    903.16991  0.015313156  0.013298862         3587 
 4916000   0.45547545   -7.5670137     902.6691  0.015301551  0.013294406         3561 
 4917000   0.47428561   -7.5522887    903.03585  0.015304655  0.013289951         3571 
 4918000   0.46642713   -7.5402792    903.10947   0.01530279    0.0132855         3540 
 4919000   0.46500137   -7.5702461    902.47497   0.01528893  0.013281051         3569 
 4920000   0.45956993   -7.5611054     903.6092  0.015305034  0.013276603         3615 
 4921000   0.46268093   -7.5836124    902.18007  0.015277723  0.013272154         3535 
 4922000   0.45864655    -7.573869    903.70453  0.015300429  0.013267707         3587 
 4923000   0.46448331   -7.5711945    903.20053   0.01528879  0.013263264         3543 
 4924000   0.45963865   -7.5574886    902.57198  0.015275047  0.013258822         3514 
 4925000   0.46368124   -7.5485272    903.09101  0.015280728  0.013254382         3583 
 4926000   0.46645981   -7.5506693    902.49186   0.01526749  0.013249943         3513 
 4927000   0.46030526   -7.5711247    903.18971  0.015276194  0.013245507         3524 
 4928000   0.46890819   -7.5563295    902.24376  0.015257098  0.013241069         3563 
 4929000   0.45883877   -7.5667033    902.02535   0.01525031  0.013236639         3532 
 4930000   0.46748373   -7.5730477    902.78894  0.015260124  0.013232211         3522 
 4931000   0.46285147   -7.5786501    902.90121  0.015258927  0.013227781         3534 
 4932000   0.45860638   -7.5513216    901.83258  0.015237777  0.013223352         3501 
 4933000   0.47113297   -7.5645942      902.371  0.015243783  0.013218933         3518 
 4934000   0.47108572   -7.5662741    903.20175  0.015254725  0.013214509         3544 
 4935000   0.47196896   -7.5530382    902.33793  0.015237047  0.013210087         3548 
 4936000   0.45574723   -7.5744975    902.52185  0.015237065  0.013205667         3506 
 4937000   0.45722943   -7.5714675    902.72046  0.015237331  0.013201251         3579 
 4938000   0.45607512   -7.5463277    903.12449  0.015241064  0.013196836         3537 
 4939000   0.47192657   -7.5640424    903.19051  0.015239092  0.013192423         3539 
 4940000   0.47184284   -7.5722707    902.70104   0.01522775  0.013188011         3564 
 4941000   0.46707218   -7.5636701    901.72898  0.015208274  0.013183599         3593 
 4942000   0.44797297   -7.5684581    902.47764  0.015217821  0.013179189         3589 
 4943000   0.46166614   -7.5628135    902.96182  0.015222905  0.013174784         3582 
 4944000   0.45609745   -7.5658716    902.98717  0.015220253  0.013170377         3550 
 4945000   0.46418762   -7.5633453    902.01023  0.015200712  0.013165974         3542 
 4946000   0.46871961   -7.5681019    903.14664  0.015216785  0.013161573         3575 
 4947000   0.46099001   -7.5509626    901.55044  0.015186821  0.013157177         3513 
 4948000   0.46609019   -7.5682401     903.3269  0.015213671  0.013152777         3521 
 4949000   0.46812425   -7.5539677    903.37607  0.015211424  0.013148383         3557 
 4950000   0.45951924   -7.5646477    903.47647  0.015210042   0.01314399         3517 
 4951000   0.47004412   -7.5585854    902.42155  0.015189214  0.013139598         3541 
 4952000   0.46476465   -7.5718152    901.81649  0.015175964  0.013135213         3540 
 4953000   0.46951871   -7.5686915    903.33257  0.015198408  0.013130821         3560 
 4954000   0.45321942   -7.5712447    901.51149  0.015164707  0.013126433         3587 
 4955000     0.468357   -7.5766116    903.27476  0.015191301   0.01312205         3591 
 4956000   0.46544802   -7.5553141    902.32666  0.015172294  0.013117666         3578 
 4957000   0.46917253   -7.5655698    901.44112  0.015154346  0.013113286         3580 
 4958000   0.45921616   -7.5868888    902.12366  0.015162762  0.013108907         3567 
 4959000   0.46611573   -7.5777765    902.31201  0.015162869  0.013104531         3571 
 4960000   0.45663325   -7.5777508    901.71967   0.01514986  0.013100156         3501 
 4961000   0.46792005   -7.5793836    902.49554  0.015159839  0.013095786         3527 
 4962000   0.45248155   -7.5673689    903.72247  0.015177389  0.013091414         3565 
 4963000   0.46598453   -7.5546659    903.14761  0.015164679  0.013087042         3485 
 4964000   0.46139069   -7.5807107     903.1305  0.015161337  0.013082677         3535 
 4965000    0.4517757    -7.585892    901.44586  0.015130008  0.013078311         3563 
 4966000   0.45257644   -7.5638743    902.31912  0.015141615  0.013073942         3578 
 4967000   0.46282219   -7.5789042    902.23963  0.015137233  0.013069582         3541 
 4968000    0.4484099   -7.5776534    901.79145  0.015126668  0.013065222         3511 
 4969000   0.46021018   -7.5496579    902.93282  0.015142766  0.013060862         3507 
 4970000   0.45671385   -7.5678598    901.06451  0.015108392  0.013056502         3575 
 4971000   0.45190841   -7.5769879    902.65827  0.015132071  0.013052146         3590 
 4972000   0.46679852   -7.5735978    901.46857  0.015109087  0.013047789         3606 
 4973000   0.46817902   -7.5692883    902.21578   0.01511857  0.013043437         3598 
 4974000   0.45509552   -7.5671325     903.6912  0.015140249  0.013039085         3532 
 4975000   0.45818823   -7.5659999     902.4101  0.015115747  0.013034737         3538 
 4976000   0.45520942   -7.5684586    903.47242    0.0151305  0.013030389         3539 
 4977000   0.46124623   -7.5716924    901.61553  0.015096369  0.013026044         3571 
 4978000   0.44906107   -7.5792622    900.90981  0.015081522  0.013021697         3549 
 4979000   0.46597384   -7.5821553    902.49418  0.015105011  0.013017357         3558 
 4980000   0.44951348   -7.5696302    900.73609  0.015072558  0.013013019         3600 
 4981000   0.44920445    -7.578154    902.02702   0.01509113  0.013008683         3573 
 4982000   0.45084249   -7.5687075    900.10086  0.015055882  0.013004348         3545 
 4983000   0.45312197   -7.5657497    901.18648  0.015071016  0.013000014         3573 
 4984000   0.45262369   -7.5769062    903.11558  0.015100247  0.012995683         3547 
 4985000   0.44555101   -7.5660803    902.23866  0.015082559  0.012991351         3523 
 4986000   0.45352256   -7.5734913    901.54574  0.015067953  0.012987025         3559 
 4987000   0.44651935   -7.5607672    902.25342  0.015076757    0.0129827         3510 
 4988000   0.44629199   -7.5949954    902.51163  0.015078048  0.012978373         3554 
 4989000   0.45632622   -7.5777095    901.06888  0.015050927  0.012974053         3589 
 4990000   0.46149858   -7.5958359    901.02589  0.015047193   0.01296973         3504 
 4991000   0.45103346   -7.5804609    901.78602  0.015056869  0.012965414         3523 
 4992000   0.45044541   -7.5764743    900.12509  0.015026127  0.012961097         3558 
 4993000   0.44401283   -7.5677804    902.12724  0.015056533  0.012956781         3514 
 4994000    0.4463797   -7.5807574    902.83599  0.015065345   0.01295247         3538 
 4995000   0.45409569   -7.5777221    901.84386  0.015045777  0.012948159         3524 
 4996000    0.4516729   -7.5724167    901.05118  0.015029543  0.012943847         3524 
 4997000   0.44993925   -7.5715411    901.72411  0.015037758  0.012939541         3516 
 4998000   0.45205962   -7.5852773    902.77146  0.015052212  0.012935234         3450 
 4999000   0.45594168   -7.5802288    900.23826  0.015006972  0.012930932         3587 
 5000000   0.45972307   -7.5899421    901.22014  0.015020336  0.012926633         3549 
 5001000   0.45506364   -7.5699734    899.10856  0.014982146  0.012922332         3576 
 5002000   0.44726896   -7.5942025    901.56138  0.015020015  0.012918033         3547 
 5003000   0.44730202   -7.5831876    901.42895  0.015014807  0.012913736         3573 
 5004000   0.45886586   -7.5718562    903.65624  0.015048898  0.012909444         3473 
 5005000   0.44509494   -7.5684638    901.75493  0.015014235  0.012905154         3501 
 5006000   0.44464633   -7.5703536    900.27217  0.014986552  0.012900859         3532 
 5007000   0.45108898   -7.5772968    903.20224  0.015032325  0.012896571         3539 
 5008000   0.44525592   -7.5714855    901.03581  0.014993274  0.012892286         3509 
 5009000    0.4589421   -7.5685067    902.61085  0.015016484  0.012888003         3526 
 5010000   0.44987407   -7.5675371    902.03057  0.015003835  0.012883722         3552 
 5011000   0.44733998   -7.5776942    900.32509  0.014972479  0.012879436         3574 
 5012000   0.45299094   -7.5792393    902.18284   0.01500038  0.012875153         3589 
Loop time of 13011.9 on 48 procs for 5000000 steps with 4000 atoms

Performance: 66400.755 tau/day, 384.264 timesteps/s
99.4% CPU use with 48 MPI tasks x no OpenMP threads

MPI task timing breakdown:
Section |  min time  |  avg time  |  max time  |%varavg| %total
---------------------------------------------------------------
Pair    | 964.35     | 1054.7     | 1154.8     | 129.7 |  8.11
Neigh   | 90.793     | 94.368     | 97.842     |  17.7 |  0.73
Comm    | 825.62     | 923.18     | 1013.7     | 135.1 |  7.09
Output  | 16.847     | 16.852     | 16.951     |   0.4 |  0.13
Modify  | 10769      | 10803      | 10833      |  14.9 | 83.02
Other   |            | 120.1      |            |       |  0.92

Nlocal:        83.3333 ave          88 max          76 min
Histogram: 1 3 3 2 4 9 7 7 4 8
Nghost:        2438.71 ave        2458 max        2423 min
Histogram: 1 4 9 10 5 5 7 1 5 1
Neighs:        16956.5 ave       19258 max       14590 min
Histogram: 2 6 4 3 8 9 4 6 5 1
FullNghs:      33914.0 ave       35971 max       30654 min
Histogram: 1 2 5 1 6 4 11 7 6 5

Total # of neighbors = 1627873
Ave neighs/atom = 406.96825
Neighbor list builds = 267355
Dangerous builds = 0

#clear
#
#next RN
#
#jump SELF
Total wall time: 3:36:55
