
units lj                  # Use reduced LJ style units
atom_style atomic         # Uncharged point particles
atom_modify map hash      # Needed for indexing of clusters etc
                          # Used to be able to find where atoms are in relation to each other.

lattice fcc 1.0 spacing 1 1 1
Lattice spacing in x,y,z = 1.5874011 1.5874011 1.5874011
region box block 0 10 0 10 0 10 units lattice
create_box 2 box
Created orthogonal box = (0.0000000 0.0000000 0.0000000) to (15.874011 15.874011 15.874011)
  3 by 4 by 4 MPI processor grid
create_atoms 1 box
Created 4000 atoms
  using lattice units in orthogonal box = (0.0000000 0.0000000 0.0000000) to (15.874011 15.874011 15.874011)
  create_atoms CPU = 0.025 seconds
set type 1 type/fraction 2 0.68 78393
Setting atom values ...
  2740 settings made for type/fraction
mass 1 1.0
mass 2 1.0
pair_style lj/cut  3.5
pair_modify tail  yes
pair_coeff 1  1  1.0  1.0   # Intearaction between 1 and 1 set with epsilon = 1 and sigma = 1
pair_coeff 1  2  1.5  0.8
pair_coeff 2  2  0.5  0.88

write_data data.0
System init for write_data ...
Neighbor list info ...
  update every 1 steps, delay 10 steps, check yes
  max neighbors/atom: 2000, page size: 100000
  master list distance cutoff = 3.8
  ghost atom cutoff = 3.8
  binsize = 1.9, bins = 9 9 9
  1 neighbor lists, perpetual/occasional/extra = 1 0 0
  (1) pair lj/cut, perpetual
      attributes: half, newton on
      pair build: half/bin/atomonly/newton
      stencil: half/bin/3d
      bin: standard
WARNING: Not all mixed pair coeffs generated from mixing. Use write_data with 'pair ij' option to store all pair coeffs. (../write_data.cpp:312)


#############################
#   M E L T   S Y S T E M   #
#############################

velocity all create 2.4 8172548 mom yes dist gaussian # Assign velocities
                                                    # Temperature 2.4, random number seed, zero linear momentum
                                                                                # Gaussian distribution

timestep 0.002   # simulation timestep
thermo 1000       # output thermodynamic data every 1000 steps bf 100

# Define a fix  in this case with index 1 applied to all
# particles in the simulation. This fix is for simulations
# in the anisotropic NPT ensemble. Note that we use the MTK
# correction.
fix 1 all npt temp 2.4 2.4 0.1 iso 5.68 5.68 0.5 mtk yes tchain 5 pchain 5 # Use NPT ensemble
                                                                         # Set temperature and pressure and damping
                                                                         # Numbers of thermostats in chain and in barostat
run 10000          # run for 10000 steps
Per MPI rank memory allocation (min/avg/max) = 3.642 | 3.644 | 3.648 Mbytes
Step Temp E_pair E_mol TotEng Press Volume 
       0          2.4   -4.2819815            0  -0.68288149   -3.8317514         4000 
    1000    2.4283555   -3.9044386            0  -0.26281601    6.0436915    3630.6797 
    2000    2.3853142   -3.9346603            0  -0.35758347    5.8756397    3639.3274 
    3000    2.3647948   -3.9209384            0  -0.37463302    5.6844365    3648.9404 
    4000    2.4175646   -3.9435987            0  -0.31815831    5.6092408    3649.1655 
    5000    2.4640663   -3.9956063            0  -0.30043078    5.8296682    3598.1006 
    6000    2.4009617   -3.9570511            0  -0.35650895     5.653158    3624.5276 
    7000    2.3983356   -3.9312549            0  -0.33465078     5.480374    3662.1395 
    8000    2.3613844    -3.944496            0  -0.40330492    5.7038314    3631.7058 
    9000    2.3900475    -3.977057            0  -0.39288201    5.4351779    3634.6035 
   10000    2.4175351   -3.9430915            0  -0.31769551    6.1501977    3605.3103 
Loop time of 2.69005 on 48 procs for 10000 steps with 4000 atoms

Performance: 642367.326 tau/day, 3717.404 timesteps/s
99.6% CPU use with 48 MPI tasks x no OpenMP threads

MPI task timing breakdown:
Section |  min time  |  avg time  |  max time  |%varavg| %total
---------------------------------------------------------------
Pair    | 1.2177     | 1.2734     | 1.3783     |   3.0 | 47.34
Neigh   | 0.21925    | 0.22538    | 0.25031    |   1.2 |  8.38
Comm    | 0.81152    | 0.92297    | 1.003      |   4.0 | 34.31
Output  | 0.00024746 | 0.00025175 | 0.00031756 |   0.0 |  0.01
Modify  | 0.22657    | 0.25213    | 0.29178    |   2.9 |  9.37
Other   |            | 0.01589    |            |       |  0.59

Nlocal:        83.3333 ave          92 max          73 min
Histogram: 3 0 2 7 7 11 5 8 2 3
Nghost:        1758.35 ave        1791 max        1730 min
Histogram: 3 3 5 6 8 10 8 3 1 1
Neighs:        10587.0 ave       11807 max        9206 min
Histogram: 3 2 4 7 6 4 10 5 4 3

Total # of neighbors = 508177
Ave neighs/atom = 127.04425
Neighbor list builds = 907
Dangerous builds = 192

# Equilibrate just above the melting temperature to avoid step fn in T

fix 1 all npt temp 1.25 1.25 0.1 iso 5.68 5.68 0.5 mtk yes tchain 5 pchain 5
run 2000
Per MPI rank memory allocation (min/avg/max) = 3.644 | 3.646 | 3.649 Mbytes
Step Temp E_pair E_mol TotEng Press Volume 
   10000    2.4175351   -3.9430915            0  -0.31769551    6.1501977    3605.3103 
   11000     1.247425   -5.8160751            0   -3.9454053    5.7094248    2773.1799 
   12000    1.2678674   -5.8423125            0   -3.9409869    5.7857584    2765.0713 
Loop time of 0.666098 on 48 procs for 2000 steps with 4000 atoms

Performance: 518842.524 tau/day, 3002.561 timesteps/s
99.6% CPU use with 48 MPI tasks x no OpenMP threads

MPI task timing breakdown:
Section |  min time  |  avg time  |  max time  |%varavg| %total
---------------------------------------------------------------
Pair    | 0.30366    | 0.32601    | 0.3577     |   2.0 | 48.94
Neigh   | 0.04176    | 0.043607   | 0.04827    |   0.6 |  6.55
Comm    | 0.21098    | 0.2461     | 0.27384    |   2.7 | 36.95
Output  | 5.1528e-05 | 5.3367e-05 | 7.003e-05  |   0.0 |  0.01
Modify  | 0.040077   | 0.045336   | 0.050204   |   1.5 |  6.81
Other   |            | 0.004987   |            |       |  0.75

Nlocal:        83.3333 ave          90 max          75 min
Histogram: 1 0 5 3 8 5 16 2 5 3
Nghost:        2108.69 ave        2132 max        2092 min
Histogram: 2 1 9 10 9 9 6 1 0 1
Neighs:        13791.8 ave       15544 max       11534 min
Histogram: 1 0 3 3 12 10 7 8 2 2

Total # of neighbors = 662006
Ave neighs/atom = 165.50150
Neighbor list builds = 142
Dangerous builds = 14

#############################
# L I N E A R  Q U E N C H  #
#############################

# Define solid atoms. This closely follows ten Wolde  Ruiz-Montero and Frenkel  Faraday Discuss  1996  104  93-110
# Compute components of the per-atom q6 vector
compute q6 all orientorder/atom degrees 1 6 components 6 nnn NULL cutoff 1.3 # compute the Q6 parameter.
                                                                             # Use all neighbours within 1.3 unit cell.

# get number of connections
compute coord_number all coord/atom orientorder q6 0.5

# An atom is solid if it has 8 or more connections (of a possible 14)
variable is_solid atom c_coord_number>=8
group solid dynamic all var is_solid    # Must be dynamic to update
dynamic group solid defined

# do clustering
compute cluster solid cluster/atom 1.3 # Create a cluster where all atoms within are solid and max 1.3 units from another member

# define chunks one chunk per cluster
compute clus_chunks solid chunk/atom c_cluster nchunk every compress yes  # Says which atoms are in which chunk

# count the size of each chunk
compute size_chunks solid property/chunk clus_chunks count


# Find the maximum entry in the vector of chunk sizes
variable max_n equal max(c_size_chunks)


# Thermo style which includes this variable
# thermo_style custom step temp pe vol v_max_n

thermo ${N}  # Print the thermo information every 100 steps
thermo 1000  

# Reset the npt fix at a lower temperature (below freezing)
fix 1  all npt temp  ${temp} ${temp}  0.1  iso  5.68  5.68  0.5  mtk yes tchain  5  pchain  5
fix 1  all npt temp  0.45 ${temp}  0.1  iso  5.68  5.68  0.5  mtk yes tchain  5  pchain  5
fix 1  all npt temp  0.45 0.45  0.1  iso  5.68  5.68  0.5  mtk yes tchain  5  pchain  5

dump dmp2 all dcd ${N} traj.dcd
dump dmp2 all dcd 1000 traj.dcd


compute msd all msd com yes
variable twopoint equal c_msd[4]/6/(step*dt+1.0e-6)
fix 9 all vector 10 c_msd[4]
variable fit equal slope(f_9)/6/(10*dt)
thermo_style custom step temp pe c_msd[4] v_twopoint v_fit v_max_n

fix 1 all npt temp 1.25 ${temp} 0.1 iso 5.68 5.68 0.5 mtk yes tchain 5 pchain 5
fix 1 all npt temp 1.25 0.45 0.1 iso 5.68 5.68 0.5 mtk yes tchain 5 pchain 5
run 5000000 # 5000000  # Run for this many steps
Neighbor list info ...
  update every 1 steps, delay 10 steps, check yes
  max neighbors/atom: 2000, page size: 100000
  master list distance cutoff = 3.8
  ghost atom cutoff = 3.8
  binsize = 1.9, bins = 8 8 8
  4 neighbor lists, perpetual/occasional/extra = 1 3 0
  (1) pair lj/cut, perpetual
      attributes: half, newton on
      pair build: half/bin/atomonly/newton
      stencil: half/bin/3d
      bin: standard
  (2) compute orientorder/atom, occasional
      attributes: full, newton on
      pair build: full/bin/atomonly
      stencil: full/bin/3d
      bin: standard
  (3) compute coord/atom, occasional
      attributes: full, newton on
      pair build: full/bin/atomonly
      stencil: full/bin/3d
      bin: standard
  (4) compute cluster/atom, occasional
      attributes: full, newton on
      pair build: full/bin/atomonly
      stencil: full/bin/3d
      bin: standard
Per MPI rank memory allocation (min/avg/max) = 9.844 | 9.852 | 9.859 Mbytes
Step Temp PotEng c_msd[4] v_twopoint v_fit v_max_n 
   12000    1.2678674   -5.8423125 4.1539443e-30 2.8846834e-32 8.3333333e+20            3 
   13000    1.2530002   -5.8628379   0.60216366 0.0038600233  0.049747801            3 
   14000    1.2618122   -5.8543826    1.1603748 0.0069069925   0.04829634            2 
   15000     1.244356   -5.8650131     1.671655 0.0092869718  0.046102536            2 
   16000    1.2582545   -5.8588031    2.2611304  0.011776721  0.045784213            3 
   17000    1.2417676   -5.8734455    2.8040811  0.013745495  0.046351128            3 
   18000    1.2470096   -5.8265413    3.3850868  0.015671698  0.046319692            2 
   19000    1.2555145   -5.8380355     3.960669  0.017371355  0.046389036            2 
   20000    1.2609139   -5.8637746    4.4427336   0.01851139  0.046332618            3 
   21000     1.219785   -5.9008983    5.0262358   0.01994538  0.046197744            5 
   22000    1.2446624   -5.9106499    5.6574115  0.021429589  0.046449186            2 
   23000    1.2592059   -5.8428249    6.2004217  0.022465295  0.046614563            3 
   24000     1.274509   -5.8816284    6.9207529  0.024030391  0.046928392            2 
   25000     1.245449   -5.8870851    7.5759771  0.025253257  0.047462549            1 
   26000     1.274126   -5.8475456     8.161082  0.026157314  0.047890925            3 
   27000    1.2547282    -5.853895    8.8426407  0.027292101  0.048285831            2 
   28000    1.2412481   -5.8303019     9.453467  0.028135318  0.048703206            2 
   29000    1.2499844   -5.8513768    10.016065  0.028781796  0.048952818            1 
   30000    1.2251421   -5.8210517    10.658498   0.02960694  0.049209551            3 
   31000     1.233459   -5.8785311     11.16809  0.030021746  0.049344533            2 
   32000     1.245124   -5.8407289    11.551221  0.030081304  0.049300307            3 
   33000    1.2452952   -5.8643068    11.967482  0.030220913  0.049040863            1 
   34000     1.257967   -5.8930578     12.54963  0.030758898  0.048771108            1 
   35000    1.2482842   -5.8534684    13.147702  0.031304052  0.048574936            2 
   36000    1.2560753   -5.8592742    13.775534   0.03188781  0.048431264            3 
   37000    1.2472822   -5.8913178    14.284581  0.032172478  0.048297855            1 
   38000     1.234973    -5.862179    14.851492   0.03256906  0.048147238            2 
   39000    1.2639535   -5.8555346    15.369438   0.03284068   0.04802545            1 
   40000    1.2737506   -5.8638533    15.823995  0.032966656  0.047875314            4 
   41000     1.217685   -5.8721967    16.278394  0.033086166  0.047702711            2 
   42000    1.2396118   -5.8512847    16.712652  0.033160024  0.047485877            3 
   43000    1.2703101   -5.8414409    17.458054  0.033833437  0.047302144            3 
   44000    1.2483312   -5.8631509    17.832968   0.03377456   0.04714602            2 
   45000    1.2771956   -5.8626557    18.380112  0.034037244  0.046983133            1 
   46000    1.2321707   -5.8925114    18.944644  0.034320008  0.046855354            4 
   47000    1.2399868   -5.8988935     19.59082  0.034735495  0.046753174            2 
   48000     1.275031   -5.8209466    20.328896  0.035293222  0.046738512            3 
   49000    1.2631154   -5.9026149    20.881094  0.035512065  0.046734525            3 
   50000     1.234574   -5.9048283    21.574954  0.035958256  0.046763563            2 
   51000    1.2494926   -5.9064311    22.131084  0.036161902  0.046791287            1 
   52000     1.259046   -5.8690769    22.887703  0.036679011  0.046844524            7 
   53000    1.2614647   -5.8924355    23.479587  0.036917589  0.046922132            1 
   54000    1.2584695   -5.8992486     24.04812  0.037111296  0.046997872            1 
   55000    1.2453313   -5.8557117    24.896724  0.037722309  0.047116203            1 
   56000    1.2233912   -5.8345123    25.445521  0.037865359  0.047235758            3 
   57000    1.2060419   -5.8567656    25.702679  0.037577015  0.047305642            2 
   58000    1.2419614   -5.8562568    26.201147  0.037645326  0.047331139            2 
   59000    1.2524023   -5.8679853    26.661575  0.037657592  0.047315656            2 
   60000    1.2355246   -5.8489533    27.204262  0.037783697  0.047294369            2 
   61000    1.2281457   -5.9087708    27.423382  0.037463636  0.047241884            2 
   62000    1.2430375   -5.8488803    28.110059  0.037782337  0.047162985            2 
   63000    1.2338991   -5.9053263    28.636914  0.037879516  0.047104484            2 
   64000    1.2592091   -5.9445011    28.923417  0.037660699  0.047045942            1 
   65000    1.2347119   -5.8749472    29.472831   0.03778568  0.046952613            2 
   66000    1.2406227   -5.8351216    30.078142  0.037977452  0.046862616            1 
   67000     1.251309   -5.8660104    30.795152  0.038302428  0.046800427            2 
   68000    1.2416673   -5.8076436    31.436497  0.038525119  0.046753256            1 
   69000    1.2532917   -5.8807572    31.854719  0.038471882  0.046706766            4 
   70000    1.2443889   -5.9384732       32.104  0.038219048  0.046656337            2 
   71000    1.2309304   -5.9194826    32.835948  0.038539845   0.04660424            2 
   72000    1.2611915   -5.8659746    33.438173  0.038701589   0.04655396            2 
   73000    1.2301641   -5.9411209     33.78945  0.038572431  0.046503594            1 
   74000    1.2629014   -5.8888271    34.465229  0.038812194  0.046453993            4 
   75000    1.2234826   -5.8544341    35.198219  0.039109132    0.0464181            2 
   76000     1.245711    -5.888402    35.842653  0.039301155  0.046401217            9 
   77000    1.2452885   -5.8839574    36.366639  0.039357835  0.046393864            2 
   78000    1.2356632   -5.9073101    36.845881  0.039365257  0.046385234            3 
   79000    1.2747038   -5.8440448    37.539764  0.039598907  0.046377127            2 
   80000    1.2501951   -5.8277098    38.270959  0.039865582  0.046376419            2 
   81000    1.2396771   -5.8722155    38.584001  0.039695474  0.046377363            2 
   82000    1.2307695   -5.9232349    39.050316   0.03968528   0.04636186            2 
   83000    1.2176268    -5.877225    39.717136  0.039876642  0.046368572            1 
   84000    1.2477918   -5.8523752    40.227957  0.039908687  0.046367022            1 
   85000    1.2304785   -5.8892893    40.727016  0.039928447  0.046359442            2 
   86000    1.2525979    -5.893665    41.484896  0.040198543  0.046352967            1 
   87000    1.2324871   -5.9198553    41.992112  0.040222329  0.046352476            4 
   88000    1.2354976   -5.9250676    42.396336  0.040148045  0.046350065            4 
   89000    1.2388059   -5.8777057    43.297618   0.04054084  0.046355244            2 
   90000    1.2373461   -5.8668512    43.691544  0.040455133  0.046362495            2 
   91000    1.2514418     -5.86766    44.356391  0.040619405   0.04636813            1 
   92000    1.2593644   -5.8868941    44.676834  0.040468146  0.046363062            2 
   93000    1.2440291   -5.8460258    45.310314   0.04060064  0.046360384            6 
   94000    1.2122157   -5.8882585    45.867169  0.040662384  0.046363248            1 
   95000    1.2113902   -5.8972958    46.737997  0.040998243  0.046370677            2 
   96000    1.2380697   -5.8346224    47.406678   0.04115163  0.046399205            2 
   97000     1.217172       -5.869    47.746356  0.041019206  0.046414756            2 
   98000     1.255959    -5.902009    48.008894  0.040823889  0.046417736            4 
   99000    1.2181137   -5.9144672    48.380506  0.040724331  0.046410994            3 
  100000    1.2377834   -5.8684131    49.316142  0.041096785  0.046406076            3 
  101000    1.2492312   -5.9306133    49.411485  0.040768552  0.046396246            2 
  102000    1.2321099   -5.9193563    50.041218  0.040883348  0.046388318            2 
  103000    1.2280452   -5.9084962    50.786838  0.041089675  0.046383699            1 
  104000    1.2155276   -5.9291483    51.066953  0.040919032  0.046377373            4 
  105000     1.220914   -5.8943311    51.753108  0.041073895  0.046363292            3 
  106000     1.245946   -5.8999155     52.12695  0.040980307  0.046348469            3 
  107000    1.2420661   -5.8901262    52.968189  0.041252484  0.046328819            4 
  108000    1.2401811   -5.8459664    53.360696  0.041173376  0.046312797            2 
  109000    1.2245629   -5.9027426    53.676847  0.041037344  0.046296383            2 
  110000    1.2583201   -5.8923602    54.177558  0.041043605  0.046272015            3 
  111000    1.2387459   -5.9245116    54.877532  0.041199348  0.046250685            2 
  112000    1.2696342   -5.9025483    55.157224  0.041039601  0.046224336            2 
  113000    1.2462545   -5.9115225    55.526162  0.040948497   0.04620132            2 
  114000    1.2609201   -5.9138306    56.052463  0.040974022  0.046167937            4 
  115000    1.2192564   -5.9255578    56.436895  0.040896301  0.046126228            1 
  116000    1.2113411   -5.8839997    56.730982  0.040755016  0.046082058            2 
  117000     1.238818   -5.9390113    57.392516   0.04087786  0.046035487            3 
  118000    1.2023807   -5.9126966    57.917336  0.040902073  0.045995306            2 
  119000    1.2478284   -5.8960299    58.859964  0.041218462  0.045958698            4 
  120000    1.2370233   -5.8810015     59.36379  0.041224854  0.045936647            1 
  121000    1.2441028   -5.9092297     59.76883  0.041163106  0.045910889            3 
  122000    1.2389865   -5.9187257    60.059616  0.041024328  0.045876701            4 
  123000    1.2353701   -5.9270476    60.320792  0.040867745  0.045836456            2 
  124000    1.2357233    -5.916159    61.037449  0.041019791  0.045796448            2 
  125000     1.258048   -5.9472627    61.382871  0.040921914  0.045756722            3 
  126000    1.2400971    -5.912929     62.24038  0.041164272  0.045726019            1 
  127000    1.2436629   -5.8641819    63.008325  0.041344045  0.045699276            1 
  128000    1.2402637   -5.9000646    63.655864   0.04144262  0.045674627            2 
  129000    1.2421108   -5.8705087    63.925951  0.041295834  0.045652353            2 
  130000    1.2392909   -5.8886821    64.767833  0.041517842   0.04563255            2 
  131000    1.2149654   -5.9051488    65.429869  0.041622054  0.045617871            1 
  132000    1.2548986    -5.968256    65.718198  0.041488761  0.045609802            1 
  133000    1.2298732   -5.9058464    66.572604  0.041712158  0.045604075            3 
  134000    1.2448734   -5.9476666    67.006758  0.041670869  0.045598807            2 
  135000    1.2425964   -5.9163126    67.635268  0.041750165  0.045591424            3 
  136000    1.2543505   -5.9001444    68.062761  0.041705123  0.045582111            1 
  137000    1.2323135   -5.9273568    68.457131   0.04164059  0.045568831            1 
  138000     1.243633     -5.94015    68.936004  0.041628022  0.045557732            3 
  139000    1.2316325   -5.9576397    69.694348  0.041783182  0.045546444            3 
  140000    1.2202765   -5.9271642    70.479677  0.041952189   0.04553513            3 
  141000    1.2340612   -5.9367825    70.900027  0.041903089  0.045533474            5 
  142000    1.2267235   -5.9151866    71.613754  0.042026851  0.045525146            1 
  143000    1.2410383   -5.9077463     71.96543  0.041937896  0.045524968            2 
  144000    1.2464977   -5.9022328     72.75604  0.042104189  0.045523549            2 
  145000     1.193615   -5.8869942    73.493764  0.042237795  0.045523216            4 
  146000    1.2464935   -5.9017542     73.90874  0.042185354  0.045526194            2 
  147000    1.2157881   -5.9696456    74.709433  0.042352286  0.045532893            1 
  148000    1.2125245    -5.912399    75.479172  0.042499534  0.045546597            3 
  149000    1.2516399   -5.9004207    75.827657  0.042409204  0.045560659            3 
  150000     1.218995     -5.89754    76.412955  0.042451642  0.045569223            3 
  151000    1.2216172   -5.9231983    77.168629  0.042587543  0.045579554            4 
  152000    1.2349512   -5.9276601        77.87  0.042691886  0.045591886            4 
  153000    1.2194808   -5.9502199    77.952245   0.04245765  0.045606255            2 
  154000    1.2208341   -5.9092044    79.137727  0.042823445  0.045618279            1 
  155000     1.254233   -5.8505697    79.410941  0.042694054  0.045626731            2 
  156000    1.2251099   -5.9211611    79.479896  0.042457209  0.045633395            4 
  157000    1.2446042   -5.9630313    79.774762  0.042343292   0.04563463            2 
  158000    1.2070133   -5.9128129    80.625478  0.042523986  0.045636247            6 
  159000     1.244847    -5.884523    80.888006  0.042394133   0.04563239            5 
  160000    1.2498432   -5.9247166     81.50064   0.04244825  0.045630912            3 
  161000    1.2209499   -5.8550155    82.454782  0.042678458   0.04563063            4 
  162000    1.1996663   -5.9649079    82.655004  0.042518006  0.045632536            6 
  163000    1.2427231   -5.9304727    83.635705   0.04275854  0.045635849            1 
  164000     1.242537    -5.924461    84.221811  0.042795635  0.045641889            2 
  165000    1.2155801    -5.914127    84.752532  0.042804309  0.045645912            1 
  166000    1.2172967   -5.9262318    85.527935   0.04293571  0.045656612            3 
  167000    1.2274492   -5.9056455    85.791315  0.042810037  0.045666108            2 
  168000    1.2320804   -5.9099553    86.387026  0.042850707  0.045672386            1 
  169000    1.2303468    -5.945718    86.928687  0.042864244   0.04567701            4 
  170000    1.2270693   -5.9494316    87.485252  0.042884928  0.045684698            2 
  171000    1.2638196   -5.9608408    87.937145  0.042854359  0.045688889            7 
  172000    1.2444551   -5.9523321    88.233763  0.042748916  0.045693673            4 
  173000    1.2331509   -5.8888706    89.073702  0.042906407  0.045698183            1 
  174000    1.2294201   -5.9505452    89.228334  0.042733876  0.045697314            2 
  175000     1.217219   -5.9435032    89.525805  0.042631336  0.045694986            1 
  176000    1.2396037   -5.9032107    90.250254  0.042732128  0.045693916            2 
  177000      1.23583   -5.9330235    90.428185  0.042574475  0.045687279            1 
  178000    1.1974817   -5.9036703    90.943448   0.04257652  0.045675662            4 
  179000    1.2342629   -5.8686314    91.846902  0.042759265  0.045665165            5 
  180000    1.2288065   -5.9293744    92.391421  0.042773806  0.045655235            2 
  181000    1.2251002   -5.9720451    92.520837   0.04259707  0.045646616            3 
  182000    1.2267154   -5.9603892    93.508284  0.042815148  0.045641655            2 
  183000    1.2225342   -5.8966548    94.314837  0.042948469  0.045637343            4 
  184000    1.2482833   -5.9351779    94.825184  0.042946188  0.045635037            1 
  185000    1.2219695   -5.9005085    95.333556  0.042943043  0.045636478            3 
  186000    1.2207881   -5.9331191    95.311822  0.042702429  0.045633046            2 
  187000    1.2393761   -5.9271052    96.301416  0.042915069   0.04563023            4 
  188000    1.2155121   -5.9294876    96.870961  0.042939256  0.045628525            2 
  189000    1.2426109   -5.9425247    97.256145  0.042881898  0.045625985            4 
  190000    1.2106846   -5.9225627    97.572774  0.042795076  0.045619459            2 
  191000    1.1848095   -5.9027474    97.872183   0.04270165   0.04560935            2 
  192000    1.2094164   -5.9022901     98.67813  0.042829049  0.045597668            3 
  193000    1.2389554   -5.9431094    98.464533  0.042514911   0.04558596            2 
  194000    1.2323406   -5.9669852    98.808229  0.042443397  0.045571492            2 
  195000    1.2185304   -5.9621534    98.967328   0.04229373  0.045554221            2 
  196000    1.1929755   -5.9389483    100.43341  0.042701281  0.045535698            2 
  197000    1.2174922    -5.938587     100.0666  0.042329358  0.045516902            2 
  198000    1.2511461   -5.9473562    100.95251  0.042488429  0.045499673            4 
  199000    1.1947583   -5.9021871    101.58632  0.042540337  0.045481349            4 
  200000    1.2227144    -5.933423    101.34471  0.042226961  0.045460471            4 
  201000    1.2101989   -5.8921677    102.49923  0.042495534  0.045439115            2 
  202000    1.2220276   -5.9201457    102.82892   0.04242117   0.04541983            2 
  203000      1.21384   -5.9293956    103.22931  0.042376563  0.045398635            3 
  204000    1.2056361   -5.9394627    103.68488  0.042354936  0.045376628            1 
  205000    1.2214008   -5.9170742    104.17615  0.042348029  0.045354547            2 
  206000    1.2409514   -5.9662608    104.60881  0.042317479   0.04533328            3 
  207000    1.2105781   -5.9442459    105.64971  0.042532091  0.045314455            2 
  208000    1.2193704   -5.9048868    105.73966  0.042363646  0.045296188            2 
  209000     1.194701   -5.9050556    106.47703  0.042454956  0.045276392            2 
  210000    1.2216344   -5.9184411    107.10058  0.042500229  0.045257075            3 
  211000    1.2107737   -5.9725653    107.58404  0.042489747  0.045241188            3 
  212000    1.2284709   -5.9179328    108.38301  0.042603385  0.045224212            2 
  213000    1.2462704   -5.9148469    108.58002  0.042480447  0.045209876            4 
  214000    1.2399025   -5.9008434    109.15609  0.042506266  0.045193149            3 
  215000    1.2105654   -5.9105049     109.6014  0.042481163  0.045175861            3 
  216000    1.2298619   -5.9417452    109.73503  0.042336045  0.045157049            3 
  217000    1.2088155   -5.9616731    110.23043  0.042331195  0.045139648            5 
  218000    1.2151028   -5.9203916    110.98387  0.042425026  0.045119919            2 
  219000    1.1777089   -5.9636775     111.1066  0.042278006  0.045101668            2 
  220000     1.213842   -5.9297463    111.79839  0.042347875   0.04508309            2 
  221000    1.2207909   -5.9379278    112.30476  0.042347194   0.04506255            4 
  222000     1.233352   -5.9532324     112.7095   0.04230837  0.045045522            3 
  223000    1.2126771   -5.9592337    113.28004  0.042331853  0.045026598            2 
  224000    1.2430555   -5.9286464    113.63429  0.042274661  0.045005955            2 
  225000    1.1982643   -5.8985762    114.14701   0.04227667  0.044981846            3 
  226000    1.2397478   -5.9375711    114.40284  0.042183937   0.04495909            1 
  227000    1.2055257   -5.9437985    114.72577  0.042116657  0.044935688            3 
  228000    1.2254664   -5.9162364    115.73867  0.042302146  0.044912972            4 
  229000    1.2069716   -5.9353119     115.7837  0.042133805  0.044889079            2 
  230000     1.227241   -5.9514963    116.58311  0.042240259  0.044865287            3 
  231000    1.1838162   -5.9398407    116.86805   0.04216019  0.044844227            2 
  232000    1.2360447   -5.9394934    117.74912  0.042294943  0.044824451            1 
  233000     1.202888   -5.9203071    118.76942  0.042478331  0.044804948            2 
  234000    1.2038984   -5.9219829    119.36241  0.042507979  0.044788498            3 
  235000    1.2074738   -5.9605896    119.28168  0.042298469  0.044771835            3 
  236000    1.2560042   -5.9799726    119.72402  0.042275432  0.044755388            4 
  237000    1.2087439   -5.9513127    120.23838   0.04227791  0.044736843            5 
  238000    1.2402978   -5.9357401    120.75519   0.04228123  0.044716748            2 
  239000    1.2442271   -5.9706882    121.46594  0.042352141  0.044699413            4 
  240000    1.2113973   -5.9706024    121.51686  0.042193355  0.044682533            3 
  241000    1.2167036   -5.9659442    122.76408  0.042449544  0.044668434            3 
  242000    1.2119712   -5.9241975    123.06589  0.042378062  0.044651678            2 
  243000    1.1911662   -5.9401585    122.89782  0.042146028  0.044635999            2 
  244000    1.1897474   -5.9510084    123.77156  0.042271708  0.044618975            3 
  245000    1.2058061   -5.9549881    124.00751  0.042179424  0.044603583            2 
  246000    1.2147267   -5.9302302    125.06371  0.042365756  0.044585609            7 
  247000    1.2099096    -5.944849    125.23119  0.042250739  0.044569164            5 
  248000    1.2239872   -5.9194796    125.86633  0.042293792  0.044553905            3 
  249000     1.209971   -5.9472042    126.45299  0.042320278   0.04453898            3 
  250000    1.2255102   -5.9251168    127.04542  0.042348475  0.044524146            2 
  251000    1.2086055   -5.9220661     127.5359  0.042342597  0.044507498            4 
  252000     1.218459   -5.9201792    128.15257  0.042378496  0.044493447            4 
  253000    1.2248787   -5.9392232    128.63371  0.042369469  0.044481517            2 
  254000      1.24301   -5.9070184    129.38043  0.042447647  0.044470302            3 
  255000      1.23353   -5.8960465     130.1792  0.042542221  0.044460216            1 
  256000     1.218823   -5.9402243    130.17054  0.042373223  0.044448366            1 
  257000    1.2058456   -5.9928103    130.15581  0.042203571  0.044436965            2 
  258000    1.1744315   -5.9720807    131.25515  0.042395074  0.044422968            2 
  259000    1.1873427   -5.9129806    131.93009  0.042448548  0.044409807            2 
  260000    1.2220359   -5.9235469     132.3529    0.0424208  0.044396609            3 
  261000    1.2194934   -5.9648978    132.17006  0.042199891  0.044383122            2 
  262000    1.2268409   -5.9342388    133.71594  0.042530516     0.044371            4 
  263000    1.2015687   -5.9677843    133.55907  0.042319098  0.044359213            1 
  264000    1.1974756   -5.9387337    134.36873  0.042414371  0.044346989            2 
  265000    1.2009171   -5.9720055    135.23269  0.042526003   0.04433604            2 
  266000    1.1975943   -5.9243017    135.62405  0.042488736  0.044326949            5 
  267000    1.1984576    -5.929255    136.74242  0.042678657  0.044318463            2 
  268000    1.2163192   -5.9119964    136.82866  0.042546224  0.044310264            2 
  269000    1.1930213   -5.9826408    136.71381  0.042352483  0.044300872            1 
  270000    1.2230943   -5.9636343    138.20369  0.042655459  0.044292455            1 
  271000    1.2221469    -6.012441    137.70571   0.04234493  0.044284628            2 
  272000    1.2048128   -5.9894094    139.16513  0.042636376   0.04427603            2 
  273000    1.1862534   -5.9610319    139.68618  0.042639248  0.044272226            4 
  274000    1.1889648   -5.9731863    140.65097  0.042777059  0.044268127            3 
  275000     1.222545   -5.9454359    142.05551  0.043047124  0.044265346            1 
  276000    1.1880609   -5.9251918    141.52367  0.042730577  0.044261323            5 
  277000    1.2227722   -5.9421165    141.91149  0.042692987  0.044254742            2 
  278000    1.2233599    -5.978466    141.88945  0.042532808    0.0442481            5 
  279000    1.2056447    -5.964623     142.1041  0.042444473  0.044239999            4 
  280000    1.1888846   -5.9638121    142.52943  0.042419473  0.044232492            6 
  281000    1.2261907   -5.9954151    143.35544  0.042513475  0.044222216            2 
  282000    1.2145722   -5.9471527     143.3816   0.04237045  0.044211102            2 
  283000    1.2266381   -5.9853352    143.99979  0.042402764  0.044200141            2 
  284000    1.2240574   -5.9632522    144.45459  0.042386909  0.044190273            3 
  285000    1.2109897    -5.960341     145.0193  0.042403304  0.044179794            5 
  286000    1.2182601    -5.988207    144.82934   0.04219969  0.044169765            3 
  287000    1.1789026   -5.9435439    146.35227  0.042494852  0.044160217            2 
  288000    1.1910249   -5.9749443    146.33803  0.042343179  0.044149929            5 
  289000    1.2073554   -6.0000557    146.38894  0.042211344  0.044138851            2 
  290000    1.1834347   -5.9707858    147.05509   0.04225721  0.044128603            2 
  291000    1.2096785   -5.9670369    148.14634  0.042424496  0.044119532            2 
  292000    1.2081354   -5.9651889     148.6641  0.042426969  0.044110788            1 
  293000    1.2362587   -5.9286583       149.59  0.042545508   0.04410201            5 
  294000    1.1654222   -5.9922382    149.63244  0.042412824  0.044092905            4 
  295000    1.2266713    -5.985503    149.49794  0.042231056  0.044082676            5 
  296000    1.2192531   -5.9490992     150.6467  0.042411797  0.044072929            3 
  297000    1.2021678   -5.9790868    151.05355   0.04238315  0.044062323            2 
  298000    1.1806575   -5.9704176    151.73622  0.042431828  0.044054129            4 
  299000    1.1884875   -5.9691986      152.649  0.042544315  0.044045047            2 
  300000    1.2021151   -5.9592318    152.94173  0.042483813  0.044036658            2 
  301000    1.1975036    -5.958823    152.85439  0.042318492  0.044025987            3 
  302000    1.2027957   -5.9969928    152.91983  0.042196422  0.044013083            8 
  303000    1.1881469   -5.9780215    153.33342  0.042170907  0.044001374           10 
  304000    1.1944725   -6.0025423    153.47561  0.042071165  0.043988078            2 
  305000    1.1843995   -5.9682911    154.05209  0.042090736  0.043974229            2 
  306000    1.1850622   -5.9595491    154.52421  0.042081758   0.04396033            7 
  307000    1.1738781   -5.9976947    155.51759   0.04221433  0.043945436            2 
  308000    1.1944653   -6.0171989    155.60769  0.042101647  0.043931459            3 
  309000    1.2003459   -5.9884208    155.81595  0.042021562  0.043918388            3 
  310000    1.1972125   -5.9767558    157.41077  0.042314724  0.043907896            2 
  311000    1.1846149   -5.9380129    157.95739   0.04232513  0.043898126            2 
  312000     1.199994   -5.9437392    158.33197  0.042289521  0.043886984            3 
  313000    1.1990907     -5.91787    159.25554  0.042400303  0.043874781            2 
  314000    1.1965916   -5.9594732    159.56158  0.042346491  0.043864059            2 
  315000    1.2485356   -5.9709431    159.75635  0.042263584  0.043852895            5 
  316000    1.1842183   -5.9417413    160.23638  0.042256429  0.043842156            4 
  317000    1.1957932   -5.9484666    160.84663  0.042283551  0.043832508            1 
  318000    1.1982191   -5.9646027    161.40682  0.042297385  0.043822032            3 
  319000    1.1924501   -5.9480255    161.79544  0.042266311  0.043811311            3 
  320000    1.1900004   -6.0052209    161.78901  0.042132554  0.043801574            1 
  321000    1.2174953   -6.0071441    162.49738  0.042185198  0.043792199            2 
  322000    1.1973193   -5.9393187    163.46278  0.042304032  0.043782577           12 
  323000    1.2242711   -6.0041227    164.34087  0.042399604   0.04377509            2 
  324000    1.2250494   -5.9757914     164.1776  0.042226748   0.04376578            2 
  325000    1.2006489   -5.9735124    164.90927  0.042284427  0.043756137            4 
  326000    1.2075549   -5.9590139    164.73946  0.042111314  0.043745031            3 
  327000    1.1975895   -5.9982238    165.42304  0.042156737  0.043733604            3 
  328000    1.2120946   -5.9998156    166.25149  0.042238692  0.043723609            1 
  329000    1.1858023   -6.0093615     166.6479  0.042210715  0.043714346            4 
  330000    1.2068905   -5.9642515    166.57241  0.042063739  0.043702516            2 
  331000    1.1773404   -5.9633083    167.52746  0.042177105  0.043691586            2 
  332000    1.1919889   -5.9757561    167.86648  0.042135159  0.043679998            1 
  333000    1.2196934   -5.9414838    168.73872  0.042226907  0.043668953            2 
  334000    1.2402731   -5.9581241    169.29093  0.042238256  0.043658269            3 
  335000    1.1700062   -5.9832033    169.16763  0.042081499  0.043646918            1 
  336000    1.1800568   -5.9664698    169.75546  0.042102048  0.043634601            6 
  337000    1.1804816   -5.9867115    170.09188  0.042060306   0.04362502            3 
  338000    1.1856776   -6.0051427    171.14464  0.042195423  0.043613986            2 
  339000     1.211478   -5.9964167    170.33654  0.041872306  0.043602459            2 
  340000    1.2227799   -5.9215806    172.08443  0.042177556  0.043591563            5 
  341000    1.2373187   -5.9902188    172.60423  0.042180897   0.04358014            1 
  342000     1.214753   -5.9725684    172.79356  0.042103695  0.043567845            3 
  343000    1.1964808   -5.9670069    173.36254  0.042119178  0.043556153            4 
  344000    1.1857293   -5.9457441    173.41348  0.042009079  0.043545652            2 
  345000    1.2005807   -5.9981826    173.96298  0.042020044  0.043533569            3 
  346000    1.2130462   -6.0105587    173.83434  0.041867614  0.043521858            2 
  347000    1.1795583   -5.9429183    175.48438  0.042143222  0.043510794            2 
  348000    1.2018241   -5.9881881    174.90774  0.041884037  0.043498974            4 
  349000    1.2120608   -5.9903406    176.28292  0.042092388  0.043486735            5 
  350000    1.2012154   -5.9744333    176.38584   0.04199663  0.043475999            2 
  351000    1.1894936   -5.9717335    176.96006  0.042013309  0.043464913            2 
  352000     1.193449   -5.9988264    176.86708   0.04187194  0.043450653            3 
  353000    1.2243034   -5.9905852    177.24758   0.04184315   0.04343687            2 
  354000    1.1841017   -6.0034891    177.16533  0.041705586   0.04342188            2 
  355000    1.1892144   -6.0329925    178.12691  0.041813828  0.043407791            2 
  356000    1.2040464   -6.0018742      178.771  0.041847144  0.043395663            5 
  357000    1.1861321    -5.993644    179.45163  0.041888801  0.043383932            2 
  358000    1.1857653   -5.9708879    179.41828  0.041764031  0.043370268            3 
  359000    1.1787694   -6.0024017    180.20766  0.041830934  0.043356722            4 
  360000     1.159486   -5.9974303    180.67097  0.041821984  0.043343721            4 
  361000    1.2082152   -5.9863496    181.80599  0.041968141  0.043330884            3 
  362000    1.1936583    -6.018398    181.27975  0.041731066  0.043316744            2 
  363000     1.187051   -5.9850801    181.74314  0.041722484  0.043301276            2 
  364000    1.1680034    -6.001148    181.60743  0.041576792  0.043285872            3 
  365000    1.1943153   -5.9870377    182.62145  0.041694394  0.043268614            3 
  366000    1.1788217   -6.0233074    182.76446  0.041613038  0.043253005            5 
  367000    1.2288291   -6.0092094    182.72337  0.041490321  0.043237156            4 
  368000     1.180293   -5.9815877    183.59963  0.041576002  0.043220877            4 
  369000    1.1920087   -5.9828519    184.97523  0.041773991  0.043205702            2 
  370000    1.2115483   -6.0310579     183.4147  0.041309617  0.043188426            2 
  371000    1.2015672   -6.0341384    184.46387  0.041433933  0.043172249            2 
  372000    1.1968878   -6.0256689     185.6551  0.041589405  0.043156487            3 
  373000    1.2124641   -6.0026294    186.07464  0.041571635  0.043141221            2 
  374000    1.2074104   -5.9964917    186.57569  0.041572124  0.043126042            5 
  375000    1.1997206   -5.9940768    187.20565  0.041601255  0.043110286            3 
  376000    1.1760568   -5.9897685    187.22879  0.041495743  0.043095237            2 
  377000    1.1826365    -5.977227    188.38558  0.041641375  0.043080522            2 
  378000    1.2073742   -6.0048185    188.96313  0.041658538  0.043068635            4 
  379000     1.161281   -5.9810985    188.91392    0.0415378  0.043053906            4 
  380000    1.1902512   -6.0028525    188.89433  0.041424195  0.043038949            7 
  381000    1.2003857   -6.0312531    188.88278  0.041312945  0.043022791            5 
  382000    1.1979179   -6.0397065    189.26125  0.041287359  0.043006328            3 
  383000    1.1751799   -6.0099153    190.11413  0.041365128  0.042988704            3 
  384000    1.1626009   -5.9906394    190.65987  0.041375839   0.04297087            2 
  385000     1.191773   -5.9719611    191.81151  0.041517642  0.042954348            3 
  386000     1.194534   -6.0265352     191.3809  0.041317119  0.042938218            2 
  387000    1.1944765   -5.9589026    192.57916   0.04146838  0.042923287            4 
  388000    1.1796512   -6.0135613    191.84438  0.041203689  0.042905855            2 
  389000    1.2069849   -6.0118195    192.52768  0.041244147  0.042887439            1 
  390000    1.1890121   -6.0459558    192.44853  0.041121481  0.042869112            1 
  391000    1.1530394   -6.0143305    192.90876  0.041114399  0.042850687            3 
  392000    1.1682648   -5.9244606    194.42251  0.041331317  0.042833344            2 
  393000    1.1875275   -6.0003538    194.87524  0.041322146  0.042816308            3 
  394000    1.2033913   -5.9590014    195.71924  0.041395778  0.042800121            2 
  395000    1.1996953   -5.9746949    195.67708  0.041282085  0.042784506            1 
  396000    1.1982462   -5.9943472    196.12845  0.041272822  0.042769511            3 
  397000    1.1622373   -5.9995784    196.57873  0.041263377   0.04275451            3 
  398000    1.1825341   -6.0345213    197.25771  0.041301865  0.042739182            1 
  399000     1.207435   -5.9752829    198.28985  0.041413921   0.04272505            4 
  400000    1.1835199   -5.9897731    198.59936  0.041374866  0.042711442            4 
  401000    1.1774511   -5.9757079    199.51652  0.041462287  0.042697313            2 
  402000    1.1965972   -6.0056238    199.19933  0.041293394  0.042682335            3 
  403000     1.173894   -6.0062697    199.48803  0.041250627  0.042666977            3 
  404000    1.1853933   -6.0021129    200.02762  0.041259823  0.042653041            3 
  405000    1.1969629   -5.9922004    200.34699  0.041223661  0.042637815            4 
  406000    1.1878484   -5.9807294    201.51817  0.041362514  0.042623152            2 
  407000    1.1905732   -6.0229253    201.24846  0.041205663  0.042609368            3 
  408000    1.2036419    -5.988235    202.23706  0.041306589  0.042594534            2 
  409000    1.2034948   -6.0240493    202.64875  0.041289476  0.042580685            5 
  410000    1.1849883   -5.9976639    203.48734  0.041359215   0.04256756            3 
  411000    1.2055947   -6.0221095    203.81699  0.041325425  0.042554184            5 
  412000    1.1569981   -6.0149893    204.21654  0.041305935  0.042541188            2 
  413000    1.1847467   -5.9711281    205.28848  0.041422212  0.042528646            2 
  414000    1.1810499   -6.0164366    205.25064   0.04131454  0.042516357            3 
  415000    1.1910772   -5.9965663     205.5615   0.04127741   0.04250328            3 
  416000    1.1623189   -5.9854901    206.42006  0.041350173   0.04249082            5 
  417000    1.1627644    -6.071159    206.28511  0.041224042  0.042477881            3 
  418000    1.1805407   -6.0323058    206.83226  0.041234501  0.042464972            2 
  419000    1.1892551   -6.0304119    207.25382  0.041219933  0.042452425            2 
  420000    1.1748397   -5.9732516    208.59156  0.041387214  0.042441767            4 
  421000    1.2075562   -6.0258625    207.95956  0.041163809  0.042430507            3 
  422000    1.1918473   -5.9854172     209.2053  0.041312262  0.042419242            2 
  423000    1.2102107   -6.0119643    209.54328  0.041281183  0.042408166            6 
  424000    1.1645446   -6.0164938    209.83987  0.041242114  0.042396305            2 
  425000    1.1626504   -5.9818183    210.39011  0.041252962  0.042384399            5 
  426000    1.1431106   -6.0093178     211.1611  0.041306944  0.042373414            3 
  427000     1.160156   -5.9819397    212.19938  0.041412837  0.042362777            3 
  428000    1.1838847    -6.023505    211.37316  0.041155211  0.042351916            3 
  429000    1.1903326   -6.0318161    212.22934  0.041225591  0.042341243            4 
  430000    1.1869032   -6.0056158    212.18246  0.041120633  0.042330628            1 
  431000    1.1608856    -6.044782    213.63486  0.041306044  0.042319712            2 
  432000    1.1687771   -5.9960772    213.64775  0.041212915  0.042309272            3 
  433000    1.1709815   -6.0341193    213.88238  0.041162891  0.042298351            3 
  434000    1.1734566   -5.9727218     215.4484  0.041368741  0.042287226            2 
  435000    1.1881972   -6.0060849    216.03726  0.041386449  0.042276479            2 
  436000    1.2022234   -6.0376532    216.17054  0.041316999  0.042265919            5 
  437000    1.1829926   -6.0491097    215.35195  0.041066351  0.042256273            2 
  438000    1.1753478   -5.9988579    217.05102  0.041295855  0.042245419            2 
  439000    1.1781122   -6.0191212    217.25513  0.041240534  0.042234545            3 
  440000    1.1895732   -6.0053937    217.14879  0.041126665  0.042222817            3 
  441000    1.1720965   -5.9969153    217.58772  0.041116349  0.042211167            4 
  442000    1.1741295   -6.0059788    216.92466  0.040898314  0.042199311            5 
  443000     1.176155   -6.0175779    217.93809  0.040996632  0.042186989            2 
  444000    1.1658697   -5.9806593    219.45851  0.041189661  0.042174267            6 
  445000    1.1914314   -5.9908452    220.38956  0.041271453  0.042162934            3 
  446000    1.1715803    -6.029618    219.69636  0.041049395  0.042151162            2 
  447000    1.1865623   -6.0495864    219.83744  0.040983863  0.042138423            2 
  448000    1.1800083   -6.0384118    219.55368  0.040839598  0.042124511            2 
  449000    1.1698588   -6.0092391    221.62631  0.041133316  0.042111207            3 
  450000    1.1657451   -6.0176763    219.65779  0.040677369  0.042098169            4 
  451000    1.1899226   -6.0499488    220.73658  0.040786507  0.042083496            2 
  452000    1.1902479   -6.0317374    221.72634  0.040878749  0.042069317            2 
  453000    1.1724141    -6.005464    221.84922  0.040811114  0.042055015            3 
  454000    1.1801519    -6.015026    222.20257  0.040786081  0.042041845            1 
  455000    1.2151272   -6.0210236    222.92419  0.040828606  0.042027858            4 
  456000    1.1949516   -6.0207948    222.82812  0.040721512  0.042013961            3 
  457000    1.1876292   -6.0297944    224.13395  0.040870523  0.042000276            4 
  458000    1.1703089   -6.0196707    224.80909  0.040904128  0.041987172            2 
  459000    1.1973725   -6.0366054    224.03236  0.040673994  0.041972822            2 
  460000    1.1944595   -6.0386891     224.6984  0.040706233  0.041958063            2 
  461000    1.1908256   -6.0314862    224.08902  0.040507777   0.04194306            4 
  462000    1.1842305   -6.0372268    224.35851  0.040468707  0.041927128            5 
  463000    1.1624115   -6.0532631    224.97506  0.040492271  0.041911209            3 
  464000    1.1737625   -6.0248199    227.25937   0.04081526   0.04189652            2 
  465000     1.196266    -6.026613    226.27381  0.040550862  0.041880282            1 
  466000    1.1833718   -6.0413223    227.22283  0.040633553  0.041864394            3 
  467000    1.1910164   -6.0232395    227.04078  0.040514057  0.041848487            7 
  468000     1.160671    -6.022002     227.8026  0.040563141  0.041831931            2 
  469000    1.1784154   -6.0022362    228.45271  0.040592166  0.041815223            2 
  470000    1.1882709   -6.0238326    227.72323   0.04037646  0.041799305            2 
  471000    1.1428773   -6.0216332    227.90493  0.040322883  0.041783023            5 
  472000    1.1717771   -6.0294449    228.77334  0.040390773  0.041765853            3 
  473000    1.1928668   -6.0346488    229.81052  0.040488111  0.041749554            4 
  474000    1.1623157   -6.0026234    230.36128  0.040499522  0.041732911            3 
  475000    1.1911265   -6.0449652    230.84731  0.040499528  0.041717735            1 
  476000     1.176935   -6.0207263    231.63329  0.040552046  0.041702284            2 
  477000     1.174326    -6.032875    232.15912  0.040558896  0.041687617            2 
  478000    1.1777159   -6.0572538    231.72692  0.040398697  0.041671954            2 
  479000    1.1698816   -6.0197182    233.04236  0.040543209  0.041656923            2 
  480000     1.176055   -5.9864016    232.98285  0.040448411  0.041642212            2 
  481000    1.1812697   -6.0288763    233.02496  0.040371615  0.041626638            2 
  482000    1.1727503   -6.0532742    234.19166  0.040489568  0.041611168            2 
  483000    1.1814271   -6.0060668    235.23167  0.040585174  0.041597159            1 
  484000    1.1816379   -6.0633637    234.38294   0.04035519  0.041581928            4 
  485000     1.185929   -6.0365769     235.5695  0.040475859  0.041567127            4 
  486000    1.1788151   -6.0709034    235.45314  0.040372623  0.041553442            4 
  487000    1.1625147   -6.0461092    237.31525  0.040608359  0.041539448            3 
  488000    1.1848456   -6.0155225     237.4258  0.040544023  0.041527345            4 
  489000    1.1606074   -6.0222713    238.08352  0.040573197  0.041515083            2 
  490000    1.1802756   -6.0191016    239.46571  0.040725462  0.041503775            1 
  491000    1.1568294   -6.0785162    238.19294    0.0404265  0.041491947            1 
  492000    1.1858518   -6.0319473    239.84191  0.040623629  0.041480085            2 
  493000    1.1411611    -5.998951    239.72583  0.040521607  0.041467979            3 
  494000    1.1640443   -6.0394694    240.69118  0.040602425  0.041456301            2 
  495000    1.1803449   -6.0322118    241.02047  0.040575837  0.041444822            2 
  496000    1.1713323   -6.0378146    241.96657  0.040652985  0.041434039            2 
  497000    1.1814399   -6.0600423    241.79794  0.040542914  0.041422879            3 
  498000    1.1627221   -6.0105299    242.63055  0.040600828  0.041411874            3 
  499000    1.1574452   -5.9823837    241.75957   0.04037401  0.041399781            2 
  500000    1.1605059   -6.0617895    241.99332   0.04033222  0.041387321            3 
  501000    1.1855954   -6.0427685    243.00102  0.040419332  0.041374371            2 
  502000    1.1632342   -5.9798296    243.75107  0.040463325  0.041361606            3 
  503000    1.1778759   -6.0185358     244.4433  0.040497564  0.041350055            3 
  504000    1.1478369   -6.0352876    244.71896  0.040462791   0.04133828            4 
  505000    1.1744519    -6.018077     245.2776  0.040474851  0.041326335            2 
  506000    1.1433104     -6.04071    245.92753  0.040501899  0.041315045            3 
  507000    1.1523023   -6.0125723    246.52487  0.040520195  0.041304249            2 
  508000    1.1655439   -5.9897124    247.51415  0.040602715  0.041294544            3 
  509000    1.1822925   -6.0449688    247.17493  0.040467409  0.041283949            3 
  510000     1.179492   -6.1027704    247.04096   0.04036617  0.041272016            4 
  511000    1.1530977   -6.0561433    247.53449   0.04036766  0.041260749            2 
  512000    1.1820765   -6.0682153    248.31928  0.040416549   0.04124895            2 
  513000     1.168941   -6.0614475    247.89726   0.04026921   0.04123795            3 
  514000    1.1668751    -6.089311    248.86722  0.040348122  0.041227632            3 
  515000    1.1768309   -6.0392664    250.55629  0.040543089  0.041218476            2 
  516000    1.1693697   -6.0453395     250.8386   0.04051011  0.041209128            2 
  517000    1.1883824   -6.0569855    250.56678  0.040387939    0.0411979            1 
  518000    1.1861444   -6.0438281    250.34689  0.040274597  0.041186407            3 
  519000    1.1808755   -6.0331033    251.34199  0.040356774  0.041175623            1 
  520000    1.1807107   -6.0418355    252.45308  0.040457225  0.041164915            5 
  521000    1.1559707    -6.028704    252.67528  0.040415112  0.041154538            2 
  522000    1.1528636   -6.0493401    253.23478  0.040427008  0.041144386            3 
  523000    1.1661781   -6.0242216    252.97736  0.040308694  0.041134074            2 
  524000    1.1660755   -6.0722212    253.32727  0.040287416  0.041123663            4 
  525000    1.1595074    -6.047221     254.8719  0.040455858  0.041112439            2 
  526000    1.1660606   -6.0415524    255.61614  0.040496854  0.041102331            1 
  527000    1.1396079   -6.0371739     255.8057  0.040449984  0.041093267            4 
  528000    1.1773594   -6.0427478    256.08013  0.040416687  0.041083858            1 
  529000    1.1682388   -6.0465534    256.07005  0.040338697  0.041074602            6 
  530000    1.1450723   -6.0083732    257.67225  0.040514504  0.041065621            2 
  531000    1.1521083   -6.1006596    257.26664  0.040374552  0.041055634            3 
  532000    1.1684458   -6.0301397     257.1648  0.040282707  0.041045738            2 
  533000    1.1760205   -5.9988974    258.72168  0.040450544  0.041036139            2 
  534000    1.1624441   -6.0585251    259.08163  0.040430966  0.041026029            3 
  535000    1.1728205   -6.0456761    259.00413  0.040343322  0.041016444            3 
  536000    1.1885041   -6.0605459    258.63791  0.040211118  0.041006448            6 
  537000    1.1715693   -6.0650038    258.33203  0.040088769  0.040995788            2 
  538000    1.1654224   -6.0694871    259.49109  0.040193787  0.040985161            3 
  539000    1.1920612   -5.9988312    261.31984  0.040401954  0.040975158            3 
  540000    1.1461519   -6.0465382    261.02438   0.04028154  0.040964049            2 
  541000    1.1513032   -6.0453157    261.20739  0.040235273  0.040952348            3 
  542000    1.1659615   -6.0087822    261.95279  0.040275644  0.040942208            2 
  543000     1.173142   -6.0266927    261.22595  0.040089925  0.040930969            1 
  544000    1.1919671    -6.036415    262.56992  0.040222108  0.040919889            2 
  545000     1.152396     -6.06852    261.95336   0.04005403  0.040909441            2 
  546000    1.1670136    -6.067393    262.43234  0.040053776   0.04089811            2 
  547000    1.1439194   -6.0633615    262.92829  0.040056107  0.040886079            2 
  548000     1.204689   -6.1190526    262.22754  0.039876451  0.040874347            3 
  549000     1.196511   -6.0583351    263.39792  0.039981469  0.040862675            3 
  550000    1.1732702   -6.0508145    264.80505  0.040121978  0.040851066            5 
  551000    1.1887142   -6.0852594    263.87687  0.039908782  0.040838741            2 
  552000    1.1579486   -6.0687317    265.78036  0.040123846  0.040826758            6 
  553000    1.1504553   -6.0693254    265.03928  0.039939614  0.040814058            4 
  554000    1.1722047   -6.0511162    265.67432  0.039963044  0.040802433            1 
  555000     1.162194   -5.9931521    265.67109  0.039890553  0.040791015            3 
  556000    1.1500631   -6.0113298    267.56644  0.040102884  0.040779177            3 
  557000     1.126203   -6.0376948    266.67899  0.039898113  0.040766698            5 
  558000    1.1442733    -6.034706    267.42482  0.039937996  0.040753472            3 
  559000    1.1709044   -6.0700623     266.7394   0.03976437  0.040740777            1 
  560000    1.1484643   -6.0518508    268.21674  0.039913205  0.040728576            3 
  561000    1.1454658   -6.0636408    269.09815  0.039972988  0.040717055            5 
  562000    1.1710418   -6.0451891    269.75467   0.03999921  0.040705994            2 
  563000    1.1711374   -6.0498458    270.76684   0.04007798  0.040693892            3 
  564000    1.1664553   -6.0819616    270.44043  0.039958693  0.040682567            3 
  565000    1.1746494   -6.0931548    269.80728  0.039794584  0.040670573            4 
  566000    1.1521599   -6.0658022    270.58568  0.039838881   0.04065823            2 
  567000    1.1502804    -6.065845    271.42678  0.039892236  0.040646834            4 
  568000    1.1506913   -6.0550593    272.40008    0.0399648  0.040635746            2 
  569000    1.1805723    -6.052908    272.22323  0.039868663  0.040624335            3 
  570000    1.1459829   -6.0565577    271.86375  0.039746162   0.04061261            2 
  571000    1.1628934   -6.0470021    272.92515  0.039831458  0.040600557            4 
  572000    1.1531494   -6.0504631    273.49277  0.039844517  0.040588189            2 
  573000    1.1701662   -6.0268982    273.57745  0.039787296  0.040576949            4 
  574000    1.1669566   -6.0117379    274.78359  0.039893088  0.040565695            4 
  575000    1.1706844   -6.0640518    273.80622   0.03968206  0.040553518            5 
  576000    1.1760462   -6.0713409    274.61197  0.039729741  0.040541957            2 
  577000    1.1690632   -6.0349496    275.50982  0.039790558  0.040530112            3 
  578000    1.1864935   -6.1011235    275.77141  0.039759431  0.040518706            6 
  579000    1.1306886   -6.0530838    276.10389  0.039738614  0.040507195            2 
  580000    1.1681688   -6.1121844    275.82971  0.039630706  0.040495339            4 
  581000    1.1378099   -6.1022871    276.29002  0.039628516  0.040483221            1 
  582000    1.1658579   -6.0912426    276.85023  0.039640641  0.040470926            1 
  583000    1.1392778   -6.0610735    278.03891  0.039742554  0.040459508            2 
  584000    1.1651445   -6.0529575    279.25283  0.039847721  0.040448569            3 
  585000    1.1344304   -6.0643636    280.56764    0.0399669  0.040437971            5 
  586000    1.1252548   -6.1084026    279.17622  0.039700828  0.040427447            2 
  587000    1.1348259   -6.0883999    280.01382  0.039752104  0.040416781            2 
  588000    1.1505344   -6.0307691    280.64219  0.039773552  0.040406682            3 
  589000    1.1853595   -6.0943339     280.7634  0.039723174  0.040396672            3 
  590000    1.1457293    -6.063892    281.28285  0.039729216  0.040385868            2 
  591000    1.1547732   -6.0778566    282.79403  0.039875074  0.040376309            2 
  592000    1.1545253   -6.0924703    282.52024  0.039769177  0.040366666            2 
  593000    1.1776572   -6.0417788    283.34872  0.039818538  0.040356848            2 
  594000    1.1690358   -6.0342391    284.66124   0.03993564  0.040348123            2 
  595000    1.1428367   -6.0861283    283.69157  0.039732713  0.040339152            3 
  596000    1.1672842   -6.0846784    284.69453  0.039806283  0.040329634            3 
  597000    1.1411762   -6.0784074     285.2579  0.039818244  0.040320001            4 
  598000    1.1678934   -6.0184608    284.95676  0.039709694  0.040309776            3 
  599000    1.1353667   -6.0358405    285.19728  0.039676861  0.040299706            3 
  600000     1.137835    -6.065826    285.77578  0.039691081  0.040289836            2 
  601000    1.1704359   -6.0360266     287.5452  0.039870383  0.040280612            2 
  602000    1.1577109   -6.0697426    286.34855  0.039638504  0.040271265            4 
  603000    1.1568152   -6.0819204    288.27682  0.039839251  0.040261966            2 
  604000    1.1393366   -6.0945448    287.76757  0.039703032  0.040252135            1 
  605000    1.1545974   -6.0698013    287.59316  0.039613382  0.040242073            2 
  606000    1.1412134   -6.0802592    289.08285  0.039752868  0.040232006            3 
  607000    1.1612144   -6.0946715    288.99325  0.039675075  0.040222008            1 
  608000    1.1685067   -6.0560236    289.52496  0.039682698  0.040213112            4 
  609000    1.1821359   -6.0668202    289.19174   0.03957194  0.040203753            2 
  610000    1.1517737   -6.1077838    289.55279  0.039556392  0.040194173            2 
  611000    1.1634845   -6.0982347    289.97964  0.039549868  0.040184093            4 
  612000    1.1557482   -6.0569609    292.35975  0.039809334   0.04017505            2 
  613000    1.1305518   -6.0881694    291.92124   0.03968478  0.040166088            2 
  614000    1.1349657   -6.0401795    293.94668  0.039895044  0.040157958            5 
  615000    1.1398907    -6.064687     293.5666  0.039778672  0.040149817            1 
  616000    1.1669024   -6.1116098    293.08407  0.039648819  0.040141103            3 
  617000      1.16628   -6.1249879    293.15761   0.03959449  0.040132144            5 
  618000     1.139953   -6.0592599    294.70304  0.039738813   0.04012279            2 
  619000    1.1482242   -6.0695499    294.31193  0.039621962  0.040114444            4 
  620000     1.159945   -6.0874035     294.4922  0.039582285  0.040105813            3 
  621000    1.1596764   -6.0957856    295.86659  0.039702977  0.040096894            2 
  622000    1.1582908   -6.1042451    295.36085  0.039571389  0.040087831            2 
  623000    1.1710395   -6.1069852    296.29589  0.039632944  0.040078667            3 
  624000    1.1350798   -6.0944392    295.44914  0.039456349  0.040069263            3 
  625000    1.1531528   -6.0731142    296.69664  0.039559552  0.040059697            2 
  626000    1.1568046   -6.0782807    297.18205  0.039560975  0.040049419            3 
  627000    1.1298846   -6.0849908    298.06519  0.039615256  0.040039946            3 
  628000    1.1511551    -6.033812    298.36999  0.039592621  0.040030504            2 
  629000    1.1560432   -6.0694204    298.35791  0.039528075  0.040021078            4 
  630000    1.1493098   -6.0521891    299.31605   0.03959207   0.04001207            2 
  631000    1.1946398    -6.088705    298.52288  0.039424575  0.040002861            2 
  632000     1.152093   -6.0772308     299.9733  0.039553441  0.039993653            2 
  633000    1.1361874   -6.0966496     299.8155  0.039470182  0.039984674            2 
  634000    1.1663662   -6.0957948    300.82756  0.039540951  0.039975753            3 
  635000    1.1639801    -6.117626    300.73317  0.039466296  0.039966921            3 
  636000     1.129461   -6.0428219    302.47315  0.039632226  0.039957642            5 
  637000    1.1358753   -6.0833513    301.54159  0.039448141  0.039948516            2 
  638000    1.1461221    -6.071188     301.9707  0.039442359  0.039939474            2 
  639000    1.1271209   -6.0589476    302.08974  0.039396158  0.039930147            6 
  640000    1.1652925   -6.1141326    302.43114  0.039379055  0.039920989            4 
  641000    1.1373084   -6.0685281    303.34896  0.039436942  0.039911822            4 
  642000    1.1434345   -6.1039873    304.24349  0.039491626  0.039902423            4 
  643000    1.1376643    -6.096323    303.94483  0.039391502  0.039892768            5 
  644000     1.162088   -6.1265755    303.83657  0.039316326  0.039883594            6 
  645000    1.1821796   -6.0779263    306.09395  0.039547022  0.039874775            2 
  646000    1.1585094   -6.1136613    305.11037  0.039358923  0.039865782            1 
  647000    1.1418708   -6.0519827    305.30236  0.039322818  0.039857129            4 
  648000    1.1396826   -6.0667766    306.69003   0.03944059  0.039848825            3 
  649000    1.1407967   -6.1168895    307.05803  0.039427071  0.039840449            4 
  650000    1.1458937   -6.0974748    307.03942  0.039364028  0.039832191            3 
  651000    1.1554731   -6.0273193    308.55192  0.039497173  0.039823663            1 
  652000    1.1505278   -6.0928783    308.80767  0.039469283  0.039815355            3 
  653000    1.1210335   -6.0785192    309.59934   0.03950987  0.039806543            3 
  654000    1.1597047   -6.1190994     307.9289  0.039236609  0.039797362            3 
  655000    1.1476977   -6.0881714    309.31375  0.039352895   0.03978888            1 
  656000     1.153754   -6.1128672     310.7158  0.039471012  0.039780526            3 
  657000    1.1391568   -6.0828914    310.90295  0.039434672  0.039771939            3 
  658000    1.1274705   -6.1235974    310.58404  0.039334352  0.039762834            1 
  659000    1.1382276   -6.0941336    310.23365  0.039230355  0.039753995            2 
  660000    1.1565488   -6.1273825    311.06815  0.039276281  0.039745298            3 
  661000    1.1277471    -6.091448    310.57894  0.039155186  0.039735954            6 
  662000    1.1626084   -6.0904985    311.99634  0.039274464   0.03972666            4 
  663000    1.1374793   -6.0943528    311.50072  0.039152931  0.039717132            4 
  664000    1.1478038   -6.1207074    312.42913  0.039210483  0.039708166            3 
  665000    1.1251816   -6.0990251    312.69313  0.039184603  0.039698763            2 
  666000    1.1435776   -6.1069454    313.55288  0.039233344  0.039689167            3 
  667000    1.1505121    -6.091121     314.5909   0.03930421  0.039680097            3 
  668000    1.1466004   -6.0509098    314.94461  0.039289498  0.039671077            4 
  669000    1.1183284   -6.1029382     314.8405    0.0392178  0.039662803            3 
  670000    1.1531908   -6.0946996    315.70976  0.039267384  0.039653988            4 
  671000     1.141253   -6.1266537    314.60352  0.039071476   0.03964488            9 
  672000    1.1591227   -6.0887907    316.03772  0.039191186  0.039635757            4 
  673000    1.1522051   -6.1263703     316.7781  0.039224628  0.039626481            4 
  674000    1.1332085   -6.0801899    316.93197  0.039185456  0.039618131            1 
  675000    1.1513964    -6.125711    316.71812  0.039101002  0.039609461            4 
  676000    1.1534515   -6.1064356    318.87164  0.039308634  0.039601515            5 
  677000    1.1775462   -6.1035088    318.94661    0.0392598  0.039593177            2 
  678000    1.1264401   -6.1052995    319.70005    0.0392945  0.039584927            2 
  679000    1.1379212   -6.0595765    320.27812  0.039307574  0.039576813            4 
  680000    1.1458201    -6.103029    320.42192  0.039267392  0.039568804            2 
  681000    1.1494228   -6.1599305    320.60633  0.039232297  0.039560796            3 
  682000    1.1353625   -6.1189752    321.97091  0.039341509  0.039552344            6 
  683000    1.1422802   -6.1451985     321.7365  0.039255307  0.039545001            2 
  684000    1.1402874   -6.0869292    322.66725  0.039311312   0.03953696            4 
  685000    1.1506367   -6.0993921    322.95001  0.039288323  0.039529722            1 
  686000    1.1482835    -6.105624    323.68357  0.039320161  0.039522277            5 
  687000    1.1694221    -6.153484    322.76259  0.039151212  0.039514211            2 
  688000    1.1388607    -6.099828    324.45971  0.039299868  0.039506725            2 
  689000    1.1343563   -6.1117493    324.51208  0.039249163  0.039499615            3 
  690000    1.1422504   -6.1261507    325.17055  0.039271805  0.039492201            4 
  691000    1.1466589   -6.1478492    323.98142  0.039071566  0.039484428            3 
  692000    1.1304152   -6.1254103    325.51739  0.039200071  0.039476987            2 
  693000    1.1597242   -6.0946218    326.80153  0.039297923   0.03946995            2 
  694000    1.1420127   -6.0864985    327.45273  0.039319493  0.039462554            1 
  695000    1.1314009   -6.1313377    325.78853  0.039063372  0.039454962            3 
  696000    1.1461064   -6.1224443    329.02999  0.039395353  0.039448057            2 
  697000    1.1464669   -6.0968237    327.88989  0.039202521  0.039441191            2 
  698000    1.1581061   -6.1512723    328.59306  0.039230308  0.039434044            3 
  699000    1.1459396   -6.0895244    329.26661  0.039254483  0.039426901            3 
  700000    1.1572091   -6.1049957    329.69759  0.039249714  0.039420162            3 
  701000    1.1646106   -6.1566096    329.15606  0.039129346  0.039412922            2 
  702000    1.1715973   -6.1319466     328.7111  0.039020785  0.039404953            3 
  703000    1.1597787   -6.0937295    330.26027  0.039148918  0.039397121            2 
  704000    1.1301252   -6.1279703     329.7049  0.039027568  0.039389514            6 
  705000    1.1826989   -6.1142175     330.7251  0.039092802  0.039381953            2 
  706000    1.1477457   -6.0880994    332.14587  0.039205131  0.039374432            2 
  707000    1.1434775   -6.1242911    331.68929  0.039095862  0.039366379            4 
  708000    1.1358826   -6.1274546    332.23411  0.039104768  0.039358728            3 
  709000    1.1436973   -6.1176582    333.18661  0.039161567  0.039351133            2 
  710000    1.1411731    -6.106217    333.70909  0.039167734  0.039344043            4 
  711000    1.1373525   -6.0819001    334.74677  0.039234268  0.039337199            3 
  712000     1.148381    -6.146373    332.89063  0.038961918  0.039330072            1 
  713000    1.1336836   -6.1514709    334.13811  0.039053075  0.039322693            4 
  714000    1.1638465   -6.0868882    335.47589  0.039154515  0.039315478            3 
  715000    1.1396399   -6.1352625    334.05161  0.038933754  0.039308141            1 
  716000    1.1469465    -6.126414    336.49574  0.039163843  0.039300747            3 
  717000    1.1545269   -6.1547012    335.79128  0.039027345   0.03929354            4 
  718000    1.1032041   -6.1235126    336.73127  0.039082088   0.03928644            2 
  719000    1.1445133   -6.0735721    338.31319  0.039211079  0.039279124            4 
  720000    1.1267927   -6.1208437    338.27205  0.039151857  0.039272551            2 
  721000    1.1336777   -6.1118395    337.76757  0.039039248  0.039265758            3 
  722000    1.1518524   -6.1290229     338.8631  0.039111623  0.039258906            1 
  723000    1.1298067   -6.1617545    338.28609   0.03899102  0.039251666            3 
  724000    1.1039375   -6.1151624    339.48301  0.039074932   0.03924416            3 
  725000    1.1352721   -6.1415786    338.55001  0.038913794   0.03923622            3 
  726000    1.1192457   -6.0989734    339.60818  0.038981655  0.039228332            6 
  727000    1.1299474   -6.1221211    341.15253  0.039105059  0.039220718            3 
  728000     1.116983   -6.1508432    340.98507  0.039032174  0.039213541            3 
  729000    1.1385948   -6.1494184    340.41332  0.038913274  0.039205863            5 
  730000    1.1237318   -6.1527067    340.80524  0.038904707  0.039198377            3 
  731000    1.1286747   -6.1280405    341.90865  0.038977275  0.039190643            3 
  732000    1.1183974   -6.1531094    342.35334  0.038974652  0.039182686            6 
  733000    1.1371956   -6.1256264    342.17103  0.038900754  0.039174077            2 
  734000     1.094558   -6.1445271     342.0314  0.038831903  0.039166224            3 
  735000    1.1502662   -6.1242388    342.19171  0.038797246  0.039158516            3 
  736000    1.1131125   -6.1041307    342.75019  0.038807766  0.039150564            6 
  737000    1.1454511   -6.1390246    344.32234  0.038932874  0.039142884            7 
  738000    1.1171603   -6.1501711    342.67442  0.038694041   0.03913475            6 
  739000    1.1486499   -6.0863594    345.64486  0.038976641   0.03912734            2 
  740000    1.1367472   -6.1335274     344.7727  0.038825755  0.039119587            1 
  741000    1.1277213   -6.1698079    345.28652  0.038831143  0.039111388            2 
  742000    1.1330923   -6.1198739     346.1147  0.038871822  0.039102731            3 
  743000    1.1464521   -6.1234183    346.54304  0.038867546  0.039095084            3 
  744000    1.1501076   -6.1769251    345.79145  0.038731121  0.039087711            3 
  745000    1.1140855   -6.1272118      347.457  0.038865436    0.0390799            5 
  746000    1.1169091   -6.1543363    347.46514  0.038814247  0.039072162            4 
  747000    1.1230674   -6.1340853    346.73187  0.038680486  0.039064464            4 
  748000      1.12561   -6.1023396      348.004  0.038770499  0.039056414            3 
  749000    1.1399896   -6.1402119    348.19487  0.038739972  0.039048474            3 
  750000    1.1222617   -6.1186855    349.88272  0.038875857  0.039040411            6 
  751000    1.1311072    -6.118855      349.283  0.038757546  0.039032633            4 
  752000    1.1205333   -6.1291849    351.02032  0.038898528   0.03902484            3 
  753000     1.146284   -6.1362148     350.3726  0.038775188   0.03901719            3 
  754000    1.1484054   -6.1108045    350.17409  0.038701822  0.039009474            3 
  755000    1.1129081   -6.1726178    350.73377  0.038712336  0.039001517            5 
  756000     1.127654   -6.0918511    350.59325   0.03864564  0.038993695            2 
  757000    1.1386232   -6.1233915    351.27222  0.038669333  0.038985304            1 
  758000    1.1175464   -6.1609352    349.87576  0.038464793  0.038976761            2 
  759000    1.1510472   -6.1323287    350.84121  0.038520115  0.038968047            2 
  760000    1.1221763   -6.1471997    351.78598  0.038573024   0.03895899            3 
  761000    1.1499311   -6.1230282    352.61014  0.038612586  0.038950342            2 
  762000    1.1396372   -6.1448973    352.29525  0.038527477  0.038941539            7 
  763000    1.0919446   -6.1479495    353.87701  0.038649739  0.038932727            4 
  764000    1.0902142   -6.1275761    353.82311  0.038593271  0.038924399            5 
  765000    1.1171043   -6.1628488    354.47042  0.038613336  0.038915799            4 
  766000    1.1242682   -6.1231036    353.95762  0.038507139  0.038907353            3 
  767000    1.1202068   -6.1415091    354.13171  0.038475848  0.038898807            3 
  768000    1.1298521   -6.1097307    356.57287  0.038690632  0.038890308            2 
  769000    1.1360765   -6.0971897     357.0036  0.038686996  0.038881755            3 
  770000    1.1361055   -6.1558342    355.55697  0.038480191   0.03887354            2 
  771000    1.1223707   -6.1480303    356.57648  0.038540475  0.038865671            2 
  772000    1.1582113   -6.1493163    356.57779  0.038490694  0.038857805            2 
  773000    1.1317806   -6.1378544    358.37846  0.038635021  0.038849628            4 
  774000    1.1286514    -6.150303    357.83095  0.038526157  0.038841069            4 
  775000    1.1340524    -6.172184    356.38568  0.038321041  0.038832313            4 
  776000    1.1214668   -6.1037754     359.6156  0.038618514  0.038823378            3 
  777000    1.1427333     -6.18843    357.34196  0.038324963  0.038814606            3 
  778000    1.1141396   -6.1604118    358.51054  0.038400872    0.0388058            5 
  779000    1.1236962   -6.1605386    358.85826  0.038388774  0.038796094            8 
  780000    1.1155076   -6.1411511    359.32099  0.038388995  0.038786921            1 
  781000     1.109993   -6.1331923    358.61858  0.038264894  0.038777682            5 
  782000    1.1309619   -6.1806677    359.56832  0.038317169  0.038768282            2 
  783000    1.1392581   -6.1525641     359.0081   0.03820861  0.038759232            2 
  784000    1.1347358   -6.1430978    360.89272  0.038360196  0.038749574            1 
  785000    1.1105054   -6.1729661    361.65205  0.038391937  0.038740168            2 
  786000     1.131731   -6.1601928    362.09812  0.038390386  0.038731517            4 
  787000    1.1098741   -6.1579461    361.61519  0.038290469  0.038722802            2 
  788000    1.0967278   -6.0992361    364.65637  0.038563491  0.038713999            4 
  789000    1.1398678   -6.1427812    363.58182  0.038401122  0.038705406            5 
  790000    1.1410312   -6.1284902     363.6823  0.038363112  0.038696322            2 
  791000    1.0955327   -6.1655926    362.98163  0.038240796  0.038687153            3 
  792000    1.1286017   -6.1285634    363.03725  0.038198364  0.038677618            2 
  793000    1.1172147   -6.1311449    364.00549  0.038251943  0.038668214            3 
  794000    1.1221926   -6.1394252    364.58078  0.038264146  0.038658533            2 
  795000    1.1173182   -6.1589191    363.61759  0.038115051  0.038649205            2 
  796000    1.1141618   -6.1536606    364.27336   0.03813582  0.038639311            3 
  797000    1.1251376   -6.1256369    365.08302  0.038172629   0.03862932            1 
  798000    1.1126867   -6.1417734    364.57708  0.038071959  0.038619414            3 
  799000    1.1510876   -6.2540645    364.02131  0.037966344  0.038609129            2 
  800000    1.1286584   -6.1178852    365.32852  0.038055054  0.038598633            3 
  801000    1.1533673    -6.163104    364.52827  0.037924289  0.038588448            4 
  802000    1.0993153   -6.1612444    366.24653  0.038055542   0.03857802            9 
  803000    1.1103581   -6.1305714    365.61209  0.037942309  0.038567359            4 
  804000    1.1289328   -6.1343449     366.8898  0.038027549  0.038556928            1 
  805000    1.1297437   -6.1375894    366.92702  0.037984163  0.038545763            2 
  806000     1.140183   -6.1218058    367.94298  0.038042078  0.038534637            4 
  807000    1.1206454   -6.1386348    367.63052  0.037962673  0.038523539            3 
  808000    1.1157975   -6.1546869    367.47752   0.03789991  0.038512784            6 
  809000    1.1185641    -6.136942    369.09799  0.038019982   0.03850195            6 
  810000    1.1138336   -6.1311071    368.74675  0.037936908  0.038491798            3 
  811000     1.112316     -6.16485    370.46272  0.038066453  0.038481576            3 
  812000     1.094209   -6.1301673    370.11247  0.037983628  0.038471812            3 
  813000    1.1253403   -6.1215809    370.36464  0.037962755  0.038461834            3 
  814000    1.1161839   -6.1652724    370.21298  0.037900592  0.038451942            3 
  815000    1.1128384   -6.1213503    370.77549  0.037911604  0.038441347            4 
  816000    1.1213655    -6.156348    372.34826  0.038025761  0.038431507            3 
  817000    1.0905623   -6.1763783    372.20711  0.037964821  0.038421403            3 
  818000    1.1142772   -6.2191372     372.3929  0.037937337  0.038411062            1 
  819000    1.1078962    -6.162135    373.78815  0.038032983  0.038401118            5 
  820000    1.1367501   -6.1673866    373.37617  0.037944732  0.038391617            3 
  821000    1.1314387   -6.1817403    372.85553  0.037845669  0.038381689            2 
  822000    1.1221679   -6.1805818    374.38137  0.037954316  0.038371712            3 
  823000    1.1274364    -6.117316    376.12627   0.03808488  0.038362254            3 
  824000    1.1257926   -6.1590146    375.37114  0.037962292  0.038353113            2 
  825000    1.1412144   -6.1191966    376.80799  0.038061413  0.038343986            4 
  826000    1.1389538   -6.1362443    377.33667  0.038068672   0.03833494            3 
  827000    1.1011617   -6.1762752    376.44843  0.037933135  0.038325744            5 
  828000    1.1412952    -6.161256    378.41793  0.038085541  0.038316998            2 
  829000    1.1021186   -6.1552409    377.50685  0.037948015  0.038308201            2 
  830000    1.1212623   -6.1868769     378.7676  0.038028876  0.038299264            8 
  831000    1.1203144   -6.1534014    379.65754  0.038072356   0.03829013            2 
  832000    1.1142286   -6.1561013    378.64489  0.037925169  0.038281451            6 
  833000    1.1381088   -6.1436745    380.82727  0.038097967  0.038272819            2 
  834000    1.1151944   -6.1798103    379.35437  0.037905113  0.038263954            1 
  835000    1.0997461   -6.1817715    378.93596   0.03781796  0.038254575            2 
  836000    1.1208585   -6.1738806    379.60905  0.037839818   0.03824569            3 
  837000    1.1111479   -6.2026647    378.58111  0.037692265   0.03823641            3 
  838000    1.1334961   -6.2001215    380.35107  0.037823297  0.038226914            6 
  839000    1.1155376   -6.1845112    379.45079  0.037688795  0.038217386            6 
  840000    1.1201541   -6.1407592    382.44785  0.037941255  0.038208325            2 
  841000    1.1129336   -6.1811445    380.60999   0.03771403  0.038198993            3 
  842000    1.0935967   -6.1809308    382.55999  0.037862232  0.038189451            4 
  843000    1.1376762   -6.1531269    383.26283  0.037886797  0.038179999            2 
  844000     1.117443   -6.1548724    381.52907  0.037670722  0.038170235            5 
  845000    1.1290435   -6.1886076    382.02739  0.037675285  0.038160333            3 
  846000    1.1143711   -6.1536787    383.12816   0.03773918  0.038150755            2 
  847000    1.1043875   -6.1883181    382.50424  0.037633239  0.038141129            4 
  848000    1.1245081   -6.2416289    381.99074  0.037538398  0.038131143            3 
  849000    1.1046316   -6.1983516    383.68053  0.037660044  0.038121134            2 
  850000    1.1174757   -6.1797987    384.56891  0.037702834   0.03811084            2 
  851000    1.1219841    -6.221861    381.80892  0.037388261  0.038100949            3 
  852000    1.1343502   -6.1650856    384.53615  0.037611126  0.038091119            2 
  853000    1.1063476   -6.1787998    384.39177  0.037552927  0.038081698            2 
  854000    1.1132653   -6.1677167    385.59706  0.037626567   0.03807195            3 
  855000    1.0997099   -6.1755577       386.45  0.037665692  0.038062689            3 
  856000    1.0734628   -6.2162623    385.96489  0.037574464  0.038053228            2 
  857000    1.1188438   -6.1759693    386.22003  0.037555429   0.03804387            4 
  858000    1.1171739   -6.1404128    387.10887  0.037597986  0.038034647            2 
  859000    1.1151568   -6.1470775    388.91677  0.037729605  0.038025976            3 
  860000    1.1288273   -6.1343942    389.18303  0.037711534  0.038017583            2 
  861000    1.1317899   -6.1930407    389.86955   0.03773418  0.038009023            4 
  862000    1.1156735   -6.1770809     389.9368  0.037696907  0.038000467            3 
  863000     1.119205   -6.1560076    391.68544  0.037822078  0.037991693            3 
  864000    1.1120102   -6.1452999    391.23458  0.037734817    0.0379832            5 
  865000     1.094456   -6.1756985    391.64336  0.037730574  0.037974455            7 
  866000    1.0938924   -6.1585821    390.75175  0.037601208  0.037965671            4 
  867000    1.1114944   -6.2294226    391.30985  0.037611481  0.037956655            2 
  868000    1.1348594   -6.1842854     392.4722  0.037679743  0.037947819            3 
  869000    1.1281776   -6.1775425    392.07927  0.037598702  0.037938887            4 
  870000    1.1279721   -6.2472847    391.85463  0.037533969  0.037929962            5 
  871000    1.1226138   -6.1742094    392.02711  0.037507377  0.037920642            2 
  872000    1.1256285   -6.1840975    392.81163  0.037539338  0.037911461            3 
  873000    1.1192604   -6.2364103    392.07229  0.037425763  0.037902324            2 
  874000    1.1103856   -6.1831848     394.1034  0.037576602  0.037893328            4 
  875000    1.1161712   -6.1536431    393.92406  0.037516577  0.037884419            3 
  876000    1.1081222   -6.2117356    394.78445  0.037555598  0.037874879            6 
  877000    1.1520644   -6.1683987    395.45612  0.037576599  0.037865555            1 
  878000    1.1097105   -6.2303684    395.38591  0.037527137  0.037856269            2 
  879000    1.0967334   -6.2215482    395.27953  0.037474358  0.037846593            5 
  880000    1.0958584    -6.194264    395.53617  0.037456076  0.037836949            4 
  881000    1.1051894   -6.1708818    396.15468  0.037472066  0.037827984            2 
  882000    1.1251222   -6.1892779    396.75673  0.037486464  0.037818555            2 
  883000    1.1483021   -6.1662667    397.49828  0.037513994  0.037809281            3 
  884000    1.1289545    -6.194963     396.8073  0.037406419   0.03779989            1 
  885000    1.1216978   -6.2056138      397.087  0.037390489  0.037790273            5 
  886000    1.1026712   -6.1339566    398.09879  0.037443453  0.037780548            3 
  887000    1.0905675   -6.1244744    397.31685  0.037327776  0.037771043            3 
  888000    1.0907597   -6.1596177    397.92443  0.037342758  0.037761345            5 
  889000    1.1151434   -6.1983745    397.31303  0.037243441  0.037751675            3 
  890000    1.1338446   -6.1508399    399.65954  0.037421306  0.037741669            5 
  891000    1.1123048   -6.1928997    399.27794  0.037343616  0.037732049            4 
  892000    1.1212249   -6.1445595    399.86926  0.037356993  0.037721967            4 
  893000    1.1013943    -6.178108    398.92085  0.037226656  0.037711867            3 
  894000    1.0947419   -6.1695719    399.46951  0.037236159  0.037701611            3 
  895000    1.1085877   -6.1487227     399.9213   0.03723662  0.037691477            3 
  896000    1.1105364   -6.1577223    399.58339  0.037163634   0.03768125            6 
  897000    1.1050885   -6.2190297    399.67481  0.037130695  0.037671197            3 
  898000    1.1137855   -6.1951743    399.62042    0.0370843  0.037660613            2 
  899000    1.1107721   -6.2092175    400.22746  0.037099319  0.037650097            1 
  900000    1.1141632   -6.1621854    401.78951  0.037202732   0.03763995           10 
  901000    1.1453942   -6.1709881    402.22063  0.037201316  0.037629872            4 
  902000    1.1203964   -6.1821434     401.1638  0.037062435  0.037619864            3 
  903000    1.1238199   -6.1987514    402.23615  0.037120353  0.037609418            3 
  904000    1.1009982   -6.2006123    402.23773  0.037079437  0.037598962            3 
  905000    1.1025851   -6.2027501    403.04453  0.037112756  0.037588338            3 
  906000    1.1086807   -6.1770142    403.38575  0.037103178  0.037577631            4 
  907000    1.1069115   -6.1908676    404.80812  0.037192955  0.037567357            6 
  908000    1.0976662   -6.1806104    405.53847  0.037219022  0.037556923            3 
  909000    1.1143903    -6.178506    404.87772  0.037117503  0.037546618            5 
  910000    1.1003644   -6.2307831    404.04441  0.037000404  0.037536267            3 
  911000    1.1251945   -6.2386622    404.29639  0.036982838  0.037525772            9 
  912000    1.0883122    -6.209732    404.85694  0.036993507  0.037515441            5 
  913000    1.1304029   -6.1934312    405.86538  0.037045033  0.037505426            2 
  914000    1.1316668   -6.1676702    407.08363  0.037115575  0.037495217            5 
  915000    1.0833755   -6.1906624     405.4942  0.036930255  0.037484634            2 
  916000    1.0923615   -6.2117965    405.19986   0.03686316  0.037473983            5 
  917000    1.0938417   -6.2699532    406.14901  0.036909216  0.037463111            2 
  918000    1.1261066   -6.2014382    408.17038  0.037052503  0.037452337            3 
  919000    1.1158842   -6.1928001    408.18836  0.037013816  0.037441947            5 
  920000     1.106566   -6.2194043    406.74878  0.036843187  0.037431821            2 
  921000    1.0851863   -6.1669929    408.81764  0.036990376  0.037421665            8 
  922000    1.0741969   -6.2358732    408.28619  0.036902223  0.037411444            2 
  923000    1.1036124   -6.2060602    407.49853  0.036791127  0.037400955            4 
  924000    1.0856215   -6.1827761    409.63942  0.036944392  0.037391181            4 
  925000    1.1075993   -6.2386633    409.29815  0.036873707  0.037381185            1 
  926000    1.0895969   -6.1850667    411.36866  0.037020218  0.037371239            3 
  927000    1.0989808   -6.1852727     410.6077  0.036911875  0.037361317            6 
  928000    1.0955185   -6.1444771    413.14448    0.0370999  0.037351617            4 
  929000    1.1072645   -6.2050257    412.90603  0.037038575  0.037342118            3 
  930000    1.1022956   -6.1890675    413.60913   0.03706175  0.037332588            2 
  931000    1.0815035   -6.1856523    413.81355  0.037040239  0.037323044            3 
  932000    1.1074882   -6.2041094    411.96757  0.036835441  0.037313454            3 
  933000    1.1127574   -6.2394499    414.08099  0.036984726  0.037303895            2 
  934000    1.0951308   -6.2109913    413.86887  0.036926202  0.037294059            7 
  935000    1.1067413   -6.2295133    414.46019  0.036939411  0.037284401            4 
  936000    1.0993047   -6.1596524    415.83548   0.03702239  0.037275181            3 
  937000    1.1250401   -6.2031675    415.66826  0.036968006  0.037265935            2 
  938000     1.103147   -6.2236471     414.6377  0.036837038   0.03725663            4 
  939000    1.1046712   -6.1816373    416.83697  0.036992986  0.037247186            3 
  940000    1.0962657    -6.160464    417.86749   0.03704499  0.037238114            4 
  941000    1.0956399   -6.2165075    417.29769  0.036955162  0.037229027            5 
  942000    1.1061151   -6.2204214    417.20633  0.036907849  0.037219354            9 
  943000    1.1164339   -6.1935882    418.01132  0.036939848  0.037210028            1 
  944000    1.0865271   -6.1921913    417.01701  0.036812942   0.03720071            4 
  945000    1.1054472   -6.2320991      416.518  0.036729982  0.037191074            5 
  946000    1.1056971   -6.2195138    417.31764  0.036761596  0.037181524            2 
  947000    1.0900347   -6.1789423    419.73362  0.036935376  0.037171956            3 
  948000    1.0941297   -6.2310361    418.28129  0.036768749  0.037162465            2 
  949000    1.0833592   -6.2222987    419.81873   0.03686501  0.037153459            3 
  950000    1.0983734   -6.2033253    419.40044  0.036789512  0.037143856            3 
  951000    1.1318437   -6.2364035    420.15848  0.036817252   0.03713425            5 
  952000    1.0925068   -6.1909812    421.33001  0.036881128  0.037124962            4 
  953000    1.0782019   -6.2293516    420.33283  0.036755232   0.03711567            4 
  954000    1.1029139   -6.2303814    420.84995  0.036761876   0.03710653            6 
  955000    1.1056047   -6.2104528    422.16314  0.036837971  0.037097295            4 
  956000    1.0782121   -6.2066397    423.02775  0.036874804  0.037088312            8 
  957000    1.0912236   -6.2048631    422.72712  0.036810094   0.03707932            2 
  958000    1.1125601   -6.1885596    423.84508  0.036868918  0.037070588            5 
  959000    1.1077294   -6.2267811    423.10072  0.036765791  0.037061567            3 
  960000    1.0944465   -6.1905294    423.40006  0.036753477  0.037053061            3 
  961000    1.1325916    -6.213089    423.94762  0.036762714  0.037044301            4 
  962000     1.111175   -6.2067276    424.74021  0.036793157   0.03703514            4 
  963000    1.0957923   -6.1676195    426.02934  0.036866506  0.037026686            3 
  964000    1.1211468   -6.2453416    423.95182   0.03664867  0.037017832            3 
  965000    1.0970767   -6.2027061    426.87806   0.03686339  0.037009005            4 
  966000    1.0913231    -6.203375    425.87983  0.036739116   0.03700015            3 
  967000    1.0913627   -6.2045218    425.92167  0.036704728  0.036991013            2 
  968000     1.083434   -6.1841614     427.6162  0.036812689  0.036982284            5 
  969000    1.0779085   -6.2033322    426.23351  0.036655789  0.036973112            6 
  970000    1.1105601   -6.2094763     426.9897  0.036682964  0.036964075            4 
  971000    1.1224364   -6.2305281    426.18682   0.03657628  0.036954603            2 
  972000    1.1464264   -6.1961936    428.80467  0.036763089  0.036945012            2 
  973000    1.0799019     -6.18628    427.62404   0.03662419  0.036935818            6 
  974000    1.0834289   -6.2603299    426.46682  0.036487579  0.036926346            3 
  975000    1.1191151   -6.2406293    426.85239   0.03648311   0.03691671            3 
  976000    1.0837019   -6.2097276    429.84419  0.036701177  0.036907333            3 
  977000    1.0693026   -6.2614908    428.87634  0.036581059  0.036897809            3 
  978000    1.0819265   -6.1930268    430.48619  0.036680827  0.036888354            3 
  979000    1.0902691   -6.2452487     430.5841  0.036651694  0.036879193            5 
  980000     1.095444   -6.2160137    431.06632  0.036655299  0.036870015            2 
  981000     1.091477   -6.1793286    431.48808  0.036653761  0.036860993            1 
  982000    1.1126076   -6.2531377    429.46788     0.036445  0.036851818            2 
  983000    1.0793502   -6.2136928    431.04895  0.036541959  0.036842239            3 
  984000    1.0975146   -6.2204651    431.34661  0.036530031  0.036832541            3 
  985000    1.0921101   -6.2323658     430.5195   0.03642297  0.036822856            3 
  986000    1.0769705   -6.2219997    430.78492  0.036408462  0.036813611            2 
  987000    1.0999832   -6.2361413    432.01539  0.036475463  0.036804296            2 
  988000    1.0853712    -6.219944    431.05514  0.036357552  0.036794878            4 
  989000    1.0906095   -6.2338346    430.38446  0.036264278  0.036785428            2 
  990000    1.0843702   -6.2417198    432.53734  0.036408867  0.036775749            2 
  991000    1.0833383   -6.2551951    432.51801  0.036370502   0.03676604            2 
  992000     1.075789   -6.2357777    432.09298  0.036298133  0.036756147            3 
  993000    1.0869215   -6.2123967    433.99274  0.036421009  0.036746251            3 
  994000    1.0920589   -6.2071291    435.16345  0.036482516  0.036736538            2 
  995000    1.0756733   -6.1973696    436.00877  0.036516647  0.036727036            4 
  996000    1.1098463   -6.2726615    433.84433   0.03629889  0.036717135            4 
  997000    1.0725927   -6.2276428    435.69144  0.036416871  0.036707484            3 
  998000    1.0995089   -6.2383755     433.9809   0.03623755  0.036697562            4 
  999000    1.0975626   -6.2593104     434.2896  0.036227027  0.036687755            9 
 1000000    1.1091772   -6.2165097    435.19689  0.036266407  0.036677735            3 
 1001000     1.102017   -6.2026108    435.15099  0.036226356  0.036668114            3 
 1002000    1.0663266    -6.268907     435.3248  0.036204657  0.036657877            3 
 1003000    1.0804436    -6.205043    435.38391  0.036173472  0.036647696            4 
 1004000    1.1004869   -6.2111948    436.84114  0.036258395  0.036637442            4 
 1005000    1.0755284   -6.2280464    437.26468  0.036257436  0.036627133            1 
 1006000    1.0958304   -6.2073401    437.60644  0.036249705  0.036617204            3 
 1007000    1.0893371   -6.2401321    437.52724  0.036207153  0.036607056            1 
 1008000    1.0790299   -6.2219715    437.96055  0.036207056  0.036596828            5 
 1009000    1.0845774   -6.2141147     439.5567  0.036302998  0.036586599            2 
 1010000    1.0504455   -6.1968401    438.85402  0.036209077  0.036576384            4 
 1011000     1.100869   -6.2257711    438.15595  0.036115723   0.03656631            2 
 1012000    1.0776227   -6.2338696    439.82263  0.036217279   0.03655599            2 
 1013000    1.1061468   -6.2509193    438.34171    0.0360597  0.036545867            3 
 1014000     1.104814   -6.2495968    437.35111  0.035942728  0.036535445            3 
 1015000    1.1047211   -6.2302097    440.71852  0.036183787  0.036525333            3 
 1016000     1.111051   -6.2808175    438.70865  0.035983321  0.036515275            4 
 1017000     1.105031   -6.1946324    440.92301  0.036129385  0.036505248            5 
 1018000    1.0944071    -6.284172    439.13173   0.03594726  0.036494854            4 
 1019000    1.1033476   -6.2878209    439.13532  0.035912277  0.036484614            3 
 1020000    1.0971227   -6.2354098    440.97551  0.036027411  0.036474487            3 
 1021000    1.0813366    -6.246462    441.63299  0.036045788  0.036464064            4 
 1022000    1.1078787   -6.2480046    442.03818  0.036043556  0.036453933            2 
 1023000    1.0887617   -6.1917086    442.83113  0.036072917  0.036443692            4 
 1024000    1.0886052   -6.2425253    443.63308  0.036102952  0.036433657            2 
 1025000    1.0808636   -6.2601873    442.67944  0.035990199  0.036423587            6 
 1026000    1.1008369   -6.2551679    442.87824  0.035971267  0.036413378            9 
 1027000    1.0734032   -6.2525857    442.54074  0.035908856  0.036403217            2 
 1028000    1.0969725   -6.2432404    442.98708  0.035910107  0.036392881            6 
 1029000    1.0635126    -6.234915    444.11489  0.035966544  0.036382739            3 
 1030000    1.0722623   -6.2717071    444.08829  0.035929473  0.036372481            4 
 1031000    1.0704749   -6.2240212    443.87482   0.03587737  0.036362347            2 
 1032000    1.0852683   -6.2716975    444.30733   0.03587753   0.03635195            2 
 1033000    1.0826424   -6.2347498    446.07522  0.035985416  0.036341926            3 
 1034000    1.1090989   -6.2517627    445.52976  0.035906654  0.036331831            2 
 1035000    1.0738685   -6.2262508    446.22929  0.035928284  0.036321906            4 
 1036000    1.0699489   -6.2220342    447.50121  0.035995915  0.036312157            3 
 1037000     1.108985   -6.2211435    447.59954  0.035969105  0.036302461            2 
 1038000    1.0945963   -6.2526447    445.49595  0.035765571  0.036292397            3 
 1039000    1.0931661     -6.23346     446.7039  0.035828032  0.036282425            3 
 1040000    1.0346142   -6.2582447    446.50914  0.035777976   0.03627223            3 
 1041000    1.0944406   -6.2242152    448.12167  0.035872692  0.036261888            3 
 1042000     1.083396   -6.2334109    448.05596   0.03583301  0.036251715            2 
 1043000    1.1003905   -6.2500044     448.3546  0.035822515  0.036241675            4 
 1044000    1.0695989   -6.2371906    447.68994  0.035735148  0.036231176            3 
 1045000    1.0877299   -6.2381097    448.47122  0.035763255  0.036220802            5 
 1046000    1.0891007   -6.2665278    448.79224   0.03575464  0.036210173            4 
 1047000    1.0780708   -6.2473262    448.88708  0.035728039  0.036199273            2 
 1048000    1.0720381   -6.2644148    449.28449  0.035725548   0.03618864           10 
 1049000    1.1197733   -6.2706035    449.43249  0.035703249  0.036177863            2 
 1050000    1.0456365   -6.2623487    448.67964  0.035609495  0.036167323            3 
 1051000    1.0710844   -6.2559692    449.64984   0.03565254  0.036156802            4 
 1052000    1.0924989   -6.2449943    449.95061  0.035642476  0.036146367            4 
 1053000    1.0746987    -6.237182    451.51795  0.035732664  0.036135817            4 
 1054000    1.0754185   -6.2219005    451.76794  0.035718528  0.036125598            2 
 1055000    1.0904176   -6.2787691    451.12511  0.035633895  0.036115451            3 
 1056000    1.1163305   -6.2606821     452.2344  0.035687689  0.036104852            6 
 1057000    1.0887327   -6.2648178    451.99881  0.035635353  0.036094409            3 
 1058000    1.0792143   -6.2710067    451.84107  0.035589246   0.03608403            6 
 1059000    1.0894664   -6.2305719    453.41927  0.035679829  0.036073907            5 
 1060000    1.0686239   -6.2639342    453.87458  0.035681964  0.036063987            4 
 1061000    1.0992085   -6.2644058    454.47624  0.035695589  0.036053845            5 
 1062000    1.0721998   -6.2689622    454.04177  0.035627885  0.036043641            4 
 1063000    1.1105317   -6.2538052    454.93521   0.03566441  0.036033395            4 
 1064000    1.0547439   -6.2367373    455.28592  0.035658359  0.036023227            2 
 1065000    1.0586993   -6.3089469    453.99186   0.03552362  0.036013048            4 
 1066000    1.0850258    -6.257927    454.98453  0.035567897  0.036002787            3 
 1067000      1.09362   -6.2783338    454.31628  0.035482371  0.035992868            2 
 1068000    1.0748181   -6.2546382    456.37425  0.035609726  0.035982763            3 
 1069000    1.0715972   -6.2556993    456.43253  0.035580958  0.035972786            3 
 1070000    1.0707019   -6.2903797    456.81472   0.03557747  0.035963006            3 
 1071000    1.0644226   -6.2619834    457.98344  0.035635188  0.035952887            5 
 1072000    1.0735219   -6.2750779    458.41687   0.03563564  0.035943215            3 
 1073000    1.0865454   -6.2170112    459.24898  0.035667053  0.035933744            3 
 1074000      1.07518   -6.2906947    457.50993  0.035498908  0.035924161            3 
 1075000    1.0898211   -6.2651561    460.65452  0.035709653   0.03591437            3 
 1076000    1.0794306    -6.238282    458.87583   0.03553871  0.035904665            4 
 1077000    1.0729283   -6.3053039     459.1974  0.035530595  0.035894936            4 
 1078000    1.0855981   -6.2368746     461.5545  0.035679847  0.035884891            5 
 1079000    1.0857828    -6.236995    461.87366  0.035671428  0.035875143            3 
 1080000    1.0821682   -6.2259951    462.06495   0.03565316  0.035865663            2 
 1081000    1.0880431   -6.2771311    460.42537  0.035493785  0.035856241            4 
 1082000    1.0709533   -6.2594389    463.08566   0.03566587  0.035846679            4 
 1083000    1.0938476   -6.2608674    463.27761  0.035647708  0.035837343            3 
 1084000    1.0863694   -6.2393057    461.77099     0.035499  0.035827935            4 
 1085000    1.0748529   -6.2571837    463.57543  0.035604871  0.035818356            4 
 1086000    1.0895322   -6.2590284    465.06853  0.035686659     0.035809            6 
 1087000    1.0847751   -6.2731847    462.85565  0.035484181  0.035799394            3 
 1088000    1.0810758   -6.2713406    464.67872  0.035591201  0.035790012            2 
 1089000    1.0778767   -6.2929387    462.89221   0.03542181   0.03578054            3 
 1090000     1.067341   -6.2597854    463.99531  0.035473648  0.035770969            2 
 1091000    1.0703437   -6.2395236     465.8299  0.035581264  0.035761449            2 
 1092000     1.074326   -6.2349793    465.09503    0.0354926  0.035751928            7 
 1093000    1.0679169   -6.2261609    465.92085   0.03552309  0.035742276            3 
 1094000    1.0572326   -6.2525333    465.31314  0.035444328   0.03573268            3 
 1095000    1.0803814   -6.2156717    466.88697  0.035531733   0.03572301            3 
 1096000    1.0843172   -6.2851672    466.42013  0.035463818  0.035713789            2 
 1097000    1.0689478   -6.2205555    467.95912  0.035548399  0.035704424            5 
 1098000    1.0443391     -6.26032    467.18441  0.035457226  0.035694894            5 
 1099000    1.0685577    -6.268446     467.7624   0.03546879  0.035685586            3 
 1100000    1.0750731   -6.2816716    466.64369  0.035351794  0.035675956            2 
 1101000    1.0795274     -6.29374    467.52449  0.035386353  0.035666222            3 
 1102000     1.075356   -6.2924283    469.76378  0.035523576   0.03565674            4 
 1103000    1.0549685   -6.2961653    469.24176  0.035451931  0.035647785            2 
 1104000    1.0803693    -6.283166    470.27288  0.035497651  0.035638966            9 
 1105000    1.0872746    -6.295002    469.44147  0.035402826  0.035629657            5 
 1106000    1.0668486   -6.2946165    469.56175  0.035379879  0.035620647            3 
 1107000    1.0847958    -6.297389      469.193  0.035320159  0.035611256            3 
 1108000    1.1078262   -6.3262171     469.4926  0.035310815  0.035602029            2 
 1109000    1.0658755   -6.2710284    471.44188  0.035425449  0.035592655            2 
 1110000    1.0712087   -6.2759315    471.86263  0.035425122  0.035583386            2 
 1111000    1.0721188   -6.2349504    472.86584  0.035468485   0.03557448            2 
 1112000     1.065894   -6.2681381    472.41322   0.03540267   0.03556569            2 
 1113000    1.0599853   -6.2699319    471.65878  0.035314374  0.035556721            5 
 1114000    1.0869321   -6.2766642    473.24381  0.035401243  0.035547718            7 
 1115000    1.0791735   -6.2864551    472.72258  0.035330536   0.03553878            8 
 1116000    1.0783746   -6.2685931    472.62297  0.035291441  0.035530012            4 
 1117000    1.0535703    -6.281467    475.61445  0.035483024  0.035521238            4 
 1118000     1.047092   -6.2717963    475.18884  0.035419562  0.035512492            3 
 1119000    1.0610432   -6.3098458    474.58134  0.035342667  0.035503545           10 
 1120000    1.0841069   -6.2683759     475.3345   0.03536715  0.035494703            3 
 1121000    1.0708257   -6.2509461     474.5952  0.035280643  0.035485768            4 
 1122000    1.0645588   -6.2628233    475.18859   0.03529327  0.035476707            2 
 1123000    1.0736327   -6.2842113    476.09318  0.035328968  0.035467406            4 
 1124000    1.0961097   -6.2874518    475.01887  0.035217888  0.035458086            7 
 1125000    1.0440108   -6.2524378    474.90968  0.035178495  0.035448645            2 
 1126000    1.0886565   -6.2546626    476.34197  0.035253254   0.03543963            3 
 1127000    1.0943425   -6.2651211    476.76245  0.035253065  0.035430761            4 
 1128000    1.1031802   -6.2932816    475.85703  0.035154922  0.035421849            5 
 1129000    1.0525023   -6.2825244    475.80174  0.035119703    0.0354126            7 
 1130000    1.0691261   -6.2292216    478.21453  0.035266559  0.035403393            6 
 1131000    1.0744081    -6.254867    477.80996  0.035205567  0.035394082            3 
 1132000    1.0522397   -6.3097336    476.67191  0.035090688   0.03538481            4 
 1133000    1.0463919   -6.2780838    477.81143   0.03514353  0.035375394            7 
 1134000    1.0821065   -6.2607333    478.78521  0.035184098   0.03536632            4 
 1135000    1.0885078   -6.2961079    478.28573  0.035116427  0.035357133            5 
 1136000    1.0457341   -6.2470185    479.78341  0.035195379   0.03534811            4 
 1137000    1.0542188   -6.2806703    480.47029  0.035214768  0.035339049            2 
 1138000    1.1073633   -6.2925566    479.27959  0.035096631  0.035329932            3 
 1139000    1.0653998   -6.2812221    480.52282  0.035156777  0.035320899            6 
 1140000     1.070879   -6.2884373    479.91881  0.035081785  0.035311844            3 
 1141000    1.0705099   -6.2900515     480.6934   0.03510761  0.035302824            4 
 1142000    1.0685521   -6.2632429    481.74636  0.035153704   0.03529383            2 
 1143000    1.0506206   -6.3012085    480.76119  0.035051122  0.035284852            3 
 1144000    1.0709772   -6.2861514     481.9396  0.035106323  0.035275591            2 
 1145000    1.0847501   -6.2889425    482.76958  0.035136068  0.035266484            1 
 1146000    1.0509962   -6.3081946    481.50792  0.035013665  0.035257285            4 
 1147000    1.0582445   -6.3034842    480.67688  0.034922761  0.035247968            2 
 1148000    1.0784343   -6.3222019    481.74068  0.034969561  0.035238471            4 
 1149000    1.0640513   -6.2474568     483.2844  0.035051088  0.035229185            3 
 1150000    1.0420283   -6.2901875    483.27607  0.035020005  0.035220005            5 
 1151000    1.0591103   -6.2987931    482.33389  0.034921365   0.03521077            2 
 1152000    1.0802494   -6.2662328    483.37745   0.03496654  0.035201772            3 
 1153000    1.0606496   -6.2782014    485.25595  0.035071982  0.035192764            2 
 1154000    1.0583863   -6.3265014     483.2276  0.034895118  0.035183391            7 
 1155000    1.0675084   -6.3029311    484.71882  0.034972497  0.035173872            5 
 1156000    1.0589245    -6.250633     485.9146  0.035028446  0.035164854            2 
 1157000    1.0728706   -6.2945825    485.90962  0.034997812  0.035155851            2 
 1158000    1.0847915   -6.2777609    486.25256  0.034992268  0.035146499            3 
 1159000    1.0763354    -6.290121    485.95398  0.034940609  0.035137355            3 
 1160000    1.0617906   -6.2922894    487.17962  0.034998536  0.035128287            6 
 1161000    1.0524852   -6.2985605    484.09051  0.034746663  0.035119095            4 
 1162000     1.060059   -6.2903659    486.60019  0.034896743  0.035109878            3 
 1163000    1.0611276   -6.2762695    489.20385    0.0350533  0.035100904            3 
 1164000    1.0755404   -6.2931348    488.78417   0.03499314  0.035091983            3 
 1165000    1.1093465   -6.2827513    488.67524   0.03495531   0.03508308            4 
 1166000    1.0413319   -6.3022235    489.38802  0.034976273  0.035074431            2 
 1167000    1.0547696   -6.2794257    489.52007  0.034955732  0.035065604            5 
 1168000    1.0671481   -6.2670889    490.52356    0.0349974   0.03505687            3 
 1169000    1.0214563   -6.3004373    490.71651  0.034981217  0.035048115            3 
 1170000    1.0761879    -6.356455    489.09684  0.034835957  0.035039308            4 
 1171000    1.0565316   -6.2604225    491.23537  0.034958395  0.035030384            4 
 1172000    1.0624288   -6.2540209    491.72051  0.034963062  0.035022082            4 
 1173000    1.0739817   -6.3084304    491.93993  0.034948844  0.035013723           10 
 1174000    1.0513206   -6.2919733    491.91803  0.034917521   0.03500534            2 
 1175000    1.0583629   -6.2772502    492.31853  0.034916207  0.034997008            3 
 1176000    1.0643344   -6.2698089    493.75509  0.034988314  0.034988631            4 
 1177000    1.0661635   -6.2951896    492.14888  0.034844866  0.034980145            2 
 1178000    1.0498769   -6.2778397    494.66359   0.03499318  0.034971847            3 
 1179000     1.073227   -6.3370968      493.528  0.034883234  0.034963574            2 
 1180000    1.0728841   -6.2679075    495.10927  0.034965344  0.034955497            5 
 1181000     1.059974   -6.3192577    493.99052  0.034856797  0.034947192            2 
 1182000    1.0454021     -6.31066    494.15807  0.034839119   0.03493879            2 
 1183000    1.0739451   -6.3152913    493.84868  0.034787875  0.034930051            4 
 1184000    1.0534404   -6.3073219    495.23043  0.034855746  0.034921226            2 
 1185000    1.0720637   -6.2982308    494.43481  0.034770381  0.034912312            4 
 1186000    1.0686277   -6.3058096    494.72429  0.034761403   0.03490348            2 
 1187000    1.0824349   -6.3084611    495.75843   0.03480472  0.034894632            2 
 1188000    1.0513657   -6.2997324    495.50739  0.034757813  0.034885732            4 
 1189000    1.0905782   -6.2879277    495.13558  0.034702521  0.034877101            4 
 1190000    1.0971284   -6.2697699    497.98289  0.034872752  0.034868547            4 
 1191000    1.0714215   -6.2741222    497.59702  0.034816472  0.034860028            5 
 1192000    1.0616634   -6.2544459    499.01698  0.034886534  0.034851473            3 
 1193000     1.064271   -6.2856628    497.91314  0.034780186  0.034843164            2 
 1194000    1.0473562   -6.3239271    497.33847  0.034710948  0.034834584            3 
 1195000    1.0626482   -6.3037774    498.65761  0.034773892  0.034826279            2 
 1196000    1.0569404   -6.3051112    499.24028  0.034785415  0.034817827            2 
 1197000    1.0541998   -6.3003868      499.688  0.034787524  0.034809364            8 
 1198000     1.045805   -6.2996976    500.79719  0.034835642   0.03480103            2 
 1199000    1.0505595   -6.2814301    501.73982  0.034872103  0.034792866            3 
 1200000    1.0742005   -6.3000828    500.39053  0.034749343  0.034784686            4 
 1201000    1.0398464   -6.2633731    502.21271  0.034846843  0.034776318            3 
 1202000    1.0693915   -6.3031414    502.09478  0.034809677  0.034768168            1 
 1203000    1.0661651   -6.3174047    500.65895   0.03468128  0.034759838            9 
 1204000    1.0613057   -6.3075802    501.51698  0.034711862  0.034751557            6 
 1205000    1.0434598   -6.3054775    500.91866  0.034641678  0.034743127            4 
 1206000    1.0643052   -6.3326593    500.94325  0.034614652  0.034734624           12 
 1207000    1.0385384   -6.2952365    501.95692  0.034655959  0.034726088            9 
 1208000    1.0783151    -6.322733    501.98228  0.034629021  0.034717823            6 
 1209000    1.0485579   -6.3097975    504.50776  0.034774453  0.034709558            5 
 1210000    1.0492733   -6.2937302    506.45708  0.034879964  0.034701514            4 
 1211000    1.0577181    -6.302958    506.31892  0.034841654    0.0346933            3 
 1212000     1.065863   -6.2767977    505.55199  0.034760175  0.034685139            4 
 1213000    1.0455519   -6.3317399    503.22816  0.034571871  0.034676974           13 
 1214000    1.0607886   -6.3252014     504.2817  0.034615712  0.034668735            4 
 1215000    1.0524518   -6.3149372    503.86757  0.034558818  0.034660492            5 
 1216000    1.0445996    -6.308712    506.80941  0.034732005  0.034652171            5 
 1217000    1.0855929   -6.3420023    505.99288  0.034647554  0.034643906            4 
 1218000      1.05609   -6.3622408    504.94744  0.034547581  0.034635464            3 
 1219000    1.0685981    -6.268266     507.6327   0.03470281  0.034627374            5 
 1220000    1.0501439    -6.286583    506.60899  0.034604439  0.034619158            1 
 1221000    1.0428197   -6.3178418    506.15362  0.034545019   0.03461097            3 
 1222000    1.0763319   -6.3096996    508.53759  0.034679323  0.034602845            8 
 1223000    1.0437893   -6.3270219     508.4796  0.034647016  0.034594618            8 
 1224000    1.0598316   -6.2975467    507.57785  0.034557315  0.034586429            4 
 1225000    1.0276357   -6.2964659    510.02508  0.034695584  0.034578154            7 
 1226000    1.0603078   -6.3333096    507.74804   0.03451251  0.034569904            2 
 1227000    1.0602454   -6.3485085    508.49168  0.034534887  0.034561623            5 
 1228000    1.0654154   -6.2876175     510.1695  0.034620623  0.034553548            3 
 1229000     1.059116   -6.3008982    509.71623  0.034561719  0.034545403            3 
 1230000    1.0632342   -6.3177526    509.46218  0.034516408  0.034537359            4 
 1231000      1.03073   -6.3044928      510.304  0.034545356  0.034529313            8 
 1232000    1.0643889   -6.3307878     511.0202  0.034565761  0.034520737            5 
 1233000    1.0663393   -6.3154472    512.10088  0.034610765  0.034512482            3 
 1234000    1.0757702   -6.3111405    511.75999  0.034559697  0.034504596            4 
 1235000     1.058191   -6.3166905    510.79097  0.034466327  0.034496511            2 
 1236000    1.0572376    -6.297563    512.41666  0.034548049  0.034488664            4 
 1237000    1.0589904   -6.2689006    514.72759  0.034675801  0.034480778            5 
 1238000    1.0586768   -6.3049587    514.00073  0.034598865  0.034472878            5 
 1239000    1.0389801   -6.3366395    512.03947  0.034439028  0.034465122            4 
 1240000    1.0469038   -6.3303372    512.68322  0.034454517  0.034457187            4 
 1241000    1.0470445   -6.2849695    514.45599  0.034545796  0.034449179            4 
 1242000    1.0391847   -6.3444226    514.47622  0.034519339  0.034441713            3 
 1243000      1.06472   -6.3125008    515.17959  0.034538723  0.034433926            4 
 1244000    1.0381294   -6.3199271    514.69357  0.034478401  0.034426068            4 
 1245000    1.0473033   -6.2933924    517.18859   0.03461771  0.034418352            2 
 1246000    1.0354944   -6.3270586     515.1708  0.034454976  0.034410759            6 
 1247000    1.0418068   -6.3143677    516.09161  0.034488881  0.034403022            6 
 1248000    1.0364448   -6.3513725     514.7308  0.034370379  0.034395151            4 
 1249000    1.0750635   -6.3318713    516.78273  0.034479766  0.034387087            4 
 1250000    1.0438607   -6.3365562    516.85214  0.034456809  0.034379109            4 
 1251000    1.0857848   -6.2793723    517.95716  0.034502875  0.034371236            4 
 1252000     1.064006   -6.3206029    517.03833   0.03441416   0.03436334            3 
 1253000    1.0361047   -6.3377571     515.8597  0.034308307  0.034355541            4 
 1254000    1.0616472    -6.307437    518.54336  0.034459288  0.034347579            1 
 1255000    1.0498347   -6.3032784     517.8948  0.034388765  0.034339717            2 
 1256000    1.0644858   -6.3187916    518.88676    0.0344272   0.03433201            4 
 1257000    1.0404381   -6.3384869     518.8305  0.034396082  0.034324216            2 
 1258000    1.0382326   -6.3639738     517.9418   0.03430987   0.03431644            3 
 1259000    1.0303815   -6.3167909    521.01414  0.034485977  0.034308569            3 
 1260000    1.0699093   -6.2984192    520.61919  0.034432486  0.034300759            2 
 1261000    1.0562199   -6.3586242     520.2119  0.034378264  0.034292928            4 
 1262000    1.0410032   -6.3418972    519.83438  0.034326095  0.034285132            4 
 1263000    1.0652305   -6.3235197    519.65335  0.034286972  0.034277309            3 
 1264000     1.085438   -6.3095635    521.63869  0.034390736  0.034269581            3 
 1265000    1.0392445   -6.3149312    522.74833  0.034436649  0.034261801            2 
 1266000    1.0592884    -6.331078    521.73563  0.034342787  0.034253928            5 
 1267000    1.0388937    -6.294094    523.74983   0.03444816  0.034246347            2 
 1268000    1.0435091   -6.3647879    521.79715  0.034292662  0.034238761            7 
 1269000    1.0408039   -6.3652793    522.21847  0.034293306  0.034231009            5 
 1270000    1.0370542   -6.3448721    523.50907  0.034350989  0.034223407            5 
 1271000    1.0603301   -6.3470283    523.21287  0.034304542  0.034215836            4 
 1272000    1.0375304   -6.3522724    522.83905  0.034253082  0.034208114            4 
 1273000    1.0604707    -6.314932    524.43872  0.034330893  0.034200342            5 
 1274000    1.0569057   -6.3354919    524.78899  0.034326857  0.034192786            4 
 1275000     1.071827   -6.2984199    526.05669   0.03438279  0.034185292            3 
 1276000    1.0530863   -6.3697508    523.73782  0.034204403  0.034177776            4 
 1277000    1.0260002   -6.3406752    525.36446  0.034283768  0.034170272            4 
 1278000    1.0376221   -6.3662714    525.60183   0.03427242   0.03416297            3 
 1279000    1.0521954   -6.3638037    525.65911  0.034249356  0.034155682            2 
 1280000    1.0408185   -6.4007808    524.83432  0.034168901  0.034148203            3 
 1281000    1.0653268   -6.3908011    526.07661  0.034223043  0.034140556            2 
 1282000    1.0418426   -6.3284903    528.39734  0.034347201  0.034132858            3 
 1283000    1.0224375   -6.3334196    527.90566  0.034288495  0.034125455            3 
 1284000    1.0410105   -6.3455406    528.61918  0.034308098  0.034118067            9 
 1285000     1.035185   -6.3487322    529.56045  0.034342442   0.03411071            5 
 1286000    1.0666776    -6.329263    529.77607  0.034329709   0.03410346            2 
 1287000    1.0565326   -6.3382556    529.87196  0.034309244  0.034096503            3 
 1288000     1.044939   -6.3526463      528.547  0.034196881  0.034089446            4 
 1289000    1.0706264   -6.3628355    529.61354  0.034239303  0.034082269            4 
 1290000      1.04846   -6.3777852     531.5375  0.034337048  0.034075179            3 
 1291000    1.0817905   -6.3826042    531.16488  0.034286398  0.034067749            3 
 1292000    1.0412833   -6.3411974    529.92929  0.034180166  0.034060628            3 
 1293000    1.0405851   -6.3014413    535.03733  0.034482942  0.034053525            3 
 1294000    1.0582825   -6.3408474    530.65506  0.034174077  0.034046492            2 
 1295000    1.0332972   -6.3087464    532.31048  0.034254214  0.034039334            2 
 1296000    1.0077032   -6.3334483    532.26788  0.034225044   0.03403225            4 
 1297000    1.0439944   -6.3656232    532.02888    0.0341833  0.034024983            4 
 1298000    1.0414603   -6.3014368    534.93037  0.034343244  0.034017624            5 
 1299000    1.0411321   -6.3515679    532.30421  0.034148333   0.03401036            6 
 1300000    1.0526036   -6.3212433    532.99868  0.034166582  0.034002853            3 
 1301000    1.0669906    -6.360486    534.86002  0.034259545  0.033995607            8 
 1302000    1.0681119   -6.3849693    534.13041  0.034186534  0.033988268            3 
 1303000    1.0401166    -6.371841    533.61519  0.034127347  0.033981047            3 
 1304000    1.0281621   -6.3796614    532.18221  0.034009599  0.033973912            3 
 1305000    1.0626476   -6.3494597    533.68399  0.034079437  0.033966604            6 
 1306000    1.0592204   -6.3162998     535.5061  0.034169608  0.033959525            5 
 1307000    1.0586143   -6.3151332     536.1068  0.034181765  0.033952197            4 
 1308000    1.0287675   -6.3775792    533.24115   0.03397306  0.033944873            8 
 1309000    1.0197291   -6.3491838    537.12849  0.034194582  0.033937541            5 
 1310000    1.0502507   -6.3372955    538.01918  0.034225139  0.033930356            2 
 1311000    1.0494878   -6.3129281    537.62864  0.034174208  0.033923325            2 
 1312000    1.0448373   -6.3547325    536.98276  0.034107137  0.033916247            2 
 1313000    1.0416065   -6.3478588    537.97947  0.034144419  0.033909151            3 
 1314000    1.0563734   -6.3335555    539.61484  0.034222149   0.03390201            5 
 1315000     1.019251   -6.3624644    539.43918  0.034184993  0.033895031            3 
 1316000    1.0274148   -6.3801312    539.34757  0.034153215  0.033888111            5 
 1317000    1.0472548    -6.386358    539.46736  0.034134862  0.033881433            4 
 1318000    1.0136599   -6.3384016    541.58975  0.034243156  0.033874838            4 
 1319000     1.033883   -6.3458289    541.75178  0.034227431  0.033868269            2 
 1320000    1.0480208   -6.3485798    542.41191  0.034243176  0.033861628            2 
 1321000    1.0333651   -6.3285283    541.34346  0.034149853  0.033855151            3 
 1322000    1.0362909   -6.3842143    542.11421  0.034172605  0.033848609            4 
 1323000    1.0338947   -6.3267486    542.48331  0.034170024   0.03384183            2 
 1324000    1.0206465   -6.3629626    542.99197  0.034176232  0.033835004            3 
 1325000    1.0420245   -6.3889711    541.59844  0.034062795  0.033828086           11 
 1326000    1.0330462   -6.3384049    545.15858  0.034260846  0.033821336            3 
 1327000    1.0471176   -6.3579949    542.58357  0.034073321  0.033814476            3 
 1328000    1.0304787   -6.3542876    541.85644  0.034002036  0.033807671            3 
 1329000    1.0508294   -6.3847559    542.58312  0.034022017   0.03380068            5 
 1330000    1.0434612   -6.3812709    543.55479  0.034057318  0.033793708            5 
 1331000    1.0642576   -6.3644449     544.4344  0.034086802  0.033786809            3 
 1332000      1.02819   -6.3363266     545.6045  0.034134416  0.033780023            3 
 1333000    1.0622641   -6.3427056    544.20755  0.034021477  0.033773208            3 
 1334000    1.0196947   -6.3787685    544.05286   0.03398631  0.033766454            2 
 1335000    1.0279227   -6.3379713    546.19397  0.034094505  0.033759599            4 
 1336000    1.0192191   -6.3236509    547.89044  0.034174803   0.03375318            3 
 1337000     1.029498   -6.3582458    547.92257  0.034151245  0.033746642            4 
 1338000    1.0248395   -6.3301474    547.28399  0.034085948  0.033739771            7 
 1339000    1.0353269   -6.3726028    546.16728  0.033990993  0.033733012            5 
 1340000    1.0357246   -6.3801962    546.52762  0.033988036  0.033726289            4 
 1341000    1.0319158    -6.338043    550.07066  0.034182865  0.033719679            6 
 1342000    1.0316738   -6.3574936    547.85065  0.034019539  0.033712889            4 
 1343000    1.0391272   -6.3425767    547.50028  0.033972467  0.033706417            2 
 1344000    1.0126036   -6.3563304    549.29695  0.034058591   0.03370022            2 
 1345000    1.0556718   -6.3349293    549.76958  0.034062552  0.033693852            5 
 1346000    1.0429478   -6.3400702    550.18459  0.034062939  0.033687487            4 
 1347000    1.0418836   -6.3611927    549.87742  0.034018648  0.033680894            3 
 1348000     1.040321   -6.3898877    550.86993  0.034054768  0.033674431            6 
 1349000    1.0564982   -6.3581258    551.57494  0.034073075  0.033668164            5 
 1350000    1.0356126   -6.3494275    551.62247   0.03405077  0.033661777            2 
 1351000    1.0276364   -6.3743286    554.03464  0.034174355   0.03365531            9 
 1352000    1.0164252   -6.3582692     551.7636  0.034009098  0.033648739            5 
 1353000    1.0391272   -6.3690826    551.08189  0.033941974  0.033642408            2 
 1354000    1.0358527   -6.3895781    551.33341  0.033932386  0.033635969            6 
 1355000    1.0453888   -6.4131549    551.97759  0.033946961  0.033629536            3 
 1356000    1.0150639   -6.3899634    552.75039  0.033969419  0.033622969            4 
 1357000    1.0562855   -6.3779993    554.45076  0.034048806  0.033616846            3 
 1358000    1.0332965   -6.3657611     553.1202  0.033942084  0.033610724            3 
 1359000    1.0666301   -6.3464753     556.6387  0.034132861  0.033604514            4 
 1360000    1.0372565   -6.3443822    557.07733   0.03413464  0.033598502            5 
 1361000    1.0476714   -6.3548725    555.41972  0.034008065  0.033592325            2 
 1362000    1.0191422   -6.3748746    557.38754  0.034103496  0.033585992            3 
 1363000    1.0014164   -6.3839485    556.11753  0.034000827  0.033579634            6 
 1364000    1.0348341   -6.3973021    555.68197   0.03394929  0.033573335            8 
 1365000    1.0507594   -6.3758575    556.29957  0.033962123  0.033567073            5 
 1366000    1.0273773   -6.3812139     556.7262  0.033963287  0.033560608            3 
 1367000    1.0256888   -6.3618493    556.50367  0.033924876  0.033554281            3 
 1368000    1.0465553    -6.384957    556.83176  0.033920064  0.033548039            3 
 1369000    1.0329698   -6.3294696    558.70999  0.034009617    0.0335417            6 
 1370000    1.0410744   -6.3908165    555.93523  0.033816012  0.033535282            3 
 1371000    1.0417363   -6.3528314    558.42042  0.033942403  0.033528874            3 
 1372000    1.0355161   -6.3593293    556.73159  0.033815087  0.033522465            3 
 1373000    1.0297896   -6.4111553    557.16927  0.033817023    0.0335162            5 
 1374000    1.0544312   -6.3677049    558.73429   0.03388733  0.033509728            4 
 1375000    1.0560691   -6.3698973    559.24592  0.033893692  0.033503164            4 
 1376000    1.0378872   -6.3730091    556.74859  0.033717817  0.033496722            5 
 1377000    1.0316098   -6.3417463    559.72169  0.033873257  0.033490318            4 
 1378000    1.0285114   -6.3564297    560.17762  0.033876247    0.0334839            2 
 1379000    1.0281473   -6.3932361    559.54626  0.033813528  0.033477503            4 
 1380000    1.0378343   -6.4357172    558.78415  0.033743004  0.033470916            5 
 1381000    1.0195029   -6.3471313    559.78264  0.033778822  0.033464603            4 
 1382000    1.0136716   -6.3637169     562.3433  0.033908785  0.033458126            6 
 1383000     1.041151   -6.3784275     560.1859  0.033754272  0.033451693            3 
 1384000    1.0152458   -6.3536198    558.40516  0.033622661   0.03344508            5 
 1385000    1.0185338   -6.3246033     564.1396  0.033943418  0.033438445            3 
 1386000     1.031512   -6.3633135    562.44958  0.033817315  0.033432158            3 
 1387000    1.0316408   -6.3654736    560.86506  0.033697733  0.033425859            4 
 1388000    1.0521652   -6.3731822    561.49585  0.033711326  0.033419582            2 
 1389000     1.024725   -6.3247454    564.93578  0.033893435  0.033413223            3 
 1390000    1.0373769   -6.3467951    562.24654  0.033707826  0.033406844            6 
 1391000    1.0365595   -6.3562666    563.58533  0.033763799    0.0334005            5 
 1392000    1.0484229    -6.364549    564.62834  0.033801984  0.033394104            4 
 1393000    1.0279257   -6.3776979    564.55265  0.033773191  0.033387878            3 
 1394000    1.0356179   -6.3906521    563.11841  0.033663224  0.033381277            3 
 1395000    1.0377099    -6.392352    563.28478  0.033649031  0.033374772            4 
 1396000    1.0551807   -6.4018283    562.36912  0.033570267  0.033368291            6 
 1397000    1.0249047   -6.3839752    563.28155  0.033600665  0.033361721            3 
 1398000    1.0398266   -6.3969028    565.93047   0.03373453   0.03335506            5 
 1399000    1.0590181   -6.4008968    564.94995  0.033652011  0.033348708            6 
 1400000    1.0324218   -6.4186537    564.34689  0.033592077  0.033342088            6 
 1401000    1.0101785   -6.3886479    563.85261  0.033538699  0.033335453            3 
 1402000    1.0327061   -6.4039553    565.33358  0.033602804  0.033328844            2 
 1403000    1.0342936    -6.383031    566.12344  0.033625769  0.033322185            5 
 1404000    1.0100583   -6.3854074    566.71397  0.033636869  0.033315614            5 
 1405000    1.0626001   -6.4228522    564.64079  0.033489964  0.033308955            2 
 1406000    1.0196794   -6.4054886    566.08988  0.033552032  0.033302006            3 
 1407000    1.0024889   -6.4077042    565.42576  0.033488851  0.033295088            3 
 1408000    1.0241997   -6.3934472    566.73525  0.033542569  0.033288118            2 
 1409000    1.0111869   -6.4051213     565.2046  0.033428235  0.033281205            2 
 1410000    1.0262581   -6.3842687    566.08469  0.033456542  0.033273942            3 
 1411000     1.003363   -6.3982462    565.85524  0.033419279  0.033266866            2 
 1412000    1.0328383   -6.3931536    566.40998  0.033428351  0.033259777            2 
 1413000    1.0221283   -6.3997529     567.9714   0.03349678  0.033252713            5 
 1414000    1.0453323   -6.4080529    565.95225  0.033354093  0.033245511            3 
 1415000    1.0233188   -6.3828779    568.84741  0.033501025  0.033238445            3 
 1416000    1.0113827   -6.3728805    568.88974  0.033479857  0.033231451            5 
 1417000    1.0170488   -6.3981839    568.42169  0.033428704  0.033224479            4 
 1418000    1.0281655   -6.3709824    570.00249  0.033498031   0.03321754            4 
 1419000     1.025627   -6.3863306    571.59054  0.033567685  0.033210415            4 
 1420000    1.0414524   -6.3914307    570.01178  0.033451396   0.03320342            3 
 1421000    1.0047256   -6.3939686    568.45782  0.033336724  0.033196307            6 
 1422000    1.0230397   -6.4119567    568.08117  0.033291208  0.033189297            4 
 1423000    1.0030976   -6.3975717    569.59112  0.033356238  0.033182268            4 
 1424000    1.0108878   -6.3894394    569.03689   0.03330038  0.033175008            2 
 1425000    1.0334646   -6.3759363    569.86133  0.033325224  0.033167806            2 
 1426000    1.0421949   -6.3771286     570.3567  0.033330803  0.033160362            7 
 1427000    1.0481836    -6.367093    570.66153  0.033325247   0.03315298            6 
 1428000    1.0137311   -6.3825273    570.97331  0.033320104  0.033145646            2 
 1429000    1.0177889   -6.4068238    569.34738   0.03320197   0.03313816            2 
 1430000    1.0294401   -6.4086081    569.09546  0.033164071  0.033130663            6 
 1431000     1.027536   -6.4405427    569.57249  0.033168675  0.033123167            4 
 1432000    1.0114706   -6.4052994    568.97548   0.03311077  0.033115486            3 
 1433000    1.0171554   -6.3766584    572.79626  0.033309855  0.033107969            3 
 1434000    1.0308182   -6.3872056    572.40058  0.033263632  0.033100342            5 
 1435000    1.0239923   -6.4057799    571.69668  0.033199575  0.033092721            7 
 1436000    1.0166211   -6.4306484    570.30982  0.033095974  0.033085124            5 
 1437000    1.0177562   -6.4352833    569.82143   0.03304462  0.033077524            4 
 1438000    1.0131368   -6.4103878    571.55098   0.03312187  0.033069852            2 
 1439000    1.0266505   -6.4135934    571.44304  0.033092601  0.033062385            3 
 1440000    1.0437554   -6.3888393    572.08514  0.033106779  0.033055005            4 
 1441000    1.0189084   -6.4397941    571.69744  0.033061383  0.033047663            4 
 1442000    1.0034143   -6.4436602    573.41151  0.033137512  0.033040078            3 
 1443000    1.0164332   -6.3920827    574.27521  0.033164427  0.033032614            7 
 1444000    1.0408362   -6.3741755    575.26535    0.0331986  0.033025262            4 
 1445000    1.0264857   -6.4416831    574.27814  0.033118693  0.033017944            6 
 1446000    1.0001888   -6.3927367    573.26943  0.033037657  0.033010513            5 
 1447000    1.0053115   -6.4126284    574.38194  0.033078896  0.033003035            6 
 1448000    1.0135147    -6.410071    575.93818  0.033145614  0.032995514            3 
 1449000    1.0107976   -6.3848229    574.44651  0.033036951  0.032988053            2 
 1450000    1.0193813   -6.3819705    574.56916  0.033021216  0.032980616            5 
 1451000    1.0238225   -6.3585899     577.7218   0.03317952  0.032973122            8 
 1452000    1.0258422   -6.4262547    574.63305  0.032979399  0.032965678            5 
 1453000    1.0402112   -6.4387789    574.99426  0.032977418  0.032957918            5 
 1454000    1.0224728   -6.4040819    577.16309   0.03307904  0.032950324            5 
 1455000      1.00197   -6.3866311    576.13301  0.032997309  0.032942778            3 
 1456000    1.0551089   -6.4341936    576.85133  0.033015759  0.032935315           14 
 1457000     1.009901   -6.3663839    577.51363  0.033030979  0.032927878            2 
 1458000     1.037142    -6.394423    577.54162  0.033009924  0.032920506            5 
 1459000     1.053645   -6.4033138    578.01928   0.03301458  0.032913062            3 
 1460000    1.0038478   -6.3969953    580.49585  0.033133325   0.03290561            3 
 1461000    1.0100641   -6.4177632    578.81815  0.033014953  0.032898187            4 
 1462000    1.0343592   -6.4720651    575.56241  0.032806795  0.032890503            3 
 1463000    1.0002364   -6.4334559    578.42605  0.032947485  0.032882902            6 
 1464000    1.0120036   -6.4327523    581.16642  0.033080966  0.032875363            3 
 1465000     1.001014   -6.4158435    579.44858   0.03296067  0.032867989            5 
 1466000    1.0192176   -6.4037838    581.91765  0.033078538  0.032860486            4 
 1467000    1.0194873   -6.3844243    580.88271    0.0329972  0.032853091            3 
 1468000    1.0146092   -6.4171014    580.13975  0.032932547   0.03284561            3 
 1469000    1.0051414   -6.4016472    580.37028  0.032923206  0.032838111            4 
 1470000    1.0176175   -6.4060787    579.87413  0.032872683  0.032830388            6 
 1471000    1.0106357   -6.4044813    581.34975  0.032933931  0.032822642            8 
 1472000     1.015705   -6.4225485    579.62359  0.032813836  0.032815028            3 
 1473000     1.015336   -6.4304213    579.68018   0.03279476  0.032807273            4 
 1474000    1.0170899   -6.4068831    579.61999  0.032769108  0.032799271            3 
 1475000    1.0109081   -6.4282878    581.20405  0.032836387   0.03279138            3 
 1476000   0.99964625   -6.4282821    579.32233  0.032707901  0.032783451            3 
 1477000    0.9978295   -6.3885996    583.74564  0.032935321   0.03277574            3 
 1478000    1.0451573   -6.4038849    582.44299  0.032839591  0.032768202            2 
 1479000    1.0083659   -6.4251233    582.21711   0.03280466  0.032760651            2 
 1480000     1.034507   -6.4254907    584.75514  0.032925402  0.032753015            6 
 1481000    1.0100684   -6.4291705    583.90574  0.032855376  0.032745435            2 
 1482000    1.0100447   -6.3837682    586.13645   0.03295864  0.032738182            4 
 1483000    1.0030435   -6.4002417    585.12789  0.032879742  0.032730842            4 
 1484000    1.0018603   -6.4469538    583.73104  0.032779146  0.032723308            5 
 1485000    1.0163086   -6.4191562    585.81491  0.032874013  0.032715804            2 
 1486000      1.00814   -6.4223892    584.52138  0.032779351  0.032708203            3 
 1487000    1.0096528   -6.4221739    587.08953  0.032901229  0.032700728            3 
 1488000    1.0172337   -6.4132192    586.35711    0.0328381  0.032693556            5 
 1489000    1.0241641   -6.4000439    587.30865    0.0328693  0.032686426            3 
 1490000    1.0064149    -6.408941    586.54991  0.032804805  0.032679022            3 
 1491000   0.99867537   -6.4277305    584.28301  0.032656104  0.032671557            6 
 1492000    1.0289642   -6.4370587    585.84757  0.032721602   0.03266396            5 
 1493000    1.0032486   -6.4220418    589.01784  0.032876638  0.032656508            3 
 1494000   0.99029874   -6.4208559    589.78413  0.032897374  0.032649142            5 
 1495000   0.99901789   -6.4313922    587.47142  0.032746456  0.032641736            4 
 1496000    1.0011235   -6.4218019    588.23497  0.032767099  0.032634492            3 
 1497000   0.98758709   -6.4529322    589.60828  0.032821659  0.032627266            2 
 1498000    1.0097211   -6.4196646    588.21964  0.032722499  0.032620058            5 
 1499000   0.99969862   -6.4042087    591.63955  0.032890791  0.032612658            3 
 1500000    1.0098798   -6.3970022    590.07318  0.032781843  0.032605574            5 
 1501000    1.0270599   -6.4406419    589.43893  0.032724791  0.032598384            5 
 1502000   0.98955841   -6.4100624    591.70191  0.032828557  0.032591168            4 
 1503000    1.0151989   -6.4378868    593.01178   0.03287934   0.03258391            4 
 1504000    1.0139975    -6.409145    590.94158  0.032742774  0.032576688            2 
 1505000    1.0282709    -6.413911    590.23006   0.03268162  0.032569554            5 
 1506000    1.0268155    -6.463961    592.21066  0.032769514  0.032562263            4 
 1507000    1.0185276    -6.441761    591.18661  0.032691142  0.032554912            4 
 1508000     1.001985   -6.4154886    590.08841  0.032608776  0.032547472            3 
 1509000    1.0165399   -6.4366091    591.86725  0.032685401  0.032540077            2 
 1510000    1.0108851   -6.4167798    592.14141  0.032678886  0.032532641            3 
 1511000     1.012687   -6.4151415    592.34298  0.032668375  0.032525367            3 
 1512000    1.0141932    -6.440448     593.7593  0.032724829  0.032518107            3 
 1513000    1.0044159    -6.475947    592.21533  0.032618161  0.032510867            3 
 1514000    1.0009277   -6.4353302    592.84891   0.03263149  0.032503367            3 
 1515000    1.0179978   -6.4234777    594.44584  0.032697791  0.032496088            2 
 1516000   0.99901619   -6.4068281    594.77982  0.032694581   0.03248894            3 
 1517000    1.0044768   -6.4376109     595.3282  0.032703153  0.032481774            3 
 1518000    1.0105591   -6.4169207    593.22938  0.032566391  0.032474639            3 
 1519000   0.98350776   -6.4251503    594.77233  0.032629599  0.032467501            4 
 1520000    1.0090375   -6.4123753    595.91417  0.032670733  0.032460316            3 
 1521000   0.98993195   -6.4079295    598.40928  0.032785957  0.032453377            6 
 1522000    1.0077223   -6.4167437     596.6164  0.032666251  0.032446256            2 
 1523000     1.017862   -6.4825571    594.14001  0.032509302  0.032439073            6 
 1524000   0.99534228   -6.4014836    597.85145  0.032690915   0.03243183            7 
 1525000    1.0245091    -6.422747    598.17624  0.032687226  0.032424939            2 
 1526000    1.0266951   -6.4425018    598.74283  0.032696747  0.032417964            3 
 1527000    1.0039897   -6.4247611    597.10943  0.032586195  0.032410794            5 
 1528000    1.0084872   -6.4514314     596.6344  0.032538962   0.03240351            4 
 1529000    1.0069424   -6.4106665    598.42713  0.032615388  0.032396411            6 
 1530000    1.0108531   -6.3931757    599.67029   0.03266178  0.032389208            7 
 1531000    1.0116019    -6.478428    596.64073  0.032475546   0.03238208            5 
 1532000    1.0157117    -6.445137    599.32939  0.032600598  0.032374855            2 
 1533000    1.0099532   -6.4265537    599.51542  0.032589444   0.03236764            3 
 1534000    0.9841002   -6.4197286     600.1692  0.032603716  0.032360614            4 
 1535000    1.0042281   -6.5048324     597.7858  0.032453083  0.032353428            5 
 1536000     1.002632   -6.4259911     603.2795  0.032730007  0.032346534            3 
 1537000    1.0016497   -6.3969813     603.5491   0.03272333  0.032339639            3 
 1538000    1.0128667   -6.4452446     600.8335  0.032554914  0.032332783            5 
 1539000    1.0079142   -6.4292867    602.23126  0.032609447  0.032325895            4 
 1540000    1.0288254   -6.4318202    601.51705  0.032549624   0.03231888            4 
 1541000    1.0058078   -6.4507368    601.68628  0.032537653  0.032311709            4 
 1542000    1.0009709   -6.4459658    600.60166  0.032457937  0.032304619            8 
 1543000    1.0085409   -6.4250846    602.22472  0.032524558  0.032297537            3 
 1544000    1.0092706   -6.3996276    602.39096  0.032512466  0.032290454            5 
 1545000    1.0065897    -6.412126    603.17255  0.032533579   0.03228334            7 
 1546000   0.98605513   -6.4683723    600.24806  0.032354898    0.0322762           12 
 1547000    1.0011192   -6.4684854    602.35157  0.032447294  0.032268991            3 
 1548000    1.0133696   -6.4219389    605.27596  0.032583762  0.032261875            3 
 1549000    1.0043187   -6.4803162    602.22404  0.032398539  0.032254788            3 
 1550000    1.0053112   -6.4533683    604.62846  0.032506907  0.032247546            6 
 1551000    1.0071616   -6.4571437     606.3501  0.032578449   0.03224047           11 
 1552000   0.99939563   -6.4699963     602.5614  0.032354027  0.032233397            4 
 1553000    1.0131364   -6.4660013     603.9166  0.032405913  0.032226291            9 
 1554000    1.0042808   -6.4259276    606.55424  0.032526503  0.032219296            2 
 1555000    1.0087261   -6.4644558    605.99929  0.032475846  0.032212314            3 
 1556000    1.0377217   -6.4546463    604.82555  0.032392114  0.032205286            2 
 1557000   0.99821488   -6.4604476    606.40775  0.032455992  0.032198328            5 
 1558000   0.99789669   -6.4822992    606.27589  0.032428107  0.032191313            5 
 1559000   0.99111623   -6.4621212     605.5674  0.032369435  0.032184245            2 
 1560000   0.99300827   -6.4634726    605.46587  0.032343262    0.0321771            2 
 1561000   0.99695524   -6.4544391    606.66433  0.032386522      0.03217            5 
 1562000    1.0154016   -6.4745925    606.35454   0.03234926  0.032162796            6 
 1563000    1.0153254    -6.427336    609.74504  0.032509332  0.032155761            5 
 1564000    0.9907858   -6.4410259    608.87035  0.032441941  0.032148767            3 
 1565000   0.98089313   -6.4540875    608.36412  0.032394255  0.032141665            2 
 1566000     1.001862   -6.4868736    605.18285  0.032204281  0.032134561            5 
 1567000    1.0056372    -6.423993    608.05795  0.032336628  0.032127373            2 
 1568000    1.0036424   -6.4457972    609.09414  0.032371075  0.032120284            5 
 1569000   0.99710903   -6.4261909    608.53132   0.03232055  0.032113358            6 
 1570000   0.98922381   -6.4620727     608.2304  0.032283992  0.032106141            2 
 1571000    1.0117597   -6.4975298    604.79311  0.032081111  0.032098757            4 
 1572000   0.99012254   -6.4399753    608.40468  0.032252156   0.03209142            7 
 1573000    1.0042336   -6.4729075    608.04764  0.032212738   0.03208407            5 
 1574000    1.0016785   -6.4646649    606.73991  0.032123037  0.032076646            9 
 1575000   0.99748824   -6.4493967    607.27033  0.032130705   0.03206905            5 
 1576000    1.0053212   -6.4728805    607.88706  0.032142928  0.032061356            3 
 1577000   0.97658521   -6.5069573    607.69231  0.032112255  0.032053824            9 
 1578000   0.98300684   -6.4568684     610.9455  0.032263704  0.032046297            6 
 1579000   0.97997801   -6.4737429    608.53348  0.032115974  0.032038765            3 
 1580000     0.973415   -6.4651849    608.45346  0.032091427  0.032031334            4 
 1581000   0.99044489   -6.4612532    608.89267  0.032094279  0.032023829            6 
 1582000   0.98937161    -6.427762    610.74942  0.032171798  0.032016288            6 
 1583000    1.0036788   -6.4669204    609.40696  0.032080804  0.032008588            4 
 1584000   0.98721725   -6.4447182    611.43166   0.03216707  0.032001021            4 
 1585000      1.00188   -6.4922254    608.40949  0.031987881  0.031993512            3 
 1586000   0.99801187    -6.486857    607.79553  0.031935452  0.031985728            4 
 1587000   0.99498804    -6.458609    610.04157  0.032033269  0.031978242            7 
 1588000   0.99242729   -6.4742966     610.2878  0.032026018  0.031970696            2 
 1589000    1.0136425   -6.4566859     612.5096  0.032122383  0.031963204            3 
 1590000   0.99522679   -6.4614922    611.29064  0.032038294  0.031955827            5 
 1591000     1.013856   -6.4714418    610.04441  0.031952881  0.031948325            3 
 1592000   0.98211221   -6.4547478    613.67204  0.032122699  0.031940899            7 
 1593000   0.99376633   -6.4497999    613.02704  0.032068793  0.031933548           10 
 1594000   0.99421083   -6.4679046    613.45371   0.03207098  0.031926322            3 
 1595000    1.0072813   -6.4824048    613.24465   0.03203995  0.031918776            3 
 1596000   0.97617573   -6.4668691    614.02146  0.032060436  0.031911213            4 
 1597000   0.99451312   -6.4833844    611.48766  0.031908143  0.031903586            3 
 1598000   0.99734662   -6.4632892    613.94528  0.032016337  0.031896172            3 
 1599000    1.0056475   -6.4874476    613.60265  0.031978458  0.031888546            3 
 1600000    1.0133068   -6.4941502    612.02986  0.031876555  0.031880753            5 
 1601000    1.0008554   -6.4778539    613.70853  0.031944021  0.031873171            6 
 1602000    1.0099472    -6.461597    614.46234  0.031963293  0.031865646            8 
 1603000   0.97984177   -6.4454422    613.47436  0.031891992  0.031858212            5 
 1604000    1.0123013   -6.4579027    616.61223  0.032035133  0.031850483            6 
 1605000    1.0110093   -6.4783092    613.85498  0.031872014  0.031842695            4 
 1606000   0.98670756    -6.478302     612.6739  0.031790883  0.031834915            6 
 1607000   0.99692465   -6.4939333    612.42641  0.031758267  0.031827072            2 
 1608000   0.99513286   -6.4620237    613.23164  0.031780247   0.03181922            5 
 1609000   0.96543066    -6.502649    612.42874  0.031718911  0.031811345            4 
 1610000    1.0289056   -6.4548191    615.25911  0.031845709  0.031803506            3 
 1611000    1.0038366   -6.4635631    613.03231  0.031710755  0.031795784            7 
 1612000   0.99943894   -6.4667797    614.71657  0.031778152  0.031787874            3 
 1613000   0.98119837   -6.4922316    614.48833  0.031746659  0.031779979            3 
 1614000   0.99515459   -6.4880736     614.1094  0.031707424  0.031772061            5 
 1615000    1.0034201   -6.4815889    615.70506  0.031770127  0.031764229            6 
 1616000   0.99078778   -6.4523137    617.67328  0.031851964  0.031756341            4 
 1617000   0.98893765   -6.4321617    616.77947  0.031786202  0.031748488            3 
 1618000    1.0138163   -6.4463852    618.09701  0.031834415   0.03174068            3 
 1619000   0.98093006   -6.5041584    616.05689  0.031709743  0.031732938            6 
 1620000   0.98773076   -6.4604572    617.28161  0.031753169   0.03172527            5 
 1621000    0.9924665   -6.4716985    618.09767  0.031775533  0.031717617            7 
 1622000   0.99129418   -6.5172231     617.5407  0.031727327  0.031709823            8 
 1623000   0.98687665   -6.4601248    618.31311  0.031747438  0.031702078            3 
 1624000   0.98624936   -6.5243519    616.78181  0.031649313  0.031694227            6 
 1625000   0.99113841     -6.47767    619.17747  0.031752691    0.0316864            5 
 1626000   0.99341766   -6.4914956    619.16519  0.031732533   0.03167847            3 
 1627000    0.9926907   -6.4900846    617.63878  0.031634848  0.031670656            2 
 1628000   0.99744082   -6.4533345     618.7361  0.031671586  0.031662897            1 
 1629000   0.97296074   -6.4567515    620.64245  0.031749665  0.031655165            3 
 1630000   0.99562224   -6.4860397    617.26907  0.031557723  0.031647226            7 
 1631000   0.98426574   -6.4930205    617.52501  0.031551452  0.031639035            4 
 1632000   0.98303133   -6.4739949    619.05496  0.031610241  0.031631022            2 
 1633000   0.98021545   -6.4906345    617.30487  0.031501575  0.031622909            7 
 1634000   0.99798544   -6.4596692    618.61024   0.03154887  0.031614965            3 
 1635000   0.98233296    -6.537102    617.13952  0.031454614  0.031606946            9 
 1636000    1.0044183   -6.4803753    619.74008  0.031567852  0.031598843            4 
 1637000   0.99285057   -6.4729483     621.1462  0.031620149  0.031590944            4 
 1638000   0.96292986   -6.4657572     619.0685  0.031495142  0.031582952            5 
 1639000   0.98116668   -6.5199203    618.61428  0.031452831  0.031574768            8 
 1640000   0.97469571   -6.5259805    619.20187   0.03146351  0.031566602            7 
 1641000   0.97619318   -6.5040494    619.34849  0.031451782  0.031558419            2 
 1642000     0.999963   -6.5030271    619.24765   0.03142751  0.031550296            4 
 1643000   0.97732216    -6.524216    620.15027  0.031454162     0.031542            8 
 1644000   0.98408152   -6.4437796    624.23034  0.031641846  0.031534082            4 
 1645000    0.9931339   -6.4815355     623.2146  0.031571155  0.031526203            8 
 1646000   0.96746638   -6.4657979    622.84621  0.031533324  0.031518441            3 
 1647000   0.98145171   -6.5059797     623.6887  0.031556805   0.03151062            9 
 1648000   0.98857088   -6.4841168    622.60421  0.031482818   0.03150264           11 
 1649000   0.97485266   -6.5216957    621.86918  0.031426581  0.031494681            6 
 1650000   0.98827859   -6.4842185    622.82684  0.031455901   0.03148677            2 
 1651000    1.0111722   -6.4860823    625.93286  0.031593623  0.031478905            3 
 1652000     1.004483   -6.5243937    625.17712  0.031536376  0.031471007            4 
 1653000    1.0150473   -6.5034557    624.78765  0.031497663  0.031463073            5 
 1654000   0.98902681   -6.5036241    623.87619  0.031432698  0.031455069            5 
 1655000    0.9893916   -6.4759886    624.12544  0.031426256  0.031447143            5 
 1656000    1.0012603   -6.4967185    623.36365  0.031368944  0.031439289            5 
 1657000   0.97848203   -6.4779186    625.21021  0.031442879  0.031431283            3 
 1658000    1.0078974   -6.4953935    624.53143  0.031389798  0.031423231            6 
 1659000    1.0069625   -6.4632763    625.10425  0.031399651  0.031415318            5 
 1660000   0.98353759   -6.4958547     625.4334  0.031397259  0.031407651            3 
 1661000    0.9783688   -6.4765102    625.27654  0.031370486  0.031399718            2 
 1662000    1.0010972   -6.5050465    625.46644  0.031361133  0.031391788            9 
 1663000   0.97960936   -6.5057619    625.49628   0.03134377  0.031383773            4 
 1664000    0.9801566   -6.4640128    628.08386   0.03145452   0.03137601            3 
 1665000   0.98895195   -6.4955499      626.792  0.031370971  0.031368274            5 
 1666000   0.97094543   -6.4978778    628.21405  0.031423272  0.031360521            4 
 1667000   0.98520878   -6.4543933    629.49966  0.031468689  0.031352746            3 
 1668000    1.0116167   -6.4809906    627.74494  0.031362157  0.031345095            2 
 1669000    0.9994884   -6.4886103    627.48615  0.031330445  0.031337419            3 
 1670000    1.0104211   -6.4906144     629.1175  0.031393089  0.031329847            9 
 1671000    0.9784512   -6.4704595    628.22035  0.031329561  0.031322192            3 
 1672000   0.99519795    -6.515152    630.90761  0.031444757  0.031314465            4 
 1673000   0.97280711   -6.4687345    630.45821  0.031403577  0.031306886            4 
 1674000   0.99217927   -6.5076149    629.01239  0.031312843  0.031299369            4 
 1675000   0.97956626   -6.5177806    629.05349  0.031296194  0.031291656            7 
 1676000    0.9912127   -6.5042006    629.98388  0.031323781  0.031283948            7 
 1677000   0.98304621   -6.5232212     628.6898  0.031240797  0.031276139            4 
 1678000   0.98481666   -6.4970043    630.41533  0.031307873  0.031268333            9 
 1679000    1.0005714   -6.4926234    627.98704  0.031168704  0.031260553            6 
 1680000   0.97624035   -6.5339444    630.55953  0.031277754   0.03125273            5 
 1681000   0.97083506   -6.5255506    630.19424  0.031241039  0.031244784            4 
 1682000   0.98047694    -6.479531    630.20695  0.031223095  0.031236909            3 
 1683000   0.98211346   -6.4844726    629.99691  0.031194143  0.031228966            3 
 1684000   0.97794417   -6.5232152     631.2412  0.031237193  0.031220939            4 
 1685000   0.97050294   -6.4882267    630.69614  0.031191698  0.031212847            3 
 1686000   0.97692765   -6.5056758    630.19085  0.031148223  0.031204727            3 
 1687000   0.99185772   -6.4961341    631.86626   0.03121252  0.031196673            4 
 1688000   0.97492452   -6.4967694    633.03286  0.031251622  0.031188624            2 
 1689000   0.98733572    -6.494234    630.65385  0.031115741  0.031180861            3 
 1690000   0.97511033   -6.4732038    632.06663  0.031166993  0.031172871            6 
 1691000   0.98273435   -6.5194889     632.8737  0.031188335  0.031164818            5 
 1692000   0.97879229   -6.4984017    632.74227  0.031163429  0.031156638            2 
 1693000   0.98973122   -6.5175192    631.64827  0.031091173  0.031148686            4 
 1694000   0.97206311   -6.5241164    632.99838  0.031139236  0.031140774            5 
 1695000   0.96091625   -6.5286073    632.11344  0.031077357  0.031132858            3 
 1696000   0.98036907   -6.5212373    633.09703  0.031107362  0.031124824            5 
 1697000   0.98942126   -6.4842949    631.84774  0.031027683  0.031116851            2 
 1698000   0.99244901   -6.5107639    633.89264  0.031109768   0.03110884            9 
 1699000   0.98329789   -6.5287938    632.43582  0.031020003   0.03110088            4 
 1700000   0.98479709   -6.4983636    633.53622  0.031055697  0.031093016            3 
 1701000   0.96948253   -6.5343982    633.87861  0.031054214  0.031085049            4 
 1702000   0.97432595   -6.4880059     637.1033  0.031193855  0.031077186            5 
 1703000    0.9760817   -6.5408005    633.73768  0.031010848  0.031069236            2 
 1704000   0.97463294   -6.5121658    634.20157  0.031015335  0.031061244            3 
 1705000   0.99094461   -6.5325274    634.93197  0.031032843  0.031053111           11 
 1706000    0.9943321   -6.5017585    636.03856  0.031068707  0.031045164            7 
 1707000   0.99367709     -6.50829    637.45758   0.03111978   0.03103734            7 
 1708000   0.96395554   -6.5067354     636.9211  0.031075386  0.031029357            2 
 1709000    0.9785771   -6.5125288    636.63134  0.031043073  0.031021664            6 
 1710000   0.99306658   -6.4877397    638.14523  0.031098695  0.031013911            6 
 1711000   0.98077152   -6.5031363    637.30594  0.031039642  0.031006163            2 
 1712000   0.98371916   -6.4886945    639.71042  0.031138553  0.030998342            9 
 1713000   0.99534439   -6.5094135    637.03141  0.030990047  0.030990491           12 
 1714000   0.98251139   -6.4872413    637.48068   0.03099381  0.030982647            4 
 1715000   0.98531412   -6.4979435    638.29085  0.031015104  0.030974959            4 
 1716000   0.95174438    -6.478692    636.61084  0.030915445  0.030967109            2 
 1717000    0.9890021   -6.5385951    638.76943  0.031002205  0.030959235            2 
 1718000   0.96559762   -6.5146898    640.05875  0.031046699  0.030951376           10 
 1719000   0.98392441   -6.5224989    636.86776  0.030873946  0.030943462            6 
 1720000   0.98171023   -6.4764212    641.52328  0.031081554  0.030935783            5 
 1721000   0.98247709   -6.4892145    640.86654  0.031031694  0.030928162            3 
 1722000   0.96874161   -6.5202166    638.22307  0.030885747  0.030920464            8 
 1723000    0.9727142   -6.5030797    640.82569  0.030993698  0.030912785            2 
 1724000   0.99006435   -6.4994863    640.73696  0.030971431  0.030905253            3 
 1725000    0.9925119   -6.4988998    640.62303  0.030947973   0.03089761            2 
 1726000   0.97875689   -6.4875036    642.19241  0.031005813  0.030890051            5 
 1727000    0.9628476   -6.4904658    642.67942   0.03101136  0.030882563            3 
 1728000    0.9639838   -6.4827115    643.11372  0.031014358  0.030875119            4 
 1729000   0.97731195   -6.5479632    642.26913  0.030955713   0.03086753            6 
 1730000   0.97244017   -6.5257009    641.04454  0.030878832  0.030859784            7 
 1731000   0.97383123   -6.5173628     641.7889  0.030896828  0.030852181            6 
 1732000    1.0114463   -6.5265895    643.59826  0.030966044  0.030844568            3 
 1733000   0.96786113   -6.5428035    643.08264  0.030923381  0.030836986            7 
 1734000   0.98842785   -6.5301465    642.20305  0.030863276  0.030829388            2 
 1735000    0.9585728   -6.5194316    645.56748  0.031007084  0.030821801            4 
 1736000   0.96202662    -6.533212    646.26719   0.03102281  0.030814354           10 
 1737000   0.99482022   -6.5474305    644.22382  0.030906919  0.030806824            4 
 1738000   0.95861431   -6.5653819    643.20039  0.030840065  0.030799175            7 
 1739000   0.96959738   -6.5477628    643.47741  0.030835605   0.03079165            6 
 1740000   0.96446831   -6.5076787    645.43074  0.030911434  0.030784197            4 
 1741000   0.95589793    -6.548839    643.88198  0.030819547  0.030776705            6 
 1742000   0.99485995   -6.5374627     647.1797   0.03095961  0.030769186            5 
 1743000    0.9702765   -6.5292919    645.51247  0.030862137  0.030761777            3 
 1744000    0.9672885   -6.5285869    644.26253  0.030784716  0.030754326            9 
 1745000   0.96404685   -6.5177394     646.0848  0.030854097  0.030746967            4 
 1746000   0.96842032   -6.5013502    644.83618  0.030776832  0.030739448            5 
 1747000   0.95528635   -6.5447898    645.01888   0.03076793   0.03073196            3 
 1748000   0.96457337   -6.5488398    645.72176  0.030783837  0.030724474            6 
 1749000   0.97736186   -6.5394105    645.61891  0.030761336  0.030716871            5 
 1750000   0.95848057   -6.5308775    646.17222  0.030770106  0.030709293            6 
 1751000   0.96229207    -6.498544    647.81431  0.030830683  0.030701838            6 
 1752000   0.97775575   -6.4978649    647.77479  0.030811206  0.030694364           10 
 1753000   0.97388479   -6.5422921    646.66491  0.030740868  0.030686738            2 
 1754000   0.95253215   -6.5135154    647.77341  0.030776008  0.030679316            3 
 1755000   0.97005636   -6.4975256    649.82888  0.030856072  0.030671814            3 
 1756000   0.98105443   -6.5492179    649.39451  0.030817887  0.030664429            3 
 1757000   0.97246584   -6.5196453    649.44404  0.030802696  0.030657091            3 
 1758000   0.97047091   -6.5181802    648.86519  0.030757736  0.030649606            3 
 1759000   0.95596811   -6.5512984    649.52012  0.030771277  0.030642095            4 
 1760000   0.97571484   -6.5003004    649.82568  0.030768261  0.030634738            5 
 1761000   0.98461592   -6.5392177    648.51635   0.03068883  0.030627325            4 
 1762000   0.95863153   -6.5288682    650.61095  0.030770476  0.030619828            3 
 1763000   0.96857523   -6.5440246    651.52487  0.030796222  0.030612536            9 
 1764000   0.98672823   -6.5519995    649.31244  0.030674246   0.03060505            5 
 1765000   0.98561479   -6.4760401    652.30926   0.03079836  0.030597672            4 
 1766000   0.96180077   -6.5298597    652.10353  0.030771212  0.030590193            7 
 1767000   0.97553897   -6.5624074    649.76513  0.030643517  0.030582583            6 
 1768000   0.98011741   -6.5586096    649.05129  0.030592538  0.030574879            4 
 1769000   0.97366543   -6.5349734    652.78202   0.03075099  0.030567199            6 
 1770000   0.96321578   -6.5390265    651.83495  0.030689028  0.030559667            4 
 1771000   0.99418316   -6.5564503     651.6208  0.030661622  0.030552244            5 
 1772000   0.94113561   -6.5215352    652.76652    0.0306982  0.030544773            4 
 1773000   0.97791729   -6.5135732    654.41234  0.030758241   0.03053734            5 
 1774000   0.95414093   -6.5158587    652.80896  0.030665584  0.030529866            3 
 1775000   0.95989601   -6.5391964    651.82911  0.030602305   0.03052225            5 
 1776000   0.96578599   -6.5372468    652.59369   0.03062095  0.030514722            5 
 1777000   0.97539898   -6.5114135    653.43255  0.030643057  0.030507186            6 
 1778000    0.9565496      -6.5689    651.50292  0.030535383  0.030499691            3 
 1779000     0.945942    -6.562262    651.50399  0.030518268  0.030492126            6 
 1780000   0.98789859    -6.540476    653.22319   0.03058161  0.030484607            3 
 1781000   0.94997791   -6.5285246    654.88205  0.030642058  0.030476959            8 
 1782000   0.98316559   -6.5062928    655.68007   0.03066218  0.030469419            4 
 1783000     0.976472   -6.5222072    655.87696  0.030654186  0.030461894            3 
 1784000   0.96722671   -6.5316525    654.82382  0.030587809  0.030454321            5 
 1785000   0.95232134    -6.497709    655.06467  0.030581917  0.030446877            8 
 1786000   0.98236853   -6.5439513    654.11207  0.030520347  0.030439315            8 
 1787000    0.9410925   -6.5522707    655.47568  0.030566857  0.030431712            4 
 1788000   0.95476621   -6.5084437    658.12254  0.030673124  0.030424306            4 
 1789000    0.9608113   -6.5985428    652.58009  0.030397806  0.030416783            6 
 1790000   0.96075364   -6.5030757    654.44143  0.030467478  0.030408958            4 
 1791000   0.96743524   -6.5722314    652.65751  0.030367463  0.030401182            4 
 1792000    0.9452203   -6.5727806    651.55255  0.030299133   0.03039329           10 
 1793000   0.97484396   -6.5409031    652.54253  0.030328246  0.030385468            9 
 1794000    0.9979116    -6.507756    655.51543  0.030449434  0.030377766            5 
 1795000    0.9415973   -6.5392403    652.82564  0.030307597  0.030369913            3 
 1796000   0.96805666   -6.5799522    652.72026  0.030285832  0.030362109            3 
 1797000   0.97580527    -6.530655    656.39825  0.030439541  0.030354338            4 
 1798000   0.96586427   -6.5632278    654.49209  0.030334265  0.030346636            3 
 1799000   0.94118413   -6.5562395    657.37012  0.030450719  0.030338892            3 
 1800000   0.95796936   -6.5528549    656.38668  0.030388272  0.030330996            6 
 1801000   0.97472214    -6.539875    656.26639  0.030365833  0.030323179           14 
 1802000   0.98278919   -6.5024347    656.88504  0.030377592  0.030315488            4 
 1803000   0.96362189   -6.5350834    657.58713  0.030393194  0.030307789            6 
 1804000   0.99737674   -6.5221637    656.03365  0.030304585  0.030299959            7 
 1805000   0.96027229   -6.5486365    656.74526  0.030320649  0.030292111            4 
 1806000   0.94894651   -6.5702955    656.47686  0.030291476   0.03028423            5 
 1807000   0.96865107   -6.4987032    657.41992  0.030318203  0.030276461            1 
 1808000   0.96104829   -6.5542879    656.84374  0.030274878  0.030268702            6 
 1809000   0.95068224   -6.5540433    656.94223  0.030262679  0.030260752            7 
 1810000   0.96263765   -6.5626884     657.9886  0.030294135  0.030252897            4 
 1811000   0.94559716   -6.5775847    655.81101  0.030177205  0.030245008            4 
 1812000   0.94777963   -6.5443095    658.81566  0.030298734  0.030237016            5 
 1813000    0.9574741   -6.5473046    657.25017  0.030210065  0.030229138            4 
 1814000    0.9567809    -6.563429    658.34373  0.030243648  0.030221337            4 
 1815000   0.96894064   -6.5699073    657.80355  0.030202183  0.030213465            4 
 1816000   0.97863227   -6.5782642    659.04124  0.030242347  0.030205553            3 
 1817000   0.97903815   -6.5499936    660.14268  0.030276219   0.03019769            5 
 1818000   0.95300206   -6.5137548    660.69818  0.030285028  0.030190003            4 
 1819000   0.94630371   -6.5566624    658.53964   0.03016949  0.030182289            8 
 1820000    0.9658694    -6.579465    659.94664  0.030217337  0.030174512            5 
 1821000   0.95324398   -6.5394703    659.59375  0.030184594  0.030166759            3 
 1822000   0.93559745   -6.5210161    659.53909  0.030165527  0.030159014            6 
 1823000   0.94214373   -6.5863096    659.60213  0.030151862  0.030151187            6 
 1824000   0.97910409   -6.5639772    659.91967  0.030149839  0.030143344            7 
 1825000   0.95197345   -6.5865167    661.08938   0.03018673  0.030135496            6 
 1826000   0.97389498   -6.5279285     660.6814  0.030151579  0.030127671            4 
 1827000   0.96177107   -6.5668243     660.8278  0.030141753  0.030119823            5 
 1828000   0.95164381   -6.5893109     661.0573  0.030135727  0.030111823            5 
 1829000   0.95414746   -6.5487996    662.62539  0.030190696  0.030103961            4 
 1830000   0.98698077   -6.5601167    661.30759  0.030114189  0.030096288            1 
 1831000    0.9544499   -6.5454493    662.19816  0.030138274  0.030088482           11 
 1832000   0.97134789    -6.610081    660.18338  0.030030175  0.030080613            3 
 1833000   0.96378604   -6.5914135    660.52961  0.030029533   0.03007256            2 
 1834000   0.95463753   -6.5860958    661.80808   0.03007125  0.030064698            5 
 1835000   0.96768026   -6.5546334    662.85109  0.030102229  0.030056982            8 
 1836000   0.94372044   -6.5944657    660.90227   0.02999738  0.030049056            5 
 1837000   0.94133374   -6.5795336    663.11065  0.030081231  0.030041132            6 
 1838000    0.9490095   -6.5495202    661.88843   0.03000945  0.030033302            5 
 1839000   0.95368848    -6.584874    661.73609  0.029986228  0.030025489            4 
 1840000    0.9462389   -6.5584082    664.54364  0.030097085  0.030017634            2 
 1841000   0.95992629   -6.5489351    664.95118  0.030099184  0.030009749            4 
 1842000   0.93874369   -6.5643989    662.87658  0.029988988  0.030001835           13 
 1843000   0.95115919   -6.5604142    663.91249  0.030019556  0.029993966            5 
 1844000   0.98800234   -6.5250838    664.80651  0.030043678   0.02998616            3 
 1845000   0.95602474   -6.5966827    665.50717  0.030059041  0.029978268            8 
 1846000   0.95003897   -6.5720185    662.51899  0.029907863  0.029970342            4 
 1847000   0.97054815   -6.5643926    665.66976  0.030033828  0.029962516            3 
 1848000   0.96190188    -6.605934    664.23081  0.029952688  0.029954702            2 
 1849000   0.95397243   -6.5658109    664.41975  0.029945004  0.029946721            4 
 1850000   0.95281139   -6.5463576    665.28748  0.029967905  0.029938757           14 
 1851000   0.95768518   -6.5936495    665.12175  0.029944253  0.029930838            3 
 1852000   0.95197265   -6.5809202    666.17692  0.029975563   0.02992298            5 
 1853000   0.93168198   -6.5450622    666.94067  0.029993734  0.029915172           10 
 1854000   0.95443652   -6.5662013    665.49695  0.029912664  0.029907364            8 
 1855000   0.94501608   -6.5787634    664.19131  0.029837884   0.02989942            8 
 1856000   0.95931765    -6.589291    665.03761  0.029859807   0.02989137            3 
 1857000   0.95021745   -6.5658685    665.80847  0.029878319  0.029883529           10 
 1858000   0.95476089   -6.5507209    666.95778  0.029913786  0.029875767            4 
 1859000   0.95283998   -6.5684205    665.61843  0.029837656  0.029867973            5 
 1860000   0.98724097    -6.586841    666.70735  0.029870401  0.029860174            4 
 1861000   0.93099987   -6.5679331    667.68514  0.029898134  0.029852269           11 
 1862000   0.96470858   -6.5724521    666.18026  0.029814727  0.029844347           10 
 1863000   0.95029169    -6.551219    667.48946  0.029857285  0.029836431            6 
 1864000   0.94860606   -6.5822752    667.02354  0.029820437  0.029828627            2 
 1865000    0.9450185   -6.5399029    667.96899  0.029846693  0.029820773            4 
 1866000   0.95336989   -6.5369159    669.30917  0.029890549  0.029812933            5 
 1867000    0.9469097   -6.5594167    668.32455  0.029830591  0.029805183            2 
 1868000   0.97969546   -6.6301257    666.36986   0.02972742   0.02979737            4 
 1869000   0.95938687   -6.5915169    668.17918  0.029792187  0.029789393           10 
 1870000   0.96550427   -6.5712299    669.68012  0.029843143  0.029781445            7 
 1871000   0.95370327   -6.5751028    668.38743  0.029769617  0.029773583            5 
 1872000   0.96822796   -6.5798056    670.05775   0.02982807  0.029765592            2 
 1873000   0.95102027   -6.5276673    669.11616  0.029770251  0.029757753            3 
 1874000   0.95625736   -6.5570044    669.54284  0.029773339  0.029749806            3 
 1875000   0.94982314   -6.5760425    668.68664  0.029719406  0.029741847            7 
 1876000   0.93784766   -6.5504361    669.38791  0.029734715  0.029733873            3 
 1877000   0.95686884   -6.5868836    669.57251  0.029727069  0.029725927            5 
 1878000   0.94745724   -6.5349439    670.08767    0.0297341  0.029717929            2 
 1879000   0.95896194   -6.5842174    668.59885  0.029652246  0.029710109            4 
 1880000   0.94373752   -6.5784526    668.09633  0.029614199  0.029702086            7 
 1881000   0.95636531   -6.5478886    670.33552  0.029697657  0.029694051            4 
 1882000   0.94022993    -6.600548    670.37794  0.029683756  0.029686075            4 
 1883000   0.92799129   -6.5841384     669.2904  0.029619862  0.029678046            5 
 1884000   0.96394806   -6.6006851    668.04233  0.029548935  0.029670021            5 
 1885000   0.95447311   -6.5768842    669.85729  0.029613497  0.029661921            6 
 1886000    0.9512496   -6.5933995    670.64105  0.029632425  0.029653866            3 
 1887000   0.94321686   -6.6032669    669.99204   0.02958806  0.029645766           11 
 1888000   0.93690493   -6.5826096    669.39044  0.029545835  0.029637662            2 
 1889000   0.94997343   -6.5797517     671.2685  0.029613045  0.029629606            3 
 1890000   0.94227693   -6.5805307    672.67447  0.029659368  0.029621561            7 
 1891000   0.95570851   -6.6153927    670.32546  0.029540166   0.02961347            3 
 1892000   0.95112809    -6.595971    672.58127  0.029623911  0.029605455            7 
 1893000   0.95469532   -6.5710424    671.57659  0.029564034  0.029597317            4 
 1894000   0.95123047   -6.6065298    668.96453  0.029433497  0.029589303            5 
 1895000   0.95848345   -6.5880063    671.82023  0.029543546  0.029581277            5 
 1896000   0.94639534   -6.6136801    670.70063  0.029478755  0.029573221            5 
 1897000   0.95459853   -6.5914902    671.69825   0.02950704    0.0295651            7 
 1898000    0.9503665   -6.5814864    672.02347  0.029505772  0.029556945            3 
 1899000   0.97143713   -6.5711642    673.16592  0.029540369  0.029548931            7 
 1900000    0.9573398   -6.5583537    674.39682  0.029578808  0.029540952            4 
 1901000   0.95514572   -6.5779997    672.72562  0.029489989  0.029532945            6 
 1902000   0.94428966   -6.5864394    669.49878  0.029333105  0.029524724            7 
 1903000   0.91484887   -6.6364621    669.70974  0.029326929  0.029516325            5 
 1904000   0.94171837   -6.6228448    670.38337  0.029341009  0.029507998            7 
 1905000   0.93683358   -6.5737183    673.60089  0.029466356  0.029499693            2 
 1906000   0.95336196   -6.5857334    673.42148  0.029443052  0.029491441            5 
 1907000   0.96540042   -6.5952435    672.55096  0.029389572  0.029483154            3 
 1908000   0.94767094   -6.6205003    672.24768  0.029360923  0.029474871            9 
 1909000   0.94977597   -6.5710438    673.13904  0.029384453  0.029466439            6 
 1910000   0.91812461   -6.5750625    672.53814  0.029342851  0.029458122            4 
 1911000   0.95929694   -6.5716183    672.47789  0.029324869  0.029449847            4 
 1912000   0.93224727   -6.5950465    672.36523  0.029304621   0.02944153            3 
 1913000   0.94399937   -6.5757966    672.96848  0.029315581  0.029433266            5 
 1914000   0.96995404   -6.5948168    675.62896  0.029416099  0.029424953            3 
 1915000   0.95127755   -6.6121843    673.91622  0.029326206  0.029416656            6 
 1916000   0.93937657   -6.6321801     671.4296  0.029202749  0.029408307            4 
 1917000   0.93196925   -6.6211325    672.35077  0.029227559  0.029399953            5 
 1918000   0.95502061   -6.5709513    673.22544  0.029250323  0.029391532            5 
 1919000   0.96879177   -6.6240928    671.99913  0.029181828  0.029383063            5 
 1920000   0.93171028   -6.6401515    671.49333  0.029144676  0.029374622            8 
 1921000   0.92693085   -6.6169194    673.95057    0.0292361  0.029366248            7 
 1922000   0.95555505   -6.5849503    674.00606  0.029223294  0.029357871            5 
 1923000   0.93793024   -6.5866916    674.14238  0.029214005  0.029349469            8 
 1924000   0.95080798   -6.6030364    673.76982  0.029182684  0.029341076            4 
 1925000    0.9334144   -6.5920297    674.62723  0.029204642  0.029332623            4 
 1926000   0.93047602   -6.6233625    672.43911  0.029094804  0.029324067            3 
 1927000   0.93958763   -6.6020483    673.09747  0.029108176  0.029315719            3 
 1928000   0.93145937   -6.5837937    675.44233   0.02919443  0.029307248            4 
 1929000   0.95783089   -6.6169417    675.52543  0.029182885  0.029298847            8 
 1930000   0.91686225   -6.6028544    674.97343   0.02914393  0.029290502            5 
 1931000   0.96070617   -6.5871314    676.12808  0.029178667  0.029282241            4 
 1932000   0.95895451   -6.5850877    675.06733  0.029117811  0.029273913            5 
 1933000   0.94479482    -6.613174    675.54255  0.029123234  0.029265563            4 
 1934000   0.94220438   -6.5822755    673.73748  0.029030398  0.029257146            5 
 1935000   0.93143137   -6.6351759    672.23696  0.028950774  0.029248694           16 
 1936000     0.922221   -6.6433317    672.83589    0.0289616  0.029240131            5 
 1937000   0.94675354   -6.6038087    674.30706  0.029009941  0.029231553            7 
 1938000    0.9257367   -6.5857318    674.48676  0.029002699  0.029223108            3 
 1939000   0.92014623   -6.6136028    674.93473  0.029006994  0.029214608            5 
 1940000   0.94926184    -6.630142    675.11381  0.028999734  0.029206159            5 
 1941000   0.94797722   -6.5839643    679.05285  0.029153909   0.02919772            5 
 1942000   0.97411799   -6.6322538    676.28817  0.029020261  0.029189349            7 
 1943000   0.93967791   -6.6324536    674.25072  0.028917941  0.029180885           13 
 1944000   0.94925357   -6.6160194    677.47628  0.029041336  0.029172443           10 
 1945000   0.94956026   -6.6227348    676.90645   0.02900199  0.029164063            5 
 1946000   0.94959731   -6.6126458    677.62985  0.029018065  0.029155722            3 
 1947000   0.95128872   -6.6008554    677.56376  0.029000332   0.02914726            5 
 1948000    0.9374237    -6.590936    678.52482  0.029026558  0.029138979            4 
 1949000   0.94098663   -6.6331804    677.01144  0.028946958   0.02913044            7 
 1950000   0.95107973   -6.6140625    676.33776  0.028903323   0.02912183            3 
 1951000    0.9284537    -6.661438    676.82817  0.028909455  0.029113281            4 
 1952000   0.93204463   -6.6548582    676.72655  0.028890307  0.029104714            5 
 1953000   0.94689721   -6.6126148    677.45279  0.028906502  0.029096094            3 
 1954000    0.9384959    -6.637659     677.2508  0.028883095   0.02908765            8 
 1955000     0.945111   -6.6123578    677.91627  0.028896687  0.029079166            3 
 1956000   0.94134701   -6.6002334    679.69079  0.028957515  0.029070772            5 
 1957000   0.93483404   -6.6043726    678.89641  0.028908891  0.029062492            7 
 1958000     0.925632    -6.612428    678.56697  0.028880106   0.02905412            4 
 1959000   0.91995391   -6.6254469    680.63358  0.028953275  0.029045723            6 
 1960000   0.92692127   -6.5737878    680.70686  0.028941618  0.029037186            7 
 1961000   0.92562816   -6.6287278    680.29699  0.028909442  0.029028715            2 
 1962000    0.9457249   -6.6202715    680.06056  0.028884665  0.029020249            6 
 1963000   0.95270294   -6.6539819    679.05263  0.028827162  0.029011893            9 
 1964000   0.94958527   -6.6014129    679.06767  0.028813122  0.029003498            5 
 1965000   0.92905827   -6.6037305    683.08002  0.028968618  0.028995039            5 
 1966000   0.92027838   -6.6164716    681.20739  0.028874508  0.028986727            6 
 1967000   0.94335783   -6.6479478    681.14791  0.028857308  0.028978253            4 
 1968000   0.94756187   -6.6162754    681.70544  0.028866253  0.028969798            4 
 1969000   0.93250238   -6.6197956    682.37807   0.02888006  0.028961467            6 
 1970000   0.94810694   -6.6390831      681.591  0.028832107  0.028953119            5 
 1971000   0.94853153   -6.5937489    680.96026  0.028790811   0.02894476            5 
 1972000   0.95533871   -6.5616695    682.63949  0.028847172  0.028936349            7 
 1973000   0.95822546   -6.6273274    680.01806  0.028721831  0.028927932            4 
 1974000   0.95659721   -6.6264233    681.87061  0.028785487  0.028919481            5 
 1975000   0.93321466   -6.6499032    681.26049  0.028745168  0.028911014            5 
 1976000   0.95026232   -6.6333627    680.50849  0.028698907  0.028902508           10 
 1977000    0.9394411   -6.6426051    681.55541   0.02872852  0.028894037            9 
 1978000   0.91787834   -6.6603923    679.91075  0.028644706  0.028885484            5 
 1979000   0.92664242   -6.6316635    682.02423  0.028719228  0.028876816            4 
 1980000   0.92786613   -6.6594725    681.44415  0.028680309  0.028868198            6 
 1981000   0.93906282    -6.612848    681.72741  0.028677747  0.028859654            3 
 1982000   0.94719425    -6.612008    682.99159  0.028716431  0.028851162            6 
 1983000   0.91691563   -6.6077774    683.61247  0.028728041  0.028842676            6 
 1984000   0.92191031   -6.5642829    685.06681  0.028774648  0.028834337            8 
 1985000   0.92521518   -6.6152611    682.84715  0.028666967  0.028825929            3 
 1986000   0.92307148     -6.59386    682.27425  0.028628493  0.028817642            6 
 1987000   0.94386646   -6.6332738    683.22531  0.028653972  0.028809203            6 
 1988000   0.91960452   -6.6537971    683.10588  0.028634552   0.02880074            4 
 1989000   0.93926356   -6.6343661    683.79223  0.028648912  0.028792148            6 
 1990000    0.9327922   -6.6679662    680.97632  0.028516596  0.028783598            6 
 1991000   0.95027515   -6.6081794    683.84938  0.028622526  0.028775084            7 
 1992000   0.91917585   -6.6036629    684.68426  0.028643083  0.028766698            4 
 1993000   0.91248017   -6.6501893    681.15277  0.028481049  0.028758293            6 
 1994000   0.94386134   -6.6132202    683.78094  0.028576602  0.028749796            5 
 1995000   0.94733894   -6.6528111    683.57498  0.028553675  0.028741405            4 
 1996000   0.91810079   -6.6273152    683.01794  0.028516113  0.028732936            4 
 1997000   0.92962305   -6.6275126     684.9315  0.028581685  0.028724547            7 
 1998000   0.93606451   -6.5581936     685.1017  0.028574479  0.028716264            4 
 1999000   0.94096457   -6.6467116     684.1057  0.028518664  0.028707813            9 
 2000000   0.93342873   -6.6466763    684.68344  0.028528477  0.028699316            8 
 2001000   0.94170768   -6.6352145    684.75442  0.028517176  0.028690867            8 
 2002000   0.93227096   -6.6424593    684.83249  0.028506181  0.028682419            2 
 2003000   0.92962874   -6.6334052    684.56356   0.02848076  0.028673877            5 
 2004000   0.93822061   -6.6495091    685.25586  0.028495337  0.028665293            8 
 2005000   0.93449766   -6.6535299    683.44387  0.028405814  0.028656693            8 
 2006000   0.92321035   -6.6656269    683.01876  0.028373993  0.028648129            4 
 2007000   0.93186357   -6.6431329    683.32688  0.028372649  0.028639454            9 
 2008000   0.93048146   -6.6239184    685.63691  0.028454387  0.028630897            3 
 2009000   0.93077522   -6.6085622    685.80811  0.028447325  0.028622383            6 
 2010000   0.92557682   -6.5952795    686.08809   0.02844478  0.028613896            6 
 2011000   0.92477501   -6.6335838    686.86976  0.028463027  0.028605354            3 
 2012000    0.9196162   -6.6172702    685.32919  0.028385073  0.028596821            5 
 2013000   0.90951864   -6.6332549    683.73831  0.028305113  0.028588276            4 
 2014000   0.92295258   -6.6183623    686.25676  0.028395265  0.028579632            7 
 2015000   0.91555561    -6.646796    685.53357  0.028351264  0.028571118            6 
 2016000   0.92725211   -6.6141466    687.85437  0.028433134  0.028562601            6 
 2017000   0.91813628   -6.6536148    687.87138   0.02841974  0.028554084           12 
 2018000   0.92557645   -6.6620587    685.33471  0.028300905  0.028545537           11 
 2019000    0.9248336   -6.6588754    684.89106  0.028268576  0.028536903            4 
 2020000   0.92619723   -6.6291404    685.96428  0.028298856  0.028528228            7 
 2021000   0.91061844   -6.6348234    686.42501  0.028303852  0.028519722            5 
 2022000   0.90940607   -6.6564161    684.36755  0.028205059  0.028511137            3 
 2023000   0.93554048   -6.6560921    687.51652  0.028320832  0.028502469            3 
 2024000   0.92772393   -6.6390145    688.99742  0.028367812  0.028493808            5 
 2025000    0.9417699   -6.6362406    687.15201  0.028277861  0.028485224            5 
 2026000    0.9203307   -6.6249728    687.29756   0.02826989  0.028476662            3 
 2027000   0.92478323     -6.65591    686.74052  0.028233042  0.028468196           11 
 2028000   0.93749728   -6.6190139    689.15318   0.02831826  0.028459609            3 
 2029000   0.93749367   -6.6527994     687.2429  0.028225846  0.028451041            3 
 2030000     0.937579   -6.6136623    690.76067  0.028356349  0.028442525            6 
 2031000   0.94808054   -6.6670246    687.72601  0.028217873  0.028434022            3 
 2032000   0.91699443    -6.650993    689.78173  0.028288293   0.02842556            5 
 2033000   0.92076627   -6.6456472    688.00559  0.028201574  0.028417105            5 
 2034000   0.91295475   -6.6536633    690.72576  0.028299154  0.028408588           10 
 2035000   0.94161644   -6.6711715    688.41126  0.028190469  0.028400081            5 
 2036000   0.93603176   -6.6413731    690.37476  0.028256989  0.028391423            7 
 2037000   0.91579063   -6.6570521    687.07429  0.028108096  0.028382797            4 
 2038000   0.92936589   -6.6428019    689.21469  0.028181824  0.028374267            8 
 2039000   0.91124233   -6.6869298    688.22266  0.028127459  0.028365622            5 
 2040000   0.91556404   -6.6378008     690.5434  0.028208472  0.028357056            7 
 2041000   0.90573876   -6.6530138    690.02234  0.028173376  0.028348479            6 
 2042000   0.93287543   -6.6439569    690.33192  0.028172213  0.028340009            6 
 2043000   0.93612108   -6.6490169    691.99377   0.02822621  0.028331577            4 
 2044000   0.92666341   -6.6341828    690.76601  0.028162345  0.028323165            4 
 2045000   0.93389002   -6.6139064    692.21104  0.028207459  0.028314728            4 
 2046000   0.92210128    -6.666539    689.93988  0.028101168  0.028306297            3 
 2047000   0.95134937   -6.6586983    692.96566   0.02821062  0.028297821            6 
 2048000   0.90651346   -6.6785944    690.61317  0.028101122  0.028289362            5 
 2049000   0.89622079   -6.6634464    691.82135  0.028136544  0.028280898            4 
 2050000   0.91430056   -6.6619802    691.04257  0.028091162  0.028272462            4 
 2051000   0.93604047   -6.6522995    692.95714  0.028155255  0.028264086            5 
 2052000    0.9255833   -6.5990806    695.31245  0.028237185  0.028255687            3 
 2053000   0.91508643   -6.6466192    693.10526  0.028133839  0.028247227            8 
 2054000   0.91137285   -6.6284977    693.45845  0.028134471  0.028238879            5 
 2055000   0.93502863   -6.6595191    692.20421  0.028069919  0.028230487           11 
 2056000   0.92348941   -6.6495355     693.8592  0.028123346  0.028222104           13 
 2057000   0.94983624   -6.6681224    692.68806  0.028062229  0.028213744            8 
 2058000   0.94476012   -6.6838391    693.08623  0.028064716  0.028205446            7 
 2059000   0.96059712   -6.6381384    694.54307  0.028110048  0.028197149            7 
 2060000   0.90663477   -6.6659792    693.96458  0.028073001   0.02818882           11 
 2061000   0.92206858   -6.6223402    695.30305  0.028113499  0.028180549            6 
 2062000   0.92239757   -6.6575602    693.43082  0.028024201  0.028172264            5 
 2063000   0.90975607   -6.6734501    696.11339  0.028118977  0.028163929           15 
 2064000   0.92806742   -6.6447076    695.08415  0.028063798  0.028155642            4 
 2065000   0.91233388   -6.6758291    696.60145  0.028111439  0.028147307            5 
 2066000   0.93074483   -6.6680473      696.159  0.028079985  0.028139028            2 
 2067000   0.92274713   -6.6574966    696.22204  0.028068942  0.028130816            4 
 2068000   0.91583705   -6.6428383    695.61317  0.028030834  0.028122654            3 
 2069000   0.92456931   -6.6343767    697.41702  0.028089939  0.028114473            6 
 2070000   0.92285103   -6.6695589    695.57048  0.028002032  0.028106311            7 
 2071000   0.90188839   -6.6663083    696.07894  0.028008971  0.028098074            5 
 2072000   0.92269299   -6.6374529    698.26003  0.028083174  0.028089882            7 
 2073000    0.9090076   -6.6635304    697.97998  0.028058369  0.028081729            5 
 2074000   0.90927394   -6.6304928    697.75751  0.028035901  0.028073461            5 
 2075000   0.90543322   -6.6420514    699.35597  0.028086585  0.028065277            6 
 2076000   0.92127972   -6.6548931    698.45596  0.028036928  0.028057182            5 
 2077000   0.90416974   -6.6694048    699.00975  0.028045649   0.02804896            6 
 2078000   0.93103291   -6.6492616    699.59382  0.028055575  0.028040766            8 
 2079000   0.92918348   -6.6846204    696.60218  0.027922165  0.028032626            4 
 2080000   0.91268934   -6.6575787    698.09522  0.027968559  0.028024454            5 
 2081000      0.94983   -6.6762929    700.30856  0.028043751  0.028016349            4 
 2082000   0.89185616   -6.6432159     700.3483  0.028031872  0.028008286            3 
 2083000   0.90733575   -6.6671404    698.41486  0.027941065  0.028000298            4 
 2084000   0.91017668   -6.6732806    699.61246  0.027975546  0.027992136            7 
 2085000   0.89683465   -6.6803151    697.13183  0.027862983  0.027983972            2 
 2086000    0.9234677   -6.7353898    697.52527  0.027865343  0.027975709            5 
 2087000   0.92807285   -6.6837874    698.54163  0.027892574  0.027967506            7 
 2088000   0.90747862   -6.6631112    700.88851  0.027972881   0.02795937            5 
 2089000   0.93336432    -6.628967    701.90325   0.02799997  0.027951413            9 
 2090000   0.93408688   -6.6580679    700.19206  0.027918344  0.027943427            3 
 2091000   0.89188461   -6.6713496    700.07564  0.027900352  0.027935354            6 
 2092000   0.92244357   -6.6787104    699.62741  0.027869161  0.027927192            7 
 2093000   0.89962835    -6.689229    702.46877  0.027968975  0.027919091            5 
 2094000    0.8996754   -6.6796961    699.72789  0.027846541  0.027911063            6 
 2095000   0.90786885   -6.6682828    700.54961  0.027865935  0.027902955            3 
 2096000    0.9306335   -6.6854111    699.46644  0.027809575  0.027895024           12 
 2097000   0.91820137   -6.7257138    698.94665  0.027775658  0.027886974            8 
 2098000   0.91179274    -6.654659    700.34091  0.027817799  0.027878837            6 
 2099000   0.92225338   -6.6748714    701.34198   0.02784429  0.027870804            4 
 2100000   0.92971336   -6.6331969    703.94812  0.027934449   0.02786287           10 
 2101000   0.91890257   -6.6900139    701.92952  0.027841089   0.02785492            3 
 2102000   0.91225606   -6.6733335    702.57908  0.027853595  0.027847024            9 
 2103000   0.91843594   -6.6918393    702.74173  0.027846795  0.027839041            4 
 2104000   0.91857344   -6.6540984    702.14795  0.027810042  0.027831093            3 
 2105000   0.91602477   -6.6585065    701.44103  0.027768845  0.027823105            5 
 2106000   0.91627705   -6.6776109    703.17936  0.027824445  0.027815128            6 
 2107000   0.92667077     -6.69678    701.96808  0.027763332  0.027807124           11 
 2108000   0.92194457   -6.7004038    703.55808  0.027813017  0.027799079            6 
 2109000   0.91173405    -6.704988    703.94422  0.027815087  0.027790961            3 
 2110000   0.92262899   -6.7112607    703.49644  0.027784219  0.027782953           11 
 2111000   0.91448268   -6.6790031    702.34597  0.027725642  0.027774892            8 
 2112000   0.89765816   -6.6998505    702.53514  0.027719979  0.027766903            8 
 2113000   0.91278874   -6.6810454    703.95628  0.027762907  0.027758918            6 
 2114000   0.90655287   -6.6765829    703.45876  0.027730162  0.027750874            5 
 2115000   0.91352792   -6.6644092    705.02242  0.027778661  0.027742952            9 
 2116000   0.91920996   -6.6641567      704.061   0.02772767  0.027734959           10 
 2117000    0.9201148   -6.6709362    704.61052  0.027736204  0.027726919            8 
 2118000   0.90316139   -6.7010571    704.85935  0.027732899  0.027718849            4 
 2119000   0.90423493   -6.6747221    705.51468  0.027745583  0.027710766            5 
 2120000   0.91047173   -6.6987439    702.32507  0.027607117  0.027702662           10 
 2121000   0.90669726   -6.7429337    700.55886  0.027524708  0.027694394            6 
 2122000   0.89194572    -6.762252    702.04339  0.027570036  0.027686081           12 
 2123000   0.89277187   -6.6986724     704.4355  0.027650946  0.027677858            5 
 2124000   0.91529981   -6.7091235    702.15032   0.02754827  0.027669668            5 
 2125000   0.91589702   -6.7066431    705.29728  0.027658717   0.02766156            5 
 2126000   0.92480236   -6.6724462    707.19543  0.027720109  0.027653471           16 
 2127000    0.9012801   -6.6764039    705.49545  0.027640474  0.027645384           11 
 2128000   0.89722122   -6.6778211    707.21856  0.027694963  0.027637496            5 
 2129000   0.92923384   -6.6590387    706.42579  0.027650923  0.027629531            7 
 2130000   0.89863257   -6.6812935    705.52277  0.027602612  0.027621578           10 
 2131000   0.91189509   -6.6815026    705.10011  0.027573131  0.027613637            4 
 2132000   0.92231394    -6.683233    708.16682  0.027680067  0.027605661            5 
 2133000   0.89537006   -6.6987153    704.51777  0.027524526  0.027597696            3 
 2134000   0.92918951   -6.7076061    704.53404  0.027512263  0.027589596            3 
 2135000   0.93037529   -6.6851665    705.09487  0.027521267  0.027581647            4 
 2136000   0.92147027   -6.7010464    708.26268  0.027631971  0.027573632            4 
 2137000   0.91468748   -6.6931446    707.47762  0.027588427  0.027565648            5 
 2138000   0.92516912   -6.6859906    708.95303   0.02763303  0.027557734            4 
 2139000   0.92348615   -6.6663066    707.53103  0.027564712  0.027549733            3 
 2140000   0.89148582   -6.6737458    707.12381  0.027535974  0.027541792            5 
 2141000   0.93571274   -6.6803983    708.60858  0.027580904  0.027533832            7 
 2142000   0.91110987   -6.7167087    706.98642  0.027504918  0.027525824            7 
 2143000   0.91495515   -6.7003051    708.70356  0.027558857  0.027517895            3 
 2144000   0.91544449   -6.7037395    709.57928  0.027580041  0.027509922           10 
 2145000   0.89881975   -6.7113827    708.46061  0.027523722  0.027502001            8 
 2146000   0.89783725   -6.6956884    709.04124  0.027533443  0.027494001           15 
 2147000    0.9219557   -6.7190488    707.95983  0.027478646  0.027486015            4 
 2148000   0.89183029   -6.6989016    708.48199  0.027486111  0.027478025            9 
 2149000   0.90416758   -6.6863304    710.84192  0.027564833  0.027470095            6 
 2150000   0.91504185   -6.6920143    709.15246  0.027486529  0.027462154            5 
 2151000   0.90748267   -6.6829511    708.53604   0.02744987  0.027454213            5 
 2152000   0.90890496   -6.7052493    709.37129  0.027469458  0.027446247            5 
 2153000   0.89548927   -6.6911612    709.61983   0.02746632  0.027438429           14 
 2154000   0.90269081   -6.6674466    711.35736  0.027520789   0.02743046            5 
 2155000   0.90759785   -6.7018257    709.42907  0.027433452  0.027422503            7 
 2156000   0.92187398   -6.6975506    710.46222  0.027460661  0.027414463            7 
 2157000   0.89636929    -6.722644     708.8936  0.027387328  0.027406467            3 
 2158000   0.90343479   -6.7096927     710.4665  0.027435376  0.027398502            4 
 2159000   0.92221671   -6.7272183    710.44991  0.027422028  0.027390539            9 
 2160000   0.89861332    -6.709794    709.06324  0.027355835  0.027382536            8 
 2161000   0.91914319   -6.6827882    709.65038  0.027365817  0.027374464            8 
 2162000   0.91579298   -6.7198021    706.62107  0.027236396  0.027366471            5 
 2163000   0.91984405   -6.7163536    711.76581  0.027422015  0.027358443            7 
 2164000   0.90566157   -6.6973892    709.58173  0.027325236  0.027350544            8 
 2165000   0.91577725   -6.7469075    708.45097   0.02726909  0.027342548            4 
 2166000    0.8915311   -6.7076741     710.3814  0.027330771  0.027334494            5 
 2167000   0.91433516   -6.6736779    713.37189   0.02743316  0.027326595            8 
 2168000   0.89586002   -6.7472403    710.72266  0.027318676  0.027318707            5 
 2169000   0.91848438   -6.7203988     711.6325  0.027341037  0.027310905            9 
 2170000   0.91158655   -6.7011766    712.65053  0.027367532     0.027303            6 
 2171000   0.90437698   -6.7141926    710.80006  0.027283896  0.027295045            7 
 2172000   0.91843929    -6.694936    712.97968   0.02735496  0.027287127            4 
 2173000   0.89549967   -6.6856428    713.04917  0.027345036  0.027279151            3 
 2174000   0.91598224   -6.7031385    711.68919  0.027280328  0.027271127            5 
 2175000   0.91010237   -6.7352696    712.49856  0.027298795  0.027263146            3 
 2176000   0.90716194    -6.727842    712.19942  0.027274794  0.027255069            4 
 2177000   0.91211642   -6.7618108     710.3525  0.027191567  0.027246994            7 
 2178000   0.89226919   -6.7176136    711.37364  0.027218153  0.027238958            7 
 2179000    0.9099231   -6.7338727    711.16602  0.027197721  0.027230942            3 
 2180000    0.9140705   -6.7458586    711.37527  0.027193244  0.027222934            8 
 2181000   0.89863431   -6.7099678    712.94623  0.027240801  0.027214919           13 
 2182000   0.88334222   -6.7183811    710.75541  0.027144646  0.027206929            4 
 2183000   0.89852279   -6.7186577    713.35707  0.027231526  0.027198853            7 
 2184000   0.90022623   -6.7155759    711.46724  0.027146949  0.027190817            4 
 2185000   0.90589883   -6.7278337    712.47255  0.027172866  0.027182787            7 
 2186000   0.89671394    -6.751547    711.01693  0.027104946   0.02717468           12 
 2187000   0.91508673   -6.7097848     713.4243  0.027184282  0.027166605            5 
 2188000   0.90127408    -6.713631    712.81747  0.027148746  0.027158628           10 
 2189000   0.89369124   -6.7113664    712.95054  0.027141409  0.027150685            5 
 2190000   0.90953843   -6.7196105    713.27389   0.02714132  0.027142723            4 
 2191000   0.88317432   -6.7110457    714.15627  0.027162493  0.027134717            6 
 2192000   0.87573665   -6.6894338    715.51387  0.027201714  0.027126706            5 
 2193000   0.91465754   -6.7370348    711.65446  0.027042653  0.027118666            6 
 2194000   0.89302345   -6.7215726    714.50041  0.027138423   0.02711049            7 
 2195000   0.90942966   -6.7250864    713.28994  0.027080104  0.027102381            7 
 2196000   0.88882341   -6.7317732    713.68469  0.027082752  0.027094321            6 
 2197000   0.90690402   -6.7368099     711.9079  0.027003031  0.027086265            9 
 2198000   0.89753128   -6.7230573    714.94924  0.027106052  0.027078247            6 
 2199000   0.89566864   -6.7401183    713.46162  0.027037351  0.027070196            7 
 2200000   0.88126794   -6.7178355    714.84066  0.027077298   0.02706207            6 
 2201000   0.90148866   -6.7085571    713.45809  0.027012649  0.027053967            7 
 2202000   0.89060277   -6.7052831    713.66827  0.027008336  0.027045858            6 
 2203000    0.8961982   -6.7518938    712.84731  0.026965022  0.027037843            7 
 2204000   0.90214363   -6.7387814    713.89336  0.026992338  0.027029741            5 
 2205000   0.91525872   -6.7864255    712.75592   0.02693711  0.027021601           12 
 2206000   0.88930724   -6.7564855    715.05179  0.027011627   0.02701345            7 
 2207000    0.8876021   -6.7526081    713.71256  0.026948821   0.02700535            7 
 2208000    0.9101151   -6.7475323    715.86053  0.027017683    0.0269972            4 
 2209000   0.89892238   -6.7347556    715.27921  0.026983522  0.026989047            5 
 2210000    0.8904269   -6.7038043    716.89663  0.027032301  0.026981001            7 
 2211000   0.87547643   -6.7295127    714.97981  0.026947829  0.026972951            5 
 2212000   0.91088173    -6.726165    715.52032  0.026956009  0.026964892            5 
 2213000   0.87016804    -6.758515    715.34858  0.026937362  0.026956901            9 
 2214000   0.88321128   -6.7206375    717.05756   0.02698952  0.026948904            3 
 2215000   0.89293221   -6.7285467    718.00863  0.027013116  0.026940898            4 
 2216000   0.89150001   -6.7221528    716.08429  0.026928561  0.026932847            4 
 2217000   0.88765167   -6.7235499    717.58299  0.026972748  0.026924803            8 
 2218000   0.90313803   -6.7283794    716.79039  0.026930808  0.026916825            6 
 2219000    0.9015162   -6.7322975    716.70324  0.026915399   0.02690882            7 
 2220000   0.89636143   -6.7677357    714.41741   0.02681747  0.026900781            7 
 2221000   0.91632023   -6.7175401    714.18638  0.026796727  0.026892704            8 
 2222000   0.87691172   -6.7091785     719.4923  0.026983659   0.02688469            4 
 2223000    0.8981056   -6.7410213    717.47542  0.026895915  0.026876663            4 
 2224000   0.88931824   -6.7104725     717.1183   0.02687044  0.026868791            9 
 2225000   0.90729493   -6.6984629    717.21655  0.026862043  0.026860868            8 
 2226000   0.90665411   -6.7221808    719.43179  0.026932906  0.026853028            9 
 2227000   0.88894949   -6.7677348    718.61863  0.026890384  0.026845105            4 
 2228000   0.89716903   -6.7328229    718.27577  0.026865491  0.026837139            9 
 2229000   0.91054581   -6.7583782    718.75802  0.026871468   0.02682916            5 
 2230000   0.90314871   -6.7302034    717.99297  0.026830829  0.026821261            5 
 2231000   0.89168579   -6.7556565    717.70274  0.026807961  0.026813308            5 
 2232000   0.93231079   -6.7617655    718.65105  0.026831357  0.026805424            4 
 2233000   0.87915416   -6.7280703    719.54057  0.026852537   0.02679753            4 
 2234000   0.90283196   -6.7166362    718.29844  0.026794182  0.026789629            7 
 2235000   0.88567476   -6.7342531    720.03603  0.026846981  0.026781699            8 
 2236000   0.90597908   -6.7743209    718.93956   0.02679411   0.02677375            9 
 2237000   0.89441312   -6.7537628    718.92747  0.026781682  0.026765834            5 
 2238000   0.88416195   -6.7377412     720.3226  0.026821664  0.026757925            4 
 2239000   0.89546618   -6.7371192     719.7581  0.026788674  0.026749985            4 
 2240000   0.89101173   -6.7514743    719.90695  0.026782253  0.026742018           12 
 2241000   0.87645144   -6.7453071    719.57214  0.026757851  0.026734054            6 
 2242000   0.91078447   -6.7449464    722.02309  0.026837016  0.026726084            5 
 2243000   0.91041224   -6.7913812    717.43957  0.026654762  0.026718102           11 
 2244000   0.89410233   -6.7619732    718.97286  0.026699824  0.026710114            5 
 2245000   0.86633378   -6.7396807    719.68056  0.026714201  0.026702212            3 
 2246000   0.89123959   -6.7369352    721.07829  0.026754166  0.026694166            5 
 2247000   0.89167201    -6.749143    720.00843  0.026702583  0.026686148            4 
 2248000   0.88903671   -6.7348121    721.39593  0.026742139  0.026678156            9 
 2249000   0.88482341   -6.7191349    719.45157  0.026658203  0.026670224           10 
 2250000   0.88822091   -6.7524418     719.1937  0.026636804  0.026662184            4 
 2251000   0.88709677   -6.7689992    721.69434  0.026717546  0.026654158            9 
 2252000   0.89095502   -6.7258098    720.52215  0.026662306  0.026646194            8 
 2253000   0.89201959   -6.6942763    722.21928  0.026713245  0.026638308            5 
 2254000   0.87775912   -6.7410402    719.80598   0.02661217  0.026630375            5 
 2255000   0.88958802   -6.7292693     722.6791  0.026706545  0.026622402            5 
 2256000   0.88045663   -6.7114692    722.48037  0.026687366  0.026614504            7 
 2257000   0.88198174   -6.7461987    723.54805  0.026714963  0.026606677            5 
 2258000   0.88132477   -6.7436546    722.50736  0.026664724  0.026598831           13 
 2259000   0.90085716   -6.7375571    722.65982  0.026658544  0.026590963            5 
 2260000   0.91640848   -6.7404568      722.029  0.026623488  0.026583103            6 
 2261000   0.87698701   -6.7590305    724.00861  0.026684675   0.02657521           11 
 2262000   0.89498136   -6.7465495    721.86339  0.026593847   0.02656737            3 
 2263000   0.90336466   -6.7649137    721.36842  0.026563869  0.026559489            5 
 2264000   0.88310057   -6.7278758    722.99216  0.026611902  0.026551557            6 
 2265000   0.90304709   -6.7305522    723.68859  0.026625776  0.026543636            7 
 2266000   0.88455293   -6.7903132    721.03132  0.026516303  0.026535776            4 
 2267000   0.88545618   -6.7278611    724.48611  0.026631602  0.026527915            8 
 2268000   0.90546374   -6.7684697     721.9951  0.026528333  0.026520016            8 
 2269000   0.88000492   -6.7571462    721.84204   0.02651102  0.026512027            7 
 2270000   0.87358351    -6.771106    722.70123  0.026530882  0.026504031            3 
 2271000   0.88283006   -6.7580785    722.50136  0.026511866  0.026496015            6 
 2272000   0.89896295   -6.7752602    722.57249  0.026502806  0.026487991            7 
 2273000    0.8928458   -6.7724368    723.09011  0.026510123  0.026480022            5 
 2274000   0.87972669   -6.7703318    720.79123   0.02641422  0.026472004            6 
 2275000    0.8858461    -6.763319    723.04185  0.026485049  0.026464059            4 
 2276000   0.91406181    -6.753674    724.57613  0.026529589  0.026456103            6 
 2277000   0.86191796   -6.7671184    721.18141  0.026393698  0.026448099            6 
 2278000   0.88829812   -6.7411222    725.60573  0.026543961   0.02644021            8 
 2279000   0.87402891   -6.7454245    723.30478  0.026448178  0.026432264            5 
 2280000   0.89342289   -6.7465768    724.07004  0.026464548  0.026424292            4 
 2281000   0.87370879   -6.7501535    724.67323  0.026474983  0.026416334           10 
 2282000   0.88985877   -6.7657952    724.38706  0.026452931  0.026408464            6 
 2283000   0.89381702   -6.7787075    722.39719   0.02636871  0.026400524            5 
 2284000   0.91790692    -6.798401    724.25933  0.026425107  0.026392592            5 
 2285000   0.89699998   -6.7855056    722.45446  0.026347719  0.026384603           12 
 2286000   0.87611113   -6.7338423    724.97305  0.026428006  0.026376713            7 
 2287000    0.8807773   -6.7681436    725.52179  0.026436445   0.02636884            9 
 2288000   0.89843775   -6.7730056    725.41986  0.026421178  0.026360932            9 
 2289000   0.88171052   -6.7349509    727.47739  0.026484542  0.026353083            6 
 2290000   0.88732468   -6.7285889    726.76883  0.026447192  0.026345246            7 
 2291000   0.90128595   -6.7596903    727.82984  0.026474241   0.02633739            5 
 2292000    0.8931882   -6.7671995    725.41153  0.026374765  0.026329464            7 
 2293000   0.89916799   -6.7567755    725.70801  0.026374037  0.026321647            8 
 2294000   0.87838727   -6.7654415    724.52876  0.026319702  0.026313754           19 
 2295000   0.87619835   -6.7671313    724.72578  0.026315388  0.026305791            9 
 2296000   0.90646281   -6.7550633    728.49429  0.026440705  0.026297925            8 
 2297000   0.87636924   -6.7699422    725.92367  0.026335933   0.02629007           13 
 2298000   0.87067237   -6.7610059     724.6705  0.026279029  0.026282114            5 
 2299000   0.90152398   -6.7388206    727.78054   0.02638033  0.026274317           10 
 2300000   0.87377964   -6.7591585    727.55238  0.026360593  0.026266497            7 
 2301000   0.87081237   -6.7662181     726.4253  0.026308319   0.02625862            6 
 2302000    0.8944044   -6.7745969     726.5371  0.026300938  0.026250791            5 
 2303000   0.89795073   -6.7564082    729.21802  0.026386526  0.026242937            3 
 2304000   0.89042238   -6.8133147    724.78873   0.02621487  0.026235018            6 
 2305000   0.87656671    -6.780664    725.39539   0.02622543  0.026227055            4 
 2306000   0.90699675   -6.7730698     726.3777  0.026249556  0.026219133           10 
 2307000    0.8883755   -6.7490523    728.04388  0.026298363  0.026211231            3 
 2308000   0.88583705    -6.772009    725.72202  0.026203135  0.026203367           10 
 2309000   0.87051295   -6.7464801     727.2898  0.026248369  0.026195491            5 
 2310000   0.88668072   -6.7663663    728.23788  0.026271208  0.026187606            7 
 2311000   0.88996228   -6.7917893    725.27483  0.026152994   0.02617972            4 
 2312000   0.87194757   -6.7992807    726.38116  0.026181559  0.026171744            7 
 2313000   0.89348527   -6.7708394    726.18123  0.026163036  0.026163684           10 
 2314000   0.88440408   -6.7832637    726.28853  0.026155594  0.026155687            4 
 2315000   0.87858106   -6.7680458    728.93036  0.026239394  0.026147718            4 
 2316000   0.87019656    -6.776786    728.13236  0.026199351   0.02613973           10 
 2317000   0.89285895   -6.7645733    728.37418  0.026196741  0.026131856            4 
 2318000   0.86653622    -6.758451    729.21774  0.026215766  0.026123969            4 
 2319000   0.88526168   -6.7822104    728.31395  0.026171983  0.026116029            6 
 2320000   0.87459123   -6.7864587    727.92451  0.026146714  0.026108129            8 
 2321000   0.90297388   -6.7764073    729.64273  0.026197139  0.026100311            4 
 2322000   0.86537466   -6.7836839    728.08607  0.026129991  0.026092494           13 
 2323000   0.86363745   -6.7774039    729.46065  0.026168053   0.02608463            8 
 2324000   0.88697093   -6.7601992    729.22131  0.026148211  0.026076827           12 
 2325000   0.88085289   -6.7831471    729.11178  0.026133039  0.026069063           26 
 2326000   0.89200795   -6.7733517    728.46861  0.026098761   0.02606113            9 
 2327000   0.88936804   -6.7836635    727.67568  0.026059149  0.026053232            3 
 2328000   0.89119702   -6.7695874     728.8204  0.026088932  0.026045334            8 
 2329000   0.87125275   -6.8163007    728.75476  0.026075382  0.026037394           15 
 2330000   0.88316552   -6.8289705    726.19889  0.025972779  0.026029439            6 
 2331000   0.88316451   -6.7775001    728.19031   0.02603283  0.026021523            9 
 2332000    0.8827878    -6.807237    727.51389  0.025997495  0.026013669            4 
 2333000   0.88917333   -6.7721834    730.95408  0.026109233  0.026005801            8 
 2334000   0.88693545   -6.7969936    729.52209  0.026046918  0.025997966            4 
 2335000   0.85960265   -6.7642395    732.00531  0.026124386  0.025990095            5 
 2336000   0.85919681   -6.7833876    727.96847  0.025969195  0.025982256            7 
 2337000   0.89351063   -6.7667113    729.48507  0.026012162  0.025974403            6 
 2338000   0.87350407   -6.7445838     731.2637  0.026064432  0.025966509           14 
 2339000   0.87564377   -6.8149727     729.4938  0.025990231  0.025958679           12 
 2340000    0.8830772   -6.8063309    729.60032  0.025982917    0.0259507           11 
 2341000   0.86723132   -6.7760881    730.46337  0.026002541  0.025942745            5 
 2342000   0.88352386   -6.7780473    732.24473  0.026054822  0.025934844            6 
 2343000   0.86989075   -6.7818175    730.83684  0.025993628  0.025927014           10 
 2344000   0.88176354   -6.7934426    730.11884  0.025957012  0.025919235            4 
 2345000   0.90037402   -6.7784198    729.48925   0.02592357  0.025911339            3 
 2346000   0.86943654   -6.7502449    731.26151  0.025975473  0.025903462            4 
 2347000   0.88094766   -6.8092408     732.4759  0.026007524  0.025895586            9 
 2348000   0.91050645   -6.7620773    730.93535  0.025941771  0.025887736            6 
 2349000   0.86698089   -6.7656822    732.29064  0.025978808  0.025879889            8 
 2350000   0.87003292   -6.7800823    729.60767  0.025872612  0.025871982            4 
 2351000   0.87474866    -6.783694    729.07817  0.025842839  0.025864089            6 
 2352000   0.89111305   -6.7659089    732.39236  0.025949276  0.025856166            3 
 2353000   0.85091446    -6.750316    732.29146  0.025934674  0.025848212           18 
 2354000   0.87371048   -6.7918665    733.19004  0.025955467  0.025840293           10 
 2355000   0.87597311   -6.7963705      732.015  0.025902866  0.025832433            9 
 2356000   0.86306839   -6.8047945      734.155  0.025967565  0.025824651            6 
 2357000   0.87854562   -6.7824758    731.89644  0.025876695  0.025816836            5 
 2358000   0.87373774   -6.7711713    731.97599  0.025868532  0.025808965           10 
 2359000   0.86973276   -6.8117168    731.17469   0.02582926  0.025801104            7 
 2360000   0.88162566   -6.7953288    731.94673  0.025845577  0.025793204            9 
 2361000   0.86618432   -6.7810173    733.29117  0.025882083   0.02578533            8 
 2362000   0.88467414   -6.8090531        731.8  0.025818515  0.025777428            5 
 2363000   0.87007956   -6.7777675     734.7259  0.025910774  0.025769553           10 
 2364000   0.87176142   -6.8169658    734.02025  0.025874938  0.025761678            4 
 2365000    0.8711707   -6.8166956    733.20705  0.025835344  0.025753811            7 
 2366000   0.86416676   -6.8105435    733.23795  0.025825513  0.025745961            5 
 2367000    0.8793454   -6.8059023    730.62716  0.025722685  0.025738116            6 
 2368000   0.86549772   -6.8139811    730.63252  0.025712011  0.025730187            7 
 2369000   0.85862377   -6.7591827     735.6431  0.025877413  0.025722235            9 
 2370000   0.87317848   -6.8025294    732.12363  0.025742744  0.025714394            4 
 2371000   0.88052641   -6.7844799    734.00829  0.025798126  0.025706555           10 
 2372000   0.87088858   -6.7951227    732.64875  0.025739487  0.025698606            8 
 2373000   0.86678494   -6.7969552    733.78224  0.025768445  0.025690716            4 
 2374000   0.86697996   -6.8258325    732.99203  0.025729852  0.025682707            4 
 2375000   0.86363153   -6.7805244    731.83811   0.02567853  0.025674789            3 
 2376000   0.87835596   -6.8054613    731.61975  0.025660064  0.025666854            6 
 2377000    0.8690926   -6.7896435    734.15203  0.025738046  0.025658977            3 
 2378000    0.8716013    -6.768072    734.95678  0.025755424  0.025651205           17 
 2379000   0.86822506   -6.8145151    734.42228  0.025725875  0.025643386            5 
 2380000   0.86748261   -6.8346362    732.57991  0.025650557  0.025635537            4 
 2381000   0.86260652   -6.7717092    734.48139  0.025706334  0.025627745            3 
 2382000   0.87480779   -6.7817238    735.24078   0.02572211   0.02561994            5 
 2383000   0.87493228   -6.7973049    735.31944  0.025714066   0.02561208            4 
 2384000   0.86074679   -6.7769573    735.22312  0.025699913   0.02560423            7 
 2385000   0.87809144   -6.7741344    737.71249  0.025776118  0.025596388            8 
 2386000     0.888824   -6.7902023    733.72569  0.025626072  0.025588561            5 
 2387000   0.88474141   -6.7953288     735.0527  0.025661664  0.025580689            7 
 2388000    0.8712148   -6.7970033    735.03105  0.025650162  0.025572854            8 
 2389000   0.88167718   -6.8280985    734.69919  0.025627849  0.025564961            9 
 2390000   0.85304208   -6.8142718    733.76067  0.025584403  0.025557077            9 
 2391000   0.86681201   -6.8503612    734.75454  0.025608342  0.025549166           11 
 2392000   0.84119681   -6.8133203    732.22585  0.025509541   0.02554126            6 
 2393000   0.85566685   -6.7870486    736.02529  0.025631191  0.025533374            9 
 2394000   0.86173363   -6.8107329    734.70974  0.025574691   0.02552553            6 
 2395000   0.87737459   -6.7736991    736.90943  0.025640551  0.025517599           11 
 2396000   0.87311104   -6.8366023    734.03924  0.025530024  0.025509741           11 
 2397000   0.86138855   -6.8007515    733.61067  0.025504473  0.025501799            6 
 2398000   0.86732204   -6.8156316    733.86916   0.02550282  0.025493865           11 
 2399000   0.88765674   -6.8080028      735.122  0.025535709  0.025486067            4 
 2400000   0.86096142   -6.7984496    735.27554  0.025530401  0.025478231            7 
 2401000   0.86625131   -6.7911876     737.5632  0.025599167  0.025470445            6 
 2402000   0.88471419   -6.8138939    735.13303  0.025504199   0.02546268            6 
 2403000   0.86395893   -6.8345102    734.58107  0.025474444  0.025454881            9 
 2404000   0.86545721    -6.774376    737.80011  0.025575434  0.025447095            7 
 2405000   0.88018385   -6.8242932    737.44478  0.025552487  0.025439328            7 
 2406000   0.87479547    -6.799971    737.71267  0.025551146  0.025431585            8 
 2407000   0.87325397   -6.7863491    738.47982   0.02556709  0.025423856            4 
 2408000   0.85651314   -6.8208525    737.52008  0.025523259  0.025416052            5 
 2409000   0.88489817   -6.8086807    737.44758  0.025510155  0.025408297           14 
 2410000   0.85882435   -6.7911872    739.22585   0.02556106  0.025400571            5 
 2411000   0.86283463   -6.7946629    737.82221  0.025501943  0.025392844            7 
 2412000   0.87747847   -6.7920994    737.72562  0.025488033  0.025385094            6 
 2413000   0.87508961   -6.8130197    738.32738  0.025498252   0.02537742            6 
 2414000   0.86623943   -6.8091211    739.18995  0.025517466  0.025369737            7 
 2415000   0.87677553   -6.8171684    738.17801  0.025471981  0.025362055           13 
 2416000   0.85724331    -6.797566    741.22301  0.025566467  0.025354411            7 
 2417000   0.86206288   -6.7914804    739.33291  0.025490722  0.025346759            8 
 2418000   0.83896999   -6.7894171     739.8517   0.02549806  0.025339088            5 
 2419000   0.86405569   -6.8333395    737.14163  0.025394158  0.025331368            4 
 2420000   0.88357244    -6.827123    739.33285   0.02545912  0.025323642            7 
 2421000   0.86002839   -6.8332559    739.07809  0.025439835  0.025315903            7 
 2422000   0.84826812   -6.7893172    740.70108  0.025485173  0.025308252            6 
 2423000    0.8690471    -6.801054    740.59395  0.025470971  0.025300632            5 
 2424000   0.87244567   -6.8173481      740.279  0.025449636  0.025293113            9 
 2425000   0.86979118   -6.7996993    741.92346  0.025495652  0.025285535            8 
 2426000   0.84099993   -6.8276954    737.88637  0.025346468   0.02527788            7 
 2427000   0.87722228   -6.8088779    741.93363  0.025474991  0.025270257            7 
 2428000    0.8514936   -6.8137279    740.09941  0.025401545   0.02526264           10 
 2429000   0.85175155   -6.8332321    740.72736  0.025412631  0.025255022           10 
 2430000   0.86420174    -6.799682    740.30058  0.025387537  0.025247384            6 
 2431000   0.84425672   -6.7819674    741.75977  0.025427114   0.02523976            4 
 2432000   0.86354182   -6.8319275    740.27315  0.025365719  0.025232134            3 
 2433000   0.87678417   -6.8145523    742.08761  0.025417441  0.025224481            8 
 2434000   0.84455009   -6.8206923    739.94393  0.025333605  0.025216824            7 
 2435000   0.87575818   -6.8123581    741.57748  0.025379106  0.025209195            9 
 2436000   0.85943977   -6.8505178    740.56402  0.025334018  0.025201451           10 
 2437000   0.85447378   -6.8437589    741.00407   0.02533867  0.025193656            8 
 2438000   0.84901909   -6.8254069    740.37779   0.02530687  0.025185901            7 
 2439000   0.87079432    -6.831083     739.2218  0.025256997  0.025178196           11 
 2440000   0.88107001   -6.8214105    740.57894  0.025292997  0.025170453           14 
 2441000   0.85602135    -6.834069    740.90174  0.025293655  0.025162728            5 
 2442000   0.84908216   -6.8442648    740.50009  0.025269591   0.02515499            9 
 2443000   0.88819306   -6.8298797    740.15865    0.0252476  0.025147309           18 
 2444000   0.86271819   -6.8587781    740.97473  0.025265096  0.025139583            9 
 2445000   0.86702213   -6.8534422    740.27805  0.025231018  0.025131909           10 
 2446000   0.86520806   -6.8362723    741.38979  0.025258578  0.025124212           12 
 2447000   0.86603808   -6.8793395    740.00125  0.025200969  0.025116454            7 
 2448000   0.85047171   -6.8456006    740.36638  0.025203104  0.025108766            5 
 2449000   0.86665797   -6.8547072      740.537  0.025198619  0.025101069            5 
 2450000   0.86022094   -6.8178203    742.75769  0.025263867  0.025093441           10 
 2451000   0.84998194   -6.8016418    742.47717  0.025244022  0.025085808            6 
 2452000   0.85986592   -6.7955669    742.69807  0.025241234   0.02507817           17 
 2453000   0.85561193   -6.8552846    741.94871  0.025205487  0.025070521            9 
 2454000   0.86068155   -6.7883584    743.22293  0.025238486  0.025062844            6 
 2455000   0.87319516   -6.8169685    744.13532  0.025259176  0.025055248           10 
 2456000   0.85437536   -6.8396501    741.60196  0.025162933  0.025047618            8 
 2457000   0.84416201    -6.839094    743.14347  0.025204974   0.02503999            8 
 2458000   0.86371618   -6.8261734    744.32925  0.025234922  0.025032445            5 
 2459000   0.86509842   -6.8099024    744.48059  0.025229788  0.025024892            3 
 2460000    0.8617391   -6.8548295    745.18575   0.02524342  0.025017315            6 
 2461000    0.8531407   -6.8411645    744.29417  0.025202972  0.025009712            7 
 2462000   0.87125257   -6.8493434    742.99922  0.025148904  0.025002104            4 
 2463000   0.85539585   -6.8466185    744.92596  0.025203883  0.024994478            8 
 2464000   0.87562787   -6.8410172    744.50652  0.025179468  0.024986913            9 
 2465000   0.84551311   -6.8046128    744.97574  0.025185116  0.024979381           16 
 2466000   0.87003893   -6.8303011     746.1567  0.025214812  0.024971807            8 
 2467000   0.85311842   -6.8535136    743.88905  0.025127991  0.024964233            4 
 2468000   0.86510138   -6.8252059    743.43609  0.025102515  0.024956599           11 
 2469000   0.84603734   -6.8227509    744.38433  0.025124353  0.024949024            5 
 2470000   0.85658429   -6.8206242    745.89051  0.025164997  0.024941455            6 
 2471000   0.85588519   -6.8080536     747.2602  0.025201005  0.024933918            9 
 2472000   0.85794451   -6.8258133    745.63843  0.025136139  0.024926381            3 
 2473000   0.83415916   -6.8658924    744.99845  0.025104409  0.024918854            5 
 2474000   0.85425539   -6.8283183    746.57386  0.025147327  0.024911278           11 
 2475000   0.85117397   -6.8237997    745.21915  0.025091554  0.024903765           14 
 2476000   0.85370113   -6.8392718    747.68959  0.025164566  0.024896331           24 
 2477000   0.86106402   -6.8619842     745.8023  0.025090913    0.0248889            4 
 2478000   0.86569558   -6.8499294    747.89738  0.025151244  0.024881363            4 
 2479000   0.83428193   -6.8406782    746.88372  0.025107023  0.024873839            5 
 2480000    0.8626823   -6.8260828    746.13502  0.025071741   0.02486637            5 
 2481000   0.89152522   -6.8642275    744.82074  0.025017491  0.024858868           13 
 2482000   0.85491789   -6.8471005    747.48503  0.025096865  0.024851331            6 
 2483000   0.87561191   -6.8467788    745.99807  0.025036853  0.024843784            8 
 2484000   0.86360028   -6.8878398    746.94879  0.025058668   0.02483624            5 
 2485000   0.84546963   -6.8494895    745.97739  0.025016009  0.024828678            8 
 2486000   0.85331822   -6.8786302    745.06271  0.024975285  0.024821173            6 
 2487000   0.84482122   -6.8298922    748.42711  0.025077976  0.024813657            6 
 2488000   0.85636029   -6.8384402    748.24813  0.025061901  0.024806175            7 
 2489000   0.85540647   -6.8591743    745.24386  0.024951248  0.024798631           10 
 2490000   0.86972053   -6.8340963      748.225  0.025040997  0.024791087            6 
 2491000   0.85957927   -6.8486346    746.70107  0.024979964  0.024783597           10 
 2492000   0.86325045   -6.8443924    745.22958  0.024920732  0.024776117            7 
 2493000   0.83269106   -6.8494905    746.64673  0.024958107  0.024768669            7 
 2494000   0.85632433   -6.8065018    747.36789  0.024972196  0.024761206           11 
 2495000   0.85100586    -6.872082     746.7226  0.024940634  0.024753732            8 
 2496000    0.8567315   -6.8497606    749.33554   0.02501788  0.024746237            8 
 2497000   0.86262558   -6.8225721      748.462  0.024978708  0.024738757            5 
 2498000   0.85719317   -6.8306453    748.56879  0.024972271  0.024731294            7 
 2499000   0.86000461   -6.8735333    746.54636  0.024894837  0.024723809            9 
 2500000   0.85554785   -6.8506624    746.39623  0.024879874  0.024716247            8 
 2501000   0.85073227   -6.8341517    747.92926  0.024921007  0.024708741            5 
 2502000   0.83986899   -6.8543795    746.95402  0.024878564  0.024701179            9 
 2503000    0.8569259   -6.8482631    746.93134   0.02486787  0.024693619            5 
 2504000   0.86728884   -6.8469135    748.44646  0.024908362  0.024686074            9 
 2505000   0.85669554   -6.8904267    744.53826  0.024768405  0.024678529            7 
 2506000   0.85822734   -6.8865452    746.11843  0.024811068  0.024670942            9 
 2507000   0.83864885   -6.8734445    746.45453  0.024812343  0.024663316            5 
 2508000     0.831176   -6.8695282    745.94012  0.024785358  0.024655722           19 
 2509000   0.85177956   -6.8477611    748.85577  0.024872319  0.024648137            8 
 2510000   0.86299519   -6.8887923    745.46399  0.024749801   0.02464058            9 
 2511000   0.85628539   -6.8801239    748.46964  0.024839693  0.024633007           14 
 2512000   0.84644968   -6.8976952    745.96971  0.024746872  0.024625463           18 
 2513000   0.83920927   -6.8750539    747.45729  0.024786354  0.024617888            7 
 2514000   0.84749631   -6.8603319     749.2146  0.024834745   0.02461034            6 
 2515000   0.84919238   -6.8628503    747.60139  0.024771418  0.024602739            9 
 2516000   0.84779994   -6.8856867     747.6224  0.024762268  0.024595195            4 
 2517000   0.85633176   -6.8532862    749.09437  0.024801164  0.024587616           10 
 2518000    0.8657826   -6.8529433    750.07727  0.024823844  0.024580089            6 
 2519000   0.84181398   -6.8935506    746.47863   0.02469494  0.024572509            5 
 2520000   0.84846648   -6.8626459     749.1281  0.024772755   0.02456493           10 
 2521000   0.84911893   -6.8822417     747.7091  0.024716022   0.02455735            5 
 2522000    0.8386252   -6.8656549    747.43273   0.02469709  0.024549746           12 
 2523000   0.85749199   -6.8740817    748.58349   0.02472531  0.024542113            5 
 2524000   0.84686673   -6.8869427    747.92983  0.024693933   0.02453452            3 
 2525000   0.87122115   -6.8964191    746.12229  0.024624498  0.024526875           16 
 2526000   0.86163885    -6.930679    746.63395   0.02463163  0.024519191           12 
 2527000   0.84865674   -6.8706913     749.1664  0.024705395   0.02451154            5 
 2528000   0.84220797    -6.886787    746.63663  0.024612231  0.024503877            6 
 2529000   0.85362737   -6.8686121    747.29074  0.024624052  0.024496301            8 
 2530000   0.82594869   -6.8884117    748.34288  0.024648975  0.024488703           11 
 2531000   0.87873582   -6.8470826    750.43795  0.024708216  0.024481145           13 
 2532000   0.83547358   -6.8282853    751.24301  0.024724954   0.02447371            5 
 2533000   0.83894666    -6.833651    750.65631  0.024695891  0.024466219           11 
 2534000   0.84115375   -6.8615777    748.43642  0.024613142  0.024458746            5 
 2535000   0.86026058   -6.8384234    751.02227  0.024688437  0.024451317            6 
 2536000   0.84127121   -6.8611163    750.72321  0.024668875  0.024443783           16 
 2537000   0.84682745   -6.8982606    749.42581  0.024616535  0.024436266            9 
 2538000   0.85648453   -6.8706162    751.41997  0.024672313  0.024428725            5 
 2539000   0.85020397   -6.8680572    750.85484  0.024644048  0.024421251            4 
 2540000   0.83953288   -6.8775212    752.42693  0.024685923  0.024413779           10 
 2541000    0.8397097   -6.8743749    753.07189   0.02469736  0.024406301            6 
 2542000   0.85148341   -6.8449617    752.51998  0.024669551  0.024398874            5 
 2543000   0.85380603   -6.8404157    751.44859  0.024624741  0.024391408            8 
 2544000   0.85147527   -6.8923753    751.56016  0.024618716  0.024383952            8 
 2545000   0.84731018   -6.8540819    750.65454  0.024579389  0.024376501            6 
 2546000    0.8383834   -6.9135281    749.92838  0.024545967  0.024368995            6 
 2547000   0.86303143   -6.8987666    748.80025  0.024499419  0.024361468           12 
 2548000   0.83846242    -6.857267    751.19929  0.024568266  0.024353967            7 
 2549000   0.84481934   -6.8987918    749.36746   0.02449874  0.024346455            8 
 2550000   0.84303018   -6.8719964    750.18395  0.024515815  0.024339008            3 
 2551000   0.84002603   -6.8774647    750.70571   0.02452325  0.024331552           13 
 2552000   0.82708921   -6.8826098    751.17548   0.02452898  0.024324056           16 
 2553000   0.85677978   -6.8862684    751.72476  0.024537301  0.024316485            6 
 2554000   0.83981396   -6.8532099    752.03209  0.024537721  0.024308974            6 
 2555000   0.83128674   -6.8381411    754.03462  0.024593432  0.024301552            6 
 2556000   0.83888479   -6.8819681    753.14227  0.024554717  0.024294125            6 
 2557000   0.83209048   -6.9053984     750.6216  0.024462964  0.024286714           13 
 2558000   0.84694051   -6.8497561    752.68461  0.024520609  0.024279277           11 
 2559000   0.86554463   -6.8842453    751.98744  0.024488324  0.024271768           14 
 2560000   0.82414346    -6.915825    749.97957  0.024413397  0.024264194           18 
 2561000   0.84601038   -6.8877741    752.89928   0.02449887  0.024256745           18 
 2562000   0.85279141   -6.9191803    751.80772  0.024453803  0.024249266           16 
 2563000   0.83031838   -6.8815922     752.8189  0.024477139  0.024241774           16 
 2564000   0.84526766   -6.8850911    752.73103  0.024464737  0.024234309           10 
 2565000   0.84764602   -6.8398369    754.25757  0.024504794  0.024226893           17 
 2566000   0.86052584   -6.8789622     752.4734  0.024437302    0.0242195            6 
 2567000   0.83107502   -6.8765662    753.36497  0.024456725  0.024212108            7 
 2568000   0.85020138   -6.9147323    752.04743  0.024404447  0.024204638            9 
 2569000   0.83604155    -6.883759    754.58881  0.024477384  0.024197161           11 
 2570000    0.8284317   -6.8929561    751.39161   0.02436419  0.024189727            5 
 2571000   0.83307002   -6.8947575    753.04194  0.024408205  0.024182365            8 
 2572000   0.85688255   -6.9098789    753.66439  0.024418882  0.024174972            7 
 2573000   0.84978933   -6.9084492    754.35162   0.02443165  0.024167598            5 
 2574000   0.83319957   -6.8820194    754.48085  0.024426342  0.024160218            6 
 2575000   0.83349055   -6.8854917    756.37094  0.024478024  0.024152861            6 
 2576000   0.84535914   -6.8898007    754.75088  0.024416113  0.024145544            4 
 2577000   0.85187957    -6.871475    754.77653  0.024407468  0.024138202            9 
 2578000   0.84365538   -6.8910979    755.79452  0.024430906  0.024130893           15 
 2579000   0.83808156   -6.8857819    754.67078  0.024385123  0.024123624            5 
 2580000   0.84242321   -6.9038866    755.05016  0.024387925  0.024116321            9 
 2581000    0.8448041   -6.8911454    755.91209  0.024406305  0.024109029           13 
 2582000   0.84757419   -6.8863472    756.48172  0.024415237  0.024101733            8 
 2583000   0.84168615   -6.9063188    755.95173  0.024388687  0.024094457            5 
 2584000   0.82369018   -6.8849846    755.51238  0.024365079  0.024087222            5 
 2585000   0.84150753   -6.8645728    757.72697  0.024427046   0.02408002           10 
 2586000   0.84182899   -6.8457184    758.64453  0.024447168  0.024072842            5 
 2587000   0.82564252   -6.8867613    758.49685  0.024432961  0.024065696           20 
 2588000   0.82202901   -6.8928091    756.60153  0.024362491  0.024058473            5 
 2589000   0.83940719   -6.8825704    757.75957  0.024390356  0.024051225           11 
 2590000    0.8596044   -6.8803409    757.76211   0.02438102  0.024043979            6 
 2591000   0.82533837   -6.8828131    757.98273  0.024378706  0.024036731            7 
 2592000    0.8496836   -6.9086355    756.31285  0.024315614  0.024029446           14 
 2593000    0.8357047   -6.9015818    757.06899  0.024330537  0.024022203            6 
 2594000   0.83968672   -6.9320539    756.65375  0.024307818  0.024014978           11 
 2595000   0.86752813   -6.8952844    758.80448  0.024367517  0.024007789            9 
 2596000   0.84916702   -6.8496538    758.40524  0.024345315  0.024000636            8 
 2597000   0.82359724   -6.8650393    762.42155  0.024464817  0.023993553            7 
 2598000   0.86830914   -6.9143978    758.21929  0.024320608   0.02398643           15 
 2599000   0.83710703   -6.9277228    759.08814  0.024339109  0.023979226            8 
 2600000   0.84820122   -6.9081922    757.78362  0.024287937  0.023971967           11 
 2601000   0.83000643   -6.9234317    758.46371  0.024300388  0.023964749            7 
 2602000   0.84980913    -6.916688    760.49165  0.024355997  0.023957549            8 
 2603000   0.83043678   -6.9481562    758.20903  0.024273564  0.023950327           15 
 2604000   0.84170635   -6.8876406    760.39341  0.024334146  0.023943104           15 
 2605000   0.82816082   -6.9386052    758.92057  0.024277689   0.02393591            5 
 2606000   0.83632972   -6.8761307    759.37716  0.024282974  0.023928743            4 
 2607000   0.82111211   -6.8856158    758.21729  0.024236584  0.023921569            9 
 2608000   0.83482038   -6.8840889    761.19118  0.024322315  0.023914405           16 
 2609000   0.82681884   -6.9095889    759.67016   0.02426441  0.023907227            8 
 2610000   0.83477095   -6.8858839    758.70555  0.024224315  0.023900054            5 
 2611000   0.83866174   -6.9139531    760.20132  0.024262777  0.023892885            6 
 2612000   0.84994282   -6.9174806     760.2812  0.024256036  0.023885737            8 
 2613000   0.83149063   -6.9221219    760.05193  0.024239442  0.023878618            8 
 2614000    0.8215388   -6.9151259    758.27983  0.024173675  0.023871488           18 
 2615000    0.8288952   -6.9039841    760.23386    0.0242267  0.023864366            8 
 2616000   0.81194621   -6.9142679    760.51099  0.024226267  0.023857208           10 
 2617000   0.83679319   -6.9364739    759.87349   0.02419671  0.023850028            5 
 2618000   0.82448061   -6.8708121    758.96462  0.024158538  0.023842895            9 
 2619000   0.82506003   -6.8857902    760.63706  0.024202528  0.023835774            6 
 2620000   0.81752945   -6.8956097    760.99566  0.024204697  0.023828687            6 
 2621000    0.8312734   -6.8840351    762.07054  0.024229637    0.0238216            8 
 2622000   0.83528456   -6.8797419    762.16837  0.024223505  0.023814529            5 
 2623000   0.84742416   -6.9098014     761.3256  0.024187495   0.02380746            7 
 2624000   0.81916393   -6.8870448    762.57122  0.024217836  0.023800396           10 
 2625000   0.83819285   -6.9131664    760.69142  0.024148934  0.023793366            6 
 2626000   0.82060441   -6.9208409    763.17342  0.024218501  0.023786343            6 
 2627000   0.82628396    -6.899327    763.74723  0.024227485  0.023779329            7 
 2628000   0.85117945   -6.9073076    763.37789  0.024206554  0.023772312            7 
 2629000   0.79626049   -6.9276837    762.16716  0.024158969  0.023765262           19 
 2630000   0.83636676   -6.8909095    763.40523  0.024189012  0.023758176            8 
 2631000   0.84421347   -6.9025889    763.00736  0.024167216  0.023751102           14 
 2632000   0.83038414   -6.9225609    761.48551   0.02410985  0.023744044           18 
 2633000   0.83717761    -6.934042    760.95997   0.02408406  0.023736934           14 
 2634000   0.82680153   -6.9547363    760.57266  0.024062663  0.023729794           19 
 2635000   0.83055587   -6.9080925    763.09608  0.024133336  0.023722696            6 
 2636000   0.84213495   -6.9083663    762.95505  0.024119722  0.023715645            7 
 2637000   0.82877069   -6.9004768    763.42449   0.02412541  0.023708622           18 
 2638000   0.82085809   -6.8878339    763.34665  0.024113806  0.023701569           21 
 2639000   0.83454456   -6.9124342    761.82438  0.024056599  0.023694538            7 
 2640000   0.82033504   -6.8789551    763.78231   0.02410929  0.023687476            6 
 2641000   0.80988539   -6.9250343    763.97041  0.024106096  0.023680406            9 
 2642000   0.84372797   -6.9598959    763.14822  0.024071039  0.023673311            9 
 2643000   0.81546184   -6.9298553    763.04786  0.024058767  0.023666174           12 
 2644000    0.8373298    -6.906313    763.39381  0.024060571  0.023659163            6 
 2645000    0.8275493   -6.9307876    762.25151  0.024015486  0.023652083           10 
 2646000   0.81671353   -6.9254513    763.25832  0.024038118  0.023644941            8 
 2647000   0.81616219   -6.9283194    761.64736   0.02397832  0.023637841            5 
 2648000    0.8388733   -6.9001153     763.9154  0.024040641  0.023630706            7 
 2649000   0.82563843   -6.9000132    763.84429  0.024029329  0.023623617            6 
 2650000   0.84987698   -6.9287192    765.51659  0.024072849  0.023616528           13 
 2651000   0.83031391   -6.9511845    761.85701   0.02394873  0.023609398            6 
 2652000   0.81695709   -6.8948718    763.71443  0.023998065  0.023602324            8 
 2653000   0.81061112   -6.9247225    762.25733  0.023943251  0.023595216            7 
 2654000   0.83451707   -6.9345015    761.30939  0.023904465  0.023588079           11 
 2655000   0.83176392   -6.9169359     761.0826  0.023888343  0.023580936            7 
 2656000   0.82953957    -6.957515    759.78767  0.023838719  0.023573792            9 
 2657000   0.82931875   -6.9160394    762.04138  0.023900432  0.023566663           11 
 2658000   0.81704658   -6.9078983    763.36505   0.02393294  0.023559604            9 
 2659000   0.80789011   -6.9200563    762.53532  0.023897935  0.023552534           13 
 2660000   0.84314869   -6.9153778    764.72805  0.023957646  0.023545487           12 
 2661000   0.83663746   -6.9005487    764.30857  0.023935506  0.023538414           10 
 2662000   0.82562302   -6.8751528    765.86222  0.023975151  0.023531438            7 
 2663000   0.82331086   -6.8966635    764.96964  0.023938216  0.023524411            9 
 2664000   0.81679861   -6.9394148     764.0884  0.023901664  0.023517326           12 
 2665000   0.81809399   -6.9242744    764.99176  0.023920943   0.02351023           14 
 2666000   0.82125009    -6.928921    763.42725  0.023863067  0.023503121           11 
 2667000   0.82245019   -6.9628646    763.47161  0.023855506  0.023495998            6 
 2668000   0.81026579   -6.9784469    762.56909  0.023818375  0.023488746           14 
 2669000   0.82300297   -6.9470966    763.83935  0.023849112  0.023481592            9 
 2670000    0.8190392   -6.9315449    762.58657  0.023801079  0.023474465            6 
 2671000   0.83495226   -6.9269984     765.9981  0.023898605  0.023467385            8 
 2672000   0.84203211   -6.9198387     763.2017  0.023802448  0.023460291            4 
 2673000   0.82158906   -6.9306335     763.1675  0.023792477  0.023453162           10 
 2674000   0.81790912   -6.9075347    766.08251  0.023874424  0.023446038           14 
 2675000   0.82099679   -6.9180248    764.98301  0.023831246  0.023438924            5 
 2676000   0.82525934   -6.9390032    763.95301  0.023790266   0.02343183           13 
 2677000   0.83914334   -6.9609469     762.6097  0.023739562  0.023424679            5 
 2678000   0.83959338   -6.9206965    766.47107  0.023850855  0.023417561            5 
 2679000   0.82076122    -6.939465     763.2813   0.02374273  0.023410484            5 
 2680000   0.82283264   -6.9159942    764.76124  0.023779889  0.023403424           10 
 2681000   0.82666334   -6.9001153    766.35197  0.023820464  0.023396291           17 
 2682000   0.81067911   -6.9558452    762.71632  0.023698618  0.023389135            9 
 2683000   0.83928294   -6.9087709     764.6947  0.023751233  0.023381975           10 
 2684000   0.82520165   -6.9438896    765.50861  0.023767654  0.023374813           10 
 2685000   0.83624889   -6.9834109    761.21804  0.023625638  0.023367539           12 
 2686000   0.81780412   -6.9542601    763.97886  0.023702496  0.023360315            8 
 2687000   0.81853926   -6.9123383    764.94152  0.023723531  0.023353143           11 
 2688000   0.83938198   -6.9063148    764.12598  0.023689422  0.023346078           12 
 2689000    0.8364176   -6.9200064    765.33072  0.023717947  0.023339026            7 
 2690000   0.82018408   -6.9269048    766.77101  0.023753749   0.02333192            8 
 2691000   0.82488172   -6.9386113    764.61013  0.023678005  0.023324728           25 
 2692000   0.81839278   -6.9363039    764.11304  0.023653821  0.023317588           17 
 2693000   0.82380757   -6.9291846    764.99722  0.023672398  0.023310389            5 
 2694000   0.81883441   -6.9613919    761.27346  0.023548424  0.023303195            9 
 2695000   0.82540564   -6.9378426    764.80155   0.02364878  0.023296028            7 
 2696000    0.8152191   -6.9542842    763.44702   0.02359814  0.023288801            9 
 2697000   0.81443268    -6.926295     764.2629    0.0236146  0.023281644           10 
 2698000   0.82197044    -6.955011    764.23559  0.023605003  0.023274505            8 
 2699000   0.82746275   -6.9529166    762.63525  0.023546846  0.023267378           20 
 2700000   0.82774446   -6.9537394    762.85392  0.023544874  0.023260189           19 
 2701000   0.81760192   -6.9442219    764.60383  0.023590146  0.023252972            5 
 2702000   0.83379747   -6.9590159     763.3969  0.023544193  0.023245774           12 
 2703000    0.8201057   -6.9439557    765.73359  0.023607522  0.023238558            8 
 2704000   0.81059687   -6.9618238    764.54656  0.023562209  0.023231369           16 
 2705000   0.81943864   -6.9022625    766.07758  0.023600665  0.023224199            9 
 2706000   0.82517339   -6.9621475    763.56123   0.02351445  0.023217023            7 
 2707000   0.79666738   -6.9496882    763.96557  0.023518211  0.023209819           11 
 2708000   0.82969065   -6.9820019     763.1726  0.023485124  0.023202527            8 
 2709000   0.84126779   -6.9509999    763.64723  0.023491055  0.023195224           10 
 2710000   0.81941081   -6.9358186    764.23359  0.023500418  0.023188006           11 
 2711000   0.81047104   -6.9570128    764.89938  0.023512215  0.023180788            8 
 2712000   0.81906935   -6.9667852    763.65743  0.023465383  0.023173549            6 
 2713000   0.80300782   -6.9703945    763.28341  0.023445245   0.02316629           10 
 2714000   0.81545444   -6.9708266    762.24426    0.0234047   0.02315905           12 
 2715000    0.8260769    -6.951084    762.88667  0.023415797  0.023151795            8 
 2716000   0.80598571    -6.946972    763.89744  0.023438189  0.023144551           12 
 2717000   0.82710244   -6.9496424    762.14273  0.023375743  0.023137307           16 
 2718000   0.82878597   -6.9500773    763.66842   0.02341392  0.023130043           13 
 2719000   0.81459024   -6.9805274    764.53642  0.023431912  0.023122762           10 
 2720000   0.81690176   -6.9533054    765.06746  0.023439567  0.023115491           10 
 2721000   0.81384345   -6.9525731     763.9887  0.023397914  0.023108272            8 
 2722000    0.8194273   -6.9554834    764.14301  0.023394043  0.023101013            7 
 2723000   0.81306112   -6.9696684    763.57868  0.023368181  0.023093725            4 
 2724000   0.82541697   -6.9873528    762.62089  0.023330301  0.023086451            7 
 2725000   0.81879911   -6.9567802    764.46203  0.023378044  0.023079175            8 
 2726000   0.82279636   -6.9684442     763.8481    0.0233507  0.023071919           10 
 2727000   0.81424205     -6.94358    764.44171  0.023360277  0.023064671            8 
 2728000   0.82078476   -6.9444049    765.40881  0.023381256  0.023057468            6 
 2729000   0.82679628     -6.92235    765.39353  0.023372222  0.023050242           22 
 2730000   0.80608822   -6.9813037    764.35054  0.023331824  0.023042996            9 
 2731000   0.80708226   -6.9497661    765.59084  0.023361126  0.023035784            7 
 2732000   0.80941564   -6.9388987    765.76597  0.023357917  0.023028594           10 
 2733000      0.82174   -6.9474066    766.52996  0.023372666  0.023021417            5 
 2734000   0.83113889    -6.975017    765.89489   0.02334476  0.023014211           11 
 2735000    0.8034455   -6.9376934    768.15422  0.023405065  0.023007019            7 
 2736000   0.80977647   -6.9858777    764.46242  0.023284065  0.022999776           14 
 2737000   0.80647817   -6.9597858    764.84959  0.023287346  0.022992567           11 
 2738000   0.81619496   -6.9421423    766.64341  0.023333437   0.02298535            8 
 2739000    0.8193977   -6.9434979    766.62655  0.023324405  0.022978244           16 
 2740000   0.81590395   -6.9598171     765.8969  0.023293701  0.022971052           21 
 2741000   0.79152342   -6.9637047    764.01161  0.023227886   0.02296383           14 
 2742000   0.81588525   -6.9963342     764.3307  0.023229112  0.022956587            9 
 2743000   0.81214838   -6.9837501    766.12315  0.023275099  0.022949318            8 
 2744000   0.82089007    -6.944121    766.52717  0.023278886  0.022942119            5 
 2745000   0.80646077   -6.9680855    766.63506  0.023273681   0.02293496            6 
 2746000   0.80466355   -6.9744396      766.019   0.02324651   0.02292778            7 
 2747000   0.80933588    -6.974059    766.86263   0.02326364  0.022920621           11 
 2748000    0.7925377   -6.9663671    765.81802  0.023223497   0.02291341            6 
 2749000   0.79779504   -6.9745985    765.45679  0.023204098  0.022906234            8 
 2750000   0.81593098     -6.97768    767.02709  0.023243245   0.02289907            6 
 2751000   0.81813626   -6.9414159    768.77103  0.023287624  0.022891882            5 
 2752000   0.81930812   -6.9469858    768.96329  0.023284983  0.022884759           11 
 2753000   0.81710892   -6.9439367    767.43117  0.023230148  0.022877635            8 
 2754000   0.81477041   -6.9413295     766.8346  0.023203661  0.022870524            6 
 2755000   0.81336036   -6.9646739    766.24495  0.023177403  0.022863399            5 
 2756000   0.82499931   -6.9873064    766.45955  0.023175482  0.022856254           15 
 2757000   0.82150431   -6.9771945    766.95575  0.023182074  0.022849112           12 
 2758000   0.80887544   -6.9815618    767.32595  0.023184855  0.022841946            9 
 2759000    0.7995382   -6.9896606    766.76912  0.023159633  0.022834777           10 
 2760000   0.80583124   -6.9940125    766.89826  0.023155141  0.022827595            7 
 2761000   0.82172279   -7.0041595    764.61822  0.023077937  0.022820447            9 
 2762000   0.80335154   -6.9859882    766.80925  0.023135688  0.022813288            7 
 2763000   0.81572056   -6.9842123    764.87113   0.02306886  0.022806102            6 
 2764000    0.7855343   -7.0217754    765.06422  0.023066336  0.022798876            9 
 2765000   0.81625786   -6.9467065    766.16213  0.023091083  0.022791659           13 
 2766000   0.81162144   -6.9896753    768.34183  0.023148404   0.02278448            9 
 2767000   0.82072279   -7.0026728    768.49737  0.023144723  0.022777241           10 
 2768000   0.78230478   -7.0266436    765.66838  0.023051192  0.022770037           15 
 2769000   0.81458665   -7.0239261    767.61741  0.023101523  0.022762771           10 
 2770000   0.79833433   -7.0278168    764.19243  0.022990145   0.02275556           26 
 2771000   0.81506467   -6.9831622    768.04713  0.023097772  0.022748357           15 
 2772000   0.80386184     -6.97743    766.10548  0.023031069   0.02274114           24 
 2773000   0.80879575   -7.0110777    766.41512  0.023032069  0.022733937           10 
 2774000     0.832988   -7.0006292    768.45589  0.023085072  0.022726727            4 
 2775000   0.79783998   -6.9966587      769.248  0.023100541  0.022719536           10 
 2776000   0.82324934   -7.0028027    769.23538   0.02309184  0.022712418           22 
 2777000   0.80378661   -6.9783746     767.2327  0.023023428   0.02270524            7 
 2778000   0.81207853   -6.9747226    768.85808  0.023063897  0.022698124            7 
 2779000   0.80390056   -6.9873656    770.50669  0.023105035   0.02269104           11 
 2780000   0.80177626   -6.9978122    769.94236  0.023079807  0.022683918            4 
 2781000    0.7955918   -6.9830122    770.81561  0.023097675  0.022676815           12 
 2782000   0.80501966   -6.9932734    768.06886  0.023007095  0.022669684           16 
 2783000   0.79652257   -6.9575171    768.03118    0.0229977  0.022662513            9 
 2784000   0.80541491   -7.0169989    767.85096  0.022984045  0.022655416           14 
 2785000   0.80528647   -6.9946072    769.32971  0.023020039  0.022648312            7 
 2786000   0.80539911   -6.9801871    767.75334  0.022964625  0.022641177           16 
 2787000   0.80450118   -7.0034861    768.86769  0.022989705  0.022634043           21 
 2788000   0.81771505   -6.9883915    766.74841  0.022918114  0.022626929            8 
 2789000   0.79653281   -6.9715611     770.1786  0.023012388  0.022619832           10 
 2790000   0.82163262   -6.9658451    768.92388  0.022966663  0.022612733            7 
 2791000   0.79969438   -6.9861362    769.60168  0.022978672  0.022605616           11 
 2792000   0.80485534   -6.9760282    769.54429  0.022968729  0.022598539            4 
 2793000   0.79465721   -6.9768839    769.03457  0.022945297  0.022591442           11 
 2794000   0.79182685   -6.9965683    768.77326  0.022929291  0.022584377            6 
 2795000   0.80620885   -7.0084551    767.31814  0.022877702  0.022577282            7 
 2796000   0.81370342   -6.9997578    769.90298   0.02294656  0.022570155           13 
 2797000    0.8066696   -7.0120596    769.69139  0.022932052  0.022563052            7 
 2798000   0.80142351   -6.9723831    771.16833  0.022967844  0.022555994            4 
 2799000   0.80322879   -7.0226417    768.11695  0.022868791  0.022548897           12 
 2800000   0.78008535   -7.0223213    769.28525  0.022895394  0.022541746           15 
 2801000   0.79668448   -7.0069735    768.97326  0.022877938    0.0225346           13 
 2802000   0.81980681   -7.0057074    767.98627   0.02284042  0.022527443            7 
 2803000   0.80603877   -6.9943694    769.28437  0.022870864  0.022520363           11 
 2804000   0.80878995   -7.0061813    769.75475  0.022876686  0.022513283           13 
 2805000   0.81060546   -7.0160788    769.08334  0.022848584  0.022506158           25 
 2806000   0.79116608   -6.9966898    769.19759  0.022843834  0.022499048           11 
 2807000   0.78454907   -6.9986907    770.38023  0.022870806  0.022491908           14 
 2808000   0.81518533   -7.0114644    768.94459  0.022820055  0.022484815           12 
 2809000   0.81496472   -6.9552702    769.43216  0.022826396  0.022477709           27 
 2810000   0.80596634   -6.9965989    767.41824  0.022758548  0.022470579           22 
 2811000   0.80119022   -7.0147161    767.84872  0.022763214  0.022463415            5 
 2812000    0.7946423   -6.9968823    769.99593  0.022818751  0.022456269           14 
 2813000   0.80624565   -6.9938015    770.64902  0.022829986  0.022449183           11 
 2814000    0.7892599   -7.0285485    768.21611  0.022749826  0.022442046           11 
 2815000   0.80315463   -7.0017315    767.32754  0.022715439  0.022434885            7 
 2816000   0.79717052   -7.0142643    768.46978  0.022741175  0.022427731            7 
 2817000   0.80868425   -6.9870801    771.92918  0.022835439  0.022420598            9 
 2818000   0.79945027   -7.0213849    769.41521  0.022752993  0.022413474           29 
 2819000   0.79541299   -7.0092854    769.21627  0.022739041  0.022406338            9 
 2820000   0.79925373    -7.001701    769.63819  0.022743445  0.022399218           12 
 2821000   0.80315916   -6.9763338    769.30921  0.022725665  0.022392135            8 
 2822000   0.78352308   -7.0004678    769.31966  0.022717921  0.022385031           15 
 2823000   0.78922795   -7.0027247    770.70378  0.022750731  0.022377907           11 
 2824000   0.80122442   -7.0051164     770.3619  0.022732587  0.022370789           17 
 2825000   0.80451473   -7.0220166    769.14052  0.022688511  0.022363706           12 
 2826000   0.78377574   -7.0064925     770.2956  0.022714544  0.022356589           15 
 2827000   0.79512849   -7.0257855    769.59042  0.022685722  0.022349476           27 
 2828000   0.79830096   -6.9902413    769.98346  0.022689282  0.022342389           17 
 2829000   0.80420669   -7.0081581    770.65331  0.022700993  0.022335322            8 
 2830000   0.78360948   -6.9982732    771.24193  0.022710304  0.022328201            9 
 2831000   0.78350902   -6.9972194    769.07369  0.022638458  0.022320993           15 
 2832000   0.81479815   -6.9873274     772.5364  0.022732356  0.022313865            7 
 2833000   0.80369411    -7.018807    770.48582  0.022664014  0.022306757            8 
 2834000   0.77948308    -6.964332    770.69222  0.022662086  0.022299634            5 
 2835000   0.81258209   -7.0016527    771.63647  0.022681848  0.022292539           13 
 2836000   0.78450471   -6.9849117     771.5027  0.022669919  0.022285437            5 
 2837000    0.8130517   -6.9965703    771.13969  0.022651266  0.022278377            7 
 2838000   0.80746464    -6.996778    771.10029  0.022642127  0.022271306            7 
 2839000   0.80495914   -6.9720249    771.79944  0.022654674   0.02226424           24 
 2840000   0.79055073   -7.0314512    768.73558  0.022556795  0.022257192            9 
 2841000   0.79321993   -7.0024058     771.4312  0.022627924  0.022250094           27 
 2842000   0.78272838   -6.9924254    771.48648  0.022621583   0.02224299            5 
 2843000   0.80886353    -7.005145    769.72174  0.022561899  0.022235901           22 
 2844000   0.82102135   -7.0290896     770.5306  0.022577666   0.02222883           13 
 2845000   0.80811004   -7.0261032    770.43333  0.022566881    0.0222218           14 
 2846000   0.78064522   -7.0327708    771.54037  0.022591367  0.022214773            7 
 2847000     0.807446   -7.0123006     770.8245  0.022562478  0.022207723            9 
 2848000   0.78924404    -6.982192    773.90652  0.022644737  0.022200711            8 
 2849000   0.79075584   -7.0180604    771.03699  0.022552855  0.022193686           10 
 2850000    0.7947411   -7.0125104    773.29149  0.022610862  0.022186641            6 
 2851000   0.80970783   -7.0132757    772.45444  0.022578465  0.022179594           13 
 2852000   0.79777389   -6.9962686     773.1047  0.022589548  0.022172554            5 
 2853000   0.80336657   -7.0111473    774.02255   0.02260844   0.02216554           12 
 2854000   0.80951917   -7.0253176    773.76534  0.022593008  0.022158562           14 
 2855000   0.79211821   -7.0270672    773.53922  0.022578494  0.022151573           19 
 2856000   0.80271207   -7.0024035    772.04359  0.022526949  0.022144524            9 
 2857000   0.78078665   -6.9612243    773.38984  0.022558331  0.022137562            5 
 2858000   0.80574697   -6.9938176    774.00749  0.022568448  0.022130612            6 
 2859000   0.78146291    -7.025271    773.61657   0.02254916  0.022123615           10 
 2860000   0.78153645   -6.9844854    773.82184  0.022547256  0.022116603           12 
 2861000   0.78796385   -7.0247546    772.76316  0.022508539  0.022109591           10 
 2862000   0.79780629   -7.0320899    772.53945  0.022494161  0.022102545           12 
 2863000   0.77511136   -7.0296723    772.29522  0.022479195  0.022095505           15 
 2864000   0.76957131   -7.0375131    772.37253  0.022473595  0.022088443           13 
 2865000   0.79064792    -7.030492    770.98836   0.02242549  0.022081378            7 
 2866000   0.79646104   -7.0364725    770.56494  0.022405354  0.022074281           16 
 2867000   0.78246162     -7.06125    771.74405  0.022431812  0.022067215            4 
 2868000   0.79350642    -7.053333    771.38358  0.022413516   0.02206015           20 
 2869000   0.78203715    -7.039413    770.52976  0.022380904  0.022053113           10 
 2870000   0.81527801   -7.0249794    771.14328   0.02239092   0.02204607            8 
 2871000   0.80305843   -7.0132515    773.67134    0.0224565  0.022039092            6 
 2872000   0.79039773   -7.0211612    773.01588  0.022429662  0.022032122            5 
 2873000   0.79224268   -7.0280912    774.17801  0.022455564  0.022025153           18 
 2874000    0.7918016   -7.0476609    772.38694  0.022395817  0.022018162           14 
 2875000   0.79783714   -7.0427337    771.69479  0.022367965  0.022011127           11 
 2876000   0.79131917   -7.0661182    771.33294  0.022349703  0.022004097           23 
 2877000   0.79487706   -7.0539345    772.38491  0.022372405  0.021997074           11 
 2878000   0.80174541   -7.0406314    771.65269   0.02234343  0.021990013           15 
 2879000   0.78844204   -7.0619053    771.98816  0.022345379  0.021982991           11 
 2880000   0.79054844   -7.0222297    776.14476  0.022457892  0.021976027           13 
 2881000   0.77516103   -6.9905296    775.75782  0.022438905  0.021969132           14 
 2882000   0.79009645   -7.0109274    774.85955  0.022405145  0.021962212           17 
 2883000   0.77452871   -7.0200365    773.41177  0.022355526  0.021955277            8 
 2884000   0.81008969     -7.03682    774.62912   0.02238295  0.021948384            4 
 2885000   0.80355211   -7.0351401    774.19511  0.022362655  0.021941453           10 
 2886000   0.78028631   -7.0306689      774.448  0.022362208  0.021934496            8 
 2887000    0.7807855   -7.0405832     775.2609  0.022377927  0.021927549           22 
 2888000   0.79452931   -7.0430212    774.73673  0.022355053  0.021920603           11 
 2889000   0.80396792   -7.0241955    772.85038  0.022292903  0.021913666            5 
 2890000   0.78843531   -7.0483619    774.76728  0.022340464  0.021906715           17 
 2891000   0.77223362   -7.0497395    773.26255  0.022289362  0.021899699           11 
 2892000   0.78601001    -7.068857    775.22305  0.022338147  0.021892703           10 
 2893000   0.78547865   -7.0616877    773.28167  0.022274504  0.021885683            9 
 2894000   0.78836593    -7.023227    772.99603  0.022258582  0.021878696           15 
 2895000   0.78863044   -7.0228378    774.40342  0.022291405  0.021871735           12 
 2896000    0.7738374    -7.024373    775.73293  0.022321965  0.021864805            5 
 2897000   0.78684068   -7.0399839    775.89901  0.022319037  0.021857866           13 
 2898000   0.79323995   -7.0706572    774.35889  0.022267049   0.02185091            9 
 2899000   0.80003262   -7.0527974    773.74174  0.022241628  0.021843956            8 
 2900000   0.78976345   -7.0458801    774.05126  0.022242852  0.021837061           10 
 2901000   0.80774591   -7.0636966    776.36836  0.022301745  0.021830139            9 
 2902000   0.79776352   -7.0402456    773.85632  0.022221925  0.021823222           11 
 2903000    0.7899691   -7.0482161    775.60273  0.022264403  0.021816331           14 
 2904000   0.78260921   -7.0367171    777.58004  0.022313477  0.021809448           12 
 2905000   0.78332523   -7.0546135    775.39131   0.02224301  0.021802559           10 
 2906000   0.76949827   -7.0491716    775.37527  0.022234895  0.021795714           18 
 2907000   0.80465349   -7.0770109    775.73034  0.022237425  0.021788814           16 
 2908000   0.77141939   -7.0560914    775.27987  0.022216869  0.021781908           12 
 2909000   0.80084819    -7.053654    774.56495  0.022188752  0.021775032            8 
 2910000   0.77450808   -7.0719699    775.91754  0.022219861  0.021768159           15 
 2911000   0.80396306   -7.0335478     776.9193  0.022240905  0.021761315           10 
 2912000   0.79601622   -7.0561404    777.24666  0.022242636  0.021754436           11 
 2913000   0.77935278   -7.0608344    775.51355   0.02218542  0.021747507            9 
 2914000   0.78024407   -7.0755266    773.80492  0.022128944  0.021740568           16 
 2915000   0.79197485   -7.0872901    774.52943  0.022142065  0.021733651           10 
 2916000   0.77993474   -7.0471855    775.01854  0.022148449  0.021726726           25 
 2917000   0.79097271   -7.0445534    775.31837  0.022149422  0.021719852           12 
 2918000   0.79647292   -7.0328002    776.49214  0.022175353  0.021712971           10 
 2919000     0.783798   -7.0734269    774.59002  0.022113453  0.021706049           11 
 2920000   0.79338161   -7.0534733    774.82464  0.022112575  0.021699148           17 
 2921000   0.80054916   -7.0512785    773.64866  0.022071455  0.021692252           11 
 2922000   0.77257526   -7.0337235    776.97448  0.022158752  0.021685382            6 
 2923000   0.77898784   -7.0458864    777.72125  0.022172461  0.021678521            4 
 2924000   0.78129984    -7.023221    779.97148  0.022229009  0.021671665            8 
 2925000   0.78039312   -7.0115595     776.7326  0.022129134  0.021664803           17 
 2926000   0.76107192   -7.0705144    775.38014  0.022083053  0.021657915           17 
 2927000   0.79308684   -7.0482808    775.76177  0.022086373  0.021651018           11 
 2928000   0.79225663   -7.0722267    774.34315  0.022038455  0.021644108            8 
 2929000    0.7820042   -7.0276694    777.64746  0.022124942   0.02163724           10 
 2930000   0.77500704   -7.0514342    775.76636   0.02206389  0.021630327           17 
 2931000   0.78231245   -7.0504789    775.35522  0.022044672  0.021623416           10 
 2932000   0.78693058   -7.0721614    774.24714   0.02200566  0.021616508            9 
 2933000   0.76214533   -7.0736177    774.48061  0.022004791   0.02160962            7 
 2934000   0.78357454   -7.0780348     775.9696  0.022039582  0.021602694            9 
 2935000   0.78335178   -7.0732174    778.10604  0.022092733  0.021595769           19 
 2936000    0.7961363   -7.0598915    776.21574  0.022031555  0.021588905           17 
 2937000   0.78312129   -7.0623435    777.14637  0.022050459  0.021582024           10 
 2938000   0.79374861   -7.0728194    775.31645   0.02199105  0.021575177            5 
 2939000   0.78203263   -7.0816316    775.90973  0.022000389  0.021568346           12 
 2940000   0.77892056   -7.0592812    775.71102  0.021987274  0.021561495            9 
 2941000   0.79592428   -7.0150996    777.61329  0.022033699  0.021554652           21 
 2942000   0.79409174    -7.046584    777.20718  0.022014706   0.02154781           13 
 2943000   0.76838363   -7.0802813    776.22652  0.021979457  0.021540953           32 
 2944000   0.75882438   -7.0830812     776.4581  0.021978547  0.021534065           23 
 2945000   0.79239564   -7.0506402    778.69918  0.022034499  0.021527247            9 
 2946000   0.77750379   -7.0823312    776.32719  0.021959923  0.021520425            7 
 2947000   0.77749867   -7.0994626    776.43506  0.021955521  0.021513594           23 
 2948000   0.76768693   -7.0326857    777.27736  0.021971884  0.021506731            9 
 2949000   0.76186557   -7.0639227    777.33555  0.021966078  0.021499903            8 
 2950000   0.77605328   -7.0481212    777.64567  0.021967392   0.02149306            7 
 2951000   0.77334211   -7.0793248    778.41589  0.021981698  0.021486242            6 
 2952000   0.78254187   -7.0413772    778.22405  0.021968836   0.02147944           10 
 2953000   0.79013244   -7.0327497    779.37216  0.021993796  0.021472663           13 
 2954000   0.76689107   -7.0584742    778.40258  0.021958998  0.021465865           15 
 2955000   0.78134683    -7.052406    778.23772  0.021946918   0.02145907           20 
 2956000   0.78541304   -7.0731674     776.8632  0.021900744   0.02145226           16 
 2957000   0.77640951   -7.1080463    775.64218  0.021858927  0.021445415           16 
 2958000   0.78487476   -7.0914886    777.64796  0.021908045  0.021438574           15 
 2959000     0.787476   -7.0898329    778.72725  0.021931037  0.021431731            8 
 2960000   0.75268589   -7.0731864    779.74948  0.021952406  0.021424903           14 
 2961000   0.77080431   -7.1072087    776.90061  0.021864815  0.021418088           10 
 2962000   0.77707318   -7.0654022    778.33328   0.02189774  0.021411233           24 
 2963000    0.7842164   -7.0940183    777.98709  0.021880614   0.02140441           11 
 2964000   0.75630578   -7.0558362      778.727  0.021894034  0.021397604           14 
 2965000   0.78854247   -7.0813749    777.79401  0.021860428  0.021390823           12 
 2966000   0.79399282    -7.097899    777.01746  0.021831239  0.021384024           19 
 2967000   0.80273535   -7.0791426    779.81593  0.021902481  0.021377236           30 
 2968000   0.78095846   -7.1073393    776.68538  0.021807204  0.021370482           12 
 2969000    0.7836586   -7.0856339    777.92708  0.021834711  0.021363666           19 
 2970000   0.77508937   -7.0679373     781.2634  0.021920971  0.021356877           16 
 2971000   0.77647853   -7.0955554    778.28272  0.021829988  0.021350137           13 
 2972000   0.78348552   -7.0677829    781.14054  0.021902774  0.021343353           25 
 2973000   0.77832073    -7.055963     780.0425  0.021864629  0.021336595           22 
 2974000   0.77919288   -7.1013903    779.16115  0.021832581  0.021329849           14 
 2975000   0.78902312    -7.075908    780.27872  0.021856547  0.021323084           13 
 2976000   0.78089123    -7.124798    776.92483  0.021755288  0.021316316           14 
 2977000   0.77895792   -7.0596863    779.47872  0.021819469  0.021309557           10 
 2978000   0.75771794   -7.0825546    778.90661  0.021796133  0.021302802            7 
 2979000    0.7767154    -7.085671    778.28707  0.021771486  0.021296025           11 
 2980000    0.7842388   -7.1112885    776.42512  0.021712112  0.021289273           11 
 2981000   0.77256042   -7.0705307    779.05729   0.02177841  0.021282503           14 
 2982000   0.77144693   -7.0949016    778.79193  0.021763691  0.021275751            7 
 2983000   0.77600437   -7.0987007    778.25045  0.021741269  0.021268976           14 
 2984000   0.77232459    -7.061225    780.55377  0.021798307  0.021262233            9 
 2985000   0.77457952   -7.0701192    779.62585  0.021765099  0.021255476           27 
 2986000   0.75755739   -7.0568706    781.50677  0.021810303  0.021248732            9 
 2987000   0.77146349   -7.0984399     779.8383  0.021756453  0.021241948           20 
 2988000   0.76856591   -7.1143887    780.08392  0.021756022  0.021235177           12 
 2989000   0.79564324   -7.0875757    777.43548  0.021674905  0.021228401           17 
 2990000    0.7831325   -7.0731432    778.81858  0.021706203  0.021221654            8 
 2991000   0.76443799    -7.106619    779.22571   0.02171029  0.021214867           12 
 2992000   0.76995716   -7.0859404    778.56478  0.021684625  0.021208076           12 
 2993000   0.75237983   -7.0943816    777.91692  0.021659342  0.021201279            9 
 2994000   0.79970334   -7.0943382     779.5901  0.021698678  0.021194499           18 
 2995000   0.76408926   -7.0771967    780.87051  0.021727059  0.021187745           30 
 2996000   0.76521398     -7.08201    781.19307  0.021728779   0.02118098            8 
 2997000   0.77008522   -7.1294255    779.09632  0.021663228  0.021174242           17 
 2998000   0.77513903    -7.095816     779.7186  0.021673299  0.021167487           12 
 2999000    0.7635403   -7.1084536    778.22801  0.021624653  0.021160727           10 
 3000000   0.78076061   -7.0789722    780.88992  0.021691387  0.021153972           27 
 3001000    0.7920639   -7.0829062    778.78503  0.021625709  0.021147258           23 
 3002000   0.77043797   -7.0667631    780.66874  0.021670796  0.021140577           43 
 3003000   0.76046371   -7.0623444    780.63596   0.02166267  0.021133874           15 
 3004000   0.77105553   -7.0802515    780.37105  0.021648109   0.02112718           15 
 3005000   0.76261938   -7.0912078    782.00751  0.021686287  0.021120488           21 
 3006000   0.76320934    -7.073554    781.77909   0.02167274  0.021113802           16 
 3007000    0.7673617   -7.1103452    781.21679   0.02164995  0.021107096           24 
 3008000   0.76081014   -7.0750523    781.48072  0.021650064  0.021100388           20 
 3009000   0.77028898   -7.0894337    781.23562  0.021636081   0.02109372           14 
 3010000   0.76899917   -7.0752743    778.66054  0.021557601   0.02108702           36 
 3011000   0.77340483   -7.1006514    780.22368  0.021593703  0.021080309           36 
 3012000   0.78063614   -7.0955707    780.94146  0.021606393  0.021073569           34 
 3013000     0.773319   -7.0952906    781.07267  0.021602851  0.021066796           18 
 3014000    0.7720471   -7.1257317    780.09154  0.021568556  0.021060019           16 
 3015000   0.75476724   -7.1399997    778.81952  0.021526244  0.021053242           22 
 3016000   0.77416914    -7.117225    779.13517  0.021527829  0.021046477           10 
 3017000   0.78115281   -7.1058751    780.19815  0.021550054  0.021039703           12 
 3018000   0.75669485   -7.1043537    776.77868  0.021448495  0.021032924           21 
 3019000   0.77577545   -7.0883989    779.74212   0.02152319  0.021026156           12 
 3020000   0.77209917   -7.1181307    778.42792  0.021479799  0.021019399            8 
 3021000    0.7826073   -7.1420741    777.40578  0.021444493  0.021012627           12 
 3022000   0.77011972    -7.123072    779.09422  0.021483957  0.021005817           13 
 3023000   0.77198302   -7.1153745    777.71966  0.021438958  0.020999078           19 
 3024000   0.76179157   -7.0907704    779.91161  0.021492273  0.020992357            6 
 3025000   0.77839012   -7.1049581    779.45007  0.021472454   0.02098563           11 
 3026000   0.77959375   -7.0937484    779.37836  0.021463383  0.020978887           10 
 3027000   0.75698242   -7.0811964    780.53318  0.021488084  0.020972157            7 
 3028000   0.78141239   -7.0599974    780.45106  0.021478728  0.020965413           17 
 3029000   0.76463559   -7.1190597    780.23881  0.021465798  0.020958668           10 
 3030000    0.7659514   -7.1318864    779.08655  0.021427023  0.020951938           12 
 3031000   0.77991037   -7.1035293    782.12041  0.021503365  0.020945187           19 
 3032000   0.75498277    -7.115732    781.26778  0.021472839  0.020938406           20 
 3033000   0.77287785   -7.1309269    779.24861  0.021410282  0.020931641           13 
 3034000   0.76733705    -7.097971    779.05785  0.021397985  0.020924891           10 
 3035000   0.75491515   -7.1128911    779.57126  0.021405032  0.020918151           26 
 3036000   0.76555965   -7.1348754     779.3989   0.02139325  0.020911394           22 
 3037000   0.75501135   -7.0719416     781.2712  0.021437581  0.020904679            9 
 3038000   0.76812434   -7.1038356    783.18248  0.021482951  0.020897969           12 
 3039000   0.75871387   -7.1127076    780.05827  0.021390213    0.0208912           17 
 3040000   0.77149793   -7.1470954    779.41725  0.021365604   0.02088441           19 
 3041000   0.76462665    -7.129219    779.37935   0.02135754  0.020877654           38 
 3042000   0.77709761   -7.1221389    780.72298  0.021387327  0.020870903           10 
 3043000   0.75973679   -7.1085444    781.08705  0.021390269   0.02086415           14 
 3044000   0.77688507   -7.0925954    780.62406  0.021370567  0.020857406           10 
 3045000   0.77175846   -7.1474805    779.55573  0.021334311  0.020850665           16 
 3046000   0.76550694   -7.1267999    779.69519  0.021331123  0.020843962           13 
 3047000   0.75993063   -7.1494048    778.47391  0.021290721  0.020837214            8 
 3048000   0.77049361   -7.1261083     781.6684  0.021371074  0.020830448           12 
 3049000   0.75773108   -7.1287885    779.40599   0.02130223  0.020823696           16 
 3050000    0.7883392   -7.1207194    780.88901  0.021335765  0.020816964           21 
 3051000   0.75954068   -7.1093492    780.49521  0.021318016  0.020810241           28 
 3052000   0.75260379   -7.1188968    779.17428  0.021274964  0.020803533           12 
 3053000   0.76478321   -7.1458644    777.50194  0.021222348  0.020796758           19 
 3054000   0.76999977   -7.1159471    781.49769  0.021324429  0.020789981           21 
 3055000   0.74854234   -7.0999749    781.70313  0.021323053  0.020783236           23 
 3056000   0.76240151   -7.1208245    779.27414   0.02124984  0.020776486           13 
 3057000   0.75941655   -7.1066718    777.56252  0.021196231  0.020769709           17 
 3058000   0.76923763     -7.13845    780.06547  0.021257507  0.020762946           28 
 3059000   0.76876396   -7.0881407    782.34712  0.021312714  0.020756225           14 
 3060000   0.76454631   -7.1149355     780.3318  0.021250866  0.020749479           21 
 3061000   0.75695303   -7.1219105    780.70774  0.021254158  0.020742734           26 
 3062000   0.77377819   -7.1266143    779.90586  0.021225393  0.020735964           17 
 3063000   0.74547332   -7.1203621    779.24883  0.021200588  0.020729198           15 
 3064000   0.76480182   -7.1267717    780.23953  0.021220614  0.020722442           17 
 3065000   0.78636556   -7.1331404    781.17485  0.021239121  0.020715684           11 
 3066000   0.76592985   -7.1208684    780.04208  0.021201405  0.020708913           12 
 3067000   0.74773103   -7.1372843    779.88437  0.021190207  0.020702174           10 
 3068000   0.75369881   -7.1226378    780.40433  0.021197423  0.020695466           14 
 3069000   0.75914007   -7.1298157    780.74977  0.021199896  0.020688736           14 
 3070000   0.76392749   -7.1270222    780.17727   0.02117745  0.020682011           13 
 3071000   0.74710145   -7.1348542    779.93169   0.02116389  0.020675237            8 
 3072000   0.75791832    -7.102813    781.23328  0.021192309  0.020668487           16 
 3073000   0.75886385   -7.1340212     781.6824  0.021197592   0.02066175           17 
 3074000   0.76222294    -7.130688    778.56379  0.021106153  0.020655059           17 
 3075000   0.76352359   -7.1249063    780.96961  0.021164488  0.020648345            6 
 3076000    0.7584998   -7.1156616    781.23536  0.021164807  0.020641622           13 
 3077000   0.77715364   -7.1247065    781.76543  0.021172284  0.020634878            9 
 3078000   0.76478471   -7.1288171    780.23746  0.021124038  0.020628133           18 
 3079000   0.76436252   -7.1364908    779.48004  0.021096678  0.020621386           24 
 3080000   0.74409133   -7.1408876    781.27218  0.021138317  0.020614631           21 
 3081000   0.75135566   -7.1532601    781.64282  0.021141481  0.020607872           10 
 3082000   0.74980226   -7.1438983    781.61275  0.021133808  0.020601132           11 
 3083000   0.77332699   -7.1337688    782.18476  0.021142414  0.020594412           14 
 3084000   0.75665196   -7.1095111    780.77629    0.0210975  0.020587722            8 
 3085000   0.77210663   -7.1169056     781.0165   0.02109715  0.020581048           14 
 3086000   0.74844439   -7.1288119    779.56209  0.021051039  0.020574363           11 
 3087000   0.76778625   -7.1576427    778.28803  0.021009827  0.020567664           10 
 3088000   0.76176658    -7.128848     780.8955  0.021073389  0.020560968           20 
 3089000    0.7562412   -7.1134995    782.49697   0.02110977  0.020554279           10 
 3090000   0.76651201   -7.1628075    782.21417  0.021095312  0.020547577           23 
 3091000    0.7473393    -7.149951    781.39199  0.021066321  0.020540834           11 
 3092000   0.75420811   -7.1602046    781.16551  0.021053404  0.020534132           19 
 3093000   0.75687574   -7.1375672    783.87476  0.021119592  0.020527449           12 
 3094000   0.76668719   -7.1205538    782.63584  0.021079397  0.020520745            7 
 3095000   0.76537623    -7.121654    782.11967  0.021058688  0.020514093           14 
 3096000   0.76404908   -7.1179822    782.56214  0.021063796   0.02050744           12 
 3097000   0.75399268   -7.1390321    783.20284  0.021074234  0.020500805           26 
 3098000   0.76212568   -7.1287554    781.26409  0.021015281  0.020494153           23 
 3099000   0.75279379   -7.1284679    780.76176  0.020994992  0.020487531            7 
 3100000   0.76681402   -7.1374597    783.12743  0.021051813  0.020480896           13 
 3101000   0.75914553   -7.1398944    782.19686  0.021020017  0.020474261            8 
 3102000   0.75968155   -7.1745987    779.28833  0.020935104  0.020467611           23 
 3103000   0.76133013   -7.1316931    783.35181  0.021037485  0.020460964           11 
 3104000   0.77194783   -7.1339782    782.95989  0.021020186  0.020454346           14 
 3105000   0.74677599   -7.1605489    782.07819  0.020989753  0.020447666           18 
 3106000   0.74422298   -7.1470306    781.93098  0.020979045  0.020440996           13 
 3107000   0.76337378   -7.1428937    781.98411  0.020973718  0.020434353           18 
 3108000   0.77016055   -7.1240067    783.47221   0.02100687   0.02042769           10 
 3109000   0.72626399   -7.1565363    781.11017  0.020936801  0.020421043           20 
 3110000   0.77301507   -7.1502725    781.99099  0.020953671  0.020414399           10 
 3111000   0.75855425    -7.168671    781.03115  0.020921225  0.020407744           12 
 3112000   0.75116539    -7.119336    782.20869  0.020946034  0.020401118           28 
 3113000   0.73161982   -7.1398443    782.53974  0.020948167  0.020394488           11 
 3114000    0.7570866   -7.1212364     782.8078  0.020948614  0.020387838           13 
 3115000   0.75803848   -7.1365515    781.83938  0.020915981  0.020381206            7 
 3116000   0.73631263   -7.1352015    782.84406  0.020936138  0.020374566            9 
 3117000   0.73867609   -7.1248425    782.50826  0.020920443  0.020367953            7 
 3118000   0.75176533    -7.160948    781.77233  0.020894065  0.020361333           11 
 3119000   0.76414504   -7.1377242    782.63988  0.020910545  0.020354677           37 
 3120000   0.76976531   -7.1193735    783.04752  0.020914731  0.020348053           37 
 3121000   0.75709117   -7.1295877    781.40269  0.020864111   0.02034143           32 
 3122000   0.74422479   -7.1419096    782.82119  0.020895291   0.02033478           31 
 3123000   0.76138031   -7.1718573    782.21271  0.020872364  0.020328087           40 
 3124000   0.75255182   -7.1749501    782.33488  0.020868942  0.020321421           12 
 3125000    0.7484685   -7.1491571    781.75026  0.020846674  0.020314769           33 
 3126000   0.75002739   -7.1440637    782.82138  0.020868559   0.02030812           20 
 3127000   0.75308035   -7.1358579     782.2727  0.020847263  0.020301483            7 
 3128000   0.74281514   -7.1538157    781.97029  0.020832542  0.020294837           11 
 3129000   0.75052092   -7.1583039     780.4501  0.020785397  0.020288206           17 
 3130000    0.7460425   -7.1310317    782.91203  0.020844303  0.020281614           16 
 3131000    0.7422186   -7.1057779     783.2622  0.020846966  0.020275032            8 
 3132000   0.75432595   -7.1617995    779.09324  0.020729386  0.020268429           24 
 3133000   0.75298758   -7.1165922    783.36653  0.020836433  0.020261816           16 
 3134000   0.74895884   -7.1426958    783.47988  0.020832798  0.020255191           14 
 3135000   0.77205837   -7.1277499    781.10748  0.020763091  0.020248564           15 
 3136000    0.7628658   -7.1269402    781.21078  0.020759215  0.020241948           16 
 3137000   0.75733721   -7.1204846    782.86344    0.0207965  0.020235336           22 
 3138000   0.74388014   -7.1753581    779.89059  0.020710925  0.020228692           32 
 3139000   0.74762546   -7.1543806    781.56952  0.020748899  0.020222014           54 
 3140000   0.75079447   -7.1524033    781.78442  0.020747994  0.020215371           49 
 3141000    0.7677236   -7.1704461     780.5935  0.020709792  0.020208703           23 
 3142000   0.73855402   -7.1647742    780.42994  0.020698863  0.020202011           41 
 3143000   0.74033307   -7.1397547    782.14476  0.020737744  0.020195329           13 
 3144000   0.74628781   -7.1544578    782.73043  0.020746672  0.020188684           20 
 3145000   0.76453856   -7.1446856    781.87728  0.020717469  0.020182056           10 
 3146000   0.75524806   -7.1712804    782.22115  0.020719992  0.020175379           10 
 3147000   0.73887241   -7.1895108    781.17843  0.020685797  0.020168708           12 
 3148000   0.75006214   -7.1733353    781.31525  0.020682848   0.02016203           23 
 3149000   0.74152877   -7.1811343    781.69056  0.020686211  0.020155383            9 
 3150000   0.74733785   -7.1611719    781.09728  0.020663949  0.020148738           18 
 3151000   0.75388135   -7.1503856    781.68159  0.020672844  0.020142106           19 
 3152000   0.73469776   -7.1388699    783.89642  0.020724842  0.020135483           14 
 3153000   0.74585224   -7.1634563    781.20045  0.020647015  0.020128859           13 
 3154000    0.7413658    -7.147427    781.68335  0.020653227    0.0201222           11 
 3155000   0.73025869   -7.1845688    781.55715  0.020643348  0.020115564           13 
 3156000   0.75186267   -7.1856302    780.19687  0.020600889  0.020108886           32 
 3157000   0.73869733   -7.1648469    781.68742  0.020633709  0.020102209           11 
 3158000   0.74786111   -7.1853698    782.46814  0.020647777  0.020095526           13 
 3159000   0.72597012   -7.1629342     782.4682  0.020641242  0.020088903           12 
 3160000   0.75032728   -7.1750481    781.41301  0.020606883  0.020082235           30 
 3161000   0.74818521   -7.1618619    780.80584  0.020584357  0.020075583           20 
 3162000   0.74058252   -7.1413349    783.58812  0.020651173  0.020068962           19 
 3163000   0.74813503   -7.1519554    780.88717  0.020573484   0.02006233           15 
 3164000   0.73928511   -7.1491123    782.08365  0.020598495   0.02005572           19 
 3165000   0.74772339    -7.132148    782.31974  0.020598203  0.020049122           11 
 3166000   0.75289718   -7.1357398    784.39344  0.020646279  0.020042539           13 
 3167000   0.74657344   -7.1434265    782.12448  0.020580057  0.020035973           10 
 3168000   0.75116306   -7.1742552    781.46453  0.020556201  0.020029324            9 
 3169000   0.74463952   -7.1445341      780.692  0.020529399  0.020022697           16 
 3170000   0.73727751   -7.1485141    781.67423  0.020548744  0.020016073           12 
 3171000   0.75060362   -7.1669268      781.126  0.020527857  0.020009417           16 
 3172000   0.75226048   -7.2008886    781.88924  0.020541437  0.020002766            9 
 3173000   0.73932342   -7.1754622     782.9599  0.020563082  0.019996115           12 
 3174000   0.75028638   -7.1654949    781.96027  0.020530358  0.019989459           19 
 3175000   0.73199214   -7.1802773    782.37566  0.020534794   0.01998281           23 
 3176000   0.75054457   -7.2119789    781.75697  0.020512095  0.019976163           29 
 3177000   0.75656532    -7.183618    780.86469  0.020482234    0.0199695           35 
 3178000   0.72330867   -7.2049361    781.66648  0.020496814  0.019962846           15 
 3179000   0.73656624   -7.1709508    784.62742  0.020567983   0.01995621           14 
 3180000   0.74526626   -7.1781842    782.62729  0.020509101   0.01994959           11 
 3181000   0.73370501   -7.1960476    782.70019  0.020504563  0.019942985           12 
 3182000   0.74957292   -7.1641839    782.52447  0.020493518  0.019936343           14 
 3183000   0.74995535    -7.181823    782.31235  0.020481526   0.01992971           14 
 3184000   0.73235109   -7.1502544    782.92432   0.02049111  0.019923104           17 
 3185000   0.73568745   -7.1696014     783.4818  0.020499262  0.019916495           25 
 3186000   0.74785075   -7.1959439     782.0033  0.020454156   0.01990992           27 
 3187000   0.74576998   -7.2047902    781.93133  0.020445856  0.019903305           20 
 3188000    0.7576652   -7.2200446    779.95442  0.020387767  0.019896691           26 
 3189000   0.74518924   -7.1825523    780.42934  0.020393784  0.019890027           15 
 3190000   0.74013422   -7.1952466    780.30312  0.020384094  0.019883377           21 
 3191000   0.73710715   -7.1883592    782.32315  0.020430459  0.019876742           47 
 3192000   0.73949235   -7.1991944    782.61777  0.020431751  0.019870092           56 
 3193000   0.74200742   -7.2109763    780.67959  0.020374767  0.019863437           50 
 3194000   0.75043814   -7.2195125    780.22337  0.020356485  0.019856767           38 
 3195000   0.74291198   -7.1981858    780.38011  0.020354202  0.019850099           18 
 3196000   0.74412992   -7.2240772    781.72574   0.02038292  0.019843424           24 
 3197000   0.73968978   -7.1971892    781.35451  0.020366868  0.019836773           26 
 3198000   0.73672956   -7.1719903     782.7731  0.020397465  0.019830117           17 
 3199000    0.7357323   -7.1721178    782.45234  0.020382733    0.0198235           34 
 3200000   0.74557422   -7.1844252    781.73454   0.02035767  0.019816918           41 
 3201000   0.72434553    -7.172192     782.3654  0.020367734   0.01981037           18 
 3202000   0.74089226   -7.1890832    782.42001  0.020362794  0.019803814           26 
 3203000   0.74690926   -7.1670612    782.11769  0.020348572  0.019797227           19 
 3204000    0.7285589   -7.1727354    782.79091   0.02035973  0.019790642           13 
 3205000   0.73852273   -7.2014263    782.68797  0.020350701  0.019784081           17 
 3206000   0.74112624   -7.1560678    784.42934  0.020389617  0.019777525           27 
 3207000   0.74019077   -7.2081456    781.12615  0.020297426  0.019770976           17 
 3208000   0.72188825    -7.193819    782.04219  0.020314895  0.019764416           18 
 3209000   0.74969759    -7.203956    781.45552  0.020293329  0.019757816           23 
 3210000   0.73395602    -7.220622    782.14394  0.020304879  0.019751206           29 
 3211000    0.7346369   -7.1810871    781.62751  0.020285153  0.019744634           33 
 3212000   0.74447694   -7.2077754    783.65245  0.020331373  0.019738052           35 
 3213000   0.74553146   -7.2197251    781.31345   0.02026438  0.019731471           27 
 3214000   0.73700545   -7.2083523    782.16879  0.020280253  0.019724877           27 
 3215000   0.74221362   -7.2075444    782.36652   0.02027907  0.019718267           18 
 3216000   0.73865276   -7.2145666    782.79522  0.020283873  0.019711743            9 
 3217000   0.74565432   -7.1900084    783.20077  0.020288073  0.019705185           10 
 3218000     0.734994   -7.2007364    782.65813  0.020267716   0.01969863           14 
 3219000   0.72061565   -7.2124547    782.59649  0.020259824  0.019692082           12 
 3220000    0.7346657   -7.2020895    783.74508  0.020283258  0.019685548            9 
 3221000   0.73334206    -7.160564    783.97308  0.020282859  0.019679031           13 
 3222000   0.72967815   -7.1674146    784.66779  0.020294532  0.019672517           17 
 3223000   0.75123564    -7.188198    784.64612  0.020287675  0.019666003           28 
 3224000    0.7355817   -7.1794883    784.80236  0.020285421    0.0196595           14 
 3225000   0.73270408   -7.1435944    784.58371  0.020273481  0.019653022           13 
 3226000    0.7384877    -7.181483    784.16788  0.020256455  0.019646542           19 
 3227000   0.73212439   -7.1971342    783.09085  0.020222365   0.01964006           14 
 3228000   0.73753215   -7.2115629    783.02053  0.020214285  0.019633533           17 
 3229000   0.74288699   -7.1941264    784.60821  0.020248999     0.019627           10 
 3230000   0.72001336   -7.2075669    781.54478  0.020163694  0.019620518           16 
 3231000    0.7364478    -7.190489    785.30767  0.020254505  0.019614027           20 
 3232000   0.75494647   -7.1918382    783.10445  0.020191431  0.019607519           26 
 3233000   0.71178288   -7.2269813    783.80752  0.020203308  0.019600999           15 
 3234000   0.71560033   -7.1887924    783.33939  0.020184998  0.019594446           17 
 3235000   0.74187254   -7.2167474    784.08327   0.02019792  0.019587923           16 
 3236000   0.72930181   -7.2137445    785.83394  0.020236762  0.019581398           25 
 3237000   0.73790275   -7.2136163    782.59979   0.02014725  0.019574879           27 
 3238000   0.73492135   -7.2234617    783.49977   0.02016419  0.019568401           18 
 3239000   0.72926946   -7.1880791    783.05316  0.020146474  0.019561883           11 
 3240000   0.73562194   -7.2192805    783.56025  0.020153299  0.019555379           15 
 3241000   0.72302784   -7.2050521    783.12549  0.020135902  0.019548874           25 
 3242000   0.73871167   -7.1932292     782.8178  0.020121782  0.019542378           21 
 3243000   0.76120054    -7.246919    782.28593   0.02010191  0.019535889           35 
 3244000   0.73434529   -7.2047643     784.9102  0.020163127  0.019529387           54 
 3245000   0.73430157   -7.1957745    785.58884  0.020174341    0.0195229           11 
 3246000   0.73391679   -7.1979189    782.91971  0.020099602  0.019516398           23 
 3247000   0.72521256   -7.2144385    783.21656  0.020101031  0.019509925           23 
 3248000   0.73504362   -7.1969945    784.53808  0.020128748  0.019503421           23 
 3249000   0.72949219   -7.2260067    781.58426   0.02004679  0.019496891           21 
 3250000   0.72214784   -7.1849432    784.64776  0.020119173  0.019490418           41 
 3251000   0.72886039   -7.2098904    782.20844  0.020050457  0.019483935           21 
 3252000   0.71322501   -7.2235086     783.3789  0.020074285  0.019477427           17 
 3253000   0.73684236   -7.2026111    783.98029   0.02008352  0.019470961           30 
 3254000   0.73099872   -7.1776113    785.50326  0.020116351  0.019464506           13 
 3255000   0.73456833   -7.2141563    784.65092  0.020088349  0.019458081           15 
 3256000   0.72968163   -7.1905584    783.65405  0.020056666  0.019451655           24 
 3257000   0.75039056   -7.1907722    786.20667  0.020115819  0.019445198           35 
 3258000   0.71704064    -7.222998    784.76406  0.020072746  0.019438756           31 
 3259000   0.74620703   -7.2105699    784.54022  0.020060863  0.019432292           23 
 3260000   0.72354452   -7.2161496    784.52148   0.02005423  0.019425844           26 
 3261000    0.7353788   -7.2214349    784.62854  0.020050816  0.019419402           27 
 3262000   0.73502441   -7.2236059    783.51225  0.020016152  0.019412972           23 
 3263000   0.73225338   -7.2030978     783.5737  0.020011587  0.019406552           21 
 3264000    0.7238821   -7.2206795    784.30259  0.020024065  0.019400131           29 
 3265000   0.72007633   -7.2191762     784.9408  0.020034221  0.019393726           62 
 3266000   0.72966563   -7.1932517     785.7011  0.020047487  0.019387336           34 
 3267000    0.7225023   -7.2250863    785.96171  0.020047998  0.019380925           27 
 3268000    0.7313877   -7.2169235    786.67129  0.020059957   0.01937452           24 
 3269000   0.72362603   -7.2152853    783.98792  0.019985417  0.019368138           21 
 3270000    0.7051698   -7.2226843    784.03725  0.019980562  0.019361722           13 
 3271000   0.73397888   -7.2039645    783.81454   0.01996878  0.019355307           27 
 3272000   0.72640986   -7.2227662    785.33025   0.02000128  0.019348858           20 
 3273000   0.73379434   -7.2129114    783.84398  0.019957327  0.019342402           26 
 3274000   0.72334722   -7.2322599    784.75876  0.019974515  0.019335949           57 
 3275000   0.73561783     -7.23675    782.24654  0.019904492  0.019329506           34 
 3276000   0.73623061   -7.2536688    785.21886  0.019974025  0.019323096           45 
 3277000   0.73760939   -7.2147041    784.71792  0.019955191  0.019316707           50 
 3278000   0.71958534   -7.2189676    785.02934   0.01995702  0.019310308           53 
 3279000   0.72548677   -7.2543764     784.4437   0.01993605  0.019303888           50 
 3280000   0.72000243   -7.2246669    785.31605  0.019952135  0.019297452           37 
 3281000   0.72247902   -7.2084322    783.93631  0.019911011  0.019291021           15 
 3282000   0.70393299   -7.1980058    786.93277  0.019981027   0.01928466           18 
 3283000    0.7283395   -7.2171984    786.00876  0.019951486  0.019278267           30 
 3284000   0.71551041   -7.2406119    783.34486  0.019877813  0.019271866           44 
 3285000   0.72707718   -7.2033954    786.44714   0.01995046  0.019265482           35 
 3286000   0.73294198   -7.2090673    783.75273  0.019876058  0.019259097           35 
 3287000   0.73015616   -7.2208425    784.71889  0.019894506  0.019252748           38 
 3288000   0.73184777   -7.2151677    784.40407  0.019880476  0.019246366           17 
 3289000   0.73192888   -7.2551802    784.44046  0.019875354  0.019239975           27 
 3290000   0.73860802   -7.2031287    785.04796    0.0198847  0.019233568           33 
 3291000   0.72883485    -7.235889     784.3575  0.019861174  0.019227173           10 
 3292000   0.71795754    -7.237952    785.98827  0.019896423  0.019220783           19 
 3293000   0.74519408   -7.2297135    784.90214  0.019862894  0.019214391           13 
 3294000   0.73467429   -7.2363126    784.21376  0.019839449  0.019208017           28 
 3295000   0.71903403   -7.2407547     784.8265  0.019848925  0.019201634           23 
 3296000   0.72994687   -7.2432058    784.98194  0.019846833  0.019195224           42 
 3297000   0.72933302   -7.2291149    783.58641  0.019805541  0.019188802           57 
 3298000   0.73389569   -7.2292548    785.49577  0.019847781  0.019182394           18 
 3299000    0.7144222   -7.2127772    786.15763  0.019858483  0.019175986           32 
 3300000   0.73750055     -7.24496    783.53609  0.019786265  0.019169598           23 
 3301000   0.74548945   -7.2382752    784.56678   0.01980629  0.019163208           38 
 3302000   0.73277235   -7.2470811    784.27999  0.019793054  0.019156799           25 
 3303000   0.72410827   -7.2627885    783.91952  0.019777967  0.019150405           19 
 3304000   0.72837637   -7.2616889    783.41982  0.019759378  0.019144008           39 
 3305000   0.71920919   -7.2125763     785.3303  0.019801571  0.019137636           18 
 3306000   0.70670665   -7.2498453    784.67847  0.019779151  0.019131263           15 
 3307000   0.72223067    -7.223317    786.17473  0.019810874  0.019124898           17 
 3308000    0.7166944   -7.2412801    784.11436  0.019752982   0.01911853           33 
 3309000   0.71307281   -7.2249252     784.7756  0.019763665  0.019112194           26 
 3310000   0.74275542   -7.2166733    786.30116  0.019796102  0.019105851           15 
 3311000   0.71456004   -7.2549268    784.30755  0.019739946  0.019099471           15 
 3312000    0.7079298    -7.229041     785.7373   0.01976996  0.019093109           18 
 3313000   0.73962983   -7.2439018    783.80387   0.01971536   0.01908672           33 
 3314000   0.73788822    -7.232467    785.05851   0.01974096  0.019080345           13 
 3315000   0.71799294     -7.26099    784.50674  0.019721135  0.019073989           25 
 3316000    0.7246085   -7.2335725    784.10152  0.019705004  0.019067632           15 
 3317000   0.71748047   -7.2433094    784.74618  0.019715259  0.019061285           19 
 3318000   0.72206639   -7.2489655     784.2958  0.019698006  0.019054935           32 
 3319000   0.72392501   -7.2328209    784.23283   0.01969049  0.019048599           20 
 3320000   0.73186794   -7.2649098    783.50092  0.019666188  0.019042251           19 
 3321000   0.71554465   -7.2726136    786.41454  0.019733377  0.019035903           14 
 3322000   0.70457698   -7.2492424    784.09906  0.019669352  0.019029541           17 
 3323000    0.7267583   -7.2591138    783.74248  0.019654491  0.019023156           46 
 3324000   0.71015133   -7.2458574    785.47748  0.019692075  0.019016805           12 
 3325000   0.72193458   -7.2523259    784.74542  0.019667805  0.019010429           21 
 3326000    0.7272101   -7.2633021    783.90115  0.019640738  0.019004041           44 
 3327000   0.71486913   -7.2617169    786.02667  0.019688074  0.018997658           32 
 3328000   0.71966905    -7.292115    783.08621  0.019608529  0.018991267           18 
 3329000   0.72304784   -7.2442677    784.78091  0.019645061  0.018984878           29 
 3330000   0.71377298   -7.2511068      784.769  0.019638864  0.018978493           31 
 3331000   0.71258069   -7.2769345    785.83081  0.019659532  0.018972132           30 
 3332000   0.73095353   -7.2486734    783.42088  0.019593359  0.018965779           19 
 3333000    0.7123322   -7.2304442     785.8031  0.019647042  0.018959431           14 
 3334000   0.72082996   -7.2670912    783.21465  0.019576451  0.018953079           23 
 3335000   0.71824583    -7.268119    785.47896   0.01962716  0.018946712           22 
 3336000   0.73956565   -7.2442401    784.86861   0.01960603  0.018940365           19 
 3337000   0.71941345   -7.2496325    784.60473  0.019593565  0.018934067           34 
 3338000   0.73597649   -7.2794889    782.97769  0.019547076  0.018927735           34 
 3339000   0.71734755   -7.2994091     783.9251  0.019564867   0.01892137           44 
 3340000     0.712127   -7.2568651    785.44965  0.019597047  0.018915024           23 
 3341000   0.71853067   -7.2748189    784.44261  0.019566063  0.018908704           18 
 3342000   0.71684615   -7.2520213    786.33219  0.019607326  0.018902368           12 
 3343000   0.71985673   -7.2346747    785.98927  0.019592912  0.018896024           13 
 3344000   0.70625297   -7.2508518    784.33299  0.019545778   0.01888971           14 
 3345000    0.7172346   -7.2514827    784.33771  0.019540053  0.018883374           15 
 3346000   0.70764772   -7.2699363    784.46299  0.019537333  0.018877052           40 
 3347000   0.70527098   -7.2418401    787.49991  0.019607109  0.018870722           27 
 3348000   0.71120801   -7.2464467    784.67655  0.019530977  0.018864403           30 
 3349000   0.71485978   -7.2494605    783.70759  0.019501035  0.018858091           27 
 3350000   0.70955313   -7.2393819    786.29703  0.019559628  0.018851787           20 
 3351000   0.71393459   -7.2383295    786.30258  0.019553929   0.01884552           32 
 3352000   0.71462254   -7.2539139    786.04835  0.019541775  0.018839244           26 
 3353000   0.70897255   -7.2335723    786.54237  0.019548225  0.018832966           24 
 3354000   0.70922265   -7.2578187    786.19787  0.019533837  0.018826681           19 
 3355000   0.73188143   -7.2333101     785.7501  0.019516893  0.018820398           17 
 3356000   0.70756825   -7.2734832    783.35215  0.019451533  0.018814121           31 
 3357000   0.71892049   -7.2649137    785.66729  0.019503209  0.018807831           26 
 3358000   0.71703521   -7.2454619    786.54799  0.019519257   0.01880155           14 
 3359000   0.71566941   -7.2394004    787.03051  0.019525417  0.018795283           42 
 3360000   0.71950923   -7.2458304    785.75851  0.019488058  0.018789018           34 
 3361000   0.72757913     -7.24397     785.7599  0.019482295  0.018782767           14 
 3362000   0.70538769   -7.2394832    785.32767  0.019465786  0.018776518           20 
 3363000   0.72011382   -7.2531011    786.29404  0.019483944  0.018770253           23 
 3364000   0.70319427   -7.2448416     787.4761  0.019507434  0.018763995           31 
 3365000   0.71473002   -7.2519374    785.70983  0.019457896  0.018757748           15 
 3366000   0.73611052   -7.2629799    785.93785   0.01945776  0.018751503           27 
 3367000   0.71869998   -7.2311435    787.56038  0.019492139  0.018745257           36 
 3368000   0.71258591   -7.2607187    786.28213  0.019454724  0.018739026           47 
 3369000   0.71247784   -7.2527625    785.90029  0.019439504  0.018732775           24 
 3370000   0.71065128   -7.2265544     786.9799  0.019460433  0.018726548           54 
 3371000   0.71163403   -7.2708291    785.25625   0.01941205  0.018720303           53 
 3372000   0.71372557    -7.276174    786.07021  0.019426409  0.018714054           45 
 3373000    0.7267295   -7.2478861    785.19601  0.019399051  0.018707802           30 
 3374000   0.71366084   -7.2548453    785.36724  0.019397531  0.018701541           21 
 3375000   0.70418153   -7.2877551    784.79986  0.019377774  0.018695271           49 
 3376000   0.70696188    -7.245484    784.46694  0.019363817   0.01868899           31 
 3377000   0.71644759   -7.2657781    784.33809  0.019354903  0.018682725           23 
 3378000   0.71524694   -7.2863589    785.01826  0.019365953   0.01867646           21 
 3379000    0.6966583   -7.2728942     785.0521  0.019361056  0.018670207           17 
 3380000   0.71220786    -7.267965    785.96182  0.019377757   0.01866394           19 
 3381000   0.70260057   -7.2547711    786.40219   0.01938288  0.018657674           19 
 3382000   0.69732588   -7.2652866     785.9859  0.019366891  0.018651431           15 
 3383000   0.70922064   -7.2732004    786.36981  0.019370623  0.018645183           27 
 3384000   0.70760627   -7.2767275    786.09787  0.019358202  0.018638939           28 
 3385000   0.72014747   -7.2683704    787.01041  0.019374948  0.018632692           21 
 3386000   0.70633364   -7.2720596    784.52243  0.019307994  0.018626432           12 
 3387000    0.7120474   -7.2897136    784.86675  0.019310765  0.018620164           18 
 3388000   0.71719217   -7.2886232    785.24211  0.019314298  0.018613891           26 
 3389000   0.72061973   -7.2731339    785.88445  0.019324394  0.018607653           71 
 3390000   0.72095769   -7.2962161     785.0501  0.019298183  0.018601416           16 
 3391000   0.72769168   -7.2706018    786.32938   0.01932393   0.01859518           43 
 3392000   0.71538808   -7.2793249     787.1022   0.01933722  0.018588954           18 
 3393000   0.71290243   -7.2738421    785.29488  0.019287132  0.018582705           22 
 3394000   0.71284296    -7.255062     788.1132  0.019350648  0.018576461           25 
 3395000   0.68988098    -7.255095    784.58183  0.019258268  0.018570248           17 
 3396000   0.71454719   -7.2588759     787.2319  0.019317626  0.018564025           23 
 3397000   0.70764938   -7.3075893    785.80654  0.019276973  0.018557808           14 
 3398000   0.72064855   -7.2682345     785.5854  0.019265877  0.018551591           15 
 3399000   0.69145362   -7.2911206    784.65714  0.019237451  0.018545356            9 
 3400000     0.714368   -7.2825505    786.07482   0.01926654  0.018539121           32 
 3401000   0.70882245   -7.2883086    786.56779  0.019272954  0.018532904           20 
 3402000    0.7038557   -7.2737847    786.65539  0.019269434  0.018526702           31 
 3403000   0.70544155    -7.257481    786.46693  0.019259157  0.018520504           19 
 3404000   0.70513061   -7.2713889    788.07679   0.01929291  0.018514302           26 
 3405000   0.72320234   -7.2561906     787.2367  0.019266684  0.018508143           19 
 3406000   0.71379619   -7.2579348     786.7665  0.019249523  0.018501952           19 
 3407000     0.696807   -7.2707513    785.90355  0.019222766  0.018495757           27 
 3408000   0.69723783   -7.2587056    785.82221  0.019215136  0.018489574           45 
 3409000   0.71635434   -7.2611573    786.55505  0.019227414  0.018483399           18 
 3410000   0.69867369   -7.2792514    786.68184  0.019224874  0.018477221           32 
 3411000   0.70835066   -7.2832503    787.53004   0.01923996  0.018471036           40 
 3412000   0.70073307   -7.2934146     786.4092  0.019206946  0.018464861           34 
 3413000   0.71227404    -7.273692    783.14851  0.019121704  0.018458659           47 
 3414000   0.69621112   -7.2709712    786.50124  0.019197941  0.018452455           24 
 3415000   0.70567307   -7.2751593    786.51489  0.019192652  0.018446232           40 
 3416000   0.70052013    -7.281445    786.01811  0.019174915  0.018440016           31 
 3417000   0.68977574   -7.2787403    786.16467  0.019172878  0.018433814           22 
 3418000    0.7018225   -7.3227792    785.18435  0.019143367  0.018427613           17 
 3419000   0.69970224   -7.2951312    788.27518  0.019213103  0.018421419           45 
 3420000   0.71080339   -7.2922164    785.65052  0.019143531  0.018415236           31 
 3421000   0.71607669   -7.3216977     783.8522  0.019094129  0.018409021           87 
 3422000   0.70691455   -7.2782796    787.09959  0.019167631  0.018402817           64 
 3423000   0.69557895   -7.2865033    785.60307  0.019125598  0.018396613           48 
 3424000   0.70505773    -7.301829    786.28085  0.019136508  0.018390394           30 
 3425000   0.71329918   -7.3001391     787.1499  0.019152066  0.018384196           40 
 3426000   0.72410636   -7.3053002    784.25762  0.019076124  0.018377987           45 
 3427000   0.70069261   -7.3309011     784.9138  0.019086514  0.018371774           67 
 3428000   0.69605857   -7.3034864    786.28283  0.019114227   0.01836557           34 
 3429000     0.709002    -7.293974    783.75953   0.01904733  0.018359387           50 
 3430000   0.71453469   -7.2912572    786.30178  0.019103542    0.0183532           40 
 3431000   0.68448364   -7.3026887    785.29592  0.019073543  0.018347031           57 
 3432000    0.7097854   -7.2913146    785.36166  0.019069582  0.018340855           48 
 3433000   0.71718759   -7.3171996    784.57727  0.019044987  0.018334662           71 
 3434000   0.70431236    -7.328406    785.62255  0.019064807  0.018328454           50 
 3435000   0.71347869   -7.3238313    784.55141  0.019033271  0.018322247           44 
 3436000   0.71502938    -7.271806     786.5597  0.019076438  0.018316048           26 
 3437000   0.69150974   -7.3089289    784.41436  0.019018872  0.018309853           70 
 3438000   0.71041013   -7.3298565    783.76797  0.018997672   0.01830364           35 
 3439000   0.68891399   -7.3250454    784.72131  0.019015249  0.018297413           27 
 3440000   0.70739698   -7.3097608    784.01137  0.018992523  0.018291218           23 
 3441000   0.70392775   -7.3371811    785.85576  0.019031671  0.018285012           28 
 3442000   0.72157611   -7.3031671    785.67678  0.019021809  0.018278832           23 
 3443000   0.70797942   -7.2881358    787.96448  0.019071655  0.018272681           57 
 3444000   0.71513849    -7.275491    786.50912  0.019030902  0.018266533           43 
 3445000   0.70040464   -7.3061642    785.45432  0.018999863  0.018260378           34 
 3446000   0.69192367   -7.3162725    785.34216  0.018991637  0.018254204           57 
 3447000   0.68298457   -7.3146591    785.76763  0.018996413   0.01824803           40 
 3448000   0.71838482   -7.3026971    784.21011  0.018953261  0.018241836           41 
 3449000   0.70813262   -7.3207035    784.92106  0.018964943  0.018235665           51 
 3450000   0.70109839   -7.3203627     786.1844  0.018989961  0.018229492           63 
 3451000    0.6933523   -7.3180606     783.7127  0.018924773  0.018223325           31 
 3452000   0.69521486   -7.3104025     788.3628  0.019031547  0.018217167           66 
 3453000   0.70067944   -7.3051074    785.09252  0.018947112  0.018210994           21 
 3454000   0.70057515   -7.3190062    786.55323  0.018976868  0.018204816           38 
 3455000   0.69690958   -7.3010164    783.59686  0.018900069  0.018198654           64 
 3456000   0.70068928   -7.3355201    785.39554  0.018937971  0.018192475          130 
 3457000   0.69268678   -7.3211048    786.13011    0.0189502  0.018186302          148 
 3458000   0.71701754   -7.3278564    785.02097  0.018917991  0.018180134          147 
 3459000   0.70600944   -7.3444578    786.09173  0.018938319  0.018173969          103 
 3460000   0.70585436   -7.3266772    784.65885  0.018898335  0.018167782           98 
 3461000    0.6968038   -7.3283307    785.46002  0.018912165  0.018161597          101 
 3462000   0.69275124   -7.3298595    785.20074  0.018900461  0.018155432           94 
 3463000   0.71486657   -7.3157494    784.30183  0.018873372  0.018149263          107 
 3464000   0.69585657   -7.3379174    784.77293  0.018879256  0.018143084          111 
 3465000   0.69702622   -7.3023404     787.6497  0.018942994  0.018136905          102 
 3466000   0.71780405   -7.3325643    784.32811  0.018857668  0.018130733          180 
 3467000    0.6983619   -7.3154582    783.79369  0.018839383  0.018124544          138 
 3468000   0.70939535   -7.3184228    784.35543  0.018847449  0.018118364          152 
 3469000   0.70604389   -7.3076693    784.01208  0.018833768  0.018112197          117 
 3470000   0.69812615   -7.3127231    784.90452  0.018849772  0.018106025          142 
 3471000   0.70300189    -7.321076    785.44631  0.018857349  0.018099854          171 
 3472000   0.70531088   -7.3140728    782.80379  0.018788493  0.018093697          116 
 3473000   0.69981923   -7.2969149    785.54034  0.018848746  0.018087535          164 
 3474000   0.70752394   -7.3404674    785.85343  0.018850831  0.018081364          171 
 3475000   0.69516461   -7.3164007    786.73836  0.018866627  0.018075208          111 
 3476000   0.70650421   -7.3366228    784.67785  0.018811801   0.01806904          109 
 3477000   0.68593155   -7.3458181    785.94325  0.018836719  0.018062886          106 
 3478000   0.69861712    -7.342612    784.37646  0.018793762  0.018056712          129 
 3479000   0.69404746   -7.3412268    783.56138  0.018768836  0.018050516          171 
 3480000   0.69507436   -7.3334597    784.13439  0.018777164  0.018044354          116 
 3481000   0.69830024   -7.3228649    784.72231  0.018785845  0.018038199          164 
 3482000   0.68888811   -7.3525324    785.50418  0.018799162  0.018032015          150 
 3483000   0.68602661    -7.347753    782.37121  0.018718806   0.01802584          187 
 3484000   0.69924851   -7.3140152    783.30053  0.018735661  0.018019671          160 
 3485000    0.6891877   -7.3399097    785.13475  0.018774145  0.018013522          124 
 3486000   0.68821231   -7.3466384    784.74399  0.018759418   0.01800736          173 
 3487000   0.68320198   -7.3192524    782.69827  0.018705149  0.018001217          154 
 3488000   0.68605037   -7.3395355     782.6576  0.018698815  0.017995073           98 
 3489000   0.69169966   -7.3178697    785.94479  0.018771969  0.017988919          144 
 3490000   0.69260908   -7.3441646    783.26843  0.018702685  0.017982766          107 
 3491000   0.69011346   -7.3321911    784.72997  0.018732215  0.017976616          160 
 3492000   0.69551155    -7.357578    783.04855  0.018686726  0.017970463          179 
 3493000   0.69750062   -7.3297199     785.3827  0.018737062  0.017964326          148 
 3494000   0.71560067   -7.3258944    783.27643  0.018681464  0.017958168          127 
 3495000   0.68809856   -7.3473477    784.06353  0.018694886  0.017952024          229 
 3496000   0.70132806    -7.334041     784.1593  0.018691822   0.01794586          183 
 3497000   0.68557138   -7.3665552    783.53014  0.018671484  0.017939725          163 
 3498000   0.71593151    -7.340571    784.88533  0.018698431  0.017933582          147 
 3499000   0.70472358   -7.3310348    786.30204  0.018726828   0.01792746          142 
 3500000   0.69393863   -7.3556636    783.20251  0.018647679  0.017921309          101 
 3501000   0.68811351   -7.3846325    780.85055  0.018586369  0.017915156          140 
 3502000   0.69510083   -7.3571965    783.02365  0.018632773  0.017908993          175 
 3503000   0.69696417   -7.3290135     784.8292  0.018670406  0.017902872          105 
 3504000   0.69142825   -7.3331171    785.51145  0.018681304  0.017896746           98 
 3505000   0.67671168   -7.3489764    785.01242  0.018664109  0.017890605          124 
 3506000   0.69874982   -7.3612832    783.02096  0.018611451  0.017884465          121 
 3507000   0.68548974   -7.3559013    782.40979  0.018591621  0.017878302          140 
 3508000   0.70186755   -7.3465087    784.73744  0.018641615  0.017872154          143 
 3509000   0.67981296   -7.3537149    782.92748  0.018593319  0.017866009          122 
 3510000   0.68025109   -7.3642343    782.83707  0.018585875  0.017859859          152 
 3511000    0.6842251   -7.3854897    782.80487  0.018579817   0.01785371          142 
 3512000    0.7095628   -7.3561471    785.10278  0.018629052  0.017847584          135 
 3513000   0.69405454    -7.368276    782.53164  0.018562758   0.01784145          144 
 3514000   0.68171298    -7.380888    784.31392  0.018599742  0.017835289          152 
 3515000   0.71405731   -7.3782291    782.11737  0.018542375  0.017829132          140 
 3516000   0.69159831   -7.3659984    782.75767  0.018552277  0.017822986           98 
 3517000   0.70606256   -7.3786202    782.65869  0.018544657   0.01781683           99 
 3518000   0.68874386   -7.3679839    784.77829  0.018589594  0.017810675          134 
 3519000   0.68300242   -7.3978771    782.45196  0.018529221  0.017804513          108 
 3520000   0.68470541   -7.3878575    781.85496  0.018509824  0.017798357          100 
 3521000   0.69155304   -7.3832301     782.1925  0.018512556  0.017792213          157 
 3522000   0.69148596   -7.3861648    783.93128   0.01854844  0.017786067          164 
 3523000   0.69773097   -7.3782015    781.91419  0.018495463  0.017779912          200 
 3524000   0.67675637   -7.3606805    782.76656  0.018510371  0.017773761          172 
 3525000   0.69674881   -7.3890275    782.35977  0.018495503  0.017767619          161 
 3526000   0.68373419   -7.3673603     782.9286  0.018503701  0.017761482          146 
 3527000   0.70055455   -7.3544886    783.89434  0.018521272  0.017755364          139 
 3528000   0.70260071   -7.3678898    783.82443  0.018514372  0.017749229          133 
 3529000   0.68532733    -7.369783    783.86014  0.018509968  0.017743089          188 
 3530000   0.68509203   -7.3820021    781.55934  0.018450409  0.017736939          235 
 3531000   0.69090404     -7.38523    783.37426  0.018488017  0.017730801          217 
 3532000   0.68915757   -7.3878317    783.00681  0.018474113   0.01772465          286 
 3533000    0.6911827   -7.4010198     783.2566  0.018474776  0.017718528          165 
 3534000   0.69677279   -7.4003615    781.52222  0.018428651  0.017712392          126 
 3535000   0.68181211   -7.3740572    783.23731  0.018463869  0.017706269          132 
 3536000   0.67740705   -7.3950901    784.37243  0.018485399  0.017700155          154 
 3537000   0.69364972   -7.4051885    782.52164  0.018436567  0.017694033          201 
 3538000   0.67292916   -7.3844992    784.44627  0.018476688  0.017687904          184 
 3539000   0.68813298   -7.3870788    783.09588   0.01843967  0.017681806          363 
 3540000   0.68304986   -7.3858317    783.17489   0.01843632  0.017675697          157 
 3541000   0.68693436   -7.3765011    782.60732  0.018417757   0.01766959          171 
 3542000   0.68095697   -7.4002128    783.85957  0.018442019  0.017663478          233 
 3543000   0.68169355   -7.3913603    783.94847  0.018438905  0.017657366          190 
 3544000   0.68071188   -7.3766618    783.05697  0.018412739  0.017651256          242 
 3545000   0.69141418   -7.3837835    783.06036  0.018407625  0.017645159          194 
 3546000   0.68067582   -7.3939771    781.42786  0.018364069  0.017639044          147 
 3547000    0.6965072   -7.3929008    780.59665  0.018339363   0.01763293          204 
 3548000    0.6819403    -7.383218    782.64661  0.018382342  0.017626833          171 
 3549000   0.69960889   -7.4017715    781.13738  0.018341725  0.017620718          237 
 3550000    0.6777911   -7.4354157    780.36425   0.01831841  0.017614588          263 
 3551000   0.68912541   -7.3950551    782.62803  0.018366376  0.017608447          157 
 3552000    0.6825228   -7.3790783    783.00664  0.018370088  0.017602327          222 
 3553000   0.67290775   -7.3755169    782.86727  0.018361649  0.017596206          250 
 3554000   0.67590947   -7.3679103    783.41241  0.018369265  0.017590126          203 
 3555000   0.67490446   -7.3827465    782.94345  0.018353105  0.017584029          274 
 3556000   0.67440935   -7.3999762    782.50064  0.018337567  0.017577928          217 
 3557000   0.68893083   -7.3964191    782.99234  0.018343931  0.017571848          200 
 3558000   0.68622435   -7.3804204    784.06933     0.018364  0.017565779          183 
 3559000   0.68706168   -7.3632139    784.16049  0.018360974  0.017559705          259 
 3560000   0.68756854   -7.3910377    784.67617  0.018367888  0.017553621          198 
 3561000   0.66680175   -7.4080307    782.08113  0.018302002  0.017547535          281 
 3562000   0.67978482   -7.3791708    783.68937  0.018334488  0.017541456          267 
 3563000   0.68384881   -7.3843747    782.99399  0.018313079   0.01753538          228 
 3564000   0.68138581   -7.3939463    782.95435  0.018307013  0.017529311          225 
 3565000    0.6617039   -7.3905616    781.78687  0.018274588  0.017523239          162 
 3566000   0.68526253   -7.3982722    783.05855  0.018299181  0.017517146          245 
 3567000   0.67620932   -7.3774519    783.15168  0.018296227  0.017511066          275 
 3568000   0.68632688   -7.3723356    784.17711  0.018315048  0.017504981          250 
 3569000   0.67875733     -7.39326     782.8993  0.018280081  0.017498914          260 
 3570000   0.68004211   -7.3904091    783.37635  0.018286096  0.017492856          192 
 3571000   0.66962724   -7.3893641     782.9448  0.018270905  0.017486802          243 
 3572000   0.68752932   -7.4022174    782.30125  0.018250776  0.017480752          223 
 3573000   0.66968071   -7.4243062     781.9621  0.018237758  0.017474689          270 
 3574000   0.67851009   -7.4101828    783.35814  0.018265206  0.017468614          172 
 3575000   0.67601995   -7.3816702    782.60867  0.018242626  0.017462528          235 
 3576000   0.66601066   -7.4090371    783.35661  0.018254954  0.017456449          198 
 3577000   0.70063423   -7.3947595    783.29238  0.018248355  0.017450391          202 
 3578000   0.67059994   -7.3943935    783.67533  0.018252174  0.017444336          206 
 3579000   0.66731311   -7.3810593    781.91996  0.018206202  0.017438274          252 
 3580000    0.6687121   -7.3965376    781.72959  0.018196685  0.017432224          193 
 3581000   0.68191612    -7.360862    784.42602  0.018254352  0.017426174          211 
 3582000   0.68387712   -7.4048366    781.82773  0.018188808  0.017420121          210 
 3583000   0.68168326    -7.410287    782.17696  0.018191854   0.01741408          228 
 3584000   0.67150732   -7.3879067    782.98165  0.018205489  0.017408034          267 
 3585000   0.68058123   -7.4134654     783.3522  0.018209024  0.017401982          187 
 3586000   0.68213818    -7.391082    782.97864  0.018195265  0.017395928          153 
 3587000   0.67299873   -7.3841221    783.05307  0.018191922  0.017389891          208 
 3588000   0.68459888   -7.3912445    782.06056    0.0181638  0.017383858          162 
 3589000   0.67142212   -7.4089566     782.6936  0.018173437  0.017377837          189 
 3590000   0.67462684   -7.3898934    783.15877  0.018179173  0.017371814          125 
 3591000   0.69555488   -7.3932653    784.21423  0.018198604  0.017365828          177 
 3592000   0.66722876   -7.4016174    783.30386  0.018172417  0.017359815          234 
 3593000   0.68371132   -7.3958242    783.82751  0.018179504  0.017353815          224 
 3594000   0.66970996   -7.3817597      782.506  0.018143805  0.017347807          234 
 3595000   0.68236112   -7.3919336    782.43962  0.018137219  0.017341799          246 
 3596000   0.66806204   -7.4277151    781.39428  0.018107951  0.017335771          277 
 3597000   0.68407356   -7.4029676    780.89321  0.018091308  0.017329733          237 
 3598000   0.67918756   -7.4062134    783.26134  0.018141128  0.017323688          255 
 3599000   0.67543509   -7.3966421    782.52256  0.018118981  0.017317643          262 
 3600000     0.679333   -7.3865173    783.58483  0.018138538   0.01731161          227 
 3601000   0.66341037   -7.4084482    781.69938  0.018089868  0.017305568          269 
 3602000   0.67499966   -7.4079115    780.57852  0.018058915  0.017299529          216 
 3603000   0.66820514    -7.437996    782.29287  0.018093553  0.017293496          244 
 3604000   0.67647732   -7.4086014     782.6997   0.01809794  0.017287469          247 
 3605000   0.68059386   -7.4158937    781.11181  0.018056214  0.017281446          268 
 3606000   0.66893101   -7.4067821     782.5774  0.018085076  0.017275443          251 
 3607000   0.67699007   -7.4007183    782.44702   0.01807705  0.017269442          254 
 3608000   0.66586358   -7.4120744    780.86559  0.018035513  0.017263422          308 
 3609000    0.6828551    -7.424613    780.79861   0.01802897  0.017257409          254 
 3610000   0.68889029   -7.4149318    782.59596  0.018065465   0.01725137          306 
 3611000   0.66136532   -7.4400815    780.53432  0.018012885  0.017245339          365 
 3612000   0.68235221   -7.4299255    781.11983  0.018021406  0.017239313          314 
 3613000   0.66845392   -7.4197455    781.97177  0.018036068  0.017233295          385 
 3614000   0.66987178   -7.4307724    782.54939  0.018044397  0.017227268          346 
 3615000   0.69135067   -7.4056951    782.59366  0.018040425  0.017221244          307 
 3616000   0.66418284   -7.4288447    780.83877  0.017994994  0.017215221          284 
 3617000   0.67720375   -7.4244031    779.84991  0.017967236  0.017209198          198 
 3618000   0.68648332   -7.4122726    782.82086    0.0180307  0.017203175          381 
 3619000   0.68367565   -7.4295662    781.28112  0.017990262  0.017197166          311 
 3620000   0.66138521   -7.4257601    782.35812  0.018010086  0.017191164          251 
 3621000   0.67449073   -7.4438387    781.63941  0.017988571   0.01718515          372 
 3622000   0.67749695   -7.4177252    780.84496  0.017965327  0.017179143          271 
 3623000   0.66102952   -7.4135132    779.54844  0.017930546  0.017173154          288 
 3624000   0.68033973   -7.4320678    781.51404  0.017970797  0.017167162          286 
 3625000   0.68950075   -7.4127472    782.88655  0.017997392  0.017161163          267 
 3626000   0.66696921   -7.4324745    780.80084  0.017944494  0.017155173          293 
 3627000   0.69068164   -7.4239732    781.67172  0.017959556  0.017149203          421 
 3628000    0.6999603    -7.435502    781.40859  0.017948562  0.017143205          382 
 3629000   0.66232119   -7.4367115    781.96194  0.017956323  0.017137203          302 
 3630000   0.66559186   -7.4280388     780.8436  0.017925703  0.017131205          423 
 3631000   0.68090061   -7.4281961    780.99705  0.017924287  0.017125206          447 
 3632000   0.67023362   -7.4490613    780.52724  0.017908573  0.017119192          461 
 3633000   0.67554448   -7.4538984    781.44865  0.017924779  0.017113188          468 
 3634000   0.67306493   -7.4436711    783.08622  0.017957398  0.017107193          462 
 3635000   0.66356395   -7.4541782    781.81375  0.017923286    0.0171012          438 
 3636000   0.67320624   -7.4371098    780.84155  0.017896075  0.017095212          351 
 3637000   0.66284531   -7.4380897    781.07445  0.017896491  0.017089232          362 
 3638000   0.67018087   -7.4357912    782.74927  0.017929936  0.017083262          510 
 3639000   0.67098737    -7.445908     782.1463  0.017911201  0.017077306          340 
 3640000    0.6639488   -7.4449618    781.78953  0.017898112   0.01707133          431 
 3641000   0.65105281   -7.4437551    779.89894  0.017849925  0.017065342          411 
 3642000   0.65422211   -7.4713861    781.57805  0.017883444  0.017059364          548 
 3643000   0.67470841   -7.4464336    782.06839  0.017889752  0.017053388          522 
 3644000   0.65422292   -7.4602865    780.38436  0.017846331  0.017047425          388 
 3645000   0.66651443   -7.4137424    783.34454  0.017909112  0.017041466          422 
 3646000   0.66366048   -7.4385143     781.9457  0.017872227   0.01703552          330 
 3647000    0.6658208    -7.408835    782.24472   0.01787416  0.017029561          402 
 3648000   0.67016331   -7.4324406    780.04567  0.017819026  0.017023628          386 
 3649000   0.67247858   -7.4247098    782.33931  0.017866523  0.017017689          441 
 3650000   0.67040431   -7.4379469    782.86889  0.017873719  0.017011736          420 
 3651000   0.67245596   -7.4585341    782.55042  0.017861554  0.017005783          485 
 3652000    0.6696475   -7.4237038    781.78584  0.017839217   0.01699983          344 
 3653000   0.66054845   -7.4494507    780.99046  0.017816189  0.016993886          448 
 3654000   0.64601887   -7.4589375     779.4788  0.017776838  0.016987921          356 
 3655000   0.66681771   -7.4504231    780.19315  0.017788262  0.016981959          476 
 3656000   0.67727989   -7.4305852     780.8962  0.017799421  0.016975987          460 
 3657000   0.66814233   -7.4729031    781.02185  0.017797417  0.016970029          414 
 3658000   0.67338334   -7.4451159    780.83549  0.017788306  0.016964074          345 
 3659000   0.68149494   -7.4548642    782.34418  0.017817805   0.01695812          484 
 3660000   0.66893239   -7.4734646    779.71046   0.01775297  0.016952152          410 
 3661000    0.6573446   -7.4505624    781.33376  0.017785071  0.016946191          332 
 3662000   0.67472575   -7.4494921    781.01298  0.017772915   0.01694023          561 
 3663000   0.65663063   -7.4465938    781.80087  0.017785988  0.016934272          490 
 3664000   0.67959592   -7.4510438     781.0715  0.017764545  0.016928331          442 
 3665000   0.65558611   -7.4755171    779.74277  0.017729485  0.016922386          423 
 3666000   0.66368558   -7.4347523      781.356   0.01776132  0.016916444          554 
 3667000   0.65472477    -7.448784    781.32258  0.017755717  0.016910497          361 
 3668000   0.66938164   -7.4516945    781.02122   0.01774403  0.016904566          355 
 3669000   0.66561573    -7.460885     782.2683  0.017767518  0.016898633          448 
 3670000   0.65351159   -7.4422009    781.30295  0.017740757  0.016892688          494 
 3671000   0.65841328   -7.4470315    782.64017   0.01776628  0.016886769          563 
 3672000   0.66209495      -7.4756     779.9842  0.017701166  0.016880836          540 
 3673000   0.67266688   -7.4521516    778.48133   0.01766225  0.016874887          454 
 3674000   0.67278725   -7.4639322    779.37939  0.017677812  0.016868936          599 
 3675000   0.66766462   -7.4638349    780.79605  0.017705126  0.016862998          696 
 3676000    0.6587296   -7.4521305    780.96135  0.017704057  0.016857047          677 
 3677000    0.6684753   -7.4526384    781.69566  0.017715884  0.016851124          543 
 3678000    0.6677803   -7.4836124    778.82906  0.017646118  0.016845186          635 
 3679000   0.65894971   -7.4837186     780.5168  0.017679551  0.016839247          554 
 3680000    0.6599921   -7.4700126    780.43374  0.017672865   0.01683333          541 
 3681000   0.65677803   -7.4806414    780.34725  0.017666106  0.016827401          682 
 3682000   0.66288982   -7.4709246     779.8722  0.017650557  0.016821473          653 
 3683000   0.66746347   -7.4653396    780.25501  0.017654426  0.016815557          629 
 3684000   0.67897427   -7.4556301    779.69533  0.017636974  0.016809637          595 
 3685000   0.65524061   -7.4554319    780.26232   0.01764501  0.016803712          635 
 3686000   0.65584017   -7.4688882    780.69212  0.017649939  0.016797809          538 
 3687000    0.6529178   -7.4676608    780.01624  0.017629876  0.016791895          591 
 3688000    0.6593237   -7.4682679    780.42053  0.017634231  0.016785976          753 
 3689000   0.69267777   -7.4796687    779.37253  0.017605777  0.016780063          602 
 3690000   0.66742708   -7.4929806    781.31138  0.017644792  0.016774158          682 
 3691000   0.65356442   -7.4744409    781.16908  0.017636799  0.016768262          654 
 3692000   0.67294968   -7.4863717    780.04131  0.017606566  0.016762363          583 
 3693000    0.6592347   -7.4713257    781.83362  0.017642242   0.01675647          651 
 3694000   0.65775253   -7.4741881     781.5842   0.01763184  0.016750572          605 
 3695000   0.65739039   -7.4764128    779.65739  0.017583613  0.016744671          735 
 3696000   0.66650271   -7.4625228    780.97272  0.017608512  0.016738772          715 
 3697000   0.65306304   -7.4680422     779.8814   0.01757915  0.016732873          610 
 3698000   0.64823116   -7.4723324    780.45652  0.017587356  0.016726976          648 
 3699000   0.67452027   -7.5047374    777.68541  0.017520172  0.016721069          733 
 3700000    0.6538945   -7.4992023    778.55425  0.017535006  0.016715151          738 
 3701000   0.64607553   -7.4746044    781.35838  0.017593407  0.016709249          811 
 3702000   0.66667488   -7.4887894    780.98643  0.017580282  0.016703343          657 
 3703000   0.66140593   -7.4924447    778.25989  0.017514175  0.016697433          785 
 3704000   0.66411279   -7.5066401    776.90827  0.017479038  0.016691527          702 
 3705000   0.66179705   -7.4975521    779.99895  0.017543836  0.016685619          817 
 3706000   0.67080339   -7.5039004    778.72351  0.017510422  0.016679697          737 
 3707000   0.65849519   -7.5109216    780.78082  0.017551947  0.016673777          857 
 3708000    0.6545832   -7.4826458    779.45413  0.017517398   0.01666785          887 
 3709000   0.64283604   -7.5057262     779.3631   0.01751063   0.01666194          798 
 3710000   0.66163609    -7.503355    778.61761  0.017489165  0.016656034          803 
 3711000    0.6524086   -7.4844505    779.27002  0.017499102  0.016650134          680 
 3712000   0.66527576   -7.4943937    780.43573  0.017520558  0.016644241          736 
 3713000   0.64318445   -7.5034962    780.45845  0.017516349  0.016638341          845 
 3714000   0.66342793   -7.4868078    779.42935  0.017488542  0.016632456          848 
 3715000   0.65974671   -7.4985904     779.8392  0.017493028  0.016626582          841 
 3716000   0.65643177   -7.4777963    780.41552  0.017501245  0.016620716          870 
 3717000   0.66489404    -7.502712      779.083  0.017466662  0.016614853          785 
 3718000   0.66772964   -7.5325963    778.26886  0.017443717  0.016608973          834 
 3719000   0.65720732   -7.4917656    779.35488  0.017463361  0.016603082          873 
 3720000   0.63681795   -7.4997309    779.14156  0.017453888  0.016597189          949 
 3721000   0.66993972   -7.5118125     775.9471  0.017377656  0.016591283          988 
 3722000   0.66060551    -7.519233     779.6097  0.017454991  0.016585398          864 
 3723000   0.66563025   -7.4992172    780.42565  0.017468566  0.016579521          976 
 3724000   0.65188612   -7.4901701    781.88052  0.017496431  0.016573642          780 
 3725000   0.64836549   -7.5007638    778.52674  0.017416706   0.01656777          851 
 3726000   0.66290952    -7.520092    778.61299   0.01741396  0.016561906          957 
 3727000   0.66089589   -7.4998786    778.29476  0.017402172   0.01655604          813 
 3728000   0.65645178   -7.4917531    779.05049  0.017414398  0.016550168          862 
 3729000   0.65702635   -7.5274332     777.5236  0.017375606  0.016544288          978 
 3730000    0.6547223   -7.5214862    778.06515  0.017383046  0.016538412         1013 
 3731000   0.64821881   -7.5176345    779.46323  0.017409614  0.016532539         1011 
 3732000   0.65592781   -7.5294785    777.31475  0.017356975  0.016526672         1017 
 3733000   0.65477227   -7.5016573    778.07836  0.017369371  0.016520798         1056 
 3734000   0.64498281   -7.5029796    777.82409  0.017359045  0.016514934          993 
 3735000   0.64538221   -7.5222221    777.43093  0.017345625  0.016509067         1002 
 3736000   0.65147372   -7.5217716    778.19754  0.017358082  0.016503203          927 
 3737000   0.65304293   -7.5259707    778.15162  0.017352413  0.016497351          997 
 3738000   0.65379253   -7.5033868    778.50945  0.017355748  0.016491495         1111 
 3739000   0.63552132   -7.5067027    779.25545  0.017367733  0.016485634          903 
 3740000   0.65793662    -7.512318    779.22124  0.017362327  0.016479775         1016 
 3741000   0.65465683    -7.528653    777.96163  0.017329627  0.016473912         1032 
 3742000   0.66069446   -7.5260973    779.00222   0.01734817  0.016468043         1085 
 3743000   0.65411589   -7.5143205    777.96606  0.017320466   0.01646219         1042 
 3744000   0.64844866   -7.5035418    778.15996  0.017320156  0.016456343         1122 
 3745000   0.65451578   -7.5213347    778.23318   0.01731716  0.016450494         1115 
 3746000   0.64190484   -7.5046044    779.08092  0.017331396   0.01644465         1199 
 3747000    0.6549546   -7.5197053     777.0368   0.01728131  0.016438805         1120 
 3748000   0.64087857   -7.5074517    778.66306  0.017312857  0.016432962         1057 
 3749000   0.64588054   -7.5185014    778.44919  0.017303485  0.016427129         1085 
 3750000   0.65881204   -7.5027718    778.33181  0.017296262  0.016421289         1091 
 3751000   0.64768461   -7.5251548    778.37505  0.017292612   0.01641546         1041 
 3752000   0.64970528   -7.5008687    778.34376  0.017287308  0.016409621         1058 
 3753000   0.64243647   -7.5184051    778.52973  0.017286831   0.01640377         1114 
 3754000   0.65973628   -7.5207801    776.94189  0.017246979  0.016397928         1175 
 3755000   0.65203411   -7.5352104    777.09533  0.017245791  0.016392074         1255 
 3756000   0.64000566   -7.5212446    777.84852   0.01725791  0.016386222         1195 
 3757000   0.65907449   -7.5169449    776.52114  0.017223874  0.016380381         1195 
 3758000   0.63372192   -7.5367912    778.30529  0.017258854  0.016374522         1182 
 3759000   0.66512274   -7.5106227     778.5068   0.01725873  0.016368679         1216 
 3760000   0.65753268   -7.5301911    777.49615  0.017231741  0.016362827         1132 
 3761000   0.64361737   -7.5384639    776.07489  0.017195668  0.016356972         1160 
 3762000   0.65011901   -7.5061512    780.82334  0.017296282  0.016351134         1166 
 3763000   0.65206077   -7.5454926    776.59872  0.017198129  0.016345307         1192 
 3764000   0.63507345    -7.535482    776.40985  0.017189379  0.016339469         1206 
 3765000   0.65544896   -7.5555456    777.03692  0.017198692  0.016333636         1263 
 3766000   0.63295004   -7.5357256    778.50984  0.017226718  0.016327796         1276 
 3767000   0.64994578   -7.5539368    776.06655  0.017168095  0.016321963         1334 
 3768000   0.65195322   -7.5529772     775.7825  0.017157256  0.016316134         1322 
 3769000   0.64543747   -7.5654928    777.53705  0.017191497  0.016310304         1313 
 3770000   0.64801585   -7.5442676    778.36081  0.017205146  0.016304471         1276 
 3771000   0.65446962    -7.555094    777.26073  0.017176274  0.016298634         1285 
 3772000   0.63938583   -7.5305523    776.00818  0.017144048  0.016292792         1311 
 3773000   0.65815314   -7.5633437    775.71302  0.017132985  0.016286945         1394 
 3774000   0.63836733   -7.5397933    778.11272  0.017181433  0.016281103         1267 
 3775000   0.63560652   -7.5531296    776.04285  0.017131189  0.016275279         1296 
 3776000   0.65547008   -7.5499272    776.40868  0.017134725  0.016269442         1314 
 3777000   0.64368513   -7.5465983    777.72008  0.017159123   0.01626363         1335 
 3778000   0.65210386   -7.5635502    776.37235  0.017124853  0.016257806         1389 
 3779000   0.64227589   -7.5519758    775.90661  0.017110051  0.016251986         1250 
 3780000   0.64215314     -7.54584    777.42171  0.017138926  0.016246165         1255 
 3781000   0.64526059   -7.5613076    774.81719   0.01707699  0.016240344         1384 
 3782000   0.63944667   -7.5602421    776.86108   0.01711751  0.016234523         1373 
 3783000   0.64448215   -7.5524328     775.9514  0.017092946  0.016228706         1347 
 3784000   0.64322452   -7.5833573    776.79242  0.017106951  0.016222893         1274 
 3785000   0.66106273   -7.5716221    777.66983  0.017121749  0.016217092         1193 
 3786000   0.65584863   -7.5611322    777.83306  0.017120819  0.016211285         1272 
 3787000   0.65918339   -7.5687438    776.51445  0.017087282  0.016205485         1348 
 3788000   0.66308766   -7.5818913    777.12191  0.017096135  0.016199671         1346 
 3789000   0.63905338   -7.5800557    776.79096  0.017084344  0.016193858         1348 
 3790000   0.65700517   -7.5564534    776.51791  0.017073833  0.016188041         1300 
 3791000    0.6383539   -7.5842581    776.85952  0.017076838  0.016182234         1445 
 3792000   0.65085185   -7.5575442    776.10997  0.017055863  0.016176425         1437 
 3793000   0.64626325   -7.5775473     777.0974   0.01707306  0.016170615         1462 
 3794000   0.64436477   -7.5680937    777.87648  0.017085672  0.016164809         1279 
 3795000   0.64755537   -7.5792413    776.00068   0.01703998  0.016159007         1312 
 3796000   0.64420589   -7.5509408    777.60247  0.017070655  0.016153209         1439 
 3797000   0.63469817   -7.5885114    775.70491  0.017024513  0.016147402         1513 
 3798000   0.62352875   -7.5645697    775.19602  0.017008865  0.016141605         1298 
 3799000   0.63367652   -7.5786156    774.73845   0.01699435   0.01613582         1510 
 3800000   0.64456302   -7.5743671    775.47111  0.017005945  0.016130031         1477 
 3801000   0.63306142   -7.5800867    775.45894  0.017001204  0.016124233         1578 
 3802000   0.64128014   -7.5559248    775.95545  0.017007616  0.016118439         1489 
 3803000   0.63182405   -7.5685101    776.02468   0.01700466  0.016112652         1576 
 3804000   0.65120317    -7.582168    776.21694  0.017004402  0.016106845         1626 
 3805000   0.64197215   -7.5366731    775.74414  0.016989578  0.016101053         1538 
 3806000   0.65765502   -7.5744576    775.91271  0.016988805  0.016095259         1525 
 3807000   0.64686717   -7.5822965    775.90185  0.016984105  0.016089463         1528 
 3808000   0.65601677   -7.5704042    776.24171  0.016987082  0.016083683         1435 
 3809000   0.65282316   -7.5771553    776.02586    0.0169779    0.0160779         1494 
 3810000   0.65668969   -7.5754922     776.2427  0.016978187   0.01607211         1607 
 3811000   0.65870754   -7.5898694    776.47766  0.016978869  0.016066321         1559 
 3812000   0.63956544   -7.5656707    775.75074  0.016958524  0.016060551         1456 
 3813000   0.64620979   -7.5598221    776.00554  0.016959646  0.016054773         1591 
 3814000   0.63433118   -7.5884512    775.76565  0.016949957  0.016048995         1521 
 3815000   0.62739932   -7.5619098    775.39966   0.01693752  0.016043209         1651 
 3816000   0.63439921     -7.57037     775.1998  0.016928717   0.01603744         1563 
 3817000   0.64517345   -7.5727552    776.37956  0.016950038  0.016031671         1555 
 3818000    0.6540231   -7.5833387    775.61015  0.016928805  0.016025897         1673 
 3819000   0.63960037   -7.5841688    774.22635  0.016894177  0.016020122         1663 
 3820000   0.63242931   -7.5909268    775.11211  0.016909078  0.016014336         1653 
 3821000   0.65722328   -7.5669675     775.3779  0.016910449  0.016008556         1608 
 3822000   0.64137933   -7.6035214    774.70372  0.016891325  0.016002774         1546 
 3823000   0.63667213    -7.586558    775.31605  0.016900254  0.015997003         1633 
 3824000   0.65272912   -7.5914917    774.16037   0.01687065  0.015991222         1705 
 3825000   0.63576472   -7.5748582    775.49948  0.016895414  0.015985435         1764 
 3826000   0.64713174   -7.5882827    775.20656  0.016884618  0.015979655         1700 
 3827000   0.63019302   -7.6254506    773.34064  0.016839575  0.015973866         1739 
 3828000   0.64079024   -7.6034318     772.4659  0.016816133  0.015968068         1791 
 3829000   0.63600429   -7.6130068    776.02018  0.016889096  0.015962277         1838 
 3830000   0.63426355    -7.611667    773.29434  0.016825377  0.015956477         1796 
 3831000   0.62933138   -7.6078905    773.35805  0.016822371  0.015950671         1814 
 3832000   0.63160656   -7.6146284    774.07264  0.016833521   0.01594487         2006 
 3833000   0.62448796   -7.6127752    772.35583  0.016791804  0.015939067         1950 
 3834000   0.64897223   -7.6105863    773.93904  0.016821836  0.015933269         2016 
 3835000   0.61799318   -7.6132355    773.57575  0.016809556  0.015927467         1926 
 3836000   0.63611658   -7.6259182    772.51841  0.016782204  0.015921666         2039 
 3837000   0.65013888   -7.6068471    772.30766  0.016773253  0.015915869         1822 
 3838000   0.64577541   -7.6077861    773.47529  0.016794235  0.015910083         1946 
 3839000   0.63771245   -7.6112978    773.42514  0.016788772   0.01590429         1838 
 3840000   0.62850384   -7.6099755    773.70551  0.016790484   0.01589851         1960 
 3841000   0.64015304   -7.5932777    774.17775  0.016796358  0.015892736         1890 
 3842000   0.62114959   -7.6241332    774.00898  0.016788326  0.015886965         1918 
 3843000    0.6316589   -7.6373097    772.76909  0.016757071   0.01588118         1970 
 3844000   0.63464569   -7.6172828    772.96322   0.01675692  0.015875396         2020 
 3845000   0.64899108   -7.6138127    773.88855  0.016772617  0.015869622         1878 
 3846000   0.64860469   -7.6250853    774.40313  0.016779406  0.015863836         1977 
 3847000   0.61332161   -7.6477753    772.81448  0.016740631  0.015858068         1939 
 3848000   0.64126708   -7.6208186    773.69037  0.016755249  0.015852285         2033 
 3849000   0.62136482    -7.619308    773.51859  0.016747176  0.015846523         2078 
 3850000   0.60564852   -7.6585203     773.6151  0.016744916  0.015840749         2003 
 3851000   0.63696763   -7.6254231    773.61157  0.016740491  0.015834988         2112 
 3852000   0.64287554   -7.6345079     774.0051  0.016744659  0.015829232         2093 
 3853000    0.6417607    -7.597211    773.41301  0.016727507  0.015823475         2054 
 3854000   0.62602373   -7.6327043    774.50598  0.016746799  0.015817714         2121 
 3855000   0.62808104   -7.6474884    773.06857  0.016711383  0.015811947         2195 
 3856000   0.62631932   -7.6450193    773.04488  0.016706537  0.015806197         2052 
 3857000   0.63359374   -7.6398095    773.20279  0.016705617  0.015800449         2082 
 3858000    0.6261517   -7.6155526    773.93905  0.016717191  0.015794695         2175 
 3859000   0.64728372   -7.6482372    772.49004  0.016681568   0.01578894         2078 
 3860000   0.63160873   -7.6497796    773.88234  0.016707304  0.015783186         2075 
 3861000    0.6248845   -7.6454781    772.83302  0.016680329  0.015777431         2097 
 3862000   0.63866473   -7.6548915    772.99855  0.016679582  0.015771684         2102 
 3863000    0.6376134   -7.6330354    773.41763  0.016684305  0.015765934         2120 
 3864000    0.6297354   -7.6356708    773.37382  0.016679042  0.015760177         2191 
 3865000    0.6312055   -7.6467713    772.25737  0.016650655   0.01575442         2199 
 3866000   0.63188626   -7.6504953    773.66279  0.016676642  0.015748668         2231 
 3867000   0.63005801   -7.6457177    771.65943  0.016629158  0.015742904         2162 
 3868000   0.62407001   -7.6495942    771.40534  0.016619384  0.015737139         2213 
 3869000   0.63358098   -7.6267453    772.52245   0.01663915  0.015731376         2272 
 3870000   0.63624512   -7.6379741    772.71678  0.016639035   0.01572562         2255 
 3871000    0.6428604     -7.62615    773.73501  0.016656657  0.015719873         2172 
 3872000    0.6233755   -7.6295154    771.76033  0.016609856  0.015714136         2176 
 3873000   0.62654591   -7.6615684    772.99402  0.016632112  0.015708405         2129 
 3874000   0.64415798   -7.6307556     772.0504   0.01660752  0.015702675         2259 
 3875000   0.63846081   -7.6340152    771.93109  0.016600669   0.01569694         2182 
 3876000   0.62808463   -7.6398143    773.90369  0.016638796  0.015691213         2242 
 3877000   0.63971322   -7.6524814    772.18978  0.016597665  0.015685493         2255 
 3878000    0.6205867   -7.6413919    772.90427  0.016608739  0.015679767         2323 
 3879000   0.63514921   -7.6221272    773.24124  0.016611696  0.015674045         2263 
 3880000   0.62917804   -7.6539482    771.58034  0.016571743  0.015668323         2261 
 3881000    0.6421257   -7.6557339    771.43452  0.016564342    0.0156626         2357 
 3882000    0.6200301   -7.6351979    773.78018  0.016610428  0.015656891         2307 
 3883000   0.62873178   -7.6544288    771.89389  0.016565669  0.015651183         2306 
 3884000    0.6236807   -7.6458786    772.69382  0.016578566  0.015645476         2276 
 3885000   0.63231012   -7.6551254    771.67974  0.016552547  0.015639768         2341 
 3886000   0.62985842   -7.6404616    773.18673  0.016580604  0.015634061         2366 
 3887000   0.62753767   -7.6770506    772.99079  0.016572138  0.015628348         2329 
 3888000   0.62632736    -7.670369    771.73748  0.016541013   0.01562264         2423 
 3889000   0.63194822   -7.6665838    771.90993  0.016540455  0.015616928         2436 
 3890000   0.62233901   -7.6812049    772.21953  0.016542835  0.015611222         2440 
 3891000   0.63114709   -7.6726419     771.5989  0.016525291  0.015605514         2423 
 3892000   0.61948717   -7.6533011    772.25921  0.016535183    0.0155998         2487 
 3893000    0.6193139    -7.655358    772.30506  0.016531917  0.015594098         2439 
 3894000   0.62852956   -7.6613424    771.90242  0.016519055  0.015588389         2496 
 3895000   0.61966015   -7.6587469    772.04959  0.016517963  0.015582682         2333 
 3896000   0.64100064   -7.6688922    772.03032  0.016513311  0.015576986         2518 
 3897000   0.63461388   -7.6656969    771.22028  0.016491752  0.015571291         2527 
 3898000    0.6181403   -7.6739767    771.17326  0.016486516  0.015565596         2552 
 3899000   0.64102668   -7.6865191    772.45145  0.016509606  0.015559908         2520 
 3900000   0.63948123   -7.6699527    771.10187  0.016476536  0.015554213         2655 
 3901000    0.6300762   -7.6833329    771.43678  0.016479466  0.015548528         2538 
 3902000   0.63355789   -7.6449307    771.50725  0.016476748  0.015542843         2444 
 3903000   0.63353045   -7.6656231    772.37125  0.016490974  0.015537156         2529 
 3904000   0.62403582   -7.6695267    771.86358  0.016475913  0.015531471         2577 
 3905000   0.61253729   -7.6862254     771.4285  0.016462409  0.015525784         2579 
 3906000   0.63318781   -7.6839957    771.61189  0.016462107  0.015520097         2530 
 3907000   0.61339895   -7.6708909    772.33505  0.016473318  0.015514414         2621 
 3908000   0.62548421    -7.676177    773.80661  0.016500482  0.015508736         2577 
 3909000   0.63214566   -7.6698872    772.14977   0.01646094  0.015503065         2615 
 3910000   0.62429958   -7.6777176    771.88864  0.016451164  0.015497386         2614 
 3911000    0.6352937   -7.6879992    771.49393  0.016438548  0.015491708         2648 
 3912000   0.62954718   -7.6963044    771.92954  0.016443625  0.015486029         2648 
 3913000   0.62524853   -7.6923895    770.31143  0.016404963  0.015480352         2643 
 3914000   0.60802745   -7.6916413    771.03866  0.016416255  0.015474673         2610 
 3915000   0.62242323   -7.6883861     770.4383  0.016399283  0.015468993         2730 
 3916000    0.6156505   -7.6829611     772.5266  0.016439534  0.015463322         2694 
 3917000   0.62450262   -7.6920112    770.76935  0.016397952  0.015457655         2595 
 3918000   0.62693119   -7.6779529    771.08963  0.016400579   0.01545199         2599 
 3919000   0.62736053   -7.6718727    771.74218   0.01641027  0.015446324         2693 
 3920000   0.62525137   -7.7012933    771.47252  0.016400351  0.015440663         2581 
 3921000   0.61155912   -7.6934961    771.28781  0.016392243  0.015435003         2671 
 3922000   0.62707171   -7.6783392    770.92336   0.01638032  0.015429354         2588 
 3923000   0.62896808   -7.7023524    771.98293  0.016398652  0.015423701         2666 
 3924000   0.63294563   -7.6936133    771.32449  0.016380489  0.015418051         2636 
 3925000   0.63348891    -7.691382    771.90332  0.016388605  0.015412404         2679 
 3926000   0.62789651    -7.698145    771.88394   0.01638402  0.015406746         2686 
 3927000   0.63591481   -7.7002185    772.15515  0.016385603  0.015401094         2687 
 3928000   0.62243538   -7.7121179    770.13548  0.016338584  0.015395443         2731 
 3929000   0.61331218   -7.6989015    771.63142  0.016366154  0.015389796         2744 
 3930000   0.62894271   -7.6950306    770.82078    0.0163448  0.015384157         2694 
 3931000   0.61633622   -7.6801502    771.27996  0.016350377   0.01537852         2711 
 3932000   0.63404263   -7.7045419    769.98197  0.016318709  0.015372884         2734 
 3933000   0.62238282   -7.6694966    772.27897  0.016363229  0.015367244         2740 
 3934000   0.63051292   -7.6876658    771.27642  0.016337833  0.015361605         2792 
 3935000    0.6235125   -7.6972513     770.8135  0.016323878  0.015355978         2794 
 3936000   0.62664087    -7.716091    771.06592  0.016325075  0.015350339         2777 
 3937000    0.6389324   -7.6988684    770.59618  0.016310985  0.015344712         2790 
 3938000   0.61431134   -7.7013189    769.09248  0.016275023  0.015339073         2847 
 3939000   0.63001172   -7.7050013    771.36375  0.016318942  0.015333443         2881 
 3940000   0.63532333   -7.7157012    770.19948  0.016290175  0.015327819         2798 
 3941000   0.61653487   -7.7088324    769.92259  0.016280187  0.015322183         2766 
 3942000   0.62050418   -7.6987478    771.21302  0.016303336  0.015316562         2754 
 3943000   0.63972121   -7.7114725    768.62277  0.016244458  0.015310934         2832 
 3944000   0.62403725   -7.6998983    771.86466  0.016308837  0.015305304         2834 
 3945000   0.61697667   -7.7276265    768.83671  0.016240742  0.015299677         2835 
 3946000   0.60705624   -7.7232311    770.37578  0.016269129  0.015294045         2853 
 3947000   0.61205995   -7.7080673    770.48136  0.016267236  0.015288414         2825 
 3948000   0.62079075   -7.6952079    769.67566  0.016246109  0.015282791         2939 
 3949000   0.61281982   -7.7053614    769.56911  0.016239746  0.015277175         2930 
 3950000    0.6204829   -7.6971369    770.34448  0.016251993  0.015271563         2805 
 3951000   0.61922211   -7.6962576     770.5414  0.016252033  0.015265945         2753 
 3952000   0.62569042   -7.7013224    769.79157   0.01623211  0.015260334         2793 
 3953000   0.61190506   -7.7104261    769.86822  0.016229619  0.015254727         2921 
 3954000   0.62587534   -7.6949081    770.69934  0.016243031  0.015249124         2821 
 3955000   0.61811113   -7.7232398    768.87677  0.016200522  0.015243517         2864 
 3956000   0.62266084   -7.7233181    769.60864  0.016211844  0.015237925         2827 
 3957000   0.61912475   -7.7138863    771.64521  0.016250636  0.015232329         2774 
 3958000   0.61302974   -7.6939986    770.29777  0.016218161  0.015226737         2757 
 3959000   0.63819122   -7.7143767    768.62424  0.016178838  0.015221147         2814 
 3960000   0.62503856   -7.7072505    770.29032  0.016209813  0.015215562         2836 
 3961000   0.61346557   -7.7105433    771.14211  0.016223641  0.015209965         2941 
 3962000   0.60482495   -7.7103434    769.70734  0.016189369  0.015204383         2884 
 3963000   0.61886323   -7.7007142    770.16874  0.016194986  0.015198799         2916 
 3964000   0.61749714   -7.7139124    771.64487  0.016221932  0.015193225         2799 
 3965000   0.63257698   -7.6875522      768.925  0.016160677  0.015187645         2792 
 3966000   0.60806535   -7.7127385    770.61636  0.016192141  0.015182069         2802 
 3967000   0.62469215   -7.7170669    769.26416  0.016159654  0.015176493         2870 
 3968000   0.60287622   -7.7002604    768.42326  0.016137921  0.015170912         2935 
 3969000   0.61330002   -7.6966254      770.314  0.016173553  0.015165332         2888 
 3970000   0.60308347   -7.7132578    769.13744  0.016144782  0.015159762         2941 
 3971000   0.60862321   -7.7007258    769.89181  0.016156548  0.015154185         2938 
 3972000   0.63438849   -7.7101015    770.72393  0.016169938  0.015148614         2903 
 3973000   0.61630619      -7.7258    768.77374  0.016124963  0.015143039         2996 
 3974000   0.61527786   -7.7364919    771.09412  0.016169563  0.015137456         2941 
 3975000   0.61309055    -7.723082    769.40041  0.016129988  0.015131882         2898 
 3976000   0.61314035    -7.723176    769.02106   0.01611798  0.015126305         2985 
 3977000   0.61362755   -7.7222221    769.93653   0.01613311  0.015120728         3017 
 3978000   0.62447864   -7.7362398    770.02104  0.016130825  0.015115156         3066 
 3979000   0.61641738   -7.7221142    770.21699  0.016130874  0.015109582         3040 
 3980000    0.6055233   -7.7188506    768.66797  0.016094388   0.01510402         3101 
 3981000   0.61109365   -7.7315014    767.34254    0.0160626  0.015098452         3082 
 3982000   0.60284039   -7.7250859    768.54264  0.016083682  0.015092886         2927 
 3983000   0.59565224   -7.7095702    770.51209  0.016120849  0.015087321         2967 
 3984000   0.61674144    -7.719788       768.62  0.016077226  0.015081758         3017 
 3985000   0.60357671   -7.7319179    770.15517  0.016105294  0.015076195         3026 
 3986000   0.61613153   -7.7524595    768.09653  0.016058215  0.015070639         3025 
 3987000   0.61089925   -7.7265482    768.47201  0.016062035  0.015065079         3034 
 3988000   0.62209544   -7.7400507    770.04655  0.016090909  0.015059532         3039 
 3989000   0.61833229   -7.7361573    770.10645  0.016088127  0.015053983         3096 
 3990000   0.62074117   -7.7237879     769.6077  0.016073678  0.015048441         3040 
 3991000   0.61906553   -7.7169372     768.8006  0.016052798  0.015042895         3005 
 3992000   0.61830695    -7.751145    768.78179  0.016048384  0.015037351         3062 
 3993000   0.61695871   -7.7294938    769.32475  0.016055696  0.015031809         3045 
 3994000    0.6170891   -7.7297962    769.10112  0.016047011  0.015026272         2986 
 3995000   0.62479881   -7.7526302    769.45187   0.01605031   0.01502074         2995 
 3996000   0.62117776   -7.7444225    768.22143  0.016020634  0.015015201         3039 
 3997000    0.6082241   -7.7418555    769.71369  0.016047738  0.015009674         3024 
 3998000   0.60751633   -7.7312818    769.25235  0.016034108  0.015004149         3001 
 3999000   0.60375834   -7.7422314    768.45885  0.016013563  0.014998618         3088 
 4000000   0.60356543   -7.7369288    768.80243  0.016016717   0.01499309         3112 
 4001000   0.60854736    -7.730363    769.66662  0.016030713  0.014987569         2980 
 4002000     0.618004    -7.726367     769.1013  0.016014936   0.01498205         3018 
 4003000   0.62304857   -7.7184315    768.66926  0.016001941  0.014976532         3008 
 4004000   0.62435427   -7.7564442     768.1396  0.015986921  0.014971013         3069 
 4005000   0.60758746   -7.7372522    768.79184  0.015996501  0.014965501         3111 
 4006000   0.59616228   -7.7484457    767.26998   0.01596085  0.014959984         3073 
 4007000   0.61206512   -7.7415903     769.1297  0.015995543  0.014954471         3082 
 4008000   0.61682669   -7.7316706    768.58849    0.0159803  0.014948954         3220 
 4009000   0.62117709   -7.7491106    769.70008   0.01599942  0.014943442         3050 
 4010000   0.60950946   -7.7643248    770.03924  0.016002478  0.014937937         3060 
 4011000   0.60980365   -7.7476639    768.35247  0.015963444  0.014932437         3075 
 4012000   0.60878515   -7.7561146    767.83564   0.01594873  0.014926943         3157 
 4013000    0.6108494   -7.7420299    770.17579  0.015993351  0.014921443         3115 
 4014000     0.611008    -7.738082     768.5176  0.015954941  0.014915946         3141 
 4015000   0.61619231   -7.7575683    768.69597  0.015954669  0.014910451         3090 
 4016000   0.60822439   -7.7313963    768.46825  0.015945971  0.014904954         3160 
 4017000   0.61395159   -7.7226673    769.01838  0.015953414  0.014899464         3074 
 4018000   0.60554983   -7.7483389    768.80342  0.015944986  0.014893973         3165 
 4019000   0.60952427   -7.7475039    768.17414   0.01592797  0.014888481         3254 
 4020000   0.61639011   -7.7571245    767.56894  0.015911462  0.014882987         3228 
 4021000   0.60588227    -7.749428    768.45989   0.01592597    0.0148775         3227 
 4022000   0.60597677   -7.7404009    767.08104  0.015893441  0.014872014         3276 
 4023000   0.60997788   -7.7313682    767.96062   0.01590771  0.014866521         3172 
 4024000    0.6039709   -7.7620259     768.3599  0.015912026  0.014861036         3221 
 4025000   0.61031326   -7.7663151    768.10084  0.015902709  0.014855555         3218 
 4026000   0.61232284     -7.74515    769.34698  0.015924553   0.01485008         3257 
 4027000   0.61566944   -7.7500029    768.00913  0.015892913    0.0148446         3263 
 4028000   0.60711226   -7.7514096    767.61478  0.015880809  0.014839129         3236 
 4029000   0.60414935   -7.7511049    767.77855  0.015880255   0.01483366         3244 
 4030000   0.59944769   -7.7419012     767.9629  0.015880126  0.014828198         3224 
 4031000   0.60509017    -7.743879    768.68341  0.015891082   0.01482274         3241 
 4032000    0.6043383   -7.7459858    769.65784   0.01590728  0.014817284         3123 
 4033000   0.61423551   -7.7644189    767.41204  0.015856931  0.014811818         3286 
 4034000   0.58980357   -7.7609677    767.80028  0.015861021  0.014806353         3280 
 4035000   0.60636619   -7.7491059    767.80415   0.01585717  0.014800888         3296 
 4036000   0.59803432     -7.76991    767.47072  0.015846356  0.014795427         3317 
 4037000   0.61514267   -7.7523475    768.81743   0.01587023   0.01478997         3290 
 4038000   0.60761453    -7.774589    766.62828  0.015821122  0.014784512         3211 
 4039000   0.60582535   -7.7616506    768.21166  0.015849873  0.014779051         3238 
 4040000   0.60835648   -7.7579771    768.12257  0.015844112  0.014773597         3182 
 4041000   0.59395201   -7.7759804    767.29432  0.015823112  0.014768149         3264 
 4042000   0.60319193   -7.7714005    765.93924  0.015791259  0.014762689         3211 
 4043000   0.59857972   -7.7755026     767.5073  0.015819674  0.014757245         3212 
 4044000   0.60901875   -7.7756339    767.19796  0.015809388  0.014751796         3248 
 4045000   0.60526479   -7.7511173     768.7778  0.015838026  0.014746346         3171 
 4046000   0.61266078   -7.7795819    766.72456  0.015791822    0.0147409         3384 
 4047000   0.61733578   -7.7649666    766.88158  0.015791154  0.014735451         3312 
 4048000   0.60514094    -7.773135    768.10759  0.015812491  0.014730005         3287 
 4049000   0.59502462    -7.791922    766.43965  0.015774258  0.014724558         3300 
 4050000    0.5882914   -7.7757613    768.01552  0.015802789  0.014719114         3374 
 4051000   0.60076316   -7.7873848    766.83256  0.015774553  0.014713668         3383 
 4052000   0.59701761   -7.7806661    766.93777  0.015772823  0.014708225         3390 
 4053000   0.58950235   -7.7871295    767.10084  0.015772285  0.014702787         3374 
 4054000   0.59039169   -7.7734747    769.22636  0.015812086  0.014697351         3348 
 4055000   0.61538958   -7.7758049    767.40072  0.015770668  0.014691917         3349 
 4056000   0.60550002    -7.774205    767.03519   0.01575927  0.014686485         3400 
 4057000   0.60368643   -7.7679258    765.94932  0.015733081  0.014681055         3368 
 4058000   0.61412472   -7.7736623    768.50019  0.015781588  0.014675628         3418 
 4059000   0.61287271   -7.7897867    768.70657  0.015781937  0.014670201         3322 
 4060000   0.59291747   -7.7760843    767.67264  0.015756828  0.014664773         3391 
 4061000   0.58165793   -7.7888614    767.13687  0.015741953  0.014659348         3448 
 4062000   0.59745065    -7.781518    766.41519  0.015723272  0.014653926         3426 
 4063000   0.61090288    -7.771901    766.39268  0.015718941  0.014648503         3482 
 4064000   0.59615895   -7.7992692    767.58712  0.015739565  0.014643087         3445 
 4065000   0.59215284   -7.8030208    767.24875  0.015728757  0.014637663         3437 
 4066000   0.60900831    -7.782222    766.01652  0.015699634  0.014632237         3503 
 4067000   0.61397744   -7.7914941    766.14469  0.015698399  0.014626813         3524 
 4068000   0.60783302   -7.7956568    766.40356  0.015699843  0.014621406         3533 
 4069000   0.60864419   -7.7926978    767.55715  0.015719611  0.014615997         3500 
 4070000   0.61237804   -7.7940348    766.94116  0.015703136  0.014610586         3544 
 4071000   0.60245193    -7.801249    764.47129  0.015648721  0.014605175         3544 
 4072000   0.60557432   -7.7770512    766.48012  0.015685988  0.014599768         3526 
 4073000   0.59234865   -7.7965704    766.91643  0.015691064  0.014594364         3462 
 4074000   0.59877861   -7.7970609    766.41997  0.015677057  0.014588959         3564 
 4075000    0.6180975   -7.7863131    764.84876  0.015641079  0.014583552         3502 
 4076000   0.59619247   -7.8077483    766.14505  0.015663744  0.014578153         3460 
 4077000   0.59765427   -7.7933323    765.55379  0.015647817  0.014572754         3507 
 4078000   0.61069226   -7.8072864    766.75443  0.015668515  0.014567354         3511 
 4079000   0.60884301   -7.8175212      765.139   0.01563167  0.014561954         3482 
 4080000   0.60646201   -7.8050773    765.05241  0.015626071  0.014556558         3484 
 4081000   0.59634673   -7.7918756    767.90829  0.015680558  0.014551166         3493 
 4082000   0.59704384   -7.8042243    765.15951  0.015620601  0.014545769         3485 
 4083000   0.59161562   -7.8059192    766.17302  0.015637461   0.01454038         3459 
 4084000   0.60144805   -7.8107133    765.42281  0.015618324  0.014534992         3481 
 4085000   0.60106958   -7.7868349     766.3082  0.015632562  0.014529616         3509 
 4086000   0.59809162   -7.7897062    765.75769  0.015617509  0.014524237         3469 
 4087000   0.59581749   -7.7927875    765.89933  0.015616576  0.014518859         3534 
 4088000   0.59820746   -7.8037145    764.23133  0.015578753  0.014513472         3518 
 4089000   0.60447349   -7.7963956    767.24886   0.01563644    0.0145081         3517 
 4090000   0.60816054   -7.8031531    766.61804  0.015619764  0.014502724         3521 
 4091000    0.6003459    -7.795763    766.03966  0.015604165  0.014497354         3517 
 4092000   0.59814094   -7.7909403    766.19182   0.01560345  0.014491986         3520 
 4093000   0.60021594   -7.8052606    766.00184   0.01559577  0.014486617         3430 
 4094000   0.59731721   -7.7968133    765.12436    0.0155741  0.014481256         3520 
 4095000   0.58856236    -7.814024    766.83973  0.015605204  0.014475892         3545 
 4096000   0.60883882   -7.7945087    765.12694  0.015566548   0.01447053         3521 
 4097000   0.59800208   -7.7986652    766.51679  0.015591018   0.01446517         3472 
 4098000   0.58730859   -7.8033793    767.13554  0.015599795  0.014459807         3532 
 4099000   0.59293053   -7.8047175     765.4957  0.015562652  0.014454451         3556 
 4100000   0.60306552   -7.8243438    767.29019  0.015595329  0.014449099         3555 
 4101000   0.61460555   -7.8097218    765.29018  0.015550886  0.014443747         3541 
 4102000   0.59909488   -7.8117233    766.12453  0.015564045  0.014438395         3515 
 4103000   0.60068591   -7.7729621    767.38932   0.01558594  0.014433049         3444 
 4104000   0.59883193    -7.794668    767.35601  0.015581465  0.014427714         3508 
 4105000   0.60371962   -7.7953924    766.64285  0.015563192  0.014422374         3464 
 4106000   0.60068318   -7.8108363    766.18297  0.015550068  0.014417036         3523 
 4107000   0.59400043   -7.8017025    765.16465   0.01552562  0.014411703         3467 
 4108000   0.57956992   -7.8111825    766.65874  0.015552149  0.014406372         3484 
 4109000   0.58957743   -7.7971719    766.46285  0.015544391  0.014401048         3581 
 4110000   0.60425958   -7.8113853     766.6631  0.015544669  0.014395718         3535 
 4111000   0.59591453   -7.8044913    766.22497  0.015532007  0.014390395         3510 
 4112000   0.59150638   -7.7909216    765.58882  0.015515338  0.014385073         3498 
 4113000   0.59807552   -7.7957186    766.45336  0.015529082  0.014379749         3559 
 4114000   0.60201407   -7.8112651    765.56018  0.015507215  0.014374433         3559 
 4115000   0.58267679   -7.8023976    765.41966  0.015500601  0.014369116         3606 
 4116000   0.60199471   -7.8110358    767.11019  0.015531061  0.014363798         3579 
 4117000   0.59131106   -7.7960955    765.01549   0.01548489  0.014358485         3562 
 4118000   0.58420826   -7.8195674     765.4787  0.015490503  0.014353166         3530 
 4119000   0.59323544   -7.7878613    766.29273  0.015503211  0.014347856         3534 
 4120000   0.59710016   -7.8251299    765.02844  0.015473876  0.014342541         3563 
 4121000   0.58848757   -7.8256109    764.52065  0.015459853  0.014337228         3590 
 4122000    0.5978619   -7.8293667    766.00609  0.015486133  0.014331916         3652 
 4123000   0.59546687   -7.8181221    765.61062  0.015474384  0.014326604         3557 
 4124000   0.59341168   -7.8199809     765.2536  0.015463417   0.01432129         3581 
 4125000   0.60278406    -7.826812    764.63685  0.015447209  0.014315975         3585 
 4126000   0.59029559   -7.8222899    765.13585  0.015453544  0.014310667         3629 
 4127000   0.57951168   -7.8345586    765.08546  0.015448782  0.014305363         3601 
 4128000   0.58146187   -7.8259183    764.99444  0.015443202  0.014300057         3633 
 4129000    0.5967659   -7.8211039    765.27275  0.015445079   0.01429476         3567 
 4130000   0.59335213   -7.8181781    766.08597  0.015457748  0.014289464         3541 
 4131000   0.59514287   -7.8364696      764.674  0.015425523   0.01428417         3564 
 4132000   0.58769753   -7.8463224    764.37878  0.015415835   0.01427887         3578 
 4133000   0.58988613   -7.8393865    764.44202   0.01541338  0.014273578         3626 
 4134000   0.57753587   -7.8313419     764.9884  0.015420666  0.014268293         3600 
 4135000   0.59405677   -7.8370783    764.73766  0.015411884  0.014263009         3549 
 4136000    0.5962854    -7.822838    764.86923  0.015410808  0.014257725         3582 
 4137000   0.58423052   -7.8145996    765.60523  0.015421909  0.014252438         3561 
 4138000   0.59082201   -7.8287504    764.55541   0.01539704  0.014247154         3606 
 4139000   0.59052505   -7.8211838    765.20928  0.015406485  0.014241876         3506 
 4140000   0.58571852   -7.8329967    764.84438  0.015395418  0.014236592         3581 
 4141000   0.60044229   -7.8388704    766.10832  0.015417136  0.014231316         3597 
 4142000   0.58692349   -7.8285625    764.22404  0.015375504  0.014226043         3540 
 4143000   0.57995213   -7.8473378    764.66165  0.015380595  0.014220768         3579 
 4144000   0.58691145   -7.8453704     765.0789  0.015385274  0.014215501         3613 
 4145000   0.60388182   -7.8088492    766.63763    0.0154129  0.014210236         3585 
 4146000   0.60606466   -7.8359429     764.5536  0.015367294  0.014204975         3544 
 4147000   0.58341246   -7.8454207    765.17743  0.015376124  0.014199713         3604 
 4148000   0.58080427   -7.8391483    764.77783  0.015364389  0.014194455         3608 
 4149000   0.58868685   -7.8099723    764.64058  0.015357929  0.014189193         3572 
 4150000   0.58133282   -7.8220766    764.26785  0.015346744  0.014183936         3637 
 4151000    0.5912614   -7.8381506    765.27405  0.015363247  0.014178685         3581 
 4152000   0.57928429   -7.8240674    764.48373  0.015343684  0.014173431         3623 
 4153000   0.59425274   -7.8444233    764.80688  0.015346474  0.014168179         3613 
 4154000   0.59099434   -7.8455066    765.21186  0.015350904  0.014162938         3619 
 4155000    0.5832224   -7.8408608    763.39928  0.015310856  0.014157692         3616 
 4156000   0.58483189   -7.8334679    764.19097  0.015323046  0.014152455         3627 
 4157000   0.57727041   -7.8395131    765.09018  0.015337386  0.014147213         3617 
 4158000   0.58015054   -7.8413189    763.84001  0.015308642  0.014141978         3580 
 4159000   0.57777704   -7.8390864    763.58683  0.015299888  0.014136739         3620 
 4160000   0.58496045   -7.8482584    763.65039  0.015297484  0.014131507         3636 
 4161000   0.59031568   -7.8233165    766.51831  0.015351244  0.014126279         3579 
 4162000   0.58221116   -7.8388377    765.40063  0.015325177  0.014121046         3589 
 4163000   0.58364019    -7.851934    764.47284  0.015302923  0.014115823         3597 
 4164000    0.5953982    -7.810338    765.53852  0.015320575  0.014110602         3571 
 4165000   0.57919021   -7.8242425    764.73166  0.015300754  0.014105382         3593 
 4166000   0.58616964   -7.8225127    764.22781  0.015287002   0.01410017         3620 
 4167000   0.59116203   -7.8288789    764.00489  0.015278875  0.014094954         3633 
 4168000   0.56962583   -7.8286487     765.1299  0.015297703   0.01408974         3608 
 4169000   0.58399584   -7.8514289    765.45215  0.015300475  0.014084522         3627 
 4170000   0.58589873   -7.8380469    764.36255  0.015275031  0.014079323         3541 
 4171000   0.59976079   -7.8277626    764.85903  0.015281288  0.014074117         3610 
 4172000   0.59455238   -7.8265117    764.71121  0.015274673  0.014068913         3654 
 4173000   0.58576363   -7.8540987    764.21176  0.015261038   0.01406371         3667 
 4174000   0.58438316   -7.8355306    763.53486  0.015243868  0.014058502         3646 
 4175000   0.58078226    -7.842668    763.42532   0.01523803  0.014053304         3652 
 4176000   0.58169982   -7.8543877    763.73271  0.015240515  0.014048108         3627 
 4177000   0.56781071   -7.8567329    764.38977  0.015249975  0.014042905         3664 
 4178000   0.59471244   -7.8550786    762.68249  0.015212272   0.01403771         3595 
 4179000   0.57970838   -7.8278905    765.97513  0.015274291  0.014032521         3616 
 4180000   0.57293888   -7.8349221    764.68451  0.015244907  0.014027336         3599 
 4181000   0.59432048   -7.8346688     765.3549  0.015254622  0.014022153         3645 
 4182000   0.58614198    -7.849394      762.717   0.01519841  0.014016973         3617 
 4183000   0.59975891   -7.8467545     764.2179  0.015224677  0.014011792         3672 
 4184000   0.58446403   -7.8492408    765.07669  0.015238143  0.014006613         3633 
 4185000   0.57864897   -7.8355334    763.64433   0.01520598  0.014001439         3657 
 4186000   0.59221094   -7.8419092    764.47523  0.015218889  0.013996262         3616 
 4187000   0.58529846   -7.8515406    766.06622  0.015246919  0.013991092         3590 
 4188000     0.583721   -7.8545037    763.62642  0.015194731  0.013985923         3541 
 4189000   0.58299817   -7.8451202    763.49647  0.015188519   0.01398076         3658 
 4190000   0.57944149   -7.8505234     763.9901  0.015194712  0.013975595         3648 
 4191000   0.59201768   -7.8417662    763.09791  0.015173346  0.013970438         3632 
 4192000   0.57945491   -7.8387645    764.05572  0.015188767  0.013965277         3673 
 4193000   0.58544769   -7.8625629    763.95776  0.015183197   0.01396012         3576 
 4194000    0.5734834   -7.8486693    763.99694  0.015180356  0.013954967         3596 
 4195000   0.58110292   -7.8425767    764.05738  0.015177938  0.013949814         3626 
 4196000   0.58506117   -7.8310291    763.55379  0.015164319  0.013944663         3576 
 4197000   0.57431503   -7.8437636    764.58291   0.01518114  0.013939513         3611 
 4198000   0.57837888   -7.8417704    765.06895  0.015187172  0.013934369         3624 
 4199000   0.58560334   -7.8708511    763.67367  0.015155864  0.013929222         3662 
 4200000   0.58086085   -7.8414423    764.27144  0.015164116  0.013924079         3632 
 4201000    0.5805024   -7.8402974    762.76394  0.015130603  0.013918932         3645 
 4202000   0.56929712   -7.8531049    764.52295  0.015161886  0.013913799         3637 
 4203000   0.57915074   -7.8456147    764.12025  0.015150294  0.013908666         3646 
 4204000   0.57084784   -7.8484147    763.50615  0.015134518  0.013903528         3583 
 4205000   0.57556118    -7.835972    764.63323  0.015153255  0.013898398         3657 
 4206000   0.57577215   -7.8530005    764.22334  0.015141531  0.013893267         3631 
 4207000   0.58558245   -7.8529957      763.151   0.01511669  0.013888138         3652 
 4208000    0.5658816   -7.8497913    762.34848  0.015097205  0.013883015         3597 
 4209000   0.58330412   -7.8654571    764.13648  0.015129019  0.013877892         3651 
 4210000   0.56546465    -7.858141    763.72803   0.01511734  0.013872764         3675 
 4211000   0.57571931   -7.8473541    763.39408  0.015107142  0.013867648         3616 
 4212000   0.58219699   -7.8620993    764.22143  0.015119924  0.013862524         3683 
 4213000   0.56684357    -7.855263    763.46802  0.015101433   0.01385741         3682 
 4214000   0.57162191   -7.8581394    763.90235  0.015106438  0.013852297         3639 
 4215000   0.57203222    -7.860703    763.56449  0.015096174  0.013847182         3685 
 4216000   0.56635781   -7.8459899    764.37328   0.01510858  0.013842071         3633 
 4217000   0.57311794   -7.8724376    763.02467  0.015078347  0.013836964         3656 
 4218000   0.58240856   -7.8526048    763.58164  0.015085776  0.013831859         3626 
 4219000   0.57387964   -7.8730389    763.76896    0.0150859   0.01382675         3638 
 4220000   0.56832904   -7.8492043    764.14885  0.015089827  0.013821649         3669 
 4221000   0.57660987   -7.8516563     762.6255  0.015056177  0.013816551         3689 
 4222000   0.58989379   -7.8682952    764.00346  0.015079809  0.013811455         3644 
 4223000   0.57432578   -7.8646737    763.30312  0.015062419  0.013806356         3683 
 4224000   0.56577792   -7.8606753    763.61207  0.015064948  0.013801266         3642 
 4225000   0.56837103   -7.8416874    762.86034  0.015046555  0.013796177         3670 
 4226000   0.57344493   -7.8535472    763.81686  0.015061856  0.013791087         3622 
 4227000   0.56035986   -7.8545854    763.18025  0.015045743  0.013786004         3698 
 4228000   0.57650145    -7.852516    764.13304  0.015060963  0.013780921         3620 
 4229000   0.56932246   -7.8674241    762.99293  0.015034936  0.013775835         3662 
 4230000   0.57127348   -7.8707667    762.65469  0.015024718  0.013770759         3686 
 4231000   0.57378329   -7.8754561     763.5246  0.015038301  0.013765679         3715 
 4232000   0.58124532   -7.8605107    762.66379  0.015017797  0.013760603         3676 
 4233000   0.56876313   -7.8745091     763.3452  0.015027664  0.013755529         3728 
 4234000   0.58004439   -7.8522495    763.50634  0.015027286  0.013750453         3703 
 4235000    0.5877523   -7.8644273    763.98891  0.015033233   0.01374538         3698 
 4236000   0.57628568    -7.871841    762.47372  0.014999876   0.01374031         3646 
 4237000   0.56726354   -7.8741251    763.68609  0.015020181  0.013735247         3663 
 4238000   0.56620271   -7.8650869    763.64223  0.015015775   0.01373018         3684 
 4239000   0.57840928   -7.8610313    761.48423  0.014969809  0.013725116         3712 
 4240000   0.57130668   -7.8474366    762.25891  0.014981504  0.013720057         3711 
 4241000    0.5721565   -7.8679384    762.50261   0.01498276  0.013715001         3670 
 4242000   0.58261115   -7.8607813    763.18402  0.014992614  0.013709944         3631 
 4243000   0.57304134   -7.8579653    762.78266  0.014981198  0.013704891         3684 
 4244000    0.5747983   -7.8666388    764.64928   0.01501432  0.013699844         3671 
 4245000   0.57564788   -7.8696323    762.69951  0.014972507  0.013694794         3685 
 4246000   0.57807324   -7.8593933    762.98374  0.014974559  0.013689751         3677 
 4247000   0.56939476   -7.8611241     762.6074  0.014963649  0.013684706         3662 
 4248000   0.57406873   -7.8565195    762.26617  0.014953432  0.013679671         3663 
 4249000   0.56731126   -7.8595775    763.13985  0.014967048  0.013674636         3644 
 4250000   0.56049895   -7.8682962    763.04149  0.014961598  0.013669601         3650 
 4251000   0.55290077   -7.8489494    763.41274  0.014965356  0.013664567         3685 
 4252000   0.57819611   -7.8814192     761.8563  0.014931332  0.013659533         3689 
 4253000    0.5577435   -7.8810173    763.93127  0.014968479  0.013654508         3709 
 4254000   0.56784169   -7.8750613    764.08592  0.014967989  0.013649478         3633 
 4255000   0.56740786   -7.8771473    762.60425  0.014935453  0.013644455         3677 
 4256000   0.57280976   -7.8788784    763.66709  0.014952755  0.013639431         3672 
 4257000   0.57641795   -7.8665552    763.63411  0.014948597  0.013634411         3687 
 4258000   0.56509721   -7.8685558    762.37607  0.014920465  0.013629386         3693 
 4259000   0.57181265   -7.8746949    763.21199  0.014933317  0.013624374         3694 
 4260000   0.55560298   -7.8582658    763.79414    0.0149412  0.013619356         3676 
 4261000   0.55867073    -7.876209    762.31738  0.014908812  0.013614341         3659 
 4262000   0.57881127   -7.8648179    762.31228  0.014905214  0.013609332         3672 
 4263000   0.56088846   -7.8770004    764.75293  0.014949428   0.01360432         3664 
 4264000   0.56243186    -7.868377    763.07531  0.014913135  0.013599313         3676 
 4265000   0.56368201   -7.8697738    762.56824  0.014899731  0.013594313         3690 
 4266000    0.5600992    -7.863334    763.75261  0.014919374  0.013589314         3668 
 4267000    0.5705101   -7.8779019    762.17814  0.014885129  0.013584316         3691 
 4268000   0.58316342   -7.8770658     761.8245  0.014874736  0.013579319         3675 
 4269000   0.57085408   -7.8614263    764.62777  0.014925974   0.01357433         3649 
 4270000   0.56476171   -7.8777917    762.64555  0.014883793   0.01356934         3671 
 4271000   0.56727409   -7.8671343    764.63468  0.014919119  0.013564353         3645 
 4272000   0.58414309   -7.8777476    761.95511  0.014863357  0.013559368         3678 
 4273000   0.56536707   -7.8662742    762.80223  0.014876399   0.01355438         3665 
 4274000   0.57167927   -7.8683582    763.98789  0.014896036  0.013549396         3692 
 4275000   0.56224399   -7.8636792    763.20695  0.014877328  0.013544417         3715 
 4276000   0.57905297   -7.8791529    763.77578  0.014884935   0.01353944         3666 
 4277000   0.57495193   -7.8636326    763.82053  0.014882327  0.013534465         3687 
 4278000   0.57036319   -7.8755678    762.37702  0.014850729  0.013529489         3727 
 4279000   0.56586113   -7.8538578    762.76424  0.014854799  0.013524517         3580 
 4280000   0.57128214   -7.8787794    763.06321   0.01485715  0.013519546         3713 
 4281000   0.58540579   -7.8688703    761.93188  0.014831657  0.013514585         3632 
 4282000   0.57126795   -7.8781001    763.58168  0.014860301  0.013509619         3676 
 4283000   0.57111996   -7.8727777    760.82132  0.014803123  0.013504656         3701 
 4284000   0.57162375   -7.8757158    762.89044  0.014839917  0.013499702         3714 
 4285000   0.57725203   -7.8889545     763.0979  0.014840488  0.013494748         3669 
 4286000   0.57210439   -7.8689711    761.36657  0.014803363  0.013489792         3741 
 4287000   0.57228601   -7.8791187    762.97572   0.01483119  0.013484837         3691 
 4288000    0.5656767   -7.8635169    763.14473  0.014831015  0.013479881         3672 
 4289000   0.56715109    -7.864278    762.55236  0.014816048  0.013474935         3661 
 4290000   0.55574275   -7.8858921    763.31594  0.014827427  0.013469991         3652 
 4291000   0.56154358   -7.8777379    764.36602  0.014844364  0.013465048         3697 
 4292000   0.55945871   -7.8827532    761.83483   0.01479176  0.013460109         3682 
 4293000   0.56936029   -7.8902489     763.0261  0.014811439  0.013455166         3699 
 4294000   0.56047299   -7.8745735    764.21443  0.014831052  0.013450227         3652 
 4295000   0.58326175   -7.8864217    762.06231  0.014785842  0.013445295         3648 
 4296000    0.5550852   -7.8830716    763.27132  0.014805853   0.01344036         3614 
 4297000   0.56414202   -7.8786392    763.86348  0.014813891  0.013435432         3626 
 4298000   0.57079617   -7.8770621    764.34093  0.014819702  0.013430504         3701 
 4299000   0.56658093    -7.889376    762.15628  0.014773906   0.01342558         3687 
 4300000   0.56674851   -7.8954063    761.93745   0.01476623  0.013420659         3698 
 4301000   0.56429015   -7.8814532    764.37149  0.014809957  0.013415739         3654 
 4302000   0.57076498   -7.8718091     762.3077  0.014766537  0.013410818         3671 
 4303000   0.55544976   -7.8760855    762.68298  0.014770373  0.013405901         3623 
 4304000   0.56560904   -7.8664926    762.23174  0.014758204  0.013400989         3679 
 4305000   0.55412247   -7.8803617    762.43751  0.014758759  0.013396076         3660 
 4306000   0.55555195   -7.8875032    761.27854  0.014732903  0.013391169         3648 
 4307000   0.56633261    -7.871515    762.16303  0.014746595  0.013386259         3652 
 4308000   0.58464714   -7.8598005    761.30976  0.014726667   0.01338135         3682 
 4309000   0.56561585   -7.8982396    762.27389  0.014741895  0.013376444         3725 
 4310000   0.57208134   -7.8903532    761.71543  0.014727676  0.013371541         3677 
 4311000   0.56146524   -7.8637747    763.18981  0.014752761  0.013366639         3652 
 4312000   0.56941849   -7.8747486    763.87617  0.014762604  0.013361744         3701 
 4313000   0.56184173   -7.8840266    763.17048  0.014745546  0.013356844         3678 
 4314000   0.57623885   -7.8940272    761.53726  0.014710579   0.01335195         3710 
 4315000   0.56502494   -7.8809958    762.09764  0.014717992  0.013347061         3661 
 4316000   0.55757416   -7.8836433    762.44242  0.014721239  0.013342172         3705 
 4317000   0.56527987   -7.8707505     762.5297  0.014719514  0.013337283         3669 
 4318000   0.56556993   -7.8892784    761.67022  0.014699518  0.013332404         3698 
 4319000   0.55576938   -7.9148546    761.38086  0.014690531  0.013327522         3733 
 4320000   0.57750106   -7.8758772    762.18431  0.014702629  0.013322646         3691 
 4321000   0.55633892   -7.8830566     762.5002  0.014705319  0.013317764         3659 
 4322000   0.56060929   -7.8637991     764.3179  0.014736964   0.01331289         3650 
 4323000   0.55677485   -7.8738587      763.645  0.014720584  0.013308014         3654 
 4324000   0.56022056     -7.88031    761.41591   0.01467422  0.013303141         3688 
 4325000   0.56594865   -7.8881493    762.73707  0.014696283   0.01329827         3652 
 4326000   0.55464796   -7.8806995    763.26745  0.014703102  0.013293403         3658 
 4327000   0.55901515   -7.8936861    762.61792  0.014687195   0.01328853         3681 
 4328000   0.56672008   -7.8912641    761.88361  0.014669663  0.013283666         3658 
 4329000    0.5526464   -7.8667805    761.32013  0.014655427  0.013278798         3655 
 4330000   0.56053809   -7.8933799    762.00258  0.014665177  0.013273937         3685 
 4331000   0.56796937    -7.892562    762.58462   0.01467299  0.013269071         3717 
 4332000   0.55746298   -7.8900994    762.52861  0.014668525  0.013264217         3689 
 4333000   0.56028234   -7.8770188    760.91989    0.0146342   0.01325936         3678 
 4334000   0.54639995   -7.8824165    761.99993  0.014651591  0.013254512         3687 
 4335000   0.56062209   -7.8837809      762.893  0.014665379  0.013249663         3667 
 4336000   0.55446646   -7.8825917    762.35726    0.0146517  0.013244819         3695 
 4337000   0.57165653   -7.8873005    763.77808  0.014675622  0.013239974         3682 
 4338000   0.55543409   -7.8844322    761.69274   0.01463218   0.01323513         3679 
 4339000   0.54217096   -7.8762962    761.38649  0.014622926  0.013230288         3697 
 4340000   0.55822287   -7.8905657    763.73432  0.014664638  0.013225446         3726 
 4341000   0.56851651   -7.8774188    761.97864  0.014627556  0.013220609         3730 
 4342000    0.5581354   -7.8944987    762.87471  0.014641385  0.013215775         3707 
 4343000   0.56248861   -7.9141052    762.97852  0.014640005  0.013210939         3702 
 4344000   0.55298908    -7.890668    762.34216  0.014624427  0.013206105         3691 
 4345000   0.53975333   -7.8927332    763.65231  0.014646189  0.013201277         3638 
 4346000   0.56073954   -7.9009142    760.78207  0.014587783  0.013196445         3699 
 4347000   0.55735333   -7.8972434    762.16679  0.014610973   0.01319162         3656 
 4348000   0.56146035   -7.9068742    760.70227  0.014579544  0.013186801         3670 
 4349000   0.55161605   -7.8908922    762.61841  0.014612907  0.013181987         3638 
 4350000   0.54413113   -7.8946135    761.77688  0.014593427  0.013177164         3653 
 4351000    0.5701748   -7.8700449    762.30709  0.014600228   0.01317235         3684 
 4352000   0.56122215   -7.8889321    761.28857   0.01457737  0.013167537         3715 
 4353000   0.55374037   -7.8960867    761.23666  0.014573027  0.013162723         3651 
 4354000    0.5538978   -7.8958247    762.48824  0.014593635  0.013157918         3649 
 4355000   0.56082717   -7.9028528    760.43116  0.014550922  0.013153105         3700 
 4356000   0.54128284   -7.8984269    762.05111  0.014578572  0.013148302         3706 
 4357000   0.55371141   -7.8996055     762.0325   0.01457487  0.013143498         3659 
 4358000   0.54653083    -7.892195    762.48195   0.01458012   0.01313869         3678 
 4359000   0.55367319   -7.8825676    762.38479  0.014574918  0.013133887         3685 
 4360000   0.54768586   -7.9026408    761.86038  0.014561552  0.013129087         3670 
 4361000   0.55221871   -7.8915696    760.44004  0.014531072  0.013124293         3714 
 4362000   0.55341827   -7.8965369    762.46674  0.014566459  0.013119502         3700 
 4363000   0.55552494   -7.8956882    763.21478  0.014577408  0.013114716         3646 
 4364000   0.55611189   -7.8915822    762.54928   0.01456136  0.013109927         3648 
 4365000   0.54278305    -7.897619    760.80805  0.014524781  0.013105141         3740 
 4366000   0.54920288   -7.8985177    760.75837  0.014520506  0.013100355         3668 
 4367000   0.55793799   -7.9062058    761.81818  0.014537405  0.013095574         3676 
 4368000   0.55822219   -7.9073835    761.66484  0.014531152  0.013090793         3698 
 4369000   0.56348405   -7.8863381    762.19017  0.014537846  0.013086017         3640 
 4370000   0.55200289   -7.9201887    762.20674  0.014534835  0.013081243         3709 
 4371000   0.54422701   -7.8972088    760.79848  0.014504661  0.013076473         3717 
 4372000    0.5500899   -7.8921319    762.36763  0.014531252  0.013071702         3669 
 4373000   0.56531183   -7.9177678    761.93187  0.014519626  0.013066933         3680 
 4374000   0.54809725    -7.916072    761.34691  0.014505161  0.013062163         3659 
 4375000   0.55056558   -7.9021399    761.67807  0.014508154  0.013057403         3705 
 4376000    0.5550291   -7.8864419    761.64417  0.014504193  0.013052643         3727 
 4377000   0.54872977   -7.8958977     761.4699  0.014497561  0.013047883         3714 
 4378000   0.54908483   -7.8857249    762.87621  0.014521018  0.013043123         3739 
 4379000   0.54726868   -7.9122409    760.71951   0.01447666  0.013038369         3711 
 4380000   0.55888741   -7.9044867    761.96359  0.014497024  0.013033614         3731 
 4381000   0.53905938   -7.9079049    761.83086   0.01449119  0.013028864         3707 
 4382000   0.55354334   -7.9059688    760.21669  0.014457186  0.013024115         3695 
 4383000   0.55137962   -7.9004764    762.39588   0.01449532  0.013019361         3684 
 4384000   0.55853058   -7.9083574     760.6694  0.014459196  0.013014622         3642 
 4385000   0.54447264   -7.8923707    762.51246  0.014490925  0.013009881         3660 
 4386000   0.55014332   -7.9075932     761.4623  0.014467668  0.013005137         3692 
 4387000   0.54349897   -7.8984399    761.23269  0.014460009  0.013000398         3704 
 4388000   0.53281964   -7.8946933    762.17972  0.014474699  0.012995657         3680 
 4389000    0.5569256   -7.9221389    761.55593  0.014459557  0.012990922         3683 
 4390000   0.53928815   -7.9039771    763.08835  0.014485352  0.012986191         3717 
 4391000   0.55169852   -7.9064649    761.36951  0.014449433  0.012981454         3732 
 4392000   0.54198151    -7.901126    762.59378  0.014469372  0.012976721         3739 
 4393000     0.553284   -7.9120051    761.39978  0.014443428  0.012971992         3699 
 4394000   0.54083365   -7.9130121    761.16308  0.014435652  0.012967262         3709 
 4395000   0.54686059   -7.9117046    760.97958  0.014428888  0.012962538         3733 
 4396000   0.55671715   -7.9025066    760.90083  0.014424113  0.012957818         3716 
 4397000   0.54457804   -7.9249705     761.1039  0.014424682    0.0129531         3676 
 4398000   0.55051602   -7.9079106    762.93416  0.014456082  0.012948384         3635 
 4399000   0.53923981   -7.9253479    759.89072  0.014395141  0.012943669         3743 
 4400000   0.54028574   -7.8977537    760.54357  0.014404234  0.012938958         3707 
 4401000   0.54870189   -7.9215648    761.17616  0.014412939  0.012934249         3694 
 4402000   0.55505969   -7.9277736    762.87029  0.014441737   0.01292954         3743 
 4403000   0.55499241   -7.9284888    761.50383  0.014412594  0.012924838         3744 
 4404000    0.5359803   -7.8887928    762.16589  0.014421849  0.012920133         3703 
 4405000   0.53881242    -7.909282    762.39035  0.014422822  0.012915432         3748 
 4406000   0.55093006   -7.9099406    761.54956  0.014403646  0.012910731         3737 
 4407000   0.55687347   -7.9182612    761.35967  0.014396787  0.012906035         3756 
 4408000   0.55948602   -7.8998713     761.6466  0.014398945  0.012901341         3729 
 4409000   0.57426607   -7.9181671    761.02632  0.014383956  0.012896653         3706 
 4410000   0.54081247   -7.9333251    761.11258  0.014382324  0.012891962         3760 
 4411000   0.54749818   -7.8932926    761.93529  0.014394606  0.012887269         3729 
 4412000   0.56965348   -7.9171034    759.97803  0.014354375  0.012882582         3724 
 4413000   0.53850489   -7.9156269    762.26122  0.014394237    0.0128779         3722 
 4414000   0.55038869   -7.9079271    761.74139  0.014381162  0.012873221         3702 
 4415000    0.5474507   -7.9129695    762.21522  0.014386848  0.012868544         3694 
 4416000   0.55556586   -7.9061239    761.34906  0.014367245  0.012863867         3746 
 4417000   0.55982852   -7.9252305    760.71534  0.014352036  0.012859191         3783 
 4418000    0.5396226   -7.9200962     760.4238  0.014343289  0.012854518         3764 
 4419000   0.52837723   -7.9179841    762.78602   0.01438459  0.012849848         3711 
 4420000   0.54866108   -7.9195679    760.91545  0.014346068  0.012845174         3737 
 4421000   0.54026006   -7.9052188    762.02724   0.01436378  0.012840506         3713 
 4422000   0.54282208   -7.9033051    760.42408   0.01433032  0.012835843         3721 
 4423000   0.53412155   -7.9095601    761.69523  0.014351029  0.012831184         3739 
 4424000   0.53623402   -7.9350267    762.10322   0.01435547  0.012826525         3752 
 4425000   0.54640082   -7.9066615    760.38728  0.014319911  0.012821863         3757 
 4426000   0.54121807   -7.9232391    760.98746  0.014327976  0.012817208         3732 
 4427000    0.5449302   -7.9117659     761.0828  0.014326534  0.012812552         3694 
 4428000    0.5489624   -7.9031427    761.50956   0.01433133  0.012807899         3781 
 4429000   0.54165128   -7.9261255    760.40597   0.01430733  0.012803252         3769 
 4430000   0.54905423   -7.9239782     761.4181   0.01432314  0.012798599         3749 
 4431000   0.54546851   -7.9259541    760.04371  0.014294059  0.012793956         3771 
 4432000   0.54155677    -7.912707    760.60403  0.014301369  0.012789315         3709 
 4433000   0.53179646   -7.9354579    759.73491  0.014281805  0.012784671         3745 
 4434000   0.54803026   -7.9313572    761.01526  0.014302647  0.012780028         3734 
 4435000   0.53991063   -7.9063538    760.87944   0.01429687  0.012775389         3692 
 4436000   0.54086868   -7.9199978    761.32054  0.014301934  0.012770755         3687 
 4437000   0.53898292   -7.9336944    761.42345  0.014300643  0.012766121         3741 
 4438000   0.54600732   -7.9185006    760.45457  0.014279228  0.012761488         3713 
 4439000   0.53753335   -7.9163797    761.27042  0.014291327  0.012756861         3727 
 4440000     0.537251   -7.9152976    759.84721  0.014261397  0.012752237         3741 
 4441000    0.5386327   -7.9106498    761.57693  0.014290643  0.012747615         3692 
 4442000   0.53022525   -7.9019864    761.78207  0.014291274  0.012742993         3723 
 4443000   0.53144029   -7.9117133    761.82782  0.014288915  0.012738376         3687 
 4444000   0.53915494   -7.9296355    760.34014  0.014257803  0.012733755         3693 
 4445000   0.53909528   -7.9153755    761.90137  0.014283865  0.012729142         3681 
 4446000   0.53832161   -7.9280198    761.49355  0.014273008  0.012724526         3672 
 4447000     0.543248   -7.9168983    760.80987  0.014256987  0.012719917         3703 
 4448000   0.52870586   -7.9243055    761.32724  0.014263475   0.01271531         3719 
 4449000   0.53074093   -7.8974282    761.44385  0.014262453  0.012710703         3721 
 4450000   0.53670765   -7.9216013    761.90581  0.014267899  0.012706092         3725 
 4451000   0.53581947   -7.9388399    760.94571  0.014246718  0.012701484         3751 
 4452000   0.53380827   -7.9235344    762.47025  0.014272055   0.01269688         3707 
 4453000    0.5372414   -7.9281805    760.20341  0.014226428  0.012692276         3731 
 4454000   0.54300509    -7.919488    760.34225  0.014225832  0.012687676         3706 
 4455000   0.53858854   -7.9137041    759.13175  0.014199995   0.01268308         3657 
 4456000   0.54148286   -7.9267909    762.39391  0.014257815  0.012678483         3682 
 4457000   0.53646988   -7.9392405    760.05293  0.014210847  0.012673888         3711 
 4458000   0.53859931   -7.9401549    759.93026  0.014205366  0.012669297         3724 
 4459000   0.53857295    -7.919566    760.82537  0.014218909  0.012664704         3702 
 4460000   0.53672225   -7.9219036    760.51204  0.014209866  0.012660118         3735 
 4461000   0.53188558   -7.9339504    761.19203  0.014219383  0.012655529         3717 
 4462000   0.54105001    -7.925208     761.2255  0.014216822  0.012650945         3721 
 4463000    0.5392111   -7.9286132    761.30172  0.014215059  0.012646361         3777 
 4464000   0.53107207   -7.9153242    761.58243  0.014217115  0.012641781         3665 
 4465000   0.53922219   -7.9073003     760.9491  0.014202111  0.012637205         3735 
 4466000   0.55095406   -7.9345952    759.33704  0.014168851  0.012632629         3767 
 4467000   0.53578123   -7.9183271    760.68918  0.014190903  0.012628057         3707 
 4468000   0.53189721   -7.9468805    758.96678  0.014155603   0.01262348         3758 
 4469000   0.54007899   -7.9299156    761.48213  0.014199339  0.012618913         3752 
 4470000   0.54322791   -7.9189256    761.54013  0.014197243  0.012614347         3743 
 4471000   0.52679921   -7.9327367     759.4232  0.014154611  0.012609777         3724 
 4472000   0.53782908   -7.9301407     761.5365  0.014190826  0.012605213         3716 
 4473000    0.5532086   -7.9259923    760.69629     0.014172  0.012600654         3751 
 4474000   0.53225721   -7.9288974    761.44599  0.014182797  0.012596093         3741 
 4475000   0.54668134   -7.9450435    759.51644  0.014143695  0.012591532         3717 
 4476000    0.5365211   -7.9227808    759.81095  0.014146019  0.012586974         3697 
 4477000   0.53791876   -7.9300769    760.83467  0.014161914  0.012582418         3701 
 4478000   0.52901598   -7.9044754    761.06579  0.014163053  0.012577871         3701 
 4479000   0.52529786   -7.9214387    759.93554  0.014138862  0.012573317         3761 
 4480000   0.53121353   -7.9258108    759.66697   0.01413071  0.012568772         3692 
 4481000   0.54172318    -7.919193    761.19342  0.014155944  0.012564226         3781 
 4482000   0.52072702   -7.9274529    760.13729  0.014133149  0.012559684         3765 
 4483000   0.53671535   -7.9331749     760.6991   0.01414044  0.012555141         3756 
 4484000   0.53453216   -7.9316557    760.24324  0.014128814  0.012550599         3743 
 4485000   0.53766383   -7.9460432    759.29224  0.014107994  0.012546063         3738 
 4486000   0.53722096    -7.939844    759.90834  0.014116294  0.012541529         3732 
 4487000   0.53170503   -7.9445687    760.47258  0.014123627  0.012536998         3700 
 4488000   0.53342899   -7.9412387    759.88035  0.014109484  0.012532472         3751 
 4489000   0.53657037   -7.9425286    759.32942  0.014096113  0.012527943         3721 
 4490000   0.53900408   -7.9098905    761.55789  0.014134334   0.01252342         3714 
 4491000   0.52483573   -7.9351847    760.50777  0.014111701  0.012518896         3750 
 4492000   0.52775696   -7.9263546    759.77895  0.014095038  0.012514371         3651 
 4493000   0.52147647   -7.9292377    760.61181  0.014107349  0.012509849         3707 
 4494000   0.54140983   -7.9405687    760.72242  0.014106261  0.012505331         3744 
 4495000   0.52552058   -7.9356742    759.53959  0.014081194  0.012500813         3770 
 4496000   0.53724852   -7.9425594    759.41889  0.014075825  0.012496299         3693 
 4497000   0.53893112   -7.9149961    759.40403  0.014072419  0.012491784         3713 
 4498000   0.53470611   -7.9433938    760.31926  0.014086247  0.012487276         3712 
 4499000   0.52497042   -7.9324098    760.90754  0.014094012  0.012482769         3695 
 4500000   0.53875235   -7.9385122    760.14032  0.014076673  0.012478261         3740 
 4501000   0.52914964   -7.9272483    761.14737   0.01409219  0.012473757         3722 
 4502000   0.52790794   -7.9487469    759.99971  0.014067816  0.012469253         3711 
 4503000   0.53022704   -7.9356454    759.95196  0.014063809  0.012464754         3692 
 4504000   0.52596142   -7.9406309    761.06965  0.014081366  0.012460253         3736 
 4505000   0.53053929   -7.9193959    759.57337  0.014050562  0.012455758         3720 
 4506000   0.52643991   -7.9375777    761.83494  0.014089269  0.012451267         3676 
 4507000   0.53224236   -7.9490235    760.28943  0.014057567   0.01244677         3732 
 4508000   0.52675688    -7.934215    760.13306  0.014051558   0.01244228         3726 
 4509000   0.53299545   -7.9087199    760.68354  0.014058615  0.012437797         3680 
 4510000   0.52745526   -7.9236287    760.59885  0.014053933  0.012433313         3706 
 4511000   0.52412847   -7.9600015    760.91453  0.014056649  0.012428827         3767 
 4512000   0.52621502   -7.9368601    760.23402  0.014040965  0.012424346         3768 
 4513000   0.53288093   -7.9269813    761.83912  0.014067492  0.012419863         3722 
 4514000    0.5231735   -7.9466028     759.6055  0.014023141  0.012415385         3722 
 4515000   0.52867785   -7.9401593    760.07419  0.014028686  0.012410909         3728 
 4516000   0.53502209   -7.9436774    758.89327  0.014003788  0.012406431         3767 
 4517000   0.51947495   -7.9386098     759.1672  0.014005741  0.012401956         3688 
 4518000   0.51745897   -7.9239787    761.02279  0.014036867  0.012397489         3715 
 4519000   0.52143401   -7.9489505     760.0095  0.014015075  0.012393023         3721 
 4520000   0.52213685   -7.9485416    760.42307  0.014019599  0.012388558         3732 
 4521000   0.54488075   -7.9392272    760.82499  0.014023907  0.012384096         3725 
 4522000   0.53526344   -7.9318242    760.29327  0.014011007  0.012379633         3741 
 4523000   0.52595386   -7.9494032    760.40892   0.01401004  0.012375175         3718 
 4524000   0.53454192   -7.9341093    760.12016  0.014001624  0.012370716         3730 
 4525000   0.53858925   -7.9384958    759.71935  0.013991148  0.012366262         3718 
 4526000   0.51797056   -7.9427747    760.12082  0.013995449  0.012361806         3745 
 4527000   0.51599942   -7.9529826    759.22557  0.013975877   0.01235735         3782 
 4528000   0.52335679     -7.93976     760.1008  0.013988899  0.012352902         3738 
 4529000   0.52896395    -7.945254    760.93161  0.014001097  0.012348455         3722 
 4530000   0.54049894   -7.9365854    759.86727  0.013978427  0.012344012         3730 
 4531000   0.52872812   -7.9412253    759.76322  0.013973428  0.012339568         3728 
 4532000   0.52764101   -7.9238043    758.75854  0.013951871  0.012335123         3732 
 4533000   0.53047463   -7.9360834     759.1692  0.013956342   0.01233068         3731 
 4534000   0.53807695   -7.9340227    759.37884  0.013957117  0.012326239         3717 
 4535000   0.52472677   -7.9617042    760.08148  0.013966951  0.012321802         3730 
 4536000    0.5349642   -7.9541228    759.06112  0.013945126  0.012317364         3740 
 4537000   0.52582634   -7.9414631    760.79895  0.013973972   0.01231293         3728 
 4538000   0.52904306   -7.9496288    759.56912  0.013948309  0.012308496         3717 
 4539000    0.5255887   -7.9423142    760.14755  0.013955856  0.012304066         3695 
 4540000   0.53985209   -7.9461115    758.63441  0.013925008  0.012299641         3686 
 4541000   0.52012388   -7.9486083     758.4942  0.013919368  0.012295216         3685 
 4542000   0.52114083   -7.9472765     760.2238  0.013948037  0.012290796         3763 
 4543000   0.52267212   -7.9478606    759.56509  0.013932884  0.012286374         3738 
 4544000     0.530011   -7.9512229    759.07959  0.013920914  0.012281956         3688 
 4545000   0.52061431   -7.9569963    758.24749  0.013902594  0.012277539         3688 
 4546000   0.51819434   -7.9441075    760.64176  0.013943426  0.012273123         3749 
 4547000   0.52394526   -7.9565944     758.8289  0.013907135  0.012268711         3774 
 4548000   0.52069525   -7.9304471    760.43676  0.013933538  0.012264298         3718 
 4549000   0.52392537   -7.9499556    757.57754  0.013878097  0.012259889         3714 
 4550000   0.53476365   -7.9459992    759.85195  0.013916702  0.012255481         3706 
 4551000   0.52384831   -7.9453117    760.49791  0.013925473  0.012251077         3703 
 4552000   0.52159101   -7.9494304    759.03278  0.013895591  0.012246674         3737 
 4553000    0.5334947   -7.9609051    761.11116   0.01393058  0.012242273         3746 
 4554000    0.5205786   -7.9655097    758.76411  0.013884572  0.012237872         3775 
 4555000   0.52205777   -7.9840996    758.55325  0.013877667  0.012233469         3693 
 4556000   0.51888019   -7.9645426    758.79092  0.013878968  0.012229076         3722 
 4557000    0.5219767   -7.9518239    759.77034  0.013893833  0.012224681         3729 
 4558000   0.51104454   -7.9522146    759.31575  0.013882473  0.012220291         3733 
 4559000   0.52817144   -7.9486141    760.34677  0.013898274  0.012215901         3727 
 4560000   0.51700358   -7.9575504    759.35257  0.013877057  0.012211516         3747 
 4561000   0.52398554   -7.9422548    758.86577   0.01386512   0.01220713         3752 
 4562000   0.50850997   -7.9514428    760.53305  0.013892537  0.012202749         3729 
 4563000    0.5251669   -7.9534828    759.70065   0.01387429  0.012198368         3766 
 4564000   0.52437093   -7.9590669    759.49766  0.013867544  0.012193989         3724 
 4565000   0.51560383   -7.9610074    759.83499  0.013870664   0.01218961         3742 
 4566000   0.52620019   -7.9652592     758.9638  0.013851727  0.012185239         3736 
 4567000   0.52899088   -7.9670723    758.41593  0.013838697  0.012180867         3776 
 4568000   0.51992675   -7.9497657    759.37992  0.013853253  0.012176496         3754 
 4569000   0.52315471    -7.963554    758.74282  0.013838601  0.012172127         3688 
 4570000   0.51360868   -7.9666329    759.03405  0.013840883  0.012167759         3731 
 4571000   0.51108013   -7.9532642    759.40888  0.013844689  0.012163394         3718 
 4572000   0.52033441   -7.9600003    757.74463  0.013811327   0.01215903         3725 
 4573000   0.52121259   -7.9617758     760.1165  0.013851529  0.012154671         3728 
 4574000   0.52674955   -7.9515554    760.06396  0.013847543  0.012150309         3736 
 4575000   0.51043881   -7.9484652    759.52244  0.013834653  0.012145953         3706 
 4576000   0.51146944   -7.9590702    758.18428   0.01380726  0.012141601         3712 
 4577000   0.52029554    -7.945961    760.86935  0.013853131  0.012137247         3747 
 4578000   0.51381602   -7.9416957     759.1065  0.013818015  0.012132894         3740 
 4579000   0.51762749   -7.9678892    758.85817  0.013810478  0.012128542         3713 
 4580000   0.50870981    -7.955571     759.4215  0.013817713  0.012124196         3730 
 4581000   0.52380024   -7.9547503    759.15038  0.013809765  0.012119847         3761 
 4582000   0.51149989   -7.9455077    760.16341  0.013825175  0.012115506         3735 
 4583000   0.52067805   -7.9708865    760.16663  0.013822217  0.012111164         3724 
 4584000    0.5187188   -7.9476006    758.30997  0.013785449  0.012106828         3713 
 4585000   0.53568598    -7.967233    759.09628  0.013796734  0.012102491         3694 
 4586000   0.53161422   -7.9673776    759.59296   0.01380275  0.012098155         3726 
 4587000   0.51864792   -7.9600439    760.63027  0.013818586  0.012093821         3740 
 4588000   0.50957064   -7.9533328    759.61435  0.013797122  0.012089489         3741 
 4589000   0.51338706   -7.9491345    758.83075  0.013779886   0.01208516         3717 
 4590000   0.50928146   -7.9437778    758.50222  0.013770919  0.012080828         3771 
 4591000   0.52062536   -7.9634884    760.00067  0.013795118  0.012076504         3773 
 4592000   0.52188487   -7.9560485    757.83452  0.013752804  0.012072177         3726 
 4593000   0.52197278   -7.9449301    759.45556  0.013779221  0.012067853         3767 
 4594000   0.51582302   -7.9654215    758.65047  0.013761618  0.012063533         3773 
 4595000   0.51729742   -7.9569302    759.00456  0.013765045  0.012059212         3745 
 4596000   0.51948712   -7.9699096    759.34217  0.013768171  0.012054894         3734 
 4597000   0.50453474   -7.9522049    759.06861  0.013760217  0.012050577         3730 
 4598000   0.52390063   -7.9575211    758.22425  0.013741921  0.012046258         3728 
 4599000   0.51856979   -7.9605748    758.61175  0.013745955  0.012041944         3712 
 4600000   0.50914791   -7.9635392    760.41625  0.013775657  0.012037636         3738 
 4601000   0.51227252   -7.9609379    758.95833  0.013746257  0.012033328         3736 
 4602000   0.50292338   -7.9652052    758.89192  0.013742067  0.012029019         3779 
 4603000   0.51698673   -7.9554488     759.9072  0.013757462  0.012024717         3738 
 4604000   0.50876154   -7.9615832    760.30835  0.013761735  0.012020418         3782 
 4605000   0.50180067   -7.9631563     758.4242  0.013724651  0.012016118         3763 
 4606000   0.51019509   -7.9658432    758.83375  0.013729081  0.012011816         3789 
 4607000   0.52527399   -7.9525416    759.20717  0.013732855  0.012007524         3715 
 4608000   0.51512907   -7.9648801    759.08666  0.013727696   0.01200323         3765 
 4609000   0.50490476   -7.9509364    757.43608  0.013694874  0.011998935         3732 
 4610000   0.51665537   -7.9624301    758.83066  0.013717112  0.011994644         3773 
 4611000   0.51211134   -7.9527078    758.82665  0.013714065  0.011990354         3759 
 4612000   0.51133708   -7.9579845    758.75951  0.013709878   0.01198607         3770 
 4613000   0.52326546   -7.9486468    759.62161   0.01372248  0.011981784         3785 
 4614000    0.5107587   -7.9600009    759.57298  0.013718628  0.011977499         3746 
 4615000   0.51084467   -7.9714122     757.5829   0.01367972  0.011973219         3757 
 4616000   0.51520971   -7.9728549    760.72637  0.013733506   0.01196894         3725 
 4617000   0.52102429   -7.9730857    758.35089  0.013687656  0.011964662         3746 
 4618000   0.52258006   -7.9687236    759.46602  0.013704815  0.011960389         3754 
 4619000   0.51136377   -7.9694668    758.35633  0.013681827  0.011956121         3750 
 4620000   0.51144075   -7.9746208    759.24859   0.01369496  0.011951851         3721 
 4621000   0.50933831   -7.9745162    758.45091  0.013677611  0.011947575         3721 
 4622000   0.51890597   -7.9725592    758.66205  0.013678459  0.011943311         3745 
 4623000   0.51509358   -7.9575299    759.93898  0.013698518  0.011939047         3786 
 4624000   0.52411824   -7.9831872    758.03504  0.013661243  0.011934787         3759 
 4625000   0.51164147   -7.9727451    759.59179  0.013686338  0.011930527         3744 
 4626000   0.52315681   -7.9770612    758.40552   0.01366201  0.011926269         3769 
 4627000   0.50699393   -7.9594241    757.09485  0.013635452  0.011922014         3770 
 4628000   0.50156574   -7.9615447    758.05709  0.013649832  0.011917761         3719 
 4629000     0.508921   -7.9530703    759.28012  0.013668901  0.011913509         3740 
 4630000   0.51153244   -7.9810262    759.22611  0.013664977  0.011909258         3722 
 4631000   0.50433133    -7.963068    758.42678  0.013647642  0.011905009         3757 
 4632000   0.50693901   -7.9721939    758.04002  0.013637738  0.011900762         3723 
 4633000   0.50628834   -7.9839185    759.05072  0.013652974  0.011896519         3773 
 4634000   0.50282767   -7.9829385     757.9077  0.013629472  0.011892273         3801 
 4635000   0.51339124    -7.951963    758.94707  0.013645219  0.011888032         3749 
 4636000   0.51770553   -7.9684352    759.14159  0.013645772  0.011883795         3764 
 4637000   0.50122392   -7.9689255    759.40491  0.013647561  0.011879559         3792 
 4638000   0.51040505   -7.9777185    758.88502  0.013635278  0.011875326         3778 
 4639000   0.50852256    -7.961543    758.50854  0.013625576  0.011871094         3742 
 4640000   0.50491916   -7.9738775    758.00361  0.013613571   0.01186686         3754 
 4641000   0.50106554   -7.9767205    758.37862  0.013617371  0.011862628         3780 
 4642000   0.50768652   -7.9684257    758.30193  0.013613061  0.011858401         3752 
 4643000    0.4992971    -7.979928    758.88076  0.013620518  0.011854168         3753 
 4644000   0.51727133   -7.9474957    759.54283  0.013629465  0.011849947         3760 
 4645000   0.51557722   -7.9676852     757.6089  0.013591835  0.011845725         3715 
 4646000   0.51282597   -7.9748145    758.88491  0.013611797  0.011841504         3752 
 4647000   0.50553533   -7.9673531    758.25158  0.013597511  0.011837283         3712 
 4648000   0.50751022   -7.9714005    759.01276  0.013608232  0.011833069         3759 
 4649000   0.50997439   -7.9752419    759.24159  0.013609407  0.011828853         3739 
 4650000   0.51285659   -7.9631131    758.61736  0.013595293  0.011824637         3770 
 4651000   0.50450331   -7.9812063    757.97616  0.013580882  0.011820427         3752 
 4652000   0.50519615    -7.976176    758.12862  0.013580693  0.011816217         3792 
 4653000   0.50800095   -7.9734313    757.41999  0.013565083  0.011812007         3741 
 4654000   0.50485269   -7.9709616    759.24391  0.013594827  0.011807805         3761 
 4655000   0.49464114   -7.9752091    758.24664  0.013574054  0.011803599         3779 
 4656000    0.5206917    -7.960118     758.2711  0.013571576  0.011799399         3757 
 4657000   0.50596902   -7.9728343    758.89292  0.013579789    0.0117952         3749 
 4658000    0.5051105   -7.9708833     759.2695  0.013583611  0.011791003         3757 
 4659000   0.50034012    -7.967562    757.54181  0.013549793  0.011786812         3750 
 4660000    0.5222423   -7.9786297     759.0404  0.013573684   0.01178262         3758 
 4661000   0.49792863   -7.9702801    758.85849  0.013567519  0.011778426         3745 
 4662000   0.50478407   -7.9865733    759.00708  0.013567265  0.011774233         3765 
 4663000   0.49994771   -7.9849731    758.92056  0.013562809  0.011770045         3762 
 4664000   0.50203597   -7.9752592    758.04399  0.013544239   0.01176586         3746 
 4665000   0.51068793   -7.9736971    758.39828  0.013547665  0.011761674         3767 
 4666000   0.50866255   -7.9721495     758.6573  0.013549387  0.011757493         3751 
 4667000   0.51243302   -7.9817661    757.52604  0.013526285  0.011753313         3783 
 4668000   0.50378267   -7.9983379    757.50397  0.013522993  0.011749133         3741 
 4669000   0.51068627   -7.9910719    758.78473  0.013542956  0.011744957         3775 
 4670000   0.49803741   -7.9727369     757.4013  0.013515369  0.011740784         3796 
 4671000   0.51392368    -7.976598    757.30991  0.013510846  0.011736612         3744 
 4672000   0.51555109    -7.972804      759.557  0.013548034  0.011732444         3734 
 4673000   0.49645684   -7.9726008    758.80652  0.013531752  0.011728275         3742 
 4674000   0.51341767   -7.9773051    758.27344  0.013519352  0.011724109         3808 
 4675000   0.50292726   -7.9780452    757.40942  0.013501059  0.011719943         3765 
 4676000   0.50960052   -7.9888156    758.15133  0.013511394  0.011715779         3734 
 4677000   0.50153094   -7.9673912    758.01785  0.013506127  0.011711618         3729 
 4678000   0.49985591   -7.9729079     758.0646  0.013504072  0.011707459         3764 
 4679000   0.49175326   -7.9823513    758.62539  0.013511174  0.011703304         3741 
 4680000   0.50290675    -7.979816    756.22681  0.013465577   0.01169915         3729 
 4681000   0.51973859   -7.9712158    758.78167  0.013508183  0.011694999         3780 
 4682000   0.51119749   -7.9792556    758.58742  0.013501841  0.011690848         3743 
 4683000   0.50878515   -7.9830577    758.24564  0.013492876  0.011686699         3765 
 4684000   0.49736653   -7.9782501     759.1878  0.013506757  0.011682554         3794 
 4685000   0.49708561   -7.9730919    758.04572   0.01348356  0.011678408         3727 
 4686000   0.50403004   -7.9863791    757.44223   0.01346995  0.011674264         3784 
 4687000   0.50418269    -7.974251    758.25367  0.013481503  0.011670122         3801 
 4688000   0.50153297   -7.9696628    758.35409  0.013480413   0.01166598         3747 
 4689000   0.50377302   -7.9740778     759.4046  0.013496207  0.011661844         3736 
 4690000   0.50246487   -7.9622545    758.21672  0.013472223  0.011657707         3774 
 4691000   0.49805461   -7.9822041     757.3447   0.01345386  0.011653574         3765 
 4692000   0.50059915   -7.9944002    758.39812  0.013469702  0.011649443         3771 
 4693000   0.50612632   -7.9814677    759.62293  0.013488581  0.011645314         3763 
 4694000   0.50839007   -7.9685832    757.50373  0.013448085  0.011641188         3773 
 4695000    0.4995039   -7.9593095    757.54225  0.013445904  0.011637061         3761 
 4696000    0.4886312   -7.9967387    755.65034  0.013409468  0.011632937         3751 
 4697000   0.50899528   -7.9861717    757.91304  0.013446758  0.011628812         3779 
 4698000   0.50611651    -7.987355    759.17049    0.0134662  0.011624692         3795 
 4699000   0.50535283   -7.9803145    759.08908  0.013461891  0.011620571         3738 
 4700000   0.49844468   -7.9868207     758.1048  0.013441574  0.011616456         3734 
 4701000   0.50539323   -7.9935683    756.73428   0.01341442  0.011612341         3766 
 4702000   0.50023919   -7.9975432    758.60726  0.013444762   0.01160823         3736 
 4703000   0.49624833   -7.9944867    758.51471  0.013440263  0.011604122         3781 
 4704000   0.50491667   -7.9667749    757.02861  0.013411079  0.011600011         3743 
 4705000   0.50543611   -7.9978032    758.49503  0.013434202  0.011595902         3756 
 4706000   0.50284397   -7.9896775     756.6022  0.013397829  0.011591793         3772 
 4707000   0.49871361   -7.9740685    758.41695  0.013427111  0.011587685         3755 
 4708000   0.50989828   -7.9760112    757.92703  0.013415587  0.011583586         3760 
 4709000   0.48561775   -7.9790139    758.06638  0.013415205  0.011579487         3762 
 4710000   0.49472543   -7.9771141     757.7085  0.013406024  0.011575391         3755 
 4711000   0.49543841   -7.9890649    756.03668  0.013373606  0.011571293         3797 
 4712000   0.50854294   -7.9990266     757.8614  0.013403038  0.011567198         3790 
 4713000   0.50657692   -7.9743157    758.03901  0.013403335  0.011563104         3783 
 4714000   0.49873585   -7.9928869    757.92209  0.013398425  0.011559011         3757 
 4715000   0.49908967   -7.9945482    759.09988  0.013416399  0.011554922         3772 
 4716000   0.49599672   -7.9914496    758.40499  0.013401276   0.01155083         3742 
 4717000   0.50017296   -7.9723693    759.19733  0.013412432  0.011546744         3735 
 4718000   0.49150711   -7.9858712    757.27762  0.013375682  0.011542659         3778 
 4719000   0.48140856   -7.9817581    757.75371  0.013381255  0.011538576         3771 
 4720000   0.49625969   -7.9764459     757.2755  0.013369977  0.011534497         3790 
 4721000   0.48775186   -8.0016364    756.56029   0.01335452  0.011530418         3767 
 4722000   0.49461078   -7.9903632     757.4968   0.01336822  0.011526337         3791 
 4723000   0.50465164   -7.9845699    757.28383  0.013361632  0.011522261         3727 
 4724000   0.50088529   -7.9861315    758.10636  0.013373313  0.011518188         3748 
 4725000   0.50091343   -8.0092914    757.50632    0.0133599  0.011514119         3755 
 4726000   0.50219521   -8.0010544    758.12146   0.01336792  0.011510048         3771 
 4727000   0.49804554   -7.9768179    757.52689   0.01335461  0.011505978         3760 
 4728000    0.4990564   -7.9802003    759.05414  0.013378704  0.011501912         3772 
 4729000   0.49720166   -7.9847381    757.59732  0.013350203   0.01149785         3758 
 4730000    0.4982764   -7.9709867    757.97299  0.013353999  0.011493788         3744 
 4731000   0.49281274   -7.9911466    757.61218  0.013344821  0.011489726         3772 
 4732000   0.49369051   -7.9909987    758.45746  0.013356887  0.011485672         3753 
 4733000   0.49759784   -7.9804799    758.90528  0.013361949  0.011481617         3772 
 4734000   0.48947248   -7.9966069    757.52147  0.013334767  0.011477561         3775 
 4735000   0.47070787   -7.9914306     757.0141  0.013323022  0.011473508         3778 
 4736000   0.49042221   -7.9941153    756.80421  0.013316516  0.011469453         3764 
 4737000   0.48156788   -8.0085513    756.29333  0.013304717  0.011465401         3779 
 4738000    0.4889611   -7.9982439    758.27115  0.013336695  0.011461352         3795 
 4739000   0.50563085   -7.9956408    755.94808  0.013293031  0.011457305         3798 
 4740000    0.4988785   -7.9930878    757.61351  0.013319506  0.011453259         3733 
 4741000   0.49401444   -7.9815381     758.3202  0.013329118  0.011449216         3757 
 4742000   0.49874153   -7.9935481    758.10764  0.013322572  0.011445177         3784 
 4743000   0.49481763   -8.0050774    758.52564  0.013327107  0.011441138         3755 
 4744000   0.49075849   -8.0001452    757.89253  0.013313177  0.011437102         3774 
 4745000   0.48899155   -7.9907735    757.35056  0.013300853  0.011433064         3785 
 4746000   0.49728779   -7.9922106    757.34904  0.013298024   0.01142903         3760 
 4747000   0.49490068   -7.9955262    756.98149   0.01328877  0.011425003         3788 
 4748000   0.48911471    -7.998499     758.2105  0.013307542  0.011420969         3773 
 4749000   0.48906304   -7.9984686    755.26545  0.013253061  0.011416941         3756 
 4750000   0.50617028   -7.9981703    757.63568  0.013291854  0.011412916         3757 
 4751000   0.49262416    -8.003693    757.01685  0.013278202  0.011408888         3766 
 4752000   0.48525272   -7.9896472    757.76757  0.013288573  0.011404867         3766 
 4753000   0.49872245   -8.0075433    756.74761  0.013267894  0.011400849         3738 
 4754000   0.49866994   -8.0011233    757.90504  0.013285392  0.011396827         3751 
 4755000   0.48501002   -7.9937868    758.82572  0.013298733   0.01139281         3761 
 4756000   0.48363328    -7.994305    758.32725  0.013287203  0.011388795         3765 
 4757000   0.48863455    -8.011339    757.17811  0.013264279  0.011384784         3768 
 4758000   0.49064934   -8.0027917    758.04348  0.013276648  0.011380773         3735 
 4759000   0.48372566   -8.0071237    757.43014  0.013263118  0.011376762         3743 
 4760000   0.47721956   -7.9969422    758.09996  0.013272058  0.011372753         3741 
 4761000    0.4903342   -7.9860003    757.89832  0.013265741  0.011368744         3809 
 4762000   0.48672859   -8.0095868    756.70975  0.013242156  0.011364737         3714 
 4763000   0.48583028   -8.0093853    756.46674  0.013235124  0.011360734         3739 
 4764000   0.49171839   -8.0053522    756.48664  0.013232694  0.011356734         3750 
 4765000   0.48274034   -8.0000639    757.13055  0.013241178  0.011352737         3760 
 4766000   0.49099723   -8.0054602    757.31358    0.0132416   0.01134874         3772 
 4767000   0.47570247   -7.9971024    755.88264  0.013213807  0.011344746         3782 
 4768000   0.48376898   -7.9945378    756.62721  0.013224049  0.011340749         3763 
 4769000   0.48882747   -7.9965144    757.20766  0.013231419  0.011336758         3738 
 4770000   0.47819804   -8.0027323    756.38542   0.01321428  0.011332769         3765 
 4771000   0.48920325   -8.0094839    758.69513  0.013251854   0.01132878         3757 
 4772000   0.49837693   -8.0033319    758.43689  0.013244567  0.011324795         3748 
 4773000   0.48367938   -7.9940931    757.75481  0.013229884  0.011320812         3734 
 4774000    0.4916763   -8.0070766    756.63422  0.013207552  0.011316831         3751 
 4775000   0.48742992   -8.0157138     757.6407  0.013222351   0.01131285         3779 
 4776000   0.48399755    -8.014338    758.08548  0.013227343  0.011308873         3775 
 4777000   0.48843806   -8.0015541    757.46648  0.013213776  0.011304895         3778 
 4778000   0.48630267   -7.9941311    756.13436  0.013187777  0.011300917         3775 
 4779000   0.49003781   -8.0081488    756.36209  0.013188988  0.011296941         3749 
 4780000   0.48147548   -8.0107788    756.43892  0.013187568  0.011292968         3720 
 4781000   0.48678947   -8.0112582    756.75641  0.013190344  0.011289002         3731 
 4782000   0.48825853   -8.0131822    756.40128  0.013181397  0.011285035         3760 
 4783000    0.4799816   -8.0100682    757.41833  0.013196361   0.01128107         3754 
 4784000   0.48682766   -7.9985215    758.07563  0.013205052  0.011277105         3758 
 4785000   0.48200168   -8.0127908    757.03206  0.013184118  0.011273143         3763 
 4786000   0.47933071   -8.0108558    756.69852  0.013175556  0.011269184         3748 
 4787000    0.4711171    -8.001803    757.06622  0.013179204  0.011265223         3766 
 4788000   0.47698401   -8.0088277    758.07732   0.01319405  0.011261266         3741 
 4789000   0.48068553   -8.0135997     756.9896  0.013172367  0.011257305         3730 
 4790000   0.48889469   -8.0091956    755.93312  0.013151237  0.011253349         3798 
 4791000   0.47644573   -8.0085413    757.57994  0.013177137    0.0112494         3752 
 4792000   0.48271235    -8.013584    756.34572  0.013152924  0.011245448         3789 
 4793000   0.49330451   -7.9988654    756.61399  0.013154844  0.011241496         3772 
 4794000   0.47419356   -8.0191885    757.72748  0.013171455   0.01123755         3764 
 4795000   0.48710257    -8.006148    756.00744  0.013138815  0.011233601         3788 
 4796000   0.48756151   -8.0017306    756.49507  0.013144549  0.011229661         3765 
 4797000   0.48883738   -7.9950162    756.91036  0.013149023  0.011225721         3762 
 4798000    0.4779321    -7.990761    757.25894  0.013152337  0.011221783         3755 
 4799000   0.48258473   -8.0119198     755.7289  0.013123027  0.011217842         3778 
 4800000   0.48160242   -8.0152841    757.67428  0.013154067  0.011213908         3739 
 4801000   0.48137926   -8.0112958    758.02097  0.013157345  0.011209969         3797 
 4802000   0.47871448   -8.0154961    757.45189  0.013144729  0.011206042         3766 
 4803000   0.48705006   -8.0194775    756.42694  0.013124209  0.011202112         3768 
 4804000   0.48062573   -8.0180613    756.89993  0.013129682   0.01119818         3796 
 4805000   0.47867259    -8.007056    756.57257  0.013121272  0.011194253         3758 
 4806000   0.47737908   -7.9950935    758.22182  0.013147139  0.011190327         3728 
 4807000   0.47582168   -8.0153203    756.71127  0.013118218  0.011186401         3749 
 4808000   0.47847499   -8.0091567    755.99438  0.013103064  0.011182478         3779 
 4809000   0.48766157   -8.0178803    757.02208  0.013118148  0.011178554         3803 
 4810000   0.48765691   -8.0006037    756.67326  0.013109377  0.011174633         3762 
 4811000   0.48362422   -8.0261867    757.37496  0.013118807  0.011170717         3770 
 4812000   0.47660817   -8.0267667    756.83562   0.01310674  0.011166802         3748 
 4813000   0.48589058   -8.0169454    756.96523  0.013106261   0.01116289         3764 
 4814000   0.47356497   -8.0212498    758.34688  0.013127456  0.011158979         3721 
 4815000   0.48062224   -8.0184262    757.28835   0.01310641  0.011155069         3765 
 4816000   0.47726327   -8.0327053    757.12233  0.013100816   0.01115116         3720 
 4817000   0.46677347   -8.0204381    756.39742  0.013085555  0.011147256         3788 
 4818000   0.47766752   -8.0153679    757.44268  0.013100918  0.011143351         3785 
 4819000   0.48168272   -8.0200518    757.94918  0.013106958   0.01113945         3773 
 4820000    0.4836449   -8.0109193    756.68689  0.013082415   0.01113555         3770 
 4821000   0.47357414   -8.0152173    756.41728  0.013075041   0.01113165         3802 
 4822000   0.48383942   -8.0199618    757.34876  0.013088427  0.011127754         3756 
 4823000   0.47673592   -8.0156607     757.2702  0.013084356  0.011123857         3773 
 4824000   0.47994462   -8.0176225    756.81929  0.013073854  0.011119961         3791 
 4825000   0.47712435   -8.0278697    756.97259  0.013073792  0.011116068         3783 
 4826000   0.47243198   -8.0271746    756.93693  0.013070468  0.011112173         3766 
 4827000   0.48463423   -8.0254996     755.7126  0.013046623  0.011108282         3781 
 4828000   0.47202077   -8.0347352    756.14702  0.013051419  0.011104393         3783 
 4829000   0.47804243   -8.0173723    756.73825  0.013058919  0.011100507         3773 
 4830000   0.47261361   -8.0084747     756.9945  0.013060637  0.011096624         3768 
 4831000    0.4772061   -8.0151353    757.25289   0.01306239  0.011092744         3783 
 4832000   0.47782559   -8.0279391    756.69084  0.013049994  0.011088858         3771 
 4833000   0.47202752   -8.0307247    755.99787  0.013035345  0.011084979         3767 
 4834000   0.46916483   -8.0055816    756.51033  0.013041483  0.011081101         3773 
 4835000   0.47530658   -8.0038906     755.3713  0.013019154  0.011077224         3792 
 4836000   0.47259073   -8.0195278    755.82503   0.01302428  0.011073352         3782 
 4837000   0.48592235    -8.017021    757.21643  0.013045559  0.011069479         3754 
 4838000     0.464025   -8.0156674    755.82997  0.013018981  0.011065606         3743 
 4839000   0.47716708   -8.0183198    757.18633  0.013039649   0.01106174         3774 
 4840000   0.47983723    -8.023339    756.49656  0.013025079  0.011057873         3741 
 4841000   0.48203854   -8.0158394    756.78128  0.013027289  0.011054009         3745 
 4842000   0.48782241   -8.0242935    756.46675  0.013019185  0.011050147         3789 
 4843000   0.48341821    -8.015836    756.55148  0.013017955  0.011046286         3797 
 4844000   0.47148224    -8.033297    755.36889  0.012994923  0.011042423         3759 
 4845000   0.47881071    -8.026003    755.87726  0.013000985  0.011038564         3753 
 4846000   0.48247994   -8.0180821    757.48831  0.013026006  0.011034709         3734 
 4847000   0.46457224   -8.0315299    756.47277  0.013005859  0.011030857         3761 
 4848000   0.49101724   -8.0273643    755.59054  0.012988011  0.011027005         3742 
 4849000   0.47859181   -8.0173928    755.82445  0.012989353   0.01102315         3780 
 4850000   0.47575468    -8.027405     757.2013  0.013010332  0.011019299         3773 
 4851000   0.47390048     -8.00299    756.72286  0.012999431  0.011015452         3817 
 4852000   0.47816471   -8.0270895    756.88887  0.012999603  0.011011606         3763 
 4853000   0.48375025   -8.0156445    756.81804  0.012995708  0.011007767         3741 
 4854000   0.47310282   -8.0248259    755.53933  0.012971078  0.011003927         3794 
 4855000   0.47155298   -8.0194339    754.51564  0.012950835  0.011000084         3792 
 4856000   0.47130383   -8.0249052     756.2386  0.012977736  0.010996246         3814 
 4857000   0.47232281   -8.0305776    756.14687   0.01297349  0.010992407         3790 
 4858000   0.47670952   -8.0248029    755.70884  0.012963305   0.01098857         3816 
 4859000   0.47073304    -8.028323    754.98706  0.012948259  0.010984735         3782 
 4860000   0.47510856   -8.0274782    756.24041  0.012967085  0.010980901         3808 
 4861000    0.4747002   -8.0301664    755.46296   0.01295109  0.010977072         3797 
 4862000   0.47110452   -8.0212772    756.19382  0.012960953  0.010973244         3772 
 4863000   0.47317146   -8.0162931    756.16606  0.012957812  0.010969418         3795 
 4864000   0.47386825     -8.03138    755.32988  0.012940822  0.010965595         3792 
 4865000   0.47010171   -8.0053541    757.04038  0.012967461  0.010961776         3789 
 4866000   0.47726695   -8.0210525    756.60698  0.012957374  0.010957956         3780 
 4867000   0.47104255   -8.0209949    755.90011  0.012942609  0.010954136         3747 
 4868000   0.48235916   -8.0297531    757.66579  0.012970176  0.010950315         3786 
 4869000    0.4786037   -8.0266673    755.71528  0.012934129    0.0109465         3795 
 4870000   0.48162005    -8.030582    756.85628  0.012950997  0.010942684         3799 
 4871000   0.47772468   -8.0358922    756.03662  0.012934316  0.010938871         3799 
 4872000   0.48160608   -8.0151143    756.39609  0.012937809  0.010935063         3804 
 4873000   0.47955944   -8.0160894    757.18824  0.012948701  0.010931256         3724 
 4874000   0.47411489    -8.018691    755.37632  0.012915065   0.01092745         3793 
 4875000    0.4718434   -8.0182995    757.59932  0.012950416  0.010923642         3779 
 4876000   0.47553342   -8.0345324    756.07495  0.012921708  0.010919837         3761 
 4877000    0.4746267   -8.0340882    755.74622  0.012913441  0.010916038         3757 
 4878000   0.46204508   -8.0245162    755.19769  0.012901423  0.010912238         3768 
 4879000   0.47352637     -8.02861    755.80994  0.012909236  0.010908436         3785 
 4880000    0.4766673   -8.0228818    756.21058  0.012913432  0.010904639         3734 
 4881000   0.47185955   -8.0250999    754.69297  0.012884876  0.010900847         3798 
 4882000   0.47055959   -8.0392241    756.46668  0.012912513  0.010897056         3794 
 4883000   0.47850654   -8.0317259     755.6519  0.012895964  0.010893259         3805 
 4884000   0.46143566   -8.0399723    756.80687   0.01291303  0.010889471         3803 
 4885000   0.47208857   -8.0330684    756.26352  0.012901118  0.010885682         3766 
 4886000   0.48066883   -8.0223479    757.31675  0.012916441  0.010881893         3773 
 4887000   0.47152759   -8.0204569    755.65032  0.012885382  0.010878109         3762 
 4888000   0.47379604   -8.0318204    757.10688  0.012907578  0.010874322         3738 
 4889000   0.47375464   -8.0259182    756.92152  0.012901778  0.010870539         3777 
 4890000   0.46080811   -8.0120695    756.18329  0.012886559  0.010866759         3747 
 4891000    0.4628627   -8.0420679    756.18758  0.012883998  0.010862977         3763 
 4892000   0.46307748   -8.0444538    755.37865  0.012867584  0.010859196         3784 
 4893000   0.48166443   -8.0420485     757.4934  0.012900971  0.010855422         3771 
 4894000   0.46820691   -8.0339584    756.30937  0.012878174  0.010851644         3759 
 4895000   0.46660617   -8.0409681    756.91749  0.012885895  0.010847867         3809 
 4896000   0.46985548   -8.0405674    756.02783  0.012868121    0.0108441         3773 
 4897000   0.45788698   -8.0277676     755.1312  0.012850235  0.010840331         3745 
 4898000   0.47209831   -8.0275023    757.54848  0.012888738  0.010836565         3768 
 4899000   0.45340535   -8.0217218    756.20945   0.01286333    0.0108328         3803 
 4900000   0.46096569   -8.0342296    755.78761  0.012853531  0.010829038         3784 
 4901000   0.47824304    -8.029652    755.92094  0.012853175  0.010825275         3718 
 4902000   0.47514409    -8.036665    757.18485  0.012872039  0.010821515         3768 
 4903000   0.46016421    -8.044802     757.5786  0.012876107  0.010817756         3776 
 4904000   0.46154311   -8.0321296    754.33406  0.012818347  0.010813998         3785 
 4905000   0.47525608   -8.0120121    756.18149   0.01284712  0.010810241         3742 
 4906000   0.47493095   -8.0241405    755.34328  0.012830264  0.010806489         3742 
 4907000   0.46742514   -8.0081608    757.23325  0.012859745  0.010802737         3728 
 4908000   0.46339402   -8.0216084    756.42803  0.012843453  0.010798988         3773 
 4909000   0.46967929   -8.0236799    757.06187  0.012851597  0.010795241         3775 
 4910000   0.47060337   -8.0237405    754.53163  0.012806036  0.010791493         3781 
 4911000    0.4659061   -8.0329539    756.03637  0.012828962  0.010787748         3802 
 4912000   0.46661148   -8.0224096     755.5511  0.012818117  0.010784003         3782 
 4913000   0.46298887   -8.0281388     756.6927  0.012834872  0.010780262         3762 
 4914000   0.46112689   -8.0421541    756.25052  0.012824761  0.010776521         3751 
 4915000   0.46166128   -8.0398812    755.78561  0.012814269  0.010772783         3772 
 4916000   0.45933734   -8.0385715     754.9714  0.012797861  0.010769046         3760 
 4917000   0.47103441   -8.0400934    755.18421  0.012798865   0.01076531         3783 
 4918000   0.47056721   -8.0479666    756.32188  0.012815539  0.010761577         3786 
 4919000   0.46773777   -8.0393808    754.35309  0.012779581  0.010757844         3775 
 4920000   0.45550844   -8.0273526    754.94664  0.012787037  0.010754113         3758 
 4921000   0.48103817   -8.0347106    755.48465  0.012793549  0.010750386         3737 
 4922000   0.46320557   -8.0431225    755.65075  0.012793762   0.01074666         3763 
 4923000   0.46055449   -8.0405353    755.47066  0.012788115  0.010742936         3783 
 4924000   0.47489057   -8.0318008    756.14201  0.012796879  0.010739212         3833 
 4925000    0.4687753   -8.0342379    755.95592  0.012791132  0.010735491         3769 
 4926000   0.46944853   -8.0377518    755.67414  0.012783769   0.01073177         3758 
 4927000    0.4767947   -8.0406071    755.95789  0.012785973   0.01072805         3783 
 4928000   0.47776108   -8.0349365     754.8283  0.012764277  0.010724334         3757 
 4929000   0.46201445   -8.0424167    755.02652  0.012765039  0.010720618         3766 
 4930000   0.46473796   -8.0507572    755.71738  0.012774128  0.010716906         3781 
 4931000   0.47153602   -8.0520011    755.48481  0.012767606  0.010713195         3774 
 4932000   0.45221624   -8.0237503    755.70514  0.012768741  0.010709485         3769 
 4933000   0.46347702   -8.0480975    754.84546   0.01275163  0.010705777         3773 
 4934000   0.45856532   -8.0543848    755.17668  0.012754639   0.01070207         3764 
 4935000    0.4667746   -8.0354361    756.24966  0.012770173  0.010698363         3784 
 4936000   0.46127203   -8.0476644    755.76353  0.012759379  0.010694659         3824 
 4937000   0.46499225   -8.0529786     754.7507  0.012739698  0.010690961         3777 
 4938000   0.46631037   -8.0525674    756.41105  0.012765139  0.010687261         3790 
 4939000   0.46024654   -8.0599002    755.96312  0.012754996  0.010683566         3785 
 4940000   0.46535995   -8.0462714    756.28422  0.012757831  0.010679868         3725 
 4941000   0.46963832   -8.0392836     755.6311  0.012744234  0.010676171         3770 
 4942000   0.46585015   -8.0402869    756.33953  0.012753601   0.01067248         3774 
 4943000   0.46120145   -8.0148069    755.45309  0.012736076  0.010668788         3720 
 4944000   0.45845548   -8.0216446    755.20016  0.012729237  0.010665096         3716 
 4945000   0.45471282   -8.0408305    755.25594  0.012727603  0.010661409         3787 
 4946000   0.46852947   -8.0552673      755.698  0.012732477  0.010657722         3790 
 4947000   0.46531775   -8.0525094     754.2922  0.012706223  0.010654036         3750 
 4948000   0.46795293   -8.0366599    755.47287  0.012723539  0.010650352         3747 
 4949000   0.46010159   -8.0395245    755.74415  0.012725536  0.010646671         3754 
 4950000   0.45947584   -8.0580851    755.13945  0.012712785  0.010642992         3776 
 4951000   0.46350677   -8.0363149    757.01664  0.012741814   0.01063931         3745 
 4952000   0.46243244    -8.046873    754.83559  0.012702538  0.010635636         3790 
 4953000   0.44610986    -8.044182    755.86013  0.012717211  0.010631959         3769 
 4954000    0.4612005   -8.0392745      756.056  0.012717938  0.010628283         3755 
 4955000   0.45416888   -8.0336302    755.39968  0.012704334  0.010624609         3783 
 4956000    0.4567959    -8.042666    755.24351  0.012699144  0.010620939         3764 
 4957000   0.46125077   -8.0467106    755.29305  0.012697415  0.010617272         3783 
 4958000   0.46284512   -8.0310481     755.5678  0.012699472  0.010613604         3772 
 4959000   0.45714357   -8.0513533    756.06304  0.012705234  0.010609939         3795 
 4960000   0.45411986   -8.0459419    756.32896   0.01270714  0.010606274         3754 
 4961000   0.46474898   -8.0315131    756.26561  0.012703514   0.01060261         3788 
 4962000   0.45764485   -8.0320923    754.57233  0.012672517   0.01059895         3778 
 4963000   0.46444304   -8.0350475    754.98095  0.012676824  0.010595292         3766 
 4964000   0.45525243   -8.0530268    755.96665  0.012690818  0.010591635         3770 
 4965000   0.45298372   -8.0585052    755.70571  0.012683882  0.010587978         3790 
 4966000   0.46072833    -8.059472    755.56085  0.012678897  0.010584323         3784 
 4967000    0.4512767   -8.0425071    755.52486  0.012675741  0.010580671         3794 
 4968000   0.46613426   -8.0312869    754.54775  0.012656799  0.010577022         3783 
 4969000   0.45479992   -8.0495015     753.7391  0.012640691  0.010573373         3770 
 4970000    0.4633668   -8.0467531    755.08483  0.012660711  0.010569725         3777 
 4971000   0.45779406   -8.0426763    755.78191   0.01266985  0.010566078         3738 
 4972000    0.4559382   -8.0446466    754.84882  0.012651663  0.010562432         3763 
 4973000   0.45122591   -8.0460519    754.66374  0.012646017  0.010558787         3788 
 4974000   0.46329811    -8.055062    755.05999  0.012650114  0.010555143         3763 
 4975000   0.46032013   -8.0488665    754.88759  0.012644683  0.010551503         3793 
 4976000   0.45193095   -8.0429489    754.86089  0.012641695  0.010547863         3791 
 4977000     0.449797   -8.0412359    755.66165  0.012652563  0.010544223         3762 
 4978000   0.45691961   -8.0647112    753.59551  0.012615433  0.010540588         3772 
 4979000   0.45364588   -8.0685235    755.13773  0.012638711  0.010536955         3780 
 4980000   0.45006508   -8.0575004    755.87875  0.012648573  0.010533323         3757 
 4981000   0.46459742   -8.0486325     755.0868  0.012632785  0.010529694         3796 
 4982000   0.46500027    -8.067216    755.39626  0.012635425  0.010526067         3794 
 4983000   0.46232975   -8.0471042    754.04739  0.012610332  0.010522439         3774 
 4984000   0.45224517   -8.0379497    754.77683  0.012619998  0.010518813         3774 
 4985000   0.45055334   -8.0457195      754.974  0.012620762  0.010515188         3796 
 4986000   0.45628295   -8.0519099    754.92196  0.012617361  0.010511562         3769 
 4987000   0.46129773   -8.0507385    754.70944   0.01261128  0.010507943         3791 
 4988000   0.45278517   -8.0590041    754.53072  0.012605766  0.010504326         3779 
 4989000   0.45112381   -8.0562293    755.19907  0.012614403  0.010500709         3779 
 4990000   0.43829722   -8.0637925    755.02639  0.012608991  0.010497096         3762 
 4991000   0.45918489   -8.0546424    754.50419  0.012597746  0.010493481         3797 
 4992000   0.44835049   -8.0553975     755.9755  0.012619783  0.010489871         3781 
 4993000   0.46060723   -8.0489148    755.67478  0.012612237  0.010486264         3734 
 4994000   0.45771515   -8.0539304    755.07747  0.012599744  0.010482654         3759 
 4995000   0.44536521   -8.0566447    756.03655  0.012613222  0.010479047         3734 
 4996000   0.45136139   -8.0601789    755.06664   0.01259452  0.010475443         3773 
 4997000   0.44348926   -8.0573574    755.39805  0.012597526   0.01047184         3771 
 4998000   0.44385509    -8.053531    754.97625  0.012587973   0.01046824         3813 
 4999000   0.45520649   -8.0419804    754.55703  0.012578466  0.010464638         3768 
 5000000   0.45136882   -8.0565243    754.26179   0.01257103  0.010461038         3785 
 5001000   0.45813058   -8.0513272    754.75324  0.012576705   0.01045744         3801 
 5002000   0.44719137   -8.0515197    753.87577  0.012559572  0.010453842         3785 
 5003000   0.45393361   -8.0435919    754.02755   0.01255959  0.010450246         3780 
 5004000   0.44611284   -8.0679784    754.40359  0.012563342  0.010446653         3768 
 5005000   0.45086035   -8.0687858    754.11342  0.012556001   0.01044306         3754 
 5006000   0.46085416   -8.0762629    754.68922  0.012563078  0.010439471         3727 
 5007000   0.45085771   -8.0529437    754.71167  0.012560943  0.010435884         3785 
 5008000   0.45104167   -8.0697317    754.55722  0.012555864  0.010432298         3758 
 5009000   0.45099152   -8.0318684    754.95845  0.012560033  0.010428714         3782 
 5010000   0.45162802   -8.0529696    754.75396  0.012554124  0.010425127         3780 
 5011000   0.44189248   -8.0713762     754.5754   0.01254865  0.010421546         3780 
 5012000   0.45124282   -8.0644781    755.64452  0.012563922  0.010417962         3774 
Loop time of 13104.7 on 48 procs for 5000000 steps with 4000 atoms

Performance: 65930.335 tau/day, 381.541 timesteps/s
99.4% CPU use with 48 MPI tasks x no OpenMP threads

MPI task timing breakdown:
Section |  min time  |  avg time  |  max time  |%varavg| %total
---------------------------------------------------------------
Pair    | 1002.7     | 1074       | 1155.3     | 122.3 |  8.20
Neigh   | 92.267     | 95.51      | 98.85      |  17.8 |  0.73
Comm    | 849.09     | 925.22     | 1005.4     | 133.6 |  7.06
Output  | 17.749     | 17.754     | 17.869     |   0.4 |  0.14
Modify  | 10843      | 10869      | 10910      |  17.0 | 82.94
Other   |            | 122.8      |            |       |  0.94

Nlocal:        83.3333 ave          88 max          78 min
Histogram: 1 2 3 4 10 7 5 6 3 7
Nghost:        2456.90 ave        2468 max        2442 min
Histogram: 2 3 4 2 5 7 9 6 5 5
Neighs:        17072.1 ave       20127 max       15098 min
Histogram: 6 6 7 3 8 9 6 1 1 1
FullNghs:      34145.1 ave       36404 max       31921 min
Histogram: 3 2 3 13 6 6 2 7 2 4

Total # of neighbors = 1638966
Ave neighs/atom = 409.74150
Neighbor list builds = 266905
Dangerous builds = 0

#clear
#
#next RN
#
#jump SELF
Total wall time: 3:38:28
