
units lj                  # Use reduced LJ style units
atom_style atomic         # Uncharged point particles
atom_modify map hash      # Needed for indexing of clusters etc
                          # Used to be able to find where atoms are in relation to each other.

lattice fcc 1.0 spacing 1 1 1
Lattice spacing in x,y,z = 1.5874011 1.5874011 1.5874011
region box block 0 10 0 10 0 10 units lattice
create_box 2 box
Created orthogonal box = (0.0000000 0.0000000 0.0000000) to (15.874011 15.874011 15.874011)
  3 by 4 by 4 MPI processor grid
create_atoms 1 box
Created 4000 atoms
  using lattice units in orthogonal box = (0.0000000 0.0000000 0.0000000) to (15.874011 15.874011 15.874011)
  create_atoms CPU = 0.003 seconds
set type 1 type/fraction 2 0.4 78393
Setting atom values ...
  1612 settings made for type/fraction
mass 1 1.0
mass 2 1.0
pair_style lj/cut  3.5
pair_modify tail  yes
pair_coeff 1  1  1.0  1.0   # Intearaction between 1 and 1 set with epsilon = 1 and sigma = 1
pair_coeff 1  2  1.5  0.8
pair_coeff 2  2  0.5  0.88

write_data data.0
System init for write_data ...
Neighbor list info ...
  update every 1 steps, delay 10 steps, check yes
  max neighbors/atom: 2000, page size: 100000
  master list distance cutoff = 3.8
  ghost atom cutoff = 3.8
  binsize = 1.9, bins = 9 9 9
  1 neighbor lists, perpetual/occasional/extra = 1 0 0
  (1) pair lj/cut, perpetual
      attributes: half, newton on
      pair build: half/bin/atomonly/newton
      stencil: half/bin/3d
      bin: standard
WARNING: Not all mixed pair coeffs generated from mixing. Use write_data with 'pair ij' option to store all pair coeffs. (../write_data.cpp:312)


#############################
#   M E L T   S Y S T E M   #
#############################

velocity all create 2.4 9580093 mom yes dist gaussian # Assign velocities
                                                    # Temperature 2.4, random number seed, zero linear momentum
                                                                                # Gaussian distribution

timestep 0.002   # simulation timestep
thermo 1000       # output thermodynamic data every 1000 steps bf 100

# Define a fix  in this case with index 1 applied to all
# particles in the simulation. This fix is for simulations
# in the anisotropic NPT ensemble. Note that we use the MTK
# correction.
fix 1 all npt temp 2.4 2.4 0.1 iso 5.68 5.68 0.5 mtk yes tchain 5 pchain 5 # Use NPT ensemble
                                                                         # Set temperature and pressure and damping
                                                                         # Numbers of thermostats in chain and in barostat
run 10000          # run for 10000 steps
Per MPI rank memory allocation (min/avg/max) = 3.642 | 3.644 | 3.648 Mbytes
Step Temp E_pair E_mol TotEng Press Volume 
       0          2.4    -5.861415            0    -2.262315   -4.1716513         4000 
    1000    2.4356736   -5.0199712            0   -1.3673741    5.7666824    3891.1851 
    2000    2.3959901   -5.0028764            0   -1.4097898    5.4117367    3923.2874 
    3000      2.41629    -4.981979            0   -1.3584502    5.8782963    3900.9954 
    4000     2.419125    -5.079709            0   -1.4519287    5.3965868    3894.2152 
    5000    2.4053006   -5.0016477            0   -1.3945988    5.6936971    3902.8992 
    6000    2.4295122   -5.0355019            0   -1.3921447    5.5140063    3898.1405 
    7000    2.4873616   -5.1027357            0   -1.3726261     5.824224    3851.5079 
    8000    2.4059853   -4.9655516            0   -1.3574759    5.7784171    3922.7336 
    9000    2.3996259   -5.0751462            0   -1.4766072    5.5531777     3877.561 
   10000    2.4202307   -5.0908296            0   -1.4613911    5.7043468    3863.3148 
Loop time of 2.54605 on 48 procs for 10000 steps with 4000 atoms

Performance: 678697.293 tau/day, 3927.646 timesteps/s
99.6% CPU use with 48 MPI tasks x no OpenMP threads

MPI task timing breakdown:
Section |  min time  |  avg time  |  max time  |%varavg| %total
---------------------------------------------------------------
Pair    | 1.0829     | 1.1771     | 1.3593     |   4.5 | 46.23
Neigh   | 0.20733    | 0.2167     | 0.23793    |   1.2 |  8.51
Comm    | 0.70521    | 0.88663    | 1.0016     |   6.2 | 34.82
Output  | 0.00023909 | 0.0002436  | 0.00030932 |   0.0 |  0.01
Modify  | 0.21194    | 0.25035    | 0.30928    |   5.3 |  9.83
Other   |            | 0.01508    |            |       |  0.59

Nlocal:        83.3333 ave          91 max          73 min
Histogram: 1 2 5 5 4 6 9 7 6 3
Nghost:        1680.58 ave        1713 max        1638 min
Histogram: 1 2 1 7 7 8 8 8 3 3
Neighs:        9869.02 ave       11121 max        8647 min
Histogram: 3 4 5 7 6 4 10 3 3 3

Total # of neighbors = 473713
Ave neighs/atom = 118.42825
Neighbor list builds = 907
Dangerous builds = 215

# Equilibrate just above the melting temperature to avoid step fn in T

fix 1 all npt temp 1.25 1.25 0.1 iso 5.68 5.68 0.5 mtk yes tchain 5 pchain 5
run 2000
Per MPI rank memory allocation (min/avg/max) = 3.643 | 3.645 | 3.649 Mbytes
Step Temp E_pair E_mol TotEng Press Volume 
   10000    2.4202307   -5.0908296            0   -1.4613911    5.7043468    3863.3148 
   11000    1.2396307   -7.0208579            0   -5.1618767    5.7625116    3083.8094 
   12000    1.2432821    -7.062873            0   -5.1984161    5.5091906    3082.4911 
Loop time of 0.596139 on 48 procs for 2000 steps with 4000 atoms

Performance: 579730.598 tau/day, 3354.922 timesteps/s
99.7% CPU use with 48 MPI tasks x no OpenMP threads

MPI task timing breakdown:
Section |  min time  |  avg time  |  max time  |%varavg| %total
---------------------------------------------------------------
Pair    | 0.26821    | 0.28951    | 0.32299    |   1.9 | 48.56
Neigh   | 0.038515   | 0.040938   | 0.045213   |   0.6 |  6.87
Comm    | 0.18179    | 0.2189     | 0.2435     |   2.4 | 36.72
Output  | 5.0648e-05 | 5.1831e-05 | 6.669e-05  |   0.0 |  0.01
Modify  | 0.038674   | 0.042053   | 0.045662   |   0.8 |  7.05
Other   |            | 0.004683   |            |       |  0.79

Nlocal:        83.3333 ave          93 max          77 min
Histogram: 2 5 3 16 9 6 5 1 0 1
Nghost:        1961.29 ave        1982 max        1941 min
Histogram: 2 3 7 6 10 5 6 3 2 4
Neighs:        12424.1 ave       13607 max       11563 min
Histogram: 6 5 5 6 6 7 8 3 1 1

Total # of neighbors = 596355
Ave neighs/atom = 149.08875
Neighbor list builds = 142
Dangerous builds = 11

#############################
# L I N E A R  Q U E N C H  #
#############################

# Define solid atoms. This closely follows ten Wolde  Ruiz-Montero and Frenkel  Faraday Discuss  1996  104  93-110
# Compute components of the per-atom q6 vector
compute q6 all orientorder/atom degrees 1 6 components 6 nnn NULL cutoff 1.3 # compute the Q6 parameter.
                                                                             # Use all neighbours within 1.3 unit cell.

# get number of connections
compute coord_number all coord/atom orientorder q6 0.5

# An atom is solid if it has 8 or more connections (of a possible 14)
variable is_solid atom c_coord_number>=8
group solid dynamic all var is_solid    # Must be dynamic to update
dynamic group solid defined

# do clustering
compute cluster solid cluster/atom 1.3 # Create a cluster where all atoms within are solid and max 1.3 units from another member

# define chunks one chunk per cluster
compute clus_chunks solid chunk/atom c_cluster nchunk every compress yes  # Says which atoms are in which chunk

# count the size of each chunk
compute size_chunks solid property/chunk clus_chunks count


# Find the maximum entry in the vector of chunk sizes
variable max_n equal max(c_size_chunks)


# Thermo style which includes this variable
# thermo_style custom step temp pe vol v_max_n

thermo ${N}  # Print the thermo information every 100 steps
thermo 1000  

# Reset the npt fix at a lower temperature (below freezing)
fix 1  all npt temp  ${temp} ${temp}  0.1  iso  5.68  5.68  0.5  mtk yes tchain  5  pchain  5
fix 1  all npt temp  0.45 ${temp}  0.1  iso  5.68  5.68  0.5  mtk yes tchain  5  pchain  5
fix 1  all npt temp  0.45 0.45  0.1  iso  5.68  5.68  0.5  mtk yes tchain  5  pchain  5

dump dmp2 all dcd ${N} traj.dcd
dump dmp2 all dcd 1000 traj.dcd


compute msd all msd com yes
variable twopoint equal c_msd[4]/6/(step*dt+1.0e-6)
fix 9 all vector 10 c_msd[4]
variable fit equal slope(f_9)/6/(10*dt)
thermo_style custom step temp pe c_msd[4] v_twopoint v_fit v_max_n

fix 1 all npt temp 1.25 ${temp} 0.1 iso 5.68 5.68 0.5 mtk yes tchain 5 pchain 5
fix 1 all npt temp 1.25 0.45 0.1 iso 5.68 5.68 0.5 mtk yes tchain 5 pchain 5
run 500000 # 5000000  # Run for this many steps
Neighbor list info ...
  update every 1 steps, delay 10 steps, check yes
  max neighbors/atom: 2000, page size: 100000
  master list distance cutoff = 3.8
  ghost atom cutoff = 3.8
  binsize = 1.9, bins = 8 8 8
  4 neighbor lists, perpetual/occasional/extra = 1 3 0
  (1) pair lj/cut, perpetual
      attributes: half, newton on
      pair build: half/bin/atomonly/newton
      stencil: half/bin/3d
      bin: standard
  (2) compute orientorder/atom, occasional
      attributes: full, newton on
      pair build: full/bin/atomonly
      stencil: full/bin/3d
      bin: standard
  (3) compute coord/atom, occasional
      attributes: full, newton on
      pair build: full/bin/atomonly
      stencil: full/bin/3d
      bin: standard
  (4) compute cluster/atom, occasional
      attributes: full, newton on
      pair build: full/bin/atomonly
      stencil: full/bin/3d
      bin: standard
Per MPI rank memory allocation (min/avg/max) = 9.824 | 9.830 | 9.837 Mbytes
Step Temp PotEng c_msd[4] v_twopoint v_fit v_max_n 
   12000    1.2432821    -7.062873 2.906558e-30 2.018443e-32 8.3333333e+20            1 
   13000    1.2490293   -7.1262639   0.47653464 0.0030547091  0.039775025            3 
   14000    1.2543624   -7.1356827   0.90250069 0.0053720277   0.03624741            1 
   15000     1.207982   -7.1496958    1.3068114 0.0072600632  0.035644661            1 
   16000    1.2189143   -7.1121909    1.7366923 0.0090452722  0.034742575            1 
   17000    1.2606189   -7.1205645    2.1490542  0.010534579  0.034987546            1 
   18000    1.2504505   -7.1406015     2.579718  0.011943138  0.034981478            1 
   19000    1.2280172   -7.1609182    2.9330224  0.012864133  0.034668729            1 
   20000    1.2310768   -7.1537551    3.3643754  0.014018231  0.034579195            2 
   21000     1.251862   -7.1069836    3.7522471  0.014889869  0.034268904            1 
   22000    1.2555571   -7.0841633    4.1109383  0.015571736  0.034056004            5 
   23000    1.2600769   -7.1174295    4.5278532  0.016405265  0.033872975            1 
   24000    1.2139571    -7.179627    4.8893547  0.016976926  0.033582858            1 
   25000      1.24924   -7.1637643    5.3731448  0.017910482  0.033557392            1 
   26000    1.2123359   -7.1579876    5.7932055  0.018567966  0.033664896            1 
   27000    1.2448316   -7.1691377    6.1286105  0.018915464   0.03367279            3 
   28000    1.2236172   -7.1754859    6.5093099  0.019372946  0.033645248            1 
   29000     1.213438   -7.1482278    6.8965278  0.019817608  0.033560066            2 
   30000    1.2068221   -7.1195638    7.3232926  0.020342479  0.033476429            1 
   31000    1.2402663   -7.2197161    7.6019599  0.020435376  0.033377442            1 
   32000    1.2452496   -7.1612573    8.0326451  0.020918346   0.03326611            1 
   33000    1.2097721   -7.1584762    8.4464335  0.021329377  0.033193451            1 
   34000    1.1975707   -7.1971378    8.7443491  0.021432228  0.033100725            1 
   35000    1.2072625   -7.2403977     9.118052  0.021709647   0.03297772            2 
   36000    1.1839545   -7.1584711    9.5627555  0.022136008  0.032884477            2 
   37000      1.24058   -7.2080104    9.9819396  0.022481846  0.032834721            1 
   38000    1.2192873   -7.2119277    10.265899  0.022512935  0.032751753            1 
   39000     1.221558   -7.1833738    10.711351  0.022887501    0.0326793            1 
   40000    1.2026099   -7.2273998    11.088044  0.023100091  0.032639586            2 
   41000    1.2200621   -7.2090989    11.489036  0.023351699   0.03259221            4 
   42000    1.1868495   -7.1882181    11.754459  0.023322339  0.032541086            1 
   43000    1.1755168   -7.1513822    12.289639  0.023817129  0.032517319            1 
   44000    1.1935063   -7.1877578    12.610746  0.023883989  0.032493032            1 
   45000    1.2024185   -7.2062784    13.082949  0.024227683  0.032467501            1 
   46000    1.1980195   -7.1855543    13.421395   0.02431412  0.032455801            1 
   47000     1.211355   -7.2382083    13.746111  0.024372537  0.032428358            2 
   48000    1.1976581   -7.2170629    14.079716  0.024443952  0.032379619            3 
   49000    1.1928863   -7.2112304    14.472178  0.024612547  0.032332352            1 
   50000    1.1899657   -7.2454735    14.631285  0.024385474  0.032258892            2 
   51000    1.1787667   -7.2830219    15.078651  0.024638318  0.032164237            2 
   52000    1.2178387   -7.2060662    15.459438   0.02477474  0.032091168            4 
   53000    1.1797802    -7.261104    15.863189   0.02494212  0.032035485            4 
   54000    1.2055915   -7.2488448    16.224702   0.02503812  0.031979933            1 
   55000    1.1793001   -7.2688605     16.59661  0.025146379  0.031921863            2 
   56000    1.1761928   -7.2639409    17.099329   0.02544543  0.031880463            3 
   57000    1.1757812   -7.2851451    17.321428  0.025323725  0.031847038            2 
   58000     1.182608   -7.2819246    17.564889   0.02523691  0.031799702            3 
   59000    1.1548829   -7.2264165    17.850026  0.025211902  0.031722234            1 
   60000    1.1683364   -7.2201795    18.220574  0.025306352  0.031627944            2 
   61000    1.1562251    -7.245003     18.50872  0.025285136   0.03154458            1 
   62000    1.1778031   -7.2697504    18.816165  0.025290544  0.031459079            2 
   63000    1.1681581   -7.3226159    19.053391  0.025202899  0.031379943            2 
   64000    1.1564699   -7.2563461    19.599985  0.025520814  0.031304975            3 
   65000    1.1726364   -7.3021465    19.813512  0.025401938  0.031223975            1 
   66000    1.1502866   -7.2882517     20.12815  0.025414331  0.031142369            3 
   67000    1.1862871   -7.3409565    20.417387   0.02539476  0.031057658            1 
   68000    1.1561981   -7.3098422    20.803518  0.025494508  0.030981016            3 
   69000    1.1808295   -7.3293535     21.17086  0.025568671  0.030908222            2 
   70000    1.1633644   -7.3123333     21.36093  0.025429679  0.030812547            2 
   71000    1.1584054   -7.3012512    21.635702  0.025394016   0.03071675            1 
   72000    1.1345704   -7.3154087    21.928968   0.02538075  0.030628408            1 
   73000    1.1453689   -7.3602582    22.419277  0.025592782  0.030551213            1 
   74000    1.1308005   -7.3620934    22.574771  0.025422039  0.030471325            1 
   75000    1.1430386   -7.3670211    22.985894  0.025539882  0.030388552            1 
   76000    1.1291098   -7.2989502    23.320751  0.025570999  0.030305041            1 
   77000     1.142018   -7.3052631    23.665264  0.025611757  0.030228891            3 
   78000    1.1353921   -7.3389024    23.953548  0.025591397  0.030160434            2 
   79000    1.1423947   -7.3842976    24.172619  0.025498543  0.030082494            3 
   80000    1.1480649   -7.3640356    24.380773  0.025396638  0.030000364            1 
   81000    1.1382454   -7.3235448    24.872199  0.025588682  0.029919059            1 
   82000    1.1298753   -7.3295278    25.184897  0.025594407   0.02984608            4 
   83000    1.1461154   -7.3483639    25.575626  0.025678339  0.029781974            1 
   84000    1.1286635   -7.3670005     25.78632  0.025581666  0.029720567            2 
   85000    1.1362159   -7.3648615    26.010059  0.025500058   0.02965523            1 
   86000    1.1402519   -7.3711581    26.319325  0.025503222  0.029582608            2 
   87000    1.1295937   -7.3697672    26.555529   0.02543633  0.029501323            2 
   88000    1.1353779    -7.381414    26.868291  0.025443458  0.029423122            1 
   89000    1.1201919   -7.3478981    27.040377  0.025318705  0.029340609            3 
   90000    1.1319221   -7.3752123    27.164152  0.025151992  0.029252854            4 
   91000    1.1355773   -7.3797283    27.556998  0.025235346  0.029161357            1 
   92000    1.1288583   -7.3922238    27.769813  0.025153816  0.029075337            2 
   93000    1.0980549   -7.3441946    27.988379  0.025079193  0.028985383            1 
   94000    1.1309951   -7.4054881    28.237417  0.025033171  0.028893674            4 
   95000    1.1395019   -7.4251618    28.538866  0.025034092  0.028806509            2 
   96000    1.1047776   -7.4355202    28.844387   0.02503853  0.028722134            1 
   97000    1.1307775   -7.4269424    29.244963  0.025124538  0.028642272            1 
   98000    1.1235001   -7.4210053    29.502836  0.025087446  0.028564143            2 
   99000     1.134782   -7.4425988     29.74006   0.02503372  0.028487166            2 
  100000    1.1242008   -7.4467672    29.957385  0.024964487  0.028408478            1 
  101000    1.1250986   -7.4266192    30.238266  0.024949064  0.028329839            2 
  102000     1.098433   -7.4354863    30.630371  0.025024813  0.028254375            1 
  103000    1.1151788   -7.4813313    30.820466  0.024935652  0.028181699            2 
  104000    1.0904933   -7.4480558    31.170934   0.02497671  0.028113876            3 
  105000    1.1181155   -7.4537974      31.3658  0.024893492  0.028046479            1 
  106000    1.0788109   -7.4325231     31.73571  0.024949458  0.027977673            2 
  107000    1.0936604   -7.4564371    31.987421  0.024912322  0.027909461            1 
  108000    1.0900528   -7.4833385     32.19349  0.024840656  0.027836969            1 
  109000    1.0951554    -7.484168     32.61061  0.024931659  0.027767496            1 
  110000    1.0946924    -7.504998    32.857164  0.024891791  0.027705996            1 
  111000    1.1029247   -7.5182306    33.215297  0.024936409  0.027646402            1 
  112000    1.0980095   -7.4567344    33.415261  0.024862545  0.027584902            2 
  113000    1.0901066   -7.4652976     33.84005  0.024955789  0.027524942            2 
  114000     1.089398   -7.4694835    34.095412  0.024923546  0.027467443            4 
  115000    1.0768046   -7.4581888    34.309808   0.02486218  0.027410713            1 
  116000    1.0716158   -7.4914625    34.510668  0.024792147  0.027353107            2 
  117000    1.0736382   -7.5296411    34.786463  0.024776683  0.027296837            1 
  118000     1.065448   -7.5025384    35.000635  0.024717963   0.02723973            1 
  119000    1.0827843   -7.5264264    35.249941  0.024684832  0.027183158            4 
  120000    1.1029477   -7.5551311    35.571082   0.02470214  0.027127585            3 
  121000    1.0834449    -7.484924    35.881971  0.024712101  0.027072542            2 
  122000    1.0557423    -7.543484    36.110336   0.02466553  0.027017309            2 
  123000    1.0728834   -7.4771069    36.431564  0.024682631  0.026964104            3 
  124000    1.0710022   -7.5341304    36.583936  0.024585978  0.026908747            2 
  125000    1.0732953   -7.5144289    36.744212  0.024496141  0.026853042            2 
  126000    1.0630449   -7.5514014    36.961392  0.024445365  0.026791679            1 
  127000    1.0562857   -7.5595909    37.189775  0.024402739  0.026732071            2 
  128000    1.0731539   -7.5158851    37.506024  0.024417984    0.0266712            2 
  129000      1.06526    -7.542999    37.527821  0.024242778  0.026611635            3 
  130000    1.0780069   -7.5687005    37.651678  0.024135691   0.02654848            2 
  131000    1.0543333   -7.5536507    37.848679  0.024076768  0.026481226            1 
  132000    1.0627182   -7.6284256    38.084959  0.024043535  0.026412418            3 
  133000    1.0434992   -7.5723858    38.332128  0.024017624  0.026344629            2 
  134000    1.0792725   -7.5665252    38.522909  0.023957033  0.026273514            3 
  135000    1.0811365   -7.5786311     38.85352  0.023983654  0.026206966            2 
  136000    1.0947994   -7.5818471    39.218383  0.024030872   0.02614257            1 
  137000    1.0545175   -7.5694477    39.346118  0.023933161  0.026080484            3 
  138000    1.0521597   -7.5290145    39.609127  0.023918555  0.026018337            3 
  139000    1.0446201   -7.6041559     39.58402  0.023731427  0.025955476            2 
  140000    1.0658137   -7.5752389    40.110924   0.02387555  0.025890414            1 
  141000    1.0500298   -7.5730942    40.192616  0.023754501    0.0258272            2 
  142000    1.0694466   -7.5987061     40.31435  0.023658656  0.025761695            7 
  143000    1.0335089   -7.5986147    40.533766  0.023621076  0.025695958            2 
  144000    1.0159038   -7.6470612    40.697547  0.023551821  0.025629765            2 
  145000    1.0312657    -7.613613    40.988336  0.023556515  0.025564509            1 
  146000     1.041637   -7.6199102    41.170659  0.023499235  0.025500274            3 
  147000    1.0374005   -7.5996288    41.411963  0.023476169  0.025436579            2 
  148000    1.0636539    -7.594189    41.724932  0.023493768  0.025374929            4 
  149000    1.0354866   -7.6205157    41.883093  0.023424548  0.025311871            3 
  150000    1.0445116   -7.6470807    42.080435   0.02337802  0.025246963            3 
  151000    1.0326334   -7.6312475    42.469901  0.023438135  0.025187629            1 
  152000    1.0188115   -7.6527074    42.562643  0.023334782  0.025132041            2 
  153000    1.0367365   -7.6356875    42.732755  0.023274921  0.025074748            3 
  154000    1.0119439   -7.6541816    43.098997  0.023321968   0.02501682            5 
  155000   0.99086475   -7.6615987     43.24028  0.023247462  0.024959231            2 
  156000    1.0320207   -7.6370111    43.505257  0.023239988  0.024900729            1 
  157000    1.0254996   -7.6884311    43.491229  0.023084516  0.024839485            5 
  158000    1.0090376    -7.664757    43.817256  0.023110367  0.024778847            6 
  159000    1.0021942   -7.6715613    44.096686  0.023111471  0.024721463            1 
  160000   0.99906023   -7.6463863    44.378147  0.023113618  0.024664421            1 
  161000    1.0230345   -7.7024096    44.274359  0.022916335  0.024605123            2 
  162000     1.017433   -7.7045609    44.423616  0.022851654  0.024543497            3 
  163000    1.0010632   -7.6697946    44.666674  0.022835723   0.02448169            1 
  164000    1.0040833   -7.7119379    44.797361  0.022762887  0.024419892            2 
  165000    1.0253993   -7.7061459    44.825891  0.022639339  0.024357719            3 
  166000     1.001653   -7.7066925    45.091539  0.022636315  0.024296173            2 
  167000   0.98086481   -7.6727405    45.264599  0.022587125  0.024234085            2 
  168000    1.0005682   -7.7183114    45.579612  0.022608934  0.024172379            4 
  169000    1.0126139     -7.69257     45.75187  0.022560093  0.024112156            4 
  170000   0.99224474   -7.6876443     45.93046  0.022514932  0.024052006            4 
  171000    1.0048835   -7.7017317    46.129652  0.022480337  0.023992201            2 
  172000    1.0029857    -7.747072    46.255171  0.022410451   0.02393286            1 
  173000   0.99017115   -7.6854906    46.434373  0.022367231  0.023872081            2 
  174000    1.0110417   -7.6466495    46.566665  0.022302043  0.023809656            1 
  175000    1.0080279   -7.7221694    46.580769  0.022181319  0.023746308            4 
  176000   0.99498738    -7.685621    46.692303  0.022108098  0.023682465            2 
  177000   0.96325747   -7.7318249    46.957191  0.022107905  0.023617059            2 
  178000   0.99422818   -7.7240668      47.0677   0.02203544  0.023552028            3 
  179000   0.97196149   -7.7273074    47.031002  0.021895252  0.023484601            7 
  180000   0.96759433   -7.7593863    47.009456  0.021763637  0.023417252            2 
  181000   0.97039554   -7.7627249    47.184068  0.021723788  0.023347823            2 
  182000   0.97112019   -7.7506487    47.148802  0.021588279  0.023276699            2 
  183000   0.97816198   -7.7585784    47.494538  0.021627749  0.023206984            1 
  184000   0.99871698   -7.7857079    47.520574  0.021521999  0.023137052            1 
  185000   0.95353415   -7.7552188    47.698317  0.021485729  0.023067046            3 
  186000   0.98809582   -7.8014963    47.761857  0.021398681  0.022995108            1 
  187000   0.96375379   -7.8043479    47.912567  0.021351411  0.022923452            2 
  188000   0.96850575   -7.7735784    48.246062  0.021385666  0.022853386            3 
  189000   0.96584841   -7.8171739    48.284092  0.021289282  0.022783813            1 
  190000   0.98182104    -7.791441    48.467454  0.021257655  0.022715322            3 
  191000   0.95924557   -7.7850864     48.55689   0.02118538  0.022647353            2 
  192000   0.97989434   -7.8125566    48.683525  0.021130002  0.022579343            2 
  193000   0.96372859   -7.7838141    48.905752  0.021116473  0.022512757            3 
  194000   0.94563315   -7.8020568     49.13245  0.021105004  0.022446477            1 
  195000   0.95393194   -7.8069107    49.112486  0.020988242  0.022379039            2 
  196000    0.9537922   -7.7814291    49.233826  0.020932749  0.022310856            2 
  197000   0.96318207   -7.8168621    49.220579  0.020820888   0.02224377            1 
  198000   0.94062029   -7.8046107    49.360043  0.020774429   0.02217595            1 
  199000   0.95779683   -7.8451271    49.663896  0.020797276  0.022108797            1 
  200000   0.92727833   -7.8317065     49.74749  0.020728121  0.022041074            2 
  201000   0.93223573   -7.8543276    49.787023  0.020641386  0.021973302            8 
  202000   0.96689639   -7.8082341    50.003842  0.020628648  0.021906313            2 
  203000    0.9407926   -7.8138517    50.144626  0.020584822  0.021839518            2 
  204000   0.93266362   -7.9006071    49.996672  0.020423477  0.021771542            2 
  205000   0.96519544   -7.8745574    50.116565  0.020372587  0.021702823            3 
  206000   0.94249715   -7.8771743     50.19427  0.020305126  0.021635033            2 
  207000   0.92277795   -7.9012056    50.317801  0.020256764  0.021566775            8 
  208000   0.93197063   -7.8815733    50.608856  0.020275984  0.021498704            3 
  209000   0.90674082   -7.8823337    50.535151  0.020149581  0.021431867            2 
  210000   0.93911074   -7.8928379    50.691424  0.020115644  0.021364164            3 
  211000   0.94886891   -7.8815214    50.884701  0.020096643  0.021295399            9 
  212000   0.91414031   -7.9205257    50.802995  0.019969731  0.021226408            4 
  213000   0.93661006   -7.8957689    50.865171  0.019900302  0.021156496            1 
  214000   0.92306933   -7.8894537    51.122502  0.019907516  0.021087195            2 
  215000   0.94195872   -7.9086794    51.096185  0.019804723  0.021018263            2 
  216000   0.92188645   -7.9188265    51.255374   0.01977445  0.020949438            1 
  217000   0.92631353   -7.8881312     51.36915  0.019727016  0.020881391            1 
  218000   0.92771461   -7.9139463    51.249754  0.019590884  0.020812453            2 
  219000   0.92945327   -7.8992499    51.431089   0.01957043  0.020743431            2 
  220000   0.92964225   -7.9255365     51.39065  0.019466155  0.020674484            6 
  221000   0.91338799   -7.9368331    51.651965  0.019476608  0.020605658            2 
  222000   0.91792699   -7.9392758      51.7119  0.019411374    0.0205379            2 
  223000   0.88964883   -7.9352238    51.835112  0.019370371  0.020470357            2 
  224000   0.92288073   -7.9436082    51.882954  0.019301694  0.020402633            8 
  225000   0.91445518   -7.9523548    51.940944  0.019237387  0.020334875            2 
  226000   0.92468234    -7.939397    52.110912  0.019214938  0.020267773            4 
  227000    0.9057501   -7.9880088    52.072119  0.019116049  0.020200385            2 
  228000   0.90973414   -7.9374263      52.1808   0.01907193  0.020132938            3 
  229000   0.91419043   -7.9454809    52.203586  0.018996938  0.020066104            7 
  230000   0.90109911   -7.9793974    52.401446  0.018986031  0.019999373            4 
  231000    0.8954566   -7.9481155    52.346792  0.018884124  0.019932427            2 
  232000   0.89377753   -7.9903119    52.437874  0.018835443   0.01986522            2 
  233000   0.89390272   -7.9786735    52.439921  0.018755337  0.019798635            2 
  234000   0.91230434    -7.974304    52.799782  0.018803341  0.019732502            2 
  235000   0.88894642   -7.9635419     52.93148  0.018770028   0.01966814            2 
  236000   0.87316495   -7.9956162    52.885804  0.018674366  0.019603556            2 
  237000   0.87079145   -8.0177223     52.91634  0.018606308  0.019538275            2 
  238000   0.89575302   -8.0297375    53.049595  0.018574788  0.019472743            3 
  239000   0.88808551   -7.9940071    53.242326   0.01856427  0.019408385            1 
  240000    0.8608824   -8.0254406    53.365591  0.018529719  0.019344214            3 
  241000   0.87962182   -8.0383698    53.410671   0.01846842  0.019280779            2 
  242000   0.89072441   -8.0522507     53.45514  0.018407417  0.019217253            4 
  243000   0.89137887   -8.0772019    53.473804  0.018338067  0.019153406            2 
  244000   0.86199974    -8.024088    53.696809  0.018339074  0.019090286            1 
  245000   0.88669492   -8.0253556    53.628772  0.018241079  0.019027883            3 
  246000   0.87238545   -8.0191569     53.70756  0.018193618   0.01896554            3 
  247000   0.87931527    -8.058255    53.963546  0.018206325  0.018903379            2 
  248000   0.86950974   -8.0412774      53.8952  0.018109946   0.01884195            2 
  249000   0.84875572   -8.0301404    54.127718  0.018115033  0.018780306            2 
  250000   0.88722811   -8.0743541    54.102651  0.018034217  0.018719268            2 
  251000   0.86263547   -8.0559564    54.266633   0.01801681  0.018658529            2 
  252000   0.86654383   -8.0608901    54.151227  0.017907152    0.0185986            3 
  253000   0.85695134   -8.0806411    54.363239  0.017906205  0.018538337            1 
  254000   0.85248364   -8.0605843    54.304944  0.017816583  0.018477363            3 
  255000   0.87296638   -8.0852517     54.28384  0.017739817  0.018416659            5 
  256000   0.86046181   -8.0758703    54.365559  0.017697122  0.018355823            2 
  257000    0.8679462   -8.0662199    54.488749  0.017668206  0.018294998            3 
  258000     0.851969   -8.0571946    54.606703  0.017637824  0.018234929            2 
  259000   0.86303869   -8.0834514    54.538819  0.017547883  0.018174764            8 
  260000   0.84334266   -8.0705891    54.752749  0.017548958   0.01811501            3 
  261000   0.84318841   -8.0804855    54.974963   0.01755267  0.018055991            1 
  262000    0.8530608   -8.0844889    54.925786  0.017470034  0.017996886            1 
  263000   0.83078536   -8.1001983     54.90551  0.017397183  0.017938375            3 
  264000   0.85354468   -8.1179288    55.006246  0.017363083  0.017878959            1 
  265000   0.83373507   -8.1316315    54.964606  0.017284467  0.017820302            4 
  266000   0.85684757   -8.1271518     55.28639  0.017320298  0.017762016            2 
  267000   0.85273252   -8.1324853    55.240797  0.017241198   0.01770405            2 
  268000   0.82096231    -8.127995    55.386568  0.017222191  0.017646724            2 
  269000   0.82767263   -8.0854373    55.420041  0.017168538   0.01758991           12 
  270000   0.83827203   -8.1238228    55.564768   0.01714962  0.017533629            2 
  271000   0.84289189   -8.1293919    55.658197  0.017115067  0.017477109            3 
  272000   0.82699955   -8.0997901    55.606053  0.017036168   0.01742098            8 
  273000   0.83529349   -8.1032137    55.645085  0.016985679  0.017364772            2 
  274000    0.8389382   -8.1186138    55.859326  0.016988846  0.017309449            3 
  275000   0.81340208    -8.132653    55.835021  0.016919703  0.017254011            3 
  276000   0.81518984   -8.1475853    55.707137  0.016819788  0.017198276            2 
  277000   0.83682144   -8.1348698    55.740701  0.016769164  0.017142108            2 
  278000   0.83369576   -8.1452371    55.692091  0.016694272  0.017086077            2 
  279000   0.82361581   -8.1782331    55.936572  0.016707459  0.017030167           12 
  280000   0.81950155   -8.1699896    56.001953  0.016667248  0.016974607            3 
  281000   0.82187938   -8.1843628     55.96887  0.016598123  0.016919864            3 
  282000   0.83284145   -8.1167625     56.15608  0.016594586  0.016865077            4 
  283000   0.81847772   -8.1498434     56.06879  0.016510244   0.01681025            3 
  284000   0.83896173   -8.1744087    56.177532  0.016484018   0.01675527            4 
  285000   0.82212922   -8.2177835    56.076818   0.01639673  0.016700313            2 
  286000   0.82266016   -8.1946637    56.233185  0.016384961  0.016645162            4 
  287000   0.81770296   -8.2088779    56.191856   0.01631587  0.016590389            3 
  288000   0.80914575   -8.2112071    56.281495  0.016285155  0.016535992            2 
  289000   0.79993872   -8.1909314    56.363558  0.016252468  0.016481719            2 
  290000   0.79567193   -8.2044846    56.451935   0.01622182  0.016427382            2 
  291000   0.80415619   -8.2086313    56.401778  0.016151712   0.01637375            2 
  292000   0.80717667   -8.2336986    56.466096  0.016114754  0.016319462            2 
  293000   0.79037444   -8.2452825    56.377493  0.016034554  0.016265059            2 
  294000   0.79413916   -8.2455988    56.395134  0.015985015  0.016210685            1 
  295000   0.79588667   -8.2149954    56.535267  0.015970414  0.016156398            4 
  296000   0.78170456    -8.240625    56.507363  0.015908604  0.016102599            1 
  297000   0.80138242   -8.2569929    56.389255  0.015821901  0.016048721            2 
  298000   0.78903028   -8.2662096    56.493978  0.015798092  0.015994824            4 
  299000   0.78015303   -8.2493707    56.483281  0.015742275   0.01594108            3 
  300000   0.78890648    -8.232594    56.551547  0.015708763  0.015887305            1 
  301000   0.78293407   -8.2549753    56.595585  0.015668767  0.015833721            5 
  302000   0.78088174   -8.2436612    56.664221  0.015635823  0.015780709            2 
  303000   0.76634942   -8.2470367     56.73451  0.015603551  0.015728436            3 
  304000   0.78555116    -8.236567    56.849732  0.015583808  0.015676726            3 
  305000   0.78464401   -8.2929192    56.875234  0.015539681  0.015625069            6 
  306000   0.77517853   -8.2561745    57.007549  0.015524932  0.015573549            2 
  307000   0.78815998   -8.2779416    56.748759  0.015404115  0.015521852            2 
  308000   0.78033917   -8.2752866    57.033356  0.015431103  0.015470261            1 
  309000   0.78674295   -8.3267401    56.863916  0.015335468  0.015418319            3 
  310000   0.78153243   -8.2884332    56.846672  0.015281363   0.01536594            2 
  311000   0.76595509   -8.3110685    56.900722   0.01524671  0.015313937            1 
  312000   0.77984156    -8.312986    56.992558  0.015222371  0.015262388            3 
  313000    0.7687895    -8.307585    56.814793  0.015126409  0.015210891            5 
  314000   0.76912891   -8.3320587    57.080739  0.015148816  0.015159506            3 
  315000    0.7553586   -8.3071233    57.235262  0.015141604  0.015108402            3 
  316000   0.74948289   -8.3254156    57.024038  0.015037985  0.015057492            5 
  317000    0.7704726    -8.362833    56.984089  0.014980045  0.015006454            2 
  318000   0.76371649   -8.3055284    57.096773  0.014962467  0.014955289            2 
  319000   0.74824052   -8.3455641    56.926118  0.014870982  0.014904418            2 
  320000   0.75247768    -8.327546    57.056384  0.014858433  0.014853483            3 
  321000   0.75581858   -8.3648421    57.110055  0.014826079  0.014802888            2 
  322000   0.75359704   -8.3630722    57.003014  0.014752333  0.014751968            5 
  323000   0.72926158   -8.3891387    57.174731  0.014750963  0.014701487            4 
  324000   0.75303891   -8.3649257     57.11763  0.014690748  0.014651259            3 
  325000   0.76637977   -8.3808633    57.139725  0.014651211  0.014601184            2 
  326000   0.74960752   -8.3696795    57.016814   0.01457485  0.014551004            2 
  327000   0.73792055   -8.3806692    57.109954  0.014554015  0.014500857            5 
  328000   0.73680315   -8.3696477    57.182981  0.014528196  0.014451249            2 
  329000    0.7390551   -8.3846166     57.18987  0.014485783  0.014401639            7 
  330000   0.73554803   -8.4008653    57.257673  0.014459008  0.014352235            5 
  331000   0.74154094    -8.398251    57.264169  0.014416961  0.014302966            8 
  332000   0.74096064   -8.3975237    57.296563  0.014381667  0.014253948            5 
  333000   0.73740022   -8.4013926    57.299952  0.014339327  0.014205186           13 
  334000   0.74088189   -8.4186462    57.253736  0.014284864  0.014156495           10 
  335000   0.74357197   -8.4458607    57.219656  0.014233745  0.014108235            7 
  336000   0.72646271   -8.4353834    57.445098  0.014247296   0.01406017            2 
  337000   0.72754968   -8.4127883    57.344121   0.01418005  0.014012345            3 
  338000   0.72081411   -8.4483966    57.332172  0.014135151  0.013964556            2 
  339000     0.728311    -8.444094    57.422183  0.014115581   0.01391712            3 
  340000   0.71777754   -8.4700802    57.453565  0.014081756  0.013869703            2 
  341000    0.6992803   -8.4600038    57.522207  0.014057235  0.013822436            3 
  342000   0.73637398   -8.4608034    57.381678   0.01398189  0.013775458            2 
  343000   0.71417741   -8.4530956    57.385263  0.013941998  0.013728631            1 
  344000   0.71401513   -8.4663618    57.513154   0.01393245   0.01368193            5 
  345000    0.7054456   -8.4677455    57.603561  0.013913904   0.01363531            2 
  346000   0.72431442   -8.4646896    57.419361  0.013829326   0.01358871            2 
  347000   0.72222587   -8.4828636    57.513924  0.013812182  0.013542197            2 
  348000   0.70633599   -8.4711737    57.507555  0.013770966  0.013496035            2 
  349000    0.7184335   -8.4795261    57.444332  0.013716412  0.013449931            3 
  350000      0.70066   -8.4790397    57.567823  0.013706625  0.013404066            1 
  351000   0.70532744   -8.4855778     57.50548  0.013652773  0.013358274            3 
  352000   0.70136241   -8.4968836    57.517214  0.013616765   0.01331269            4 
  353000   0.69064144   -8.4826136    57.550765  0.013586111  0.013267364            2 
  354000   0.69587061   -8.5120305    57.606318  0.013560809  0.013221917            2 
  355000   0.71179283   -8.4981441    57.446239  0.013485033  0.013176578            2 
  356000   0.70482555   -8.5250519    57.429151  0.013443153  0.013131242            3 
  357000   0.68563262   -8.5134263    57.510017  0.013424374  0.013086218           10 
  358000   0.69755452   -8.5243745    57.616625  0.013411691  0.013041402            2 
  359000   0.68294407   -8.5603727    57.489714  0.013344873  0.012996434            2 
  360000   0.68360125   -8.5277924    57.535297  0.013318356  0.012951657            3 
  361000   0.70307119   -8.5160029    57.490448   0.01327111  0.012907033            2 
  362000   0.67544392   -8.5115913    57.503031  0.013237346  0.012862217            3 
  363000   0.69284005   -8.5420914    57.435859  0.013185459  0.012817656            7 
  364000   0.67898075   -8.5435798    57.473011  0.013157741  0.012773053            8 
  365000   0.68555685   -8.5191379    57.461727  0.013119116  0.012728701           10 
  366000   0.68611254   -8.5614441    57.319813  0.013050959  0.012684312            4 
  367000   0.68690066   -8.5418032    57.392074  0.013031806  0.012640034            2 
  368000   0.68494297   -8.5649686    57.335539  0.012983591   0.01259596            2 
  369000   0.67721578   -8.5529802    57.427008  0.012969062   0.01255194            3 
  370000   0.66727937   -8.5648616    57.328443  0.012911812  0.012508115            4 
  371000   0.65144359   -8.5831245     57.43882  0.012901801  0.012464308            4 
  372000   0.66642801   -8.5603561    57.403063  0.012859109  0.012420715            3 
  373000   0.68184405   -8.5508593    57.341835  0.012810955  0.012377231            6 
  374000   0.67332001   -8.5764067    57.409005  0.012791668  0.012333935            2 
  375000   0.67722287   -8.5491978    57.560686  0.012791264  0.012291007            3 
  376000   0.67211081   -8.5826791    57.347339   0.01270996  0.012248087            3 
  377000   0.67457172   -8.5703009    57.417615  0.012691781  0.012205255            2 
  378000   0.65511693   -8.6182957    57.358077  0.012645079  0.012162666            2 
  379000   0.67684743   -8.5657212    57.482005  0.012638963  0.012120175            3 
  380000   0.66122476     -8.56742    57.566155  0.012624157  0.012077932            2 
  381000   0.62742603   -8.5837898    57.498178  0.012576154  0.012035693            1 
  382000   0.64932485   -8.5986942    57.485995  0.012540575  0.011993606            3 
  383000   0.63419783   -8.6272287    57.360071  0.012480433  0.011951565            2 
  384000   0.63875102   -8.6430049    57.387119  0.012453802  0.011909714            1 
  385000   0.66695708    -8.637297    57.403423  0.012424983  0.011867978            6 
  386000   0.63781307   -8.6282642    57.453635  0.012403634  0.011826504            5 
  387000   0.64988991   -8.6473712    57.297715  0.012338009  0.011785137            8 
  388000   0.64726519   -8.6472171    57.263762  0.012298918   0.01174392            6 
  389000   0.64247444   -8.6348084    57.235321  0.012261208  0.011702655            2 
  390000   0.65346394   -8.6624236     57.25457  0.012233883  0.011661516            3 
  391000   0.65435979   -8.6451285    57.314347  0.012215334  0.011620542            4 
  392000   0.63781867   -8.6414084    57.297571  0.012180606  0.011579863            5 
  393000   0.65312246   -8.6495158    57.336817  0.012157934  0.011539271            2 
  394000   0.64483564   -8.6282033    57.369311  0.012133949  0.011498973            2 
  395000   0.64001987   -8.6650502    57.296603  0.012087891  0.011458583            2 
  396000   0.62679039   -8.6483992     57.35233  0.012069093  0.011418337            4 
  397000    0.6416188   -8.6673279    57.334708  0.012034993  0.011378229            1 
  398000   0.63664605   -8.6838798    57.351424  0.012008255  0.011338178            4 
  399000   0.62911251   -8.6628965    57.229697  0.011952735  0.011298317            2 
  400000   0.62008831   -8.6692516    57.264511  0.011930106  0.011258612            5 
  401000   0.62453993   -8.6742942    57.083757  0.011862792  0.011219065            1 
  402000   0.61174213   -8.6874129    57.228566  0.011863301   0.01117975            3 
  403000   0.61917379   -8.6970789    57.330993  0.011855044  0.011140589            5 
  404000   0.62791936   -8.6885527    57.169376  0.011792363  0.011101495            2 
  405000   0.62133514   -8.6919009    57.198102  0.011769157  0.011062541            4 
  406000   0.62141453   -8.6820261    57.301815  0.011761456  0.011023735            3 
  407000   0.61355587   -8.6960211     57.28275  0.011728655  0.010985088            1 
  408000   0.62160602   -8.6847931    57.247289  0.011692665  0.010946662            5 
  409000    0.6298675   -8.7211895    57.245981   0.01166381  0.010908492            4 
  410000   0.62653841   -8.7089792    57.232709  0.011632664  0.010870349            6 
  411000    0.6138973   -8.6988106    57.186965  0.011595086  0.010832383            2 
  412000   0.61464305   -8.7175069    57.092399  0.011547815  0.010794422            8 
  413000   0.62643751   -8.7134481    57.225474  0.011546706  0.010756667            7 
  414000   0.60582243   -8.7314761    57.264986  0.011526768  0.010719108            5 
  415000   0.60380421   -8.7325893    57.163369  0.011478588  0.010681618            3 
  416000    0.6040506   -8.7347164    57.262401  0.011470834  0.010644299            3 
  417000   0.59820983   -8.7257119    57.246857  0.011440219  0.010607061            2 
  418000   0.59711658   -8.7479894    57.125851  0.011388726  0.010570029            3 
  419000   0.60090248   -8.7319376    57.225466  0.011381358  0.010533097            6 
  420000   0.58349606   -8.7131878    57.142648  0.011337827  0.010496276            3 
  421000   0.60833585   -8.7401268    57.134486  0.011309281  0.010459574            3 
  422000   0.58603214   -8.7308622    57.062649  0.011268296  0.010423012            4 
  423000    0.5931237   -8.7342273     57.09241   0.01124752  0.010386675            7 
  424000   0.59530678   -8.7564649    57.183592  0.011238914  0.010350496            3 
  425000   0.58372857   -8.7433755    57.052296  0.011186725  0.010314446            2 
  426000   0.58772801   -8.7543669    57.060727  0.011162114  0.010278508            6 
  427000   0.57320686   -8.7437489    57.170945  0.011157483  0.010242702            7 
  428000   0.57584071   -8.7544822    57.003199  0.011098754  0.010207051            8 
  429000   0.58640127   -8.7349162    57.095849   0.01109088  0.010171585            4 
  430000   0.56743043   -8.7628347    57.098507  0.011065602  0.010136169            5 
  431000   0.57091945   -8.7648625    57.095943  0.011039432   0.01010092            5 
  432000   0.56918071     -8.78823    57.067894  0.011008467  0.010065864            4 
  433000   0.57230926   -8.7765725    57.035256  0.010976762  0.010031015            3 
  434000   0.58092508   -8.7687311    57.020698  0.010948675 0.0099962391            5 
  435000   0.56302824   -8.7738415    57.090287  0.010936837 0.0099616553            4 
  436000   0.57190773   -8.7886527    57.072148  0.010908285 0.0099271654            4 
  437000   0.57852609   -8.7928821    56.975541  0.010864901 0.0098927954            3 
  438000   0.56984619   -8.7909525    56.991757  0.010843181 0.0098585615            4 
  439000    0.5602458   -8.7838975    56.976251  0.010815537 0.0098244235            5 
  440000   0.56813221   -8.8031967    56.903355  0.010777151 0.0097904322            2 
  441000    0.5631329   -8.8185136    56.976118  0.010766462  0.009756658            3 
  442000   0.56283039   -8.8128606    56.995657  0.010745788 0.0097229999            4 
  443000   0.54942864   -8.8210595    56.997387  0.010721856 0.0096894175            7 
  444000   0.55670226   -8.8100432    56.970674  0.010692694 0.0096560026            7 
  445000   0.55606509   -8.8183391    56.929354  0.010660928 0.0096227146            4 
  446000   0.55066003   -8.8133012    56.982047   0.01064687 0.0095895774            5 
  447000   0.54949668   -8.8129311    57.042592  0.010634338 0.0095565502            6 
  448000   0.55696178   -8.8170438    56.852255  0.010575196 0.0095236432            4 
  449000   0.55374338   -8.8228271    56.913038  0.010562925 0.0094908718            4 
  450000   0.55860487   -8.8238461    56.962675  0.010548643 0.0094582641            2 
  451000   0.54644854    -8.837897    56.919341  0.010517247 0.0094258701            4 
  452000   0.54608445   -8.8237896    56.946515  0.010498989 0.0093935563            3 
  453000   0.55551147   -8.8302014    57.014755  0.010488365 0.0093613957            5 
  454000   0.54411942   -8.8155141    57.026216  0.010467367 0.0093295067            2 
  455000   0.54293443   -8.8323166    56.910789  0.010423221 0.0092976281            3 
  456000   0.53959918   -8.8402745    56.928068  0.010403521 0.0092658814            7 
  457000   0.54024784    -8.849791    56.972105  0.010388787 0.0092342783            3 
  458000   0.53383897   -8.8479924    57.031499   0.01037691 0.0092028026            2 
  459000   0.53210147   -8.8511816    56.960308  0.010341378 0.0091714394            2 
  460000   0.53691426   -8.8598201    56.927863  0.010313019  0.009140201            5 
  461000   0.52859579   -8.8494517    56.837868   0.01027438 0.0091091097            6 
  462000    0.5290271   -8.8754112    56.840653  0.010252643 0.0090781159            2 
  463000   0.52600095   -8.8551486    56.808202  0.010224658 0.0090473094            4 
  464000   0.53650166   -8.8802273    56.884434  0.010216313  0.009016619            2 
  465000   0.52152079   -8.8638468    56.926105  0.010201811  0.008986048            2 
  466000   0.53070973   -8.8704811    56.819795  0.010160908 0.0089555736            2 
  467000   0.51288804   -8.8518465    56.857427  0.010145865 0.0089252623            2 
  468000   0.51922576   -8.8689473    56.929016  0.010136933 0.0088950924            2 
  469000   0.53103773   -8.8646985    56.856041  0.010102353 0.0088650334            3 
  470000   0.52228949   -8.8630951    56.956017  0.010098585 0.0088350534            3 
  471000   0.51561211   -8.8866773    56.774096  0.010044957 0.0088051969            3 
  472000   0.50667369   -8.8852249    56.860837   0.01003899 0.0087754806            2 
  473000    0.5120844   -8.8878713    56.764078  0.010000719 0.0087458634            5 
  474000    0.5041375   -8.8752224    56.876976 0.0099994683 0.0087163659            3 
  475000   0.50883319   -8.8874958    56.808307 0.0099663697 0.0086870169            5 
  476000    0.5112431   -8.8828609    56.755267 0.0099361461 0.0086577479            5 
  477000   0.50274482   -8.8971878      56.7424 0.0099130677 0.0086286188            7 
  478000   0.50199441   -8.9075776    56.885925 0.0099173509 0.0085995951            4 
  479000   0.49969538   -8.8959374    56.842054 0.0098890143 0.0085706875            6 
  480000   0.49191397   -8.9024614    56.824974 0.0098654468 0.0085419415            3 
  481000   0.50323254    -8.913255    56.768993 0.0098352379 0.0085132484            4 
  482000    0.5008988   -8.9114889    56.833675 0.0098260157 0.0084846742            4 
  483000   0.49985773   -8.9242914    56.750748 0.0097913643 0.0084562265            4 
  484000   0.50013305   -8.9175827    56.816627 0.0097824771 0.0084279258            2 
  485000   0.48388433   -8.9119231    56.719566 0.0097456299  0.008399759            3 
  486000   0.49686525   -8.9091076    56.766305 0.0097335914 0.0083716898            7 
  487000   0.49063331   -8.9208317    56.658137 0.0096950953 0.0083437646            2 
  488000   0.48849323   -8.9268292    56.746229 0.0096902714 0.0083159146            4 
  489000   0.48771888   -8.9238641    56.787054 0.0096774121 0.0082881708            3 
  490000   0.48893415    -8.924626    56.786597 0.0096575844 0.0082605443            3 
  491000   0.48273432   -8.9211493     56.73396 0.0096289817 0.0082330453            5 
  492000    0.4895194   -8.9208054    56.656259 0.0095962499 0.0082056489            4 
  493000   0.47375264   -8.9400368    56.670324 0.0095791623 0.0081783801            5 
  494000   0.47895281   -8.9545262    56.760065 0.0095749098 0.0081512082            6 
  495000   0.48398842   -8.9394694    56.654047 0.0095377184 0.0081241286            4 
  496000   0.46051534    -8.943078    56.702009 0.0095265472 0.0080971476            4 
  497000   0.46943543   -8.9543415    56.660368  0.009500397 0.0080703234            2 
  498000     0.476317   -8.9461598    56.620573 0.0094746609 0.0080435886            3 
  499000   0.45373214   -8.9475963    56.606053 0.0094532487 0.0080169608            3 
  500000   0.47562683    -8.956505    56.673285 0.0094455476 0.0079904736            3 
  501000   0.46439342   -8.9535415    56.556679 0.0094072986 0.0079641074            9 
  502000   0.46789233   -8.9652425    56.620087 0.0093990848 0.0079378206            5 
  503000   0.46689491   -8.9793958    56.653809 0.0093859856 0.0079116787            5 
  504000   0.45760631   -8.9581253    56.565283 0.0093527253  0.007885638            2 
  505000   0.46135073   -8.9702025    56.603979 0.0093405905 0.0078596693            2 
  506000   0.45249292   -8.9735496    56.576168 0.0093175507 0.0078338365            2 
  507000   0.46095696   -8.9663485    56.519071 0.0092897881 0.0078081315            3 
  508000   0.47117887   -8.9731313    56.554388 0.0092772947 0.0077825047            2 
  509000   0.45692795   -8.9735937    56.631785 0.0092717395 0.0077569799            3 
  510000   0.46211683   -8.9812074    56.546484 0.0092396215 0.0077315355            5 
  511000   0.44602342   -8.9675053     56.60369 0.0092308692 0.0077062539            3 
  512000   0.44919833   -8.9845096    56.441519 0.0091864452 0.0076810244            4 
Loop time of 1247.13 on 48 procs for 500000 steps with 4000 atoms

Performance: 69278.849 tau/day, 400.919 timesteps/s
99.4% CPU use with 48 MPI tasks x no OpenMP threads

MPI task timing breakdown:
Section |  min time  |  avg time  |  max time  |%varavg| %total
---------------------------------------------------------------
Pair    | 79.243     | 87.615     | 92.632     |  24.2 |  7.03
Neigh   | 8.3653     | 8.5925     | 8.8848     |   4.6 |  0.69
Comm    | 78.418     | 83.165     | 93.269     |  28.9 |  6.67
Output  | 0.84771    | 0.84846    | 0.87293    |   0.4 |  0.07
Modify  | 1051.6     | 1055.3     | 1060.2     |   5.2 | 84.61
Other   |            | 11.66      |            |       |  0.93

Nlocal:        83.3333 ave          89 max          76 min
Histogram: 2 4 0 5 8 6 12 2 1 8
Nghost:        2191.25 ave        2209 max        2158 min
Histogram: 1 0 1 6 2 5 12 8 8 5
Neighs:        14590.6 ave       16526 max       13036 min
Histogram: 3 3 2 14 9 7 3 5 1 1
FullNghs:      29181.3 ave       31378 max       26640 min
Histogram: 2 4 2 4 9 10 5 3 6 3

Total # of neighbors = 1400704
Ave neighs/atom = 350.17600
Neighbor list builds = 26713
Dangerous builds = 0

#clear
#
#next RN
#
#jump SELF
Total wall time: 0:20:50
