
units lj                  # Use reduced LJ style units
atom_style atomic         # Uncharged point particles
atom_modify map hash      # Needed for indexing of clusters etc
                          # Used to be able to find where atoms are in relation to each other.

lattice fcc 1.0 spacing 1 1 1
Lattice spacing in x,y,z = 1.5874011 1.5874011 1.5874011
region box block 0 10 0 10 0 10 units lattice
create_box 2 box
Created orthogonal box = (0.0000000 0.0000000 0.0000000) to (15.874011 15.874011 15.874011)
  3 by 4 by 4 MPI processor grid
create_atoms 1 box
Created 4000 atoms
  using lattice units in orthogonal box = (0.0000000 0.0000000 0.0000000) to (15.874011 15.874011 15.874011)
  create_atoms CPU = 0.026 seconds
set type 1 type/fraction 2 0.6 78393
Setting atom values ...
  2421 settings made for type/fraction
mass 1 1.0
mass 2 1.0
pair_style lj/cut  3.5
pair_modify tail  yes
pair_coeff 1  1  1.0  1.0   # Intearaction between 1 and 1 set with epsilon = 1 and sigma = 1
pair_coeff 1  2  1.5  0.8
pair_coeff 2  2  0.5  0.88

write_data data.0
System init for write_data ...
Neighbor list info ...
  update every 1 steps, delay 10 steps, check yes
  max neighbors/atom: 2000, page size: 100000
  master list distance cutoff = 3.8
  ghost atom cutoff = 3.8
  binsize = 1.9, bins = 9 9 9
  1 neighbor lists, perpetual/occasional/extra = 1 0 0
  (1) pair lj/cut, perpetual
      attributes: half, newton on
      pair build: half/bin/atomonly/newton
      stencil: half/bin/3d
      bin: standard
WARNING: Not all mixed pair coeffs generated from mixing. Use write_data with 'pair ij' option to store all pair coeffs. (../write_data.cpp:312)


#############################
#   M E L T   S Y S T E M   #
#############################

velocity all create 2.4 3143649 mom yes dist gaussian # Assign velocities
                                                    # Temperature 2.4, random number seed, zero linear momentum
                                                                                # Gaussian distribution

timestep 0.002   # simulation timestep
thermo 1000       # output thermodynamic data every 1000 steps bf 100

# Define a fix  in this case with index 1 applied to all
# particles in the simulation. This fix is for simulations
# in the anisotropic NPT ensemble. Note that we use the MTK
# correction.
fix 1 all npt temp 2.4 2.4 0.1 iso 5.68 5.68 0.5 mtk yes tchain 5 pchain 5 # Use NPT ensemble
                                                                         # Set temperature and pressure and damping
                                                                         # Numbers of thermostats in chain and in barostat
run 10000          # run for 10000 steps
Per MPI rank memory allocation (min/avg/max) = 3.642 | 3.644 | 3.648 Mbytes
Step Temp E_pair E_mol TotEng Press Volume 
       0          2.4   -4.7127585            0   -1.1136585   -4.0555291         4000 
    1000    2.3347565   -4.3875098            0  -0.88625068    5.6523012     3643.108 
    2000    2.3953256   -4.4640594            0  -0.87196924      5.97705    3580.7677 
    3000    2.3861971   -4.4256104            0  -0.84720957    5.7441565    3634.9665 
    4000    2.3389195   -4.4366388            0  -0.92913662    5.1158321    3660.4239 
    5000    2.4174536   -4.3832483            0  -0.75797439    5.5688112    3662.6651 
    6000    2.4190979   -4.4295913            0  -0.80185163    6.2051478     3587.323 
    7000    2.4068176   -4.4637646            0  -0.85444078    5.4835972     3619.949 
    8000    2.4098912   -4.5156576            0  -0.90172446    5.6890941    3591.7846 
    9000    2.4374579   -4.4509158            0  -0.79564304    5.7161794     3629.099 
   10000    2.3848186   -4.5203501            0  -0.94401648    5.5088924    3591.5779 
Loop time of 2.84935 on 48 procs for 10000 steps with 4000 atoms

Performance: 606453.731 tau/day, 3509.570 timesteps/s
99.5% CPU use with 48 MPI tasks x no OpenMP threads

MPI task timing breakdown:
Section |  min time  |  avg time  |  max time  |%varavg| %total
---------------------------------------------------------------
Pair    | 1.2026     | 1.2716     | 1.3785     |   3.0 | 44.63
Neigh   | 0.21803    | 0.22395    | 0.24237    |   0.9 |  7.86
Comm    | 0.84674    | 0.95656    | 1.0879     |   5.5 | 33.57
Output  | 0.00025235 | 0.00026086 | 0.00033429 |   0.0 |  0.01
Modify  | 0.30476    | 0.38138    | 0.45436    |   7.2 | 13.38
Other   |            | 0.01563    |            |       |  0.55

Nlocal:        83.3333 ave          96 max          73 min
Histogram: 2 3 3 12 9 12 3 1 1 2
Nghost:        1768.04 ave        1790 max        1735 min
Histogram: 1 0 5 2 9 4 6 14 4 3
Neighs:        10622.2 ave       12642 max        9408 min
Histogram: 6 3 7 11 8 6 5 0 1 1

Total # of neighbors = 509865
Ave neighs/atom = 127.46625
Neighbor list builds = 906
Dangerous builds = 203

# Equilibrate just above the melting temperature to avoid step fn in T

fix 1 all npt temp 1.25 1.25 0.1 iso 5.68 5.68 0.5 mtk yes tchain 5 pchain 5
run 2000
Per MPI rank memory allocation (min/avg/max) = 3.644 | 3.646 | 3.650 Mbytes
Step Temp E_pair E_mol TotEng Press Volume 
   10000    2.3848186   -4.5203501            0  -0.94401648    5.5088924    3591.5779 
   11000     1.235556    -6.522785            0   -4.6699143    5.9972709    2759.2519 
   12000    1.2507468    -6.599042            0   -4.7233909    5.8922476    2742.9411 
Loop time of 0.712937 on 48 procs for 2000 steps with 4000 atoms

Performance: 484755.022 tau/day, 2805.295 timesteps/s
99.4% CPU use with 48 MPI tasks x no OpenMP threads

MPI task timing breakdown:
Section |  min time  |  avg time  |  max time  |%varavg| %total
---------------------------------------------------------------
Pair    | 0.29728    | 0.32378    | 0.35416    |   2.0 | 45.41
Neigh   | 0.041796   | 0.043709   | 0.046185   |   0.5 |  6.13
Comm    | 0.22261    | 0.2529     | 0.2865     |   2.6 | 35.47
Output  | 5.2954e-05 | 5.4426e-05 | 7.4944e-05 |   0.0 |  0.01
Modify  | 0.076582   | 0.087617   | 0.10041    |   2.6 | 12.29
Other   |            | 0.004878   |            |       |  0.68

Nlocal:        83.3333 ave          90 max          77 min
Histogram: 4 1 6 8 8 3 7 7 1 3
Nghost:        2116.06 ave        2131 max        2097 min
Histogram: 2 2 2 5 7 9 8 4 5 4
Neighs:        13907.3 ave       15304 max       12095 min
Histogram: 2 1 5 3 9 2 9 9 6 2

Total # of neighbors = 667550
Ave neighs/atom = 166.88750
Neighbor list builds = 143
Dangerous builds = 15

#############################
# L I N E A R  Q U E N C H  #
#############################

# Define solid atoms. This closely follows ten Wolde  Ruiz-Montero and Frenkel  Faraday Discuss  1996  104  93-110
# Compute components of the per-atom q6 vector
compute q6 all orientorder/atom degrees 1 6 components 6 nnn NULL cutoff 1.3 # compute the Q6 parameter.
                                                                             # Use all neighbours within 1.3 unit cell.

# get number of connections
compute coord_number all coord/atom orientorder q6 0.5

# An atom is solid if it has 8 or more connections (of a possible 14)
variable is_solid atom c_coord_number>=8
group solid dynamic all var is_solid    # Must be dynamic to update
dynamic group solid defined

# do clustering
compute cluster solid cluster/atom 1.3 # Create a cluster where all atoms within are solid and max 1.3 units from another member

# define chunks one chunk per cluster
compute clus_chunks solid chunk/atom c_cluster nchunk every compress yes  # Says which atoms are in which chunk

# count the size of each chunk
compute size_chunks solid property/chunk clus_chunks count


# Find the maximum entry in the vector of chunk sizes
variable max_n equal max(c_size_chunks)


# Thermo style which includes this variable
# thermo_style custom step temp pe vol v_max_n

thermo ${N}  # Print the thermo information every 100 steps
thermo 1000  

# Reset the npt fix at a lower temperature (below freezing)
fix 1  all npt temp  ${temp} ${temp}  0.1  iso  5.68  5.68  0.5  mtk yes tchain  5  pchain  5
fix 1  all npt temp  0.45 ${temp}  0.1  iso  5.68  5.68  0.5  mtk yes tchain  5  pchain  5
fix 1  all npt temp  0.45 0.45  0.1  iso  5.68  5.68  0.5  mtk yes tchain  5  pchain  5

dump dmp2 all dcd ${N} traj.dcd
dump dmp2 all dcd 1000 traj.dcd


compute msd all msd com yes
variable twopoint equal c_msd[4]/6/(step*dt+1.0e-6)
fix 9 all vector 10 c_msd[4]
variable fit equal slope(f_9)/6/(10*dt)
thermo_style custom step temp pe c_msd[4] v_twopoint v_fit v_max_n

fix 1 all npt temp 1.25 ${temp} 0.1 iso 5.68 5.68 0.5 mtk yes tchain 5 pchain 5
fix 1 all npt temp 1.25 0.45 0.1 iso 5.68 5.68 0.5 mtk yes tchain 5 pchain 5
run 500000 # 5000000  # Run for this many steps
Neighbor list info ...
  update every 1 steps, delay 10 steps, check yes
  max neighbors/atom: 2000, page size: 100000
  master list distance cutoff = 3.8
  ghost atom cutoff = 3.8
  binsize = 1.9, bins = 8 8 8
  4 neighbor lists, perpetual/occasional/extra = 1 3 0
  (1) pair lj/cut, perpetual
      attributes: half, newton on
      pair build: half/bin/atomonly/newton
      stencil: half/bin/3d
      bin: standard
  (2) compute orientorder/atom, occasional
      attributes: full, newton on
      pair build: full/bin/atomonly
      stencil: full/bin/3d
      bin: standard
  (3) compute coord/atom, occasional
      attributes: full, newton on
      pair build: full/bin/atomonly
      stencil: full/bin/3d
      bin: standard
  (4) compute cluster/atom, occasional
      attributes: full, newton on
      pair build: full/bin/atomonly
      stencil: full/bin/3d
      bin: standard
Per MPI rank memory allocation (min/avg/max) = 9.848 | 9.852 | 9.857 Mbytes
Step Temp PotEng c_msd[4] v_twopoint v_fit v_max_n 
   12000    1.2507468    -6.599042 1.7915031e-30 1.2440993e-32 8.3333333e+20            5 
   13000    1.2632234   -6.5814998    0.4881842 0.0031293858  0.039926684            4 
   14000    1.2415281   -6.6782975   0.92026908 0.0054777919  0.037153999            2 
   15000    1.2480956    -6.651428    1.3676048 0.0075978042  0.037284347            1 
   16000    1.2587892   -6.6182185    1.7782922 0.0092619381   0.03659077            1 
   17000    1.2261697   -6.6441694    2.2707665  0.011131208  0.036670251            2 
   18000    1.2254401   -6.6661624    2.6323967  0.012187021  0.036538374            2 
   19000    1.2485903   -6.6215787    3.0547654  0.013398093  0.036048591            2 
   20000    1.2257995   -6.6319313    3.5533707  0.014805711  0.036214987            2 
   21000    1.2386192   -6.6444624    3.9626673   0.01572487  0.036270727            2 
   22000    1.2352797   -6.6739792    4.3245997  0.016381059  0.036083543            4 
   23000    1.2672492   -6.6644804    4.8068913  0.017416272  0.035993702            4 
   24000     1.222575   -6.6277148    5.2603942  0.018265257  0.036024408            2 
   25000    1.2434071    -6.636839     5.650206   0.01883402   0.03599423            2 
   26000    1.2382955   -6.6362382    5.9831441  0.019176744  0.035791272            3 
   27000    1.2192289   -6.6929363    6.3905447  0.019723903  0.035603969            2 
   28000    1.2047276   -6.6780566    6.7743899  0.020161874  0.035402321            4 
   29000    1.2427903   -6.7066032    7.2130956  0.020727286  0.035253379            1 
   30000    1.2005715   -6.6918008    7.5587342  0.020996484  0.035067456            3 
   31000    1.2244594    -6.711304    7.9484181  0.021366715  0.034902341            2 
   32000    1.2169603   -6.7385576    8.3417311  0.021723258  0.034705569            2 
   33000    1.2062738   -6.7269532    8.7033761  0.021978222  0.034526826            3 
   34000    1.2268085    -6.682504    9.1114629  0.022332017  0.034410579            3 
   35000    1.2342914   -6.7322755    9.4424216  0.022481956  0.034237107            4 
   36000    1.2075217   -6.7660602    9.7438826  0.022555284  0.034061633            2 
   37000    1.1973676   -6.6830716    10.217853  0.023013183  0.033887226            4 
   38000    1.1897374   -6.7019892    10.675809   0.02341186  0.033755827            2 
   39000     1.183572   -6.6948623    11.098639   0.02371504  0.033696033            3 
   40000    1.2234044   -6.7199508    11.401752  0.023753651  0.033639828            3 
   41000     1.171247    -6.738286    11.734442  0.023850492  0.033536868            2 
   42000    1.1705174   -6.7475655    12.084159  0.023976507  0.033416259            3 
   43000    1.2379361   -6.7629774    12.436771  0.024102269  0.033305516            3 
   44000    1.1814177   -6.7271194    12.941944  0.024511257   0.03320316            4 
   45000    1.2035731   -6.7166724    13.320008  0.024666681  0.033135253            3 
   46000     1.215032   -6.7291878    13.696764  0.024812978  0.033091274            7 
   47000    1.2003391   -6.7479424    14.161775   0.02510953  0.033064685            2 
   48000    1.1867864   -6.7564949    14.553346  0.025266226  0.033057137            4 
   49000    1.1860143   -6.8022449     14.92867  0.025388895  0.033028607            3 
   50000    1.1633232   -6.7262208    15.341862   0.02556977   0.03300989            4 
   51000    1.1902959   -6.8033282    15.676905  0.025615857  0.032980181            2 
   52000    1.1968736   -6.8044029    16.200142  0.025961766  0.032982396            3 
   53000    1.2004698   -6.7927718    16.555357  0.026030435  0.032978234            5 
   54000    1.1830393   -6.7853073    16.866383  0.026028369  0.032971667            3 
   55000    1.2285674   -6.7912979    17.080455  0.025879476  0.032924916            2 
   56000    1.1731603   -6.8116948    17.474948  0.026004386  0.032858999            3 
   57000    1.1813273   -6.7945466    17.948185  0.026240037  0.032810636            2 
   58000    1.1501636   -6.7806937    18.153352  0.026082401   0.03275198            2 
   59000    1.1669403   -6.8118524    18.564886  0.026221591   0.03269772            6 
   60000    1.1619289   -6.8452326    18.895926  0.026244341  0.032643759            3 
   61000    1.1639384   -6.8292544    19.184856   0.02620882  0.032571001            3 
   62000    1.1692152   -6.8340719    19.558355  0.026288111  0.032499457            3 
   63000    1.1613367    -6.862609    19.912623  0.026339449  0.032431617            3 
   64000    1.1802631   -6.8247242     20.20536  0.026309062  0.032357771            2 
   65000    1.1676634   -6.8320131    20.594848  0.026403651  0.032292423            3 
   66000    1.1645965   -6.8211832    21.008537  0.026525931  0.032228921            4 
   67000    1.1852038   -6.8635379     21.45226  0.026681915  0.032179347            2 
   68000    1.1708819   -6.8376633    21.721414   0.02661938  0.032128784            3 
   69000    1.1591161   -6.8393232    22.102765   0.02669416  0.032066892            4 
   70000    1.1432395   -6.8561192     22.41753  0.026687536  0.032001834            7 
   71000    1.1737793   -6.8641197    22.710602  0.026655636  0.031935289            3 
   72000    1.1518594   -6.8884669    22.900561  0.026505278  0.031857782            2 
   73000    1.1670683   -6.8703662    23.380936  0.026690566  0.031792867            3 
   74000    1.1444117   -6.9029825    23.752754  0.026748596  0.031737842            3 
   75000     1.126494   -6.8324623    24.053807  0.026726452    0.0316781            1 
   76000    1.1459196   -6.8699883    24.398337  0.026752562  0.031614145            4 
   77000    1.1327148   -6.8975747    24.615628  0.026640289  0.031544515            6 
   78000    1.1342154   -6.8858911    24.830413  0.026528219  0.031467867            3 
   79000    1.1434448   -6.9038273    25.084618  0.026460567  0.031378506            2 
   80000    1.1457424   -6.9028995    25.299757  0.026353913  0.031281094            2 
   81000     1.130313   -6.8621483    25.517398  0.026252467  0.031185119            5 
   82000     1.137229   -6.8979345    25.810439   0.02623012  0.031073166           13 
   83000    1.1398521   -6.9387348    26.051598  0.026156223  0.030967616            1 
   84000    1.1390933   -6.8653394     26.43601    0.0262262  0.030864862            2 
   85000    1.1506252   -6.8797191    26.796056  0.026270643   0.03076749            1 
   86000    1.1432545   -6.9477754    27.007773  0.026170323  0.030668768            2 
   87000    1.1107806   -6.8879311    27.517012  0.026357291  0.030581036            3 
   88000    1.1321523   -6.9240188     27.80003  0.026325786  0.030501478            2 
   89000    1.1184638   -6.8973388    28.263901  0.026464326  0.030425526            4 
   90000    1.1159702   -6.9276605    28.468913  0.026360104  0.030354263            2 
   91000    1.1086624   -6.9194506    28.714776  0.026295582  0.030281575            1 
   92000     1.126258   -6.9381914      29.1297  0.026385597  0.030202723            3 
   93000    1.1102294   -6.9319324    29.364886  0.026312622  0.030126076            3 
   94000    1.1214257   -6.9692784    29.598257  0.026239589  0.030047081            4 
   95000    1.1154638   -6.9836229    29.814185  0.026152794  0.029964584            4 
   96000     1.140081   -7.0118969    30.179678  0.026197637  0.029888585            2 
   97000    1.1126905   -6.9852866    30.541107  0.026238064  0.029818309            5 
   98000    1.1176369   -7.0058026    30.893769  0.026270212  0.029751629            4 
   99000     1.064157   -7.0080735    31.208886  0.026270106  0.029688406            4 
  100000    1.1073124   -7.0013443    31.544174  0.026286812  0.029626878            5 
  101000    1.0995624   -6.9741292    31.642126  0.026107365  0.029560019            3 
  102000    1.1313888   -7.0033464    31.833387  0.026007669  0.029481674            4 
  103000     1.079719   -6.9482443    32.109756  0.025978767  0.029406375            2 
  104000    1.1233504   -7.0079737    32.247546   0.02583938  0.029321645            3 
  105000    1.1279771   -7.0197722    32.399839  0.025714157  0.029232803           12 
  106000    1.0856049   -6.9924597    32.595639  0.025625502  0.029137892            1 
  107000    1.1176697   -7.0340882    32.873233  0.025602206   0.02904359            5 
  108000    1.0942085   -7.0470403    32.904931  0.025389607   0.02894748            1 
  109000    1.0930368   -7.0172725      33.1654   0.02535581  0.028846711            4 
  110000    1.1069488   -7.0154047     33.35359  0.025267871  0.028745753            2 
  111000    1.0663173   -7.0099248    33.577044  0.025207991  0.028643957            5 
  112000    1.1056547   -7.0255624    33.927551  0.025243713   0.02854516            2 
  113000    1.0931172   -7.0432775    34.041913  0.025104655  0.028445179            3 
  114000    1.0847509   -7.0093999    34.325472  0.025091719   0.02834589           12 
  115000    1.1058157   -7.0660312    34.668197  0.025121882  0.028254595            5 
  116000    1.0919508   -7.0214965    34.938901  0.025099785  0.028163363            2 
  117000    1.0776965   -7.0796815    35.199739  0.025071039  0.028070305            3 
  118000    1.0732469   -7.0348217    35.459523  0.025042036  0.027979737            2 
  119000    1.0895773   -7.0629768    35.635405  0.024954765   0.02789144            1 
  120000    1.0926278   -7.1142183    35.688847  0.024783921  0.027799506            3 
  121000     1.086747   -7.0700203     36.14714  0.024894725  0.027707611            3 
  122000    1.0868442   -7.0827286     36.25109  0.024761673  0.027619321            5 
  123000    1.0634925   -7.0352136     36.57986  0.024783103  0.027529405            2 
  124000    1.0562941   -7.0816976    36.604267  0.024599641   0.02743681            2 
  125000    1.0720628   -7.1099636    36.892215   0.02459481  0.027345449            4 
  126000    1.0652689   -7.1046076    37.032545  0.024492424  0.027252324            6 
  127000    1.0572045   -7.1183522    37.509487  0.024612524  0.027162587            3 
  128000    1.0624852   -7.0913879    37.579394  0.024465751  0.027074373            5 
  129000    1.0521492    -7.093422     37.77065  0.024399645  0.026982788            1 
  130000    1.0919229   -7.0988807    37.944068  0.024323121  0.026890986            4 
  131000    1.0536566   -7.0869117    38.205673  0.024303863  0.026801795            5 
  132000    1.0458871   -7.1194071    38.340795  0.024205047  0.026714927            4 
  133000    1.0489313   -7.0982454    38.546491  0.024151937  0.026626149            5 
  134000    1.0620665   -7.1518634    38.632307  0.024025067  0.026535891            7 
  135000    1.0833591   -7.1332698    38.753535  0.023921935  0.026443675            3 
  136000    1.0691947   -7.1449825    39.057057   0.02393202  0.026352298            2 
  137000    1.0471389   -7.1608696     39.09703  0.023781648  0.026259618            3 
  138000    1.0517028   -7.1237994    39.465885  0.023832056  0.026168336            3 
  139000    1.0458595   -7.1474614     39.39175  0.023616157  0.026074439            4 
  140000    1.0677852   -7.1532059    39.571711   0.02355459  0.025981259           14 
  141000    1.0274306   -7.1169002     40.03343  0.023660419  0.025889284            2 
  142000    1.0475189   -7.1744093    40.208353  0.023596451  0.025800628            2 
  143000    1.0245274   -7.1682028     40.34328   0.02351007   0.02571197            3 
  144000    1.0423827   -7.1752987    40.430704  0.023397398  0.025624371            5 
  145000    1.0154936   -7.1896876    40.730128  0.023408119  0.025533705            3 
  146000    1.0119829   -7.2438975    40.637633  0.023194996  0.025442554            3 
  147000    1.0336294   -7.1639032    40.927593  0.023201583  0.025351451            3 
  148000    1.0236141   -7.2003204    40.949602  0.023057208  0.025258575            9 
  149000    1.0454348    -7.253629    41.049919  0.022958568   0.02516724            5 
  150000    1.0096406   -7.1909981     41.43696  0.023020533  0.025077219            4 
  151000    1.0439603   -7.1844435    41.643286  0.022981946  0.024989102            7 
  152000    1.0041035   -7.1729881    41.912201   0.02297818  0.024903311            3 
  153000    1.0448844   -7.2434943    41.905687  0.022824448  0.024817231            3 
  154000    1.0113335   -7.2464836    42.112213  0.022787994  0.024732437            6 
  155000    1.0570867   -7.2501539    42.342616  0.022764847  0.024646484            7 
  156000    1.0065054    -7.257307     42.52313  0.022715347  0.024561479            3 
  157000    1.0099334   -7.2803648    42.744675  0.022688256   0.02447875           11 
  158000      1.00534   -7.2817797     42.76453  0.022555132  0.024394489            4 
  159000   0.99929301   -7.2457883    43.029042  0.022551909  0.024311109            6 
  160000    1.0086298   -7.2445701    43.136166  0.022466753   0.02422764            9 
  161000    1.0075485   -7.2964504    43.257883  0.022390208  0.024144915            4 
  162000    1.0111587   -7.2328476     43.47333  0.022362824  0.024061992           11 
  163000   0.99759748   -7.2990817     43.66259  0.022322387  0.023978529            6 
  164000     1.002516   -7.2464502    43.825455  0.022269032  0.023898797            5 
  165000    1.0074785   -7.2864845    44.037289  0.022241055  0.023817922            4 
  166000    0.9936932   -7.2832235    44.088787  0.022132925  0.023736066            8 
  167000    1.0209787   -7.2714472    44.144675  0.022028281  0.023655212            6 
  168000     1.021968   -7.3000606    44.332307  0.021990232  0.023574198            4 
  169000    1.0008163   -7.2823712    44.442282   0.02191434   0.02349363            4 
  170000   0.98162609   -7.2818538    44.665103  0.021894658  0.023412552            3 
  171000    1.0053602   -7.2563383    44.749658  0.021807825   0.02333146            3 
  172000   0.98543164   -7.3271661    44.750225   0.02168131  0.023250512            5 
  173000    1.0197393   -7.2983721    45.039172  0.021695169  0.023168679            7 
  174000   0.99131419   -7.3331027    45.004462  0.021553861  0.023086574            7 
  175000    1.0042857   -7.3477554    45.225246  0.021535831  0.023004866            6 
  176000     0.984809   -7.3121865     45.26043  0.021430128  0.022922939            2 
  177000   0.96807928   -7.3576537    45.360365  0.021356104  0.022840773            6 
  178000    1.0080574   -7.3405111    45.522021  0.021311808  0.022759813            3 
  179000   0.99090999   -7.3401564    45.711857  0.021281125  0.022678758            5 
  180000   0.99883215   -7.4052993    45.637447  0.021128448   0.02259649            6 
  181000   0.96648786   -7.3701629    45.873795  0.021120532  0.022515434            5 
  182000   0.98166813   -7.3456409    45.935677  0.021032819  0.022434288            5 
  183000    1.0020283   -7.4091915    45.934119  0.020917176  0.022352835            8 
  184000   0.96700944   -7.3465028    46.106566  0.020881597  0.022271184            4 
  185000   0.96867944   -7.3520714    46.319312  0.020864555  0.022190479            3 
  186000   0.96206105   -7.4082325    46.164689  0.020683104   0.02210885            6 
  187000   0.97480238   -7.3910736    46.399162  0.020676988  0.022027505            9 
  188000   0.95776373   -7.3947695    46.448951  0.020589074  0.021946335            4 
  189000   0.92527676   -7.3975245    46.755261  0.020615194  0.021865876            7 
  190000   0.95860819   -7.3701661    47.019672  0.020622663  0.021786595            7 
  191000   0.96700468   -7.3772811    46.977813  0.020496428  0.021709523            4 
  192000   0.95390825   -7.4395113    47.341683  0.020547606  0.021633063            6 
  193000   0.96277903   -7.3963311    47.350346  0.020444882  0.021557038            4 
  194000   0.97470858   -7.3970999    47.433738  0.020375317  0.021480096            3 
  195000   0.94901401   -7.4340753    47.456021  0.020280351  0.021402946            5 
  196000   0.96213648   -7.4664629    47.545846  0.020215071   0.02132547            4 
  197000   0.94307358   -7.4057583    47.935322  0.020277209  0.021249819            8 
  198000    0.9553745   -7.4426068    47.850072  0.020138919  0.021175332            5 
  199000     0.961735   -7.4687334    47.868962  0.020045629  0.021100383            9 
  200000   0.93960685   -7.4258039    48.325305  0.020135544  0.021027459            6 
  201000   0.93282725   -7.4362831     48.38451  0.020059913  0.020955547            5 
  202000     0.937817    -7.427167     48.57412  0.020038828  0.020885435           13 
  203000   0.94513835   -7.4614541    48.449507   0.01988896   0.02081385            7 
  204000   0.93334901   -7.4327078    48.562761  0.019837729  0.020742032           17 
  205000   0.95428534   -7.4354403    48.673354  0.019785916  0.020671236            8 
  206000   0.94019513   -7.4693798    48.891418  0.019778082  0.020600521            6 
  207000   0.94658209   -7.4609539    48.876113  0.019676374  0.020530905            5 
  208000   0.92430116   -7.4728094    48.990659  0.019627668    0.0204598           16 
  209000   0.92697532    -7.469014    49.013857  0.019543005  0.020389188            6 
  210000   0.95141219   -7.4869925    49.025248  0.019454463  0.020317726            5 
  211000   0.93249821   -7.4408991     49.32853  0.019482042  0.020247002            3 
  212000   0.91645724   -7.4806441    49.499534  0.019457364  0.020176847            4 
  213000   0.93811941   -7.4837159    49.407082  0.019329844  0.020105966            6 
  214000   0.89439555   -7.4721137    49.655709  0.019336335  0.020035694            6 
  215000   0.94802891   -7.5095314    49.593264  0.019222195  0.019965943            5 
  216000   0.92587872   -7.5017285    49.706933  0.019177057  0.019895546            7 
  217000   0.92061788   -7.5269925    49.824596  0.019133869  0.019826441            5 
  218000   0.91749098    -7.509527    49.785919  0.019031314  0.019756701           10 
  219000   0.92964473   -7.5458209    49.979308  0.019018001  0.019687481            6 
  220000   0.92309335   -7.5090227    49.916282  0.018907682  0.019618134            6 
  221000   0.92180061   -7.5464377     50.14091  0.018906829  0.019549565            7 
  222000   0.92130371   -7.5852288    49.959161  0.018753439  0.019480697            7 
  223000   0.91318017   -7.5758742    50.265925  0.018783978  0.019412654           10 
  224000   0.90104229   -7.5245027    50.533739  0.018799754  0.019344781            8 
  225000   0.90135209   -7.5476522     50.38478   0.01866103  0.019277018            7 
  226000   0.91022853   -7.5364603    50.456834  0.018605027  0.019208916            4 
  227000   0.89165726   -7.5754524    50.630629  0.018586868  0.019141117            6 
  228000   0.90089665   -7.5947037    50.537004  0.018471127  0.019072762            5 
  229000   0.90252336   -7.5966795    50.711005  0.018453786  0.019004988            8 
  230000   0.91040206   -7.6044256    50.894049  0.018439873  0.018938238            5 
  231000   0.89794009   -7.5728228    50.900821   0.01836249  0.018872019           10 
  232000   0.90473172   -7.6049345    50.944733  0.018299114  0.018805372            8 
  233000   0.90636204   -7.6206001    51.012243  0.018244722  0.018739225            6 
  234000   0.86347423   -7.6377445    50.973302  0.018152885  0.018673307           15 
  235000   0.88565286   -7.6318525    51.156287  0.018140527   0.01860725            9 
  236000   0.88840184   -7.6259486    51.218217  0.018085529  0.018541291            5 
  237000   0.91206959   -7.6515835    51.086655  0.017962959  0.018475104            6 
  238000   0.90994801   -7.6220986    51.443265  0.018012348   0.01840957           13 
  239000   0.87872582   -7.6274934    51.324622  0.017895614  0.018344167            5 
  240000    0.8976289   -7.6256916    51.455094  0.017866352   0.01827874            4 
  241000   0.86687475   -7.6204071     51.60669  0.017844637  0.018214101            5 
  242000   0.88161832   -7.6387976    51.480573   0.01772747  0.018149651            9 
  243000   0.89095004   -7.6525812    51.438389  0.017640051  0.018084732           14 
  244000   0.86813965   -7.6407714    51.590558  0.017619726   0.01801969            8 
  245000   0.85628995   -7.6852962    51.451987  0.017500676  0.017954149            8 
  246000   0.90008886   -7.6602059    51.562346  0.017466919  0.017888239            8 
  247000   0.86066043   -7.6703202    51.596564  0.017407748  0.017822587            7 
  248000   0.87573139   -7.6646506    51.606258  0.017340812  0.017757035            4 
  249000    0.8683316    -7.653672    51.798696  0.017335574  0.017692761            5 
  250000     0.864019   -7.6585176    51.954194  0.017318065  0.017628761            5 
  251000   0.88085093   -7.6729191     52.09277  0.017295076  0.017565294            7 
  252000   0.87099443   -7.7053096    52.009225  0.017198818  0.017502028            7 
  253000   0.85592367   -7.6823744    52.131251  0.017171031  0.017438545            8 
  254000   0.85779373   -7.6581456    52.139582  0.017106162  0.017375411            6 
  255000    0.8693113   -7.7141572    52.077258  0.017018712  0.017312238            7 
  256000   0.85310478   -7.7215129     52.15049  0.016976071  0.017248838            7 
  257000    0.8680442   -7.7323444    52.340112  0.016971502  0.017186247           10 
  258000   0.86261143   -7.7403561    52.175395  0.016852518  0.017123886            7 
  259000   0.84574035   -7.7329962    52.315621  0.016832568  0.017061401           13 
  260000   0.87097732   -7.7386276    52.335527  0.016774207   0.01699945           11 
  261000   0.83925949   -7.7200779     52.38535  0.016725846  0.016937499            8 
  262000    0.8306683   -7.7692474      52.4465  0.016681457  0.016875621            8 
  263000   0.84095815   -7.7587893    52.359554   0.01659048  0.016813664            9 
  264000   0.83834732   -7.7818925    52.338874  0.016521109  0.016751559           10 
  265000   0.82641284   -7.7967978    52.649208  0.016556355   0.01669054            6 
  266000   0.85421167    -7.760853    52.770062  0.016531974  0.016629787           11 
  267000   0.84633169   -7.8067064    52.634225  0.016427661  0.016568844           13 
  268000   0.84348577   -7.7959473    52.587729  0.016351906  0.016507906           17 
  269000   0.83559744   -7.8053493    52.495475  0.016262539  0.016447194           22 
  270000   0.83149624   -7.7824912    52.622031  0.016241367  0.016386048           18 
  271000   0.83946811   -7.7903436    52.728475  0.016214168  0.016325526           15 
  272000   0.80415599   -7.8044917    52.654227   0.01613181  0.016264749           18 
  273000   0.84706253   -7.7958067    52.783602  0.016112211  0.016204363           11 
  274000   0.82931132   -7.7981924    52.776794  0.016051336   0.01614399           11 
  275000   0.82562383   -7.8069687    52.786877  0.015996023  0.016083556            7 
  276000    0.8455451   -7.7796544     52.91501  0.015976754  0.016023765           25 
  277000   0.82698557   -7.8002626    52.897617  0.015913844  0.015964158            9 
  278000   0.81451487   -7.8135995    52.928407   0.01586583  0.015904573            7 
  279000   0.82643016   -7.8086719    53.078457   0.01585378  0.015845277           36 
  280000   0.81338181    -7.822309    52.890333   0.01574117  0.015786448           30 
  281000     0.825572   -7.8741278    52.993642  0.015715789  0.015727065           47 
  282000   0.81930572   -7.8500654    53.052857  0.015677558  0.015668096           27 
  283000    0.8273951   -7.8442097    52.981634  0.015601188   0.01560956           76 
  284000   0.80504676   -7.8480615    53.187102  0.015606544  0.015551088           38 
  285000    0.8281715   -7.8770488    52.935891  0.015478331  0.015492365           33 
  286000   0.80964595   -7.8697555    52.924258  0.015420821  0.015433829           44 
  287000   0.81992594   -7.8782146    53.005326  0.015390629  0.015375154           18 
  288000     0.794391   -7.8432435     53.02014  0.015341476  0.015316484           39 
  289000   0.81612524   -7.8994748    53.005214  0.015284087  0.015257766           66 
  290000    0.8009467   -7.9129802    52.779212   0.01516644  0.015198871           64 
  291000   0.78411401   -7.8944587    52.985242  0.015173322  0.015140083           71 
  292000   0.81939255   -7.9137974    52.911579  0.015100337  0.015081395           66 
  293000   0.80640309   -7.9323021    52.922699  0.015051962  0.015022538           60 
  294000    0.7911947   -7.9399477    52.819625  0.014971549  0.014963722           51 
  295000    0.7774343   -7.9272819    52.955376  0.014959146  0.014905191           60 
  296000   0.81724933   -7.9723241    52.927972  0.014900893  0.014846888           76 
  297000   0.79490849   -7.9578373    52.916867  0.014847606  0.014788988           71 
  298000   0.82173208   -7.9704247    52.978675  0.014815066   0.01473121           58 
  299000   0.79250151   -7.9152435     53.04423  0.014783788  0.014673739           70 
  300000   0.77726419   -7.9463787    53.011481  0.014725411  0.014616711           75 
  301000   0.80501764   -7.9443298    53.110705   0.01470396  0.014559806           82 
  302000   0.79034921   -7.9364705    53.061431  0.014641675  0.014503583           90 
  303000   0.77698078   -7.9319745    53.161808  0.014620959  0.014447275           82 
  304000   0.77836818   -7.9621519    53.054587  0.014543472  0.014391372           70 
  305000   0.76700061   -7.9609509    53.087677   0.01450483  0.014335681           90 
  306000   0.78201898   -7.9555428    53.133844  0.014470001   0.01428041           79 
  307000   0.75683916   -7.9776244    53.086367   0.01440998  0.014225297           64 
  308000   0.78231106   -7.9540627    53.157833   0.01438253  0.014169991           53 
  309000   0.79657962    -7.976513    53.173464  0.014340201  0.014114677          106 
  310000   0.77459458   -8.0160644    53.052395  0.014261396  0.014059673           81 
  311000     0.762156   -7.9874409    53.151289  0.014242039   0.01400467          110 
  312000   0.77310639   -8.0027049    53.067471  0.014174004  0.013949763          112 
  313000   0.76040973   -8.0219803    53.022702    0.0141168  0.013894728          104 
  314000   0.76397753   -8.0119323    53.015166  0.014069842  0.013839804          163 
  315000   0.74937384   -8.0283749     53.19046   0.01407155  0.013785036          148 
  316000    0.7546994   -8.0816384    53.016838  0.013981234  0.013730648          157 
  317000   0.76164872   -8.0475591     53.05813  0.013947984  0.013676438          171 
  318000   0.75554887   -8.0466303    53.036537  0.013898464  0.013622446          152 
  319000   0.75537704   -8.0402545    53.017001  0.013849791  0.013568375          107 
  320000   0.75879448   -8.0444081    53.151628   0.01384157  0.013514763          161 
  321000   0.75106577   -8.0819513    52.983757  0.013754869  0.013461579          126 
  322000   0.76107112   -8.0697414    53.150964  0.013755426  0.013408652          159 
  323000   0.76394993   -8.0361251    53.235504   0.01373465   0.01335642          156 
  324000   0.75497877   -8.0846701    53.214096  0.013686753  0.013304427          120 
  325000   0.76159063    -8.057995    53.210142  0.013643626  0.013252434          152 
  326000   0.76053774   -8.0920733    53.204616  0.013600362  0.013200409          177 
  327000   0.73358019   -8.1018273    53.290569  0.013580675  0.013148774          134 
  328000   0.74229894   -8.1330307    53.243508  0.013527314  0.013097421          193 
  329000   0.74356835   -8.1065849    53.188334  0.013472222  0.013046261          152 
  330000   0.74009719   -8.1132678    53.327455  0.013466529  0.012995447          181 
  331000   0.74107537   -8.1109243    53.192817  0.013391948  0.012944808          154 
  332000   0.75103131   -8.1336161    53.120146   0.01333337  0.012894269          180 
  333000   0.75895106   -8.0946469     53.36177  0.013353796  0.012843967          181 
  334000   0.74747173   -8.1450369    53.237309  0.013282762  0.012793852          220 
  335000   0.74207437    -8.099318    53.302221  0.013259259  0.012743987          153 
  336000   0.73339549   -8.1369085    53.219825  0.013199361  0.012694325          186 
  337000   0.72901496   -8.1260314    53.381365   0.01320014  0.012645007          179 
  338000   0.73429929   -8.1340609    53.268324  0.013133216  0.012595763          186 
  339000   0.73377265   -8.1492852    53.204515  0.013078789  0.012546497          176 
  340000   0.73231424   -8.1596482    53.165402  0.013030736  0.012497467          210 
  341000   0.71586945   -8.1820388    53.109713  0.012978913  0.012448647          176 
  342000   0.70352269   -8.1652108     53.35238  0.013000093  0.012399953          191 
  343000   0.72569036   -8.1819053    53.212211  0.012928137  0.012351524          214 
  344000   0.70557555   -8.1859744    53.180648  0.012882909  0.012303178          207 
  345000   0.70701029    -8.194105    53.169706  0.012842924  0.012254978          194 
  346000   0.70395762   -8.1747605    53.181021  0.012808531  0.012206811          213 
  347000   0.71238935   -8.2121041    53.074935  0.012746142  0.012158929          204 
  348000   0.70656057   -8.2050466     53.23784  0.012748525  0.012111323          220 
  349000   0.71752304   -8.2041024    53.124859  0.012685019  0.012063843          211 
  350000   0.70652714   -8.2027556    53.193763  0.012665182  0.012016621          219 
  351000   0.71385614   -8.2158132    53.133482  0.012614787  0.011969381          241 
  352000   0.69265679   -8.2415418    53.090042  0.012568665  0.011922343          254 
  353000   0.70479489   -8.2467816    53.008003  0.012513693  0.011875371          240 
  354000   0.69566369   -8.2172896    53.163824  0.012515025  0.011828694          226 
  355000   0.70424589   -8.2562711     53.19759  0.012487697  0.011782353          244 
  356000   0.70034917   -8.2450951    53.133552  0.012437629  0.011736322          257 
  357000   0.69353852   -8.2356396    53.198671   0.01241799  0.011690443          276 
  358000   0.69503633   -8.2181112    53.204489  0.012384658  0.011644879          283 
  359000   0.70483678   -8.2417392    53.189691  0.012346725  0.011599589          303 
  360000    0.7029694   -8.2925474    53.088483  0.012289001  0.011554386          288 
  361000   0.68402483   -8.2557819    53.055931  0.012247445  0.011509413          281 
  362000   0.66784659   -8.2689446    53.094307  0.012222446  0.011464738          284 
  363000   0.69606886   -8.2581439      53.0933  0.012188544  0.011419979          295 
  364000   0.69052589   -8.2955509    53.079884  0.012151988  0.011375534          299 
  365000   0.68318013   -8.2677662    53.081079  0.012118968  0.011331239          268 
  366000   0.67964175   -8.2945831    53.129416  0.012096862  0.011287263          316 
  367000   0.67731497   -8.2794299    53.144903  0.012067417  0.011243398          316 
  368000   0.69395287   -8.2849487    53.127229  0.012030623   0.01119978          309 
  369000   0.70852343   -8.2782171    53.201493  0.012014791  0.011156254          287 
  370000   0.67696241   -8.3037493    53.118339   0.01196359  0.011113256          306 
  371000   0.68080771   -8.2880739     53.25395  0.011961804  0.011070389          328 
  372000   0.67814536   -8.2967421    53.056111  0.011885329  0.011027625          293 
  373000   0.66178344   -8.3276387    53.077096  0.011858154  0.010984981          320 
  374000   0.67889438   -8.3055958    53.150962  0.011842906  0.010942484          304 
  375000    0.6678491   -8.3026396    53.167768   0.01181506  0.010900181          347 
  376000   0.64966111   -8.3036378    53.150618  0.011779835  0.010858047          301 
  377000   0.66689779   -8.3265256    53.128116  0.011743615   0.01081615          324 
  378000   0.65562641   -8.3133015     53.14825  0.011716986  0.010774585          370 
  379000   0.65931714   -8.3180921    53.214033  0.011700535  0.010733115          281 
  380000    0.6740945   -8.3360552    53.163954  0.011658762  0.010691862          338 
  381000   0.66405435    -8.332729    53.115192  0.011617496  0.010650769          293 
  382000   0.65539233   -8.3464901    53.049281  0.011572705  0.010609807          336 
  383000   0.65373891   -8.3607251    53.049454  0.011542527  0.010569018          302 
  384000   0.65451684   -8.3320768    53.218269  0.011549103   0.01052852          317 
  385000   0.66099053   -8.3360392    53.163812  0.011507319  0.010488171          336 
  386000   0.66320722   -8.3260316     53.13198  0.011470635  0.010447916          374 
  387000   0.64702644   -8.3605888    53.051376  0.011423638  0.010408003          341 
  388000   0.64747338   -8.3402524    53.152276  0.011415867  0.010368171          333 
  389000   0.62852968   -8.3695682    53.002027  0.011354333   0.01032858          314 
  390000   0.65553772    -8.366441     53.06807  0.011339331  0.010289028          364 
  391000   0.64649366   -8.3789028    53.072055   0.01131118  0.010249783          335 
  392000   0.63710978   -8.3563851    53.080286  0.011284074  0.010210647          386 
  393000   0.64334235   -8.3570684    53.088309  0.011257063  0.010171761          371 
  394000   0.64336935   -8.3831265     52.91767  0.011192401  0.010132989          357 
  395000    0.6383398   -8.3819467    53.065156  0.011195181  0.010094365          394 
  396000   0.63573208   -8.3658548    53.048394  0.011163383  0.010055968          380 
  397000   0.62956557   -8.3751624    53.068758  0.011139538  0.010017893          519 
  398000   0.64296691   -8.4018192    53.049579  0.011107533 0.0099798508          406 
  399000   0.63512619   -8.3720502    53.112053  0.011092743 0.0099420097          417 
  400000   0.62806943   -8.4122729    53.035866  0.011049139 0.0099043841          432 
  401000    0.6331649   -8.4042953    53.033863  0.011021169 0.0098669087          443 
  402000    0.6350849   -8.4084965    53.023605  0.010991626 0.0098295201          469 
  403000   0.63244582   -8.3984462    52.929324  0.010944856   0.00979233          394 
  404000   0.61714894      -8.4157    52.997136  0.010931752 0.0097553251          419 
  405000   0.63365941    -8.409227    53.087386   0.01092333 0.0097185221          487 
  406000   0.62476441   -8.3916723    53.080973  0.010895109 0.0096819147          382 
  407000   0.64003257    -8.419048    53.014621  0.010854754 0.0096454924          366 
  408000   0.60857781   -8.4245363    53.013873  0.010827997 0.0096091152          426 
  409000   0.61234651   -8.4291799    53.006164  0.010799952 0.0095729117          400 
  410000   0.60724832   -8.4210279    53.017736  0.010775963 0.0095367888          459 
  411000   0.60763005   -8.4458333    52.874283  0.010720658 0.0095007656          562 
  412000   0.61152688   -8.4261897     52.98631  0.010717296 0.0094650254          469 
  413000   0.59876223   -8.4457575    52.906059  0.010675153 0.0094294058          428 
  414000   0.61416423   -8.4279171    53.027872  0.010673887 0.0093939391          454 
  415000   0.59793215   -8.4388219    52.908117   0.01062412 0.0093586939          437 
  416000   0.61776177   -8.4494924    52.927676  0.010602499 0.0093236348          448 
  417000   0.60492482   -8.4636642    52.978054  0.010587141 0.0092886519          517 
  418000   0.59744492   -8.4407914    52.904477  0.010547145 0.0092538006          470 
  419000   0.60228512   -8.4583548    52.899672  0.010521017 0.0092191259          441 
  420000    0.5914316   -8.4421332     52.98224  0.010512349 0.0091846079          381 
  421000   0.59928221   -8.4620677     52.88505  0.010468141 0.0091502373          405 
  422000   0.59934086   -8.4630037    52.837856  0.010434016 0.0091159809          426 
  423000   0.58968934    -8.469415    52.818302  0.010405497 0.0090818278          447 
  424000   0.60042462   -8.4584254    52.820529  0.010381393 0.0090478794          466 
  425000   0.58455177   -8.4691983     52.80969  0.010354841 0.0090140702          544 
  426000   0.57275355   -8.4773303    52.883243  0.010344922 0.0089804683          451 
  427000   0.59451886   -8.4770355    52.893844  0.010322764 0.0089470352          454 
  428000   0.57671401   -8.4841345    52.797577  0.010279902 0.0089137642          506 
  429000   0.57068723   -8.4969861     52.82433  0.010261136 0.0088805739          438 
  430000   0.57668149   -8.4910092    52.845616  0.010241399  0.008847665          448 
  431000   0.58624591    -8.504642    52.861987  0.010220802 0.0088148281          487 
  432000    0.5881536   -8.5189854     52.74188  0.010173974 0.0087820998          537 
  433000    0.5824237   -8.5222816    52.765517  0.010155026 0.0087495275          475 
  434000   0.58727184   -8.4977849    52.857856  0.010149358 0.0087171434          499 
  435000   0.58358292   -8.5035432    52.836442  0.010121924 0.0086848993          511 
  436000   0.56489549   -8.5029302    52.888492  0.010108657  0.008652825          476 
  437000   0.57034003   -8.4978261    52.776063  0.010064085 0.0086208311          508 
  438000   0.56850126   -8.5156683      52.7175  0.010029966 0.0085890026          502 
  439000   0.56162919   -8.5191072    52.822789  0.010027105 0.0085574153          493 
  440000   0.57156891   -8.5358617    52.699582 0.0099809815 0.0085258992          531 
  441000   0.57719685   -8.5356655    52.826572 0.0099823454 0.0084944955          531 
  442000   0.57305832   -8.5237348    52.795384 0.0099538808 0.0084632747          564 
  443000   0.57675055   -8.5288422    52.748997 0.0099226857 0.0084321867          492 
  444000    0.5667287   -8.5356419    52.686985 0.0098886984  0.008401222          519 
  445000   0.56703299   -8.5373576    52.790518 0.0098858649 0.0083704001          567 
  446000   0.54858286   -8.5464794     52.72598 0.0098516406 0.0083396322          530 
  447000   0.54533879   -8.5461776    52.663175 0.0098178924 0.0083090591          530 
  448000   0.55080369    -8.538556    52.733551 0.0098090682 0.0082786593          556 
  449000   0.55598479   -8.5360438     52.77472 0.0097948627 0.0082484395          526 
  450000   0.53994739   -8.5666871    52.639487 0.0097480531 0.0082182468          500 
  451000   0.55186388     -8.56259    52.677387 0.0097334418 0.0081882686          534 
  452000   0.54572546   -8.5571255    52.710014 0.0097179229  0.008158389          488 
  453000   0.55287347    -8.564184    52.579673 0.0096724931 0.0081286497          676 
  454000   0.54723956   -8.5531423    52.630017  0.009660429 0.0080990711          539 
  455000   0.53558556   -8.5779481    52.672123  0.009646909 0.0080695675          554 
  456000   0.53006376   -8.5709706    52.685859 0.0096282636 0.0080402639          581 
  457000   0.54326545   -8.5933002    52.524237 0.0095777238 0.0080110346          501 
  458000   0.54307367   -8.5662486    52.681942 0.0095855062 0.0079819667          555 
  459000   0.54804646   -8.5754958    52.618739 0.0095531479 0.0079530449          552 
  460000    0.5535084   -8.5853293    52.578228 0.0095250413 0.0079242031          550 
  461000   0.53252742   -8.5930455    52.585935 0.0095057728 0.0078954889          608 
  462000   0.52614653    -8.578945    52.629672 0.0094930865 0.0078669224          497 
  463000   0.52423221   -8.5705706    52.669247 0.0094797061 0.0078384433          552 
  464000   0.53485927   -8.5833756    52.641017 0.0094542056 0.0078101318          514 
  465000   0.52641512    -8.581867    52.567838 0.0094207595 0.0077819221          520 
  466000   0.51705158   -8.5853367    52.622883 0.0094103868 0.0077538909          562 
  467000   0.52473895    -8.590203     52.64946 0.0093949787 0.0077259644          565 
  468000   0.51649717   -8.5911841    52.530414 0.0093537061 0.0076981979          595 
  469000   0.50979737   -8.5896192    52.560278 0.0093390686 0.0076705405          556 
  470000   0.51529588   -8.6053298    52.506864 0.0093097277 0.0076429823          571 
  471000   0.51412621   -8.5919201    52.625952 0.0093110318 0.0076156474          549 
  472000   0.51046691   -8.6286304    52.499749 0.0092690235 0.0075883788          535 
  473000   0.51247926   -8.6165621    52.545463 0.0092574812 0.0075612401          575 
  474000   0.50917881   -8.6108456    52.522221 0.0092338644 0.0075341911          564 
  475000   0.50470172   -8.6180207    52.567803 0.0092224215 0.0075072805          580 
  476000   0.50065278   -8.6085037    52.520804 0.0091948187 0.0074804661          563 
  477000   0.50044674   -8.6007716    52.588081 0.0091872957 0.0074538049          588 
  478000   0.49495714   -8.6247101    52.510872  0.009154615 0.0074272705          532 
  479000   0.48479355   -8.6339767    52.470975  0.009128562  0.007400845          696 
  480000   0.51524061   -8.6466822    52.509493 0.0091162313 0.0073745354          590 
  481000   0.48804022   -8.6490507    52.468012 0.0090900922 0.0073482838          539 
  482000   0.50153545   -8.6614005    52.430748 0.0090647904 0.0073222126          543 
  483000   0.48560767   -8.6421171    52.466068 0.0090521167 0.0072962883          603 
  484000   0.49669584   -8.6517565    52.386206 0.0090196636 0.0072704414          596 
  485000   0.50377256   -8.6374219    52.464578 0.0090145323 0.0072446897          599 
  486000   0.49963876   -8.6617496    52.418526 0.0089880874 0.0072190907          607 
  487000   0.49257283   -8.6609695    52.414998 0.0089690277 0.0071935896          591 
  488000   0.48832076   -8.6639103    52.404891 0.0089489226 0.0071681898          656 
  489000   0.49137556   -8.6498411    52.390483 0.0089281668 0.0071429458          540 
  490000   0.48816179   -8.6654443    52.332883 0.0089001502 0.0071177693          508 
  491000   0.48972842   -8.6548365    52.398477 0.0088931563  0.007092745          522 
  492000   0.49235723   -8.6536584    52.431377 0.0088806533 0.0070678482          653 
  493000    0.4796462   -8.6600029    52.362496 0.0088509966 0.0070430112          574 
  494000   0.48411276   -8.6690872    52.334438 0.0088283465  0.007018304          624 
  495000   0.47645465   -8.6686143    52.408337 0.0088229524 0.0069937075          593 
  496000   0.47250323   -8.6877852    52.362145 0.0087974034 0.0069692388          595 
  497000   0.47897815   -8.6957888    52.382532 0.0087831207 0.0069448977          618 
  498000   0.47810311   -8.6720361    52.458419 0.0087781826 0.0069206393          595 
  499000   0.47359518   -8.6867411    52.348406 0.0087422188 0.0068965053          687 
  500000   0.47904496   -8.6946632     52.30833  0.008718055 0.0068724643          585 
  501000    0.4674723   -8.6854695    52.370795 0.0087110437  0.006848552          609 
  502000   0.47027274   -8.6874607     52.27714 0.0086781441 0.0068247377          582 
  503000   0.46531689   -8.6729723    52.359337 0.0086745091 0.0068010446          581 
  504000   0.46791399   -8.6901937    52.272086 0.0086428714 0.0067774337          636 
  505000   0.46695099   -8.6890921     52.32288 0.0086341385 0.0067539686          667 
  506000    0.4488148   -8.6984242    52.296682 0.0086127605 0.0067305708          606 
  507000   0.46723085   -8.7145581       52.276 0.0085923734 0.0067072698          591 
  508000    0.4631022   -8.6990642    52.310879  0.008581181 0.0066840653          556 
  509000   0.45602013   -8.7130236    52.288326 0.0085606296 0.0066609745          538 
  510000   0.44933059   -8.7068953      52.3465 0.0085533496 0.0066380322          661 
  511000   0.43851865   -8.7175319    52.303396 0.0085295819 0.0066151809          565 
  512000   0.44913017   -8.7100233    52.337225 0.0085184286 0.0065924212          593 
Loop time of 1310.64 on 48 procs for 500000 steps with 4000 atoms

Performance: 65922.103 tau/day, 381.494 timesteps/s
99.4% CPU use with 48 MPI tasks x no OpenMP threads

MPI task timing breakdown:
Section |  min time  |  avg time  |  max time  |%varavg| %total
---------------------------------------------------------------
Pair    | 92.323     | 101.87     | 116.01     |  51.5 |  7.77
Neigh   | 9.1737     | 9.4795     | 9.8146     |   5.7 |  0.72
Comm    | 80.095     | 94.129     | 104.13     |  53.6 |  7.18
Output  | 1.1111     | 1.1119     | 1.1351     |   0.3 |  0.08
Modify  | 1087.4     | 1091.5     | 1095.1     |   5.4 | 83.28
Other   |            | 12.58      |            |       |  0.96

Nlocal:        83.3333 ave          92 max          77 min
Histogram: 4 0 11 8 7 5 9 1 2 1
Nghost:        2410.31 ave        2424 max        2393 min
Histogram: 3 3 4 3 3 4 12 9 4 3
Neighs:        16684.1 ave       19320 max       14220 min
Histogram: 3 6 7 3 3 7 11 1 5 2
FullNghs:      33367.0 ave       37045 max       30792 min
Histogram: 4 3 11 6 5 9 6 2 1 1

Total # of neighbors = 1601615
Ave neighs/atom = 400.40375
Neighbor list builds = 26634
Dangerous builds = 0

#clear
#
#next RN
#
#jump SELF
Total wall time: 0:21:54
