
units lj                  # Use reduced LJ style units
atom_style atomic         # Uncharged point particles
atom_modify map hash      # Needed for indexing of clusters etc
                          # Used to be able to find where atoms are in relation to each other.

lattice fcc 1.0 spacing 1 1 1
Lattice spacing in x,y,z = 1.5874011 1.5874011 1.5874011
region box block 0 10 0 10 0 10 units lattice
create_box 2 box
Created orthogonal box = (0.0000000 0.0000000 0.0000000) to (15.874011 15.874011 15.874011)
  3 by 4 by 4 MPI processor grid
create_atoms 1 box
Created 4000 atoms
  using lattice units in orthogonal box = (0.0000000 0.0000000 0.0000000) to (15.874011 15.874011 15.874011)
  create_atoms CPU = 0.002 seconds
set type 1 type/fraction 2 0.27 78393
Setting atom values ...
  1113 settings made for type/fraction
mass 1 1.0
mass 2 1.0
pair_style lj/cut  3.5
pair_modify tail  yes
pair_coeff 1  1  1.0  1.0   # Intearaction between 1 and 1 set with epsilon = 1 and sigma = 1
pair_coeff 1  2  1.5  0.8
pair_coeff 2  2  0.5  0.88

write_data data.0
System init for write_data ...
Neighbor list info ...
  update every 1 steps, delay 10 steps, check yes
  max neighbors/atom: 2000, page size: 100000
  master list distance cutoff = 3.8
  ghost atom cutoff = 3.8
  binsize = 1.9, bins = 9 9 9
  1 neighbor lists, perpetual/occasional/extra = 1 0 0
  (1) pair lj/cut, perpetual
      attributes: half, newton on
      pair build: half/bin/atomonly/newton
      stencil: half/bin/3d
      bin: standard
WARNING: Not all mixed pair coeffs generated from mixing. Use write_data with 'pair ij' option to store all pair coeffs. (../write_data.cpp:312)


#############################
#   M E L T   S Y S T E M   #
#############################

velocity all create 2.4 2750902 mom yes dist gaussian # Assign velocities
                                                    # Temperature 2.4, random number seed, zero linear momentum
                                                                                # Gaussian distribution

timestep 0.002   # simulation timestep
thermo 1000       # output thermodynamic data every 1000 steps bf 100

# Define a fix  in this case with index 1 applied to all
# particles in the simulation. This fix is for simulations
# in the anisotropic NPT ensemble. Note that we use the MTK
# correction.
fix 1 all npt temp 2.4 2.4 0.1 iso 5.68 5.68 0.5 mtk yes tchain 5 pchain 5 # Use NPT ensemble
                                                                         # Set temperature and pressure and damping
                                                                         # Numbers of thermostats in chain and in barostat
run 10000          # run for 10000 steps
Per MPI rank memory allocation (min/avg/max) = 3.642 | 3.644 | 3.648 Mbytes
Step Temp E_pair E_mol TotEng Press Volume 
       0          2.4   -6.6079615            0   -3.0088615   -3.8965289         4000 
    1000    2.4018096   -4.9884524            0   -1.3866386    5.6824412    4217.7478 
    2000    2.3937897   -4.9691109            0    -1.379324    5.6769274    4230.5643 
    3000    2.3807504   -4.9827742            0   -1.4125413    5.8631739    4203.2804 
    4000    2.4036638   -4.9825211            0   -1.3779267     5.358834     4253.241 
    5000    2.4101645   -4.9394819            0   -1.3251389    5.7157758    4236.2969 
    6000    2.3455405   -5.0089663            0   -1.4915351     5.443497    4221.9517 
    7000    2.3983098   -5.0143872            0   -1.4178219    5.4272114    4236.2885 
    8000    2.4032371   -4.9149613            0   -1.3110067    6.2983061    4207.3116 
    9000    2.3662916   -4.9584928            0   -1.4099427    5.7118605     4238.038 
   10000    2.3946563   -4.9107565            0   -1.3196701    5.9118562    4245.0946 
Loop time of 2.37231 on 48 procs for 10000 steps with 4000 atoms

Performance: 728404.083 tau/day, 4215.301 timesteps/s
99.6% CPU use with 48 MPI tasks x no OpenMP threads

MPI task timing breakdown:
Section |  min time  |  avg time  |  max time  |%varavg| %total
---------------------------------------------------------------
Pair    | 1.0087     | 1.0878     | 1.1708     |   3.3 | 45.85
Neigh   | 0.19719    | 0.21008    | 0.23667    |   1.4 |  8.86
Comm    | 0.70955    | 0.80952    | 0.87991    |   4.2 | 34.12
Output  | 0.00024554 | 0.00024874 | 0.00031565 |   0.0 |  0.01
Modify  | 0.22098    | 0.24973    | 0.28432    |   3.3 | 10.53
Other   |            | 0.01496    |            |       |  0.63

Nlocal:        83.3333 ave          91 max          68 min
Histogram: 1 0 0 4 4 9 8 6 11 5
Nghost:        1580.81 ave        1616 max        1555 min
Histogram: 3 5 8 7 5 11 4 2 2 1
Neighs:        8996.98 ave        9947 max        6810 min
Histogram: 1 0 0 3 4 7 8 7 10 8

Total # of neighbors = 431855
Ave neighs/atom = 107.96375
Neighbor list builds = 908
Dangerous builds = 209

# Equilibrate just above the melting temperature to avoid step fn in T

fix 1 all npt temp 1.25 1.25 0.1 iso 5.68 5.68 0.5 mtk yes tchain 5 pchain 5
run 2000
Per MPI rank memory allocation (min/avg/max) = 3.643 | 3.645 | 3.649 Mbytes
Step Temp E_pair E_mol TotEng Press Volume 
   10000    2.3946563   -4.9107565            0   -1.3196701    5.9118562    4245.0946 
   11000    1.2523668   -6.7457661            0   -4.8676856    5.8405113    3431.4478 
   12000    1.2774011   -6.7806436            0   -4.8650209    5.7022267    3424.1151 
Loop time of 0.560463 on 48 procs for 2000 steps with 4000 atoms

Performance: 616632.739 tau/day, 3568.477 timesteps/s
99.7% CPU use with 48 MPI tasks x no OpenMP threads

MPI task timing breakdown:
Section |  min time  |  avg time  |  max time  |%varavg| %total
---------------------------------------------------------------
Pair    | 0.23373    | 0.26582    | 0.29437    |   2.4 | 47.43
Neigh   | 0.036578   | 0.039329   | 0.044049   |   0.7 |  7.02
Comm    | 0.17318    | 0.20483    | 0.23818    |   3.0 | 36.55
Output  | 5.2825e-05 | 5.384e-05  | 7.0015e-05 |   0.0 |  0.01
Modify  | 0.042612   | 0.045675   | 0.050118   |   0.9 |  8.15
Other   |            | 0.004763   |            |       |  0.85

Nlocal:        83.3333 ave          91 max          75 min
Histogram: 1 6 2 7 3 11 8 4 3 3
Nghost:        1822.69 ave        1844 max        1805 min
Histogram: 6 3 6 6 7 4 7 5 1 3
Neighs:        11167.4 ave       12552 max        9892 min
Histogram: 2 6 6 5 6 6 9 2 4 2

Total # of neighbors = 536037
Ave neighs/atom = 134.00925
Neighbor list builds = 144
Dangerous builds = 13

#############################
# L I N E A R  Q U E N C H  #
#############################

# Define solid atoms. This closely follows ten Wolde  Ruiz-Montero and Frenkel  Faraday Discuss  1996  104  93-110
# Compute components of the per-atom q6 vector
compute q6 all orientorder/atom degrees 1 6 components 6 nnn NULL cutoff 1.3 # compute the Q6 parameter.
                                                                             # Use all neighbours within 1.3 unit cell.

# get number of connections
compute coord_number all coord/atom orientorder q6 0.5

# An atom is solid if it has 8 or more connections (of a possible 14)
variable is_solid atom c_coord_number>=8
group solid dynamic all var is_solid    # Must be dynamic to update
dynamic group solid defined

# do clustering
compute cluster solid cluster/atom 1.3 # Create a cluster where all atoms within are solid and max 1.3 units from another member

# define chunks one chunk per cluster
compute clus_chunks solid chunk/atom c_cluster nchunk every compress yes  # Says which atoms are in which chunk

# count the size of each chunk
compute size_chunks solid property/chunk clus_chunks count


# Find the maximum entry in the vector of chunk sizes
variable max_n equal max(c_size_chunks)


# Thermo style which includes this variable
# thermo_style custom step temp pe vol v_max_n

thermo ${N}  # Print the thermo information every 100 steps
thermo 1000  

# Reset the npt fix at a lower temperature (below freezing)
fix 1  all npt temp  ${temp} ${temp}  0.1  iso  5.68  5.68  0.5  mtk yes tchain  5  pchain  5
fix 1  all npt temp  0.45 ${temp}  0.1  iso  5.68  5.68  0.5  mtk yes tchain  5  pchain  5
fix 1  all npt temp  0.45 0.45  0.1  iso  5.68  5.68  0.5  mtk yes tchain  5  pchain  5

dump dmp2 all dcd ${N} traj.dcd
dump dmp2 all dcd 1000 traj.dcd


compute msd all msd com yes
variable twopoint equal c_msd[4]/6/(step*dt+1.0e-6)
fix 9 all vector 10 c_msd[4]
variable fit equal slope(f_9)/6/(10*dt)
thermo_style custom step temp pe c_msd[4] v_twopoint v_fit v_max_n

fix 1 all npt temp 1.25 ${temp} 0.1 iso 5.68 5.68 0.5 mtk yes tchain 5 pchain 5
fix 1 all npt temp 1.25 0.45 0.1 iso 5.68 5.68 0.5 mtk yes tchain 5 pchain 5
run 2000000 # 5000000  # Run for this many steps
Neighbor list info ...
  update every 1 steps, delay 10 steps, check yes
  max neighbors/atom: 2000, page size: 100000
  master list distance cutoff = 3.8
  ghost atom cutoff = 3.8
  binsize = 1.9, bins = 8 8 8
  4 neighbor lists, perpetual/occasional/extra = 1 3 0
  (1) pair lj/cut, perpetual
      attributes: half, newton on
      pair build: half/bin/atomonly/newton
      stencil: half/bin/3d
      bin: standard
  (2) compute orientorder/atom, occasional
      attributes: full, newton on
      pair build: full/bin/atomonly
      stencil: full/bin/3d
      bin: standard
  (3) compute coord/atom, occasional
      attributes: full, newton on
      pair build: full/bin/atomonly
      stencil: full/bin/3d
      bin: standard
  (4) compute cluster/atom, occasional
      attributes: full, newton on
      pair build: full/bin/atomonly
      stencil: full/bin/3d
      bin: standard
Per MPI rank memory allocation (min/avg/max) = 9.805 | 9.811 | 9.817 Mbytes
Step Temp PotEng c_msd[4] v_twopoint v_fit v_max_n 
   12000    1.2774011   -6.7806436 8.4546168e-31 5.8712614e-33 8.3333333e+20            1 
   13000    1.2063237   -6.8078563   0.49839765 0.0031948566  0.041059638            2 
   14000    1.2464748   -6.8017567    1.0000615  0.005952747  0.040473513            2 
   15000    1.2491278   -6.8114752    1.4285429 0.0079363491  0.039868319            4 
   16000    1.2412168   -6.7492226    1.8961806 0.0098759404  0.038902537            3 
   17000    1.2518749   -6.7912848    2.3737596  0.011636076  0.038792538            1 
   18000    1.2555937   -6.7935465    2.8567534   0.01322571  0.039024619            1 
   19000    1.2600701   -6.8002558    3.2533555  0.014269103  0.038850939            1 
   20000     1.291653   -6.8049068    3.7229332  0.015512221  0.038603587            1 
   21000    1.2404283   -6.7535688    4.2603867  0.016906296  0.038615789            2 
   22000    1.2492209   -6.7595629    4.7597825  0.018029479  0.038928803            2 
   23000    1.2326254   -6.8080223    5.1785472  0.018762852   0.03902313            2 
   24000    1.2309452   -6.7818253    5.6702812  0.019688476  0.039091554            2 
   25000    1.2416581   -6.7899361    6.1068556  0.020356185  0.039103579            2 
   26000    1.2198629   -6.7813213    6.6258055  0.021236556  0.039108117            1 
   27000     1.228429   -6.8237802     7.060883  0.021792848  0.039134978            3 
   28000    1.2306601   -6.7945918     7.509434  0.022349505  0.039120683            1 
   29000    1.2222101   -6.8026058    8.0383835  0.023098803  0.039131274            2 
   30000    1.2286757   -6.7686491    8.5289258   0.02369146  0.039214173            1 
   31000    1.2411585   -6.8459067    9.0428085  0.024308625  0.039313275            1 
   32000    1.2132453   -6.8063653    9.4927895  0.024720806  0.039415513            2 
   33000    1.2187461   -6.7889591    9.9414242  0.025104606  0.039430222            1 
   34000    1.2366596   -6.8012678    10.311358  0.025272935  0.039366775            2 
   35000    1.2183129   -6.8251382    10.772614   0.02564908  0.039282143            1 
   36000    1.2185521   -6.8028912    11.288644   0.02613112  0.039258564            1 
   37000    1.2318782   -6.8407957    11.663785  0.026269786  0.039190717            1 
   38000    1.2413751   -6.7921979    12.168914  0.026686216  0.039146626            1 
   39000    1.2336148   -6.8275865    12.602359  0.026928118   0.03911464            1 
   40000    1.2379282   -6.8767237    13.126052  0.027345941  0.039062119            1 
   41000     1.230945   -6.7857267    13.670962  0.027786508  0.039063522            2 
   42000    1.2058404   -6.7943776    14.296484   0.02836604  0.039129723       -1e+20 
   43000    1.2586321   -6.7893026    14.809083  0.028699773  0.039239895            2 
   44000    1.2313711   -6.8260791    15.436321  0.029235456  0.039366652            1 
   45000    1.2759104   -6.8140901    15.887108   0.02942057  0.039500776            2 
   46000    1.2296655    -6.836135    16.296774  0.029523141  0.039603259            1 
   47000    1.2459179   -6.8181034    16.824057  0.029829889  0.039693561            1 
   48000    1.2337509   -6.8330687    17.415021  0.030234411   0.03977749            2 
   49000    1.2316445   -6.8392847    17.999866  0.030612016  0.039889519            1 
   50000    1.2262084   -6.8121294    18.565554  0.030942589  0.040016986            3 
   51000    1.2525081    -6.829865    19.142726  0.031278963  0.040165599            3 
   52000    1.2256216   -6.8465052    19.580608  0.031379179   0.04029644            3 
   53000    1.2089864   -6.7825948    20.090471  0.031588791  0.040411764            1 
   54000    1.2384173   -6.8266647    20.620343  0.031821516  0.040525608            1 
   55000     1.230421   -6.8570395     20.99709  0.031813772  0.040602143            3 
   56000    1.2332633   -6.8304735    21.460221  0.031934852  0.040642067            2 
   57000    1.2368156   -6.8806739    21.796195  0.031865781  0.040668575            2 
   58000    1.2397109   -6.8444203    22.238212  0.031951454  0.040662517            1 
   59000    1.2323434   -6.8149298    22.692875  0.032052082  0.040656491            3 
   60000    1.2154758   -6.7846259    23.134536  0.032131299  0.040638477            1 
   61000     1.219751   -6.8310547    23.419953  0.031994471  0.040579203            2 
   62000    1.2377225   -6.8483041    23.801709  0.031991545  0.040518746            2 
   63000    1.2586156   -6.8229814    24.504511  0.032413375  0.040469545            2 
   64000    1.2398974   -6.8439368    24.886015  0.032403665    0.0404251            1 
   65000    1.2303187   -6.8339032    25.433777  0.032607407  0.040393456            3 
   66000    1.2308003   -6.8336547    25.819557   0.03260045  0.040358279            1 
   67000    1.2108092   -6.8018693     26.28611  0.032694166  0.040332972            3 
   68000     1.210335   -6.8026963    26.824329  0.032872952  0.040306455            1 
   69000    1.1923658   -6.8331557    27.455606  0.033158944  0.040297489            2 
   70000    1.2495469    -6.856917    27.733589  0.033016177   0.04028008            3 
   71000    1.2211515   -6.8520634      28.0935  0.032973592  0.040251148            1 
   72000    1.2266735   -6.8233817    28.546551  0.033039989  0.040214389            3 
   73000      1.23698   -6.8168178    29.121097  0.033243261  0.040175182            2 
   74000    1.1923708   -6.8698675    29.420832  0.033131567  0.040144904            1 
   75000    1.2161123   -6.8374692    29.976969  0.033307743  0.040101535            1 
   76000    1.2425806   -6.8322242    30.648778  0.033606116  0.040080888            3 
   77000    1.2275789   -6.8612992    30.889222  0.033429894   0.04005988            1 
   78000    1.2223891   -6.8650876    31.387081  0.033533206  0.040037213            2 
   79000    1.2156077   -6.8540246     31.85176  0.033598903  0.040015448            1 
   80000    1.2244419   -6.8293089    32.369531  0.033718261  0.039993719            2 
   81000    1.2251638   -6.7924546    32.829612  0.033775321  0.039961892            1 
   82000    1.2245107   -6.8179397    33.314324  0.033856021  0.039935972            2 
   83000    1.2209963   -6.8356259    33.854856  0.033990819  0.039922737            1 
   84000    1.2271573    -6.812005    34.318144  0.034045777  0.039913103            2 
   85000    1.2312736   -6.8726933     34.61988  0.033941058  0.039889877            2 
   86000    1.2176975   -6.8484589     34.96015  0.033876114   0.03985581            1 
   87000    1.2115671    -6.822615     35.42802  0.033934884  0.039817638            1 
   88000     1.218916   -6.8858536    35.935629  0.034029951  0.039785206            2 
   89000    1.2289355    -6.849042    36.389675  0.034072729  0.039748155            1 
   90000    1.2370777   -6.8309415    36.650926  0.033936042   0.03971426            2 
   91000    1.2127066   -6.7942548    37.048024  0.033926761   0.03966516            2 
   92000    1.2136172   -6.8090861    37.477276  0.033946808  0.039615357            1 
   93000    1.2001613   -6.8405704    37.999672  0.034049885  0.039566039            1 
   94000     1.178244   -6.8604654    38.471543  0.034105978  0.039521177            2 
   95000    1.2146565    -6.883247    38.584336  0.033845909  0.039468567            1 
   96000    1.2172639   -6.8448532    39.255271  0.034075756  0.039413727            1 
   97000      1.23907   -6.9098343    39.523573  0.033954959  0.039356859            1 
   98000    1.2312646    -6.866113    39.786438  0.033832005  0.039295135            2 
   99000    1.2238144   -6.8934876     40.16932  0.033812559  0.039228548            1 
  100000    1.2161869   -6.8693883     40.65026  0.033875216  0.039165215            1 
  101000    1.2018968   -6.9083405    40.822363  0.033681817  0.039095689            2 
  102000     1.238529   -6.9022635    41.213798  0.033671404  0.039024778            1 
  103000    1.2188919   -6.8616475    41.828519  0.033841844  0.038960822            1 
  104000    1.2259182   -6.8977119    42.245216  0.033850333  0.038901857            1 
  105000    1.2243999   -6.8784966     42.81497  0.033980134  0.038842236            1 
  106000    1.1968087   -6.8254533    43.641158  0.034309086  0.038794064            3 
  107000    1.1999939   -6.8450169    43.823016  0.034130075  0.038757991            2 
  108000    1.2148727   -6.8537849    44.309826  0.034189681  0.038721305            1 
  109000     1.222521   -6.8645714    44.925563  0.034346761  0.038685467            1 
  110000    1.2196133   -6.8825176    45.218017  0.034256073  0.038660747            1 
  111000     1.219197   -6.8685301    45.705787  0.034313654  0.038634679            2 
  112000     1.212056   -6.8812354    46.078145  0.034284334  0.038604634            2 
  113000    1.1967023   -6.8229423    46.762795  0.034485837  0.038573098            1 
  114000     1.186679   -6.8457745    46.838719   0.03423883  0.038535893            1 
  115000    1.2018571   -6.8886302    47.294835   0.03427162   0.03850093            1 
  116000    1.2100262   -6.8837667    47.714598  0.034277728  0.038464258            1 
  117000    1.2024805   -6.9036565    48.314754  0.034412218  0.038431605            1 
  118000    1.2042892   -6.8586496    48.545282  0.034283391    0.0383994            1 
  119000    1.1977466   -6.9074958    48.851437   0.03420969  0.038361507            3 
  120000    1.1928654   -6.9020302    48.980257  0.034014067  0.038319498            2 
  121000    1.1881657   -6.9298716    49.408836  0.034028124  0.038270522            1 
  122000    1.2049326   -6.8761643    49.873056  0.034066295  0.038224594            2 
  123000    1.1948514   -6.8942172    50.249197  0.034044171  0.038177471            1 
  124000    1.2054733   -6.8648316    51.025344  0.034291226  0.038136228            1 
  125000    1.2100655   -6.8990013    51.267946   0.03417863  0.038096929            1 
  126000    1.1994211   -6.8874365    51.991687  0.034386036  0.038062738            1 
  127000    1.1736095   -6.8777541    52.238406  0.034277169  0.038022899            1 
  128000    1.1804299    -6.939992     52.65658  0.034281627  0.037983475       -1e+20 
  129000    1.2124255   -6.9060469    53.412983  0.034504511  0.037952418            1 
  130000    1.1941196   -6.8774034     53.37933  0.034217519  0.037921666            1 
  131000    1.2176271   -6.8962909    54.079903  0.034401974  0.037891768            2 
  132000    1.2254539   -6.9162362    54.513043    0.0344148   0.03786479            1 
  133000    1.1949223   -6.8722018    54.943684  0.034425867  0.037840017            1 
  134000    1.2227241   -6.9033796    55.361782  0.034428969   0.03781463            3 
  135000    1.1913651   -6.8778927    55.759857  0.034419665  0.037790945            3 
  136000    1.1932641   -6.8771212    55.957238  0.034287523  0.037761071            1 
  137000    1.2289349   -6.8465493    56.642915  0.034454328  0.037731717            3 
  138000    1.2147304   -6.9004927     57.00007  0.034420332  0.037702817            2 
  139000    1.1786185   -6.9308412    57.316984    0.0343627   0.03767159            1 
  140000    1.1824129   -6.9019413    57.865357  0.034443665  0.037641605            1 
  141000     1.213489   -6.9048788    57.994797  0.034275884  0.037612071            1 
  142000    1.1917913   -6.9244092    58.325403  0.034228523  0.037581144            2 
  143000    1.1949592   -6.9088226    58.920023  0.034335677  0.037550373            1 
  144000    1.2289733   -6.9453105    58.881058  0.034074686  0.037515306            1 
  145000     1.178329   -6.9122558    59.607823  0.034257369  0.037477583            2 
  146000    1.1941297    -6.908264    59.789136  0.034126219  0.037440198            2 
  147000    1.1769197   -6.9139046    60.327676  0.034199363  0.037401652            2 
  148000    1.1879794   -6.9284159    60.629969  0.034138496  0.037364698            2 
  149000    1.1938852   -6.8923044    61.122875  0.034185053  0.037329176            1 
  150000     1.172529   -6.8727844    61.735865  0.034297703  0.037300019            1 
  151000    1.1716361   -6.8430514    61.887272  0.034154123  0.037270505            1 
  152000    1.1677925   -6.8509506    62.504067  0.034267581  0.037239143            2 
  153000    1.2055805    -6.892723     62.82445   0.03421811  0.037207261            1 
  154000    1.1934523   -6.8814671    63.417696  0.034316935  0.037176357            1 
  155000    1.1963223   -6.8795874    63.807011  0.034304844  0.037147967            3 
  156000    1.1765775   -6.9210644    64.102267  0.034242664  0.037123048            2 
  157000    1.2017645   -6.8919959    64.692296  0.034337736  0.037096486            2 
  158000    1.2198524   -6.9137784    64.973912  0.034268941  0.037068506            1 
  159000    1.1848953   -6.8893914    65.406342  0.034280053  0.037039651            1 
  160000    1.1757817   -6.8876596    65.774678  0.034257645  0.037011151            2 
  161000    1.2020943   -6.9302701    65.713948  0.034013431  0.036978083            4 
  162000    1.2030821   -6.9013992    66.211585  0.034059457   0.03694339            2 
  163000    1.1636184   -6.8944534    66.806659  0.034154734  0.036912296            1 
  164000    1.1919653    -6.894728    67.012093   0.03405086  0.036880914            2 
  165000    1.2130498   -6.9116631    67.546688  0.034114489  0.036853043            2 
  166000    1.1791423   -6.9606512    67.897515  0.034085098  0.036827855            2 
  167000    1.1967626   -6.9091183     68.52455  0.034193887  0.036802605            2 
  168000    1.1806119   -6.9496583    68.990793  0.034221623   0.03677706            1 
  169000    1.1814975   -6.9388124    69.300739  0.034171962  0.036750514            1 
  170000    1.1982323   -6.9208719     69.87003  0.034250015  0.036724576            1 
  171000    1.1889125   -6.8674783    70.205867  0.034213385  0.036700634            1 
  172000     1.188858     -6.92326    70.417591   0.03411705  0.036674848            2 
  173000    1.2032781   -6.9378212    70.614299  0.034014595  0.036646866            2 
  174000    1.1722441    -6.937294    71.073564  0.034039063  0.036619741            1 
  175000    1.1852543   -6.9193653    71.825138  0.034202447  0.036592607            3 
  176000    1.1814485   -6.9113694    72.402527  0.034281499  0.036570879            3 
  177000    1.1883087   -6.9615043    72.663781   0.03421082  0.036549602            2 
  178000    1.1949626   -6.9328111    73.130463  0.034237108  0.036526943            1 
  179000    1.1977962   -6.9209941     73.75995  0.034338897  0.036507563            3 
  180000    1.1293524   -6.9125453    73.892042  0.034209279  0.036488935            1 
  181000    1.1952614   -6.9257133    74.555875  0.034325909  0.036472452            1 
  182000    1.1820802   -6.9284842    74.941636  0.034313936  0.036456937            2 
  183000     1.159879   -6.9238705    75.463786  0.034364201  0.036440021            1 
  184000    1.1792603   -6.8968096    75.420987  0.034158055  0.036423123            2 
  185000    1.1909073   -6.9150803    76.180004  0.034315317  0.036406735            2 
  186000     1.178602   -6.9409992    76.748333  0.034385454  0.036388147            1 
  187000    1.1658106   -6.9178829     76.66889  0.034166172   0.03636958            1 
  188000    1.1450998   -6.9791952    76.962721  0.034114681   0.03634742            2 
  189000    1.1525481   -6.9280662    76.916117  0.033913632  0.036324036            1 
  190000    1.1683594   -6.9513376    77.507058  0.033994324   0.03629732            1 
  191000    1.2047679   -6.9241243    78.339083  0.034179355  0.036272028            2 
  192000    1.1492814   -6.9496035    78.633132  0.034128963  0.036249665            1 
  193000    1.1668319     -6.89478    79.108752  0.034157492  0.036226678            2 
  194000    1.1757455   -6.9461467     79.36563  0.034091765  0.036204571            2 
  195000    1.1884705   -6.9564779    79.792952  0.034099552   0.03618435            2 
  196000    1.1864453   -6.9339872    80.331368  0.034154493   0.03616656            3 
  197000    1.1761139   -6.9250675    80.798918  0.034178899  0.036151383            2 
  198000    1.1738469   -6.9337947    81.361748   0.03424316  0.036135567            1 
  199000    1.1832572   -6.9246332    81.891568  0.034292951  0.036121652            2 
  200000    1.1792101   -6.9740196    82.013315  0.034172214  0.036106332            1 
  201000    1.1579613   -6.9222435    82.383194  0.034155553   0.03609014            4 
  202000     1.167661   -6.9312397    83.144016  0.034300337  0.036073489            3 
  203000    1.1934417   -6.9676484     82.95173  0.034052434  0.036055798            1 
  204000    1.1915246    -6.927997    83.203731  0.033988452   0.03603394            2 
  205000    1.1579177   -6.9346334    83.897849  0.034104816  0.036012398            1 
  206000     1.160513   -6.9647148    84.335102  0.034116141  0.035991928            2 
  207000    1.2145043   -6.9670639    84.755521   0.03412058  0.035973255            1 
  208000    1.1582283   -6.9561936    84.979106  0.034046116  0.035953895            1 
  209000    1.1466441   -6.9653014    85.790808  0.034206861  0.035935773            4 
  210000    1.1939276   -6.9643455    86.105158  0.034168713  0.035918567            2 
  211000    1.1591265   -6.9405908     86.39648  0.034121832   0.03590194            1 
  212000    1.1765515   -6.9144869     86.99027  0.034194289  0.035884917            4 
  213000    1.1763108   -6.9822944    87.428781  0.034205313  0.035872299            3 
  214000    1.1608409   -6.9716785    87.540856  0.034089118   0.03585977            2 
  215000    1.1847022   -6.9437043    88.533063  0.034315141    0.0358464            1 
  216000     1.156666    -6.949423    88.582495  0.034175345   0.03583276            1 
  217000    1.1680017   -6.9056764    89.291085  0.034289971  0.035819569            2 
  218000    1.1844392   -6.9818999    89.298612  0.034135555  0.035805236            2 
  219000    1.1692615   -6.9970415    89.932444  0.034220869  0.035789136            4 
  220000    1.1540255   -6.9897709    90.018098  0.034097764  0.035775485            2 
  221000    1.1631087   -6.9824157    90.545743  0.034142437  0.035761606            2 
  222000    1.1821473   -6.9472119    91.088997  0.034192566   0.03574992            2 
  223000     1.148786   -6.9563753     91.26625  0.034105474  0.035737129            3 
  224000    1.1659843   -6.9821483    91.945026  0.034205739  0.035725971            1 
  225000    1.1617218   -6.9514607    92.586483   0.03429129  0.035714154            1 
  226000    1.1875525    -7.001997    92.705102  0.034183297  0.035703362            2 
  227000    1.1596277   -6.9737989     93.14881  0.034195598  0.035690524            4 
  228000    1.1635005   -6.9749457     93.13907  0.034042058  0.035675757            3 
  229000    1.1411338   -6.9429284    93.721658  0.034105407  0.035659386            2 
  230000    1.1447516    -7.000877    93.701168  0.033949699  0.035643505            4 
  231000    1.1505942   -7.0014768    94.066692  0.033934593  0.035626427            2 
  232000    1.1676697    -6.985437    94.679103  0.034008299  0.035609973            2 
  233000    1.1444589    -6.980897    95.230416  0.034059519  0.035594408            2 
  234000    1.1673906   -7.0148484    95.268889  0.033927667   0.03557842            2 
  235000    1.1548146   -6.9794369     95.80034  0.033971752  0.035563104            3 
  236000    1.1363989   -6.9924973    96.078346  0.033925969   0.03554662            2 
  237000    1.1592991   -6.9995159    96.266913  0.033849125  0.035527726            2 
  238000    1.1600523   -6.9688183    97.266615  0.034056938  0.035510771            2 
  239000    1.1889414   -6.9851374     97.15767  0.033876454  0.035495628            1 
  240000     1.159121   -7.0080938     97.39442  0.033817507   0.03548007            1 
  241000    1.1760505   -6.9633412    98.389658   0.03402132  0.035465368            2 
  242000    1.1679314   -6.9821215    98.695592  0.033986085  0.035451298            1 
  243000    1.1173668    -6.956083    99.151809  0.034002678   0.03543666            1 
  244000    1.1832923   -6.9485185    99.553946  0.034000664  0.035421987            6 
  245000    1.1773039    -6.956761    99.815804  0.033950954  0.035409176            2 
  246000     1.150192   -6.9633212    100.12411  0.033917382  0.035395461            1 
  247000     1.144775   -6.9562479    100.80129  0.034008534   0.03538246            1 
  248000    1.1640556   -6.9657784    101.14317  0.033986281  0.035369166            1 
  249000    1.1627247   -6.9846022    101.32856  0.033911834  0.035355614            1 
  250000    1.1489938   -6.9900685    101.86672  0.033955574  0.035342718            1 
  251000    1.1674873   -7.0092614    102.33164  0.033974647  0.035329926            2 
  252000    1.1525208   -6.9643407    102.68862  0.033957876  0.035318002            2 
  253000    1.1587976    -6.975637    103.64822  0.034139729  0.035306761            2 
  254000    1.1333462   -7.0015212    103.74982  0.034038655  0.035293963            4 
  255000    1.1527358   -6.9938914    104.14386   0.03403394  0.035281165            2 
  256000    1.1589438   -6.9671146    104.11004  0.033889985  0.035267825            2 
  257000     1.157086   -7.0166734    104.09663  0.033753772  0.035252105            1 
  258000    1.1510748   -6.9728358    103.99809  0.033591115  0.035233898            2 
  259000    1.1552324   -7.0058805    104.54511  0.033637421  0.035215373            2 
  260000    1.1564043    -7.013281     105.0909  0.033682981  0.035197643            1 
  261000    1.1827491   -7.0121716    105.04786  0.033540184  0.035177562            1 
  262000    1.1452522   -7.0076123    105.66887  0.033609691  0.035156215            1 
  263000    1.1531814   -7.0631488    105.78904  0.033519975  0.035135122            2 
  264000    1.1542411   -6.9960299    106.00451  0.033461018  0.035111653            3 
  265000    1.1547106   -6.9591307    106.78957  0.033581624  0.035089651            1 
  266000    1.1554765   -6.9959392     106.8458  0.033472993    0.0350686            1 
  267000    1.1384086   -7.0088468    107.15718  0.033444814  0.035047495            2 
  268000    1.1622094   -6.9979319    107.76534  0.033509122  0.035026164            2 
  269000    1.1344732   -6.9794547     108.1738  0.033511091  0.035005583            1 
  270000    1.1237625   -7.0001185    108.20586  0.033396869  0.034984732            2 
  271000    1.1499557   -6.9986022    109.01813  0.033523409  0.034964508            2 
  272000    1.1358373   -7.0188293    108.61738  0.033277385  0.034943662            1 
  273000    1.1358146   -7.0320768    108.91838  0.033247369  0.034921196            2 
  274000    1.1583427   -7.0044103    109.62239  0.033340142  0.034898504            1 
  275000    1.1430588   -7.0303566     109.7137  0.033246577  0.034874214            2 
  276000    1.1430079   -7.0521955    109.57253  0.033083493   0.03484933            2 
  277000    1.1409722   -6.9655435    110.63415   0.03328344  0.034825046            3 
  278000    1.1404429   -7.0263032    110.46568  0.033113212  0.034800956            3 
  279000    1.1427378   -6.9941876    111.39518  0.033272156  0.034777691            1 
  280000    1.1292184   -7.0143764    111.18018  0.033089339  0.034756151            2 
  281000    1.1316989   -7.0674535    111.56041  0.033084345  0.034734252            1 
  282000    1.1279286   -7.0164464    112.09955  0.033126344  0.034711447            2 
  283000    1.1510299   -7.0004392     112.7066  0.033188044  0.034689475            4 
  284000    1.1718271   -7.0078627    112.93908  0.033139401  0.034667036            1 
  285000    1.1454542   -6.9869495    113.63671  0.033227107  0.034645494            1 
  286000    1.1436469   -6.9984783    113.80336  0.033159488  0.034623426            1 
  287000    1.1308063   -7.0048228    114.09242   0.03312788  0.034601489            4 
  288000    1.1250491   -7.0526644    114.10499   0.03301649  0.034578273            1 
  289000    1.1413918   -6.9842096    114.74649  0.033087223  0.034554321            1 
  290000    1.1351748   -6.9855246    114.62976  0.032939586  0.034530007            1 
  291000    1.1564595   -7.0132067    115.17096  0.032981375  0.034507039            2 
  292000    1.1173197   -6.9920438    115.82511  0.033055112  0.034484212            2 
  293000    1.1560036   -7.0404273    116.22078  0.033054828  0.034461968            1 
  294000    1.1593634   -7.0425902    116.66338   0.03306785  0.034440499            1 
  295000    1.1690111   -6.9925592    116.63151  0.032946754  0.034419162            2 
  296000    1.1296615   -7.0043725     117.8093  0.033167032  0.034398906            1 
  297000    1.1457578   -7.0674805    117.51953  0.032974053  0.034378022            2 
  298000    1.1454916   -7.0538353    118.04027  0.033009024  0.034356811            2 
  299000    1.1359042   -7.0030494     118.4919  0.033024497  0.034335177            1 
  300000    1.1404679   -7.0314524    118.93954  0.033038762  0.034315177            1 
  301000    1.1156206   -7.0510672    119.30843  0.033031128  0.034296029            2 
  302000    1.1150736   -6.9737893    119.95259  0.033099501  0.034277529            1 
  303000    1.1372082   -7.0189934    119.91738  0.032980577  0.034259035            5 
  304000    1.1440604   -7.0618424    120.12826  0.032929895  0.034238886            3 
  305000    1.1422056   -7.0247625    120.36345  0.032886189  0.034217814            2 
  306000    1.1625594   -6.9989869    121.00434   0.03295325  0.034197549            3 
  307000    1.1444127   -7.0318347     121.4607  0.032969789  0.034177368            1 
  308000    1.1615393   -7.0061379    121.72182  0.032933394  0.034157741            2 
  309000    1.1297135   -7.0225763    122.26522  0.032973361  0.034139181            1 
  310000     1.161003    -7.041826    122.36037  0.032892573  0.034120191            1 
  311000    1.1398457   -7.0507743    123.07765  0.032979005   0.03410156            1 
  312000    1.1129461    -7.039937    122.85162  0.032812933  0.034082318            1 
  313000    1.1434568   -7.0755169    123.48005  0.032875414  0.034064327            2 
  314000    1.1189424   -7.0380066    124.21616  0.032966072  0.034047651            1 
  315000    1.1445512   -7.0703569    124.34409  0.032895261  0.034029714            2 
  316000    1.1406313   -7.0713229    124.16462  0.032743835  0.034012298            1 
  317000    1.1225287   -7.0469958    125.21009  0.032915376  0.033994199            1 
  318000    1.1136075   -7.1157354    124.99015  0.032754231   0.03397637            4 
  319000    1.1298661   -7.0381149    125.65932  0.032826363  0.033958533            2 
  320000    1.1082081   -7.0855512     125.9919  0.032810392  0.033941518            4 
  321000    1.1380622   -7.0734822      126.194  0.032760644  0.033924604            1 
  322000    1.0987167   -7.0382237    127.51483  0.033000733  0.033909513            2 
  323000    1.0965965   -7.0489985    127.41655  0.032873208   0.03389389            1 
  324000    1.1285279   -7.0532106    127.80495  0.032871644  0.033877752            2 
  325000    1.1328499   -7.0142536    128.17534  0.032865471   0.03386262            1 
  326000    1.1392573   -7.0311957    128.27684  0.032790604  0.033845867            1 
  327000    1.1167645   -7.0489997    128.09213  0.032643255  0.033827645            1 
  328000    1.1441332   -7.0005349    128.73555  0.032707202  0.033808703            1 
  329000    1.1267803   -7.0225557    129.07741  0.032694379  0.033789833            1 
  330000    1.1257259   -6.9887781    129.44906  0.032689157  0.033770807            2 
  331000    1.1361193    -7.069898    129.55908  0.032618095  0.033752551            5 
  332000    1.1005938   -7.0332627    129.42541  0.032486298  0.033732888            2 
  333000    1.1116788   -7.0509906    129.73076  0.032465154  0.033713486            2 
  334000    1.1170423   -7.0743592    130.09501  0.032458835  0.033693129            3 
  335000    1.1302621   -7.0752048    130.31061  0.032415574  0.033673007            1 
  336000    1.1583914   -7.0813273     130.8833  0.032461137  0.033652896            2 
  337000    1.0955816   -7.0219709    131.60142  0.032542389  0.033632806            2 
  338000    1.1056701   -7.0619347    131.61081  0.032448424  0.033613086            1 
  339000    1.1474717   -7.0374648    131.87523  0.032417706  0.033592233            1 
  340000    1.1167671   -7.0578281    131.62577  0.032261219  0.033570327            7 
  341000    1.1298607   -7.1030162    132.46329  0.032371283   0.03354905            3 
  342000     1.143435   -7.0513168     132.9382  0.032392348  0.033528241            1 
  343000    1.1208923   -7.0781727     132.8758  0.032282749  0.033506649            2 
  344000    1.1157985   -7.0496897    133.22731  0.032274057  0.033485036            2 
  345000    1.0860482   -7.1188542    132.88316  0.032097381  0.033463022            1 
  346000    1.1180505   -7.0767867    133.48767  0.032150209  0.033439934            1 
  347000    1.1273972   -7.0755734    134.17927  0.032223648  0.033418001            2 
  348000    1.1197703   -7.1024528    133.92955  0.032071253  0.033396207            2 
  349000    1.1262092   -7.0792068    134.80137  0.032187527  0.033374091            1 
  350000    1.1047455   -7.0835474    135.31204  0.032217153   0.03335314            2 
  351000    1.0789185   -7.0737965    135.45185  0.032158558  0.033331923            2 
  352000    1.1076797   -7.0286022    135.89776  0.032172765  0.033310757            2 
  353000    1.0755224   -7.0757493    136.28527  0.032173104   0.03328933            1 
  354000    1.1068016   -7.0292981    136.82731  0.032209818  0.033267637            2 
  355000     1.123801    -7.072917    136.37646  0.032013253  0.033246172            2 
  356000    1.1068519   -7.0461908     137.0766   0.03208722  0.033224764            2 
  357000    1.1103235   -7.0904169    137.01394  0.031982712  0.033203722            1 
  358000    1.1400766   -7.0795664    137.61135  0.032032438  0.033181475            3 
  359000    1.0898858   -7.0692944    138.03668   0.03204194  0.033159743            1 
  360000     1.099462   -7.0676719    137.94422  0.031931532  0.033137869            2 
  361000    1.1049609   -7.1293122    138.18827  0.031899415  0.033115683            3 
  362000    1.1258726   -7.0999499    138.45628  0.031872993  0.033093515            1 
  363000    1.1232837   -7.0745373    138.90783  0.031888849  0.033070889            2 
  364000    1.0972825   -7.0610778    139.06112  0.031836337   0.03304747            2 
  365000    1.1112638   -7.0713552    139.02146   0.03174006  0.033024462            2 
  366000     1.108042   -7.0911963    139.38537  0.031736196  0.033000296            1 
  367000    1.1070936   -7.0902473    139.88992  0.031764286  0.032975685            3 
  368000      1.08921   -7.0998322    139.70055  0.031635089  0.032951688            2 
  369000    1.1144688   -7.0778292    140.18603  0.031658994  0.032927254            1 
  370000    1.1119977   -7.0942099    140.52976  0.031650847  0.032903782            1 
  371000    1.1057667   -7.1090969    140.85098  0.031637686  0.032879623            2 
  372000    1.1271794   -7.0811652     141.3442  0.031663127  0.032855557            3 
  373000     1.088256   -7.0913006    141.10603  0.031525029  0.032831976            2 
  374000    1.1277689   -7.0986228    141.57195  0.031544551  0.032807711            2 
  375000    1.0703685   -7.0860874    142.25746   0.03161277  0.032784651            1 
  376000    1.1096705   -7.0820458    142.70091  0.031626974  0.032761385            2 
  377000    1.0948149    -7.066531    142.84729  0.031575441  0.032738391            1 
  378000     1.112716     -7.07626    143.09988  0.031547592   0.03271515            3 
  379000    1.0807645   -7.1242021    143.20049  0.031486476  0.032691876            1 
  380000    1.0878325   -7.0904976    143.82115  0.031539726  0.032668239            1 
  381000    1.1163063   -7.0873108    144.85016  0.031682012  0.032646094            3 
  382000    1.1310879   -7.0744859    144.90185  0.031610352  0.032624422            2 
  383000    1.0843233   -7.1203708    144.67659  0.031478806  0.032602573            1 
  384000    1.0885423   -7.1186932    145.14887   0.03149932  0.032580478            1 
  385000    1.1050766   -7.1010832    145.09598  0.031406056  0.032557718            2 
  386000    1.0812858   -7.1251111    145.44815  0.031400723    0.0325352            2 
  387000    1.1024499   -7.1290605    145.92533  0.031422337  0.032512765            3 
  388000    1.1133496   -7.1095519    146.48046  0.031460581   0.03249126            3 
  389000    1.0825802   -7.0917825     146.4209  0.031366945  0.032469294            2 
  390000    1.0926253   -7.1045708    146.37838  0.031277431  0.032446284            2 
  391000    1.0816182    -7.078061    147.15907  0.031363826   0.03242362            3 
  392000    1.1126813   -7.1134974    147.39955  0.031334938  0.032401141            1 
  393000    1.0970838   -7.1119803    147.77184  0.031334147  0.032379244            3 
  394000    1.1099044   -7.1382874    147.77158  0.031254565   0.03235779            2 
  395000     1.076431    -7.140189    148.02491  0.031228885  0.032335227            2 
  396000    1.0990664   -7.1382861    148.46413  0.031242453  0.032312085            1 
  397000    1.0682369   -7.1166042    148.76998  0.031227955  0.032289467            2 
  398000    1.0844253   -7.1176897    148.77486  0.031150514  0.032266917            3 
  399000    1.1077555   -7.0957799    149.67903  0.031261284  0.032244151            3 
  400000    1.0929329   -7.1441592    149.12691  0.031068105  0.032220749            3 
  401000    1.0724655   -7.0844891    149.96824  0.031165469  0.032197543            3 
  402000     1.105965   -7.1052031    150.38205  0.031173725  0.032174782            1 
  403000     1.068964   -7.0646475     150.8209  0.031187117  0.032152568            1 
  404000    1.1052762   -7.0784818    150.69705  0.031084375   0.03212994            2 
  405000    1.0904862   -7.1252713    150.74518  0.031017527  0.032107259            2 
  406000    1.0781219   -7.0764957    150.85296  0.030963252  0.032084357            1 
  407000    1.0744189   -7.1063276    151.81023  0.031083176  0.032061506            2 
  408000    1.0782311   -7.1008657    151.77792  0.031000392  0.032038722            2 
  409000    1.0750834   -7.1352125    152.52388  0.031076585  0.032016469            1 
  410000    1.0972878   -7.1012548    152.50341  0.030996628  0.031995247            2 
  411000    1.1085203   -7.1204647    153.22756  0.031068038  0.031973915            5 
  412000    1.1191384   -7.1626993    152.54957  0.030855495  0.031952421            2 
  413000    1.0960794   -7.0865691    154.01893  0.031077266   0.03193141            3 
  414000    1.0996618   -7.1313894    154.09076  0.031016659  0.031910593            1 
  415000    1.1088671   -7.0997908    154.43864  0.031011776  0.031889858            2 
  416000     1.098715   -7.1134844      154.714  0.030992389   0.03186857            2 
  417000     1.087646   -7.1662108    154.62547  0.030900373  0.031847038            1 
  418000    1.1321856   -7.1191193    155.45076  0.030990982  0.031825921            1 
  419000    1.1078958   -7.0952238    155.82446   0.03099134  0.031805338            1 
  420000    1.0742622   -7.1237235    156.08083  0.030968419  0.031785518            3 
  421000     1.096014   -7.1153065    156.74193  0.031025719  0.031765455            1 
  422000     1.083445   -7.0870787    156.56937  0.030918123  0.031744968            2 
  423000    1.0870033   -7.1254298    156.98056  0.030926036  0.031724884            1 
  424000    1.0742319   -7.1626574    156.90957  0.030839146  0.031704308            2 
  425000    1.0909671   -7.1434526     157.0183  0.030787902  0.031683235            1 
  426000    1.0938124   -7.1686015    157.42192  0.030794585  0.031663252            5 
  427000      1.06701   -7.1459789    157.66504  0.030769913  0.031643107            2 
  428000    1.0792098   -7.1364521    158.15852  0.030794104  0.031622872            1 
  429000    1.0930851   -7.1494006    158.40143  0.030769509  0.031602958            2 
  430000    1.0822044   -7.1482521       159.29  0.030870155   0.03158305            4 
  431000    1.0803125   -7.1731111    158.90547  0.030724182  0.031562906            2 
  432000    1.1067334   -7.1463911    159.19806  0.030709501  0.031542695            1 
  433000    1.0598322   -7.1474809    159.94156  0.030781671  0.031522924            1 
  434000    1.0968695   -7.1089793    160.57463  0.030832303  0.031504014            3 
  435000    1.1066586   -7.1673494    160.66827  0.030779362  0.031485034            1 
  436000    1.0728753   -7.1653223    160.93628  0.030759992  0.031465964            2 
  437000    1.0832599   -7.1335243    161.11038  0.030722804  0.031447352            2 
  438000    1.0609608   -7.1640374    161.63198  0.030751899  0.031428314            2 
  439000    1.0646506   -7.1740925    161.05018  0.030571409  0.031408733            1 
  440000    1.0853537   -7.1975669    161.62641  0.030611062  0.031388896            2 
  441000    1.0736276   -7.1413724     162.2758  0.030664362  0.031369426            2 
  442000    1.0702522   -7.1594413     162.3273  0.030604695  0.031349723            2 
  443000    1.0758772   -7.1745392    162.44177  0.030557142  0.031329957            3 
  444000    1.0776886   -7.1514399    162.85497  0.030565874  0.031310341            1 
  445000    1.0711885   -7.1527622    162.77513  0.030482235  0.031290147            1 
  446000    1.0753251   -7.1565687       163.42   0.03053438  0.031270621            1 
  447000    1.0771334   -7.1472857    163.85215  0.030546635  0.031251327            3 
  448000    1.0760642   -7.1944193    163.77183  0.030463509  0.031231817            5 
  449000    1.0888256    -7.137007    164.33259  0.030499738  0.031212424            1 
  450000    1.0617522   -7.1245931    165.35372  0.030621059  0.031193523            2 
  451000     1.069307   -7.1476264     165.2002  0.030524797  0.031175323            2 
  452000    1.0664623   -7.0930002    165.75193  0.030558983  0.031157285            1 
  453000    1.0604802   -7.1758471    165.82895  0.030505694  0.031139506            2 
  454000    1.0566417   -7.1392798    166.40981   0.03054512  0.031121536            2 
  455000    1.1065866   -7.1687965    166.85105    0.0305588  0.031103665            2 
  456000    1.0506863   -7.1793836    167.21001  0.030557385  0.031086352            2 
  457000    1.0873766   -7.1738218    167.29984    0.0305069  0.031069052            1 
  458000     1.104042   -7.1575715    167.49692  0.030476151  0.031051567            1 
  459000    1.0761715   -7.1725157    167.76118   0.03045773  0.031034633            1 
  460000    1.0983897   -7.1350806    167.99547  0.030433962  0.031017625            3 
  461000    1.0490707   -7.1724549    168.23977  0.030412106  0.030999437            2 
  462000    1.0558719   -7.1678933    167.84837  0.030275679   0.03098084            1 
  463000    1.0651074   -7.1751381    168.38143  0.030306233  0.030962548            2 
  464000    1.0670083    -7.134202    168.99681  0.030351439  0.030944581            1 
  465000    1.0715399   -7.1737195    169.14047  0.030311912  0.030926691            2 
  466000    1.0483703   -7.1466605    169.56647  0.030323045  0.030908541            4 
  467000    1.0598907   -7.1677896    169.78258  0.030296677  0.030890179            2 
  468000    1.0687992   -7.1486091    169.93041  0.030258264   0.03087175            2 
  469000    1.0634856   -7.1820728    170.32928  0.030264619  0.030853662           12 
  470000    1.0446963   -7.1618918    170.84187  0.030291111  0.030835447            3 
  471000    1.0675901   -7.1855856    170.72742   0.03020655  0.030817643            2 
  472000    1.0833922   -7.1938098    171.07114  0.030203239  0.030799279            3 
  473000    1.0752548   -7.2267928    170.39033  0.030019438  0.030780215            1 
  474000    1.0752652   -7.2153216    171.38458  0.030130904  0.030760788            1 
  475000    1.0612739   -7.1590735    172.14704  0.030201235  0.030742165            1 
  476000     1.060758   -7.1578142     171.8367  0.030083456  0.030724621            3 
  477000    1.0659978   -7.1956984     172.1516  0.030075402   0.03070637            1 
  478000    1.0688241   -7.1878846    172.22526  0.030025324  0.030687575            1 
  479000    1.0580475   -7.1682787    172.94121  0.030087197   0.03066856            2 
  480000    1.0805169   -7.1955069    173.11037  0.030053884  0.030649629            2 
  481000    1.0568602   -7.1609506    173.55001  0.030067569  0.030631011            5 
  482000    1.0611622   -7.1743445    173.81753  0.030051439  0.030612513            1 
  483000     1.065012   -7.2076893    173.94195  0.030010689  0.030594207            2 
  484000    1.0589491   -7.1608415    173.83284  0.029929897  0.030575645            2 
  485000    1.0708053   -7.1649285    174.79079  0.030032782  0.030557552            3 
  486000    1.0358971   -7.1982986    174.60708  0.029939485  0.030539187            1 
  487000    1.0624837   -7.1677894    175.29009  0.029994881  0.030520679            2 
  488000    1.0656691   -7.1941635    174.52391  0.029802581  0.030501553            2 
  489000    1.0782163   -7.1618036    174.89345  0.029804611  0.030482183            3 
  490000    1.0594365   -7.1647941    174.82833  0.029732709  0.030462733            3 
  491000    1.0377028   -7.2031173    175.57585  0.029799024  0.030443056            1 
  492000    1.0572101    -7.204923    175.58878  0.029740647  0.030423365            2 
  493000    1.0631994   -7.1982926    176.10579  0.029767713  0.030403914            2 
  494000    1.0379651   -7.2293267    176.14031  0.029713277  0.030384802            2 
  495000    1.0590323   -7.1728585    177.07896  0.029811272  0.030365937            1 
  496000    1.0628822   -7.1696561    177.57115  0.029833863  0.030347134            2 
  497000    1.0514048   -7.2186609    177.46434  0.029755925  0.030328737            2 
  498000    1.0471146    -7.188786    178.00418  0.029786509  0.030309846            1 
  499000    1.0410442   -7.1952881    177.46929   0.02963749  0.030290679            1 
  500000    1.0403349    -7.226211    177.78084  0.029630141  0.030271886            3 
  501000    1.0530302   -7.2043207    177.77185  0.029569503  0.030252537            2 
  502000    1.0583413   -7.2114551    178.16821  0.029576396   0.03023312            5 
  503000    1.0763108   -7.2196289     178.9079  0.029640143  0.030213819            1 
  504000    1.0651284   -7.1899549    178.63664  0.029536481  0.030194646            4 
  505000    1.0762553   -7.2354456    178.74573  0.029495994  0.030175619            3 
  506000    1.0400881   -7.1807924    180.18818  0.029675261  0.030156778            1 
  507000    1.0366022   -7.2241038    179.87625  0.029565459    0.0301384            1 
  508000    1.0406066   -7.1985423    180.08297  0.029541169  0.030120061            1 
  509000    1.0497994   -7.2429387    180.68915  0.029582375   0.03010134            2 
  510000    1.0268783   -7.2135889    180.60408   0.02951047  0.030082956            1 
  511000    1.0358472   -7.2105832    180.76129  0.029478358  0.030064521            1 
  512000    1.0460234   -7.1888322    181.42848  0.029529375  0.030046204            1 
  513000    1.0405406   -7.1664402    181.77339  0.029527841  0.030027601            2 
  514000    1.0711393   -7.1953898    181.52356  0.029429889   0.03000942            1 
  515000    1.0627688   -7.1997582    182.00568  0.029450757  0.029990673            2 
  516000     1.025264   -7.2164965    181.87636  0.029372797  0.029972345            2 
  517000    1.0590187   -7.1740625    182.78552  0.029462528  0.029954443            2 
  518000    1.0444749   -7.1854135    183.27756  0.029484807  0.029936363            2 
  519000    1.0460869   -7.2191434    183.14229  0.029406277  0.029918281            3 
  520000    1.0472315   -7.1729534     184.0831  0.029500497  0.029900329            1 
  521000    1.0340336   -7.2750122    182.95212  0.029262975  0.029881896            3 
  522000    1.0472066   -7.2311075    183.34565   0.02926974  0.029863421            4 
  523000    1.0540654   -7.2162023    184.44409  0.029388797  0.029844948            1 
  524000    1.0477327   -7.2446579    183.90861  0.029247553  0.029826313            2 
  525000    1.0345368    -7.217626    183.82331  0.029178303  0.029807107            2 
  526000    1.0230998   -7.1816882    184.84893  0.029285319  0.029788017            5 
  527000    1.0507639   -7.2369122    184.61338  0.029192501  0.029769592            2 
  528000    1.0518772   -7.2173145    184.91714  0.029185155  0.029750691            2 
  529000    1.0438822   -7.1971834    185.21471   0.02917686  0.029731741            3 
  530000     1.056816   -7.2087993    185.22507  0.029123438  0.029713158            3 
  531000    1.0348761    -7.208624    185.36866  0.029091127   0.02969406            3 
  532000    1.0468317   -7.1890321    185.34746  0.029033123  0.029674429            2 
  533000    1.0372432   -7.2240462    185.54481  0.029009507  0.029654938            4 
  534000    1.0527583   -7.2166243     186.2134  0.029059519  0.029635536            1 
  535000    1.0413005   -7.1987496    186.88371  0.029109612  0.029616452            1 
  536000    1.0354153   -7.2314154    186.74296   0.02903342  0.029597509            2 
  537000    1.0600901    -7.194651    187.39295  0.029080222    0.0295785            2 
  538000    1.0640467   -7.2189561    187.34837  0.029019263  0.029559174            1 
  539000    1.0504599   -7.2435568    187.27787  0.028954525  0.029539916            3 
  540000    1.0268693   -7.2428711    187.47433  0.028931223  0.029520873            3 
  541000    1.0390034   -7.2389481     187.3622  0.028860474  0.029501678            3 
  542000    1.0510204   -7.2612186    188.05782  0.028914178  0.029482512            2 
  543000    1.0332258   -7.1882155    188.04517  0.028858989  0.029463466            1 
  544000    1.0605903   -7.2531239    188.09188  0.028813095  0.029444153            3 
  545000    1.0207304   -7.2426293    188.67179  0.028848897  0.029424505            2 
  546000    1.0360439   -7.2351854    189.03531  0.028851543   0.02940497            2 
  547000     1.045458   -7.2223388    189.59989   0.02888481  0.029385667            3 
  548000    1.0374485    -7.243231    189.79863  0.028862322  0.029366267            2 
  549000    1.0294494   -7.2006681    189.81083  0.028811601  0.029347386            2 
  550000    1.0377004    -7.235732    190.05914  0.028796839  0.029328395            1 
  551000    1.0527518   -7.2242723    189.99874  0.028735441  0.029308741            1 
  552000    1.0069404   -7.2452958    190.13821  0.028704441   0.02928939            1 
  553000    1.0513749   -7.2951512    190.71239  0.028739058  0.029270073            2 
  554000    1.0105722   -7.2261346     191.0205  0.028733529  0.029251148            1 
  555000    1.0026657   -7.2664527    191.10958  0.028695132  0.029232653            3 
  556000    1.0583703   -7.2793643    191.21986   0.02866005  0.029213843            2 
  557000    1.0448334   -7.2346157    191.92536  0.028714146  0.029194876            2 
  558000    1.0443462   -7.2313963    192.46722  0.028743611  0.029176772            2 
  559000    1.0343119    -7.242919    192.62562  0.028715805  0.029158784            2 
  560000     1.016494   -7.2851596    192.62342    0.0286642  0.029140406            6 
  561000    1.0469099   -7.2542443    193.24602  0.028705589  0.029121968            2 
  562000    1.0379115   -7.2897547    193.18314  0.028645187  0.029104237            2 
  563000    1.0176417   -7.2650959    193.53427  0.028646281  0.029086287            1 
  564000    1.0366342   -7.2436049    194.21177  0.028695593  0.029068322            2 
  565000    1.0433816    -7.245281    194.11989  0.028631253  0.029050425            3 
  566000    1.0578204   -7.2507821    194.08593  0.028575667  0.029032063            1 
  567000     1.019905   -7.2529697    193.91261  0.028499795  0.029013645            4 
  568000    1.0459576   -7.2299611    195.02888  0.028613392  0.028995058            2 
  569000    1.0110497   -7.2355871    195.14392  0.028579953  0.028976823            2 
  570000    1.0085443   -7.2311517    195.22534  0.028541717  0.028958142            1 
  571000    1.0280405   -7.2901613    194.80255  0.028430027  0.028939211            3 
  572000    1.0147607   -7.2658655    195.24757  0.028445158  0.028920163            4 
  573000    1.0336437    -7.295565    195.26107  0.028397479  0.028901102            2 
  574000     1.050812   -7.2561951    195.23679  0.028344482  0.028882109            4 
  575000    1.0054401   -7.2575366    195.42592  0.028322597   0.02886322            3 
  576000    1.0250065   -7.2373771    196.08117  0.028368225   0.02884437            1 
  577000    1.0332561   -7.2375127    196.96369  0.028446518  0.028825777            3 
  578000    1.0076279    -7.232708    196.59112  0.028343588  0.028807228            1 
  579000    1.0050651    -7.260311    196.44825  0.028274071  0.028788361            3 
  580000   0.99340417   -7.2711509    196.91676  0.028292638  0.028769598            3 
  581000    1.0239717   -7.2795473    197.00307  0.028256322  0.028750583            3 
  582000    1.0284047   -7.3066769    196.87386   0.02818927  0.028731529            2 
  583000    1.0194116   -7.2617273    197.33694  0.028207109  0.028712191            1 
  584000    1.0250682    -7.250078    197.35244  0.028161022   0.02869275            2 
  585000   0.99396698   -7.2477921    197.25268  0.028098673  0.028673344            2 
  586000    1.0508641    -7.251707    197.66586   0.02810948  0.028654041            2 
  587000    1.0125453   -7.2605788    197.69974  0.028066403  0.028634429            1 
  588000    1.0338853   -7.3021569    197.63163  0.028009018  0.028615121            1 
  589000    1.0120435   -7.2785262    198.51366  0.028086256  0.028595766            1 
  590000    1.0258712   -7.2748471    198.92469  0.028096708  0.028576531            3 
  591000    1.0341966    -7.259106    199.61631  0.028146688  0.028557845            2 
  592000    1.0206649   -7.2262138    199.75555  0.028118743  0.028538908            1 
  593000   0.99867886   -7.3070209    199.31992  0.028010107  0.028519831            2 
  594000    1.0102309   -7.2791953    199.30131  0.027960342  0.028501338            2 
  595000    1.0279634   -7.2633943    199.71197  0.027970864  0.028482881            1 
  596000    1.0329685   -7.2878029    200.58932  0.028046605  0.028464412            2 
  597000    0.9993618   -7.2610012    201.04584   0.02806335  0.028446094            1 
  598000    1.0135857   -7.2823056    201.05363  0.028017507  0.028427691            3 
  599000    1.0313922   -7.3001462    201.34388  0.028011113  0.028409333            2 
  600000    1.0128593   -7.2780365    201.38766  0.027970508  0.028390867            2 
  601000    1.0076679   -7.2774747    202.00034  0.028008922  0.028372815            1 
  602000    1.0101517   -7.3164407    201.22314  0.027854809  0.028354537            2 
  603000    1.0223434   -7.2978796     202.2377  0.027948826   0.02833618            3 
  604000    1.0157756   -7.2895554    202.58899   0.02795102  0.028318038            1 
  605000   0.99011341   -7.2866287     202.3011  0.027865165  0.028299779            1 
  606000    1.0207403   -7.2668188    203.35495  0.027964102  0.028281889            1 
  607000    1.0169861   -7.2842132    203.65287  0.027958933  0.028264319            2 
  608000     1.012295   -7.2725231    203.47979  0.027889226  0.028246429            3 
  609000    1.0220045   -7.3219027    203.66034  0.027868136  0.028228289            1 
  610000    1.0094859   -7.2896305    204.26684  0.027905306  0.028210586            4 
  611000    1.0273658   -7.2976187    204.45951  0.027885912  0.028193022            2 
  612000    1.0090487   -7.3389268    204.66876   0.02786884   0.02817534            7 
  613000    1.0060797   -7.3227228    204.64934  0.027820737  0.028158045            1 
  614000    1.0058773   -7.2761004    205.98197  0.027956294  0.028140817            2 
  615000    1.0021514   -7.2652151    205.12561  0.027794798  0.028123494            2 
  616000    1.0036081   -7.3159425    205.43187  0.027791108  0.028105857            3 
  617000    1.0088576   -7.3165742    205.55381  0.027762536  0.028088083            1 
  618000    1.0115065   -7.3227495    205.86351  0.027759373  0.028070457            2 
  619000    1.0248952   -7.2616638     206.4928  0.027799245  0.028053028            2 
  620000    1.0116993   -7.2836048    206.91992  0.027811818  0.028035695            2 
  621000   0.98496761   -7.3234536    206.33215  0.027688157  0.028018799            1 
  622000   0.99285647   -7.3227911    206.84586  0.027712467  0.028001507            2 
  623000    1.0195917   -7.2989782    207.34757  0.027735095  0.027984174            5 
  624000   0.99590081   -7.3120597    207.47152    0.0277072  0.027967077            2 
  625000   0.99791583   -7.2967848    207.34996  0.027646661  0.027949829            4 
  626000    0.9826964   -7.2936118    207.65371  0.027642933  0.027932672            1 
  627000    1.0101799   -7.2820856      208.316  0.027686869  0.027915515            1 
  628000    1.0224548   -7.2943923    208.64415  0.027686326  0.027898204            1 
  629000    1.0077045   -7.3281142    208.22711  0.027587057  0.027881095            2 
  630000   0.99506371   -7.3268922    208.28495   0.02755092  0.027863589            2 
  631000    1.0074668   -7.3378688    208.45286  0.027529432  0.027846121            1 
  632000    1.0000875   -7.3204662    208.71617  0.027520592  0.027828494            1 
  633000   0.99165356   -7.3075133    209.50826  0.027581393  0.027811142            2 
  634000    1.0202003   -7.2389814     209.1795  0.027494677  0.027793609            2 
  635000    1.0014721   -7.3140596    209.37524  0.027477065  0.027776449            2 
  636000   0.98177865   -7.2980029    209.75141  0.027483151  0.027759058            1 
  637000   0.99419334   -7.2967427    209.64976  0.027426709  0.027741931            2 
  638000    1.0088675   -7.3217796    210.24677    0.0274617  0.027724839            2 
  639000    0.9937683   -7.3057475    210.51917  0.027454247  0.027707841            2 
  640000    1.0046298   -7.3054409    210.88865   0.02745946  0.027690769            2 
  641000   0.99202708   -7.3097623    210.48832  0.027364576  0.027673561            1 
  642000   0.97681236   -7.3155205    211.88872  0.027503727  0.027656909            3 
  643000   0.99255677   -7.2944148    211.58414   0.02742148  0.027640214            3 
  644000    1.0155709   -7.3259821    211.75436  0.027400926  0.027623546            2 
  645000    1.0081677   -7.3444345    211.47782  0.027322716  0.027606654            3 
  646000    1.0039371   -7.3681581    211.91428  0.027336723   0.02758944            2 
  647000   0.99071648    -7.333842     212.4146  0.027358913  0.027572539            4 
  648000   0.99299981    -7.351986    212.53982  0.027332796  0.027555556            2 
  649000    1.0224934   -7.3142386    212.77006  0.027320244  0.027538916            2 
  650000   0.99660739   -7.3379209    213.69639  0.027396973  0.027522463            1 
  651000    1.0006133   -7.3295183    212.99853  0.027265557  0.027506281            1 
  652000    1.0127045   -7.3402584     214.2006  0.027377378  0.027489685            5 
  653000    1.0014794   -7.3647505    213.04125    0.0271875  0.027473259            3 
  654000   0.99500423   -7.3636365    213.73826  0.027234743  0.027456539            5 
  655000   0.99757461   -7.3295364    214.42751  0.027280854  0.027440048            1 
  656000     0.983064    -7.346986    214.76307  0.027281894  0.027423484            2 
  657000   0.98769708    -7.353035    214.46719  0.027202841  0.027406922            1 
  658000    0.9697927    -7.358332    214.68757  0.027189409  0.027389959            2 
  659000   0.99384116   -7.3434858    215.40159  0.027238441  0.027373206            2 
  660000   0.96942832    -7.356528     214.1339  0.027037109  0.027356283            2 
  661000    1.0082639   -7.3248868      215.218  0.027132879   0.02733937            2 
  662000   0.98060666    -7.329642    214.87784  0.027049073  0.027322665            1 
  663000   0.99521167   -7.3539359    216.02223  0.027152116   0.02730603            2 
  664000   0.99837163   -7.3962158    215.58906   0.02705686   0.02728915            3 
  665000    1.0071821   -7.3113396    216.69049  0.027154197  0.027272648            2 
  666000    0.9920292   -7.2942376     217.4316  0.027206156  0.027256519            2 
  667000   0.99063035   -7.3432309    216.50879  0.027050074  0.027240247            1 
  668000   0.98627291   -7.3274694    216.98745  0.027069293  0.027223919            2 
  669000   0.99832727   -7.3431144    217.14619  0.027048604  0.027207604            1 
  670000   0.99640451   -7.3615837    218.24863  0.027145352  0.027191437            1 
  671000   0.98459004   -7.3611102    217.23468  0.026978971  0.027175176            1 
  672000    1.0123841   -7.3577938    218.01011  0.027034983   0.02715894            2 
  673000   0.97433643   -7.3393192    218.73003  0.027083957  0.027143195            2 
  674000   0.95614067   -7.3642079    217.93766  0.026945804  0.027127228            1 
  675000   0.97800029   -7.3659466    218.05724  0.026920647    0.0271109            3 
  676000   0.97088639   -7.3399715    218.65686  0.026954741  0.027094576            3 
  677000    0.9888085   -7.3513026    218.73572  0.026924633  0.027078302            2 
  678000   0.99442077   -7.3455524    219.29581  0.026953763  0.027061874            2 
  679000   0.99387425   -7.3433909    219.40281  0.026927197  0.027045614            3 
  680000   0.98518592   -7.3758414    219.50586  0.026900227  0.027029249            2 
  681000   0.97730338   -7.3709603    218.91873  0.026788881  0.027012875            1 
  682000   0.96775931   -7.3566735    219.53443  0.026824832  0.026996579            6 
  683000   0.98991331   -7.3405678    219.86833  0.026826297  0.026980446            3 
  684000   0.97126097   -7.3772588    219.62823  0.026757825  0.026964079            1 
  685000   0.98296782   -7.3841215    219.87977  0.026749364  0.026947326            3 
  686000    0.9820685   -7.3996561     219.9705  0.026721392  0.026930737            3 
  687000   0.97437488   -7.3894043    220.68122  0.026768707  0.026914135            1 
  688000   0.98695868   -7.3780363    220.85839  0.026751259  0.026897367            2 
  689000   0.98796401    -7.334281    220.63047  0.026684866  0.026880481            1 
  690000   0.95547995   -7.3958821    220.29718   0.02660594  0.026863603            2 
  691000   0.97772481    -7.390614    221.07562  0.026661314   0.02684678            2 
  692000    1.0067608   -7.3386664    221.76035  0.026705245   0.02683036            1 
  693000   0.99603967   -7.3821956    222.31313   0.02673318  0.026814274            2 
  694000   0.95268836   -7.3976249    221.30391  0.026573476  0.026797885            1 
  695000   0.97017824   -7.3599086    222.71274  0.026704165  0.026781451            2 
  696000   0.96673552   -7.3816036     222.3292  0.026619876  0.026764919            1 
  697000   0.94622212   -7.3914805    222.14107   0.02655919  0.026748603            2 
  698000   0.96195681   -7.3611725    222.68931  0.026586594  0.026731863            1 
  699000    0.9496595    -7.345693    222.41736  0.026516137  0.026715152            1 
  700000   0.95788832   -7.4165482    222.60173  0.026500206  0.026698344            4 
  701000   0.97977863    -7.402972    223.13403  0.026525682  0.026681591            2 
  702000   0.96149054   -7.3709438    223.35912  0.026514615  0.026664929            3 
  703000   0.96121452    -7.386056    223.38722   0.02648023  0.026648356            1 
  704000   0.95577287   -7.4263281    222.85749  0.026379911  0.026631703            1 
  705000   0.98198154   -7.3630612    223.93747   0.02647015  0.026614869            2 
  706000   0.97664091   -7.3601755    224.19663  0.026463247  0.026598484            1 
  707000   0.98250886   -7.3741997    224.44677    0.0264553  0.026582236            2 
  708000   0.97958639   -7.3713011    224.75439  0.026454142  0.026565808            1 
  709000   0.97568991   -7.3688332    225.08135   0.02645526   0.02654933            4 
  710000    1.0106812   -7.4331828    224.47594  0.026346941  0.026533055            3 
  711000   0.96717164   -7.3853905    225.03534   0.02637545   0.02651668            2 
  712000   0.95589931    -7.383927    225.21556    0.0263595  0.026500549            2 
  713000   0.98944206   -7.3822733     225.3393  0.026336992  0.026484456            2 
  714000   0.98919485   -7.3927661    226.31422  0.026413891    0.0264682            2 
  715000   0.96939539   -7.3857097    225.88359  0.026326759  0.026451991            2 
  716000   0.95349404   -7.3847186    225.91309  0.026293423  0.026435578            2 
  717000   0.97832447   -7.3576096    225.74361  0.026237053  0.026419008            3 
  718000   0.96675335   -7.3719318    226.55045  0.026294156  0.026402389            2 
  719000   0.96025869   -7.3424105    226.92965  0.026301536  0.026386074            1 
  720000   0.97792673   -7.4219108    226.65392  0.026233093  0.026369819            2 
  721000   0.97304534   -7.3691846    226.71687  0.026203984  0.026353361            2 
  722000   0.98486682   -7.4117793    226.56524   0.02615019  0.026337027            2 
  723000   0.97803253   -7.4216366    227.22846  0.026190463  0.026320425            1 
  724000   0.97584313   -7.4004795    226.51856  0.026072578  0.026303644            2 
  725000   0.97221375   -7.3946918    227.34976  0.026132156  0.026286747            2 
  726000   0.96881289    -7.391036    227.06299  0.026063245  0.026269999            2 
  727000     0.981828   -7.3891241    227.68181  0.026098328  0.026253497            2 
  728000   0.95481489   -7.4462327    227.11617   0.02599773  0.026236789            3 
  729000   0.96431779   -7.3964676    227.91137  0.026052968  0.026220271            3 
  730000   0.96572727   -7.4363761    228.39213  0.026072161  0.026203567            2 
  731000   0.97983234    -7.399426    228.25968  0.026021395  0.026186944            4 
  732000   0.93283211   -7.3757028    228.80759  0.026048223   0.02617053            1 
  733000   0.94521594   -7.4042389     229.0613  0.026041531  0.026154278            2 
  734000    0.9633698   -7.3668485    228.94966  0.025993377  0.026138067            2 
  735000   0.95897373   -7.3952632    229.19155  0.025985436   0.02612186            1 
  736000   0.95753438   -7.4050166    229.58491  0.025994668  0.026105608            2 
  737000   0.94919563   -7.3835629    229.60915  0.025962139  0.026089066            1 
  738000   0.94633577    -7.409508     229.7323  0.025940865  0.026072452            3 
  739000   0.92995578   -7.3475337    230.79554  0.026025659  0.026055916            2 
  740000   0.94480736   -7.4118914    230.33083  0.025938157  0.026039496            1 
  741000   0.97798959   -7.4251335    230.60331  0.025933796  0.026023171            5 
  742000   0.94919904   -7.3997137    230.88808  0.025930826  0.026006728            1 
  743000   0.94575923   -7.4393611    230.34415  0.025834921  0.025990261            3 
  744000   0.94172031   -7.4461958    230.36999   0.02580309  0.025973522            2 
  745000   0.93962602   -7.4330504    230.68332  0.025803503  0.025957013            1 
  746000   0.95956107   -7.4074108    230.72246  0.025773287  0.025940465            1 
  747000   0.97726348   -7.3996741    231.45844  0.025820888  0.025924156            4 
  748000   0.95883135   -7.4715356    231.64146  0.025806757  0.025907734            1 
  749000     0.951791   -7.4152811    231.75406   0.02578483  0.025891181            2 
  750000   0.95967223   -7.4061751    231.65229  0.025739144  0.025874386            1 
  751000   0.94485953   -7.4023478      231.644  0.025703951  0.025857744            1 
  752000   0.98457896   -7.4216885    232.08004  0.025718089  0.025841155            3 
  753000    0.9682245   -7.4105416    232.61979  0.025743669  0.025824527            2 
  754000   0.94537823   -7.4324665    232.24604  0.025668219  0.025807834            1 
  755000   0.96495429   -7.4233804    231.95957  0.025602601  0.025790969            3 
  756000   0.98528511   -7.4546493    232.06277  0.025580111  0.025773885            1 
  757000    0.9426649   -7.4559251    231.81462  0.025519002  0.025756916            2 
  758000   0.97581481   -7.4265318     232.4608  0.025556377  0.025739847            2 
  759000   0.96088145   -7.4435328    233.36429  0.025621903   0.02572307            1 
  760000   0.95443754     -7.44013    233.63131  0.025617469  0.025706482            3 
  761000   0.94386618   -7.4539221    233.27244  0.025544507  0.025690054            2 
  762000   0.94178701   -7.4728967    233.36443  0.025521044  0.025673463            2 
  763000   0.94883451   -7.4615066     233.3318  0.025484033  0.025656846            2 
  764000   0.97465681   -7.4377424    233.67791  0.025488428  0.025640105            3 
  765000   0.95077781   -7.4498917    233.85903   0.02547484  0.025623395            2 
  766000   0.95347569   -7.4294328    233.83225   0.02543867  0.025606523            2 
  767000   0.95881081   -7.4018706    234.35928  0.025462764   0.02558985            1 
  768000    0.9515195   -7.4361423    234.55465  0.025450809  0.025573257            3 
  769000   0.94990949   -7.4187932    234.40091  0.025401052  0.025556587            2 
  770000    0.9496972   -7.4499671     234.1367   0.02533947  0.025539905            3 
  771000   0.93307732   -7.4412219    233.93823  0.025285152  0.025522914            1 
  772000   0.95136815   -7.4368189    234.75781  0.025340869  0.025506089            2 
  773000   0.94023276   -7.4602361     234.2489  0.025253223  0.025489082            2 
  774000   0.91255521   -7.4241408    235.38691  0.025343121  0.025472169            5 
  775000   0.94243688   -7.4554817     234.9684  0.025265419   0.02545537            2 
  776000   0.93230206   -7.4719907    235.37605  0.025276638  0.025438581            1 
  777000    0.9299851   -7.4286306    234.98965  0.025202665  0.025421672            3 
  778000   0.92462153   -7.4562607    234.44071  0.025111472   0.02540471            3 
  779000   0.94445371   -7.4569877    235.47106  0.025189458  0.025387415            2 
  780000   0.92358686   -7.4282085    236.07111  0.025221273  0.025370551            3 
  781000   0.93717355   -7.4393887    235.92372  0.025173253  0.025353845            2 
  782000   0.94574912   -7.4028021    236.45803     0.025198  0.025337174            5 
  783000   0.94784906    -7.405903    237.06682   0.02523061   0.02532043            3 
  784000   0.94048196   -7.4421534    236.71558  0.025161095  0.025303581            1 
  785000   0.94983948   -7.4653761    237.04739  0.025164266   0.02528665            2 
  786000   0.94614497   -7.4475769    236.82727  0.025108913  0.025269783            4 
  787000   0.95965068   -7.4356068     237.4629  0.025144314  0.025253084            2 
  788000    0.9252032   -7.4828618    236.90509  0.025053415  0.025236493            2 
  789000   0.95065104   -7.4792844    237.14483  0.025046983  0.025219688            4 
  790000   0.93884683   -7.4653802    237.96148  0.025101422  0.025202921            2 
  791000   0.92486675   -7.4359081    238.30745  0.025106137    0.0251863            2 
  792000   0.93411709    -7.449087     238.1165  0.025054345  0.025169598            3 
  793000   0.93854462   -7.4687415    237.28322  0.024935185  0.025152892            3 
  794000   0.93092394   -7.4414171    238.16093  0.024995899  0.025136041            6 
  795000   0.93557734   -7.4551312    237.98478  0.024945994  0.025119102            2 
  796000   0.93793861   -7.4531975    238.56598  0.024975501  0.025102359            2 
  797000   0.94311474   -7.4861402    237.90531  0.024875084  0.025085342            1 
  798000   0.92493628   -7.4904295    238.51135  0.024907201   0.02506818            3 
  799000   0.93552158   -7.4833818    239.10596  0.024938044  0.025051216            1 
  800000   0.95585322   -7.4633199    238.66382  0.024860814  0.025034175            1 
  801000   0.92124148   -7.4361676    239.70686  0.024938291  0.025017403            3 
  802000   0.94633558   -7.4649337    239.63482  0.024899711  0.025000628            3 
  803000   0.95093377   -7.4513434    239.41444  0.024845832   0.02498397            1 
  804000   0.92655449   -7.4550158    239.70982  0.024845545  0.024967238            2 
  805000   0.95104364   -7.4619924    239.84867  0.024829055  0.024950807            1 
  806000   0.94333841   -7.4596618    240.30972  0.024845918  0.024934198            1 
  807000   0.94516506   -7.4874321    240.13435  0.024797021  0.024917709            4 
  808000   0.93504129   -7.4647001    239.72409  0.024724019  0.024901028            4 
  809000   0.92945011    -7.445838    240.45087  0.024768322  0.024884268            3 
  810000   0.93836377   -7.4700014     240.4712  0.024739836  0.024867445            3 
  811000   0.93100289   -7.4894837    240.63016  0.024725663  0.024850464            2 
  812000   0.91870684   -7.4747562     241.2615  0.024760006   0.02483364            1 
  813000   0.95366095   -7.5006893    240.62538  0.024664348  0.024816684            3 
  814000   0.90447526   -7.4781985    240.98485  0.024670849  0.024799631            2 
  815000   0.92033126    -7.485109    241.32957  0.024675825   0.02478298            1 
  816000   0.91502675   -7.4960923    240.93355  0.024605142  0.024766242            3 
  817000   0.92061132   -7.4972393    240.88374  0.024569945  0.024749561            1 
  818000   0.93138028   -7.4966382    241.48734  0.024601399   0.02473287            1 
  819000   0.92141495   -7.5196401    241.43433  0.024565968  0.024716154            2 
  820000   0.94278729   -7.5180516    242.13111   0.02460682   0.02469941            3 
  821000    0.9132648   -7.4834304     241.6289  0.024525873  0.024682735            2 
  822000   0.91488652   -7.5212623    242.37192  0.024571362  0.024666186            2 
  823000   0.93203486   -7.4850737    242.65819  0.024570493  0.024649663            3 
  824000   0.90635596   -7.4803755    243.37724  0.024613394  0.024633111            3 
  825000    0.9178487    -7.488809    242.42044  0.024486913  0.024616651            2 
  826000   0.93224364    -7.475496    242.91272  0.024506933  0.024600048            2 
  827000   0.94186333   -7.5151991    242.19383  0.024404859  0.024583385            3 
  828000   0.93220465   -7.4954641    243.16117  0.024472742  0.024566616            5 
  829000   0.90200739   -7.4866668     243.0142  0.024428448  0.024549769            1 
  830000   0.92982189   -7.5197351    242.32256  0.024329574  0.024532766            2 
  831000   0.92144401   -7.4653561    243.39211  0.024407553  0.024516068            3 
  832000   0.94032909   -7.4859781    243.44254  0.024383267  0.024499486            2 
  833000   0.92006176    -7.478469    243.49586  0.024359329   0.02448283            3 
  834000   0.92847231   -7.5058165    243.57962  0.024338491  0.024466269            2 
  835000   0.92253707   -7.4520237    244.43643  0.024394853  0.024449664            2 
  836000   0.91216982   -7.4775339    243.94184  0.024316371  0.024433043            2 
  837000   0.91744174   -7.5096314    243.80264  0.024273461  0.024416336            1 
  838000   0.93443181   -7.4865666    244.34154  0.024298085  0.024399719            2 
  839000   0.90346218   -7.4887336     245.0514   0.02433963   0.02438332            3 
  840000   0.89473182     -7.46562    245.20505  0.024325898  0.024366876            2 
  841000   0.91066197   -7.5292519    244.76036  0.024252909  0.024350338            2 
  842000   0.91316548    -7.512927    244.39029  0.024187479  0.024333728            2 
  843000   0.92039146   -7.5020488    244.99304  0.024218371   0.02431715            2 
  844000   0.90893131   -7.4981148      245.138  0.024203989  0.024300516            3 
  845000   0.92221819   -7.5110328    245.58234  0.024219165   0.02428388            1 
  846000   0.92992298   -7.4821738    245.25249  0.024158047  0.024267336            1 
  847000   0.90491209   -7.5164968    245.85175  0.024188484  0.024250692            4 
  848000   0.91441463   -7.4953253    246.03987  0.024178446  0.024234287            5 
  849000   0.91015326   -7.5583326    245.25573  0.024073001  0.024217808            4 
  850000   0.90088567   -7.5325393    245.58033  0.024076503  0.024201187            1 
  851000    0.9125755   -7.5098494    245.41584  0.024032103  0.024184719            3 
  852000   0.91382072   -7.5303218    246.33275  0.024093579  0.024168369            2 
  853000    0.9125046   -7.5538123    246.48857  0.024080556  0.024151899            1 
  854000    0.9333162     -7.55105    246.91714  0.024094179  0.024135621            3 
  855000   0.92986108   -7.5254419    246.67942  0.024042829  0.024119056            3 
  856000   0.90883631   -7.5019319    246.25935  0.023973846  0.024102463            3 
  857000   0.90305928   -7.4956861    247.33695  0.024050656   0.02408603            2 
  858000   0.90356422   -7.5326376    247.06081  0.023995805  0.024069547            3 
  859000    0.8987302   -7.5327907    247.01396  0.023963325  0.024053009            3 
  860000   0.92143077   -7.5574758    246.70628  0.023905647  0.024036456            5 
  861000   0.90778824   -7.5155137     247.3075  0.023936072  0.024019817            2 
  862000   0.89225971     -7.52065    247.39312  0.023916582  0.024003279            3 
  863000   0.90664482   -7.5493593    247.54681  0.023903709  0.023986563            6 
  864000   0.91356456   -7.5523276    246.78712   0.02380277   0.02397001            2 
  865000   0.91694445   -7.5425656    247.21642  0.023816611  0.023953356            2 
  866000   0.91548879   -7.4948791    248.36634  0.023899763  0.023936862            1 
  867000    0.9099477   -7.5305165    248.41749  0.023877113  0.023920581            2 
  868000   0.88991744   -7.5208711    248.37206  0.023845244  0.023904105            3 
  869000   0.89652162   -7.5402267    248.17054  0.023798479  0.023887653            3 
  870000   0.92227933   -7.5567412    248.70779  0.023822585  0.023871032            4 
  871000   0.92384696   -7.5231681    248.72389  0.023796774  0.023854452            3 
  872000   0.87698668   -7.5449752    248.23353  0.023722623  0.023837939            4 
  873000   0.91412312   -7.5601965     248.9783  0.023766542  0.023821498            1 
  874000   0.90226064   -7.5169155    249.23677  0.023763994  0.023805041            2 
  875000   0.91413373   -7.5295558    249.61707  0.023773055  0.023788683            2 
  876000   0.90629497    -7.547283    249.75956  0.023759471  0.023772354            3 
  877000   0.91596247   -7.5566981    249.08012  0.023667818  0.023755986            1 
  878000   0.90112277   -7.5204379    250.03254  0.023731259  0.023739708            1 
  879000   0.89567516   -7.5271785    250.26332   0.02372614  0.023723616            2 
  880000   0.90038929   -7.5393591    249.52512  0.023629273  0.023707663            2 
  881000   0.92113279   -7.5000902    250.47678  0.023692469  0.023691699            2 
  882000   0.90575603   -7.5429967    250.50122  0.023667916  0.023675526            4 
  883000   0.89510889   -7.5359772    251.12405  0.023699891    0.0236595            5 
  884000   0.90272752   -7.5558891    251.18623  0.023678943  0.023643619            2 
  885000   0.91205932   -7.5602939    250.77647  0.023613603  0.023627694            2 
  886000   0.87576066   -7.5488117    250.57672  0.023568164  0.023611651            6 
  887000   0.90230062   -7.5467067    251.68136  0.023645374    0.0235956            6 
  888000    0.8899291   -7.5446048    251.75961  0.023626089  0.023579712            1 
  889000   0.88909789   -7.5405733    251.58851  0.023583475   0.02356377            2 
  890000   0.91386182   -7.5677452    251.25625  0.023525866   0.02354783            2 
  891000   0.89770843   -7.4983415    251.86907  0.023556778  0.023531914            2 
  892000   0.90548505    -7.542691    251.83679  0.023527353  0.023515891            3 
  893000   0.90347998   -7.5410227    251.59621  0.023478556  0.023499764            3 
  894000   0.88180691   -7.5542439        251.4  0.023434004  0.023483587            3 
  895000   0.89442619   -7.5670997       251.03  0.023373371  0.023467329            4 
  896000   0.88153862   -7.5763952    251.99207  0.023436762  0.023451113            7 
  897000   0.90348276   -7.5548598     252.5527  0.023462718  0.023434973            1 
  898000   0.87570723   -7.5164311    252.75269  0.023455149   0.02341907            2 
  899000    0.8845937   -7.5415578     253.1371  0.023464693  0.023403174            8 
  900000   0.89052922   -7.5946971    252.23142  0.023354761  0.023387229            2 
  901000   0.88587105   -7.5883946    252.72538  0.023374527  0.023371293            1 
  902000    0.8798732   -7.5593847    252.53429  0.023330958  0.023355372            5 
  903000   0.88025562   -7.5254316    253.62148  0.023405452  0.023339452            2 
  904000   0.90280215   -7.5751692    252.95309  0.023317947  0.023323455            2 
  905000   0.88968693   -7.5674853    253.20082  0.023314993  0.023307436            3 
  906000   0.92556086   -7.5996177    252.38507  0.023214226  0.023291296            2 
  907000   0.88113893   -7.5754293    253.19323  0.023262884  0.023275213            2 
  908000    0.8942625    -7.565867    253.18446  0.023236459  0.023259248            3 
  909000   0.90122457    -7.588658     253.6902  0.023257261  0.023243334            3 
  910000   0.87779765   -7.5880131    253.60268  0.023223688  0.023227327            2 
  911000    0.8858891   -7.5862911    253.98683  0.023233336   0.02321132            3 
  912000   0.88283275   -7.5321764    254.26723  0.023233483  0.023195623            3 
  913000   0.87511427   -7.5615221    254.72151  0.023249499   0.02317998            2 
  914000   0.90737204   -7.5666693    254.69712  0.023221838  0.023164338            1 
  915000   0.89387619   -7.5549718    255.15161  0.023237852  0.023148626            3 
  916000   0.88340199   -7.5726758    255.15258  0.023212571  0.023133076            1 
  917000   0.89662336   -7.5711038    255.30095  0.023200741  0.023117553            4 
  918000   0.88498513   -7.5968298    255.07853  0.023155277  0.023101895            1 
  919000   0.88507302   -7.5604072    255.25924  0.023146467  0.023086207            2 
  920000    0.8847825   -7.5718893    256.08571  0.023196169  0.023070655            2 
  921000   0.90146852   -7.5743833    255.33241  0.023102824  0.023055147            1 
  922000   0.87881532   -7.5560993    256.71413  0.023202651  0.023039671            2 
  923000   0.88477652   -7.5860014    255.73209  0.023088849   0.02302416            2 
  924000   0.88967398   -7.5785061    256.26072  0.023111537  0.023008645            2 
  925000   0.88897455   -7.5995078    255.86922  0.023051281  0.022992992            2 
  926000   0.86875136   -7.5875198    255.46412  0.022989931  0.022977355            2 
  927000   0.88603353   -7.6043245    255.97428  0.023010992  0.022961803            2 
  928000   0.87720291   -7.5764064     256.2423  0.023010264  0.022946323            2 
  929000   0.90217509   -7.5785823    256.21977  0.022983475  0.022930783            3 
  930000   0.86373646   -7.6081805    256.18855  0.022955964  0.022915191            2 
  931000   0.88809593   -7.5996717    256.13133  0.022926184  0.022899615            2 
  932000   0.88286626   -7.6004694    256.57133  0.022940927   0.02288391            1 
  933000   0.88315076   -7.6315722    255.08454  0.022783543  0.022868196            1 
  934000   0.87204816   -7.6071227    256.60479  0.022894788  0.022852472            2 
  935000    0.8857923   -7.6104844    257.06278  0.022911121  0.022836901            2 
  936000   0.89023845   -7.5915165    257.09237  0.022889278  0.022821372            1 
  937000   0.89032976   -7.5868036    257.93456  0.022939751  0.022805918            3 
  938000   0.88101523    -7.580019    257.40469  0.022868221  0.022790419            2 
  939000   0.88409119   -7.5705822    257.79899   0.02287886   0.02277496            3 
  940000   0.88463098   -7.5809112    257.69825  0.022845589  0.022759448            2 
  941000   0.85700443    -7.582048    258.02888  0.022850592  0.022744116            1 
  942000   0.88949128   -7.5941146    258.00684  0.022824385  0.022728903            3 
  943000    0.8824226   -7.6217209    257.94148  0.022794404  0.022713493            3 
  944000   0.89129164   -7.5943981    258.37644  0.022808655    0.0226982            2 
  945000   0.87566277   -7.5949833      258.154  0.022764903  0.022682733            2 
  946000   0.88778477   -7.5621302    258.47741  0.022769328  0.022667328            3 
  947000    0.8900729   -7.5668444    257.72538  0.022679108  0.022651854            4 
  948000   0.88896899   -7.6042443    257.94856  0.022674803   0.02263638            2 
  949000   0.88514821   -7.6206999    258.31917  0.022683454  0.022620905            2 
  950000   0.86986192   -7.6006819    258.27407   0.02265562  0.022605384            3 
  951000   0.89050915   -7.6305624    258.32735  0.022636466  0.022589857            3 
  952000    0.8684983   -7.6152802    258.62455  0.022638703  0.022574272            3 
  953000   0.87314789   -7.6287908    258.88653  0.022637857   0.02255862            2 
  954000   0.86003902    -7.589407    259.39434  0.022658485  0.022543085            2 
  955000   0.87063805   -7.6167359    259.04865  0.022604594  0.022527544            2 
  956000   0.89093821   -7.6237973    258.93444  0.022570993  0.022511942            1 
  957000   0.86751957   -7.5963601    259.68479  0.022612747  0.022496435            2 
  958000   0.87107669   -7.6216523    258.53025  0.022488714  0.022480986            3 
  959000   0.86981929   -7.6233413    258.97383  0.022503809  0.022465315            2 
  960000   0.86496266   -7.6305315    258.99847  0.022482506  0.022449557            2 
  961000   0.88550883   -7.6480657     258.0959  0.022380845  0.022433681            2 
  962000   0.88763497   -7.6678374    257.94907  0.022344861  0.022417565            2 
  963000   0.87751739   -7.6394103    258.99864  0.022412482  0.022401518            3 
  964000   0.85216164   -7.6560928    258.70241  0.022363625  0.022385466            2 
  965000    0.8699201   -7.6381802    258.88549   0.02235626  0.022369407            2 
  966000   0.86989707   -7.6526486    258.98119  0.022341372  0.022353367            2 
  967000   0.86954355   -7.6159012    259.71901  0.022381852  0.022337365            1 
  968000   0.85170986   -7.6287156    259.36762   0.02232848  0.022321421            1 
  969000   0.89050899   -7.6506568    258.92435  0.022267316  0.022305533            2 
  970000   0.86957625   -7.6018237    260.33485  0.022365537  0.022289588            2 
  971000   0.89390354   -7.6567164    259.92452  0.022307288  0.022273732            2 
  972000   0.86116989   -7.6093375    260.00277  0.022291046  0.022257938            3 
  973000   0.89052306   -7.5995715    260.22948  0.022287554  0.022242253            1 
  974000   0.83885623   -7.6358033    260.39223  0.022278596  0.022226631            4 
  975000   0.86347553   -7.6163617    260.39517  0.022255997  0.022210905            3 
  976000   0.87002091   -7.6540679    261.08991  0.022292512  0.022195312            3 
  977000   0.88125918   -7.6069289    260.82658  0.022247235  0.022179897            3 
  978000   0.86418054    -7.639932    261.38863  0.022272378    0.0221644            2 
  979000   0.85722799   -7.6225723    261.08398  0.022223696  0.022148961            6 
  980000   0.87396363   -7.6201436    262.02019  0.022280628  0.022133431            3 
  981000   0.85812422   -7.6518408    261.23842  0.022191507  0.022118023            4 
  982000   0.84773796   -7.6405863    261.44632  0.022186551    0.0221027            2 
  983000   0.86012148   -7.6557136    261.93312  0.022205249  0.022087377            2 
  984000   0.84948738   -7.6244143    261.84858  0.022175523  0.022072038            7 
  985000    0.8554381    -7.609571    261.80155  0.022149031  0.022056608            2 
  986000   0.84431384   -7.6046895    261.39372    0.0220921  0.022041196            2 
  987000   0.86012505   -7.6381894    261.38027   0.02206858   0.02202563            2 
  988000   0.86796779   -7.6506571    261.18316  0.022029619  0.022009903            2 
  989000   0.85111726   -7.6400512    261.85959   0.02206434  0.021994227            3 
  990000   0.84506821   -7.6488783    262.92029  0.022131337  0.021978609            2 
  991000   0.86052687   -7.6268414    262.50532  0.022074111  0.021963077            3 
  992000   0.86784439    -7.694815    262.17822   0.02202438  0.021947604            4 
  993000   0.85386369   -7.6420105    262.15743  0.022000456  0.021932077            1 
  994000   0.84941892   -7.6419551    262.33701  0.021993378  0.021916666            1 
  995000   0.85376439    -7.627943    262.61071  0.021994197   0.02190115            2 
  996000   0.86040926   -7.6434288    262.23427  0.021940618  0.021885727            1 
  997000   0.85837559   -7.6530998    263.28337    0.0220063  0.021870265            2 
  998000   0.85230092   -7.6211221    262.90763  0.021952875  0.021854711            2 
  999000   0.84182907   -7.6692384    262.62554  0.021907369  0.021839155            2 
 1000000   0.84302663    -7.598865    263.71843  0.021976536  0.021823731            3 
 1001000   0.84421125   -7.6349734    263.28509  0.021918506  0.021808377            2 
 1002000   0.84729519   -7.6823526    262.82194  0.021858112  0.021792846            8 
 1003000   0.85301926   -7.6929508    262.84145   0.02183794  0.021777312            2 
 1004000   0.85054611   -7.6689379    263.63919  0.021882403  0.021761862            4 
 1005000    0.8487176   -7.7154383    262.95823  0.021804165  0.021746321            3 
 1006000   0.83552374   -7.6935779    263.12056  0.021795938  0.021730757            2 
 1007000   0.82570181   -7.6769064    263.31582  0.021790452  0.021715205            3 
 1008000   0.86797679   -7.6811402    263.32102  0.021769264  0.021699615            3 
 1009000   0.84823095   -7.7061142    263.07373  0.021727266  0.021683986            2 
 1010000   0.85889904   -7.7033479    263.69384  0.021756917  0.021668495            1 
 1011000   0.85604182   -7.6687927    263.77754  0.021742297  0.021653048            2 
 1012000   0.84952357   -7.6447582    263.73922  0.021717657  0.021637539            2 
 1013000   0.83437782   -7.6799135    264.05668  0.021722333  0.021622006            5 
 1014000   0.84839928   -7.6642915    264.43294  0.021731833  0.021606523            1 
 1015000   0.83814514   -7.6856481    264.17491  0.021689237  0.021591026            2 
 1016000   0.84349502   -7.6801875    264.36402  0.021683401  0.021575424            2 
 1017000   0.82527842   -7.6515765    263.68233  0.021606222  0.021559784            7 
 1018000   0.84381209   -7.6752454    263.98619  0.021609872  0.021544112            1 
 1019000    0.8677637   -7.6891668    264.50487  0.021631082  0.021528594            2 
 1020000   0.84293794   -7.6708917    264.34645  0.021596932  0.021513128            3 
 1021000   0.84152687   -7.6213937    264.36945  0.021577657  0.021497718            1 
 1022000   0.87486377   -7.6617808      264.448  0.021562948  0.021482181            2 
 1023000   0.83719191   -7.6977829     264.6199  0.021555873  0.021466524            4 
 1024000   0.86351856   -7.6810343      264.122  0.021494303  0.021450816            2 
 1025000   0.85132937    -7.682842     264.6949  0.021519911    0.0214351            1 
 1026000   0.84828975   -7.6793389    264.38362  0.021473654  0.021419332            1 
 1027000    0.8424026   -7.6926405    264.26434  0.021443066  0.021403572            2 
 1028000   0.85243334   -7.6585502    264.63975  0.021452638  0.021387787            2 
 1029000   0.82608356   -7.6901994    264.34352    0.0214078  0.021371942            4 
 1030000   0.81880938   -7.6996759    264.39188  0.021390929  0.021356019            3 
 1031000   0.83800958   -7.6803402    264.89588  0.021410918  0.021340264            3 
 1032000   0.83695392   -7.6652358    264.85144  0.021386583  0.021324549            3 
 1033000   0.83891353   -7.6852355    264.71075   0.02135453  0.021308867            2 
 1034000   0.83760484   -7.6797854    265.24482   0.02137692  0.021293202            2 
 1035000   0.85486112   -7.6947658    264.84031  0.021323697  0.021277568            2 
 1036000   0.84434268   -7.6933829    265.68175  0.021370797  0.021261865            4 
 1037000   0.84102662   -7.6973416    265.32035  0.021321147   0.02124634            1 
 1038000   0.83912243   -7.6654414    265.62968   0.02132544  0.021230795            4 
 1039000   0.83568683   -7.7121585    264.87832  0.021244652  0.021215173            3 
 1040000   0.82933544   -7.6858662    265.91369  0.021307187  0.021199601            5 
 1041000   0.84210992   -7.7091787    265.40175  0.021245738  0.021183934            2 
 1042000    0.8518344   -7.7119681    265.68642  0.021248115  0.021168234            2 
 1043000   0.84114506   -7.6953244    265.12582  0.021182952  0.021152597            3 
 1044000   0.84467966   -7.6860398    265.34485  0.021180145   0.02113699            2 
 1045000   0.84040858   -7.6548192    266.20439   0.02122842  0.021121348            5 
 1046000    0.8413887   -7.7134705    265.71014  0.021168749  0.021105665            2 
 1047000   0.84326185   -7.7287243    265.46759  0.021129226  0.021090023            2 
 1048000   0.85646508   -7.7300823    266.19892  0.021167217  0.021074404            2 
 1049000   0.82028162   -7.7099968    266.12029  0.021140792  0.021058741            2 
 1050000    0.8250689   -7.7036199    266.46649  0.021148134  0.021043125            2 
 1051000    0.8310286   -7.7194418     266.0763  0.021097074  0.021027555            4 
 1052000   0.83073527   -7.7195934    266.24227  0.021090167  0.021011902            2 
 1053000   0.84401352   -7.6855952    266.46089   0.02108744  0.020996339            2 
 1054000   0.84085287   -7.6926756     267.0311  0.021112516  0.020980836            5 
 1055000   0.83591538   -7.6843612    266.92219  0.021083902  0.020965274            3 
 1056000   0.83920244   -7.7208803    266.89605  0.021061873  0.020949811            1 
 1057000   0.83514185   -7.7306904      266.703  0.021026727  0.020934284            4 
 1058000   0.85176454   -7.7151564    267.51268  0.021070627  0.020918729            3 
 1059000   0.81075141   -7.7373656    266.34881  0.020959144  0.020903186            2 
 1060000   0.83578703   -7.7037637    267.18881  0.021005409  0.020887607            2 
 1061000   0.84286471   -7.7266414    266.57019  0.020937024  0.020872033            1 
 1062000   0.82757224   -7.7334746    266.56182  0.020916652  0.020856339            4 
 1063000   0.83087047   -7.7092296     266.9699  0.020928967  0.020840717            2 
 1064000   0.81612892   -7.7147264    266.74022  0.020891308  0.020825206            2 
 1065000    0.8371106   -7.7028733    267.06863  0.020897389    0.0208097            3 
 1066000   0.82956689   -7.7593367    266.50453  0.020833688  0.020794093            2 
 1067000   0.81236994   -7.7139083    267.74371  0.020910942  0.020778506            2 
 1068000   0.83476255   -7.7192364    267.62268  0.020881919  0.020762898            3 
 1069000   0.80721428   -7.7289395    267.35792  0.020841746  0.020747311            3 
 1070000   0.82251729    -7.731185    267.14441  0.020805639  0.020731758            3 
 1071000   0.84299758   -7.7359332    267.22319  0.020792343  0.020716181            2 
 1072000   0.84931406   -7.7106591     267.0276  0.020757742  0.020700565            2 
 1073000   0.82408828   -7.7158834    267.40272  0.020767531  0.020684864            3 
 1074000   0.81910731   -7.7355766    266.93794  0.020712131  0.020669107            3 
 1075000   0.80419371   -7.7546057    266.88139   0.02068848  0.020653271            2 
 1076000   0.83114048   -7.7387082    267.20188  0.020694074  0.020637414            3 
 1077000   0.81751445   -7.7455454    266.79329  0.020643244  0.020621563            1 
 1078000   0.82058509   -7.7537882    267.34211   0.02066652  0.020605737            3 
 1079000   0.82382752   -7.7468254    267.05509    0.0206252  0.020589857            3 
 1080000   0.83080404   -7.7622655    266.99209  0.020601241   0.02057405            1 
 1081000   0.83503937   -7.7444993    267.25318  0.020602311  0.020558181            1 
 1082000   0.82959009   -7.7238853    266.82095  0.020549981   0.02054227            2 
 1083000   0.81840364   -7.7379961     267.0183  0.020546191  0.020526396            2 
 1084000    0.8306447   -7.7232668    266.71099  0.020503612  0.020510535            3 
 1085000   0.81622622   -7.7482705     267.4866  0.020544285  0.020494641            6 
 1086000   0.82818155   -7.7606244     267.0739    0.0204937  0.020478808            4 
 1087000   0.82680676    -7.754175    266.77062  0.020451596  0.020462842            3 
 1088000   0.83848824   -7.7294597     267.5142  0.020489752  0.020446963            4 
 1089000   0.80209383   -7.7661767    266.75057  0.020412502  0.020431138            1 
 1090000   0.79993672   -7.7444929      267.139  0.020423471  0.020415247            2 
 1091000    0.8123956    -7.732914    267.89801  0.020462726  0.020399584            2 
 1092000   0.83621635   -7.7590752    268.09135  0.020458742  0.020383872            1 
 1093000   0.80994558   -7.7332813    268.49208  0.020470576  0.020367986            4 
 1094000   0.81514819   -7.7537122    267.72436  0.020393385  0.020352209            1 
 1095000   0.80273235     -7.77624    268.57295  0.020439342  0.020336434            2 
 1096000   0.80976739   -7.7737063    267.81739  0.020363244   0.02032073            3 
 1097000   0.80757897   -7.7631175    268.38341  0.020387679  0.020305079            3 
 1098000   0.82053721   -7.7364769    268.58362  0.020384306  0.020289513            2 
 1099000   0.82280821   -7.7506689    268.39961  0.020351806  0.020273947            6 
 1100000    0.8264644   -7.7718988    268.41384  0.020334382  0.020258362            1 
 1101000   0.80335575   -7.7525571    268.56183  0.020327114  0.020242725            2 
 1102000   0.80232465   -7.7389583    268.62239  0.020313248  0.020227162            2 
 1103000   0.81123403   -7.7761323    268.90107  0.020315886  0.020211638            2 
 1104000    0.8061804   -7.7691083    269.06745  0.020310043    0.0201961            4 
 1105000   0.78361355   -7.7678293    268.69589  0.020263642  0.020180511            2 
 1106000     0.817404   -7.7651374    268.99122  0.020267572  0.020164912            4 
 1107000   0.81651438   -7.7683483    269.10416  0.020257766  0.020149271            2 
 1108000   0.80198249   -7.7933164    268.48289  0.020192757  0.020133658            2 
 1109000   0.81638779   -7.7812041    268.47478  0.020173939  0.020117965            3 
 1110000   0.80880199   -7.7829975    267.98878  0.020119277  0.020102276            2 
 1111000   0.80537966   -7.7830057    268.68535  0.020153417  0.020086517            1 
 1112000   0.80570201   -7.7735893    269.04508  0.020162251  0.020070873            3 
 1113000   0.81514388   -7.7812565    269.62362  0.020187453  0.020055436            1 
 1114000   0.81682334   -7.7768173    269.33219  0.020147531  0.020040027            3 
 1115000   0.80981696   -7.7811422    269.64534  0.020152865  0.020024536            2 
 1116000   0.80839129   -7.7903157    270.33135  0.020186033  0.020009089            1 
 1117000   0.82889589   -7.7929071    269.41368  0.020099499  0.019993621            3 
 1118000   0.80814279    -7.791831    268.92254  0.020044912  0.019978098            3 
 1119000   0.79379381   -7.7663266     270.3324  0.020131993  0.019962685            2 
 1120000   0.81423623   -7.7543099    270.28299  0.020110342  0.019947355            5 
 1121000   0.80006919   -7.7844168    269.89588  0.020063625  0.019931994            6 
 1122000   0.81110457   -7.7292255    270.67485  0.020103598   0.01991672            2 
 1123000    0.8085395   -7.7495047    269.59342  0.020005448  0.019901454            1 
 1124000   0.79705095   -7.8081582    269.64886   0.01999176  0.019886132            2 
 1125000   0.81590815   -7.7766846    270.65448   0.02004848  0.019870781            5 
 1126000    0.7871608   -7.7960378    270.34253  0.020007588  0.019855487            1 
 1127000   0.79935822   -7.7867315    270.28278  0.019985417   0.01984011            3 
 1128000   0.78206221   -7.7896955    270.41355   0.01997736  0.019824854            4 
 1129000   0.78876865   -7.8156519    270.08881  0.019935696  0.019809591            3 
 1130000   0.80764602   -7.8003122    270.05335  0.019915439  0.019794275            1 
 1131000   0.80520829   -7.8188686    270.20073  0.019908689  0.019778994            1 
 1132000    0.7927763   -7.7751033    270.50279  0.019913338  0.019763671            4 
 1133000    0.8118272   -7.7632353    270.88606  0.019923953   0.01974849            2 
 1134000   0.80749437   -7.7712965    271.51427  0.019952548  0.019733365            2 
 1135000   0.78768554   -7.7757616      271.338  0.019922027  0.019718362            2 
 1136000   0.78772203   -7.7901029    271.33631  0.019904365  0.019703389            2 
 1137000   0.80314354   -7.8198905    270.94049  0.019857849  0.019688387            2 
 1138000   0.80111154    -7.770802    271.61161  0.019889544  0.019673343            4 
 1139000   0.79519143    -7.794725    271.51646   0.01986512  0.019658272            3 
 1140000   0.80038687   -7.7848976    270.93718  0.019805349  0.019643134            2 
 1141000   0.80242594   -7.7902304    270.71057  0.019771441  0.019627963            3 
 1142000   0.80286445   -7.7911405    271.05223  0.019779059  0.019612827            2 
 1143000   0.79513966   -7.7923195    271.13051  0.019767462   0.01959769            4 
 1144000   0.78187927   -7.7811788    271.21935  0.019756654  0.019582604            2 
 1145000    0.7885442    -7.790934    272.02441  0.019797992  0.019567509            4 
 1146000   0.78926882   -7.8239695    271.34194  0.019731089   0.01955239            4 
 1147000   0.79483668   -7.7958447    271.13787  0.019699061   0.01953718            2 
 1148000   0.78808594   -7.8000317    271.60285  0.019715654  0.019522101            1 
 1149000   0.80475011   -7.7884878     271.8224  0.019714419   0.01950709            4 
 1150000   0.78712077   -7.7948085    271.32226  0.019661033  0.019492087            2 
 1151000    0.7939479    -7.790831     271.8161  0.019679706  0.019477123            2 
 1152000   0.79783814   -7.8131859    271.65011  0.019650615  0.019462151            2 
 1153000   0.80668027   -7.8124239    271.39409  0.019615069  0.019447182            3 
 1154000   0.80760612   -7.7851387    272.26233  0.019660769  0.019432166            3 
 1155000   0.78963876   -7.7906997    271.79195  0.019609809  0.019417218            4 
 1156000   0.79763611   -7.8045479    273.05151  0.019683644  0.019402322            3 
 1157000   0.76782221   -7.7842038     272.2647  0.019609961  0.019387372            2 
 1158000   0.79465725   -7.7916514    272.12264  0.019582803  0.019372477            2 
 1159000   0.79195297   -7.8023008    272.35645  0.019582719  0.019357552            3 
 1160000   0.80291808   -7.8237988    271.92707  0.019534991  0.019342714            3 
 1161000   0.79369492   -7.8118042    272.62115  0.019567983  0.019327896            2 
 1162000     0.797089    -7.846003    272.23898  0.019523737  0.019313069            1 
 1163000   0.79017835   -7.8033694    272.63311   0.01953519  0.019298235            3 
 1164000   0.78231653   -7.7754693    272.95239  0.019541265  0.019283574            5 
 1165000   0.78367099   -7.8057732    272.88261    0.0195195  0.019268853            2 
 1166000   0.77842987   -7.7952346    273.39981  0.019539724  0.019254141            5 
 1167000    0.7778085   -7.7990977    273.07153  0.019499538  0.019239414            6 
 1168000   0.79108456   -7.8462148    272.55629  0.019446082  0.019224673            3 
 1169000   0.78009084   -7.8241331    272.95003  0.019457516  0.019209833            2 
 1170000   0.79834836   -7.8185012    272.88777  0.019436451  0.019195068            3 
 1171000   0.78274909   -7.8548036    272.52916  0.019394333  0.019180296            3 
 1172000   0.79171057    -7.835534    272.75274  0.019393682  0.019165485            2 
 1173000   0.78519126   -7.8075749    273.31009  0.019416744  0.019150723            2 
 1174000   0.79687862   -7.8555101    272.54188  0.019345676  0.019135913            2 
 1175000   0.79111581   -7.8436652    272.78011  0.019346107  0.019121116            1 
 1176000   0.78042122   -7.8550348    272.26025  0.019292818  0.019106289            1 
 1177000   0.75852033   -7.8396473    272.28897   0.01927846  0.019091364            1 
 1178000   0.78280783   -7.8585014    272.53839  0.019279739  0.019076423            3 
 1179000   0.77540422   -7.8453071    272.97247  0.019294068   0.01906153            3 
 1180000   0.78481558   -7.8065592    272.80311  0.019265756  0.019046678            3 
 1181000   0.78468602   -7.8062573    272.96024   0.01926053  0.019031847            9 
 1182000   0.77927961   -7.8405048    273.08647  0.019253136  0.019017002            1 
 1183000   0.78269767   -7.8634658    273.15009  0.019241342  0.019002179            9 
 1184000   0.79012333   -7.8516528    272.89891  0.019207412  0.018987369            2 
 1185000   0.79013199   -7.8303473    273.37277  0.019224526  0.018972556            2 
 1186000   0.80152198   -7.8233317    273.08094  0.019187812  0.018957778            3 
 1187000   0.77716987   -7.7955062    272.95181  0.019162582  0.018942981            3 
 1188000   0.78479829   -7.8250287     273.7437  0.019201999  0.018928207            3 
 1189000   0.77802543   -7.8396102    272.53601  0.019101206  0.018913425            5 
 1190000   0.75928305   -7.8245626    272.62494  0.019091382  0.018898551            1 
 1191000   0.78501085   -7.8629102    273.12599  0.019110411   0.01888364            3 
 1192000   0.78551842   -7.8566887    272.90997  0.019079276  0.018868859            5 
 1193000   0.79823404    -7.835936    273.32569  0.019092323  0.018854032            3 
 1194000   0.78379722   -7.8588717    272.91485  0.019047658  0.018839169            2 
 1195000   0.78856504   -7.8247978    273.03871  0.019040356  0.018824284            2 
 1196000   0.77164097   -7.8331229    272.88265  0.019013563  0.018809364            4 
 1197000   0.76825712   -7.8345383    273.40861  0.019034295   0.01879447            2 
 1198000   0.76690106   -7.8436105    273.51163  0.019025572  0.018779599            2 
 1199000   0.75809456   -7.8387996    273.15482  0.018984905  0.018764744            1 
 1200000   0.77606946   -7.8670669    272.82536  0.018946206  0.018749854            7 
 1201000   0.76704688   -7.8629884    273.67339  0.018989272  0.018735023            1 
 1202000   0.78111517   -7.8605326    273.10413  0.018934008  0.018720098            3 
 1203000   0.77664187   -7.8701826    273.20884  0.018925522  0.018705206            3 
 1204000   0.75915202    -7.860613    272.63125  0.018869826  0.018690247            2 
 1205000   0.77226968   -7.8554691    272.89682  0.018872533  0.018675363            1 
 1206000   0.78715138   -7.8472451    273.25731  0.018881793   0.01866055            5 
 1207000   0.78181053   -7.8356256    273.70938  0.018897361  0.018645776            2 
 1208000   0.77247571   -7.8503642    273.14626  0.018842871  0.018630986            2 
 1209000   0.76587066   -7.8377544    273.47293  0.018849802  0.018616289            5 
 1210000   0.75672313   -7.8192851    273.62472  0.018844678  0.018601547            3 
 1211000   0.78202136   -7.8627969    273.29928  0.018806722  0.018586775            3 
 1212000   0.76318565    -7.869146    273.66581  0.018816406  0.018571944            3 
 1213000   0.77345868   -7.8198129    273.54355  0.018792495  0.018557151            2 
 1214000    0.7604444   -7.8510359    273.68579  0.018786778  0.018542444            2 
 1215000    0.7676006   -7.8656213    273.15897  0.018735183  0.018527653            3 
 1216000   0.76763884   -7.8553435    273.59343   0.01874955   0.01851284            3 
 1217000   0.77398278   -7.8798218     273.2671  0.018711798  0.018498141            3 
 1218000   0.77796451   -7.8912733    273.74832   0.01872936  0.018483422            4 
 1219000   0.77482204   -7.8329603    274.23143  0.018747022  0.018468703            2 
 1220000   0.78675739   -7.8571122    273.89785   0.01870887  0.018453976            4 
 1221000   0.76111596    -7.884686    273.98358  0.018699398  0.018439276            2 
 1222000   0.77277068   -7.8738978     273.7142  0.018665726  0.018424634            5 
 1223000   0.77134111   -7.8681673    274.62548  0.018712557  0.018409954            3 
 1224000   0.77099918   -7.8727206    274.01359   0.01865561  0.018395316            3 
 1225000   0.76432603   -7.8733705    273.94277  0.018635562  0.018380602            2 
 1226000   0.77348312   -7.8953749     274.1389  0.018633694  0.018365906            2 
 1227000   0.75712447   -7.8733985    273.84372  0.018598459  0.018351256            3 
 1228000    0.7884925   -7.8707699    273.80657  0.018580794  0.018336599            8 
 1229000    0.7702323   -7.8767348    273.87881  0.018570573  0.018321907            2 
 1230000   0.77073834    -7.895025    273.83707  0.018552647  0.018307188            3 
 1231000   0.76312975   -7.8806044    274.02938  0.018550594  0.018292546            3 
 1232000   0.75270726   -7.8835961    273.68146  0.018512004  0.018277895            2 
 1233000   0.76941775   -7.8837768    274.36276  0.018543036  0.018263262            3 
 1234000   0.75763361   -7.8784112    274.40289  0.018530719  0.018248738            2 
 1235000   0.75591171   -7.8651555    275.00978  0.018556665  0.018234243            2 
 1236000   0.76381774   -7.8654646    274.56145  0.018511425   0.01821978            3 
 1237000    0.7738046   -7.8848317    274.21038  0.018472809  0.018205312            2 
 1238000   0.75114844   -7.8981137    274.44673  0.018473797  0.018190788            3 
 1239000   0.77040026   -7.9288285    274.80904  0.018483256  0.018176307            3 
 1240000   0.75876383   -7.9077109    274.78624  0.018466817  0.018161863            3 
 1241000   0.76240758   -7.9149922    274.76796  0.018450709  0.018147445            4 
 1242000    0.7778869   -7.9018536    274.02761  0.018386179  0.018133009            3 
 1243000   0.74308734   -7.8894341    274.71028  0.018417155  0.018118541            5 
 1244000   0.75252519    -7.943944    274.26267  0.018372365  0.018104064            5 
 1245000   0.74488036   -7.9164793    274.65558  0.018383907  0.018089624            5 
 1246000    0.7415505   -7.8916615     274.6358   0.01836783  0.018075218            2 
 1247000   0.75511607   -7.8752951    275.01799  0.018378641  0.018060807            2 
 1248000   0.75885413   -7.8903025    274.85104  0.018352767  0.018046393            2 
 1249000   0.74509608   -7.9072744    274.95649  0.018345109  0.018031984            1 
 1250000   0.75767829   -7.9163118    274.32156  0.018288104  0.018017551            3 
 1251000   0.76044464   -7.9228621    274.23278  0.018267571  0.018003085            7 
 1252000   0.76610755   -7.9274199    274.83264  0.018292908  0.017988575            5 
 1253000   0.76581024   -7.9294457    275.01739  0.018290595  0.017974109            4 
 1254000   0.75740385   -7.9184231    274.90976  0.018268857  0.017959673            3 
 1255000   0.75608152    -7.905275    275.63558  0.018302496  0.017945236            6 
 1256000   0.75065298   -7.9124886    275.19262  0.018258533  0.017930854            3 
 1257000   0.74939232   -7.9226511    275.03937  0.018233848  0.017916545            3 
 1258000   0.75584797   -7.9123223    274.45029  0.018180332  0.017902136            3 
 1259000   0.75764835    -7.915594    275.05372  0.018205833  0.017887736            3 
 1260000   0.74893087   -7.9045836    275.03177  0.018189932  0.017873385            2 
 1261000   0.72827638   -7.9173863    275.49614  0.018206195  0.017859062            2 
 1262000    0.7433698    -7.914911    274.89536  0.018152097  0.017844706            6 
 1263000   0.75069346   -7.9347452    274.65958  0.018122168  0.017830338            2 
 1264000   0.76008716   -7.9158588    275.35002  0.018153351  0.017816006            3 
 1265000   0.75265566   -7.9236931    275.36933  0.018140272  0.017801767            4 
 1266000   0.75347255   -7.9264734    275.29377   0.01812097  0.017787539            3 
 1267000   0.72955883   -7.9179026    275.85996  0.018143907  0.017773353            2 
 1268000     0.728783   -7.9234271    275.67064  0.018117156  0.017759174            4 
 1269000   0.74655005   -7.9332911    275.10756  0.018065902  0.017744969            2 
 1270000   0.74079085   -7.9177013    276.07075  0.018114879  0.017730811            4 
 1271000   0.74745557   -7.9206471    275.80407  0.018083141  0.017716646            3 
 1272000   0.72852095   -7.9088841    275.35341  0.018039401  0.017702458            2 
 1273000   0.74372611   -7.9201158    275.84253  0.018057248  0.017688256            4 
 1274000   0.74819908    -7.928903    275.80102   0.01804036  0.017674126            1 
 1275000   0.74539481   -7.8987113    275.87952  0.018031341   0.01766004            2 
 1276000   0.72514932   -7.9337468    276.13076  0.018033618  0.017645965            2 
 1277000   0.73357318   -7.9231732    276.20115   0.01802409  0.017631918            2 
 1278000   0.74902323   -7.9255673    275.82183  0.017985253  0.017617903            2 
 1279000   0.72902712   -7.9198408    276.10705  0.017989774  0.017603845            5 
 1280000   0.75242986   -7.9355281    276.14156  0.017977966  0.017589772            4 
 1281000   0.74582301   -7.9454839    276.01289  0.017955562   0.01757575            3 
 1282000   0.74118231   -7.9141354    276.12642  0.017948935  0.017561753            2 
 1283000   0.74520313   -7.9245679    276.43308  0.017954863  0.017547744            3 
 1284000   0.74204343   -7.9483377    275.80573  0.017900164  0.017533745            3 
 1285000   0.71853827   -7.9380261    277.10921  0.017970766  0.017519749            2 
 1286000   0.73601334   -7.9191076    276.63643  0.017926155  0.017505781            2 
 1287000   0.76094481   -7.9431012     276.5538  0.017906876   0.01749183            4 
 1288000   0.74071202   -7.9435477    276.28827  0.017875794  0.017477921            3 
 1289000   0.75402055    -7.963434    276.07661  0.017848242  0.017463971            3 
 1290000   0.73763033   -7.9194053    275.96512  0.017827204  0.017449995            4 
 1291000   0.75035036   -7.9579193    276.59771  0.017854228  0.017436077            4 
 1292000   0.75216537    -7.947315    275.22254  0.017751712  0.017422123            3 
 1293000   0.74150915   -7.9043516    275.86431  0.017779345  0.017408196            5 
 1294000   0.73339965   -7.8942242    276.96061  0.017836206  0.017394295            3 
 1295000   0.75543792   -7.9529311    276.18565  0.017772564   0.01738041            3 
 1296000   0.73255584   -7.9647079    275.90774  0.017740981  0.017366443            2 
 1297000   0.71974664   -7.9762275     276.1962  0.017745837   0.01735246            4 
 1298000   0.71796311   -7.9475381    275.55209  0.017690812  0.017338465            3 
 1299000    0.7263211   -7.9699716    276.13192   0.01771439  0.017324523            1 
 1300000   0.73967209   -7.9369026    276.87566   0.01774844  0.017310637            3 
 1301000   0.73115726   -7.9435087    276.36562  0.017702128  0.017296773            3 
 1302000   0.74032837   -7.9377367    276.70315  0.017710135  0.017282883            2 
 1303000   0.72680496    -7.938237    277.03572  0.017717813  0.017269054            2 
 1304000    0.7314752   -7.9280841    276.76854  0.017687151  0.017255245            4 
 1305000   0.72733078   -7.9676344    276.73887  0.017671703  0.017241385            1 
 1306000    0.7478797   -7.9630699    276.55197  0.017646246  0.017227513            2 
 1307000   0.72067527   -7.9474801    276.57295  0.017634083  0.017213673            2 
 1308000   0.72817641   -7.9592229    276.78806  0.017634306  0.017199812            5 
 1309000   0.71565333   -7.9553184    276.16195  0.017580974  0.017185948            2 
 1310000   0.73383196   -7.9824233    276.54704  0.017592051  0.017172135            3 
 1311000   0.73084374   -7.9810662    276.04075   0.01754645  0.017158302            2 
 1312000   0.73494299   -7.9971863    276.41383  0.017556772  0.017144471            4 
 1313000   0.73408771   -7.9520229    276.41778  0.017543652  0.017130633            3 
 1314000   0.72142366   -7.9861248     276.8995  0.017560851  0.017116824            2 
 1315000    0.7297407   -7.9963627    277.00484  0.017554172  0.017103068            3 
 1316000   0.72846402   -7.9741749     276.6638  0.017519238  0.017089277            4 
 1317000   0.71494926   -7.9598012    276.66434  0.017505969  0.017075482            7 
 1318000   0.71870776   -7.9539906    276.84767  0.017504279  0.017061765            2 
 1319000   0.73299416   -7.9862617    276.54767  0.017472054  0.017048008            2 
 1320000   0.70912732   -7.9586041    277.04528  0.017490233  0.017034227            5 
 1321000   0.71930514   -7.9992471    275.99364  0.017410651  0.017020441            5 
 1322000   0.71948664    -8.012166    275.97097  0.017396052  0.017006602            2 
 1323000   0.71650868   -7.9702766    276.80127  0.017435202  0.016992788            3 
 1324000   0.74845102   -7.9729711    276.82512  0.017423535   0.01697904            1 
 1325000   0.73789701   -7.9531905    275.69719  0.017339446  0.016965299            2 
 1326000   0.73026119   -8.0087523    276.24387  0.017360726  0.016951491            5 
 1327000   0.71849249   -8.0103963    276.60415  0.017370268  0.016937673            3 
 1328000   0.71158314   -8.0172046    276.07192   0.01732379  0.016923823            3 
 1329000   0.70538692   -7.9790673    277.22572  0.017383102  0.016910028            2 
 1330000   0.74063816   -8.0152586    276.11438    0.0173004  0.016896253            2 
 1331000    0.7155827   -7.9892277    276.32534   0.01730061  0.016882472            6 
 1332000   0.73722493   -8.0167389    276.70493   0.01731137  0.016868679            1 
 1333000   0.71639615   -7.9983144    276.98264  0.017315744  0.016854894            2 
 1334000   0.70662587   -8.0041651    276.67676  0.017283655  0.016841206            2 
 1335000   0.72082588   -8.0299066    276.14589  0.017237571  0.016827467            3 
 1336000   0.71564071   -8.0267166    276.71774  0.017260338  0.016813783            2 
 1337000   0.71450813   -8.0206696    276.67168  0.017244558  0.016800062            2 
 1338000    0.7100671   -8.0077668    276.53483  0.017223146  0.016786403            4 
 1339000   0.72133824   -7.9753704     276.8228  0.017228205  0.016772787            5 
 1340000   0.71431034   -8.0062561    277.42396  0.017252734  0.016759172            2 
 1341000   0.72282304   -7.9999511    277.23929  0.017228392  0.016745561            3 
 1342000   0.71598677   -8.0277791    276.37408  0.017161828  0.016731917            3 
 1343000   0.71203209   -7.9972716    276.27047   0.01714262  0.016718271            4 
 1344000   0.72233793   -8.0209017    277.01701  0.017176154  0.016704643            2 
 1345000   0.70443994   -8.0398775    276.94173  0.017158719  0.016691013            2 
 1346000      0.72722   -8.0071667    277.34852  0.017171156  0.016677388            2 
 1347000   0.71335937   -8.0084147    276.83617  0.017126712  0.016663784            7 
 1348000   0.70756371   -8.0173461    277.05425  0.017127489  0.016650186            3 
 1349000   0.71797077   -8.0126764    276.41433  0.017075261  0.016636597            3 
 1350000   0.72019505   -8.0434897    276.57137  0.017072307  0.016623004            3 
 1351000   0.72587067   -7.9927837     276.8758  0.017078448  0.016609426            4 
 1352000   0.71954348   -8.0103527    276.94522  0.017070095  0.016595886            2 
 1353000   0.71175535    -8.006617    276.84757  0.017051464  0.016582398            1 
 1354000   0.72326797   -7.9962497     277.6799  0.017090097   0.01656895            5 
 1355000   0.71906106   -8.0041248    277.17136  0.017046209  0.016555463            2 
 1356000   0.70221527   -8.0032535    277.09081  0.017028688  0.016541954            2 
 1357000   0.71722728   -7.9894678    277.57991  0.017046175  0.016528494            3 
 1358000   0.73179091   -8.0261026    277.04182  0.017000603  0.016515024            2 
 1359000   0.70961992   -8.0052261    276.92869  0.016981156  0.016501515            2 
 1360000   0.69601136   -8.0178443    276.90305  0.016967099  0.016488051            6 
 1361000   0.71528611   -8.0213855    277.17816  0.016971477  0.016474595            2 
 1362000   0.71682877   -7.9887586    277.70247  0.016991096  0.016461223            4 
 1363000   0.70774816   -8.0014864    277.29581  0.016953767  0.016447834            2 
 1364000    0.7094054   -8.0308681    277.18673  0.016934673  0.016434466            3 
 1365000    0.7055938   -8.0404505    277.54193  0.016943952   0.01642112            1 
 1366000   0.69997917   -8.0280271    277.66594  0.016939113  0.016407788            5 
 1367000   0.69192813   -8.0270673    277.46147  0.016914257  0.016394494            5 
 1368000   0.70482548   -8.0258891    277.77939  0.016921259  0.016381207            6 
 1369000   0.71031942   -8.0463034    277.43261   0.01688779  0.016367885            4 
 1370000   0.72196307   -8.0381435    277.64968  0.016888667  0.016354599            4 
 1371000   0.71333759   -8.0421479    277.14069   0.01684541  0.016341316            1 
 1372000   0.72115082   -8.0369959    276.98102  0.016823434   0.01632802            4 
 1373000   0.68266231   -8.0262381    277.03805  0.016814642  0.016314726            1 
 1374000   0.72577066   -8.0256389    277.72159  0.016843862  0.016301469            1 
 1375000   0.70486411   -8.0563692    277.53504  0.016820305  0.016288234            2 
 1376000     0.705383   -8.0286055    277.45866  0.016803455  0.016275019            5 
 1377000   0.70550415   -8.0231281    277.51322  0.016794555  0.016261797            3 
 1378000   0.69963876   -8.0006229    278.04081  0.016814273  0.016248592            3 
 1379000   0.68662059   -8.0274263    277.82642  0.016789124  0.016235452            3 
 1380000   0.69484776   -8.0116376    278.08448  0.016792541  0.016222326            3 
 1381000   0.68850644   -8.0215992    278.03257  0.016777249  0.016209279            3 
 1382000   0.72045222   -8.0142968    278.85762  0.016814859  0.016196288            2 
 1383000   0.69300842   -8.0518691    278.65078  0.016790237  0.016183275            2 
 1384000   0.70867159   -8.0073141    277.90414  0.016733149  0.016170213            3 
 1385000   0.68896036   -8.0402125    277.62703  0.016704394  0.016157179            2 
 1386000   0.70734588   -8.0211993    278.48169  0.016743728  0.016144151            5 
 1387000   0.69885367   -8.0112104    277.84671  0.016693506  0.016131104            4 
 1388000   0.69032401   -8.0644088    278.03954  0.016693056  0.016118075            2 
 1389000    0.6997407   -8.0455725    278.32083  0.016697914  0.016105036            3 
 1390000   0.70267432   -8.0330437    278.05979  0.016670251  0.016092062            2 
 1391000    0.7077781   -8.0433018    277.87614  0.016647265  0.016079094            3 
 1392000   0.70413371   -8.0434194    277.48851    0.0166121  0.016066088            3 
 1393000   0.69442635   -8.0095248    278.20882  0.016643265  0.016053077            2 
 1394000   0.69668651   -8.0376594     278.0683  0.016622926  0.016040122            3 
 1395000   0.70713196   -8.0747365    277.71359   0.01658982  0.016027129            4 
 1396000   0.69675392    -8.038818    278.55039  0.016627889  0.016014169            2 
 1397000   0.68454352   -8.0519041    278.43355  0.016609016  0.016001235            1 
 1398000   0.70421176   -8.0342326     277.9619  0.016569021  0.015988286            3 
 1399000   0.69920962   -8.0603576    277.77259  0.016545901  0.015975309            2 
 1400000   0.69023818   -8.0779398    278.21633  0.016560496  0.015962316            3 
 1401000   0.69212565   -8.0785699    277.83742  0.016526137  0.015949321            3 
 1402000   0.69369513   -8.0771707    277.61198   0.01650095  0.015936313            3 
 1403000   0.69056191   -8.0602435    278.57382  0.016546319  0.015923331            3 
 1404000   0.67580817   -8.0664982    278.16149   0.01651006  0.015910371            2 
 1405000   0.68927037   -8.0370417    278.26446  0.016504416  0.015897433            3 
 1406000    0.6863658   -8.0555375    278.37516  0.016499239  0.015884498            4 
 1407000   0.68973937   -8.0712364    277.83683  0.016455628    0.0158716            1 
 1408000   0.69166383   -8.0612164    278.41586  0.016478211  0.015858747            3 
 1409000   0.68392858   -8.0325152    279.17448  0.016511384  0.015845903            4 
 1410000   0.67302966   -8.0813433     277.8501  0.016421401   0.01583307            8 
 1411000    0.6848827   -8.0762125    278.00779  0.016419076  0.015820227            2 
 1412000   0.68484203   -8.0759798    278.59548  0.016442131   0.01580739            3 
 1413000   0.68490451   -8.0502825    278.71726  0.016437678  0.015794577            3 
 1414000   0.67725258   -8.0848569    277.57652  0.016358824  0.015781723            3 
 1415000   0.67594476   -8.0792144    278.70398  0.016413662  0.015768836            1 
 1416000   0.69040565   -8.0537107    278.88446  0.016412692  0.015756002            3 
 1417000   0.71087021   -8.0881222    278.33134  0.016368581  0.015743199            9 
 1418000   0.68510861   -8.0801077    278.64271  0.016375335    0.0157304            3 
 1419000   0.70401957   -8.0805975    278.52282  0.016356755  0.015717603            4 
 1420000   0.68729661   -8.0972271    278.04739  0.016317335  0.015704838            4 
 1421000   0.67498069   -8.0727316    278.59522  0.016337979  0.015692096            3 
 1422000   0.69225403   -8.0670082     278.2632  0.016307032  0.015679343            2 
 1423000   0.69291694   -8.0571147    278.32849  0.016299396  0.015666611            6 
 1424000   0.68502241    -8.094683    277.76174  0.016254783  0.015653859            7 
 1425000   0.68158691   -8.0758064     278.0879   0.01626245  0.015641115            2 
 1426000   0.68533844   -8.0913166    278.40751  0.016269724   0.01562842            2 
 1427000   0.66433879   -8.0649113    278.09423  0.016240028  0.015615737            3 
 1428000   0.67975219    -8.064757    278.17895  0.016233599  0.015603047            5 
 1429000   0.70617869   -8.0774252    277.91221  0.016206684  0.015590338            2 
 1430000   0.68051476   -8.0758644    277.89311  0.016194237  0.015577653            2 
 1431000   0.68173956   -8.0868089    278.39214  0.016211981  0.015564944            2 
 1432000   0.69288181   -8.0523244    278.20817  0.016189954  0.015552296            2 
 1433000   0.67383869   -8.0714172    278.07051  0.016170651  0.015539656            5 
 1434000   0.68148428   -8.0825214    277.95034  0.016152391  0.015527017            2 
 1435000   0.68359419   -8.0827901    278.27213  0.016159822  0.015514358            2 
 1436000   0.67234337   -8.0676533    278.26812  0.016148336  0.015501687            2 
 1437000   0.67416904   -8.1015763    278.46205  0.016148344  0.015489006            4 
 1438000   0.66981993   -8.0724212    278.51085  0.016139943   0.01547635            2 
 1439000   0.68228435   -8.1021127    278.05711   0.01610245  0.015463711            4 
 1440000   0.67971694   -8.0635206    278.45555  0.016114326  0.015451069            2 
 1441000   0.68986685   -8.1026041    278.64323  0.016113996  0.015438427            2 
 1442000    0.6916731   -8.1017808     277.9581  0.016063228    0.0154258            2 
 1443000   0.67970025   -8.0808156    278.10508  0.016060584  0.015413191            2 
 1444000   0.69633175    -8.102858    278.10064  0.016049206  0.015400576            2 
 1445000   0.68874287   -8.1161746    277.91298  0.016027277  0.015387965            2 
 1446000   0.68589729   -8.0918872    278.26522  0.016036493  0.015375376            4 
 1447000   0.67821586   -8.0990802    277.90374  0.016004592  0.015362792            3 
 1448000   0.68468231   -8.0987438    278.29199  0.016015884  0.015350244            4 
 1449000   0.69188307   -8.0756131    278.19059  0.015998999  0.015337717            3 
 1450000   0.66068123   -8.0942393    278.33817  0.015996446  0.015325153            2 
 1451000   0.68377108    -8.083175    278.94104  0.016020046   0.01531262            4 
 1452000   0.68390965   -8.0940644    278.11576  0.015961648  0.015300086            2 
 1453000    0.6660945   -8.0816274    278.67111  0.015982514  0.015287563            2 
 1454000   0.67171078   -8.0843232     277.9902  0.015932497  0.015275024            3 
 1455000   0.66278079   -8.1044286    278.04452  0.015924657  0.015262486            3 
 1456000   0.68587494   -8.1236849     277.9397  0.015907721  0.015249992            4 
 1457000   0.66853421   -8.1127531    278.82114  0.015947217  0.015237527            4 
 1458000   0.67506811   -8.0998401    278.49113  0.015917417  0.015225058            2 
 1459000   0.67527394   -8.0967849    278.12304  0.015885483  0.015212604            2 
 1460000   0.66060969   -8.0880016    278.50325  0.015896304    0.0152002            2 
 1461000    0.6777195   -8.1162266    278.38152   0.01587848  0.015187777            2 
 1462000   0.66556303   -8.0684702    279.11688  0.015909535  0.015175358            3 
 1463000   0.66185116   -8.0933015    278.66183   0.01587274  0.015162935            6 
 1464000   0.66474592   -8.1019522    278.32596   0.01584278  0.015150503            2 
 1465000   0.66726523   -8.0939886    278.40665  0.015836556  0.015138078            3 
 1466000   0.66251684   -8.1221925     277.9067  0.015797334  0.015125657            2 
 1467000   0.66249297   -8.1139171    278.00569  0.015792189  0.015113249            2 
 1468000   0.66615494   -8.1199997    278.05116  0.015784012  0.015100835            4 
 1469000   0.66569597   -8.1011404    278.21681  0.015782665  0.015088433            2 
 1470000    0.6498404   -8.1101612    278.44487  0.015784857  0.015076067            2 
 1471000    0.6730449   -8.1111519    278.54254  0.015779659  0.015063717            3 
 1472000   0.66939507   -8.1260206    278.02978   0.01573991  0.015051344            2 
 1473000   0.66007346   -8.1208039    278.25662  0.015742058   0.01503893            2 
 1474000    0.6747048   -8.1289984    278.72554  0.015757889   0.01502654            4 
 1475000   0.65570735   -8.1101496    277.83497  0.015696891  0.015014163            4 
 1476000   0.65881788   -8.1217335     278.5189   0.01572487  0.015001759            1 
 1477000   0.64646066   -8.1409456    278.40313  0.015707692  0.014989388            2 
 1478000   0.65305778   -8.1323032    277.77889  0.015661868  0.014977011            2 
 1479000   0.67407633   -8.1264281    277.87983  0.015656966  0.014964645            2 
 1480000    0.6627178   -8.1319963    278.27107  0.015668416  0.014952293            1 
 1481000   0.65546572   -8.1327129    277.95127  0.015639842  0.014939951            3 
 1482000   0.66728724   -8.1409246    278.64699   0.01566841  0.014927638            2 
 1483000   0.66412348   -8.1281215    277.71428  0.015605432   0.01491532            2 
 1484000   0.66908245   -8.1173518    278.46265  0.015636941  0.014903017            1 
 1485000   0.65998113    -8.154577    277.86893  0.015593094  0.014890727            4 
 1486000   0.67232006   -8.1352479    278.28852   0.01560613  0.014878425            3 
 1487000   0.66412435   -8.1320681    278.05925  0.015582787   0.01486614            3 
 1488000   0.68427511   -8.1234055    278.02421  0.015570352  0.014853857            3 
 1489000    0.6667502    -8.146292    278.03395  0.015560441  0.014841629            3 
 1490000    0.6565566   -8.1320317    278.50726  0.015576469   0.01482939            2 
 1491000   0.64807369   -8.1477151    278.34803  0.015557122   0.01481717            2 
 1492000   0.67648912   -8.1365527    278.49425  0.015554862   0.01480495            1 
 1493000   0.68020614   -8.1273994     278.4664  0.015542889  0.014792763            2 
 1494000   0.67025792   -8.1518039    278.31983   0.01552431  0.014780591            2 
 1495000   0.65888988   -8.1348554    278.35891  0.015516104  0.014768404            2 
 1496000   0.65803731   -8.1525831    277.94741   0.01548281   0.01475623            3 
 1497000   0.63713588   -8.1423659     279.0272  0.015532577   0.01474403            2 
 1498000   0.64645115   -8.1427102    277.97046  0.015463421  0.014731884            9 
 1499000    0.6638993   -8.1545024    277.89356   0.01544883  0.014719716            2 
 1500000   0.65817073   -8.1423812    277.91744  0.015439858  0.014707557            2 
 1501000   0.65918699    -8.161473    278.05055  0.015436962  0.014695389            4 
 1502000   0.65489288   -8.1577157    278.57424  0.015455739  0.014683234            1 
 1503000   0.65357739   -8.1205399    278.00074  0.015413658  0.014671092            3 
 1504000   0.64269822   -8.1503507    278.37697  0.015424256  0.014658953            3 
 1505000   0.64914848   -8.1549308    278.09471  0.015398378  0.014646849            1 
 1506000   0.65070824   -8.1592265    277.82993  0.015373502  0.014634697            4 
 1507000   0.65573988   -8.1612286     278.5016  0.015400443  0.014622558            3 
 1508000   0.65363153   -8.1507448    278.12243  0.015369277  0.014610436            4 
 1509000   0.64034394   -8.1590402    278.05256  0.015355233   0.01459834            2 
 1510000   0.64965158   -8.1511914    278.06974  0.015346012  0.014586262            3 
 1511000   0.65152797   -8.1550257    278.01377  0.015332769  0.014574217            3 
 1512000   0.63977518   -8.1590845    278.47676  0.015348146  0.014562154            2 
 1513000   0.64949169   -8.1427768     278.2931  0.015327886  0.014550106            2 
 1514000   0.65060833   -8.1649607    278.43919  0.015325803  0.014538091            2 
 1515000   0.65303141   -8.1663604    278.00771  0.015291953  0.014526048            3 
 1516000   0.64779329    -8.161706     277.7268  0.015266425  0.014514001            3 
 1517000    0.6533383   -8.1741356    277.47621  0.015242596  0.014501972            2 
 1518000   0.64084351    -8.179421    278.01042  0.015261881  0.014489948            4 
 1519000   0.63382132    -8.185202    278.42822  0.015274754  0.014477922            3 
 1520000   0.65344423   -8.1676957    277.93484  0.015237656  0.014465915            1 
 1521000   0.64399503   -8.1663773    278.01313  0.015231927  0.014453929            4 
 1522000   0.64812695   -8.1586461    277.80608  0.015210583  0.014441938            2 
 1523000   0.63978818   -8.1772229    277.77435  0.015198859  0.014429934            1 
 1524000   0.63807642   -8.1819167    277.46032  0.015171715  0.014417927            4 
 1525000   0.65218326     -8.17354    278.32212  0.015208859  0.014405923            3 
 1526000    0.6491202   -8.1846294    278.16278  0.015190191  0.014393944            3 
 1527000   0.64008204   -8.1829189    277.50884  0.015144556  0.014381937            9 
 1528000   0.63970772   -8.1863449    277.35898  0.015126471  0.014369932            2 
 1529000   0.63945536   -8.1899722    277.37526  0.015117466  0.014357916            3 
 1530000   0.64647805   -8.1856816    277.55849  0.015117565  0.014345956            2 
 1531000   0.64348528   -8.1752662    277.60756  0.015110362  0.014333999            4 
 1532000   0.64846154   -8.1827441    277.84279  0.015113294   0.01432203            3 
 1533000   0.64238254   -8.1867058    277.16008  0.015066323  0.014310116            2 
 1534000   0.64454794   -8.2003617    278.07619  0.015106268   0.01429818            2 
 1535000   0.65868743    -8.191964    277.59622   0.01507037  0.014286248            2 
 1536000   0.63568593   -8.1918355    277.67753   0.01506497  0.014274335            3 
 1537000   0.63632845   -8.1738273    277.79584  0.015061583  0.014262451            2 
 1538000   0.64598441   -8.1530475    277.63669  0.015043167  0.014250564            3 
 1539000   0.63640918   -8.1899623    277.64752  0.015033979  0.014238715            3 
 1540000   0.64575457    -8.172522    277.53835  0.015018309   0.01422687            5 
 1541000   0.62871525   -8.1943296    277.46239  0.015004455  0.014215037            2 
 1542000   0.62817038   -8.1830924    277.52295  0.014997998  0.014203221            2 
 1543000   0.62646195   -8.1994541    278.02872  0.015015593  0.014191415            3 
 1544000   0.64863941   -8.2039388    277.55065  0.014980065  0.014179597            4 
 1545000   0.63836731   -8.1999783    277.84947  0.014986487  0.014167824            2 
 1546000   0.64467263   -8.1972266    277.37387  0.014951157  0.014156026            2 
 1547000   0.63554607   -8.1906877    278.02286  0.014976453  0.014144244            2 
 1548000    0.6414417   -8.1990206    278.08078  0.014969895  0.014132505            3 
 1549000   0.64286206   -8.2226447    277.80604  0.014945451  0.014120764            1 
 1550000   0.63122637   -8.1817739    277.89094  0.014940373   0.01410901            3 
 1551000   0.65299752   -8.2007709    277.49925  0.014909696  0.014097262            2 
 1552000   0.63124249   -8.2105107    277.69088  0.014910378  0.014085521            2 
 1553000   0.63038927   -8.1963612    277.51052  0.014891099  0.014073781            2 
 1554000   0.62189088    -8.199134    278.11462  0.014913911  0.014062027            3 
 1555000   0.63079344   -8.1895742    277.43047  0.014867657  0.014050296            3 
 1556000   0.64161212   -8.2166296     278.1698  0.014897697  0.014038583            2 
 1557000   0.62400646   -8.2100154    277.17985  0.014835145  0.014026869            3 
 1558000   0.63356553   -8.2201803    277.32534  0.014833405  0.014015146            3 
 1559000   0.63212044    -8.206294    277.74931  0.014846553  0.014003417            1 
 1560000   0.63418733   -8.2214175    277.74879  0.014837008  0.013991717            4 
 1561000   0.63167327    -8.215799    277.65431  0.014822459  0.013980043            3 
 1562000   0.62007004   -8.2270634    277.52428  0.014806033  0.013968347            3 
 1563000   0.61868975   -8.2129732    277.57213  0.014799111  0.013956663            4 
 1564000    0.6256867   -8.2245236    277.40766  0.014780885  0.013944985            6 
 1565000   0.64611262   -8.2314414    277.75895  0.014790146  0.013933342            2 
 1566000   0.62845186   -8.2179922    277.95826  0.014791308  0.013921684            2 
 1567000   0.63130978   -8.2330028    277.95569  0.014781732  0.013910018            1 
 1568000   0.62764072   -8.2006068    277.26446  0.014735568  0.013898386            2 
 1569000   0.63236375   -8.2259314    277.50762  0.014739092  0.013886765            2 
 1570000    0.6235359   -8.2477259    277.39825  0.014723899  0.013875132            4 
 1571000   0.63574062   -8.2236077     277.6029  0.014725382  0.013863538            3 
 1572000   0.61611638   -8.2249506    277.21306  0.014695349  0.013851965            3 
 1573000   0.62197482     -8.19254    277.60108  0.014706563  0.013840398            3 
 1574000   0.61962956   -8.2025694    277.88797  0.014712408  0.013828875            6 
 1575000   0.63858436   -8.2212041    277.87193  0.014702219  0.013817332            4 
 1576000   0.62066906   -8.2075419    277.33127  0.014664302  0.013805828            3 
 1577000   0.63555293   -8.2417222    277.78912  0.014679197   0.01379431            1 
 1578000   0.61079737   -8.2270768     278.0698  0.014684717  0.013782795            4 
 1579000   0.62558234   -8.2312861    277.50159  0.014645429  0.013771297            2 
 1580000   0.61384602   -8.2136853    277.18496   0.01461946  0.013759816            1 
 1581000   0.62813715   -8.2243829    277.50058  0.014626849  0.013748314            2 
 1582000   0.61604193   -8.2291927    277.89573  0.014638418   0.01373682            3 
 1583000   0.60606132   -8.2449387    277.45171  0.014605797  0.013725328            1 
 1584000   0.63313837   -8.2316831    277.20374   0.01458353  0.013713864            5 
 1585000   0.61789304   -8.2258618    277.36306  0.014582706  0.013702426            3 
 1586000   0.61364572   -8.2444229    277.04579  0.014556841  0.013690982            2 
 1587000    0.6227918    -8.234404    277.45101  0.014568946  0.013679552            4 
 1588000   0.60946231   -8.2431961    277.41278  0.014557766  0.013668118            2 
 1589000   0.63197532   -8.2615845    277.55218  0.014555915  0.013656679            5 
 1590000   0.61973953   -8.2669498    277.07319  0.014521656  0.013645247            4 
 1591000   0.61077234    -8.243565    277.06129  0.014511905  0.013633837            4 
 1592000   0.60686167   -8.2190259    277.52698  0.014527166  0.013622451            2 
 1593000   0.60596949   -8.2364217    277.51031  0.014517175  0.013611067            5 
 1594000   0.61634271    -8.249667    277.40713  0.014502673  0.013599695            2 
 1595000    0.6248223   -8.2481473    277.13265   0.01447924  0.013588318            2 
 1596000   0.60180924    -8.233632    277.55947  0.014492454  0.013576975            2 
 1597000   0.60553316   -8.2489047    277.66743  0.014489012  0.013565635            2 
 1598000   0.61059643    -8.227811    277.34033  0.014462887  0.013554283            2 
 1599000   0.60743202   -8.2427806    277.69887  0.014472528  0.013542962            3 
 1600000   0.59905618   -8.2484555    277.66115  0.014461518  0.013531651            3 
 1601000   0.61442109   -8.2510052    277.24715  0.014430937  0.013520322            2 
 1602000   0.60050359   -8.2660691    277.87068  0.014454363  0.013508999            2 
 1603000   0.61095045   -8.2539722    277.22655  0.014411861  0.013497675            4 
 1604000   0.60560293   -8.2725298     277.1587  0.014399351  0.013486362            2 
 1605000   0.61934861   -8.2664299    277.24521  0.014394871  0.013475055            1 
 1606000   0.61314903   -8.2727219     277.5955  0.014404084  0.013463766            4 
 1607000   0.61962661    -8.278131    277.34999  0.014382389  0.013452504            2 
 1608000    0.6064493   -8.2328628     277.4505  0.014378654  0.013441233            3 
 1609000   0.61518113   -8.2464627     276.8555  0.014338901   0.01342996            3 
 1610000   0.60736412   -8.2617418    276.88695  0.014331622  0.013418688            1 
 1611000   0.60936348   -8.2429803    276.65224  0.014310585  0.013407436            1 
 1612000   0.61331569   -8.2650979    276.71459  0.014304931  0.013396188            2 
 1613000   0.61514858   -8.2598083    277.00245  0.014310935  0.013384956            2 
 1614000   0.60471132   -8.2490289    277.02499  0.014303232  0.013373728            4 
 1615000   0.61718531   -8.2589053    276.75026  0.014280199  0.013362515            1 
 1616000    0.5989054    -8.288455    277.09787  0.014289288    0.0133513            2 
 1617000   0.61044064   -8.2584911    277.51699  0.014302051  0.013340114            1 
 1618000   0.59203823   -8.2706047    277.10705  0.014272097   0.01332893            3 
 1619000   0.61564737   -8.2632964    277.10483  0.014263168  0.013317763            3 
 1620000   0.61496014   -8.2816499    276.90038  0.014243847  0.013306605            2 
 1621000   0.61906209   -8.2775849     277.3969  0.014260585  0.013295469            4 
 1622000   0.61189385   -8.2655651    277.47891  0.014256007  0.013284344            3 
 1623000   0.60252247   -8.2763845    277.31078   0.01423859  0.013273202            2 
 1624000   0.59200793    -8.266768    276.91513   0.01420952  0.013262072            2 
 1625000   0.59664799   -8.2823393     276.7665  0.014193154  0.013250947            4 
 1626000   0.60615877   -8.2493886     276.9471  0.014193681  0.013239844            3 
 1627000   0.60536946   -8.2728199    277.38249  0.014207257  0.013228723            2 
 1628000   0.59846048   -8.2744975    276.79083  0.014168245  0.013217609            2 
 1629000   0.60066294   -8.2775211    276.94231  0.014167296  0.013206504            5 
 1630000   0.60364228   -8.2846009    276.59657  0.014140929  0.013195417            2 
 1631000   0.60860821   -8.2864722    277.18318  0.014162231  0.013184346            2 
 1632000   0.59835514   -8.2708788    276.79345  0.014133653  0.013173268            2 
 1633000   0.59378783   -8.2624082    277.18093  0.014144771  0.013162219            2 
 1634000   0.58803102   -8.2927043    277.16511  0.014135308  0.013151194            2 
 1635000   0.60726071    -8.291349    276.73986  0.014104988  0.013140159            4 
 1636000   0.60393042   -8.2753937    277.12249  0.014115856  0.013129145            2 
 1637000   0.60964373   -8.2821106    276.50746  0.014075924  0.013118128            5 
 1638000    0.6157035     -8.29733     277.0174  0.014093274  0.013107127            3 
 1639000   0.60029518   -8.2890874    277.25591  0.014096802  0.013096131            2 
 1640000   0.59376864   -8.2977102    276.45405  0.014047462  0.013085146            2 
 1641000   0.60469944   -8.2864702    276.64191  0.014048442  0.013074154            2 
 1642000   0.59418073   -8.3089701    276.41221  0.014028228  0.013063153           10 
 1643000   0.59368708   -8.2961101    276.62366  0.014030415  0.013052175            4 
 1644000   0.59581497   -8.2923885    276.30893  0.014005927  0.013041214            2 
 1645000   0.59919756   -8.2844807    276.42469  0.014003277  0.013030278            2 
 1646000   0.59830998   -8.2877005    277.06789  0.014027333  0.013019334            4 
 1647000    0.5903152   -8.2978999    276.37643   0.01398383  0.013008384            2 
 1648000   0.59560539   -8.3086469    276.99389  0.014006568  0.012997473            3 
 1649000    0.6033604   -8.2835189    276.88535  0.013992589  0.012986585            2 
 1650000   0.58929553    -8.316748    277.27448  0.014003761  0.012975693            2 
 1651000   0.58531772   -8.2904182    276.90783  0.013976773  0.012964812            3 
 1652000   0.59594734   -8.2832169    276.62734  0.013954164  0.012953917            1 
 1653000   0.61140866    -8.308654    276.47827  0.013938207  0.012943033            6 
 1654000   0.59187729   -8.2837313    276.96287  0.013954195  0.012932176            2 
 1655000   0.59286946   -8.2937396    276.43267  0.013919067  0.012921333            4 
 1656000   0.58004258   -8.2787396     276.9863  0.013938521  0.012910511            4 
 1657000   0.59858777    -8.308293    276.76175  0.013918817  0.012899685            4 
 1658000   0.58760567   -8.3105598    276.80512  0.013912601  0.012888862            7 
 1659000   0.58973267     -8.30507    277.26897  0.013927515  0.012878055            2 
 1660000   0.58701697   -8.3065706    277.13269  0.013912284  0.012867226            2 
 1661000    0.5982547   -8.3117117    276.49003  0.013871665  0.012856423            2 
 1662000   0.59617032   -8.2889069    276.81698  0.013879712  0.012845626            2 
 1663000   0.58672705   -8.3125558    275.89108  0.013824969  0.012834834            2 
 1664000    0.5914293   -8.3345518    276.46183  0.013845244  0.012824042            6 
 1665000   0.59814965   -8.3222911    276.49536  0.013838607  0.012813268            2 
 1666000   0.59180794   -8.3119522    276.60107  0.013835588  0.012802508            6 
 1667000   0.57819251   -8.3231797    276.22244   0.01380836  0.012791742            3 
 1668000   0.58989129   -8.2954887    276.22203  0.013800062  0.012781004            2 
 1669000   0.58181079   -8.3147281    276.59093  0.013810212  0.012770264            3 
 1670000   0.59848249    -8.320781    276.32023  0.013788435  0.012759526            2 
 1671000   0.58316645   -8.2994365     276.6132  0.013794794  0.012748799            2 
 1672000   0.58568103   -8.3318117    276.12053  0.013761988  0.012738063            2 
 1673000   0.58030584   -8.3222999    276.33401  0.013764396   0.01272734            2 
 1674000   0.59284234   -8.3207323    276.22938  0.013750965  0.012716646            3 
 1675000   0.59145136   -8.3306774    276.54536  0.013758475  0.012705958            3 
 1676000   0.60002329   -8.3307296    276.39578  0.013742829   0.01269528            2 
 1677000    0.5779244   -8.3158356    275.92649  0.013711314  0.012684606            2 
 1678000   0.57458625   -8.3048896    276.37043   0.01372519  0.012673949            3 
 1679000   0.58775196   -8.3227025     276.2944  0.013713242  0.012663296            3 
 1680000   0.58654854   -8.3258839    276.55541  0.013718026  0.012652662            2 
 1681000   0.57722618   -8.3134488    276.83162  0.013723558  0.012642031            3 
 1682000   0.58240066   -8.3016419    276.75802  0.013711753  0.012631421            3 
 1683000   0.58490777   -8.3295814    276.58102  0.013694841  0.012620819            5 
 1684000   0.58398096   -8.3148687    276.61161  0.013688223  0.012610222            4 
 1685000    0.5941953   -8.3173569    276.27125  0.013663267  0.012599625            6 
 1686000   0.58392506    -8.321276    276.37236   0.01366016  0.012589049            3 
 1687000   0.59341894     -8.33604    275.92491   0.01362996   0.01257846            2 
 1688000    0.5784326   -8.3372001    275.94636  0.013622944  0.012567885            1 
 1689000   0.58424465   -8.3089045    276.38574  0.013636557  0.012557315            3 
 1690000   0.57875229   -8.3402224     276.3771  0.013628062  0.012546764            2 
 1691000   0.56804411   -8.3187057    276.33913  0.013618132  0.012536213            2 
 1692000   0.58790957   -8.3292387    276.15516  0.013601023  0.012525669            3 
 1693000   0.56960252   -8.3474767    276.18153  0.013594287  0.012515141            1 
 1694000   0.57972456   -8.3283286    276.43252  0.013598609  0.012504625            4 
 1695000   0.57212255   -8.3435548    275.95791  0.013567252  0.012494117            2 
 1696000   0.56659596   -8.3645288    275.97973  0.013560325  0.012483612            2 
 1697000   0.57615739   -8.3523891    276.42558  0.013574228  0.012473119            2 
 1698000   0.58040814   -8.3386107    275.63085   0.01352723  0.012462651            2 
 1699000   0.56986217   -8.3361971    276.06912  0.013540765  0.012452185            2 
 1700000   0.57011571   -8.3561613    276.22306  0.013540346  0.012441724            2 
 1701000   0.58721424   -8.3499711    276.12201  0.013527435  0.012431273            2 
 1702000   0.58014513   -8.3405548    275.90099  0.013508666  0.012420851            2 
 1703000   0.56788081   -8.3527329    276.20884  0.013515797  0.012410423            2 
 1704000   0.56905544   -8.3355132    275.90728  0.013493118  0.012399996            1 
 1705000   0.57462246   -8.3519989    275.83401  0.013481623  0.012389586            1 
 1706000   0.57789852   -8.3456482    276.60589  0.013511425  0.012379173            2 
 1707000   0.55364069   -8.3491983    276.34528  0.013490787  0.012368753            4 
 1708000   0.56481915   -8.3663875    275.60496  0.013446768  0.012358356            2 
 1709000    0.5688459    -8.366991     276.3423  0.013474854  0.012347971            2 
 1710000   0.57756079   -8.3381713    276.30343   0.01346508  0.012337591            1 
 1711000   0.57965698   -8.3335716    275.79869  0.013432627  0.012327226            7 
 1712000   0.57357543   -8.3238947    276.00165   0.01343466   0.01231687            3 
 1713000   0.56203966   -8.3656601    276.22053  0.013437465  0.012306509            2 
 1714000   0.57237808   -8.3830477    276.03269  0.013420492  0.012296167            1 
 1715000   0.57955775   -8.3578477    276.36078  0.013428609  0.012285832            2 
 1716000   0.56289309   -8.3581752    275.55149  0.013381483  0.012275508            5 
 1717000   0.55090737   -8.3578181     276.2256  0.013406406  0.012265196            4 
 1718000   0.56437317   -8.3476871    276.21045  0.013397868  0.012254899            3 
 1719000   0.56898597   -8.3515661     275.5254  0.013356865  0.012244624            2 
 1720000   0.56176163   -8.3540455    275.78557  0.013361704  0.012234342            2 
 1721000   0.56271973   -8.3580708      275.987  0.013363694  0.012224072            2 
 1722000   0.57316136    -8.384464    275.25511  0.013320514  0.012213794            2 
 1723000   0.55449608   -8.3775506    276.35392  0.013365928  0.012203539            4 
 1724000   0.56839406   -8.3679273    275.94843  0.013338575  0.012193306            3 
 1725000   0.56832509   -8.3613395    276.28401  0.013347053  0.012183066            2 
 1726000    0.5638912   -8.3610072    275.80397  0.013316144  0.012172843            2 
 1727000   0.55810975   -8.3789657     276.0958  0.013322515  0.012162635            3 
 1728000   0.55379928   -8.3739086    276.06166  0.013313159  0.012152446            3 
 1729000   0.56520134    -8.374264    275.72004  0.013288993  0.012142253            4 
 1730000   0.56884729   -8.3864993     275.3945  0.013265631   0.01213207            5 
 1731000   0.56343943   -8.3574461    275.80746  0.013277848  0.012121909            4 
 1732000   0.55340957   -8.3487044    275.96965  0.013277986  0.012111758            2 
 1733000   0.55912848   -8.3612233    275.90892  0.013267403  0.012101618            2 
 1734000   0.56126009   -8.3659682    275.59144  0.013244495  0.012091484            3 
 1735000   0.55978304   -8.3656955    276.22019   0.01326706  0.012081372            3 
 1736000   0.55290812   -8.3712801    276.09743  0.013253525  0.012071245            2 
 1737000   0.57223001   -8.3693763    275.70514  0.013227074  0.012061138            3 
 1738000   0.56988206   -8.3765208    275.36477  0.013203144  0.012051044            1 
 1739000   0.56688335   -8.3846095    276.21871  0.013236472  0.012040958            3 
 1740000   0.56497729   -8.3887315     276.1616   0.01322613  0.012030886            2 
 1741000   0.55666992   -8.3734213    275.95689  0.013208735  0.012020829            5 
 1742000   0.55996714   -8.3803183    275.52942  0.013180703  0.012010781            3 
 1743000   0.55070876   -8.3836704    275.43595  0.013168673  0.012000737            4 
 1744000   0.55777232   -8.3923121    275.96485  0.013186394  0.011990708            3 
 1745000     0.548797   -8.3724817    275.53097  0.013158117  0.011980686            4 
 1746000   0.55572563   -8.3654542    276.03856  0.013174807  0.011970672            2 
 1747000   0.54744665   -8.4050093      275.415  0.013137521  0.011960666            1 
 1748000   0.56371261   -8.3908238    275.98769  0.013157308  0.011950682            2 
 1749000   0.55257656    -8.392156    276.13657  0.013156879  0.011940715            2 
 1750000   0.55635127   -8.3735053    275.97392  0.013141615  0.011930754            2 
 1751000   0.55508187   -8.3692492    275.85332  0.013128371    0.0119208            2 
 1752000   0.56420323   -8.3694911    275.94325  0.013125155  0.011910852            3 
 1753000   0.55437793   -8.3827057    276.09627  0.013124941  0.011900918            2 
 1754000   0.54881296   -8.3676143    276.17064  0.013120992   0.01189098            4 
 1755000   0.55350041   -8.3855793    275.79653  0.013095752  0.011881051            3 
 1756000   0.54979269   -8.3748911    275.79529  0.013088235  0.011871148            5 
 1757000   0.55822477   -8.4074788    275.98234  0.013089657  0.011861252            4 
 1758000   0.55493679   -8.3702147    275.87553  0.013077149  0.011851358            5 
 1759000   0.55068536   -8.3877527    275.74993  0.013063764   0.01184149            3 
 1760000   0.55614422   -8.3819966    275.86584   0.01306183  0.011831621            4 
 1761000   0.54541143    -8.383965    275.66457  0.013044888  0.011821754            6 
 1762000   0.55715951   -8.3708308    275.23016  0.013016939   0.01181189            5 
 1763000   0.54198404   -8.3889377     275.9416  0.013043184  0.011802036            3 
 1764000   0.55025778   -8.3761512    275.54048   0.01301684   0.01179219            4 
 1765000   0.55215566   -8.3841622    275.39433  0.013002565  0.011782363            3 
 1766000   0.55335312   -8.4006359    276.10662  0.013028813   0.01177255            5 
 1767000   0.54094182   -8.4040916    275.48294  0.012992027  0.011762735            6 
 1768000   0.54907506   -8.4019057     275.7417  0.012996875  0.011752937            4 
 1769000   0.55016745   -8.4025786    275.89704  0.012996846  0.011743144            3 
 1770000   0.54980193   -8.3863285     275.7859   0.01298427  0.011733376            3 
 1771000   0.55980148   -8.4000908    275.78563  0.012976926  0.011723599            7 
 1772000   0.54722302    -8.411395    274.96966  0.012931229  0.011713838            6 
 1773000    0.5431747   -8.3937326    275.40049  0.012944185  0.011704086            6 
 1774000   0.53975479   -8.4005031     275.6229  0.012947336  0.011694333            7 
 1775000   0.53542619   -8.4035664    275.72018  0.012944609  0.011684595            6 
 1776000   0.53887746   -8.3947611    275.46493  0.012925344  0.011674853            4 
 1777000   0.54397272   -8.3986141     275.5475  0.012921942  0.011665134            5 
 1778000   0.53864739   -8.3864678    275.57282  0.012915861  0.011655431            2 
 1779000   0.55130909   -8.4124745    275.65107  0.012912267  0.011645722            5 
 1780000   0.54822865   -8.3914579    275.47352    0.0128967  0.011636031            4 
 1781000   0.55396565   -8.4026483    275.39719  0.012885888  0.011626352            3 
 1782000   0.54421038   -8.4181054    275.33958  0.012875962  0.011616683            3 
 1783000   0.54116975   -8.4061738    275.75097  0.012887968  0.011607021            4 
 1784000    0.5485606   -8.3970704    275.45318  0.012866834  0.011597369            7 
 1785000   0.54135863   -8.4241658    275.52758  0.012863099  0.011587707            6 
 1786000   0.54759021   -8.4248063    275.68597  0.012863287  0.011578066            3 
 1787000   0.53482545   -8.4089433    275.51424   0.01284808  0.011568444            3 
 1788000   0.52905578   -8.4059094    275.40593  0.012835847  0.011558823            6 
 1789000   0.54319796    -8.416024    275.52956  0.012834431  0.011549218            4 
 1790000   0.53105359   -8.4094081    275.63556  0.012832196  0.011539622            4 
 1791000   0.53719508   -8.4268346    275.67431  0.012826834  0.011530031            4 
 1792000   0.54172915   -8.4044606    275.50439  0.012811774   0.01152045            7 
 1793000   0.54621472   -8.4212097    275.48011    0.0128035  0.011510874            7 
 1794000   0.52495305   -8.4064194    275.41023  0.012793117  0.011501314            4 
 1795000   0.52918701   -8.4162044    275.37069  0.012784154   0.01149176            3 
 1796000   0.53077493   -8.4251809    275.58942  0.012787185  0.011482209            6 
 1797000   0.53857883   -8.4218919    275.15815   0.01276007  0.011472659            5 
 1798000   0.54372035   -8.4240508    274.75849   0.01273445   0.01146312            5 
 1799000   0.54662972   -8.4008474    275.46613  0.012760151  0.011453592            5 
 1800000   0.53412021   -8.4418967    275.15911  0.012738847  0.011444071            8 
 1801000   0.53261593   -8.4382028    275.46924  0.012746124  0.011434565            5 
 1802000   0.53017411   -8.4105033    275.26242  0.012729487  0.011425072            7 
 1803000   0.53739133   -8.4080269    274.70334  0.012696586   0.01141558            7 
 1804000   0.53234919   -8.4174418     275.0148  0.012703936  0.011406103            4 
 1805000   0.52332316   -8.4179052    275.53212  0.012720781  0.011396636            6 
 1806000   0.52538257   -8.4203995    274.84913  0.012682222  0.011387166            5 
 1807000   0.53843172   -8.4228858    275.31425  0.012696654  0.011377702            4 
 1808000   0.53846832   -8.4247458    275.40258  0.012693703  0.011368274            6 
 1809000    0.5305363   -8.4359382    274.98222  0.012667322  0.011358828            4 
 1810000   0.53170947    -8.433565    275.64556  0.012690864  0.011349393            5 
 1811000     0.532231   -8.4231548    275.43945  0.012674372  0.011339983            5 
 1812000   0.53936615    -8.404322    275.35438  0.012663465  0.011330585            4 
 1813000   0.52414955   -8.4172785    275.47723  0.012662127  0.011321184            3 
 1814000   0.52375664   -8.4412026     275.1827  0.012641616   0.01131178            3 
 1815000   0.52839764   -8.4258294    275.56772  0.012652329  0.011302386            4 
 1816000   0.53456954   -8.4206717     275.2483  0.012630704  0.011293012            5 
 1817000   0.53867534   -8.4162572    275.46699  0.012633782  0.011283659            7 
 1818000   0.52576647   -8.4092774    275.50696  0.012628665  0.011274303            7 
 1819000   0.52423079   -8.4168312    275.37633  0.012615738  0.011264953            4 
 1820000   0.54078782   -8.4419401    275.60941  0.012619478  0.011255612            6 
 1821000    0.5295422    -8.428845    274.97108  0.012583337  0.011246279            4 
 1822000   0.52027006   -8.4286401     275.4902  0.012600174   0.01123697            5 
 1823000   0.52461337   -8.4282312     275.0982  0.012575343  0.011227667            5 
 1824000   0.51652057   -8.4152638    275.34165  0.012579571  0.011218381            5 
 1825000   0.53983133   -8.4207303    275.20756  0.012566555  0.011209101            6 
 1826000    0.5264099   -8.4408706    274.80696  0.012541391  0.011199828            6 
 1827000   0.53177342   -8.4390346      275.115  0.012548577  0.011190562            2 
 1828000   0.52344533   -8.4435154    275.25152  0.012547936   0.01118131            2 
 1829000   0.53078939   -8.4462017    275.38356  0.012547091  0.011172063            2 
 1830000   0.51505934   -8.4315543    274.84362  0.012515648   0.01116281            5 
 1831000   0.52217426   -8.4497379    274.59738  0.012497605  0.011153567            4 
 1832000   0.52715441   -8.4190622    275.30369  0.012522912  0.011144346            6 
 1833000    0.5217518   -8.4319731    275.59966  0.012529536  0.011135137            3 
 1834000   0.52440065   -8.4210015    275.46592  0.012516627  0.011125933            3 
 1835000   0.52984734   -8.4442417    275.40877   0.01250721  0.011116739            2 
 1836000   0.51128062   -8.4557073    275.15848  0.012489038  0.011107553            6 
 1837000   0.52530649   -8.4523106    274.27056   0.01244196  0.011098368            5 
 1838000   0.51450607   -8.4471041    275.09387  0.012472518  0.011089195            4 
 1839000   0.53113887   -8.4359119    275.08241  0.012465217  0.011080036            3 
 1840000   0.50879223   -8.4341254    274.71341   0.01244173  0.011070879            2 
 1841000   0.51687543   -8.4592529    274.88498  0.012442738  0.011061733            8 
 1842000   0.51267264   -8.4353578    274.90357  0.012436825  0.011052595            5 
 1843000    0.5207562   -8.4418912    275.16911  0.012442083  0.011043475            5 
 1844000   0.52706865   -8.4414417    275.27317  0.012440038  0.011034356            5 
 1845000   0.51598147   -8.4480779     274.8332  0.012413423  0.011025256            7 
 1846000   0.50780045   -8.4409658    275.21934  0.012424131  0.011016167            4 
 1847000   0.51595866   -8.4423762    275.25116  0.012418839  0.011007072            6 
 1848000   0.51428051   -8.4493614    274.48023  0.012377355  0.010998003            7 
 1849000   0.51732352   -8.4339539    275.06941  0.012397215  0.010988939            6 
 1850000   0.51329215   -8.4510938    275.32443  0.012402001  0.010979875            5 
 1851000   0.50917145   -8.4401159    275.08424  0.012384488  0.010970827            3 
 1852000   0.51441694   -8.4372746    275.14668   0.01238061  0.010961769            3 
 1853000   0.51797557   -8.4394583     275.0929   0.01237151  0.010952731            6 
 1854000   0.51119685   -8.4515253    274.74856   0.01234936  0.010943707            4 
 1855000   0.51943294   -8.4599494    275.07555  0.012357392   0.01093468            4 
 1856000   0.51231038   -8.4323722    274.66196  0.012332164  0.010925675            5 
 1857000   0.51032474   -8.4379517    275.11498  0.012345853  0.010916667            5 
 1858000   0.51466657   -8.4429754    274.33936  0.012304421  0.010907669            3 
 1859000    0.5088873   -8.4604178    274.82977  0.012319785  0.010898678            4 
 1860000    0.5173406   -8.4475636    274.82893  0.012313124  0.010889696            4 
 1861000   0.49965817    -8.470053    274.82722  0.012306431  0.010880725            7 
 1862000   0.51579212   -8.4488668     274.9959  0.012307371  0.010871758            5 
 1863000   0.51690987   -8.4596615     274.5784   0.01228209  0.010862794            6 
 1864000   0.52622182   -8.4612181    275.11044  0.012299287  0.010853842            6 
 1865000   0.51454587   -8.4608978    274.77721  0.012277802  0.010844905            7 
 1866000   0.51011702   -8.4619889    274.75198  0.012270096  0.010835978            5 
 1867000   0.51017868   -8.4543634    275.08757  0.012278502   0.01082706            6 
 1868000    0.5076125   -8.4591683    274.51061  0.012246191  0.010818148            5 
 1869000    0.5067969   -8.4564261    274.71772  0.012248873   0.01080924            6 
 1870000   0.50985432   -8.4737114    274.98846  0.012254387  0.010800348            6 
 1871000   0.49469093   -8.4434476    274.54012  0.012227869  0.010791465            7 
 1872000   0.51257163   -8.4629907    274.55981  0.012222214  0.010782585            7 
 1873000   0.51728093   -8.4556967    274.82924  0.012227676  0.010773726            6 
 1874000    0.5040278   -8.4548835    274.50438  0.012206705  0.010764865            5 
 1875000   0.50252513   -8.4573225    275.04575  0.012224255  0.010756013            7 
 1876000   0.50273378   -8.4625282    274.64244  0.012199824  0.010747167            3 
 1877000   0.51123617   -8.4743401    274.93813  0.012206452  0.010738336            6 
 1878000   0.50709236   -8.4656268    275.11202  0.012207669  0.010729514            7 
 1879000   0.50310145    -8.465021    274.80472  0.012187543  0.010720709            6 
 1880000   0.52272826   -8.4663193    274.67909  0.012175492  0.010711899            5 
 1881000   0.50773147   -8.4854025    274.65246  0.012167839  0.010703105            5 
 1882000    0.5126593   -8.4875959    274.22084  0.012142262  0.010694306            5 
 1883000   0.50950782   -8.4795913    275.12937  0.012176021  0.010685516            5 
 1884000   0.49752643   -8.4499343    275.06061  0.012166517  0.010676738            5 
 1885000   0.50316806   -8.4709388    274.02024  0.012114069  0.010667963            6 
 1886000   0.50324966    -8.470497     275.1013  0.012155413  0.010659208            5 
 1887000   0.49874294   -8.4637106    274.63275  0.012128279  0.010650451            5 
 1888000     0.495483   -8.4589404    274.71099  0.012125309  0.010641705            3 
 1889000   0.49634583   -8.4603728    274.32354  0.012101797  0.010632963            7 
 1890000   0.50243586   -8.4797033    274.85925  0.012119015  0.010624233            5 
 1891000   0.49468945   -8.4699237    274.70096   0.01210563  0.010615521            5 
 1892000    0.4976638   -8.4703137    274.85814  0.012106155  0.010606814            8 
 1893000   0.49858021   -8.4689665    274.36661  0.012078121  0.010598114            6 
 1894000   0.49554154   -8.4781233    274.51931  0.012078463  0.010589423            6 
 1895000   0.48846111   -8.4709124    274.54121  0.012073052  0.010580742            3 
 1896000   0.49315778   -8.4845569    274.59517  0.012069056   0.01057208            3 
 1897000   0.49701645   -8.4836144    274.46927  0.012057164  0.010563421            6 
 1898000   0.49671008    -8.463384     274.5536  0.012054514  0.010554763            2 
 1899000   0.48799657   -8.4903832    274.43746  0.012043069  0.010546119            1 
 1900000   0.48862678   -8.4916744    273.86747  0.012011731  0.010537478            5 
 1901000   0.49700154   -8.4790473    274.46797  0.012031736  0.010528847            6 
 1902000     0.499015   -8.4902829    274.78831  0.012039446  0.010520225            5 
 1903000   0.49219469    -8.484472    274.53035  0.012021823  0.010511619            3 
 1904000   0.48816098   -8.4893187    274.04977  0.011994475  0.010503017            6 
 1905000   0.49874214   -8.4808173    274.05611  0.011988456  0.010494418            4 
 1906000   0.49842819   -8.4835147    274.37237  0.011995994  0.010485835            9 
 1907000    0.4840249   -8.5006527    274.73997  0.012005767  0.010477255           10 
 1908000   0.48536186   -8.4900866    274.71732  0.011998485  0.010468688            8 
 1909000   0.47900066   -8.4795918    274.37559  0.011977282  0.010460124            5 
 1910000   0.48920108   -8.4836693    274.40457  0.011972276  0.010451568            5 
 1911000   0.48997328   -8.4679496    274.16233  0.011955448  0.010443024            6 
 1912000   0.48869196   -8.4920625     274.3799  0.011958678   0.01043449            3 
 1913000   0.48761256    -8.497208    274.34783  0.011951029   0.01042596            4 
 1914000   0.49292812   -8.4734274    274.18405  0.011937655  0.010417442            3 
 1915000   0.47830444   -8.4990493    274.43009  0.011942127  0.010408931            4 
 1916000   0.48577175   -8.4852943    274.36578  0.011933097  0.010400432            6 
 1917000   0.49023161   -8.4908232    274.41701    0.0119291  0.010391941            4 
 1918000   0.48271531    -8.490371    274.42465  0.011923212  0.010383464            5 
 1919000   0.48340295   -8.4826709    274.84428  0.011935221  0.010374989            5 
 1920000   0.49119951   -8.5036877    274.18391  0.011900343  0.010366528            6 
 1921000   0.48582573   -8.4821387    274.28422    0.0118985  0.010358069            7 
 1922000   0.48278602   -8.4962518    274.44072  0.011899095  0.010349619            4 
 1923000   0.47651867   -8.4982021    274.06278  0.011876529  0.010341167            7 
 1924000   0.48489814   -8.5128494    273.87736  0.011862325  0.010332729           10 
 1925000   0.47762352   -8.4943326    274.27448  0.011873354  0.010324305            6 
 1926000   0.48808618   -8.4883649    274.17473  0.011862873  0.010315883            9 
 1927000   0.47986542   -8.4781693    274.28698  0.011861571  0.010307472            6 
 1928000   0.48662162   -8.4958213    274.55605  0.011867049   0.01029907            7 
 1929000   0.48243842   -8.4916163    273.97911  0.011835973   0.01029068            5 
 1930000   0.49093813   -8.4814161    274.45838  0.011850535  0.010282299            3 
 1931000   0.47805536   -8.5069584    274.04284  0.011826465  0.010273921            5 
 1932000   0.48839023   -8.4951153    274.11241  0.011823344  0.010265552            7 
 1933000   0.48213715    -8.508072    274.16642  0.011819556  0.010257195            4 
 1934000   0.48844337   -8.4937684    274.34181  0.011821002  0.010248844            7 
 1935000   0.47385395   -8.5111199    274.14816  0.011806553  0.010240491            6 
 1936000   0.49078437   -8.5113474    274.29679  0.011806852  0.010232156            3 
 1937000   0.48704682   -8.4924996     274.2866  0.011800318  0.010223835            5 
 1938000   0.47049442    -8.496972    274.34854  0.011796893  0.010215522            3 
 1939000    0.4675574   -8.5019184    274.47186  0.011796109  0.010207216            4 
 1940000   0.46892393   -8.4876122    274.26641  0.011781203  0.010198909            4 
 1941000   0.48542995   -8.4975578    274.58329  0.011788738  0.010190618            5 
 1942000    0.4802685   -8.5074687    274.20173  0.011766295  0.010182342            5 
 1943000    0.4810681   -8.4996984    273.97015  0.011750307  0.010174055            6 
 1944000   0.46621128   -8.5067215    274.47334  0.011765833  0.010165778            7 
 1945000   0.47196693   -8.5080585    274.33319  0.011753778  0.010157517            6 
 1946000   0.47472502   -8.4926044    273.89067  0.011728789  0.010149257            5 
 1947000   0.47187525   -8.5118057    274.44654  0.011746556  0.010141005            5 
 1948000   0.47172796   -8.4936079    273.94925  0.011719253  0.010132775            7 
 1949000   0.48157996   -8.4875374    274.08432  0.011719015  0.010124549            5 
 1950000   0.47912563   -8.5026474    274.10126  0.011713729  0.010116328            6 
 1951000   0.47019272   -8.5143207    273.88221  0.011698369  0.010108109            6 
 1952000   0.47714452   -8.5040006    274.27924  0.011709325  0.010099895            4 
 1953000   0.47739552   -8.4944615    274.33981  0.011705914   0.01009169            4 
 1954000   0.46825528   -8.5133864    273.82446  0.011677945  0.010083495            8 
 1955000   0.47910631   -8.5221857    274.16497  0.011686486  0.010075306            6 
 1956000   0.46971434   -8.5225742    274.00965  0.011673894  0.010067135            5 
 1957000   0.46742995   -8.5353142    274.01462  0.011668141  0.010058961            6 
 1958000   0.46538493   -8.5131065    273.82845  0.011654258  0.010050794            6 
 1959000   0.46585051   -8.5206156    273.74431   0.01164473  0.010042632            7 
 1960000    0.4693956   -8.5242823    273.72333  0.011637897  0.010034485            9 
 1961000   0.48174717   -8.5229003    273.69438  0.011630732  0.010026352            7 
 1962000    0.4669789   -8.5139633    273.86137  0.011631897  0.010018225            9 
 1963000   0.46905132   -8.5118542    273.88114   0.01162681  0.010010104            9 
 1964000   0.46468663   -8.5198529     273.8642  0.011620171  0.010001996            5 
 1965000   0.46912623   -8.5218743    273.77647  0.011610537   0.00999389            5 
 1966000   0.45362671   -8.5208451    273.82678  0.011606764 0.0099857959            6 
 1967000   0.46807912   -8.5229825    273.71136  0.011595974 0.0099777073            6 
 1968000    0.4621144   -8.5190793    274.40825  0.011619591 0.0099696247            6 
 1969000   0.46991773   -8.5228816    273.90322  0.011592315 0.0099615602            2 
 1970000    0.4611447   -8.5138389     273.6257  0.011574691 0.0099534942            5 
 1971000   0.45852329   -8.5286347    273.72787  0.011573138 0.0099454416            8 
 1972000   0.46667559   -8.5219854    273.67013   0.01156483   0.00993739            7 
 1973000   0.45220625   -8.5267741    274.11764  0.011577869 0.0099293471            7 
 1974000   0.46601937   -8.5156561    274.24896  0.011577548 0.0099213122            4 
 1975000   0.47151142   -8.5300402    273.85007  0.011554855 0.0099132787            6 
 1976000   0.46475352   -8.5223254    273.74825  0.011544714 0.0099052631            6 
 1977000   0.46694215   -8.5467472    273.48349  0.011527714 0.0098972498            6 
 1978000   0.46092123   -8.5217679    273.99734  0.011543535  0.009889251            7 
 1979000   0.46967696    -8.534036    273.56372  0.011519443 0.0098812511            3 
 1980000   0.46669526    -8.528003    273.60209   0.01151524 0.0098732643            7 
 1981000   0.46954789   -8.5267709    273.92845  0.011523155 0.0098652888            4 
 1982000   0.46179614   -8.5297236    274.20593  0.011529008 0.0098573187            6 
 1983000   0.46069842   -8.5272633    273.62556  0.011498805 0.0098493629            6 
 1984000   0.46067329    -8.519703    273.98626  0.011508159 0.0098414115            7 
 1985000    0.4586455   -8.5192184     273.9237  0.011499735 0.0098334641            5 
 1986000   0.45738192    -8.529854    273.45075    0.0114741 0.0098255236           10 
 1987000   0.45776402   -8.5209978    274.00922  0.011491747 0.0098175948            6 
 1988000   0.46065656   -8.5310196    273.49706  0.011464498 0.0098096815            7 
 1989000   0.44606399   -8.5061944     273.5913  0.011462682 0.0098017652            7 
 1990000   0.47178591   -8.5339457    273.54704  0.011455069 0.0097938571            5 
 1991000   0.47104772   -8.5391317      273.906  0.011464339 0.0097859553            4 
 1992000   0.45472204   -8.5359286     273.8183  0.011454915 0.0097780698            7 
 1993000   0.46588153   -8.5350661    273.73033  0.011445489 0.0097701812            5 
 1994000   0.45029429    -8.540748    273.62106  0.011435183 0.0097623018           10 
 1995000   0.44875764   -8.5353567    273.75025  0.011434848 0.0097544262            8 
 1996000    0.4500136   -8.5257271    273.55821  0.011421101 0.0097465612            5 
 1997000    0.4531597   -8.5163123    273.80212   0.01142556 0.0097387069            6 
 1998000   0.45547417   -8.5354116    273.61706  0.011412123 0.0097308706            5 
 1999000   0.46174788   -8.5412463    273.57699  0.011404743 0.0097230362            4 
 2000000   0.46200656   -8.5297028     273.7797  0.011407487 0.0097152061            6 
 2001000   0.45353055   -8.5222094    273.68875  0.011397999 0.0097073851            7 
 2002000   0.44918903   -8.5349617    273.36889  0.011378992 0.0096995731            6 
 2003000   0.44905399    -8.546678    273.38528  0.011373993 0.0096917686            7 
 2004000   0.45330185   -8.5359289    273.41586  0.011369588 0.0096839684            7 
 2005000   0.45149727   -8.5418006    273.77345   0.01137878 0.0096761784            7 
 2006000   0.45537644   -8.5376814    272.90913  0.011337202 0.0096683966            6 
 2007000    0.4554218   -8.5444693     273.6841  0.011363731 0.0096606208            6 
 2008000   0.46285455   -8.5458662    273.66054  0.011357094 0.0096528596            7 
 2009000   0.44550682   -8.5385894    273.35954  0.011338956 0.0096450971            6 
 2010000   0.45371717   -8.5394201    273.19964  0.011326685  0.009637344            4 
 2011000   0.44983121     -8.55087    273.96157  0.011352626 0.0096295998            3 
 2012000   0.44623343   -8.5545955    273.47111   0.01132667 0.0096218652            8 
Loop time of 4719.71 on 48 procs for 2000000 steps with 4000 atoms

Performance: 73224.791 tau/day, 423.755 timesteps/s
99.4% CPU use with 48 MPI tasks x no OpenMP threads

MPI task timing breakdown:
Section |  min time  |  avg time  |  max time  |%varavg| %total
---------------------------------------------------------------
Pair    | 300.76     | 322.25     | 342.04     |  59.0 |  6.83
Neigh   | 30.698     | 32.223     | 33.645     |  13.7 |  0.68
Comm    | 299.57     | 323.14     | 347.86     |  69.4 |  6.85
Output  | 4.0523     | 4.0544     | 4.09       |   0.3 |  0.09
Modify  | 3984.8     | 3995.3     | 4004.3     |   7.3 | 84.65
Other   |            | 42.7       |            |       |  0.90

Nlocal:        83.3333 ave          93 max          75 min
Histogram: 1 5 1 14 4 11 7 3 1 1
Nghost:        2025.08 ave        2050 max        2008 min
Histogram: 4 1 11 6 9 9 5 2 0 1
Neighs:        13038.2 ave       15007 max       11696 min
Histogram: 5 4 4 11 10 6 4 2 1 1
FullNghs:      26076.4 ave       29309 max       23469 min
Histogram: 4 2 2 11 12 6 5 3 2 1

Total # of neighbors = 1251667
Ave neighs/atom = 312.91675
Neighbor list builds = 107181
Dangerous builds = 0

#clear
#
#next RN
#
#jump SELF
Total wall time: 1:18:42
