
units lj                  # Use reduced LJ style units
atom_style atomic         # Uncharged point particles
atom_modify map hash      # Needed for indexing of clusters etc
                          # Used to be able to find where atoms are in relation to each other.

lattice fcc 1.0 spacing 1 1 1
Lattice spacing in x,y,z = 1.5874011 1.5874011 1.5874011
region box block 0 10 0 10 0 10 units lattice
create_box 2 box
Created orthogonal box = (0.0000000 0.0000000 0.0000000) to (15.874011 15.874011 15.874011)
  3 by 4 by 4 MPI processor grid
create_atoms 1 box
Created 4000 atoms
  using lattice units in orthogonal box = (0.0000000 0.0000000 0.0000000) to (15.874011 15.874011 15.874011)
  create_atoms CPU = 0.002 seconds
set type 1 type/fraction 2 0.99 78393
Setting atom values ...
  3965 settings made for type/fraction
mass 1 1.0
mass 2 1.0
pair_style lj/cut  3.5
pair_modify tail  yes
pair_coeff 1  1  1.0  1.0   # Intearaction between 1 and 1 set with epsilon = 1 and sigma = 1
pair_coeff 1  2  1.5  0.8
pair_coeff 2  2  0.5  0.88

write_data data.0
System init for write_data ...
Neighbor list info ...
  update every 1 steps, delay 10 steps, check yes
  max neighbors/atom: 2000, page size: 100000
  master list distance cutoff = 3.8
  ghost atom cutoff = 3.8
  binsize = 1.9, bins = 9 9 9
  1 neighbor lists, perpetual/occasional/extra = 1 0 0
  (1) pair lj/cut, perpetual
      attributes: half, newton on
      pair build: half/bin/atomonly/newton
      stencil: half/bin/3d
      bin: standard
WARNING: Not all mixed pair coeffs generated from mixing. Use write_data with 'pair ij' option to store all pair coeffs. (../write_data.cpp:312)


#############################
#   M E L T   S Y S T E M   #
#############################

velocity all create 2.4 2750902 mom yes dist gaussian # Assign velocities
                                                    # Temperature 2.4, random number seed, zero linear momentum
                                                                                # Gaussian distribution

timestep 0.002   # simulation timestep
thermo 1000       # output thermodynamic data every 1000 steps bf 100

# Define a fix  in this case with index 1 applied to all
# particles in the simulation. This fix is for simulations
# in the anisotropic NPT ensemble. Note that we use the MTK
# correction.
fix 1 all npt temp 2.4 2.4 0.1 iso 5.68 5.68 0.5 mtk yes tchain 5 pchain 5 # Use NPT ensemble
                                                                         # Set temperature and pressure and damping
                                                                         # Numbers of thermostats in chain and in barostat
run 10000          # run for 10000 steps
Per MPI rank memory allocation (min/avg/max) = 3.642 | 3.644 | 3.648 Mbytes
Step Temp E_pair E_mol TotEng Press Volume 
       0          2.4   -2.7429598            0   0.85614022   -1.7792645         4000 
    1000    2.3847366   -1.4516047            0     2.124606    5.8889267    4232.6384 
    2000    2.4170175   -1.5015384            0    2.1230814    5.7046782    4234.1376 
    3000    2.3929662   -1.5446223            0    2.0439297    5.6888983    4198.7623 
    4000    2.4397217   -1.5006194            0    2.1580482    5.8363601    4221.3296 
    5000     2.365938   -1.5097421            0    2.0382776    5.6478786    4243.4877 
    6000    2.4360782    -1.492224            0    2.1609798    6.0030614    4181.7088 
    7000    2.3791036   -1.4960971            0    2.0716661    5.6695925    4239.4969 
    8000    2.4701248   -1.4822862            0    2.2219748    5.9166213    4222.8104 
    9000     2.400532   -1.5230519            0    2.0768459    5.4817488    4268.2238 
   10000    2.3765742   -1.4802181            0    2.0837519     5.856761    4221.2388 
Loop time of 2.42366 on 48 procs for 10000 steps with 4000 atoms

Performance: 712970.169 tau/day, 4125.985 timesteps/s
99.5% CPU use with 48 MPI tasks x no OpenMP threads

MPI task timing breakdown:
Section |  min time  |  avg time  |  max time  |%varavg| %total
---------------------------------------------------------------
Pair    | 1.0442     | 1.0912     | 1.1806     |   2.9 | 45.02
Neigh   | 0.20318    | 0.2098     | 0.223      |   0.8 |  8.66
Comm    | 0.74155    | 0.84627    | 0.9069     |   4.1 | 34.92
Output  | 0.00024619 | 0.0002525  | 0.00032017 |   0.0 |  0.01
Modify  | 0.22371    | 0.26129    | 0.29984    |   4.1 | 10.78
Other   |            | 0.01489    |            |       |  0.61

Nlocal:        83.3333 ave          93 max          72 min
Histogram: 2 2 4 3 11 6 10 2 4 4
Nghost:        1581.75 ave        1610 max        1554 min
Histogram: 3 1 5 5 9 11 6 4 3 1
Neighs:        9021.48 ave       10410 max        7471 min
Histogram: 2 1 4 8 7 7 6 9 3 1

Total # of neighbors = 433031
Ave neighs/atom = 108.25775
Neighbor list builds = 908
Dangerous builds = 209

# Equilibrate just above the melting temperature to avoid step fn in T

fix 1 all npt temp 1.25 1.25 0.1 iso 5.68 5.68 0.5 mtk yes tchain 5 pchain 5
run 2000
Per MPI rank memory allocation (min/avg/max) = 3.643 | 3.645 | 3.649 Mbytes
Step Temp E_pair E_mol TotEng Press Volume 
   10000    2.3765742   -1.4802181            0    2.0837519     5.856761    4221.2388 
   11000    1.2337454   -2.3109937            0  -0.46083818    5.6534746    3329.1486 
   12000    1.2384336   -2.2881149            0  -0.43092896    5.9491672    3310.5252 
Loop time of 0.656033 on 48 procs for 2000 steps with 4000 atoms

Performance: 526802.538 tau/day, 3048.626 timesteps/s
99.4% CPU use with 48 MPI tasks x no OpenMP threads

MPI task timing breakdown:
Section |  min time  |  avg time  |  max time  |%varavg| %total
---------------------------------------------------------------
Pair    | 0.251      | 0.27621    | 0.30745    |   2.3 | 42.10
Neigh   | 0.03823    | 0.040258   | 0.043296   |   0.5 |  6.14
Comm    | 0.25604    | 0.28339    | 0.31331    |   2.4 | 43.20
Output  | 5.4055e-05 | 5.5689e-05 | 7.8683e-05 |   0.0 |  0.01
Modify  | 0.047546   | 0.051452   | 0.054312   |   0.8 |  7.84
Other   |            | 0.004668   |            |       |  0.71

Nlocal:        83.3333 ave          89 max          77 min
Histogram: 3 2 3 3 9 9 7 4 5 3
Nghost:        1859.65 ave        1879 max        1837 min
Histogram: 2 3 3 5 7 11 4 3 7 3
Neighs:        11533.2 ave       12463 max       10082 min
Histogram: 2 0 3 8 1 9 7 5 6 7

Total # of neighbors = 553595
Ave neighs/atom = 138.39875
Neighbor list builds = 144
Dangerous builds = 9

#############################
# L I N E A R  Q U E N C H  #
#############################

# Define solid atoms. This closely follows ten Wolde  Ruiz-Montero and Frenkel  Faraday Discuss  1996  104  93-110
# Compute components of the per-atom q6 vector
compute q6 all orientorder/atom degrees 1 6 components 6 nnn NULL cutoff 1.3 # compute the Q6 parameter.
                                                                             # Use all neighbours within 1.3 unit cell.

# get number of connections
compute coord_number all coord/atom orientorder q6 0.5

# An atom is solid if it has 8 or more connections (of a possible 14)
variable is_solid atom c_coord_number>=8
group solid dynamic all var is_solid    # Must be dynamic to update
dynamic group solid defined

# do clustering
compute cluster solid cluster/atom 1.3 # Create a cluster where all atoms within are solid and max 1.3 units from another member

# define chunks one chunk per cluster
compute clus_chunks solid chunk/atom c_cluster nchunk every compress yes  # Says which atoms are in which chunk

# count the size of each chunk
compute size_chunks solid property/chunk clus_chunks count


# Find the maximum entry in the vector of chunk sizes
variable max_n equal max(c_size_chunks)


# Thermo style which includes this variable
# thermo_style custom step temp pe vol v_max_n

thermo ${N}  # Print the thermo information every 100 steps
thermo 1000  

# Reset the npt fix at a lower temperature (below freezing)
fix 1  all npt temp  ${temp} ${temp}  0.1  iso  5.68  5.68  0.5  mtk yes tchain  5  pchain  5
fix 1  all npt temp  0.45 ${temp}  0.1  iso  5.68  5.68  0.5  mtk yes tchain  5  pchain  5
fix 1  all npt temp  0.45 0.45  0.1  iso  5.68  5.68  0.5  mtk yes tchain  5  pchain  5

dump dmp2 all dcd ${N} traj.dcd
dump dmp2 all dcd 1000 traj.dcd


compute msd all msd com yes
variable twopoint equal c_msd[4]/6/(step*dt+1.0e-6)
fix 9 all vector 10 c_msd[4]
variable fit equal slope(f_9)/6/(10*dt)
thermo_style custom step temp pe c_msd[4] v_twopoint v_fit v_max_n

fix 1 all npt temp 1.25 ${temp} 0.1 iso 5.68 5.68 0.5 mtk yes tchain 5 pchain 5
fix 1 all npt temp 1.25 0.45 0.1 iso 5.68 5.68 0.5 mtk yes tchain 5 pchain 5
run 500000 # 5000000  # Run for this many steps
Neighbor list info ...
  update every 1 steps, delay 10 steps, check yes
  max neighbors/atom: 2000, page size: 100000
  master list distance cutoff = 3.8
  ghost atom cutoff = 3.8
  binsize = 1.9, bins = 8 8 8
  4 neighbor lists, perpetual/occasional/extra = 1 3 0
  (1) pair lj/cut, perpetual
      attributes: half, newton on
      pair build: half/bin/atomonly/newton
      stencil: half/bin/3d
      bin: standard
  (2) compute orientorder/atom, occasional
      attributes: full, newton on
      pair build: full/bin/atomonly
      stencil: full/bin/3d
      bin: standard
  (3) compute coord/atom, occasional
      attributes: full, newton on
      pair build: full/bin/atomonly
      stencil: full/bin/3d
      bin: standard
  (4) compute cluster/atom, occasional
      attributes: full, newton on
      pair build: full/bin/atomonly
      stencil: full/bin/3d
      bin: standard
Per MPI rank memory allocation (min/avg/max) = 9.809 | 9.816 | 9.820 Mbytes
Step Temp PotEng c_msd[4] v_twopoint v_fit v_max_n 
   12000    1.2384336   -2.2881149 5.9702965e-30 4.1460391e-32 8.3333333e+20            3 
   13000    1.2429973   -2.3337457     1.194133 0.0076546986   0.10150793       -1e+20 
   14000    1.2355343   -2.3283442    2.5522723  0.015192097   0.10784376            1 
   15000    1.2423858   -2.3217815    3.8871711  0.021595394   0.11099906            1 
   16000     1.252174   -2.3089041    5.1580589  0.026864889   0.11034211            3 
   17000    1.2068219   -2.3229866    6.5340364  0.032029589    0.1104787            2 
   18000    1.2308066   -2.3669946    7.8376897  0.036285599   0.11048059            1 
   19000    1.2402749   -2.3349394     9.018955  0.039556819   0.10978956            1 
   20000    1.2152143   -2.3157262    10.300375  0.042918229   0.10874069            1 
   21000    1.2378058   -2.3395355    11.406851  0.045265282   0.10747201            1 
   22000    1.2585851   -2.3685593    12.842622  0.048646294   0.10678201            1 
   23000    1.2442603   -2.3899051    14.220651  0.051524098   0.10682776            2 
   24000    1.2431887   -2.3401039    15.492591  0.053793718   0.10727302            2 
   25000    1.2362535   -2.3239846    16.788288  0.055960959   0.10745788            4 
   26000    1.2359632   -2.3341449    18.070325  0.057917706   0.10755839            1 
   27000    1.2205043   -2.3564925     19.38436  0.059828269   0.10754869            3 
   28000    1.2136266   -2.3432234     20.54892    0.0611575   0.10750135            1 
   29000    1.2155797   -2.3438268    21.992258  0.063196143   0.10739392            1 
   30000    1.1971187   -2.3749677    23.052649  0.064035136   0.10735398            1 
   31000    1.2112197   -2.3560139    24.307416  0.065342515   0.10730778            1 
   32000    1.2356362   -2.3617936    25.904725   0.06746022   0.10730663            2 
   33000      1.20215   -2.3555277    26.865731  0.067842753    0.1072888            2 
   34000    1.2270869   -2.3600072    28.308025  0.069382413   0.10717908            1 
   35000    1.2047558   -2.3541505    29.482295   0.07019594    0.1070779            2 
   36000    1.2287351   -2.3384653     30.97247  0.071695532   0.10702038            1 
   37000     1.205749   -2.3394494    32.014994  0.072105842    0.1069619            1 
   38000    1.2383758   -2.3675614     33.29678  0.073019254    0.1069064       -1e+20 
   39000    1.2296464   -2.3552882    34.861426  0.074490225   0.10696565            1 
   40000    1.2172919   -2.3518683    35.938285  0.074871427   0.10706707            1 
   41000     1.210449   -2.3376672    37.034357  0.075273083    0.1070447            3 
   42000    1.2094971   -2.3678841    38.563697  0.076515271   0.10699116            1 
   43000    1.2056487   -2.3786225    39.877271  0.077281531   0.10696357            3 
   44000    1.1971901   -2.3875763     40.80466  0.077281552   0.10685393            1 
   45000    1.1787525   -2.3548988    42.155667  0.078066049   0.10675259            1 
   46000    1.1890937   -2.4093654    43.519335  0.078839375   0.10676909            2 
   47000    1.1832902    -2.366554     44.88616  0.079585389   0.10678483            1 
   48000    1.1970622   -2.3783054     46.06968  0.079982083   0.10675148            2 
   49000    1.1956263   -2.3645376    47.194643  0.080262998    0.1066739            1 
   50000    1.1846183   -2.3769724     48.43603  0.080726716   0.10655456            1 
   51000    1.1774109    -2.384564    49.522865  0.080919714   0.10644834            1 
   52000    1.1953077   -2.3917097    50.822248   0.08144591   0.10633572            2 
   53000    1.1614237   -2.3744436    51.953373  0.081687693   0.10619905            2 
   54000    1.1971001   -2.4045383    53.085897   0.08192268   0.10605862            2 
   55000     1.228905   -2.3856207    54.320883  0.082304367   0.10591677            1 
   56000      1.16036   -2.3832745     55.61113  0.082754656   0.10577491            1 
   57000    1.1468023    -2.411099    56.703037  0.082899177   0.10560148            1 
   58000    1.1786937   -2.3864908    58.015467  0.083355556   0.10547492            1 
   59000    1.1834025   -2.3888886    58.985284  0.083312547   0.10535111            1 
   60000    1.2115112   -2.3965577    60.305482  0.083757613   0.10520513            3 
   61000    1.1613156   -2.4104266    61.231977  0.083650241    0.1050193            1 
   62000    1.1830124   -2.3688879    62.381111  0.083845579   0.10484177            3 
   63000     1.154437   -2.4028879    63.442704   0.08391892   0.10466429            4 
   64000    1.1877454   -2.4075998    64.896853  0.084501111   0.10448806            1 
   65000    1.1347663    -2.421611    65.885786  0.084468956    0.1043073            1 
   66000    1.1522535   -2.4161525    66.927467  0.084504376   0.10413864            4 
   67000     1.145398   -2.4202742    67.866579  0.084411168   0.10396165            2 
   68000     1.165483   -2.4252543    69.366329  0.085007756   0.10377855            1 
   69000    1.2020947   -2.3950708    70.745483  0.085441404   0.10361589            1 
   70000    1.1361667   -2.4331029    71.770274  0.085440802   0.10344766            1 
   71000    1.1691282    -2.402118    72.529199  0.085128167   0.10327123            1 
   72000    1.1441898   -2.4121077    73.531549  0.085105959   0.10306048            1 
   73000    1.1640936    -2.424996    74.870539  0.085468652   0.10284908            3 
   74000    1.1655047   -2.4431503    75.311331  0.084810056   0.10263753            2 
   75000    1.1344136   -2.4095352    76.847765  0.085386405   0.10242656            1 
   76000    1.1475664   -2.3862613    78.316284  0.085873117   0.10224518            2 
   77000    1.1442217   -2.4133698     79.29891  0.085821331   0.10206636            1 
   78000    1.1383955     -2.43752    80.605471  0.086116956   0.10190289            4 
   79000    1.1395027   -2.4571554    81.665828  0.086145387   0.10176218            1 
   80000    1.1497733   -2.4147593    82.906314  0.086360743   0.10162973            2 
   81000    1.1304694   -2.4370013    83.925243  0.086342842   0.10151276            4 
   82000    1.1515652   -2.4330282    85.142989  0.086527427   0.10138271            2 
   83000    1.1235916   -2.4511995    86.241868  0.086588221   0.10125087            2 
   84000    1.1254248   -2.4281367    87.712365  0.087016234   0.10112668            3 
   85000    1.1585612   -2.4143902    89.095064  0.087348101   0.10103036            2 
   86000    1.1346413   -2.4547054    89.853122  0.087066978   0.10094818            1 
   87000    1.1273318   -2.4366769    91.109261  0.087269407   0.10086044            2 
   88000    1.1273137   -2.4419644    92.030193  0.087149803   0.10074109            1 
   89000    1.1323216   -2.4622202    92.647987  0.086749051   0.10062297            2 
   90000     1.140542   -2.4661346    93.775585  0.086829245   0.10049315            1 
   91000    1.1037757   -2.4280609    94.885737    0.0868917   0.10034907            1 
   92000    1.1435636   -2.4228999    95.844382  0.086815563   0.10019564            3 
   93000    1.1264951   -2.4390683    96.504719  0.086473762    0.1000197            3 
   94000    1.1204982   -2.4541437    98.546437  0.087363862  0.099870539            2 
   95000    1.1321912   -2.4441889    98.978682  0.086823405  0.099722397            4 
   96000     1.101422   -2.5067681    99.772177  0.086607792  0.099575542            2 
   97000    1.0806917   -2.4766474    101.39406  0.087108299   0.09942287            2 
   98000    1.1243508   -2.4526972    101.84073  0.086599263  0.099282622            2 
   99000     1.124639   -2.4687603    103.17607  0.086848542   0.09911731            2 
  100000    1.1234484   -2.4394416    103.82202  0.086518347  0.098951536            2 
  101000    1.1036687   -2.4441059    105.37366  0.086941963  0.098783595            1 
  102000    1.1109978   -2.4699834    105.56011  0.086241918  0.098608467            2 
  103000    1.0923497   -2.4698782    107.34346  0.086847457  0.098436492            1 
  104000    1.0907093   -2.4655958    107.71529  0.086310329  0.098261266            1 
  105000    1.1188599   -2.4369102    108.93797  0.086458705  0.098095769            3 
  106000    1.0798898   -2.4636559    109.60719  0.086169177  0.097932571            1 
  107000    1.0835098       -2.482    110.90713  0.086376272  0.097763847            1 
  108000    1.1133065   -2.4704702    112.17544  0.086555123  0.097610874            2 
  109000    1.1151371   -2.4789694    112.84138  0.086270166  0.097451037            1 
  110000    1.0862335   -2.4855575     113.5833  0.086047957  0.097277259            2 
  111000    1.0918121   -2.4795674    114.76178  0.086157493  0.097089625            2 
  112000    1.1013401   -2.5026512       115.16  0.085684522  0.096908447            2 
  113000    1.1054585   -2.5066453    115.95589  0.085513193  0.096716281            2 
  114000     1.059497   -2.4936711    117.22558  0.085691215  0.096527464            3 
  115000    1.0750803   -2.4885266    118.40907  0.085803674   0.09633893            2 
  116000    1.0639461   -2.4678829    119.01632   0.08550023  0.096172647            3 
  117000    1.0665053   -2.4779923    120.72109  0.085983681   0.09600816            2 
  118000    1.1041603   -2.4685009    121.13242  0.085545492  0.095842325            2 
  119000    1.0965122   -2.5121176    122.56984  0.085833219  0.095668978            1 
  120000    1.0690909   -2.5023825    123.42683  0.085713077  0.095504973            3 
  121000    1.0921792    -2.487003    124.52101  0.085758268  0.095352818            3 
  122000     1.075958   -2.5044292    124.83007  0.085266442  0.095207506            1 
  123000    1.0706622   -2.4765292    126.31873  0.085581795  0.095047335            2 
  124000    1.0825819   -2.5171409    126.72857  0.085167047  0.094894655            2 
  125000     1.058875   -2.5207912    128.53882  0.085692549  0.094742653            2 
  126000    1.0794136   -2.5131391    129.56987  0.085694357  0.094598546            1 
  127000    1.0794685   -2.5115106    129.68239  0.085093431  0.094456573            3 
  128000    1.0771954   -2.5007868    131.49313  0.085607506  0.094305831            3 
  129000    1.0607685    -2.513013    131.91525  0.085216566  0.094154274            1 
  130000    1.0762168   -2.5111008    132.27599  0.084792303  0.093995251            2 
  131000    1.0574666   -2.5182835     132.9817  0.084593957   0.09383047            2 
  132000    1.0581079   -2.5156433    133.62787  0.084361031  0.093664219            2 
  133000    1.0524426   -2.5135895    134.82058  0.084474048  0.093494877            2 
  134000    1.0604777   -2.5215721    135.59339  0.084324245  0.093319881            5 
  135000    1.0403465   -2.4997982    137.09427  0.084626094  0.093147056            3 
  136000       1.0587   -2.5598293    137.91841  0.084508831  0.092979306            1 
  137000    1.0347808   -2.5466475    138.31198  0.084131375  0.092798697            2 
  138000    1.0462448   -2.5336765    139.49455  0.084235836  0.092620878            1 
  139000    1.0293516   -2.5138902    139.93955   0.08389661  0.092453947            3 
  140000    1.0550189   -2.5353218    141.58237  0.084275219  0.092285968            4 
  141000    1.0601274   -2.5133667    142.20038  0.084042775  0.092125895            1 
  142000    1.0492052   -2.5198964    142.67399  0.083728869  0.091971485            2 
  143000    1.0265609   -2.5169585    144.59889  0.084265085  0.091813078            2 
  144000    1.0423896   -2.5196654    144.52327  0.083636154  0.091656069            2 
  145000    1.0396574   -2.5386344    146.05567  0.083940042  0.091493182            2 
  146000    1.0228487   -2.5604916    146.36584  0.083542144  0.091339299            3 
  147000    1.0281606   -2.5545462    148.16131  0.083991675  0.091183439            2 
  148000    1.0258587   -2.5222966    149.01793   0.08390649  0.091033451            2 
  149000    1.0140521   -2.5424362    149.93908  0.083858544  0.090886814            2 
  150000    1.0164811   -2.5385663    150.14195  0.083412194  0.090746571            2 
  151000    1.0287825   -2.5446401    150.93448  0.083297176  0.090596762            1 
  152000    1.0064934   -2.5346104    151.77578  0.083210405  0.090439916            1 
  153000    1.0486813   -2.5379422    152.87991  0.083267925  0.090286826            1 
  154000    1.0176431   -2.5561041     153.5102  0.083068291  0.090136625            1 
  155000    1.0288119   -2.5765326    153.02544  0.082271744  0.089971972            1 
  156000    1.0083447   -2.5478325    154.19566  0.082369475  0.089798501            2 
  157000      1.05771   -2.5518747    154.84556  0.082189789  0.089619015            4 
  158000    1.0052188   -2.5449034    155.01151  0.081757123  0.089438773            2 
  159000    1.0115075   -2.5886172     156.1118  0.081819602  0.089258938            2 
  160000   0.99614293   -2.5726161    157.22865  0.081889919  0.089087419            1 
  161000    1.0063616   -2.5621892    158.29114   0.08193123  0.088917895            3 
  162000      1.00222   -2.5950431    158.42772  0.081495738  0.088745381            1 
  163000    1.0209017   -2.5617111    159.55418  0.081571666  0.088575569            3 
  164000    1.0282562   -2.6080079    160.35185  0.081479598  0.088399895            1 
  165000    1.0238465   -2.5803888    161.09786  0.081362557   0.08823294            3 
  166000   0.99585384    -2.580656    162.41877  0.081535526  0.088066115            4 
  167000   0.99516171    -2.612433    162.71319  0.081194208  0.087899599            3 
  168000   0.97144833   -2.5775658    164.16483  0.081430969  0.087737963            3 
  169000    1.0031281   -2.6243813    164.31808  0.081024696  0.087579796            3 
  170000   0.99718586   -2.5845369    165.32985  0.081044043  0.087424971            2 
  171000    1.0058496   -2.5845982    166.51282  0.081146599  0.087276688            3 
  172000   0.98858717   -2.5704214    166.81292  0.080820211  0.087123156            4 
  173000   0.97153817   -2.5620571    167.76176  0.080810094  0.086965866            2 
  174000   0.97582719   -2.6018395     168.0559   0.08048654  0.086804212            2 
  175000   0.99498476   -2.5952107    169.08716  0.080517694  0.086644384            2 
  176000   0.95072461   -2.6054799    169.80155  0.080398462  0.086486549            2 
  177000   0.99503514   -2.5927951    171.32644  0.080662164  0.086329781            2 
  178000   0.98186497   -2.5904452    171.64298    0.0803572   0.08617586            4 
  179000    1.0000683   -2.6037828    172.13488  0.080137282  0.086023361            3 
  180000   0.98208378   -2.6069523    173.02691  0.080105052  0.085872085            2 
  181000    0.9744959   -2.5965887     174.3043  0.080250598  0.085724022            2 
  182000   0.99558304   -2.6251781    174.94998  0.080105302  0.085573798            3 
  183000   0.97116242   -2.6131368    175.22405  0.079792371  0.085426083            5 
  184000   0.96548542   -2.6211062    175.69339  0.079571279  0.085274839            1 
  185000   0.99131184    -2.638277    176.95738  0.079710532  0.085127527            1 
  186000   0.97661046   -2.6188542    177.94743  0.079725551  0.084982217            3 
  187000   0.98688623   -2.6165115    178.41003  0.079505363  0.084836431            2 
  188000   0.94511223   -2.5970261    178.74641  0.079231565   0.08468773            2 
  189000   0.99554742   -2.6029111    180.09807   0.07940832  0.084537585            4 
  190000   0.94424347   -2.6357341    180.02862   0.07895992  0.084385507            2 
  191000   0.96153664   -2.6155408     180.7459  0.078859468  0.084234386            1 
  192000   0.96537188   -2.6521257    181.17033  0.078632955  0.084083759            5 
  193000   0.96293567    -2.639671     183.0625  0.079042529  0.083932508            1 
  194000   0.95122571   -2.6357089    183.22149  0.078703387  0.083782421            2 
  195000   0.97282667   -2.6115593    184.74733  0.078951851  0.083636548            5 
  196000   0.97790325   -2.6310915    185.84847  0.079017208  0.083499083            3 
  197000   0.96387861   -2.6463011    185.88726  0.078632514  0.083357607            3 
  198000   0.95560219   -2.6055356    186.83309  0.078633455  0.083217245            2 
  199000   0.93680205   -2.6512345    187.51876  0.078525445  0.083078011            2 
  200000   0.95398484   -2.6485189    188.05885  0.078357854   0.08293459            3 
  201000   0.94522349   -2.6551328     188.3906  0.078105556  0.082788807            1 
  202000   0.95237648   -2.6337893    189.08593  0.078005747  0.082645495            1 
  203000   0.93324397   -2.6695908    189.90502  0.077957726  0.082499796            1 
  204000   0.94408975    -2.655033    190.54795  0.077838214  0.082362885            1 
  205000   0.94949126   -2.6624177    191.38903  0.077800419  0.082229557            3 
  206000   0.92457824   -2.6491892    192.74057  0.077969485  0.082093963            2 
  207000   0.93223922   -2.6501762    193.29798  0.077817222  0.081957982            2 
  208000   0.92418317   -2.6726148    193.73334  0.077617523  0.081828658            8 
  209000   0.94125528   -2.6351111    194.52264   0.07756086  0.081695711            2 
  210000   0.93176514   -2.6620441    194.49199  0.077179363  0.081560248            2 
  211000   0.94064419   -2.6641934    195.38977  0.077168156  0.081423276            4 
  212000   0.94212742   -2.6722162     196.1538  0.077104482  0.081284635            3 
  213000   0.93297919    -2.685305    196.69397  0.076953821  0.081142252            3 
  214000   0.92332152   -2.6805961    197.71119   0.07699034  0.081004985            1 
  215000   0.93693458   -2.6632531     198.2938  0.076858062   0.08087035            2 
  216000    0.9283529   -2.6822964    199.26347   0.07687634  0.080734795            5 
  217000   0.91543631   -2.6761044    199.93598  0.076780329  0.080600472            2 
  218000   0.90836176   -2.6751125    201.06628  0.076860199  0.080470392            3 
  219000   0.91542449   -2.6720633    200.96303  0.076469951  0.080338587            2 
  220000   0.92675037   -2.6764962    202.01923  0.076522436  0.080212773            3 
  221000   0.91641593   -2.6576731     202.4053  0.076321759  0.080081216            3 
  222000   0.91604831   -2.6805845    203.73211  0.076476018  0.079952344            2 
  223000   0.93115653   -2.6980097    203.83797  0.076172636  0.079822307            3 
  224000   0.92001159   -2.6755144    204.29825  0.076003814  0.079692706            2 
  225000   0.90084869   -2.7006445    204.25922  0.075651564  0.079560561           10 
  226000   0.91017885   -2.6806168    205.93574  0.075935007  0.079427269            2 
  227000   0.90363914   -2.7080117    205.64871   0.07549512  0.079294151            2 
  228000   0.90947967   -2.6726172    206.30411   0.07540355  0.079159268            1 
  229000     0.906175   -2.7271067    206.86703  0.075279124  0.079022272            2 
  230000   0.91744862   -2.7065794     206.3742  0.074773262  0.078880616            2 
  231000   0.90778348   -2.6909508     208.1371  0.075085533  0.078743136            4 
  232000   0.89936724   -2.7201278    207.98029  0.074705565  0.078600551            4 
  233000   0.90028722   -2.7041992     209.1774  0.074813089  0.078456616            3 
  234000   0.90079023   -2.7326344    209.33856   0.07455077  0.078313309            9 
  235000   0.90381764   -2.7168163    210.53015  0.074656081  0.078172057            3 
  236000   0.89792616   -2.7277589    209.76537  0.074069694  0.078029851            6 
  237000    0.8936361    -2.717298    210.91498  0.074161383  0.077885982            3 
  238000   0.86996391   -2.7177584    212.04231  0.074244507  0.077743666            3 
  239000   0.89059259   -2.7252712    212.12473  0.073962599  0.077601298            2 
  240000   0.91104613   -2.7410775    212.56808  0.073808362  0.077460498            4 
  241000   0.88656735    -2.733297    213.89997  0.073962643  0.077323606            2 
  242000   0.90302419   -2.7044139    213.83517  0.073634701  0.077189144            3 
  243000   0.87942919   -2.7060263    214.63638   0.07360644   0.07705531            2 
  244000   0.86670329   -2.7067644    215.04246  0.073443464  0.076921774            4 
  245000   0.88458411   -2.7383968    215.52228  0.073306898  0.076786649            2 
  246000   0.86167775    -2.717166    217.05111  0.073526798  0.076652719            4 
  247000   0.87338309   -2.7330028    217.85632  0.073500782   0.07651995            7 
  248000   0.88218853   -2.7292031    217.58138  0.073112023  0.076387528            3 
  249000   0.85355906   -2.7496638    218.20298  0.073026433  0.076253736            4 
  250000    0.8925986   -2.7344829    219.15829  0.073052763  0.076123516            2 
  251000   0.87122555   -2.7433354    219.08037  0.072735846  0.075992045            2 
  252000   0.86121051   -2.7414036    220.42315  0.072891253  0.075857639            2 
  253000   0.86385536   -2.7394348    220.22277  0.072537143  0.075724679            3 
  254000   0.85680372   -2.7475076    221.16984  0.072562283  0.075592296            2 
  255000   0.84085885   -2.7722756    221.18274  0.072281942   0.07546261            7 
  256000   0.87242347   -2.7350782    221.98624  0.072261144  0.075330206            3 
  257000   0.85394722    -2.757082    222.10526  0.072018566  0.075194507            4 
  258000   0.85630711   -2.7589037    223.43791  0.072169867  0.075062039            3 
  259000   0.85750089   -2.7479802    223.74071  0.071988644  0.074928719            2 
  260000   0.85068134   -2.7603317    223.27417  0.071562235   0.07479252            3 
  261000   0.84136787   -2.7638939    223.71491  0.071428771  0.074656355            4 
  262000   0.84563933   -2.7597886     224.8341  0.071512117  0.074521865            5 
  263000   0.84211339   -2.7905983    225.36411  0.071408147  0.074385339            3 
  264000   0.83894319   -2.7598614    225.42606  0.071157216   0.07425064            3 
  265000   0.83492577   -2.7832803     225.4846  0.070907107  0.074115194            2 
  266000   0.85310292   -2.7692203    227.96523  0.071417679  0.073982731            3 
  267000   0.83493687   -2.8059661    227.49161  0.071002376   0.07384959            3 
  268000   0.84283042   -2.8073821    227.79155  0.070830707  0.073718489            2 
  269000   0.82846476   -2.7788949    228.83526  0.070890724  0.073586943            3 
  270000   0.83223502   -2.7794732    230.32499  0.071087958  0.073457773            4 
  271000   0.84227406   -2.7797208    229.62308  0.070609803  0.073327852            4 
  272000   0.83253956   -2.8050952    230.92446  0.070748914  0.073197295            5 
  273000   0.82571767    -2.773264    230.95617   0.07049944  0.073067105            4 
  274000   0.82639706     -2.80394    231.29636  0.070345607  0.072938055            4 
  275000   0.83026983   -2.7772562    232.46938  0.070445267  0.072809143            2 
  276000   0.82607398   -2.7916278    232.42324  0.070176098  0.072679545            2 
  277000   0.83694925   -2.7820095    232.54731   0.06996008  0.072549877            4 
  278000   0.82282554   -2.8128904    233.36852  0.069954591  0.072422434            2 
  279000   0.82241374   -2.8047143    233.27034  0.069674533  0.072294473            3 
  280000   0.83586713    -2.792332      233.866  0.069602976    0.0721659            4 
  281000   0.82737687   -2.7828749    235.48427  0.069835192  0.072038698            2 
  282000   0.81465913   -2.8040977    236.15305  0.069785181  0.071913074            2 
  283000   0.82769262   -2.8122696    236.43319   0.06962108  0.071789347            4 
  284000   0.81898758   -2.8300179    236.22226  0.069314044  0.071667256            3 
  285000   0.81415801   -2.8384978    237.64078  0.069485609  0.071543373            2 
  286000   0.80556061   -2.8149622     237.2097  0.069117047  0.071419488            6 
  287000     0.803993    -2.821798    238.46998  0.069242154   0.07129577            3 
  288000   0.81672988   -2.8235221     238.6552  0.069055323  0.071173909            4 
  289000   0.79996357    -2.828856    238.94602  0.068900237   0.07105403            2 
  290000   0.79788954   -2.8273258    239.39582  0.068791901  0.070931713            2 
  291000   0.79127757   -2.8193335    239.86776  0.068690653  0.070810576            4 
  292000   0.80919609   -2.8099634    240.20187  0.068550763  0.070690145            3 
  293000   0.80409477   -2.8427412    241.06897  0.068563416  0.070568572            4 
  294000   0.79838128   -2.8333564    242.30259  0.068679873  0.070448829            2 
  295000   0.79375592   -2.8361567    242.23646  0.068428377  0.070330019            2 
  296000   0.78034345   -2.8434212    242.54667  0.068284536  0.070210352            2 
  297000   0.79953347   -2.8484577     242.8398  0.068136869  0.070090375            4 
  298000   0.79156772    -2.832257    242.35816  0.067773535  0.069969645            2 
  299000   0.78417394   -2.8349737    243.58667  0.067889261   0.06984657            4 
  300000   0.79767483   -2.8396264    244.09529  0.067804246  0.069722538            3 
  301000   0.79075224   -2.8318171    244.63724  0.067729024  0.069599091            2 
  302000   0.78368542   -2.8359033    245.25458  0.067675105  0.069477224            3 
  303000   0.78118037   -2.8496874    245.18752  0.067433312  0.069355739            8 
  304000   0.77809757   -2.8403901    245.51024  0.067299955  0.069234806            2 
  305000   0.77700709   -2.8647661    246.57202  0.067369405  0.069113895            5 
  306000   0.78718039   -2.8507796    246.93586  0.067248328   0.06899368            7 
  307000    0.7857221   -2.8719653    247.98149  0.067313107   0.06887437            5 
  308000   0.77098865   -2.8435604    247.17971  0.066877628  0.068755638            3 
  309000   0.76116484   -2.8508646    248.52915  0.067025121  0.068637138            3 
  310000   0.77668446   -2.8692103    247.79009  0.066610239  0.068515885            4 
  311000    0.7482163   -2.8678307    249.31812  0.066805497  0.068395673            3 
  312000   0.76273394   -2.8670352    248.99965  0.066506316  0.068276195            5 
  313000   0.76933874   -2.8755138    249.41917  0.066405529   0.06815541            9 
  314000   0.75691133   -2.8899599    249.39261  0.066186999  0.068033162            3 
  315000   0.75512802   -2.8862493    249.99539  0.066136345  0.067912764            5 
  316000    0.7739593   -2.8792722    249.38526  0.065766156  0.067791275            2 
  317000   0.75504945    -2.904907    250.01575  0.065724435  0.067668185            5 
  318000   0.76138608   -2.8893597    250.05204  0.065527263  0.067546422            2 
  319000   0.76293534   -2.9081325    251.50939  0.065702557  0.067424702           14 
  320000   0.75615142   -2.8744029    251.87653  0.065592847  0.067304776            3 
  321000   0.75531172   -2.8824013    252.26046  0.065488179  0.067184869            3 
  322000   0.75629664   -2.8769659    253.25223  0.065541466  0.067066089            4 
  323000   0.76145527   -2.9083917    252.41391  0.065122267   0.06694677            2 
  324000   0.74708532   -2.8968595    253.84181  0.065288531  0.066827421            3 
  325000   0.75325793   -2.8952787    254.05688   0.06514279  0.066707637            4 
  326000   0.74025519   -2.8923159    254.57411   0.06507518    0.0665872           11 
  327000   0.73997225   -2.8909727    254.69611  0.064907264  0.066465253            3 
  328000   0.74162845   -2.8839727    254.47163  0.064652345  0.066345556            3 
  329000   0.71573301   -2.9052491    255.44621  0.064702687  0.066224252            4 
  330000   0.73875282   -2.9103543    255.65793  0.064560083  0.066103277            2 
  331000    0.7415445   -2.9083358    256.29564  0.064525589  0.065979912            6 
  332000   0.73034257   -2.9028506    255.56082  0.064146792  0.065857255            6 
  333000   0.73404099   -2.9481582     256.4524  0.064177276  0.065735161            7 
  334000   0.73827253   -2.9308477    256.02441  0.063878347  0.065611368            3 
  335000   0.74491597     -2.90439    256.04981  0.063693982   0.06548923            7 
  336000   0.73877358   -2.9293984    256.77364  0.063683938  0.065366099            9 
  337000   0.73648514    -2.930001    256.66321  0.063467658  0.065242623            7 
  338000   0.73540239   -2.9207806    257.24498  0.063423318  0.065117422            5 
  339000   0.72919237   -2.9425122    258.22095  0.063476144    0.0649923            4 
  340000   0.73383111   -2.9370411    258.12763  0.063266575  0.064867445            6 
  341000   0.72663858   -2.9145315    257.72816   0.06298342  0.064742727            4 
  342000    0.7141196   -2.9368409    258.82507  0.063066537  0.064618042            6 
  343000   0.71614168   -2.9336308    258.20905  0.062733006  0.064493905            4 
  344000    0.7220677   -2.9452558    259.08169  0.062762036  0.064370799            4 
  345000   0.71543021   -2.9357084    259.64935  0.062717233  0.064247554            5 
  346000   0.71489681   -2.9512258    259.27537  0.062445899    0.0641243            5 
  347000   0.72500028   -2.9404318    260.32484  0.062517973  0.063999002            7 
  348000   0.71954814   -2.9525584    260.47337  0.062373891  0.063876568            5 
  349000   0.70968208   -2.9629439    260.71107  0.062251926  0.063751874            3 
  350000   0.70969738   -2.9474166    259.88313  0.061876935   0.06362639            4 
  351000   0.70776642   -2.9489321    261.20632  0.062014796  0.063501743            6 
  352000   0.70117827   -2.9485015    260.72879  0.061725565  0.063376337            9 
  353000    0.7040096   -2.9554422    261.32869  0.061692325   0.06325059            3 
  354000   0.68073287    -2.977866    260.98946  0.061438198  0.063122579            6 
  355000   0.70200796   -2.9774467    261.23395  0.061322524   0.06299619            3 
  356000   0.70314784   -2.9580149    261.62643  0.061242141  0.062868337            2 
  357000    0.6905558   -2.9862519    261.02454  0.060930098  0.062741978            9 
  358000   0.69949205   -2.9673366    261.98311  0.060983033  0.062615796            7 
  359000   0.68965957   -2.9661386    263.47133  0.061158618  0.062490744            8 
  360000   0.70013416    -2.973732    262.91014  0.060858828   0.06236649            6 
  361000   0.70510088   -2.9809016    263.80477  0.060896761  0.062241535            4 
  362000   0.68510237   -2.9814095    262.90442  0.060521276  0.062116538            9 
  363000   0.67987944   -2.9799854     264.1056  0.060630302  0.061991307            9 
  364000   0.69281904   -2.9920325    263.87845  0.060411733  0.061866542            3 
  365000   0.68571339   -2.9877191    262.38678  0.059905658  0.061739852            3 
  366000   0.67761624   -3.0091963    263.65773   0.06003136  0.061611949            3 
  367000    0.6945985   -2.9762192    263.64889  0.059865778  0.061485946            5 
  368000   0.68292954    -3.003195    263.37478  0.059641027  0.061359292            4 
  369000   0.65387481   -2.9994108    264.95919  0.059837216  0.061232562            5 
  370000   0.67228593   -3.0062675     264.5211  0.059576825   0.06110678            5 
  371000   0.67864331   -3.0054506     264.4021  0.059389511  0.060982483            4 
  372000   0.65977722   -3.0092729    265.02634  0.059369701  0.060859804            3 
  373000   0.66780975   -3.0187088    265.42544  0.059299696   0.06073578            6 
  374000   0.66393156   -3.0187062    265.92341  0.059252097  0.060611265            7 
  375000   0.67068603    -3.025067    267.03327  0.059340726  0.060485935            4 
  376000   0.65521656   -3.0265924    266.05621  0.058966359  0.060361385            3 
  377000    0.6766049   -3.0404002    267.37757  0.059102026  0.060238023            5 
  378000   0.65789274     -3.01864    266.97222  0.058856309  0.060115317            4 
  379000   0.64271684   -3.0313406    267.88792  0.058902358  0.059993353            9 
  380000   0.65841809    -3.014931     268.6207  0.058908049  0.059871777            3 
  381000   0.65788557   -3.0170008    268.25421  0.058673275  0.059751194            6 
  382000    0.6586028   -3.0310583    268.41766  0.058555336  0.059631471            5 
  383000    0.6413792   -3.0248785    268.30368  0.058377649  0.059510827            3 
  384000   0.65509811   -3.0243894    268.43863  0.058254911  0.059391296           13 
  385000    0.6436908   -3.0384607    269.79355  0.058396872  0.059272309            6 
  386000   0.66208028    -3.041854     269.3711  0.058154382  0.059153594            6 
  387000   0.64170351   -3.0434627    269.10523  0.057946862  0.059035188            5 
  388000   0.63405592   -3.0631335    270.35186  0.058065262  0.058917221            5 
  389000    0.6589463   -3.0503223    270.48147   0.05794376  0.058799257            8 
  390000   0.63714274   -3.0475052    269.99905  0.057692106  0.058681103            3 
  391000   0.63339677   -3.0504918    270.72674  0.057699647  0.058562885            9 
  392000   0.64087803    -3.034815     270.8244  0.057573215  0.058445049            5 
  393000    0.6285153   -3.0500495    271.32321  0.057532487  0.058327186            7 
  394000    0.6430745     -3.06794    272.13395  0.057557942   0.05821044            7 
  395000   0.63496397    -3.064807    271.29748  0.057235755  0.058095019            4 
  396000   0.63029558   -3.0609885    272.11461  0.057263175  0.057978895            5 
  397000   0.64830616   -3.0833092    271.85899   0.05706528  0.057861862            7 
  398000   0.65360476   -3.0633637     272.3921  0.057033521  0.057745599           16 
  399000   0.62376662   -3.0755987    272.52058  0.056917414  0.057629261            8 
  400000   0.63101168   -3.0787381    272.14404  0.056696675  0.057512303            7 
  401000   0.61804825   -3.0766482    272.39285  0.056606992  0.057397545            4 
  402000   0.62593239   -3.0667072    273.08923  0.056610538  0.057281616            5 
  403000   0.61186146   -3.0815163    273.42467  0.056539428   0.05716576            6 
  404000    0.6303449   -3.1038983    273.68341  0.056452848  0.057050493            6 
  405000   0.62546276   -3.0850872    273.43367  0.056262071  0.056935992            6 
  406000   0.60515898   -3.0781208    273.76586  0.056191679  0.056820391            5 
  407000    0.6206573   -3.1055696      274.244  0.056151515  0.056705608            7 
  408000   0.61003974   -3.0958909    274.81353  0.056130215  0.056592169            7 
  409000     0.611208   -3.0985773    274.38069  0.055904786  0.056477899            7 
  410000   0.61145579   -3.0814643    275.10612  0.055915878  0.056363928            6 
  411000   0.61841073   -3.0977026    275.14812  0.055788345  0.056249921            5 
  412000   0.60600455   -3.0874857    274.32688  0.055486829  0.056135725            5 
  413000   0.61943707   -3.1090926    274.81387   0.05545074  0.056021748            5 
  414000   0.60529697   -3.1169639    275.68857  0.055492868  0.055907678            5 
  415000   0.60573928   -3.1083374    274.68593  0.055157818  0.055793097           12 
  416000   0.60086046   -3.1154425    274.72672  0.055033397  0.055678154            6 
  417000   0.61491184   -3.1342499    275.55643  0.055067232  0.055564209            5 
  418000   0.59083279   -3.1161267    275.26417  0.054877228  0.055449206            6 
  419000   0.60452836   -3.1465566    275.28865  0.054751124  0.055335024            8 
  420000   0.58772906   -3.1324826    275.82804  0.054727785  0.055220679            4 
  421000   0.60157579   -3.1199701    275.68322  0.054569125   0.05510671           10 
  422000   0.58082495   -3.1241053    276.64141  0.054629031  0.054994316            6 
  423000   0.59021188   -3.1377198    276.80247  0.054531613  0.054881625            7 
  424000   0.58437801    -3.131264    276.53497  0.054350427  0.054769335           12 
  425000   0.58040473   -3.1388148    276.73405  0.054261579  0.054655996           12 
  426000   0.59330019   -3.1277746     276.7427  0.054135896  0.054544112           11 
  427000   0.58660985   -3.1513242    276.20952  0.053905058  0.054432073            9 
  428000    0.5802215     -3.15153    277.24202  0.053980145  0.054320552           12 
  429000   0.59347043   -3.1399266    278.23007  0.054046245  0.054209252            3 
  430000   0.57783542   -3.1575683    277.95906  0.053868034  0.054098167           12 
  431000   0.58243494   -3.1610339    278.35528  0.053819659  0.053986422            8 
  432000   0.58400131   -3.1395331    278.00275  0.053627073  0.053876115            6 
  433000   0.58037083   -3.1348588    277.77533  0.053459456  0.053766249           16 
  434000   0.57619251   -3.1814513    278.25056  0.053427526  0.053655553            8 
  435000   0.57136225   -3.1693597    278.85324   0.05342016   0.05354515           13 
  436000    0.5664261   -3.1746825    278.67305  0.053263197  0.053435359            6 
  437000   0.57093008   -3.1859782    278.90723   0.05318597   0.05332581            6 
  438000   0.56728583   -3.1766922    278.69634  0.053024418  0.053215604            9 
  439000   0.55445187   -3.1737213    279.95862  0.053143246  0.053105526            8 
  440000   0.56878539   -3.1750495    278.75885  0.052795237  0.052995908           12 
  441000   0.55590178   -3.1906842    279.16277  0.052751846  0.052885273            6 
  442000    0.5576595   -3.2069434    278.80399  0.052564855  0.052774709           13 
  443000   0.56545302   -3.1700069     279.5016  0.052577427  0.052664635           13 
  444000   0.56288531   -3.1807979    279.52736  0.052463844  0.052555333           11 
  445000   0.57339248   -3.1832054    279.63085  0.052365328  0.052445606            7 
  446000   0.54816098   -3.2024473    278.94165  0.052119142  0.052335016           13 
  447000   0.55561179   -3.1925751     279.5238  0.052111074  0.052224805            4 
  448000   0.54670162   -3.1901691    280.33185  0.052145061  0.052114633            3 
  449000   0.55163751   -3.2049036    279.56547  0.051886686  0.052004392            8 
  450000   0.55227624   -3.2112808     280.4391  0.051933167  0.051894835            7 
  451000   0.55719638   -3.2054766    280.43991  0.051818165   0.05178509           10 
  452000   0.54956152   -3.2120539    279.70351  0.051567757  0.051675054           14 
  453000   0.54946862   -3.2037383    279.76471  0.051465178  0.051565181           10 
  454000   0.54275378    -3.190655    279.56492  0.051315147  0.051455558           16 
  455000   0.53077751    -3.217854    279.67606  0.051222722  0.051346189            7 
  456000   0.53617698     -3.20618    279.98828  0.051167449  0.051236558           16 
  457000   0.53902533   -3.2195165    279.53495  0.050972821  0.051126656           12 
  458000   0.53789222   -3.2330996    280.26204  0.050993821  0.051016739           13 
  459000   0.54479706   -3.2149435    280.66269  0.050955462  0.050907721            9 
  460000    0.5266211   -3.2435486    280.02366  0.050728924  0.050799139           27 
  461000   0.51825459   -3.2359917    280.28259  0.050665688  0.050689716           14 
  462000   0.51837649   -3.2267257    281.15369  0.050713147    0.0505807           19 
  463000   0.52049851   -3.2395581    280.62761   0.05050893  0.050472073           10 
  464000   0.52409592   -3.2382037    280.28374  0.050338316  0.050363794           15 
  465000   0.52770887   -3.2360455    281.69453   0.05048289  0.050256008           20 
  466000    0.5250966   -3.2349824    280.94536  0.050240587  0.050147666           18 
  467000   0.52758552   -3.2566383    281.23893   0.05018539  0.050039733            7 
  468000   0.53067553    -3.245691    281.79762  0.050177639  0.049932449           10 
  469000   0.51262514   -3.2339814    281.35072  0.049991244  0.049825164           12 
  470000   0.51532597   -3.2686495    280.20237  0.049681271   0.04971764           10 
  471000   0.51645638   -3.2711176    280.42239  0.049614718  0.049609674            8 
  472000   0.50813636   -3.2626182    281.27633  0.049660369  0.049502145           14 
  473000   0.51683197    -3.254185    280.50991  0.049420351  0.049394572           16 
  474000    0.4981004   -3.2652404    281.50181  0.049490473   0.04928649           14 
  475000   0.51439516   -3.2619818    281.22858  0.049338347  0.049178809           14 
  476000   0.49660299   -3.2487288    281.39585  0.049263979  0.049071749           13 
  477000   0.50329758    -3.269652    280.94976  0.049082767  0.048964785           14 
  478000    0.5088365   -3.2926488    281.17424  0.049019219  0.048857803           15 
  479000    0.5039397   -3.2748253    280.90359  0.048869796  0.048750651           18 
  480000   0.48814306   -3.2787863    282.10209  0.048976057  0.048644083            7 
  481000   0.49766263   -3.2883013    281.65609  0.048796967   0.04853766           22 
  482000   0.49878809   -3.2937752    281.93668  0.048744239  0.048431046           21 
  483000   0.49251023    -3.286208    281.43003  0.048555905  0.048324531           23 
  484000    0.4929978   -3.2846098    280.79112  0.048345579  0.048218096           13 
  485000   0.48446859   -3.2907896    281.45079  0.048359241  0.048111649           13 
  486000   0.49536732   -3.3068073    281.41872  0.048254239  0.048005633            8 
  487000   0.48895876   -3.3276086    281.35442  0.048144152  0.047899017           23 
  488000   0.48476413   -3.3113344    281.15536  0.048011503  0.047792514           12 
  489000   0.48377577   -3.3146959    281.32351  0.047941974  0.047686054           13 
  490000   0.49249997   -3.3060741    281.16554  0.047817269  0.047580093           15 
  491000   0.48497662   -3.3251159    281.53895  0.047783256  0.047474205           23 
  492000   0.49490261   -3.3226997    281.40769  0.047663903   0.04736828           33 
  493000   0.47271318   -3.3201914    280.75016  0.047456079  0.047262381           11 
  494000   0.47872529   -3.3260118    281.47771  0.047482745  0.047156695           16 
  495000   0.48861693   -3.3355771    281.57191  0.047402678  0.047051463            9 
  496000   0.48142163   -3.3349434    282.23074  0.047417798    0.0469463           16 
  497000   0.48071882    -3.339763    281.53384  0.047205541  0.046841653           24 
  498000   0.46362517   -3.3365656    281.57823  0.047118177  0.046737058           19 
  499000    0.4711342   -3.3235496    281.43238  0.046999395  0.046632245           28 
  500000   0.45673227   -3.3491437    281.59508  0.046932513  0.046527291           19 
  501000   0.46630786   -3.3360338    281.40851  0.046807803  0.046422544           42 
  502000   0.46820558   -3.3664839    282.33023  0.046867567  0.046317979           72 
  503000    0.4942099   -3.3537822    281.26268  0.046597527  0.046213323           23 
  504000   0.45494481     -3.36354    281.45931  0.046537585  0.046108641           28 
  505000   0.44978044   -3.3493275    281.73958   0.04649168  0.046003977           22 
  506000   0.45823435   -3.3620763     281.6122  0.046378821  0.045899422           38 
  507000   0.45766607   -3.3727972    281.57778  0.046281686  0.045794714           31 
  508000     0.456228   -3.3733975     281.4092  0.046162927  0.045690852           22 
  509000   0.46783266   -3.3672928    281.74272  0.046126837  0.045587556           15 
  510000   0.45795753   -3.3630096    282.10329  0.046095309  0.045484182           22 
  511000   0.44688843   -3.3622777    281.18656  0.045855603  0.045381414           19 
  512000   0.44944392    -3.376048    281.90898  0.045883622  0.045278427           27 
Loop time of 1208.43 on 48 procs for 500000 steps with 4000 atoms

Performance: 71497.990 tau/day, 413.762 timesteps/s
99.4% CPU use with 48 MPI tasks x no OpenMP threads

MPI task timing breakdown:
Section |  min time  |  avg time  |  max time  |%varavg| %total
---------------------------------------------------------------
Pair    | 75.572     | 82.45      | 86.534     |  25.7 |  6.82
Neigh   | 8.0659     | 8.4171     | 8.8165     |   6.3 |  0.70
Comm    | 77.637     | 81.322     | 88.838     |  26.1 |  6.73
Output  | 0.83386    | 0.83437    | 0.84491    |   0.2 |  0.07
Modify  | 1020.9     | 1024.6     | 1027       |   4.5 | 84.79
Other   |            | 10.81      |            |       |  0.89

Nlocal:        83.3333 ave          89 max          77 min
Histogram: 3 3 6 1 5 12 7 3 4 4
Nghost:        2165.25 ave        2186 max        2141 min
Histogram: 3 3 3 1 8 9 8 5 6 2
Neighs:        14290.1 ave       15726 max       12851 min
Histogram: 3 2 5 6 8 10 4 3 4 3
FullNghs:      28580.0 ave       30653 max       26364 min
Histogram: 3 2 6 4 6 9 6 5 5 2

Total # of neighbors = 1371839
Ave neighs/atom = 342.95975
Neighbor list builds = 27167
Dangerous builds = 0

#clear
#
#next RN
#
#jump SELF
Total wall time: 0:20:11
