
units lj                  # Use reduced LJ style units
atom_style atomic         # Uncharged point particles
atom_modify map hash      # Needed for indexing of clusters etc
                          # Used to be able to find where atoms are in relation to each other.

lattice fcc 1.0 spacing 1 1 1
Lattice spacing in x,y,z = 1.5874011 1.5874011 1.5874011
region box block 0 10 0 10 0 10 units lattice
create_box 2 box
Created orthogonal box = (0.0000000 0.0000000 0.0000000) to (15.874011 15.874011 15.874011)
  3 by 4 by 4 MPI processor grid
create_atoms 1 box
Created 4000 atoms
  using lattice units in orthogonal box = (0.0000000 0.0000000 0.0000000) to (15.874011 15.874011 15.874011)
  create_atoms CPU = 0.002 seconds
set type 1 type/fraction 2 0.06 78393
Setting atom values ...
  252 settings made for type/fraction
mass 1 1.0
mass 2 1.0
pair_style lj/cut  3.5
pair_modify tail  yes
pair_coeff 1  1  1.0  1.0   # Intearaction between 1 and 1 set with epsilon = 1 and sigma = 1
pair_coeff 1  2  1.5  0.8
pair_coeff 2  2  0.5  0.88

write_data data.0
System init for write_data ...
Neighbor list info ...
  update every 1 steps, delay 10 steps, check yes
  max neighbors/atom: 2000, page size: 100000
  master list distance cutoff = 3.8
  ghost atom cutoff = 3.8
  binsize = 1.9, bins = 9 9 9
  1 neighbor lists, perpetual/occasional/extra = 1 0 0
  (1) pair lj/cut, perpetual
      attributes: half, newton on
      pair build: half/bin/atomonly/newton
      stencil: half/bin/3d
      bin: standard
WARNING: Not all mixed pair coeffs generated from mixing. Use write_data with 'pair ij' option to store all pair coeffs. (../write_data.cpp:312)


#############################
#   M E L T   S Y S T E M   #
#############################

velocity all create 2.4 6229865 mom yes dist gaussian # Assign velocities
                                                    # Temperature 2.4, random number seed, zero linear momentum
                                                                                # Gaussian distribution

timestep 0.002   # simulation timestep
thermo 1000       # output thermodynamic data every 1000 steps bf 100

# Define a fix  in this case with index 1 applied to all
# particles in the simulation. This fix is for simulations
# in the anisotropic NPT ensemble. Note that we use the MTK
# correction.
fix 1 all npt temp 2.4 2.4 0.1 iso 5.68 5.68 0.5 mtk yes tchain 5 pchain 5 # Use NPT ensemble
                                                                         # Set temperature and pressure and damping
                                                                         # Numbers of thermostats in chain and in barostat
run 10000          # run for 10000 steps
Per MPI rank memory allocation (min/avg/max) = 3.642 | 3.644 | 3.648 Mbytes
Step Temp E_pair E_mol TotEng Press Volume 
       0          2.4   -7.9704536            0   -4.3713536   -2.7323792         4000 
    1000    2.4031209   -4.5283109            0  -0.92453067    5.4825292    5015.1008 
    2000    2.3698558    -4.514716            0  -0.96082104    5.7112039    4993.1557 
    3000    2.3928609   -4.4581686            0  -0.86977452     5.740194    5014.0866 
    4000    2.3861485   -4.4705646            0  -0.89223655    5.9435678    4977.9178 
    5000    2.4069571   -4.4513625            0  -0.84182946     5.814175    5018.2994 
    6000    2.4161796   -4.4665443            0  -0.84318091    5.9090571    4998.5341 
    7000    2.4459222   -4.5119203            0  -0.84395422    5.9303428    4965.7286 
    8000    2.4239849   -4.5680757            0  -0.93300732    5.4238736     4995.018 
    9000    2.3918507   -4.4759254            0  -0.88904635    5.8130376    4997.5977 
   10000    2.3826311   -4.4735701            0  -0.90051689    5.8742857    4986.4811 
Loop time of 2.16934 on 48 procs for 10000 steps with 4000 atoms

Performance: 796555.488 tau/day, 4609.696 timesteps/s
99.6% CPU use with 48 MPI tasks x no OpenMP threads

MPI task timing breakdown:
Section |  min time  |  avg time  |  max time  |%varavg| %total
---------------------------------------------------------------
Pair    | 0.87505    | 0.94628    | 1.0678     |   3.3 | 43.62
Neigh   | 0.1782     | 0.18947    | 0.21516    |   1.3 |  8.73
Comm    | 0.65238    | 0.76394    | 0.85159    |   4.2 | 35.22
Output  | 0.00025122 | 0.0002565  | 0.00033149 |   0.0 |  0.01
Modify  | 0.21414    | 0.25484    | 0.31233    |   5.2 | 11.75
Other   |            | 0.01455    |            |       |  0.67

Nlocal:        83.3333 ave          92 max          76 min
Histogram: 1 8 0 10 5 11 8 2 2 1
Nghost:        1415.85 ave        1440 max        1395 min
Histogram: 2 1 10 6 7 7 8 5 1 1
Neighs:        7645.33 ave        8744 max        6716 min
Histogram: 2 5 3 5 14 10 5 2 0 2

Total # of neighbors = 366976
Ave neighs/atom = 91.744000
Neighbor list builds = 907
Dangerous builds = 223

# Equilibrate just above the melting temperature to avoid step fn in T

fix 1 all npt temp 1.25 1.25 0.1 iso 5.68 5.68 0.5 mtk yes tchain 5 pchain 5
run 2000
Per MPI rank memory allocation (min/avg/max) = 3.643 | 3.646 | 3.650 Mbytes
Step Temp E_pair E_mol TotEng Press Volume 
   10000    2.3826311   -4.4735701            0  -0.90051689    5.8742857    4986.4811 
   11000    1.2675386   -6.0321545            0    -4.131322    5.8142663     4130.263 
   12000    1.2509762   -6.0748746            0   -4.1988795    5.6922286    4118.4914 
Loop time of 0.474231 on 48 procs for 2000 steps with 4000 atoms

Performance: 728758.154 tau/day, 4217.350 timesteps/s
99.6% CPU use with 48 MPI tasks x no OpenMP threads

MPI task timing breakdown:
Section |  min time  |  avg time  |  max time  |%varavg| %total
---------------------------------------------------------------
Pair    | 0.20991    | 0.22187    | 0.24969    |   1.6 | 46.79
Neigh   | 0.031607   | 0.03366    | 0.03793    |   0.6 |  7.10
Comm    | 0.14012    | 0.16341    | 0.1797     |   2.2 | 34.46
Output  | 5.227e-05  | 5.4189e-05 | 6.8429e-05 |   0.0 |  0.01
Modify  | 0.041144   | 0.050737   | 0.063303   |   2.5 | 10.70
Other   |            | 0.004496   |            |       |  0.95

Nlocal:        83.3333 ave          91 max          75 min
Histogram: 3 1 1 10 5 10 10 2 4 2
Nghost:        1612.08 ave        1626 max        1596 min
Histogram: 2 3 4 8 4 4 10 1 7 5
Neighs:        9245.42 ave       10179 max        7943 min
Histogram: 1 1 1 5 10 6 11 5 5 3

Total # of neighbors = 443780
Ave neighs/atom = 110.94500
Neighbor list builds = 144
Dangerous builds = 12

#############################
# L I N E A R  Q U E N C H  #
#############################

# Define solid atoms. This closely follows ten Wolde  Ruiz-Montero and Frenkel  Faraday Discuss  1996  104  93-110
# Compute components of the per-atom q6 vector
compute q6 all orientorder/atom degrees 1 6 components 6 nnn NULL cutoff 1.3 # compute the Q6 parameter.
                                                                             # Use all neighbours within 1.3 unit cell.

# get number of connections
compute coord_number all coord/atom orientorder q6 0.5

# An atom is solid if it has 8 or more connections (of a possible 14)
variable is_solid atom c_coord_number>=8
group solid dynamic all var is_solid    # Must be dynamic to update
dynamic group solid defined

# do clustering
compute cluster solid cluster/atom 1.3 # Create a cluster where all atoms within are solid and max 1.3 units from another member

# define chunks one chunk per cluster
compute clus_chunks solid chunk/atom c_cluster nchunk every compress yes  # Says which atoms are in which chunk

# count the size of each chunk
compute size_chunks solid property/chunk clus_chunks count


# Find the maximum entry in the vector of chunk sizes
variable max_n equal max(c_size_chunks)


# Thermo style which includes this variable
# thermo_style custom step temp pe vol v_max_n

thermo ${N}  # Print the thermo information every 100 steps
thermo 1000  

# Reset the npt fix at a lower temperature (below freezing)
fix 1  all npt temp  ${temp} ${temp}  0.1  iso  5.68  5.68  0.5  mtk yes tchain  5  pchain  5
fix 1  all npt temp  0.45 ${temp}  0.1  iso  5.68  5.68  0.5  mtk yes tchain  5  pchain  5
fix 1  all npt temp  0.45 0.45  0.1  iso  5.68  5.68  0.5  mtk yes tchain  5  pchain  5

dump dmp2 all dcd ${N} traj.dcd
dump dmp2 all dcd 1000 traj.dcd


compute msd all msd com yes
variable twopoint equal c_msd[4]/6/(step*dt+1.0e-6)
fix 9 all vector 10 c_msd[4]
variable fit equal slope(f_9)/6/(10*dt)
thermo_style custom step temp pe c_msd[4] v_twopoint v_fit v_max_n

fix 1 all npt temp 1.25 ${temp} 0.1 iso 5.68 5.68 0.5 mtk yes tchain 5 pchain 5
fix 1 all npt temp 1.25 0.45 0.1 iso 5.68 5.68 0.5 mtk yes tchain 5 pchain 5
run 2000000 # 5000000  # Run for this many steps
Neighbor list info ...
  update every 1 steps, delay 10 steps, check yes
  max neighbors/atom: 2000, page size: 100000
  master list distance cutoff = 3.8
  ghost atom cutoff = 3.8
  binsize = 1.9, bins = 9 9 9
  4 neighbor lists, perpetual/occasional/extra = 1 3 0
  (1) pair lj/cut, perpetual
      attributes: half, newton on
      pair build: half/bin/atomonly/newton
      stencil: half/bin/3d
      bin: standard
  (2) compute orientorder/atom, occasional
      attributes: full, newton on
      pair build: full/bin/atomonly
      stencil: full/bin/3d
      bin: standard
  (3) compute coord/atom, occasional
      attributes: full, newton on
      pair build: full/bin/atomonly
      stencil: full/bin/3d
      bin: standard
  (4) compute cluster/atom, occasional
      attributes: full, newton on
      pair build: full/bin/atomonly
      stencil: full/bin/3d
      bin: standard
Per MPI rank memory allocation (min/avg/max) = 9.744 | 9.748 | 9.752 Mbytes
Step Temp PotEng c_msd[4] v_twopoint v_fit v_max_n 
   12000    1.2509762   -6.0748746 8.6498598e-31 6.0068469e-33 8.3333333e+20            2 
   13000    1.2193412   -6.0432563   0.56539546 0.0036243298  0.047380691            4 
   14000    1.2330402   -6.0430464    1.0883717 0.0064784027  0.044640761            3 
   15000     1.238366   -6.0513587    1.6429306  0.009127392  0.044426661            4 
   16000    1.2307246   -6.0408161    2.2298776  0.011613945  0.045072223            3 
   17000    1.2401857   -6.0243469    2.8298793  0.013871957  0.046414792            2 
   18000    1.2473766   -6.0421458     3.366779   0.01558694  0.046902505            2 
   19000    1.2609401   -6.0693785    3.9625567  0.017379634  0.047203029            3 
   20000    1.2473339   -6.0660864    4.5506399  0.018960999  0.047227052            4 
   21000    1.2420534   -6.0905635    5.1528379  0.020447769  0.047588473            2 
   22000    1.2422083    -6.052274    5.7944509  0.021948677  0.047969884            3 
   23000    1.2278365   -6.0674057    6.3465812  0.022994859  0.048243715            6 
   24000    1.2318867   -6.0786589    6.8656601  0.023839097  0.048304313            2 
   25000    1.2441503   -6.0694166    7.4562478  0.024854159  0.048264469            2 
   26000    1.2417532   -6.0310028    8.0178754  0.025698318  0.048200513            3 
   27000    1.2600554   -6.0744141    8.5461189   0.02637691    0.0481315            5 
   28000    1.2476207   -6.0571697    9.0391284  0.026902168  0.047920467            4 
   29000    1.2012869   -6.0976373    9.5146135  0.027340843  0.047614872            3 
   30000    1.2545371   -6.0448568    10.029727  0.027860352  0.047300201            4 
   31000    1.2672264   -6.0478596    10.508167   0.02824776   0.04697952            3 
   32000    1.2404306   -6.0860152    11.102622  0.028913077  0.046729743            4 
   33000    1.2519073   -6.0903816    11.595793  0.029282304  0.046524267            2 
   34000    1.2248943   -6.0591659    12.245102  0.030012504  0.046407061            2 
   35000    1.2371866   -6.0852745    12.988588  0.030925209   0.04641188            4 
   36000    1.2642706   -6.1038427     13.58347  0.031443218  0.046528598            3 
   37000    1.2196559   -6.0774827    14.243166  0.032079202  0.046652026            2 
   38000    1.2212675   -6.0392636    14.851441   0.03256895   0.04674185            6 
   39000    1.2172844   -6.1001424     15.33123  0.032759038  0.046858261            5 
   40000    1.2174032   -6.1070155    15.825609  0.032970019  0.046954036            4 
   41000    1.2333538   -6.0615759    16.378745  0.033290131  0.046994979            3 
   42000    1.2085474   -6.0194948    16.891409  0.033514701  0.047005187            3 
   43000    1.2372514   -6.0557843    17.433377  0.033785614  0.046975078            2 
   44000    1.2411467   -6.0970848    17.995867  0.034083081  0.046959872            3 
   45000    1.2400733   -6.0959029    18.758265  0.034737526  0.046966277            2 
   46000    1.2461424   -6.1080306     19.35262  0.035059094  0.047051117            2 
   47000    1.2454028   -6.0663707    19.924975   0.03532797  0.047126955            3 
   48000    1.2763684     -6.10542    20.319618  0.035277114  0.047148517            3 
   49000    1.2350964   -6.0781017    20.784057  0.035347035  0.047119664            3 
   50000    1.2371913   -6.0720029     21.23511   0.03539185  0.047057173            2 
   51000    1.2588149   -6.0919988    21.775604  0.035581053    0.0469877            2 
   52000    1.2581898   -6.0914803    22.383767  0.035871421  0.046920877            1 
   53000    1.2633353   -6.0555492    22.999093  0.036162096  0.046868814            4 
   54000    1.2255678   -6.0966321    23.516125  0.036290315  0.046836854            3 
   55000    1.2207833   -6.0683854    24.166279  0.036615574  0.046820818            2 
   56000    1.2157164   -6.1156248    24.767199  0.036855951   0.04680883            3 
   57000    1.2263664   -6.0714954    25.305216  0.036995929  0.046794251            3 
   58000    1.2253073   -6.0962147    25.526779  0.036676406   0.04676738            6 
   59000    1.2210262    -6.072288    26.120089  0.036892781  0.046705973            4 
   60000    1.2161067   -6.0681935    26.721314  0.037112936   0.04666569            2 
   61000    1.2222523   -6.0883146    27.236585   0.03720845  0.046618517            3 
   62000    1.2205544   -6.0870828    27.789892  0.037352006  0.046564171            2 
   63000    1.2194763   -6.1094568    28.325444  0.037467519  0.046509219            2 
   64000    1.2334993   -6.0914181    28.883069  0.037608163  0.046457714            2 
   65000     1.242063   -6.0841672    29.298927  0.037562726  0.046402154            3 
   66000    1.2295832    -6.080979    29.884505  0.037732961  0.046344581            1 
   67000    1.2405219   -6.1049936    30.366784  0.037769631  0.046304044            2 
   68000    1.2048128   -6.0897772    30.884013  0.037848055  0.046246739            3 
   69000    1.2315411   -6.1164956    31.414417  0.037940116   0.04620507            6 
   70000     1.208798   -6.0833108    32.208149  0.038343034  0.046173663            4 
   71000    1.2221143   -6.1041871    32.523061  0.038172607  0.046142077            1 
   72000     1.230888    -6.103309    33.079257  0.038286177  0.046104571            2 
   73000    1.2284126   -6.0980361    33.513395    0.0382573  0.046048582            4 
   74000     1.215931   -6.0836324    34.228356  0.038545445  0.046009483            2 
   75000    1.2309253    -6.099802    34.611277  0.038456974  0.045963172            3 
   76000    1.2223984   -6.0794484    35.102642  0.038489738  0.045920756            3 
   77000    1.2341308   -6.0677844    35.956817  0.038914304  0.045891569            3 
   78000    1.2220805   -6.1097453    36.521153  0.039018325  0.045886245            3 
   79000     1.228037   -6.0979621    37.126095  0.039162547  0.045887273            1 
   80000    1.2316621    -6.105391    37.743627  0.039316278   0.04589015            2 
   81000    1.2216543   -6.0942503    38.038728  0.039134493  0.045877807            5 
   82000    1.2434209   -6.0914802    38.572797  0.039199997  0.045862153            4 
   83000    1.2279869   -6.0805764    39.173029   0.03933035  0.045847642            3 
   84000    1.2283163   -6.0986186    39.531239  0.039217498  0.045820896            2 
   85000    1.2397232    -6.089731    40.078325  0.039292475   0.04578005            1 
   86000    1.2389531   -6.1310931    40.327517  0.039077051   0.04573591            5 
   87000    1.2427513   -6.0751191    40.746668  0.039029376  0.045682385            3 
   88000    1.2205057   -6.1255161    41.436495  0.039239105  0.045632193            4 
   89000    1.2333301   -6.0988036    42.306712  0.039613026  0.045601325            4 
   90000    1.2016404   -6.1194556    42.555281  0.039403038   0.04556998            3 
   91000    1.2241226   -6.1070988    42.963355  0.039343731  0.045533812            4 
   92000    1.2079126   -6.1310107    43.328877  0.039247171  0.045485973            4 
   93000    1.2348141   -6.1155585    43.996321  0.039423226  0.045435362            7 
   94000    1.2360917   -6.0857344     44.24072  0.039220496  0.045383919            2 
   95000    1.2225789    -6.123285    44.690286  0.039202005  0.045316485            3 
   96000    1.2089228   -6.1399184    44.941506  0.039011724  0.045243413            3 
   97000    1.1998162   -6.1439656     45.55578  0.039137268  0.045164695            3 
   98000    1.2252784   -6.1662967    45.868603  0.039003914  0.045090901            2 
   99000    1.2270807   -6.1653628    46.515378  0.039154358  0.045024001            4 
  100000    1.2203858   -6.1364376     47.11043  0.039258692   0.04496511            3 
  101000    1.2002881   -6.1202192    47.544622  0.039228236  0.044903233            6 
  102000      1.22574   -6.1256928    48.048644  0.039255428  0.044841123            4 
  103000    1.2044985   -6.1338532      48.3928  0.039152751  0.044778986            1 
  104000    1.1999776   -6.1201269     49.02763   0.03928496  0.044719312            3 
  105000    1.2074368   -6.1175677    49.615312  0.039377232  0.044665408            4 
  106000      1.19918   -6.1009268    49.921975  0.039246835  0.044603636            4 
  107000    1.2182678   -6.1107583    50.465958  0.039303706  0.044546725            4 
  108000    1.2102881    -6.118956    50.817263  0.039210851  0.044490951            2 
  109000     1.183476    -6.108388    51.460829  0.039343141  0.044435041            3 
  110000    1.2062504   -6.1128297    52.009151  0.039400872  0.044387918            2 
  111000    1.2248809   -6.1176461    52.810948  0.039647859  0.044343871            3 
  112000    1.2059713    -6.138341    53.366251  0.039707032  0.044312072            2 
  113000    1.2016257    -6.111984    53.851938  0.039713819  0.044286024            5 
  114000    1.2219687   -6.1046677    54.458714  0.039809001  0.044260452            3 
  115000     1.212229   -6.1145322    55.324202  0.040090001  0.044244317            7 
  116000    1.2356678    -6.149784     55.42399  0.039816084  0.044225913            6 
  117000    1.2119592   -6.1056762    55.960242  0.039857722  0.044200994            5 
  118000    1.2207993   -6.1334324    56.202478  0.039691015  0.044170462            4 
  119000     1.177422   -6.1442697    56.761756  0.039749129  0.044137902            2 
  120000    1.2091886    -6.137312    57.390176  0.039854289  0.044107195            3 
  121000    1.2253467   -6.1570085     57.88544  0.039866005  0.044085877            5 
  122000    1.2334703   -6.1478946    58.640123  0.040054729  0.044063703            3 
  123000    1.2022249   -6.1563737     59.11086  0.040048008   0.04404443            4 
  124000    1.2314081    -6.130821    59.968486  0.040301402  0.044034929            5 
  125000    1.1947474   -6.1694735    60.673049  0.040448699  0.044029908            4 
  126000    1.2149185   -6.1183644    61.131124  0.040430638  0.044024088            2 
  127000    1.2190641   -6.1263554    61.217505  0.040168966  0.044012099            3 
  128000    1.2017345   -6.1868365    61.642317  0.040131717  0.043995633            4 
  129000    1.2160492   -6.1371317    62.411528  0.040317524   0.04397992            4 
  130000    1.2077157   -6.1705361    63.058387  0.040422043  0.043969058            3 
  131000    1.1890252   -6.1274718    63.725777  0.040538026   0.04396281            5 
  132000    1.1734043   -6.1483359    63.828266  0.040295622  0.043956807            2 
  133000     1.174411   -6.1197658    64.445328  0.040379278  0.043948896            2 
  134000    1.1914565   -6.1208323    64.814456  0.040307497  0.043932832            3 
  135000    1.2328515   -6.1375564    65.089254  0.040178551  0.043910911            4 
  136000    1.1835386   -6.1447129    65.384381  0.040063959  0.043887341            6 
  137000    1.1799294   -6.1304247    65.814825  0.040033348  0.043856554            2 
  138000    1.1989699   -6.1449022    66.310703  0.040042695  0.043822896            2 
  139000    1.2123396   -6.1175604     66.61786  0.039938765  0.043789332            3 
  140000    1.2199799   -6.1149272    66.953907  0.039853516  0.043754932            2 
  141000    1.1830135   -6.1410942    67.342358  0.039800448  0.043716705            2 
  142000    1.1989598   -6.1404105    67.851226  0.039818794  0.043677359            2 
  143000    1.2009618   -6.1522944    68.508064  0.039923114  0.043637262            2 
  144000    1.1934173   -6.1463889    68.712709  0.039764299   0.04359822            2 
  145000    1.2062242   -6.1250355    69.537114  0.039963858  0.043561338            2 
  146000    1.2050026   -6.1164787    69.866176  0.039877954  0.043525903            4 
  147000    1.1971956   -6.1955836    70.244467  0.039821126  0.043489129            2 
  148000    1.1919558   -6.1533351    71.181008  0.040079396  0.043459549            3 
  149000    1.1819393   -6.1572455     71.29798  0.039875828  0.043430397            5 
  150000     1.192863   -6.1564701    71.719161  0.039843978  0.043395628            6 
  151000    1.1896366   -6.1048477    72.339475  0.039922448  0.043364058            3 
  152000    1.2309946   -6.1299231    72.981026  0.040011527  0.043333033            4 
  153000    1.1807785   -6.1965634    72.926288    0.0397202  0.043299438            2 
  154000     1.176015   -6.1439583    73.435174  0.039737648   0.04325986            1 
  155000    1.2137633    -6.173006    74.073882  0.039824668  0.043224575            5 
  156000    1.2224047   -6.1462907    74.776516   0.03994472  0.043191037            2 
  157000    1.2179955   -6.1328287    75.525466  0.040087827   0.04316196           11 
  158000    1.2140393   -6.1745766    75.496927  0.039819054  0.043132843            2 
  159000    1.1968571     -6.18683    75.748201  0.039700315  0.043099613            4 
  160000    1.1608457   -6.1702644    76.586143  0.039888616  0.043069433            2 
  161000    1.2167363   -6.1829765    77.184292  0.039950462  0.043039402            2 
  162000    1.2033024   -6.1610125    77.451706  0.039841413  0.043012844            2 
  163000    1.1900743   -6.1635236    78.266887  0.040013746  0.042985024            3 
  164000    1.1971617   -6.1697644    78.416593   0.03984583  0.042958786            4 
  165000    1.2305418   -6.1802465    78.847966  0.039822205  0.042932626            4 
  166000    1.2080335   -6.1729732    79.706616  0.040013361  0.042904618            5 
  167000     1.167715   -6.2135825    79.934401  0.039887426   0.04287858            2 
  168000    1.1683755   -6.1968849    80.578963  0.039969724  0.042850898            3 
  169000    1.1744358   -6.1549566    80.625945  0.039756383  0.042824939            3 
  170000    1.1651214   -6.1840021    81.560422  0.039980599  0.042800078            3 
  171000    1.1856181    -6.165519     82.18064  0.040049045  0.042775781            3 
  172000    1.1801922   -6.1708133    82.566604    0.0400032  0.042754853            2 
  173000    1.1533916   -6.1887531    83.000005  0.039980734  0.042734447            3 
  174000    1.1775045   -6.2018454    83.411377  0.039947977  0.042715711            2 
  175000    1.1901775   -6.1608858    83.876545  0.039941212  0.042697166            4 
  176000    1.1826293    -6.133373     84.71151  0.040109616  0.042677021            3 
  177000    1.1937709   -6.1973721    84.960084  0.040000039  0.042658687            1 
  178000    1.1471487   -6.1741725    85.240255  0.039906486  0.042638558            2 
  179000    1.1692158   -6.1701141    86.285485  0.040170151  0.042619029            3 
  180000    1.1926158    -6.130638    86.813546  0.040191456  0.042603859            5 
  181000     1.195234   -6.1617936    87.018982  0.040063988  0.042589283            5 
  182000    1.1536814   -6.1873046    87.394749  0.040015911  0.042570173            3 
  183000    1.1777535    -6.141802    88.002693  0.040074086  0.042551748            3 
  184000    1.1920438   -6.1544614    88.933364  0.040277791  0.042534192            3 
  185000    1.1864582   -6.1678382    88.779506  0.039990768  0.042513758            2 
  186000    1.1859011   -6.1588821     89.37769  0.040043768  0.042494383            3 
  187000    1.2239989   -6.1835336    89.992914  0.040103794  0.042474437            1 
  188000    1.1736278   -6.2047056    89.866884  0.039834612  0.042453668            3 
  189000    1.1808016   -6.2086455    90.934011  0.040094361  0.042434813            4 
  190000     1.191665   -6.1930383    91.470787  0.040118766  0.042417764            5 
  191000     1.179831   -6.1780089    91.697559  0.040007661  0.042401299            3 
  192000     1.183734   -6.2231045    91.736763  0.039816303  0.042379599            3 
  193000    1.1697624   -6.1573648    92.840481  0.040086563  0.042361041            4 
  194000    1.1890855   -6.1802265    93.059733  0.039974112  0.042343729            4 
  195000     1.169187   -6.2285514    93.695875  0.040040972  0.042325691            7 
  196000    1.1995746   -6.1888882    94.352468  0.040115845  0.042310055            3 
  197000    1.1510654   -6.1643776    94.639393  0.040033584  0.042294059            4 
  198000    1.1824841   -6.1778234    95.015864  0.039989842  0.042275849            2 
  199000     1.188105   -6.2001754    95.621953  0.040042694  0.042256782            4 
  200000    1.1732835   -6.2032227    95.831595  0.039929831  0.042240785            4 
  201000    1.1926116   -6.1791459    96.306377  0.039928017  0.042223186            8 
  202000    1.1783156   -6.1657289     96.76757  0.039920614  0.042205087            2 
  203000    1.1582441     -6.16147     97.44399  0.040001638  0.042186958            4 
  204000    1.1741623   -6.1897835    97.824895   0.03996115  0.042168286            4 
  205000    1.1678834   -6.2249184       98.255  0.039941057  0.042147435            3 
  206000    1.1512494   -6.2086121    98.575346  0.039876758  0.042128564            7 
  207000    1.1813391   -6.1678377    99.120179  0.039903454  0.042109369            4 
  208000    1.1659026   -6.2178336    99.318617  0.039791113  0.042089271            3 
  209000    1.1732809   -6.1537492    100.50953   0.04007557  0.042074876            3 
  210000    1.1705796   -6.1786246    100.94287  0.040056695  0.042060159            7 
  211000    1.1751082   -6.1793302    101.65917  0.040149751  0.042045306            3 
  212000    1.1622422   -6.1845072    102.33079  0.040224366  0.042033523            3 
  213000    1.1679063   -6.1642592    102.41811  0.040069682  0.042021505            2 
  214000    1.1551188   -6.1978049     102.9341  0.040083373  0.042006388            3 
  215000    1.1795758   -6.1857785    103.41356  0.040082777   0.04199318            6 
  216000    1.1642413   -6.1857716    104.18992  0.040196729  0.041981578            5 
  217000    1.1706363   -6.1908808     104.9791  0.040314555  0.041972071            6 
  218000    1.1661372   -6.2103742    105.05686  0.040159349  0.041962617            4 
  219000    1.1521896   -6.2259546    105.00461  0.039956091  0.041949955            4 
  220000    1.1573759   -6.1899036    105.41128  0.039928516  0.041935164            4 
  221000    1.1591258    -6.185609     106.2104  0.040049171  0.041920975            3 
  222000    1.1678552   -6.2000893    105.93604   0.03976578  0.041903877            2 
  223000    1.1881224    -6.228739    106.63928  0.039850254  0.041885523            2 
  224000    1.1469713   -6.2189633    107.55914  0.040014559  0.041868233            3 
  225000    1.1504882   -6.2122276    107.91876  0.039969913  0.041854265            2 
  226000    1.1384945   -6.2268693     108.3925  0.039967735  0.041839196            4 
  227000    1.1485985   -6.2041757    108.56802  0.039856102  0.041824385            4 
  228000    1.1796213   -6.2436003     109.2427  0.039927886  0.041809299            5 
  229000    1.1722995   -6.2175442    109.30305  0.039775492  0.041792135            2 
  230000    1.1761236   -6.2007422    109.96612  0.039842796  0.041774882            2 
  231000    1.1636776   -6.1983645    110.30996  0.039794356   0.04175754            5 
  232000    1.1642567   -6.1988449     110.6347  0.039739476  0.041740065            2 
  233000    1.1616465   -6.1997752    111.74414  0.039965717  0.041721902            3 
  234000    1.1827617   -6.1976123    112.06167  0.039908002  0.041704603            2 
  235000    1.1666953   -6.2483485    111.88042  0.039673907  0.041687015            2 
  236000    1.1426949   -6.2250785    112.71964  0.039802133   0.04166808            3 
  237000    1.1345681   -6.2299124    112.66719  0.039615747  0.041649718            3 
  238000    1.1487538   -6.2298066    113.30113  0.039671265  0.041630187            2 
  239000    1.1468742   -6.2365929     113.5438   0.03958989  0.041610492            3 
  240000     1.163286    -6.195653    114.30854  0.039690464  0.041589901            3 
  241000    1.1805241   -6.2104864     114.7622  0.039682641  0.041568681            2 
  242000    1.1562421   -6.2498459     114.2281  0.039334744  0.041545233            3 
  243000    1.1468786   -6.2029731    115.04822  0.039454122      0.04152            4 
  244000     1.186116   -6.1890268    115.14738  0.039326291  0.041492929            2 
  245000    1.1560512   -6.2608149    116.07238    0.0394804  0.041464877            5 
  246000    1.1416132   -6.1927017    115.76725  0.039216547  0.041436934            4 
  247000    1.1705707   -6.2346711    116.51611  0.039310427  0.041410029            2 
  248000    1.1684466   -6.2034922    117.05057  0.039331509  0.041383357            2 
  249000    1.1439997   -6.2542259    117.21565  0.039228797  0.041357908            8 
  250000    1.1397125   -6.2717727    117.51853  0.039172842   0.04133029            6 
  251000    1.1376414   -6.2328492    118.08659  0.039205377  0.041301267            2 
  252000    1.1172661    -6.227596    118.15196  0.039071416  0.041271406            5 
  253000    1.1439603   -6.2115619    118.56193  0.039052019  0.041240747            3 
  254000    1.1631853   -6.2185793    119.39749  0.039172405  0.041212918            8 
  255000     1.150345   -6.2289152    120.13453  0.039259651  0.041186548            2 
  256000    1.1341719   -6.2260788    120.62537  0.039266071  0.041161413            3 
  257000    1.1536305   -6.2645844    120.74621  0.039152467  0.041136363            4 
  258000    1.1586235   -6.2524698    120.99537  0.039081193  0.041110924            3 
  259000    1.1723902   -6.2389838    121.70845  0.039159734  0.041085344            4 
  260000    1.1555039   -6.2347128     122.1247  0.039142533  0.041059699            2 
  261000    1.1644802   -6.2349917    122.49185  0.039109786  0.041035361            3 
  262000    1.1620282   -6.2605421    122.86442  0.039079014   0.04100965            5 
  263000    1.1407198   -6.2261532    123.58576  0.039158987  0.040984023            4 
  264000    1.1403668   -6.2098525    123.79482  0.039076648  0.040960592            2 
  265000    1.1538403   -6.2862273    124.28821  0.039084343    0.0409352            3 
  266000    1.1287946    -6.229139    124.90248  0.039129849  0.040909865            5 
  267000    1.1545737   -6.2269445    125.15453  0.039061964  0.040885891            4 
  268000    1.1518053   -6.2446784     125.6794  0.039079415  0.040860638            4 
  269000    1.1437279   -6.2209946    126.23836  0.039107299  0.040837732            4 
  270000    1.1314734   -6.2288569    126.47989  0.039037002  0.040813743            2 
  271000    1.1336698   -6.2299507    126.98324  0.039047736  0.040789756            4 
  272000    1.1741113   -6.2345248    127.28441  0.038996448  0.040765289            4 
  273000    1.1355976   -6.2635763    127.16621  0.038817525  0.040739393            3 
  274000    1.1526085    -6.255119     127.7234  0.038845317   0.04071225            6 
  275000    1.1807129   -6.2474196    128.04745  0.038802258   0.04068518            4 
  276000    1.1492894   -6.2178336    128.42829  0.038776657  0.040656665            3 
  277000     1.163126   -6.2797097    128.88793   0.03877495  0.040628402            4 
  278000    1.1668241   -6.2541279    128.69446  0.038577475  0.040598661            3 
  279000     1.159374   -6.2505566    128.98651  0.038526437  0.040569353            3 
  280000    1.1441304   -6.2838324    129.41372  0.038515987   0.04053879            4 
  281000    1.1351837   -6.2501695    129.98479  0.038548278  0.040507707            2 
  282000    1.1604033    -6.240579    130.46947  0.038554809  0.040477829            4 
  283000    1.1338485   -6.2169248    131.13368  0.038614159  0.040448483            3 
  284000    1.1371143   -6.2271076    131.93628  0.038713697  0.040421584            1 
  285000    1.1611912   -6.2549049    131.77419  0.038530466  0.040392841            4 
  286000    1.1393714   -6.2205962    132.20833   0.03852224  0.040361836            3 
  287000     1.166634   -6.2079648    132.46442  0.038462374  0.040331055            3 
  288000    1.1559851   -6.2410298    132.57808  0.038361712  0.040299906            2 
  289000    1.1261427   -6.2321246    133.35128  0.038451926  0.040270375            3 
  290000    1.1335109    -6.224268    133.91583  0.038481561  0.040241906            2 
  291000    1.1409209   -6.2515245    134.03206  0.038382606  0.040216082            2 
  292000     1.143385   -6.2436991    135.48475  0.038665739   0.04019124            2 
  293000     1.165522   -6.2497239     135.9288  0.038660068  0.040166415            3 
  294000    1.1227867   -6.2910795    135.92132   0.03852645  0.040142678            6 
  295000     1.122158   -6.2582196    136.40521  0.038532545  0.040119441            5 
  296000    1.1322811   -6.2886289    136.54538   0.03844183  0.040095535            4 
  297000    1.1412386   -6.2584427     137.6757  0.038629546  0.040073489            5 
  298000    1.1405452   -6.2498839    137.65439  0.038493956   0.04005113            4 
  299000    1.1468264   -6.2735256    138.50235  0.038601547  0.040029501            4 
  300000    1.1190704   -6.2816793    138.53022  0.038480616  0.040006636            2 
  301000    1.1302441   -6.2215757    138.93152  0.038463876  0.039983857            3 
  302000    1.1291282   -6.2249613     139.6507  0.038534962  0.039960383            4 
  303000    1.1605012   -6.2610186    139.09943   0.03825617  0.039936245            3 
  304000    1.1052382   -6.2780297    139.14378  0.038142482  0.039909751            3 
  305000     1.134005    -6.271996    139.51982  0.038120169  0.039882637            5 
  306000    1.1457431   -6.2367671    140.15369  0.038168217  0.039856941            9 
  307000    1.1391159   -6.2677317    141.11762  0.038305542  0.039831202            3 
  308000    1.1092747   -6.2785986    141.60422  0.038312831  0.039807195            5 
  309000    1.1492971   -6.2733844    141.87278  0.038261267  0.039784552            3 
  310000    1.1271586   -6.2576278    142.80317  0.038387948  0.039761177            2 
  311000    1.1284497   -6.3085103    143.03062  0.038325461  0.039738202            8 
  312000    1.1355459   -6.2796307    143.59972  0.038354625  0.039716197            2 
  313000    1.1210893   -6.3026417    143.20808  0.038127817  0.039692018            3 
  314000    1.1440052   -6.2675372    143.78845  0.038160418  0.039666822            2 
  315000    1.1181941   -6.2498728    144.05014  0.038108502  0.039642112            4 
  316000    1.1808801   -6.2268849     144.9704  0.038230592  0.039617822            2 
  317000    1.1220768   -6.2848475    144.47717  0.037980328  0.039593319            3 
  318000    1.1146342   -6.2579465    144.93605  0.037981145  0.039566684            2 
  319000    1.1444997   -6.3038221    144.97306  0.037871751  0.039540005            4 
  320000    1.1221149    -6.266683     145.4868  0.037887188  0.039512542            4 
  321000    1.1199132    -6.285629    145.80423  0.037851564  0.039485393            5 
  322000    1.0730532   -6.2405646    146.57839  0.037934367   0.03945851            5 
  323000    1.1308225   -6.3221472    146.76644  0.037865439  0.039432779            4 
  324000    1.1146881   -6.2947239    146.72851  0.037738815  0.039404562            6 
  325000    1.1159319    -6.287927    147.70337  0.037872659  0.039377419            6 
  326000    1.1458809   -6.2758328    148.12929  0.037865359  0.039351857            3 
  327000    1.1203835   -6.2494076    148.52989  0.037851654  0.039326881            3 
  328000    1.1251586   -6.2883325    149.05115  0.037868687  0.039301775            2 
  329000    1.0966081   -6.2177383     149.3679  0.037833815  0.039276368            4 
  330000    1.1240512   -6.2985622    148.82766  0.037582743  0.039249782            2 
  331000    1.1120057   -6.2957324    149.79772  0.037713423  0.039221713            8 
  332000    1.1245964   -6.2813051    149.72293  0.037581058  0.039194016            3 
  333000    1.0967513   -6.2859982     150.3425  0.037623248  0.039166114            3 
  334000    1.1318551   -6.2917718    150.85894  0.037639455  0.039137851            5 
  335000    1.1205746   -6.2845354    151.36533  0.037653067  0.039111532            3 
  336000    1.1389689   -6.2820287    151.73087  0.037631665   0.03908552            5 
  337000    1.1396854   -6.3321392    152.03131  0.037594289  0.039058899            4 
  338000    1.1402809   -6.2828319    152.35147     0.037562  0.039032519            4 
  339000     1.104265   -6.2648954    153.10963  0.037637569  0.039006572            4 
  340000    1.1257822   -6.2548605    153.27485  0.037567365  0.038980149            6 
  341000    1.1025884   -6.2583617    153.64892  0.037548613  0.038954159            5 
  342000     1.123847   -6.2894668    154.03924  0.037533929  0.038928737            6 
  343000    1.1098735   -6.2838342    154.34598  0.037499023  0.038902494            1 
  344000    1.1039018   -6.2971608    154.70865  0.037477871  0.038876021            3 
  345000    1.1337454   -6.2919234    155.13963   0.03747334   0.03885049            4 
  346000    1.1112769   -6.3002201    154.93412  0.037315538   0.03882422            5 
  347000     1.118115    -6.263477    155.43801  0.037329013  0.038796613            3 
  348000    1.1027111   -6.2626625    155.66022  0.037274956  0.038769036            5 
  349000    1.1128435   -6.2671326    156.42456   0.03735066  0.038740898            2 
  350000    1.1028421   -6.3062942    156.37195  0.037231417  0.038712428            5 
  351000    1.1164564   -6.2895286    156.16192  0.037075481  0.038683421            4 
  352000    1.1060099   -6.3269393    156.95488  0.037157878  0.038654416            3 
  353000    1.1087212   -6.3358686    157.42968  0.037164703  0.038626061            3 
  354000    1.1213099   -6.3126771    158.42137  0.037293167  0.038599046            4 
  355000    1.1285949   -6.3285393    158.43386  0.037191048  0.038571919            9 
  356000    1.1265736   -6.2940365    158.56146  0.037116447  0.038544334            6 
  357000    1.0939369   -6.3327102    158.80358  0.037068996  0.038516389            2 
  358000    1.0949034   -6.3176551    158.40478  0.036872621  0.038487404            4 
  359000    1.1334137   -6.3035567     158.9448  0.036895265  0.038457825            4 
  360000    1.1116093   -6.2746946    159.04157  0.036815178  0.038429396            3 
  361000    1.1022383   -6.2888668    160.14944  0.036968939  0.038400855            5 
  362000    1.0922779   -6.2949982    160.05469  0.036845003  0.038371061           10 
  363000    1.1249322   -6.3103055    160.56228  0.036860027  0.038342011            3 
  364000    1.1177963    -6.304132    161.09648  0.036881063  0.038313142            4 
  365000    1.1305433   -6.2772305     161.5887  0.036892398  0.038283686            9 
  366000    1.0859375   -6.2867199    161.80871  0.036841692  0.038256008            2 
  367000    1.1035832   -6.2980048    162.26319  0.036844502  0.038227992            4 
  368000    1.1215238   -6.2932866    162.52766   0.03680427  0.038199128            4 
  369000    1.1064038   -6.3098544    162.95455  0.036800938  0.038170731            6 
  370000    1.1057101   -6.3095012    163.20531  0.036757952  0.038141936            3 
  371000    1.1053101   -6.3403523    162.86586  0.036582628  0.038113526            3 
  372000    1.0930122   -6.3316015    163.15473  0.036548998  0.038084678            3 
  373000    1.1168616   -6.2949982    164.65598  0.036786413   0.03805647            4 
  374000    1.1195747   -6.3169519    164.57927  0.036670961  0.038029068            4 
  375000    1.0809589   -6.3277386    164.53649  0.036563665  0.038001433            4 
  376000    1.1357019   -6.3100535     165.6523  0.036713719   0.03797398            9 
  377000    1.1069016   -6.2888937    165.85853  0.036661921   0.03794705            4 
  378000    1.1133697   -6.3070982    166.03991  0.036604919  0.037919951            3 
  379000    1.1109944   -6.3261623    166.81516  0.036678794  0.037892632            4 
  380000     1.109567    -6.315068    166.98802   0.03662018  0.037865643            4 
  381000    1.1330062    -6.320594    166.88295  0.036501083  0.037838345            3 
  382000    1.1037177   -6.3392862    167.55672  0.036552514  0.037811688            7 
  383000    1.1061574   -6.2921341     167.8595  0.036522954  0.037783698            6 
  384000    1.0915705   -6.3242409    168.04167  0.036467376  0.037756932            6 
  385000    1.0972144   -6.2664362    168.52312  0.036476867  0.037729748            2 
  386000    1.1332525   -6.3361412    168.60076  0.036399129   0.03770193            2 
  387000    1.0658442   -6.3467623    169.17907  0.036429602  0.037674349            3 
  388000    1.0886481   -6.3306984     169.7101  0.036449764  0.037647837            4 
  389000    1.1164617   -6.3510748    169.64525   0.03634217  0.037621189            4 
  390000     1.127944   -6.3213321    170.16634  0.036360329  0.037594198            4 
  391000    1.0996762   -6.2992097    170.47674  0.036333491  0.037567155            7 
  392000    1.0868159   -6.3310393      170.476  0.036240646  0.037540294            3 
  393000    1.1142275   -6.2975179    171.14087  0.036289412  0.037513172            2 
  394000    1.0854199   -6.2983157    171.82132  0.036341227  0.037486535            4 
  395000    1.0972301    -6.310786    172.00856  0.036288726  0.037460361            4 
  396000    1.0807236   -6.3265817    172.66625  0.036335491  0.037434201            4 
  397000     1.114163   -6.3517132    172.75168  0.036261897  0.037408311            3 
  398000    1.1128649   -6.3230927    173.26813  0.036278922  0.037383595            4 
  399000    1.1068561   -6.3411739    173.24699  0.036183582  0.037358359            2 
  400000    1.0971441   -6.3664067    173.52306  0.036150638  0.037332826            3 
  401000    1.0711505   -6.3579641    173.38176  0.036031123   0.03730694            4 
  402000    1.1020747   -6.3301432    175.04915  0.036287138  0.037280724            8 
  403000    1.0898759   -6.3354054    174.45804  0.036074863  0.037254399            8 
  404000     1.093424   -6.3582356    174.43654  0.035981135  0.037227553            2 
  405000    1.0912862   -6.3338065     175.4075  0.036092078  0.037200685            3 
  406000    1.0833567   -6.3451172    175.51724  0.036025706  0.037173649            6 
  407000     1.099589   -6.3289711    175.77568  0.035990107  0.037146683            3 
  408000    1.1003011   -6.3339676    176.24091  0.035996918  0.037119573            5 
  409000    1.0811716   -6.3518954    176.73897  0.036010386   0.03709234            3 
  410000    1.0771107   -6.3462306    176.68548  0.035911683  0.037065187            5 
  411000    1.0900227   -6.3271677    177.63261  0.036016343  0.037038714            6 
  412000    1.0916932   -6.3427778    177.26594  0.035854762   0.03701274            4 
  413000    1.0712018   -6.3488419    177.65904  0.035847264  0.036986632            4 
  414000    1.0954925   -6.3307892    178.22001  0.035873593  0.036960782            4 
  415000     1.070074   -6.3569571     177.8032  0.035703453  0.036934464            4 
  416000     1.079982   -6.3757842    179.29733  0.035916933  0.036907476            3 
  417000     1.094441   -6.3377487    178.35831  0.035643147  0.036880196            5 
  418000    1.1009604   -6.3659297    179.41725  0.035768989  0.036852844            5 
  419000    1.1029855   -6.3428901    180.17068  0.035833469  0.036825921            4 
  420000    1.0862027   -6.3253737    179.65221   0.03564528  0.036799081            2 
  421000    1.0927025   -6.3670346     179.6385  0.035557897  0.036771837            4 
  422000    1.0780553   -6.3731688    180.70178  0.035683605  0.036745126            6 
  423000     1.085612   -6.3648713    181.29732  0.035716573  0.036718613            2 
  424000    1.0783013   -6.3455846    180.81896  0.035538317  0.036692338            3 
  425000    1.1049275   -6.3645965    181.82365  0.035651696  0.036665931            6 
  426000    1.0716562    -6.303784    182.20426  0.035642462  0.036639745            8 
  427000    1.0842578   -6.3556182    182.00856  0.035520796   0.03661333            5 
  428000    1.0714166   -6.3660557    183.05588  0.035641721  0.036586992            3 
  429000    1.0909844   -6.3641826    182.74852  0.035498936  0.036560751            3 
  430000    1.0792573   -6.3495405    182.89947  0.035445633  0.036534285            6 
  431000    1.0795887   -6.3477665    183.31274  0.035443298  0.036507921            3 
  432000    1.0609801   -6.3547206    183.87332   0.03546939  0.036481678            2 
  433000    1.0796087   -6.3719227    183.84574  0.035382167  0.036455658            4 
  434000    1.0961878   -6.3567349    183.99231  0.035328784  0.036429064            2 
  435000    1.0532855   -6.3075319    185.14839  0.035469039  0.036401765            3 
  436000    1.0933819   -6.3472976    185.05929  0.035370659  0.036374888            3 
  437000    1.0724329   -6.3910669    184.95501  0.035269835  0.036348147            5 
  438000     1.063047   -6.3351935    185.32154  0.035259044  0.036321888            7 
  439000    1.0516963   -6.4026545    186.27993  0.035360654  0.036295543            4 
  440000    1.0885032   -6.3966006    185.79265  0.035188001  0.036269969            6 
  441000    1.0787599    -6.385945    186.79534  0.035297682  0.036243832            4 
  442000    1.0762368   -6.3762685    187.33917  0.035320357  0.036218182            8 
  443000    1.0668621   -6.3686849    187.62205   0.03529384  0.036192549            8 
  444000     1.069471   -6.3404648    187.31345  0.035156429  0.036167756            5 
  445000    1.0568527   -6.3615463    188.65152  0.035328001  0.036143189            5 
  446000    1.0693117   -6.3648554    189.16096  0.035343977  0.036119004            6 
  447000    1.0915123   -6.3907251    189.40667  0.035310714  0.036095724            3 
  448000    1.0689484   -6.3734089    190.30835  0.035399619  0.036072247            5 
  449000    1.0859267   -6.3496317    189.99815  0.035263206  0.036048865            3 
  450000    1.0625908   -6.3451968    190.29489  0.035239794  0.036025973            5 
  451000    1.0594654   -6.3555639    190.73777   0.03524349  0.036002591            7 
  452000    1.0929552   -6.3805064     190.3945   0.03510223  0.035979161            4 
  453000    1.0615111   -6.3646936    190.85796      0.03511  0.035955281           11 
  454000    1.0349159   -6.3662896    192.06559   0.03525433  0.035932097            4 
  455000    1.0737138   -6.3856458    191.77472  0.035123575  0.035908643            5 
  456000    1.0687225   -6.3453438    191.97132  0.035082478  0.035884738            6 
  457000    1.0459058   -6.3955475    192.16072  0.035040248  0.035861855            5 
  458000    1.0657589   -6.3703318    193.05594  0.035126627  0.035838866            5 
  459000    1.0650851   -6.4047199      193.446  0.035120914   0.03581599            5 
  460000    1.0602332   -6.3862428    192.93086  0.034951243   0.03579238            9 
  461000     1.068538   -6.3452754    194.02993  0.035074101  0.035769642            4 
  462000    1.0453356   -6.3777105    194.66676  0.035113051  0.035746632            5 
  463000    1.0697224   -6.3558701    194.71361  0.035045646  0.035724333            5 
  464000    1.0895491   -6.3486541    194.97247  0.035016607  0.035702106            6 
  465000    1.0658539   -6.3964747    195.44698   0.03502634  0.035679837            4 
  466000    1.0506795   -6.3929767     195.6452  0.034986623   0.03565741            4 
  467000    1.0712075   -6.4079837    196.27466  0.035024029  0.035635525            6 
  468000    1.0843493   -6.3682076    196.55018  0.034998251  0.035613939            3 
  469000    1.0745944   -6.3437912    197.40944  0.035076304  0.035593099            8 
  470000    1.0670972   -6.4038644    197.22501  0.034968973  0.035572623            3 
  471000    1.0555723   -6.3669464    197.98962   0.03503001  0.035552607            9 
  472000    1.0475597   -6.3995825    198.28377  0.035007728  0.035532881            9 
  473000    1.0551519   -6.3751372    198.47819  0.034967969  0.035513028            3 
  474000    1.0618726   -6.3973871    199.27927  0.035035033  0.035493067            4 
  475000    1.0525544   -6.3839057    199.39235  0.034981115  0.035472793            3 
  476000    1.0731473   -6.3508972    200.28544  0.035063977   0.03545276            4 
  477000    1.0760016   -6.3794969    200.01328   0.03494292  0.035432769            3 
  478000    1.0659737   -6.4075786    200.31619  0.034922628  0.035412606            4 
  479000    1.0736808   -6.3684541    200.49239  0.034880374  0.035392907            2 
  480000    1.0440292   -6.3823809     201.2074   0.03493184  0.035373396            4 
  481000    1.0616557   -6.3523014    201.60851  0.034928709    0.0353534            4 
  482000    1.0859889   -6.4345887    201.97927  0.034920344  0.035332951           10 
  483000    1.0649614    -6.395318    201.73717  0.034806275  0.035311733            5 
  484000    1.0607196   -6.3959104    201.73024  0.034733168  0.035290912            6 
  485000    1.0747611   -6.4009098    201.74652  0.034664351  0.035270266            2 
  486000    1.0487577   -6.4216405    202.70124  0.034756729  0.035249682            6 
  487000    1.0541315   -6.3670751    202.48629  0.034648579   0.03522817            2 
  488000    1.0336035   -6.4162109    202.80953  0.034632775  0.035206423            7 
  489000    1.0734045      -6.3823    202.67481  0.034538994  0.035185119            8 
  490000    1.0676242   -6.3847157    203.27522  0.034570616  0.035163662            5 
  491000    1.0551462   -6.3695187    203.30739  0.034505668  0.035141775            3 
  492000    1.0507901   -6.3683517    204.17647  0.034582735  0.035119827            3 
  493000    1.0594711    -6.441202    203.67361  0.034427587  0.035097764            4 
  494000     1.055959   -6.3934933    203.92224  0.034399837  0.035075396            5 
  495000    1.0377179    -6.390073    204.42628  0.034415199  0.035053054            5 
  496000    1.0677798   -6.4028161    205.22692   0.03448033   0.03503088            4 
  497000    1.0565949   -6.4366618    204.90673  0.034357265   0.03500866            4 
  498000    1.0700976   -6.4289316    205.27859  0.034350501  0.034986325            5 
  499000     1.023498   -6.3834365    205.69245  0.034350776  0.034964429            2 
  500000    1.0478755   -6.3920142    205.86368  0.034310614   0.03494237            5 
  501000    1.0382944   -6.4189533    206.28376  0.034312003  0.034920542            5 
  502000    1.0288804   -6.3966678     206.8099  0.034330993  0.034898796            4 
  503000    1.0580207   -6.4409971    207.48746  0.034374993  0.034876876            5 
  504000    1.0376172   -6.3930463    207.08678  0.034240539  0.034855148            9 
  505000    1.0620877   -6.4304551    207.85563  0.034299609  0.034833456            4 
  506000    1.0399858   -6.4093862    208.36906  0.034316381  0.034811452            5 
  507000    1.0598987   -6.4079739    208.59606  0.034286006  0.034790314            3 
  508000    1.0470454   -6.4406551    208.56849  0.034213991  0.034769058            4 
  509000    1.0615875   -6.3979841     208.7769  0.034180894  0.034747393            4 
  510000     1.051477   -6.3886343     209.1078  0.034167941   0.03472631            4 
  511000    1.0806864   -6.3953169    210.17714  0.034275463  0.034705478            5 
  512000    1.0511271   -6.3922075    210.16673  0.034206824  0.034685022            4 
  513000    1.0430761   -6.3695958    210.86815  0.034254085  0.034664557            3 
  514000     1.063648   -6.4289258    210.47462  0.034123641  0.034643697            3 
  515000    1.0503765   -6.4342839    210.66091  0.034087526  0.034622326            5 
  516000    1.0508365    -6.412528    211.02465  0.034080208  0.034601472            4 
  517000    1.0525107    -6.413647    211.01723  0.034013093  0.034580687            4 
  518000    1.0588053   -6.4487874    211.16391  0.033971028  0.034559735            3 
  519000    1.0728274   -6.4018115    212.52952  0.034124843  0.034538923            4 
  520000    1.0317339   -6.4115455    212.42371  0.034042262  0.034518339           10 
  521000    1.0746728   -6.4144851    213.00584  0.034070032  0.034498365            3 
  522000    1.0538033   -6.4178705    213.26948  0.034046852  0.034477595            3 
  523000    1.0508098   -6.4335316    212.99289  0.033937681  0.034457083            7 
  524000    1.0422191    -6.416241    213.77362  0.033997077  0.034436773            2 
  525000    1.0586821   -6.4382726     214.0331  0.033973507  0.034416522            4 
  526000    1.0210315    -6.437116    214.63256  0.034003891  0.034396394            2 
  527000    1.0306064   -6.4221194    214.71904  0.033953042  0.034376199            6 
  528000    1.0742006    -6.407167    215.61373  0.034029944  0.034356719            9 
  529000    1.0393401   -6.4021487     215.3859  0.033929726  0.034337191            5 
  530000    1.0319385   -6.4538215    215.24225  0.033843122  0.034317186            2 
  531000    1.0287832   -6.4316575    215.66905  0.033846367  0.034296976            7 
  532000    1.0410417   -6.3997357    215.68672  0.033785514  0.034276692            4 
  533000    1.0442916   -6.4431365    216.34603  0.033825209  0.034256346            7 
  534000    1.0465994   -6.4450571    217.00504  0.033864707  0.034236665            7 
  535000    1.0425182   -6.4156152    217.54831   0.03388603  0.034217423           10 
  536000    1.0424358    -6.432737    218.28974  0.033938082  0.034198127            6 
  537000    1.0485755   -6.4089439    217.86049   0.03380827  0.034179002            4 
  538000    1.0483968    -6.425326     218.3626  0.033823204  0.034159303            3 
  539000     1.030647    -6.424493    217.95481  0.033697405  0.034139247            4 
  540000    1.0318933   -6.4583019    219.21634  0.033829683  0.034119181            3 
  541000    1.0469406   -6.4276004    218.90463  0.033719136  0.034099094            5 
  542000    1.0204859    -6.444738    218.58598  0.033607931   0.03407922            7 
  543000    1.0525681   -6.4671133    219.08162  0.033622103  0.034059033            5 
  544000    1.0511972    -6.432633    220.07889  0.033713066  0.034038824            6 
  545000    1.0460056   -6.4282425    220.07189  0.033650136  0.034019032            3 
  546000     1.034992   -6.4168367    220.51097  0.033655521  0.033999786            3 
  547000    1.0312204   -6.4511377    220.64742   0.03361478  0.033980297            5 
  548000    1.0379978   -6.4209532    220.69693  0.033560969   0.03396027            4 
  549000    1.0249788   -6.4629433    221.44407  0.033613247  0.033940296            2 
  550000    1.0225567   -6.4571645    220.72465  0.033443129   0.03391981            6 
  551000    1.0433737   -6.4124038    221.49309  0.033498652  0.033899289            4 
  552000    1.0324135   -6.4717371    221.80864  0.033485603  0.033878718            4 
  553000    1.0371842    -6.435982    222.66683  0.033554375  0.033858608            3 
  554000    1.0155229    -6.440665    222.42078  0.033456796  0.033838762            2 
  555000    1.0347044   -6.4132334    222.27712  0.033374943  0.033818735            4 
  556000    1.0458652   -6.4765725    222.73941  0.033384205  0.033798292            8 
  557000    1.0434828   -6.4631523      223.668  0.033463195  0.033777925            4 
  558000    1.0251082   -6.4803205    223.33476  0.033353459  0.033757442            4 
  559000    1.0219088   -6.4745405    223.89104   0.03337672  0.033736742            7 
  560000    1.0447782    -6.460274    223.69393  0.033287787   0.03371661            5 
  561000    1.0314215   -6.4520508    224.19976  0.033303588  0.033696405            2 
  562000    1.0306986   -6.4365497    224.62568  0.033307485  0.033676791            8 
  563000    1.0232035   -6.4556147    224.92358  0.033292418    0.0336568            6 
  564000    1.0216687   -6.4404492    225.33052  0.033293516  0.033637082            4 
  565000    1.0391962   -6.4378013    225.32533  0.033233825  0.033617127            2 
  566000    1.0166792   -6.4336851    225.86479  0.033254534  0.033597248            2 
  567000    1.0379481   -6.4476808    225.88784  0.033199271  0.033576781            4 
  568000      1.06699   -6.4381518    226.60963  0.033246718  0.033556813            5 
  569000    1.0343852    -6.470316    226.36087  0.033151855  0.033536691            7 
  570000    1.0078584   -6.4519796    227.07842    0.0331986  0.033516717            2 
  571000    1.0016402   -6.4374489    227.38202  0.033184766  0.033496589            5 
  572000    1.0233647   -6.4459597    227.83922   0.03319336  0.033476249            4 
  573000    1.0250791   -6.4592808    227.31263  0.033058847  0.033456142            6 
  574000    1.0162158   -6.4710004    228.34673  0.033151384  0.033436077            5 
  575000    1.0269531   -6.4403885    227.72317  0.033003359  0.033415906            3 
  576000    1.0122975   -6.4578591    228.37207  0.033039941  0.033395358            5 
  577000    1.0144179   -6.4598227    228.09157  0.032942167  0.033374656            5 
  578000    1.0194087   -6.4835176    228.45263  0.032937231  0.033354216            5 
  579000    1.0289019   -6.4559667    229.35657  0.033010444  0.033333789            7 
  580000    1.0293183   -6.4446736    229.95428  0.033039408  0.033313909           10 
  581000    1.0379721   -6.4490799    229.92341  0.032978113  0.033294525            5 
  582000    1.0027646   -6.4771412    229.44847  0.032853446  0.033274816            4 
  583000    1.0170193   -6.4517055    229.98386  0.032873622  0.033254989            3 
  584000    1.0099164   -6.4796323    231.09868   0.03297641  0.033235134            3 
  585000    1.0155885   -6.4786852    231.17792  0.032931328  0.033215788           10 
  586000    1.0206046   -6.4524294    232.06124  0.033000745  0.033196384            7 
  587000    1.0235932   -6.4785901    231.30288  0.032836866  0.033176623            5 
  588000    1.0209945   -6.5096624    231.12574  0.032755915  0.033156403            2 
  589000      1.02638   -6.5018444    232.20894  0.032853556  0.033136395            6 
  590000    1.0362161   -6.4494775    232.05044  0.032775485   0.03311651            6 
  591000    1.0286219   -6.4335316    232.81209  0.032827424   0.03309673            3 
  592000     1.003177     -6.48504    231.89939  0.032643495  0.033076931            3 
  593000    1.0394431   -6.5163445    232.18079  0.032627992  0.033056367            3 
  594000     1.031183   -6.4882376    232.81546  0.032662102  0.033035851            4 
  595000    1.0075774   -6.4378417    233.92141  0.032762103  0.033015832            3 
  596000    1.0046997   -6.4905679    233.31709  0.032622636  0.032995467            5 
  597000     1.019733   -6.4836636    234.53217    0.0327376  0.032975158            6 
  598000    1.0431339   -6.5036755    234.38798  0.032662762  0.032955535            4 
  599000    1.0352427   -6.4884629    234.87291  0.032675698  0.032935798           11 
  600000    1.0062706   -6.4713185    234.96434  0.032633936  0.032916175            5 
  601000    1.0208111   -6.4653098    235.37295  0.032636294  0.032896695            5 
  602000    1.0128365    -6.493262     235.2213  0.032561089   0.03287738            4 
  603000   0.99392099   -6.5049716    235.77061  0.032583003   0.03285783            4 
  604000    1.0106488   -6.4770171    235.97299   0.03255698   0.03283838           10 
  605000    1.0194943   -6.4874131    236.44936  0.032568782  0.032818203            7 
  606000    1.0251909    -6.488189    236.70388  0.032550038  0.032798588            5 
  607000     1.005592   -6.4995767    237.00261  0.032537426  0.032779201            5 
  608000    1.0120853   -6.4793267     238.0506   0.03262755  0.032760057            5 
  609000    1.0140151   -6.5032423     237.7711  0.032535728  0.032740928            3 
  610000    1.0288878   -6.4782275    237.99712  0.032513268  0.032721533            4 
  611000    1.0121759   -6.4630542    238.25705  0.032495506  0.032702394            4 
  612000       1.0258   -6.5239418     238.5258  0.032479003   0.03268278            5 
  613000   0.99841811     -6.49021    238.06742  0.032363706  0.032663367            4 
  614000    1.0002662   -6.5038373    239.02633  0.032441141  0.032644359            3 
  615000     1.033679   -6.4894787    239.22648  0.032415512  0.032625398            4 
  616000     1.014499   -6.4813958    239.57822  0.032410474  0.032606521            2 
  617000    1.0157917   -6.5066019    239.99693  0.032414496  0.032587488            4 
  618000    1.0453084   -6.4685963    240.38205  0.032413976  0.032568405            5 
  619000    1.0068596   -6.5086839    240.41865  0.032366539  0.032549828            8 
  620000    1.0098924   -6.5073335    240.33461  0.032303039  0.032531088            4 
  621000    1.0303464   -6.4932025    240.72723  0.032303707  0.032511968            5 
  622000    1.0299285   -6.4996931     241.2828  0.032326206  0.032493218            5 
  623000    1.0070009   -6.4426606    241.94817  0.032363318  0.032474663            4 
  624000    1.0159659   -6.5117695      241.956    0.0323125  0.032455714            2 
  625000   0.98947956   -6.4861886    241.59229  0.032212306  0.032437153            8 
  626000    0.9786634   -6.5161978    241.61189  0.032163457  0.032418281            7 
  627000   0.99448006   -6.5052965    242.17773  0.032187364  0.032399444            5 
  628000    1.0062424   -6.4739862    242.28306  0.032150087  0.032380614            6 
  629000    1.0036358   -6.5063729    242.62989  0.032144925  0.032361745            3 
  630000   0.99193967     -6.49171    243.02696  0.032146424  0.032342823            3 
  631000     1.007139   -6.4917956    243.45297   0.03215174  0.032323957            6 
  632000   0.98523273   -6.4812174      243.586  0.032118407  0.032304733            6 
  633000    1.0180987   -6.4910476    244.14409  0.032141138  0.032286032            8 
  634000    0.9964997   -6.5088542    244.11384  0.032086467  0.032267168            8 
  635000   0.99903193   -6.5236606    244.55256  0.032093512  0.032248451            6 
  636000   0.98335214   -6.4628479    245.27343  0.032137503  0.032229728            4 
  637000    1.0010939   -6.5293594    244.57903   0.03199621  0.032210679            6 
  638000   0.99038578    -6.509022    244.36817  0.031918517  0.032191356            6 
  639000    1.0134444   -6.5159573    245.11231  0.031965611  0.032172408            6 
  640000   0.99260568   -6.5027889    245.72038  0.031994841  0.032153507            6 
  641000   0.99205925   -6.4892066    245.51136  0.031917754  0.032134275            2 
  642000    1.0212222   -6.4909551    246.06965  0.031940505  0.032115085            5 
  643000    1.0160032   -6.5156947    246.03824   0.03188676  0.032095968            7 
  644000    1.0274254   -6.4998684    246.40048  0.031884121  0.032076563            8 
  645000    1.0067939   -6.4571179    246.24355  0.031814412  0.032057189            8 
  646000    1.0106325   -6.5417636    246.44703  0.031791413  0.032038139            5 
  647000    1.0212654   -6.5054976    246.92287  0.031803564  0.032019173            7 
  648000    0.9961846    -6.523531     247.4397  0.031820949  0.032000435            5 
  649000    1.0014449   -6.4914542    248.86865  0.031955399  0.031981746            5 
  650000   0.99427242   -6.5162885    248.38914  0.031844761  0.031963584            9 
  651000   0.99364032     -6.51738    249.10719  0.031887762  0.031945276            4 
  652000   0.99043143   -6.5310136    248.70788  0.031787817  0.031926991            5 
  653000   0.98907207   -6.5143509    249.14054  0.031794351  0.031908698            3 
  654000   0.96360299   -6.5059006    249.74026  0.031822154  0.031890322            6 
  655000   0.99397229   -6.5247932    250.36224  0.031852702  0.031871818           10 
  656000   0.98517163   -6.5144461    249.98924  0.031756764  0.031853666            3 
  657000   0.99787909   -6.5443433    250.48192  0.031770919  0.031835331           11 
  658000    1.0018822   -6.5344723    251.00748  0.031789195  0.031817306            5 
  659000   0.99196768   -6.4893191    250.89426  0.031726639  0.031799229            5 
  660000   0.99651272   -6.5143275    250.93687  0.031683948  0.031781186            7 
  661000   0.99084376   -6.5115746    251.13235  0.031660659  0.031762751            3 
  662000   0.98864065   -6.5354288    251.85756  0.031704124  0.031744331            8 
  663000   0.98403657   -6.5075471    251.84032  0.031654138  0.031726265            3 
  664000   0.99131011   -6.4857065    252.20685  0.031652466  0.031708433            4 
  665000    0.9894835   -6.5375902    252.18626  0.031602288  0.031690253            9 
  666000    0.9648423   -6.5197986    252.54437  0.031599646  0.031671817            4 
  667000   0.99687059   -6.5572014    252.63972  0.031564183  0.031653677            4 
  668000   0.97123874   -6.5345645    252.89524  0.031548808  0.031635439            6 
  669000   0.96314333   -6.4981344    253.27455  0.031548898  0.031617331            5 
  670000    0.9736003   -6.5254821    253.79939  0.031567088   0.03159913            3 
  671000   0.96985595   -6.5508215    253.80126  0.031520276  0.031580984            5 
  672000   0.96833144   -6.5416375    253.83037   0.03147698  0.031562978            5 
  673000    0.9690796   -6.5227611    254.38052  0.031498331  0.031544927            3 
  674000   0.99959816   -6.5323333    253.64555  0.031360726  0.031526936            6 
  675000    0.9966108   -6.5775195    254.12476  0.031373427  0.031508894            5 
  676000   0.96700089   -6.4869165    255.16173  0.031454848  0.031490961            5 
  677000   0.98233002   -6.5218937    254.79396  0.031363117  0.031473044            3 
  678000   0.99683695   -6.5141302    255.23181  0.031370675  0.031455208            8 
  679000   0.99197906   -6.5297171    256.21276  0.031444865  0.031437644            3 
  680000    1.0035787   -6.5453865    256.47271   0.03143048  0.031420169            4 
  681000   0.98366192   -6.5508407    255.85106  0.031308255  0.031402675            4 
  682000   0.96958075   -6.5361573    257.03301  0.031406771  0.031385153            7 
  683000    0.9751581   -6.5535967    256.95476   0.03135124  0.031367657            4 
  684000    1.0011495   -6.5044818    257.97409  0.031429592  0.031350775            5 
  685000   0.95984777   -6.5418729    257.68254  0.031348241  0.031333883            4 
  686000   0.98336398   -6.5397789     258.7045  0.031426689   0.03131686            6 
  687000   0.96781195    -6.546557    258.95419  0.031411231  0.031300018            4 
  688000   0.96999691   -6.5467813    258.77646  0.031344048  0.031283571            5 
  689000   0.98456258   -6.5489779    259.23763  0.031354334  0.031267139            5 
  690000    0.9577488   -6.5923664    259.42492  0.031331512  0.031250614            8 
  691000    1.0086019   -6.5335862    260.42536  0.031406821  0.031234375           12 
  692000   0.98761764   -6.5520519    260.47209  0.031367063  0.031218173            7 
  693000   0.97747117   -6.5331244    260.73831  0.031353813  0.031202031            4 
  694000   0.95611353   -6.5576272    260.52571  0.031283106  0.031185821            4 
  695000    0.9813575   -6.5646747    260.59875  0.031246853  0.031169471            8 
  696000   0.96032489    -6.581905    260.72052  0.031216537  0.031152855            6 
  697000   0.97942797   -6.5383063    260.96736  0.031201263  0.031136074            4 
  698000   0.99212512   -6.5788996    261.69934  0.031243951  0.031119274            4 
  699000   0.98373075   -6.5667601      261.017  0.031117906  0.031102507            7 
  700000   0.97719824   -6.5818967    261.60974  0.031144016  0.031085664            4 
  701000    1.0002827   -6.5414877    262.35585  0.031188284  0.031069025            6 
  702000   0.94660256   -6.5262331    261.95551  0.031096333   0.03105263            3 
  703000     0.977175   -6.5623672    261.36092  0.030981617  0.031036078            6 
  704000   0.96511905   -6.5360387    263.43412  0.031183016  0.031019203            3 
  705000   0.97275688   -6.5709642    262.44261  0.031021586   0.03100232            9 
  706000   0.97537908   -6.5613699    262.47362  0.030981305  0.030985181            5 
  707000   0.98094296   -6.5555496    262.60434  0.030952893  0.030967723            4 
  708000   0.96141992   -6.5548618    262.79302  0.030931381  0.030950454            7 
  709000   0.96104737   -6.5734279    262.83185  0.030892319  0.030933326           10 
  710000   0.96208855   -6.5679975    264.46943  0.031041013  0.030916461            5 
  711000   0.95670029   -6.5590492    264.10018  0.030954076  0.030899445            4 
  712000    0.9861023   -6.5403668    265.43541  0.031066879  0.030882562            4 
  713000   0.97437066   -6.5599335    264.95072  0.030966657  0.030865807            4 
  714000    0.9521401   -6.5961653    264.16585  0.030831682  0.030849133            7 
  715000   0.97162231   -6.5996919    264.99729  0.030885465  0.030832306            3 
  716000   0.96864952    -6.554499    265.83497  0.030939824  0.030815653            7 
  717000   0.97852803   -6.6069671    265.73075   0.03088456  0.030799021            6 
  718000   0.96318245   -6.5745503    266.00412  0.030873274  0.030782759           14 
  719000   0.97490227   -6.5604819    266.27847  0.030862132  0.030766563           10 
  720000   0.95939153    -6.575647     266.7179  0.030870127  0.030750459            3 
  721000   0.97249322   -6.5482732    267.51552  0.030919501  0.030734131            8 
  722000   0.96589181   -6.5826745    267.24012   0.03084489  0.030717746            5 
  723000   0.97066748   -6.5855898    267.93826  0.030882695  0.030701529            6 
  724000   0.96755679   -6.6092568    267.97136  0.030843849  0.030685386            6 
  725000   0.97215212   -6.5610415    268.51522  0.030863818  0.030669115            2 
  726000   0.95458462   -6.5342608    268.36648  0.030804233  0.030653101            8 
  727000   0.94508761   -6.5637521    268.66771  0.030796391  0.030637021            5 
  728000   0.96426532   -6.5459147    268.34728  0.030717409  0.030620834            7 
  729000   0.95002457    -6.601013    268.82746  0.030730162  0.030604348           12 
  730000   0.97677733   -6.5438683    269.64969  0.030781928  0.030587949            3 
  731000   0.96192587   -6.5552302    270.35514  0.030820239  0.030572046            4 
  732000   0.96982993   -6.5543212    269.88345  0.030724437  0.030555866            6 
  733000   0.97358392   -6.5556798      269.861  0.030679968  0.030539606            3 
  734000   0.95802753   -6.6014627    269.04868  0.030545945  0.030523335            3 
  735000   0.97771251   -6.5784142    269.85586  0.030595903  0.030506861            5 
  736000   0.94771895   -6.6153834    270.51165  0.030628583  0.030490486            4 
  737000     0.970756   -6.6115353    270.57123  0.030593762  0.030473963            7 
  738000   0.98422887   -6.6004694    270.15661  0.030505489  0.030457396            8 
  739000   0.96599253   -6.5969684    270.43671  0.030495795  0.030440719            4 
  740000   0.96536848   -6.5891691    270.99428  0.030517374  0.030423651            5 
  741000   0.96407251   -6.5874329     271.2801  0.030508333  0.030406865            4 
  742000   0.94529138   -6.6086854    271.78734  0.030524184  0.030390167            8 
  743000   0.94673287   -6.5692177     272.0823  0.030516185  0.030373701            5 
  744000    0.9657358   -6.5557891    272.52297  0.030524526  0.030357726            4 
  745000   0.96473762   -6.6101774    272.21311  0.030448893  0.030341776            8 
  746000   0.95270217    -6.608638    272.40827  0.030429878    0.0303252            7 
  747000   0.96774934   -6.6127275    272.35907  0.030383653  0.030308476            3 
  748000   0.94396899   -6.5637653    272.17872  0.030322941  0.030291791            9 
  749000   0.96889932   -6.5895024    271.84774  0.030245632  0.030274968            2 
  750000   0.95115825   -6.5703733     273.7033  0.030411478  0.030258099            4 
  751000   0.94989694    -6.596865     273.0272   0.03029596  0.030241272            6 
  752000   0.94640866   -6.6081605     273.6793  0.030327937  0.030224647            4 
  753000   0.95083098   -6.6232072    274.06063  0.030329862  0.030208082            4 
  754000   0.96018942   -6.6144578    274.64578  0.030354308  0.030191657            7 
  755000   0.96545397   -6.6024288    274.03363  0.030246538  0.030175289            7 
  756000    0.9692325   -6.5691494    274.42267  0.030249413  0.030159018            4 
  757000   0.96299552   -6.6366226    274.21962    0.0301871    0.0301427            5 
  758000   0.94518353   -6.5887219    275.26601  0.030262314  0.030126201            4 
  759000   0.96022569   -6.5890209    275.80969  0.030282135   0.03010995            4 
  760000     0.947617   -6.6173993    276.27894  0.030293743  0.030093803            9 
  761000   0.95136471   -6.6051733    275.02075  0.030116157   0.03007742            7 
  762000   0.95726838   -6.6081157     275.6327  0.030143559  0.030061116            7 
  763000   0.95447552   -6.5748341    276.56264  0.030205618  0.030044975            7 
  764000   0.95105362   -6.5793165    276.06172  0.030111444   0.03002898            6 
  765000    0.9397099   -6.6117802    277.13924   0.03018946  0.030013141            3 
  766000    0.9534457   -6.6052929    276.52879  0.030083637  0.029996992            6 
  767000   0.91869202   -6.5841979    276.62689  0.030055073  0.029980719            3 
  768000   0.93681223   -6.6109603    277.74887  0.030137681  0.029964144            4 
  769000   0.94293349   -6.6267399    277.55826  0.030077835  0.029947744            4 
  770000   0.95416567   -6.6156723    278.05326  0.030092344  0.029931465            3 
  771000   0.92782219   -6.6256663    278.40723  0.030091573  0.029915492            4 
  772000   0.97035798   -6.5709413    277.89806  0.029997631  0.029899272            4 
  773000   0.92489485   -6.5888112     277.6239  0.029929269  0.029882964            7 
  774000   0.95564803   -6.6013723    279.00677  0.030039488   0.02986655            9 
  775000   0.92544932   -6.6047316    280.25933  0.030135412  0.029850315            6 
  776000   0.93544554   -6.6225437    279.46356  0.030011121  0.029834261            4 
  777000   0.94316438   -6.5924831     279.5894  0.029985994  0.029818165            5 
  778000   0.96556272   -6.6212107    278.64994  0.029846823  0.029801838            9 
  779000   0.94098039    -6.594992    279.87458  0.029939514  0.029785671            5 
  780000   0.94553188   -6.6150927    280.54904  0.029973188  0.029769756            3 
  781000   0.95156984   -6.6087119    280.01872  0.029878225  0.029753847           13 
  782000    0.9465485   -6.6027485     280.6298  0.029905136  0.029737911            8 
  783000   0.96117245   -6.6278701    280.43213  0.029845905  0.029721864            5 
  784000   0.93716671   -6.6256146    281.06411  0.029875011  0.029705827            8 
  785000   0.95914829   -6.6238685    281.15812  0.029846934   0.02968992            5 
  786000   0.93348415   -6.5959199    282.11084   0.02990997  0.029673937           14 
  787000   0.92158172   -6.6141438    281.64859  0.029823018  0.029657687            7 
  788000   0.93851226   -6.6223661    281.92504  0.029814407  0.029641458           22 
  789000    0.9381618   -6.6058313    282.26425  0.029812447  0.029625529            7 
  790000   0.92049331   -6.6062178    282.44889  0.029794187  0.029609624            6 
  791000   0.93440616   -6.6377403    282.32097  0.029743043  0.029593567            3 
  792000   0.93040197   -6.5910414    282.52223  0.029726666  0.029577262            8 
  793000   0.94756186   -6.6315736    282.56265  0.029693427  0.029561153            6 
  794000   0.94361304    -6.615085    282.90882  0.029692362  0.029545054            5 
  795000   0.92311022    -6.624437    283.16623  0.029681995   0.02952913            8 
  796000   0.93802946   -6.6543149    283.25616  0.029654121  0.029513069            9 
  797000   0.92997395   -6.6155842     284.4942  0.029746361  0.029497174            7 
  798000   0.92649528   -6.6402932    283.76272  0.029632699  0.029481271            7 
  799000   0.92602094   -6.6760061    284.07711  0.029628401  0.029465251           10 
  800000   0.93499073   -6.6446263    283.93105  0.029576151  0.029449212            6 
  801000   0.93077202   -6.6548551    284.65393  0.029614433  0.029433342            9 
  802000   0.92198344    -6.598075    284.34297  0.029545197  0.029417455            7 
  803000    0.9333295   -6.6787034    284.47079  0.029521668  0.029401359            6 
  804000   0.94511467   -6.6459774    285.46415  0.029587909  0.029385356           12 
  805000   0.91557144   -6.6268524    284.83171  0.029485684   0.02936939           10 
  806000   0.94993928   -6.6209285     285.2522  0.029492577  0.029353514            4 
  807000   0.93964257   -6.6347542    286.44916  0.029579633  0.029337687            6 
  808000   0.93881937   -6.6018488     286.1089  0.029507932  0.029321908            7 
  809000   0.93248214   -6.6307766    286.08143  0.029468627  0.029306077            7 
  810000   0.93185506   -6.6591191    286.30443  0.029455189  0.029289971           10 
  811000   0.92539623   -6.6315075    286.26219  0.029414528  0.029273979           19 
  812000   0.93048828   -6.6400894    287.70619  0.029526497   0.02925802           20 
  813000   0.93117991   -6.6778076    286.92256  0.029409856  0.029242015           14 
  814000   0.94040728    -6.674574     286.3572  0.029315848  0.029225819           18 
  815000   0.93015882   -6.6434151    287.39843  0.029386342  0.029209631            7 
  816000   0.93181586   -6.6513318    288.25076  0.029437374  0.029193785            3 
  817000   0.93462695   -6.6310648    287.45413  0.029320087  0.029177924            7 
  818000   0.91700445   -6.6458652    288.39003  0.029379587   0.02916211            4 
  819000   0.92677614   -6.6684251    288.09955  0.029314158  0.029146045           17 
  820000   0.92237393   -6.6409537    287.76561  0.029244472  0.029129878            9 
  821000   0.92596366   -6.6453154    288.75327  0.029309101  0.029113655            4 
  822000   0.90911196   -6.6460275    288.53548  0.029251366  0.029097581            9 
  823000   0.94736645   -6.6560778    288.38885  0.029200977  0.029081253            6 
  824000   0.92758494   -6.6727175    287.86905   0.02911297  0.029064894            7 
  825000   0.92964649   -6.6649598    288.29416  0.029120622  0.029048558            4 
  826000   0.90238266   -6.6359222    289.24244  0.029181037  0.029032149            7 
  827000   0.91184259   -6.6685701    289.38439  0.029160055  0.029016086           10 
  828000   0.92143041   -6.6476879    290.44146  0.029231226  0.029000051            8 
  829000   0.92756522   -6.6493074    290.79294  0.029231297  0.028984186            8 
  830000   0.94513014   -6.6754857    289.71729  0.029088081  0.028968508            4 
  831000   0.92102579   -6.6810704    289.97017  0.029078436  0.028952483            9 
  832000   0.92399491   -6.6238854    291.42078   0.02918878  0.028936616            6 
  833000   0.91984115   -6.6367003    291.63399  0.029175069  0.028921097           11 
  834000     0.893479   -6.6468694    291.60536  0.029137226  0.028905278           13 
  835000    0.9243812   -6.6398242    290.84516  0.029026463  0.028889346            6 
  836000   0.91193812   -6.6405302    292.00825  0.029107681  0.028873283           13 
  837000   0.91654491   -6.6472381    291.21158  0.028993586  0.028857191            4 
  838000   0.91769043   -6.6423298     291.3554  0.028973289  0.028840839            7 
  839000   0.91784962   -6.6598009    291.56084  0.028959162  0.028824491           10 
  840000    0.9299046   -6.6690104    290.97446  0.028866514  0.028807783            4 
  841000   0.93812178   -6.6779394    291.02773  0.028837468   0.02879108            4 
  842000   0.92244587   -6.6643224    292.14796  0.028914089   0.02877451            4 
  843000   0.91093413    -6.673002    291.77944  0.028843361  0.028757963           15 
  844000   0.90869573    -6.674338    292.22559  0.028853237  0.028741385            6 
  845000   0.92055882   -6.7127084     291.5136  0.028748876  0.028724782           11 
  846000   0.90651665   -6.6693501    292.97227  0.028858576  0.028708417            4 
  847000   0.93914752   -6.6791635    292.27913   0.02875631  0.028692161           14 
  848000   0.89457896   -6.6651158    292.81443  0.028775003  0.028675856           10 
  849000   0.92243076   -6.6462208    293.17315   0.02877632   0.02865952            5 
  850000   0.92581167   -6.6627368    293.36011  0.028760795  0.028643006            7 
  851000   0.91265818   -6.6820515     293.3063  0.028721729  0.028626676            7 
  852000   0.91503009   -6.7008173    294.32201  0.028787364  0.028610335            8 
  853000   0.92186217   -6.6763397    293.88779  0.028711195  0.028594154            4 
  854000   0.89309546   -6.6797794    294.49539  0.028736865  0.028577837           12 
  855000   0.91934604   -6.6531092    295.32327  0.028783944  0.028561697            7 
  856000   0.92736046   -6.6847265    295.04739   0.02872346  0.028545764           10 
  857000   0.90715838   -6.6726422     295.3618  0.028720518  0.028529757            9 
  858000   0.91765113   -6.6692114    295.31995  0.028682979  0.028513528            5 
  859000   0.93116139    -6.705343    295.11074  0.028629292  0.028497544            4 
  860000   0.91101545   -6.6864525    295.43257  0.028627187  0.028481616           14 
  861000   0.91761123   -6.6684993    296.22244  0.028670387  0.028466034            7 
  862000   0.91595274   -6.6440024    296.10566  0.028625837  0.028450419            5 
  863000   0.92779497   -6.6853668    296.48664  0.028629455  0.028434671            8 
  864000   0.92302527   -6.6967026     296.8629   0.02863261  0.028418778            6 
  865000   0.91209907   -6.6945321    295.98843  0.028515263  0.028402727            5 
  866000   0.89403423   -6.6739782     296.9941  0.028579109  0.028386715            6 
  867000   0.89735284   -6.6566104    296.92174   0.02853919  0.028370903            5 
  868000   0.91066396   -6.6547936    297.63737  0.028575016  0.028355167            7 
  869000     0.908129   -6.6659634    297.62469  0.028540917  0.028339612            7 
  870000   0.92183298   -6.6644407    298.07867  0.028551597  0.028324043           10 
  871000   0.90045725   -6.6781019    298.50639  0.028559738  0.028308387            9 
  872000    0.9042924    -6.677014    298.75558    0.0285508  0.028292758            5 
  873000   0.90581224   -6.6982851    297.91016  0.028437396    0.0282772           10 
  874000   0.91930847    -6.691527    298.51488  0.028462517  0.028261484            7 
  875000   0.90523566   -6.7117209    298.29161  0.028408724  0.028245298            7 
  876000   0.90892683   -6.6885015    298.48869  0.028395043  0.028229072            7 
  877000   0.90624503   -6.6942657    298.93971  0.028405522  0.028212817           13 
  878000   0.90934356   -6.7129665    298.07286  0.028290894  0.028196635           19 
  879000   0.90449572    -6.720816    298.01474  0.028253199  0.028180114           13 
  880000   0.89439031   -6.7019176     298.9116  0.028306023  0.028163729            6 
  881000    0.9130852   -6.6885689    299.32891  0.028313367  0.028147528           11 
  882000   0.88249546   -6.7118848    300.10583   0.02835467  0.028131611            7 
  883000   0.91111847   -6.7013179    299.74152  0.028288177  0.028115505            2 
  884000   0.88549359   -6.6703081     300.4592  0.028323831  0.028099336            8 
  885000   0.92181716   -6.6964059    299.90455  0.028239599  0.028083408            7 
  886000   0.89406776   -6.6821285    300.48099  0.028261945  0.028067488            8 
  887000   0.87603509   -6.7090784    300.44173  0.028226393  0.028051651            6 
  888000   0.90406541   -6.6840211    300.72768  0.028221441  0.028035722            6 
  889000   0.90362865   -6.6987044    300.93771  0.028209384   0.02801978            8 
  890000   0.89284424   -6.7106559    301.25231  0.028207145  0.028003827            6 
  891000   0.90538736   -6.7013247    301.20288  0.028170865  0.027987764            8 
  892000   0.91361651   -6.6924586    301.28473  0.028146929  0.027971801           14 
  893000   0.88619698   -6.7221695    301.45245  0.028131061  0.027955727            8 
  894000   0.89191843   -6.7049304    301.88294  0.028139722   0.02793966           10 
  895000   0.90263708   -6.6937227    301.28287  0.028052409  0.027923479            7 
  896000   0.89672332   -6.7013541     301.8624     0.028075  0.027907342            4 
  897000   0.89753013   -6.6754396    302.13409  0.028068942  0.027891125            5 
  898000    0.9050136   -6.6813378    301.78522   0.02800531   0.02787481           16 
  899000   0.89214507   -6.7021621    302.20686  0.028013242  0.027858543            9 
  900000   0.89598043    -6.723531    302.28297  0.027989163  0.027842078            8 
  901000   0.88301514   -6.7068256    302.77109  0.028003246   0.02782592            6 
  902000   0.87594363   -6.7207882    303.66525  0.028054808  0.027809879           12 
  903000   0.90524167    -6.692901     303.9457  0.028049622  0.027793916            6 
  904000   0.87657134   -6.7021097    302.52249  0.027887397  0.027777906            4 
  905000   0.90075347   -6.6638805    303.76967  0.027971425  0.027761575            6 
  906000   0.88884173   -6.7025643    303.60372  0.027925287   0.02774554            5 
  907000   0.89680626   -6.7128718     303.2991  0.027866511   0.02772937            5 
  908000   0.89828802   -6.7181993    303.54338   0.02785824  0.027713049            8 
  909000   0.87940955   -6.7080635    303.84776  0.027855497  0.027696786           10 
  910000    0.9002878   -6.6976526    304.04873  0.027843291  0.027680532           12 
  911000   0.89177859   -6.7497383    303.39047  0.027752513  0.027664089           12 
  912000   0.89119804   -6.7084217    304.88979  0.027859081  0.027647502            8 
  913000    0.8693068   -6.7016878    304.04364  0.027751337  0.027631079           22 
  914000   0.88376915   -6.7560749    304.30397  0.027744709  0.027614625            7 
  915000    0.8719691   -6.7470966    303.76975  0.027665733  0.027598121            5 
  916000   0.88703539   -6.7382877    304.85561  0.027734317  0.027581835            6 
  917000   0.86125832   -6.7213665    304.67129  0.027687322   0.02756546            5 
  918000   0.89166463   -6.6807326     304.9622  0.027683569  0.027549126           16 
  919000   0.88732355   -6.7517084    304.30905   0.02759422  0.027532821           12 
  920000   0.88095653   -6.7081034    305.09697  0.027635595  0.027516342            5 
  921000   0.87577582   -6.7522566    305.19734  0.027614671  0.027499972            9 
  922000    0.8754015   -6.7343765    304.75501  0.027544741  0.027483346            7 
  923000   0.88317969   -6.7183508    305.47951  0.027580309  0.027466829           11 
  924000   0.88264782   -6.6996266    305.98015  0.027595612  0.027450357            9 
  925000   0.88725615   -6.7277412    305.95532  0.027563542  0.027434025           17 
  926000   0.89346798   -6.7304829    306.53148  0.027585627  0.027417518            7 
  927000   0.87115947   -6.7414327    306.30992  0.027535951  0.027401092            6 
  928000   0.88321337    -6.726783    306.79238  0.027549603  0.027384644           16 
  929000   0.87953505   -6.7499552    306.76526  0.027517515  0.027367943            7 
  930000   0.88690574   -6.7550499    306.23609   0.02744051  0.027351286            9 
  931000   0.89075862   -6.7215835    305.99303  0.027389279  0.027334608            5 
  932000   0.87943599   -6.7507897     305.9878  0.027359424  0.027317891            7 
  933000   0.88424247   -6.7049628    306.40833  0.027367661   0.02730106           13 
  934000   0.88158103   -6.7319641    306.37514  0.027335398   0.02728436            6 
  935000   0.88160929   -6.7305332    305.71101   0.02724697  0.027267595            4 
  936000   0.89023958   -6.7395638     306.6858  0.027304647  0.027250854            7 
  937000   0.87872207   -6.7488016    306.66661    0.0272738  0.027234106            7 
  938000     0.884593    -6.767853    306.59662  0.027238506   0.02721724            6 
  939000   0.86602394   -6.7445997    307.84226  0.027320044   0.02720043            6 
  940000   0.86160582   -6.7291233    307.86932  0.027293379  0.027183762            8 
  941000   0.87872544   -6.7197652    307.53726  0.027234968  0.027167094            4 
  942000   0.88337748   -6.7827047    307.65512  0.027216483  0.027150577            7 
  943000   0.86454118   -6.7419609    307.59172  0.027182019  0.027133913            5 
  944000   0.86048814    -6.726571    308.64418  0.027246132  0.027117334           10 
  945000   0.87817097   -6.7605832     308.1804  0.027176402   0.02710091            6 
  946000   0.87328982   -6.7252674    308.27248  0.027155786  0.027084571            9 
  947000   0.88038287   -6.7784536    308.79709  0.027173274  0.027068067           10 
  948000   0.87505468   -6.7616854    308.97708  0.027160433  0.027051498            6 
  949000   0.88389072   -6.7434607     308.4333  0.027084062  0.027034955           13 
  950000   0.87289445   -6.7608624     308.6132  0.027071334  0.027018342           11 
  951000   0.88003743   -6.7554369    309.49242   0.02711991  0.027001863            3 
  952000   0.85212829   -6.7168788    309.53655  0.027095286  0.026985361           17 
  953000   0.89090348   -6.7403919    309.16545  0.027034405  0.026968816            8 
  954000   0.88498591   -6.7386588     309.1687   0.02700635  0.026952162            8 
  955000   0.86865745   -6.7697247    309.72089  0.027026256  0.026935593            6 
  956000   0.88584758   -6.7622644    310.90295  0.027101024  0.026919141            8 
  957000   0.87953846   -6.7493535    309.47058  0.026947978  0.026902708           13 
  958000   0.86127015    -6.766899    310.95984  0.027049394  0.026886191            6 
  959000   0.86554077   -6.7427005    310.75731   0.02700359  0.026869529            4 
  960000   0.87274637   -6.7327103    311.07668  0.027003184  0.026853071            8 
  961000   0.87402492   -6.7676882    311.32944  0.026997003   0.02683671            8 
  962000   0.86631562   -6.7277486    310.87463  0.026929542  0.026820385            6 
  963000   0.86718143   -6.7429041    310.92792  0.026906189  0.026803889            7 
  964000   0.87263114   -6.7687339    310.82561  0.026869434  0.026787351            4 
  965000    0.8856845   -6.7832347    310.33101  0.026798878  0.026770839           10 
  966000   0.86299395   -6.7566976     312.0274  0.026917477  0.026754287           11 
  967000   0.86894975   -6.7675918    311.24916  0.026822575   0.02673762            6 
  968000   0.87465177   -6.7549485    311.38409  0.026806482  0.026721117            6 
  969000   0.85779129   -6.7461593    312.05331   0.02683637  0.026704563            3 
  970000   0.86944618   -6.7382632    311.49624  0.026760846   0.02668811           12 
  971000   0.86702639   -6.7746347    311.08823  0.026698269  0.026671312            3 
  972000   0.87451653   -6.7433404     311.5678  0.026711917  0.026654589            9 
  973000   0.88300174   -6.7448698    311.87668  0.026710918  0.026637864            9 
  974000   0.85320911   -6.7711098    312.08538   0.02670135  0.026621169            7 
  975000   0.86829032   -6.7555603    312.66657  0.026723639  0.026604385           13 
  976000   0.86106364   -6.7903303    311.95193   0.02663524  0.026587628            6 
  977000   0.87511658   -6.7759666    312.63267  0.026666041  0.026570946            9 
  978000   0.87176946   -6.7677849    312.91388  0.026662737   0.02655431            6 
  979000   0.87006312   -6.7492813    313.09856  0.026651222  0.026537703           28 
  980000   0.86153792   -6.7738893     313.3268  0.026643435  0.026521244            7 
  981000   0.85405015    -6.792645    313.35044  0.026618284  0.026504752           19 
  982000   0.85534908   -6.7684355     313.5046   0.02660426  0.026488211           11 
  983000   0.85660951   -6.8125558    313.39153  0.026567611  0.026471545           15 
  984000   0.88030008    -6.767313    313.41773  0.026542829  0.026454916            8 
  985000   0.85385626   -6.7707753    314.12014  0.026575308  0.026438367            9 
  986000   0.85894057   -6.7719391    313.85013  0.026525535  0.026422029            5 
  987000   0.85684223   -6.7943391    314.27832  0.026534813  0.026405622           10 
  988000   0.85644397   -6.7319767    314.80376  0.026552274  0.026389287           19 
  989000   0.85939688   -6.7790328    314.56896  0.026505642  0.026372824           12 
  990000   0.87391436   -6.7804559    314.33812  0.026459438  0.026356335           12 
  991000   0.83050838   -6.7710758    315.09611  0.026496478  0.026339917            9 
  992000   0.86060892   -6.7835856     315.0441  0.026465398  0.026323624           25 
  993000   0.85745465   -6.7974931    314.26065  0.026372998  0.026307184            7 
  994000   0.85157676   -6.8219262    314.98144  0.026406895  0.026290564           14 
  995000   0.85275489   -6.7609107    314.59005  0.026347576  0.026274158           15 
  996000   0.84646182    -6.795797     315.0321  0.026358107  0.026257939            6 
  997000   0.86992394   -6.7828758    315.32794  0.026356398  0.026241648            5 
  998000   0.86529261    -6.762229    316.05916  0.026391045   0.02622527            8 
  999000   0.84365551   -6.7729917    315.65151  0.026330623  0.026208812            7 
 1000000   0.84420834    -6.791478    315.54609  0.026295507  0.026192331            9 
 1001000   0.85178597   -6.7677088    316.26185  0.026328826  0.026175773            5 
 1002000   0.84230568   -6.7760267    316.07679  0.026287158  0.026159222           13 
 1003000   0.86271666   -6.7885624    316.41344   0.02628892  0.026142818            7 
 1004000   0.85823573   -6.7963625    315.21132  0.026162958  0.026126117           12 
 1005000   0.86837375   -6.7733904    316.68999  0.026259535  0.026109624           15 
 1006000   0.86659719   -6.8091471    315.86261  0.026164895  0.026093089            8 
 1007000   0.84398075   -6.7884144    317.03339  0.026235798  0.026076678            6 
 1008000    0.8674281   -6.7907431    315.74051  0.026102886  0.026060301           11 
 1009000   0.84603155   -6.7962627    316.60121  0.026148101   0.02604381            9 
 1010000   0.85881693   -6.8292561    316.47169  0.026111526  0.026027159            8 
 1011000   0.84365484   -6.8008057    315.65211  0.026018143  0.026010495           11 
 1012000   0.83631494   -6.7948266    316.34613  0.026049583  0.025993797           10 
 1013000   0.85232668   -6.7962267    316.79203  0.026060549  0.025977099            4 
 1014000   0.84837882   -6.7862691    317.81817  0.026119179  0.025960645            9 
 1015000   0.84888526   -6.7996557    317.28867  0.026049973  0.025944243            7 
 1016000    0.8565684    -6.759144    317.71012  0.026058901  0.025927786            5 
 1017000   0.84457255   -6.8131454    317.23114   0.02599403  0.025911315            8 
 1018000   0.84742831    -6.781476    317.90585  0.026023727  0.025894869           17 
 1019000   0.84027314   -6.8254958    317.69817  0.025981204  0.025878227           10 
 1020000   0.84514984   -6.7961997    317.51666  0.025940904  0.025861648           18 
 1021000   0.87870601   -6.7955081     318.4355  0.025990492  0.025845203            6 
 1022000   0.84631035    -6.822319    318.78799  0.025993802  0.025828785            5 
 1023000   0.84514272   -6.7944565    319.65003  0.026038614  0.025812331           14 
 1024000   0.83913345   -6.7751061    318.53682  0.025922592  0.025796037           11 
 1025000   0.84171438   -6.7993151    319.39427  0.025967014  0.025779744           13 
 1026000   0.84142683   -6.8083713    318.49234  0.025868448   0.02576325           22 
 1027000   0.85187746   -6.8165865    318.89987  0.025876328  0.025746775            8 
 1028000   0.84551114   -6.8127681    317.87605  0.025768162  0.025730194           12 
 1029000   0.84442891   -6.8356389    318.79606  0.025817627   0.02571367            5 
 1030000   0.83968087    -6.819976    319.23778  0.025828299  0.025697045            7 
 1031000   0.82124717   -6.8279056    318.01136  0.025704119  0.025680408           15 
 1032000   0.85024937   -6.8059961    318.92258  0.025752792  0.025663829            7 
 1033000    0.8504166   -6.8019659     319.3498  0.025762326  0.025647303           11 
 1034000   0.83688504   -6.8125397    320.08035  0.025796289  0.025630688            5 
 1035000   0.83806128   -6.8302474    319.11668  0.025693775  0.025614076           12 
 1036000   0.82875746   -6.8075039    318.85651  0.025648046  0.025597447            6 
 1037000   0.82760145   -6.8317612    319.38706  0.025665948  0.025580741            8 
 1038000    0.8524005   -6.8104486    319.00566  0.025610602   0.02556395           12 
 1039000   0.83341878   -6.8121539     319.0574  0.025590102  0.025547232            9 
 1040000   0.85600218   -6.8256954    318.77897  0.025543186  0.025530548            7 
 1041000   0.83485831   -6.8251858    318.91558  0.025529586  0.025513705            9 
 1042000   0.83869108   -6.8244586    319.96554  0.025589055  0.025497108            6 
 1043000   0.82980392   -6.8292662    319.73593  0.025546175  0.025480449           13 
 1044000   0.83836152   -6.8288074     320.1345   0.02555352  0.025463741            9 
 1045000   0.83265639   -6.8033987    320.73127  0.025576657   0.02544712            5 
 1046000   0.83679554   -6.8057701    319.79331  0.025477478  0.025430497            7 
 1047000   0.83543669   -6.8443133    319.84386  0.025457168  0.025413733            7 
 1048000   0.83143775   -6.8453301      319.763  0.025426447  0.025396871            8 
 1049000   0.84634047   -6.8355214    320.40085   0.02545288  0.025380221            7 
 1050000    0.8382314    -6.835331    321.19876  0.025491965  0.025363514           16 
 1051000   0.82352408    -6.804063    321.54537  0.025495193  0.025346905            5 
 1052000   0.82757275   -6.7980294    322.11027  0.025515706  0.025330484           11 
 1053000   0.83410644   -6.8095817    321.83172  0.025469431  0.025314085           14 
 1054000   0.84618722    -6.836095    321.01911  0.025381018  0.025297579           13 
 1055000   0.82915148   -6.8160053    321.32968  0.025381492  0.025281078           11 
 1056000   0.83464285   -6.8125128    322.13163  0.025420741  0.025264755            6 
 1057000    0.8161031   -6.8172982    322.09166   0.02539354  0.025248408           10 
 1058000    0.8335993   -6.8007635    321.75657  0.025343145   0.02523194           10 
 1059000   0.83593254    -6.833458    322.25146  0.025358157  0.025215505           10 
 1060000   0.80472248   -6.8497375    321.81691  0.025300071  0.025198979            6 
 1061000   0.83880218   -6.8071937    322.31382  0.025315255  0.025182349           13 
 1062000   0.84968751   -6.8253418    322.44206   0.02530148  0.025165924           28 
 1063000   0.83071832   -6.8299319    322.80488  0.025306121  0.025149521            8 
 1064000   0.80647713   -6.8463567     322.7398   0.02527724  0.025133045           12 
 1065000   0.84943411   -6.8096014    322.37876  0.025225255  0.025116591           13 
 1066000   0.82345306   -6.8562974    322.67962  0.025225111  0.025100092            5 
 1067000   0.83495916   -6.8537464    322.66687  0.025200474   0.02508356           10 
 1068000   0.82539765   -6.8202695    323.65934  0.025254318  0.025067224           12 
 1069000   0.83258571   -6.8430836    323.75075   0.02523782  0.025050924            8 
 1070000   0.82137682   -6.8390229     322.9005  0.025148014  0.025034442           14 
 1071000   0.81934635   -6.8366996    323.11277  0.025141049  0.025017877            8 
 1072000    0.8292722   -6.8772525       322.75  0.025089397  0.025001313            5 
 1073000   0.81727981   -6.8538768    322.53116  0.025049018   0.02498463            6 
 1074000    0.8185775   -6.8242925    323.24128  0.025080794  0.024967948           12 
 1075000   0.82155102     -6.85425    323.96396  0.025113485  0.024951324            6 
 1076000   0.84426561   -6.8807054    323.21856  0.025032416  0.024934554           10 
 1077000   0.82012989   -6.8554245    323.29631  0.025015189  0.024917697           28 
 1078000   0.81380753   -6.8401336    323.08738  0.024975834  0.024900974           15 
 1079000    0.8037417   -6.8255136     323.2424  0.024964658  0.024884285           15 
 1080000   0.84310538   -6.8635442    323.35475  0.024950212  0.024867673           11 
 1081000   0.82986137   -6.8442489    323.43832  0.024933574  0.024851189           11 
 1082000   0.82752036   -6.8323227    324.26001  0.024973814  0.024834744           10 
 1083000   0.82124694   -6.8299039    325.10757  0.025015972  0.024818264            5 
 1084000   0.80501978   -6.8918763    324.11282  0.024916422  0.024801828           16 
 1085000   0.79443164   -6.8512211    323.71969  0.024863264  0.024785365           16 
 1086000   0.81975168   -6.8679232    324.39123  0.024891899  0.024768795            6 
 1087000   0.82064188   -6.8630365    324.90012  0.024908013  0.024752213           11 
 1088000   0.83738362   -6.8502833    324.39563  0.024846479   0.02473564           11 
 1089000   0.81073224   -6.8473663    324.58317  0.024838014  0.024719167            6 
 1090000   0.78711912   -6.8746304    324.67873  0.024822533  0.024702592            9 
 1091000   0.81818564   -6.8741833    324.70184  0.024801546  0.024685894           19 
 1092000   0.81454482   -6.8548035    324.39534  0.024755444   0.02466925           25 
 1093000   0.80746699   -6.8619431    323.40615  0.024657377  0.024652498           18 
 1094000   0.80131672   -6.8749578    325.28995  0.024778332  0.024635687           17 
 1095000   0.81698076   -6.8763135    324.92807  0.024728164  0.024618915           18 
 1096000   0.83278183   -6.8709794    325.19463  0.024725869  0.024602128           11 
 1097000   0.82207542   -6.8434937    324.69853  0.024665644  0.024585369           14 
 1098000   0.82169476   -6.8684679    325.25035   0.02468506   0.02456861           13 
 1099000   0.80935339   -6.8258444    325.47057  0.024679297  0.024551885           11 
 1100000   0.81672552   -6.8802641    325.13874  0.024631723  0.024535249           26 
 1101000   0.79768765   -6.8815227    324.35114  0.024549738  0.024518436           23 
 1102000   0.81049405   -6.8243134    325.64372  0.024625206  0.024501681           15 
 1103000   0.81412047   -6.8845457    325.06904  0.024559462  0.024485016           11 
 1104000   0.81133765   -6.8444848    325.26728   0.02455218  0.024468271            4 
 1105000   0.82260934   -6.8462105    325.05207  0.024513731  0.024451537           18 
 1106000   0.81884317    -6.868359    325.24888  0.024506396    0.0244348            9 
 1107000   0.79699799   -6.8679352    325.21241  0.024481513  0.024418016           15 
 1108000   0.79819082    -6.894503     325.2504  0.024462275  0.024401215            9 
 1109000   0.80267166   -6.8818118      325.717  0.024475278   0.02438442            6 
 1110000   0.79281443   -6.8864701    325.60046  0.024444479  0.024367661            8 
 1111000   0.78132618   -6.8641571    326.08754  0.024459011  0.024350924            4 
 1112000   0.81453536   -6.8668121    325.25808  0.024374856  0.024334075            7 
 1113000   0.81526818   -6.8911263    325.38235   0.02436226  0.024317128           12 
 1114000   0.80656584   -6.8864165    325.40709  0.024342242  0.024300153           10 
 1115000   0.80428962   -6.8630663    325.66974  0.024340041  0.024283146            8 
 1116000   0.80745275   -6.8701055    325.98852  0.024342034  0.024266279           11 
 1117000   0.81375817   -6.8859191    326.28288  0.024342202   0.02424946            7 
 1118000   0.80348475   -6.8594774    326.54336  0.024339845  0.024232704           12 
 1119000   0.81845517   -6.8947683    326.78933  0.024336411  0.024216027            6 
 1120000   0.80589989   -6.8623735    326.63601  0.024303275  0.024199437           10 
 1121000   0.81204314   -6.8774861    327.06741  0.024313664  0.024182814           22 
 1122000   0.80509984   -6.8919979    325.66142  0.024187568  0.024166153           12 
 1123000   0.81920108   -6.8959615    326.22301  0.024207704   0.02414944           19 
 1124000   0.80649315   -6.8899618    327.07866  0.024249604  0.024132807           18 
 1125000   0.81917433   -6.8903036    327.10755  0.024230189  0.024116329            8 
 1126000   0.79815972    -6.901412     327.2084  0.024216134   0.02409986           11 
 1127000   0.81020866   -6.8867509    327.78656  0.024237397  0.024083408           10 
 1128000   0.79350895   -6.8644276    327.81346  0.024217898  0.024067136           12 
 1129000   0.79163838   -6.9079236    328.06843  0.024215266  0.024050895           21 
 1130000    0.8002951   -6.8804125    328.55382  0.024229633  0.024034604            7 
 1131000   0.81345127   -6.8726259     328.6952  0.024218627    0.0240183           15 
 1132000   0.79904961   -6.8871424    327.34851  0.024098094  0.024001928           12 
 1133000   0.80720288   -6.9099015    328.37088  0.024152021  0.023985576           31 
 1134000   0.80418813   -6.8784919    327.80648  0.024089247  0.023969189           16 
 1135000   0.80773043   -6.8893252    328.70211  0.024133782  0.023952868           11 
 1136000   0.79042772   -6.8807049     329.5712  0.024176291  0.023936607           14 
 1137000   0.79164681    -6.893704    328.31829  0.024063199  0.023920391           10 
 1138000   0.78436477   -6.9092562    329.41531  0.024122386  0.023904203           16 
 1139000   0.82008581   -6.9117133    328.52528   0.02403609  0.023887981            6 
 1140000   0.80917155   -6.9113535    329.17583   0.02406256  0.023871819            9 
 1141000   0.79937667   -6.9033738    329.87758  0.024092724    0.0238556            9 
 1142000   0.78787007   -6.9015152    329.80119  0.024066053  0.023839323            6 
 1143000   0.82020385    -6.897556    329.66042  0.024034735   0.02382324           14 
 1144000   0.79255681   -6.8762244    329.41957  0.023996181  0.023807199            5 
 1145000   0.79774294   -6.8769526    331.05475  0.024094232  0.023791164            8 
 1146000   0.78041614    -6.910176    330.41463   0.02402666  0.023775127           13 
 1147000   0.80827339   -6.9035516      329.874  0.023966434  0.023759113           10 
 1148000    0.7981931    -6.901994    330.16397  0.023966606  0.023743099            7 
 1149000   0.79155254   -6.8668647    329.87561  0.023924834  0.023727069            6 
 1150000   0.79316452   -6.9095121      330.985   0.02398442  0.023711112           13 
 1151000   0.78910303    -6.915974    330.54135  0.023931462  0.023695177           10 
 1152000    0.7562996   -6.8857237    331.15873  0.023955348  0.023679273           11 
 1153000   0.80803814   -6.9117135      331.205  0.023937915  0.023663397           11 
 1154000   0.79400341   -6.9016017    330.23527  0.023847146  0.023647466           20 
 1155000   0.79946033   -6.9041296    331.41777  0.023911816  0.023631505           45 
 1156000   0.78024725   -6.9119405    331.06898  0.023865988  0.023615647           22 
 1157000    0.8029538   -6.9237412    330.99379  0.023839944    0.0235997           12 
 1158000    0.7944459   -6.8996832    331.36638   0.02384617  0.023583796            9 
 1159000   0.79417956   -6.9289258    331.45387  0.023831886   0.02356788           20 
 1160000   0.78932965   -6.9042856    330.92418  0.023773289  0.023552019           39 
 1161000   0.78414929   -6.9040037    332.15363  0.023841059  0.023536278           52 
 1162000   0.77268021   -6.9110569    331.38267  0.023765252  0.023520535           40 
 1163000   0.79313357   -6.9056364    331.65529  0.023764352  0.023504733           13 
 1164000   0.80558236   -6.8741247    331.67248  0.023745166  0.023488997           24 
 1165000   0.78959948   -6.9410844    331.74789  0.023730178   0.02347327           10 
 1166000   0.78355278   -6.9309651    332.10492  0.023735343    0.0234574           10 
 1167000   0.79445912   -6.8593322    331.91122  0.023701173   0.02344162            5 
 1168000   0.78427223    -6.915787    332.17565  0.023699747  0.023425858            7 
 1169000   0.78775873    -6.915874    331.51209  0.023632171  0.023410096            8 
 1170000   0.78398164    -6.912822    332.71357  0.023697547  0.023394409           14 
 1171000   0.76731152   -6.9270611    331.95407  0.023623262  0.023378617           20 
 1172000   0.78819163   -6.9072449    331.79022  0.023591455  0.023362743            8 
 1173000   0.79901531   -6.9329631    332.29313  0.023607071  0.023346955           16 
 1174000   0.78702248   -6.9423313    332.64521  0.023611954  0.023331245            9 
 1175000   0.78001864   -6.9285992    332.11722  0.023554413  0.023315503           11 
 1176000   0.76387062   -6.9174369    332.30063   0.02354738  0.023299786            6 
 1177000   0.77880913   -6.8988307    332.60391  0.023548847  0.023284039            7 
 1178000   0.77526708   -6.9110188    332.84762  0.023546097  0.023268314            6 
 1179000    0.7908233   -6.9326068    332.82161  0.023524287  0.023252521            8 
 1180000   0.76085649   -6.9005572    332.55084  0.023485229  0.023236721            6 
 1181000   0.78545775   -6.9163922    332.52037  0.023463193  0.023220883           14 
 1182000    0.7642098    -6.897005    332.41242  0.023435732  0.023205051           10 
 1183000   0.78263711   -6.9318164    332.21235  0.023401828  0.023189273           14 
 1184000   0.81013181   -6.9388988    332.84269  0.023426428  0.023173381           13 
 1185000   0.76689054   -6.9249133    332.55891  0.023386702   0.02315749            7 
 1186000   0.80643685   -6.9451442     331.6962  0.023306366   0.02314161           10 
 1187000   0.79642322   -6.9417854    332.60986  0.023350874  0.023125769            6 
 1188000   0.76805266   -6.9479353    333.18264  0.023371397  0.023109849            7 
 1189000   0.77085343   -6.9160412    333.25132  0.023356554   0.02309393           13 
 1190000   0.77566614   -6.9553425    333.28402  0.023339217   0.02307803           10 
 1191000   0.78066308   -6.9358712    333.22461  0.023315464  0.023062147            9 
 1192000   0.80426259   -6.9562705    333.15051  0.023290724  0.023046295           12 
 1193000   0.77236666   -6.9544543    333.32019  0.023283053    0.0230305            9 
 1194000   0.77116063   -6.9234596    333.58217  0.023281837  0.023014731            9 
 1195000   0.78318352   -6.9559086    333.20315  0.023235924  0.022999065           11 
 1196000   0.77598025   -6.9647253    332.75782  0.023185467  0.022983299           12 
 1197000    0.7817188   -6.9976527    333.29832  0.023203726  0.022967439           14 
 1198000   0.80172474   -6.9701099    334.65228  0.023278539  0.022951666            7 
 1199000   0.76686881   -6.9537173    333.81677  0.023201054  0.022935913           16 
 1200000   0.75493792   -6.9218895    334.91324  0.023257864  0.022920278           13 
 1201000   0.76538741   -6.9450996    334.21413  0.023189989  0.022904712            7 
 1202000   0.77522687   -6.9684512    333.88775  0.023148069  0.022889089           10 
 1203000   0.76629971   -6.9345969    334.08845   0.02314273  0.022873381           18 
 1204000   0.76525371    -6.959032    333.21725   0.02306321  0.022857595           10 
 1205000   0.77800463   -6.9689169    334.65777  0.023143691  0.022841879           12 
 1206000   0.77474696   -6.9475937    335.64931  0.023193015  0.022826311           32 
 1207000   0.78081111   -6.9457647     335.4804  0.023162138    0.0228108           24 
 1208000   0.77287725   -6.9795322    334.69887   0.02308905  0.022795238           15 
 1209000     0.761182   -6.9677307    333.83041  0.023010092  0.022779629           12 
 1210000   0.74842048   -6.9777258    333.96773  0.023000532   0.02276396           26 
 1211000   0.75910243   -6.9527598     335.7756  0.023105945  0.022748316           23 
 1212000   0.77373217   -6.9413005    335.23962  0.023050029  0.022732726           16 
 1213000   0.78134055    -6.932556    334.82989  0.023002878  0.022717156           19 
 1214000   0.79239046     -6.94205    334.91969  0.022990094  0.022701513            8 
 1215000   0.76630084   -6.9450231    334.77276  0.022961095  0.022685748            5 
 1216000   0.76608893   -6.9192782    334.24412  0.022905984  0.022669988            8 
 1217000    0.7651953   -6.9638241     334.2307  0.022886244  0.022654205           17 
 1218000    0.7492617   -6.9584019    334.58703  0.022891833  0.022638451           14 
 1219000   0.76423969   -6.9640903    334.74114  0.022883589  0.022622674           13 
 1220000   0.76100132   -6.9659089    334.71781  0.022863238  0.022606848            4 
 1221000   0.77047345   -6.9827173    334.47778  0.022828131  0.022591003            6 
 1222000    0.7639459   -6.9636482    334.62358  0.022819393  0.022575272            7 
 1223000   0.75920451    -6.978608    335.06488  0.022830804  0.022559423           19 
 1224000   0.76112095   -6.9420812    334.89418   0.02280053  0.022543503           11 
 1225000   0.74719718   -6.9672138    334.96642  0.022786831  0.022527755           18 
 1226000   0.75501245   -6.9565165    335.09923  0.022777273  0.022512014           11 
 1227000   0.77170122   -6.9671971    334.66002   0.02272888  0.022496262            9 
 1228000   0.75515855    -6.983489    335.35105  0.022757264   0.02248054           12 
 1229000   0.76328236   -6.9654482    335.04914  0.022718277  0.022464832           19 
 1230000   0.77260236   -6.9923155    335.30713  0.022717286  0.022449131           59 
 1231000   0.77987951    -6.965812     334.7534  0.022661346  0.022433423           42 
 1232000   0.76179238   -6.9887266    335.39719  0.022686498  0.022417711           44 
 1233000   0.76247851   -6.9785153    335.82107  0.022696747  0.022401962           53 
 1234000   0.75091989    -6.980872    335.60369  0.022663674   0.02238622           53 
 1235000    0.7623182   -6.9857943    336.27021  0.022690297  0.022370545           61 
 1236000   0.75510208   -6.9555321    336.06094   0.02265783  0.022354914           87 
 1237000   0.76544621    -6.981238    336.93833  0.022698621  0.022339303           52 
 1238000   0.76169518   -6.9810154    336.13172  0.022625991  0.022323802           31 
 1239000   0.77896587   -6.9998287    335.89945  0.022592107  0.022308168           45 
 1240000   0.77023804   -6.9717724    335.82034  0.022568571  0.022292543           57 
 1241000   0.76400601   -6.9715804    336.16797  0.022573729  0.022276873           21 
 1242000   0.74848358    -6.960297    336.15544  0.022554713  0.022261231           15 
 1243000   0.76198247   -6.9791454    336.57868  0.022564942   0.02224572           44 
 1244000   0.73937951   -6.9705837    336.46911  0.022539464  0.022230143           40 
 1245000   0.77334528   -6.9675511    336.21104  0.022504086  0.022214535            9 
 1246000   0.75118449   -6.9879714    335.55964  0.022442459  0.022198912           16 
 1247000   0.76350427   -7.0002107    335.97574  0.022452268  0.022183276           16 
 1248000   0.76094539   -7.0149239    335.87411  0.022427491  0.022167622           13 
 1249000    0.7555489   -7.0000195    336.75751  0.022468476   0.02215206           13 
 1250000   0.75969099   -6.9877629    337.09591   0.02247306  0.022136527           27 
 1251000   0.76520828   -6.9701564    336.20677  0.022395868  0.022120984           25 
 1252000   0.74968982   -6.9928445    336.79589  0.022417192  0.022105463           12 
 1253000   0.76467997   -6.9717574      337.179  0.022424781   0.02209001           12 
 1254000   0.75620982   -7.0019741    336.11378   0.02233611   0.02207448            6 
 1255000   0.75953698   -6.9741293    336.47231  0.022342119  0.022058975           11 
 1256000   0.75332657   -6.9652251    336.80948  0.022346701  0.022043521           19 
 1257000   0.74789427   -6.9903882    336.95616  0.022338647  0.022027962           21 
 1258000    0.7585504   -6.9836359    336.41106  0.022284781  0.022012367           13 
 1259000   0.76451409   -6.9855382     336.6856  0.022285253  0.021996842            6 
 1260000   0.76256801   -6.9714008    337.34231  0.022310999   0.02198134           10 
 1261000   0.76138965   -6.9949901    337.76697   0.02232137  0.021965986           12 
 1262000   0.76746448   -6.9673519    337.48149  0.022284832  0.021950589           23 
 1263000   0.73843569    -6.961478    337.62611  0.022276729   0.02193523           26 
 1264000   0.76544269   -6.9900807    337.58897  0.022256657  0.021919825           10 
 1265000   0.74494471   -7.0013655    337.23771  0.022215923  0.021904435            7 
 1266000   0.74082206   -7.0059985    338.58873  0.022287304  0.021889001            9 
 1267000    0.7553376   -6.9848149    337.68831  0.022210491   0.02187364           11 
 1268000   0.75164752   -7.0016639    337.21336  0.022161761  0.021858236            9 
 1269000   0.73933107   -6.9968721    337.22087   0.02214479  0.021842829           28 
 1270000   0.75258847   -7.0154771    337.65124  0.022155593  0.021827443           28 
 1271000   0.73135254    -6.977489     337.6971  0.022141169  0.021812147           18 
 1272000   0.75374126   -6.9972666    337.83372  0.022132713  0.021796899           14 
 1273000   0.74670585   -7.0186031    338.12543  0.022134422   0.02178159           23 
 1274000   0.73855764   -6.9954676    337.60502  0.022083008  0.021766324           15 
 1275000   0.73877072   -7.0328617    338.41702  0.022118759  0.021751004           47 
 1276000   0.73253901   -7.0415091    338.51468  0.022107803  0.021735724            7 
 1277000   0.74598262   -7.0295085     338.4138  0.022083908  0.021720523            9 
 1278000   0.74129964   -7.0041767    337.60206  0.022013697  0.021705306           14 
 1279000   0.74501255   -7.0185645    338.82411  0.022076108  0.021690003           10 
 1280000   0.74250535   -7.0192577    337.45288  0.021969588  0.021674601           12 
 1281000    0.7528574   -7.0270448    338.46497  0.022018278  0.021659267           10 
 1282000   0.73558834   -7.0186361    338.58276   0.02200876  0.021643937           17 
 1283000   0.73558784   -7.0304672    338.17915   0.02196539  0.021628748           21 
 1284000   0.72766331   -6.9848578    339.59274  0.022040027  0.021613622           21 
 1285000   0.73362888   -6.9907336    338.74023  0.021967589  0.021598542           10 
 1286000   0.73455925   -7.0258676    339.56534  0.022003975  0.021583323            7 
 1287000   0.73280468   -7.0251877    339.25394  0.021966715  0.021568217           18 
 1288000   0.74678155   -7.0190786    338.98987  0.021932574  0.021553075           19 
 1289000   0.73994594   -7.0335829    338.68711  0.021895986  0.021537922           13 
 1290000   0.72840087   -6.9883054    340.09494  0.021969957  0.021522827            9 
 1291000   0.74990869   -7.0089587    338.94252  0.021878551  0.021507819           18 
 1292000   0.74506057   -7.0318395    339.10109  0.021871845   0.02149275           26 
 1293000   0.72347502   -7.0289497    339.17961   0.02185999  0.021477567           20 
 1294000   0.72478961   -7.0461787    338.74564  0.021815149  0.021462437           20 
 1295000   0.72621909   -7.0598381    339.30131  0.021834061  0.021447245           10 
 1296000   0.72733046   -7.0245402    339.72059  0.021844174   0.02143203           11 
 1297000   0.72438465   -7.0281932    339.19396  0.021793495  0.021416893           12 
 1298000   0.72094578   -7.0273747    338.77986   0.02175012  0.021401727           21 
 1299000   0.73786579   -7.0513132    338.80252  0.021734829  0.021386543           30 
 1300000   0.71950737   -7.0349325    339.26176  0.021747549   0.02137133           14 
 1301000   0.72881654   -7.0337299    339.25121  0.021730157  0.021356107           18 
 1302000   0.72719495    -7.047667    339.31833  0.021717763  0.021340924           34 
 1303000   0.72861687   -7.0493599      339.521  0.021714057  0.021325733           18 
 1304000   0.73508083   -7.0438032    339.26203  0.021680856   0.02131048           23 
 1305000   0.72407241    -7.031393    339.15043  0.021657115  0.021295257           13 
 1306000   0.74743159   -7.0563912     339.1165  0.021638368  0.021280087           31 
 1307000   0.74258597     -7.01714    339.28349  0.021632459  0.021264953           50 
 1308000   0.71930184   -7.0298152    339.46472  0.021627467  0.021249793           33 
 1309000   0.72513271   -7.0381212    338.91442  0.021575912  0.021234635           20 
 1310000   0.73899993   -7.0079586    339.73105   0.02161139  0.021219503           11 
 1311000   0.74389445   -7.0359279    338.93976  0.021544607  0.021204398           21 
 1312000   0.72567917   -7.0396682    339.26092  0.021548585  0.021189231           27 
 1313000   0.72347832   -7.0434356    339.18763  0.021527522  0.021174047           30 
 1314000   0.74044248   -7.0383157    339.38199  0.021523465  0.021158883           16 
 1315000   0.73810659   -7.0530782    338.52094  0.021452531  0.021143663           49 
 1316000   0.71632102   -7.0344933    339.06408  0.021470623  0.021128471           19 
 1317000   0.71480735   -7.0574158    339.21881  0.021464111  0.021113284           41 
 1318000   0.72122272   -7.0443152    339.99724  0.021497043  0.021098077           15 
 1319000   0.72654191   -7.0280404     339.1417  0.021426693  0.021082921           27 
 1320000   0.73015712   -7.0402145    338.90458  0.021395491  0.021067696           30 
 1321000   0.72066299   -7.0560142    338.97431  0.021383694  0.021052461           29 
 1322000   0.71825821   -7.0620454    339.60895  0.021407523  0.021037201           22 
 1323000   0.72496344    -7.089543    338.37444  0.021313583  0.021021927           20 
 1324000   0.72875898    -7.039692    339.35213  0.021359021  0.021006704           35 
 1325000   0.73257351   -7.0409596    340.03437  0.021385809  0.020991613           64 
 1326000   0.72792283    -7.052369    340.70387  0.021411756  0.020976572           67 
 1327000   0.72320953    -7.048456    341.35444  0.021436476  0.020961544           50 
 1328000   0.71466539   -7.0469689    339.68941  0.021315851  0.020946553           63 
 1329000   0.72493008   -7.0341887    340.52036  0.021351916   0.02093152           59 
 1330000   0.69675834    -7.063175     339.8671  0.021294931  0.020916471           27 
 1331000   0.72981499   -7.0593618    340.06271  0.021291179  0.020901422           12 
 1332000   0.70879356   -7.0510576    340.44786  0.021299291  0.020886383           29 
 1333000   0.73682183   -7.0544357    340.58965  0.021292176  0.020871355           20 
 1334000   0.71320722    -7.054378    340.41504  0.021265308  0.020856405           16 
 1335000   0.69906493   -7.0455782    341.25264  0.021301663  0.020841406           34 
 1336000   0.73361805   -7.0279932    340.45891  0.021236209  0.020826454           42 
 1337000   0.71352758   -7.0621044      340.519  0.021224071  0.020811555           45 
 1338000   0.72607426   -7.0752446     340.7784  0.021224365  0.020796632           14 
 1339000   0.71315479   -7.0478201    341.06117  0.021226112  0.020781677           22 
 1340000   0.73064794   -7.0800003    341.13163  0.021214653  0.020766744           20 
 1341000   0.71217854   -7.0768769    340.86771  0.021182433  0.020751861           32 
 1342000   0.72132747   -7.0777676    340.43943  0.021140054   0.02073698           23 
 1343000   0.69035961   -7.0475709    341.03352  0.021161177  0.020722103           10 
 1344000   0.72717238   -7.0597261    340.71417  0.021125631   0.02070721           11 
 1345000   0.71026006   -7.0755593     341.0291  0.021129436  0.020692343           17 
 1346000    0.7180177   -7.0872091    342.05605  0.021177319  0.020677516            9 
 1347000    0.7025739   -7.0583821    341.39491  0.021120695    0.0206627           13 
 1348000   0.72868034   -7.0774336    341.27228  0.021097446  0.020647871           15 
 1349000   0.71752716   -7.0971109    341.53257  0.021097886  0.020633081           13 
 1350000   0.71588087   -7.0867604    340.57201  0.021022964  0.020618278           45 
 1351000   0.72471002   -7.0693613    341.61884  0.021071974   0.02060351           52 
 1352000   0.71657322   -7.0904607    342.00276  0.021080052  0.020588808           21 
 1353000   0.72819968   -7.0873619    341.95428  0.021061486  0.020574072           23 
 1354000   0.71927542   -7.0720604    342.25663  0.021064539  0.020559384           22 
 1355000   0.71209634   -7.0659168    341.43017  0.020998165  0.020544733           19 
 1356000   0.71141614   -7.0799775    341.36186  0.020978482  0.020530025           18 
 1357000   0.70077944   -7.0901524    341.00186  0.020940915  0.020515329           27 
 1358000   0.70753946   -7.0781889    342.16399  0.020996808  0.020500621           15 
 1359000   0.70141316   -7.0809923     341.6786  0.020951594  0.020485948           12 
 1360000   0.70734768    -7.080489    341.55178  0.020928418  0.020471321           27 
 1361000   0.70047068   -7.1019448    341.13935  0.020887788   0.02045666           19 
 1362000   0.69314936   -7.0779277    341.61005  0.020901251  0.020442039           24 
 1363000   0.71823104   -7.0762662    341.51921  0.020880363  0.020427422           14 
 1364000   0.71007335    -7.136419    341.25686  0.020849026  0.020412782           17 
 1365000   0.72442673   -7.1171066    341.40956  0.020843075  0.020398082           27 
 1366000   0.71476811   -7.0836466    341.96583  0.020861751  0.020383371           34 
 1367000   0.70330186   -7.0832882    342.17988  0.020859539  0.020368719           27 
 1368000   0.70865282   -7.0920909     342.1361  0.020841624  0.020354174           28 
 1369000   0.71295077   -7.0969324    342.07297  0.020822557   0.02033963           35 
 1370000   0.70640197   -7.0709464    342.73843  0.020847836  0.020325113           18 
 1371000    0.7113693   -7.0857459    342.60421  0.020824472  0.020310576           22 
 1372000   0.71261343   -7.0722207     342.5325  0.020804938  0.020296002           12 
 1373000   0.71308536   -7.0777544    342.73737   0.02080222   0.02028141            5 
 1374000   0.71755496   -7.0887493    342.41998   0.02076783  0.020266889           22 
 1375000   0.70228054   -7.0868753    343.02372  0.020789316  0.020252367           17 
 1376000   0.69502248   -7.0851422     342.3462  0.020733176   0.02023784           14 
 1377000   0.70876061   -7.0991068    342.96216  0.020755396  0.020223322           31 
 1378000   0.69517866   -7.1029513    342.78256  0.020729473  0.020208779           74 
 1379000   0.70858346    -7.088584    342.67529  0.020707958  0.020194246           20 
 1380000   0.68835469   -7.0970944     341.4101  0.020616552  0.020179716           33 
 1381000   0.69831883   -7.1006016    342.58795  0.020672698  0.020165202           85 
 1382000   0.70712507   -7.0940266    342.83851  0.020672848  0.020150682          137 
 1383000   0.69771561   -7.0765305     342.9545  0.020664889  0.020136231          103 
 1384000   0.70121244   -7.1170813    342.71922  0.020635791   0.02012179          175 
 1385000   0.70935625   -7.1196304    342.87655  0.020630358   0.02010732          153 
 1386000    0.6966693   -7.1073952    341.92672  0.020558364  0.020092864          124 
 1387000   0.70090806   -7.1430632    343.34735  0.020628897  0.020078404           92 
 1388000    0.6853718   -7.1290675    342.21662  0.020546147  0.020063887          177 
 1389000   0.69294224   -7.0970221    342.80785  0.020566825  0.020049409           66 
 1390000   0.69071964   -7.1057967    343.15266  0.020572702  0.020034933           27 
 1391000   0.69529874    -7.110895    342.38602  0.020511983   0.02002051           50 
 1392000    0.6942856   -7.1184326     342.9334  0.020530017  0.020006119           72 
 1393000   0.70093506   -7.1144934    342.77545   0.02050583  0.019991715          116 
 1394000   0.70384085   -7.1167782    342.86862   0.02049669  0.019977247          127 
 1395000   0.70513917   -7.1233708    342.96991  0.020488047   0.01996282          112 
 1396000   0.70013434   -7.1449792    343.51741  0.020506054  0.019948367           80 
 1397000   0.68065883   -7.1235759    343.02487  0.020461994  0.019933931           70 
 1398000   0.69787493   -7.1347964     342.6067  0.020422431  0.019919482           92 
 1399000   0.70383217   -7.1289666    342.51256  0.020402225  0.019905078           79 
 1400000   0.70779545   -7.1239371    342.62019  0.020394059  0.019890675           17 
 1401000   0.69435237   -7.1246566    342.93701  0.020398347  0.019876346           26 
 1402000    0.7056381   -7.1276926    342.89016  0.020381013  0.019861978           31 
 1403000   0.69070182   -7.1068624    342.99223  0.020372549  0.019847633           22 
 1404000   0.68463413   -7.1375556    342.46833  0.020326943  0.019833251           42 
 1405000   0.68059976   -7.1371846    344.26272  0.020418904  0.019818903           38 
 1406000   0.69548989   -7.1282901    344.29055   0.02040603  0.019804589           40 
 1407000   0.69247103   -7.1104569    342.67448  0.020295811  0.019790302           61 
 1408000    0.7042137   -7.1176925    343.62014  0.020337366  0.019776089           61 
 1409000    0.7070468   -7.1220517    343.39767  0.020309775  0.019761827           46 
 1410000   0.69715128   -7.1082151    343.18392  0.020282737   0.01974761           89 
 1411000   0.68975197   -7.1436067    343.50492  0.020287321  0.019733423           29 
 1412000   0.69774438   -7.1117046    344.32263  0.020321213  0.019719247           32 
 1413000      0.68809   -7.1454435    343.38418  0.020251485   0.01970504           45 
 1414000   0.67380781   -7.1283779    343.92205  0.020268862  0.019690825           24 
 1415000   0.69041762   -7.1202303    343.57824   0.02023429  0.019676578           54 
 1416000   0.69935205   -7.1352289    343.67924  0.020225944  0.019662382           23 
 1417000   0.67355943   -7.1140147    344.03254  0.020232448  0.019648179           27 
 1418000   0.68912538   -7.1196079    343.65321  0.020195887  0.019633992           26 
 1419000   0.69616963   -7.1315646    343.07476  0.020147684  0.019619807           13 
 1420000   0.68043928   -7.1436258    343.29711  0.020146544  0.019605565           23 
 1421000   0.68994855   -7.1222502    344.31573  0.020192102  0.019591353           22 
 1422000   0.68993484   -7.1184854    343.54982  0.020133018  0.019577213           25 
 1423000   0.67953463   -7.1493662    344.23491   0.02015899  0.019563057           21 
 1424000   0.67823503   -7.1423054     343.5937  0.020107309  0.019548916           35 
 1425000   0.67715644   -7.1466517    343.51829  0.020088789  0.019534825           18 
 1426000   0.68634898    -7.132645    344.12833  0.020110351  0.019520678           16 
 1427000   0.69018461   -7.1467007    344.05894  0.020092206  0.019506555           26 
 1428000   0.68420725   -7.1202942    344.49914  0.020103825  0.019492441           22 
 1429000   0.70025769    -7.147138    344.30616  0.020078502  0.019478329           16 
 1430000   0.67983059   -7.1571041    344.20717  0.020058693  0.019464207           25 
 1431000   0.66832297   -7.1318014    343.46884  0.020001679  0.019450117           27 
 1432000   0.69330746   -7.1263902      344.234  0.020032239  0.019436052           13 
 1433000   0.67671393   -7.1260242    343.64163  0.019983812  0.019422009           56 
 1434000   0.68255491   -7.1359011    343.75352  0.019976378  0.019407955           32 
 1435000   0.68822063   -7.1507816    344.86183  0.020026819  0.019393891           33 
 1436000   0.68170597   -7.1248672    344.46357  0.019989761  0.019379866           40 
 1437000    0.6826234    -7.144066    345.11941  0.020013884  0.019365872           18 
 1438000   0.66943931   -7.1492052    344.55707  0.019967378  0.019351827           24 
 1439000   0.68881622    -7.125262    344.47411  0.019948698  0.019337806           28 
 1440000   0.68106597   -7.1499127    344.83588   0.01995578  0.019323831           55 
 1441000   0.68720659   -7.1659256     344.2547  0.019908322  0.019309861           26 
 1442000   0.67177534   -7.1522878    344.04725  0.019882527  0.019295854           22 
 1443000   0.65775253   -7.1365933    344.49412  0.019894555  0.019281851           26 
 1444000   0.67262336     -7.15779    344.31431  0.019870401  0.019267846           29 
 1445000   0.67006889   -7.1583708    344.50657  0.019867738  0.019253811           29 
 1446000   0.67463183   -7.1341931    344.73263  0.019867026  0.019239884           66 
 1447000   0.65693834   -7.1274661    344.22128  0.019823847  0.019225952           33 
 1448000   0.69701339   -7.1452347    344.55078  0.019829119  0.019212056           95 
 1449000   0.68212656   -7.1692849    344.65978  0.019821703   0.01919812           78 
 1450000   0.67289178   -7.1517312    344.53756  0.019801009    0.0191842           34 
 1451000   0.68478855   -7.1713604    344.28725  0.019772987  0.019170308           52 
 1452000   0.66938097   -7.1529611     344.7695  0.019787047  0.019156436           93 
 1453000   0.67773534   -7.1727193    344.84438  0.019777723  0.019142509           39 
 1454000   0.65927872    -7.162946    344.69766  0.019755712  0.019128622           58 
 1455000    0.6734629   -7.1888694    344.52859  0.019732451  0.019114733           83 
 1456000   0.66061853   -7.1531363    345.15433  0.019754712  0.019100862           98 
 1457000   0.66710471   -7.1734235    345.38934  0.019754595  0.019087024           50 
 1458000   0.66660321   -7.1588729    344.62985  0.019697637  0.019073151           54 
 1459000   0.67319405   -7.1733834    345.18552  0.019715874  0.019059276           67 
 1460000   0.66157816   -7.1787426    344.53038  0.019664976  0.019045429           48 
 1461000   0.65725705   -7.1692203     344.9782  0.019677059  0.019031596           24 
 1462000   0.67438739   -7.1734768    345.46599  0.019691404  0.019017816           44 
 1463000   0.66615085   -7.1953878    345.16865  0.019661008  0.019004002           86 
 1464000   0.66715805   -7.1950312      344.591  0.019614697  0.018990163           71 
 1465000   0.68739575   -7.1878623    344.29582  0.019584518  0.018976303           85 
 1466000   0.67172924   -7.1735219    344.58609  0.019587659  0.018962452           90 
 1467000   0.66715284   -7.1714834    344.68216  0.019579764  0.018948689           73 
 1468000   0.66487223   -7.1880983    345.09799  0.019590031  0.018934894           75 
 1469000    0.6768512   -7.1687964    345.06165  0.019574634  0.018921111           84 
 1470000   0.67248156   -7.1934765    344.31641  0.019519071  0.018907315           88 
 1471000   0.66212128   -7.1762756    345.11967  0.019551307  0.018893565           62 
 1472000    0.6627826   -7.1677994    344.90517  0.019525882  0.018879793           88 
 1473000   0.65723712   -7.1868267    344.61572   0.01949625  0.018866013           89 
 1474000   0.67916271   -7.1975489    345.20445  0.019516308  0.018852232          120 
 1475000    0.6752906   -7.1923092    345.43658  0.019516191  0.018838445          131 
 1476000   0.65253303   -7.2105632    344.75168    0.0194643  0.018824665           84 
 1477000   0.67600079   -7.2017785    344.62122  0.019443761  0.018810871           76 
 1478000   0.67252841    -7.197756    344.61045  0.019429998  0.018797104           98 
 1479000   0.67297936   -7.1714669    344.94766  0.019435861  0.018783358          172 
 1480000   0.65171656   -7.1941507    345.26398  0.019440539  0.018769635          172 
 1481000   0.64966428    -7.185948     345.2862  0.019428663  0.018755934          146 
 1482000   0.65876862   -7.1900176    344.65304  0.019379951  0.018742247          110 
 1483000   0.66951029   -7.2171407     346.2724  0.019457878  0.018728548          144 
 1484000   0.64723744   -7.2100093    345.15151  0.019381823  0.018714847          274 
 1485000   0.65951048   -7.2035349    344.70559  0.019343748  0.018701143          198 
 1486000   0.68086849   -7.1940916    345.30799  0.019364512  0.018687407          232 
 1487000   0.67502097   -7.2036417    345.13613  0.019341859  0.018673671          333 
 1488000   0.66033008   -7.1809638    344.66625  0.019302545  0.018659929          266 
 1489000   0.64856497   -7.2377232    344.72395  0.019292811  0.018646176          162 
 1490000   0.65610984   -7.2174286    344.77373  0.019282647  0.018632429          170 
 1491000   0.65572341   -7.2061928    344.90839   0.01927724  0.018618702          178 
 1492000   0.65143946   -7.2264657    344.62805  0.019248662  0.018604979          242 
 1493000   0.65132991   -7.2523131    344.67846  0.019238583  0.018591221          277 
 1494000   0.65473367   -7.2023863    344.84549  0.019235023  0.018577542          248 
 1495000   0.66701402   -7.2438889    345.55823  0.019261886  0.018563843          372 
 1496000   0.65528695   -7.2223869    344.28687   0.01917819  0.018550185          273 
 1497000   0.66856952   -7.2580201    344.38915  0.019171073  0.018536482          392 
 1498000     0.643648   -7.2271965    344.44757  0.019161525  0.018522803          434 
 1499000   0.66167323   -7.2087241    344.46032  0.019149451  0.018509132          362 
 1500000   0.64958608   -7.2217718    345.41607  0.019189781  0.018495457          379 
 1501000   0.66964263    -7.226506    345.48103  0.019180603  0.018481767          309 
 1502000   0.64953178   -7.1996756    344.81374  0.019130811  0.018468117          356 
 1503000   0.64224853    -7.245268    344.83036  0.019119004  0.018454503          361 
 1504000   0.65797082    -7.222132    345.26732  0.019130503  0.018440885          328 
 1505000   0.66195495   -7.2251936    345.04892  0.019105699   0.01842733          316 
 1506000   0.65595835   -7.2189878    345.03574  0.019092283  0.018413782          212 
 1507000   0.63622772   -7.2070024    345.59134  0.019110337  0.018400257          280 
 1508000    0.6470999   -7.2214178    345.27516  0.019080192  0.018386757          320 
 1509000   0.64937745   -7.2077871    344.99734  0.019052206  0.018373243          245 
 1510000   0.65158825   -7.2247994    344.83045  0.019030378   0.01835972          370 
 1511000   0.64156955   -7.2092115    345.72731  0.019067246  0.018346219          389 
 1512000   0.64931567   -7.2445423    344.90404  0.019009261  0.018332711          370 
 1513000   0.64676493   -7.2023434    345.03014  0.019003643  0.018319191          444 
 1514000   0.65069322   -7.2428116    345.43746   0.01901351  0.018305704          411 
 1515000   0.64310288   -7.2460687    345.00555  0.018977203  0.018292206          461 
 1516000   0.65479591   -7.2624809    345.16162  0.018973264  0.018278646          466 
 1517000    0.6552946   -7.2351766    344.74729  0.018937997  0.018265071          512 
 1518000   0.64886837   -7.2541454    344.89847   0.01893382  0.018251523          466 
 1519000   0.65320274   -7.2435994    344.53116  0.018901205   0.01823799          484 
 1520000   0.64303951   -7.2279145    344.72925   0.01889963  0.018224424          429 
 1521000   0.64231389   -7.2743871    345.27518  0.018917115  0.018210886          493 
 1522000   0.65237684   -7.2536661    345.07488  0.018893719  0.018197326          514 
 1523000   0.64111808   -7.2561373    345.14343  0.018885064  0.018183782          496 
 1524000   0.65335616   -7.2213234    345.24054  0.018877982  0.018170301          455 
 1525000   0.64485015   -7.2338248    344.85581   0.01884458   0.01815681          502 
 1526000   0.62451102   -7.2442275    344.91976  0.018835723  0.018143306          489 
 1527000    0.6379062    -7.258726    344.96332  0.018825765  0.018129793          524 
 1528000   0.65282049   -7.2408035    345.30172    0.0188319  0.018116326          454 
 1529000   0.63289558   -7.2371644    345.05479  0.018806125  0.018102828          521 
 1530000   0.65021845   -7.2730042    344.90102  0.018785459  0.018089335          455 
 1531000   0.63469727    -7.276332    344.82562  0.018769084  0.018075856          540 
 1532000   0.63925114   -7.2713443    345.09637   0.01877156  0.018062359          562 
 1533000    0.6397448   -7.2337591    345.18994  0.018764402  0.018048922          523 
 1534000   0.64952957   -7.2555125     345.2413   0.01875496  0.018035506          554 
 1535000   0.64740807   -7.2455831     344.8336  0.018720608  0.018022065          570 
 1536000   0.64830637    -7.258321    345.02217  0.018718651  0.018008605          522 
 1537000   0.63242306   -7.2591762    345.54315  0.018734719    0.0179952          492 
 1538000   0.63532344   -7.2500152    344.81615  0.018683146  0.017981796          528 
 1539000   0.62521112   -7.2593485    345.19199  0.018691357   0.01796837          518 
 1540000   0.65456875    -7.266834    345.12267  0.018675469  0.017954958          631 
 1541000    0.6421125    -7.248462    345.22832  0.018669063  0.017941544          547 
 1542000   0.63650571   -7.2693499    344.57637  0.018621723  0.017928118          558 
 1543000   0.64524267   -7.2859635    344.01385  0.018579275    0.0179147          525 
 1544000   0.63955617   -7.2520084    344.68867  0.018603663  0.017901238          572 
 1545000    0.6340508   -7.2639555    344.77469  0.018596262  0.017887767          583 
 1546000    0.6312549   -7.2731142     344.6657  0.018578358  0.017874291          611 
 1547000   0.62778254   -7.2666239    345.00744  0.018584758   0.01786083          576 
 1548000   0.64036348   -7.2676745    344.68444  0.018555364  0.017847384          652 
 1549000   0.63673512   -7.2545449    344.85039  0.018552313  0.017833946          601 
 1550000   0.64735381   -7.2807385    344.80977   0.01853816  0.017820508          640 
 1551000   0.64120201   -7.2734392    344.27089  0.018497254  0.017807085          673 
 1552000   0.62769293   -7.2651639    344.98571  0.018523717  0.017793675          715 
 1553000   0.64370392   -7.2910485    344.40341  0.018480543  0.017780248          659 
 1554000   0.63467755   -7.2661361    344.67364  0.018483142  0.017766833          732 
 1555000   0.63537129   -7.2783763    344.09899   0.01844046  0.017753432          708 
 1556000   0.63329982    -7.292336    344.49305  0.018449713  0.017740029          722 
 1557000   0.62259966   -7.2997689    344.58763  0.018442926  0.017726632          670 
 1558000   0.63317365   -7.2841905    343.97487  0.018398313  0.017713248          706 
 1559000   0.63294471   -7.3007579     344.3439  0.018406238  0.017699859          700 
 1560000   0.62413986   -7.3079602    344.25994  0.018389954  0.017686476          690 
 1561000   0.63515754   -7.2932765     345.4571  0.018442083  0.017673091          721 
 1562000   0.62832187   -7.3127023    344.16675  0.018361435  0.017659711          720 
 1563000   0.62750133   -7.2937793    344.73078   0.01837976   0.01764636          714 
 1564000   0.62146823   -7.3040484    344.69065   0.01836587  0.017633026          686 
 1565000   0.61660927   -7.3021095    344.30469  0.018333583  0.017619684          815 
 1566000   0.62999607   -7.3064208    344.20473  0.018316556  0.017606354          768 
 1567000   0.62776434   -7.3091547    344.12185   0.01830046  0.017592986          790 
 1568000    0.6316769   -7.3207752    344.21171  0.018293564  0.017579609          864 
 1569000   0.62297003   -7.3140031    344.28941  0.018286032  0.017566279          722 
 1570000   0.63484664   -7.3035311    344.39568  0.018280026  0.017552924          868 
 1571000   0.61958839   -7.3044707    344.73003  0.018286125  0.017539571          825 
 1572000   0.63764773   -7.3284552    343.84869  0.018227772  0.017526226          962 
 1573000   0.64205536   -7.3507302    344.31265  0.018240764   0.01751289          923 
 1574000    0.6210603    -7.310124    344.06773  0.018216208  0.017499541          931 
 1575000   0.61951368    -7.329052    344.24894  0.018214229  0.017486203         1061 
 1576000    0.6189944   -7.3220638     344.1266  0.018196204  0.017472893          958 
 1577000   0.62553713    -7.333903     344.3651  0.018197268  0.017459619          956 
 1578000   0.63428673   -7.3214179    344.65384  0.018200984  0.017446333          916 
 1579000    0.6235104   -7.3333153    344.63812  0.018188628  0.017433067          948 
 1580000   0.62946664   -7.3377643    344.34701  0.018161762  0.017419805         1043 
 1581000   0.62919097   -7.3399975    344.35011  0.018150438  0.017406539         1042 
 1582000   0.62847807   -7.3244099    343.49239  0.018093784   0.01739328          968 
 1583000   0.61770299   -7.3126716    344.74404  0.018148244  0.017379987          909 
 1584000   0.62606787   -7.3276269    344.44232  0.018120914  0.017366738         1021 
 1585000   0.62842458   -7.3238324    344.82613   0.01812966  0.017353499          965 
 1586000   0.60997995   -7.3341216    344.12101  0.018081179  0.017340294         1058 
 1587000   0.61946548   -7.3263679    344.58144  0.018093964  0.017327131          974 
 1588000   0.63530862    -7.332574    344.30623  0.018068127  0.017313917         1012 
 1589000   0.61531473   -7.3083489    344.10881  0.018046403  0.017300713          921 
 1590000    0.6329732   -7.3165239    344.50591  0.018055865  0.017287518          977 
 1591000   0.60643912   -7.3335553    344.32645  0.018035117  0.017274331         1025 
 1592000   0.62896154   -7.3306624    344.61871  0.018039087  0.017261182         1032 
 1593000   0.61663198   -7.3248279     344.5974  0.018026648  0.017248038         1052 
 1594000   0.61884361   -7.3252862     344.2663  0.017998029  0.017234859         1000 
 1595000   0.60933464   -7.3423703    344.07127  0.017976555  0.017221672         1077 
 1596000   0.62616768   -7.3146328    344.25305  0.017974783   0.01720851          960 
 1597000   0.61821311   -7.3079869    344.16693  0.017959034   0.01719536          987 
 1598000   0.61314143   -7.3444802    344.43346  0.017961695  0.017182217         1002 
 1599000    0.6294172   -7.3316298    344.14291  0.017935319  0.017169055         1107 
 1600000   0.61161279   -7.3282289    343.69509  0.017900786  0.017155905         1074 
 1601000   0.60946287   -7.3371517    343.60478  0.017884904   0.01714273         1088 
 1602000   0.61810963   -7.3553742    343.81309  0.017884576   0.01712955         1164 
 1603000   0.62710365   -7.3516109     343.1925  0.017841157  0.017116403         1101 
 1604000   0.60706187   -7.3701064    344.63617  0.017905038  0.017103266         1102 
 1605000   0.62435923   -7.3631092    343.82635  0.017851835  0.017090136         1098 
 1606000    0.6249143   -7.3671262    344.02248  0.017850897  0.017077035         1163 
 1607000   0.61434589   -7.3441323    344.06825  0.017842162  0.017063936         1203 
 1608000   0.61197716   -7.3479792    344.29373  0.017842751  0.017050842         1244 
 1609000   0.61175867   -7.3605801    344.18107  0.017825827  0.017037758         1304 
 1610000   0.60847834   -7.3574689    344.29096  0.017820443  0.017024674         1329 
 1611000   0.62568986     -7.34053    343.91551   0.01778996  0.017011618         1280 
 1612000   0.60677602      -7.3734    342.99765  0.017731475  0.016998536         1274 
 1613000   0.61710829   -7.3582767    343.28533  0.017735344  0.016985443         1275 
 1614000   0.61003013   -7.3591967    343.63943  0.017742639  0.016972368         1363 
 1615000   0.61691514   -7.3696753    343.87908  0.017744019  0.016959293         1284 
 1616000    0.6089496   -7.3458125    343.85116  0.017731598  0.016946232         1250 
 1617000   0.60362616     -7.37094     343.0518  0.017679437  0.016933185         1179 
 1618000   0.61543719   -7.3799195    343.62692  0.017698131  0.016920143         1280 
 1619000   0.58969747   -7.3533667    343.56903   0.01768422  0.016907117         1243 
 1620000   0.60501552   -7.3654614    343.77828  0.017684068  0.016894096         1286 
 1621000   0.59781283   -7.3676918    343.03805  0.017635104  0.016881118         1330 
 1622000   0.60641732    -7.360451    343.87302   0.01766713  0.016868155         1311 
 1623000   0.60602217   -7.3612945    343.91751  0.017658529  0.016855202         1278 
 1624000   0.60417966   -7.3667588    343.58827  0.017630761  0.016842247         1334 
 1625000   0.60414468   -7.3643626    343.56909  0.017618928  0.016829273         1325 
 1626000   0.59609301    -7.387403    343.41344  0.017600115  0.016816282         1319 
 1627000   0.60314867   -7.3943589    343.97232  0.017617922  0.016803306         1297 
 1628000   0.60029941   -7.3809395    343.65706  0.017590963   0.01679033         1360 
 1629000   0.59855032    -7.374196     342.9586  0.017544434  0.016777361         1367 
 1630000   0.60568728   -7.3794731    343.51625  0.017562181  0.016764413         1331 
 1631000   0.59834108   -7.3878451    343.55886   0.01755359  0.016751493         1379 
 1632000   0.59998469   -7.3842349    343.23948  0.017526526  0.016738559         1359 
 1633000   0.59533038   -7.4059016    343.99418  0.017554306  0.016725638         1370 
 1634000   0.60259223   -7.3737655    344.02505  0.017545137  0.016712729         1371 
 1635000   0.59212584   -7.4002984    344.03951  0.017535143  0.016699839         1439 
 1636000   0.60316939   -7.4185077    343.94622  0.017519673  0.016686945         1429 
 1637000   0.59384656   -7.3965261    343.71083  0.017496988  0.016674034         1450 
 1638000   0.60071646   -7.4245219    343.32431  0.017466642  0.016661132         1461 
 1639000   0.59663034   -7.3806592    343.55512   0.01746772  0.016648243         1463 
 1640000   0.60634777   -7.4066054    343.67492  0.017463156  0.016635348         1438 
 1641000   0.58772476   -7.4224099    343.63291  0.017450381  0.016622458         1417 
 1642000   0.60357451   -7.3992699    343.45397  0.017430672  0.016609584         1487 
 1643000   0.59769266   -7.4143113    343.53284  0.017424063   0.01659673         1462 
 1644000   0.59306043   -7.3972146    343.02578  0.017387763  0.016583861         1550 
 1645000   0.59165884   -7.4216344     342.9709  0.017374412  0.016570979         1606 
 1646000   0.60071242   -7.4125342    343.36373  0.017383745  0.016558106         1599 
 1647000   0.59396495   -7.3955237    343.47825  0.017378985  0.016545268         1639 
 1648000   0.59605202   -7.4214146    343.83353  0.017386404  0.016532409         1643 
 1649000   0.59466527   -7.4206774    343.52682  0.017360361  0.016519571         1583 
 1650000   0.58477127   -7.4133566     343.1321  0.017329904  0.016506741         1616 
 1651000   0.60117049   -7.4391493    343.06611  0.017316076  0.016493908         1693 
 1652000   0.60030648   -7.4132124    342.82189  0.017293275  0.016481085         1638 
 1653000   0.60137863   -7.4225236    342.91421  0.017287468  0.016468259         1661 
 1654000   0.58678537   -7.4207547    342.87944  0.017275264  0.016455427         1696 
 1655000   0.59802104   -7.4376199    343.13857  0.017277874  0.016442613         1614 
 1656000   0.59879901   -7.4249633    343.76873  0.017299151  0.016429805         1644 
 1657000   0.58749559   -7.4345003    342.68956  0.017234438  0.016417019         1749 
 1658000   0.58566239    -7.429782    342.93457  0.017236358  0.016404216         1751 
 1659000   0.57829903   -7.4312202    342.22446  0.017190299  0.016391381         1688 
 1660000   0.58866501   -7.4078066    342.16411  0.017176913  0.016378577         1729 
 1661000   0.58955688   -7.4377121    343.02249  0.017209637  0.016365764         1701 
 1662000   0.58271945   -7.4547513    342.73185   0.01718471  0.016352957         1786 
 1663000   0.58602626   -7.4583936    342.57671  0.017166602  0.016340148         1755 
 1664000   0.59124695   -7.4433122    342.38106  0.017146487  0.016327355         1713 
 1665000   0.59010759   -7.4539062    343.28532  0.017181447  0.016314563         1756 
 1666000   0.58589965   -7.4447848    342.97293  0.017155509  0.016301804         1851 
 1667000   0.59612909   -7.4406328    342.94512  0.017143827  0.016289035         1794 
 1668000   0.59832972   -7.4739516    342.66408  0.017119508  0.016276278         1795 
 1669000   0.58583568   -7.4679629    342.80494  0.017116284  0.016263548         1774 
 1670000   0.59333268   -7.4726482    342.64247  0.017097927  0.016250808         1744 
 1671000   0.58980089   -7.4692884    342.26151  0.017068697  0.016238077         1826 
 1672000   0.58046524   -7.4471184    342.04333  0.017047614  0.016225361         1858 
 1673000   0.59615391    -7.447426    342.95205  0.017082689  0.016212645         1802 
 1674000   0.58570687   -7.4603005    342.84686  0.017067247  0.016199941         1817 
 1675000   0.58522271   -7.4452905    342.60829  0.017045188  0.016187252         1790 
 1676000   0.57626047   -7.4705404    343.50561  0.017079634  0.016174574         1859 
 1677000   0.58603266   -7.4611332    342.88745  0.017038732  0.016161892         1844 
 1678000   0.59232513   -7.4728638    342.43512  0.017006114  0.016149223         1863 
 1679000   0.58424927   -7.4693049    342.08242   0.01697848  0.016136583         1905 
 1680000   0.57207682   -7.4633142    342.09932  0.016969212  0.016123935         1849 
 1681000    0.5948385   -7.4621361     342.4121  0.016974623  0.016111299         1828 
 1682000   0.56733572    -7.491671    342.64375  0.016976008  0.016098666         1830 
 1683000   0.58127822   -7.4684553    342.58804  0.016963163  0.016086057         1827 
 1684000   0.58314114    -7.451637     342.2794  0.016937817  0.016073456         1780 
 1685000   0.57925917   -7.4730243    343.14038  0.016970345  0.016060851         1856 
 1686000    0.5716573   -7.4549639    341.88348  0.016898155  0.016048267         1881 
 1687000   0.57627116   -7.4694442    342.26503  0.016906986  0.016035688         1856 
 1688000   0.57852811   -7.4554935    342.94995  0.016930783  0.016023116         1917 
 1689000   0.59514901   -7.4812891    341.99471  0.016873629   0.01601056         1867 
 1690000   0.59452206    -7.477153    342.65548  0.016896227  0.015998007         1900 
 1691000   0.57973102     -7.46701    342.17124  0.016862372  0.015985472         1936 
 1692000   0.56386335   -7.4746606    342.93788  0.016890163  0.015972953         1792 
 1693000   0.56401328    -7.483107    342.15002  0.016841407  0.015960429         1885 
 1694000   0.56018579   -7.4908218    343.15736  0.016881019  0.015947924         1854 
 1695000   0.57692107   -7.4740898    342.73407  0.016850249  0.015935416         1858 
 1696000   0.56661431   -7.4725263     342.6794  0.016837628  0.015922927         1852 
 1697000   0.57723687   -7.4640282     342.1842  0.016803388  0.015910464         1883 
 1698000   0.57425012   -7.4986673    343.09391  0.016838139  0.015897989         1836 
 1699000   0.57963519   -7.4922167    342.36224   0.01679234  0.015885531         1859 
 1700000    0.5786969   -7.4770604    342.35559  0.016782137   0.01587308         1846 
 1701000   0.56561612   -7.4833634    342.47991  0.016778361  0.015860646         1845 
 1702000   0.56994101   -7.4947479    342.32138  0.016760741  0.015848214         1850 
 1703000   0.58218056   -7.4826176    342.42459   0.01675595  0.015835811         1838 
 1704000   0.57607068   -7.4877549     342.1452  0.016732453  0.015823415         1822 
 1705000   0.56393004    -7.495085    342.25976  0.016728238  0.015811035         1818 
 1706000   0.58263687   -7.4882931    342.12383  0.016711793  0.015798637         1915 
 1707000   0.58007741    -7.468781    341.75284  0.016683892  0.015786253         1919 
 1708000   0.57611229   -7.4913603    342.54133  0.016712594  0.015773891         1907 
 1709000   0.58029914   -7.4942131    341.48738  0.016651423  0.015761535         1929 
 1710000   0.57733833    -7.477051    342.47314  0.016689724   0.01574916         2010 
 1711000   0.57246101   -7.4880371    342.10006  0.016661799  0.015736797         1996 
 1712000   0.57602707   -7.4917938    342.16031  0.016654999  0.015724423         2015 
 1713000   0.55939205   -7.4929171     342.0635  0.016640567   0.01571207         1995 
 1714000   0.58047479   -7.5069344    342.11251  0.016633242  0.015699709         2009 
 1715000    0.5795448   -7.5103032    341.73091  0.016605001  0.015687368         2055 
 1716000    0.5749266   -7.5097924    341.79239   0.01659831  0.015675029         1968 
 1717000   0.56265218   -7.4952457    342.61173  0.016628409  0.015662701         2002 
 1718000    0.5588954    -7.512717    342.37592  0.016607291  0.015650371         1956 
 1719000   0.56890077   -7.4868703     342.4211   0.01659982  0.015638075         1993 
 1720000   0.56608651   -7.4818928    341.86912  0.016563426  0.015625775         1994 
 1721000   0.56828389    -7.506395    342.22036   0.01657081  0.015613489         1966 
 1722000   0.54908551    -7.514805    342.13916  0.016557257  0.015601212         2036 
 1723000   0.57533393   -7.4957997    342.04449  0.016543069  0.015588961         2066 
 1724000   0.57348532   -7.4881531    341.62215  0.016513058  0.015576718         2054 
 1725000   0.56364731   -7.5132264    341.88699   0.01651628  0.015564475         2079 
 1726000   0.56639477   -7.4874364    342.47162  0.016534937  0.015552239         1994 
 1727000   0.56082771   -7.5154245    341.72995  0.016489575  0.015540008         2087 
 1728000   0.56507001   -7.5168059     341.8431  0.016485489  0.015527785         2057 
 1729000   0.56561741   -7.5097548    341.91802  0.016479565  0.015515567         2074 
 1730000    0.5661834   -7.5294266    341.54154  0.016451905  0.015503346         2093 
 1731000   0.55188208   -7.5036138    341.93619  0.016461399  0.015491137         2182 
 1732000   0.55164434   -7.5148301    342.13471  0.016461447  0.015478937         2208 
 1733000     0.557607   -7.5062621     341.0624  0.016400385  0.015466747         2203 
 1734000   0.55151155   -7.5269573    342.37331  0.016453927   0.01545457         2138 
 1735000   0.55277034   -7.5484175    341.84146  0.016418898  0.015442383         2273 
 1736000   0.55444551     -7.51514    341.79148  0.016407041  0.015430199         2183 
 1737000   0.56642574   -7.5195042     341.7137  0.016393864  0.015418029         2195 
 1738000   0.55597245   -7.5170013    341.76916   0.01638709  0.015405881         2224 
 1739000   0.57208871   -7.5204455    341.69549  0.016374137   0.01539374         2242 
 1740000   0.56215595   -7.5172265    341.35983  0.016348651  0.015381583         2266 
 1741000    0.5576984   -7.5296068    341.24578  0.016333801  0.015369457         2232 
 1742000   0.55977945   -7.5310296    341.77858  0.016349913  0.015357342         2226 
 1743000    0.5385564   -7.5339665    341.33463  0.016319307  0.015345232         2226 
 1744000     0.561217   -7.5343299    341.54589  0.016320045  0.015333134         2292 
 1745000   0.55508546    -7.516704    341.96694    0.0163308  0.015321036         2263 
 1746000   0.56073953   -7.5281372    341.79456  0.016313219  0.015308964         2273 
 1747000   0.55776052   -7.5222636    341.57381  0.016293351   0.01529691         2319 
 1748000   0.56847505   -7.5100125    341.26137  0.016269135  0.015284857         2343 
 1749000   0.56637418   -7.5257076    342.10052  0.016299815  0.015272812         2225 
 1750000   0.55395797   -7.5347597    341.43962   0.01625903  0.015260767         2294 
 1751000   0.55444503   -7.5101922    341.17816  0.016237301  0.015248733         2243 
 1752000   0.55004874   -7.5383935    341.42526  0.016239786  0.015236714         2336 
 1753000   0.55031332   -7.5456636    341.20201  0.016219909  0.015224699         2325 
 1754000   0.54361864   -7.5548322    341.46752  0.016223276  0.015212683         2303 
 1755000    0.5390731   -7.5286652    341.53931  0.016217441  0.015200668         2398 
 1756000   0.55036111   -7.5618101    341.39847  0.016201522  0.015188659         2326 
 1757000   0.54919325   -7.5387217    341.50414  0.016197313   0.01517666         2347 
 1758000   0.55141291   -7.5509605    341.62682  0.016193914  0.015164655         2384 
 1759000   0.55064062   -7.5399095    341.49435  0.016178432  0.015152682         2317 
 1760000   0.56124853   -7.5701803    340.98857  0.016145292    0.0151407         2358 
 1761000   0.55327581   -7.5599598    341.31871  0.016151747   0.01512874         2393 
 1762000   0.53868467   -7.5573265    341.65135  0.016158312  0.015116782         2385 
 1763000   0.54539477   -7.5598163    341.54894  0.016144306  0.015104833         2387 
 1764000   0.54295273   -7.5393345    341.38189  0.016127262  0.015092898         2377 
 1765000   0.55385421   -7.5418237    340.92723  0.016096659  0.015080968         2391 
 1766000   0.55205658   -7.5441659    341.09528  0.016095474  0.015069048         2365 
 1767000   0.55506599   -7.5493169    341.24898  0.016093613  0.015057129         2383 
 1768000   0.53923808   -7.5390653    340.94048   0.01606997  0.015045217         2360 
 1769000   0.55017465   -7.5519262    341.17631  0.016071995  0.015033332         2423 
 1770000   0.54083222   -7.5474592    341.10179  0.016059406  0.015021454         2431 
 1771000   0.54572045   -7.5571743    341.08622  0.016049606  0.015009586         2411 
 1772000   0.54406432   -7.5472357     341.3874  0.016054712  0.014997726         2474 
 1773000   0.55048531   -7.5591792    341.15011  0.016034504  0.014985873         2488 
 1774000   0.55363305   -7.5611002    340.36408  0.015988542   0.01497403         2497 
 1775000   0.55354238   -7.5655879    341.05103  0.016011785  0.014962183         2471 
 1776000   0.53436376   -7.5794515    341.40855  0.016019545  0.014950344         2440 
 1777000   0.54391853   -7.5727355    341.32948  0.016006822  0.014938526         2447 
 1778000    0.5328819   -7.5537753    340.76021  0.015971138  0.014926717         2446 
 1779000   0.53314387   -7.5626833    340.55562  0.015952577  0.014914904         2465 
 1780000   0.55077658   -7.5694269    341.29654  0.015978302  0.014903108         2402 
 1781000   0.55194578   -7.5730127    341.06217  0.015958365  0.014891327         2462 
 1782000   0.53990881    -7.571348    341.08034  0.015950259   0.01487954         2452 
 1783000   0.53825369   -7.5498036     341.3564  0.015954216  0.014867782         2506 
 1784000   0.53511774   -7.5936979    341.26225  0.015940875  0.014856034         2461 
 1785000   0.52799281   -7.5653247     340.6492  0.015903324  0.014844296         2511 
 1786000   0.53882623    -7.574567    341.35089   0.01592716  0.014832558         2454 
 1787000   0.55335097       -7.575    340.98998  0.015901417  0.014820828         2461 
 1788000   0.54457371   -7.5969262    340.65173  0.015876759   0.01480909         2456 
 1789000   0.52955595    -7.586913    341.06589  0.015887176  0.014797361         2411 
 1790000   0.54270206   -7.5762094    340.42459  0.015848444  0.014785647         2480 
 1791000   0.53956822    -7.583902    340.26132  0.015831999  0.014773946         2471 
 1792000   0.53464246   -7.5840499    341.25987    0.0158696  0.014762242         2430 
 1793000    0.5369111   -7.5682078    339.88932   0.01579705  0.014750552         2469 
 1794000   0.54905293   -7.5771295    340.49928  0.015816578   0.01473887         2575 
 1795000   0.54022743   -7.5805899    340.25456  0.015796405  0.014727186         2564 
 1796000   0.53399295   -7.5740678    340.64654  0.015805797  0.014715532         2516 
 1797000   0.54211203   -7.5953353    340.84921    0.0158064  0.014703874         2565 
 1798000   0.53715201   -7.5977479    340.35449   0.01577468  0.014692209         2570 
 1799000   0.51663838    -7.594014    340.63648  0.015778974  0.014680567         2538 
 1800000   0.53432893   -7.5958323    340.42232  0.015760293  0.014668931         2571 
 1801000   0.53332807   -7.6090315    340.45207  0.015752918  0.014657295         2579 
 1802000   0.52691034   -7.5882475    339.96913  0.015721843  0.014645674         2603 
 1803000   0.53742113   -7.6003176    340.84169  0.015753452  0.014634089         2630 
 1804000   0.53555758   -7.6012433    340.07443  0.015709277    0.0146225         2552 
 1805000   0.53654089   -7.5993614    341.07806   0.01574691  0.014610908         2649 
 1806000   0.52608864   -7.6068892    340.49115  0.015711109  0.014599324         2669 
 1807000    0.5344972   -7.6073307    340.71126  0.015712565  0.014587743         2715 
 1808000   0.53049127   -7.5989726    340.59166  0.015698362  0.014576175         2620 
 1809000   0.52593202   -7.6156877    340.98359  0.015707739  0.014564627         2639 
 1810000   0.52600188   -7.6016747    340.36072  0.015670383  0.014553085         2666 
 1811000   0.51674497   -7.6190318    339.74005   0.01563317  0.014541549         2651 
 1812000    0.5287807   -7.6096215    340.45377  0.015657366  0.014530033         2612 
 1813000   0.52935556   -7.5885564    340.47743  0.015649818  0.014518519         2722 
 1814000   0.53648623   -7.5942784    339.98943  0.015618772  0.014507006         2674 
 1815000   0.52140365   -7.6219112    340.00571  0.015610914   0.01449549         2658 
 1816000   0.52328144   -7.6032634    340.60094  0.015629632  0.014483979         2682 
 1817000   0.53042978   -7.6051071    340.15349  0.015600509   0.01447249         2684 
 1818000   0.53862233   -7.6063504     340.3494  0.015600908  0.014461011         2683 
 1819000   0.54197407   -7.6052049    340.53947  0.015601039  0.014449537         2702 
 1820000   0.51441092   -7.6079799    339.38455  0.015539586  0.014438063         2734 
 1821000   0.50916309   -7.6188613    339.76753  0.015548578  0.014426604         2697 
 1822000   0.52459237   -7.5998606    340.39004  0.015568516  0.014415153         2645 
 1823000   0.52273782   -7.6155678    340.19839  0.015551216  0.014403714         2679 
 1824000   0.52976241   -7.6431609    340.16949  0.015541369  0.014392283         2686 
 1825000   0.53521528   -7.6085474    339.92275  0.015521587  0.014380852         2662 
 1826000   0.53224029   -7.6244151    340.25803  0.015528388  0.014369431         2680 
 1827000   0.51915505   -7.6292967    340.32137  0.015522777  0.014358022         2737 
 1828000   0.52636748   -7.6318534    339.94838  0.015497282  0.014346624         2790 
 1829000   0.50562503   -7.6187231    340.40088  0.015509426  0.014335244         2748 
 1830000    0.5283245   -7.6235068    340.20444  0.015492005  0.014323873         2707 
 1831000   0.52327867   -7.6201621    340.21115   0.01548385  0.014312513         2666 
 1832000   0.52119254   -7.6193764    340.42731  0.015485231  0.014301152         2678 
 1833000    0.5340521    -7.620829    339.89911  0.015452769  0.014289805         2740 
 1834000   0.52052506   -7.6279266    340.33029  0.015463936  0.014278469         2687 
 1835000   0.52239707   -7.6231303     339.8737  0.015434773  0.014267144         2711 
 1836000   0.52234866   -7.6475278    340.41004   0.01545071  0.014255822         2740 
 1837000   0.51137599   -7.6334881    340.28378  0.015436571   0.01424451         2772 
 1838000   0.51800472   -7.6477169    339.40362  0.015388267  0.014233209         2772 
 1839000   0.52528634   -7.6259185    339.83757  0.015399564  0.014221906         2750 
 1840000   0.52401228   -7.6434556    340.26194  0.015410414   0.01421063         2809 
 1841000   0.50780347   -7.6312403    339.70311  0.015376748  0.014199357         2752 
 1842000   0.52102561   -7.6454785    339.94705  0.015379436  0.014188097         2744 
 1843000   0.52360046   -7.6325447    339.27229  0.015340581  0.014176845         2801 
 1844000   0.51891995    -7.646036    339.92145  0.015361598  0.014165611         2758 
 1845000   0.51329553   -7.6449422    340.05595  0.015359347  0.014154384         2716 
 1846000   0.52760889   -7.6548514    340.21622  0.015358262  0.014143158         2723 
 1847000   0.51784808   -7.6422516    339.98771  0.015339637  0.014131946         2840 
 1848000    0.5082747   -7.6294333    339.62957  0.015315186  0.014120753         2803 
 1849000   0.51085518   -7.6410904    339.62054  0.015306496  0.014109565         2737 
 1850000   0.50950601   -7.6354139    339.87664  0.015309758  0.014098393         2802 
 1851000   0.50725888   -7.6390202    339.73366   0.01529505  0.014087226         2797 
 1852000   0.50854664   -7.6512634    339.90439  0.015294474  0.014076063         2853 
 1853000   0.51155236   -7.6447893    339.94413  0.015288007   0.01406491         2825 
 1854000   0.50878256   -7.6377811    339.85207  0.015275623  0.014053774         2793 
 1855000   0.51819577   -7.6549324    339.72649  0.015261747  0.014042638         2811 
 1856000   0.51542036    -7.650444    340.06564  0.015268752  0.014031518         2819 
 1857000   0.50308776   -7.6358808    339.80492   0.01524883  0.014020414         2811 
 1858000   0.51669159   -7.6400849    339.75676  0.015238463  0.014009318         2822 
 1859000   0.52045114   -7.6502305    339.74225  0.015229615  0.013998222         2808 
 1860000   0.51259777   -7.6488041    339.96281  0.015231309  0.013987139         2791 
 1861000   0.51442848   -7.6395981    339.86912  0.015218929  0.013976067         2867 
 1862000   0.51229113   -7.6417179    339.87751  0.015211131  0.013965016         2823 
 1863000   0.51765753   -7.6423767    339.56402  0.015188943  0.013953969         2803 
 1864000   0.50004489   -7.6532328    340.09326  0.015204456  0.013942929         2827 
 1865000   0.50733952   -7.6544288    339.45742  0.015167892  0.013931901         2775 
 1866000   0.50926206   -7.6471853     339.9732  0.015182798   0.01392088         2876 
 1867000   0.51032678   -7.6552009    339.48363  0.015152814  0.013909876         2828 
 1868000   0.50676806   -7.6506102    339.68166  0.015153536  0.013898879         2866 
 1869000   0.50469481   -7.6534389    339.54418  0.015139298  0.013887894         2858 
 1870000   0.50368344   -7.6667664    339.47474  0.015128108  0.013876897         2880 
 1871000     0.517098   -7.6583184    339.45679  0.015119223  0.013865917         2855 
 1872000   0.50786251   -7.6466237    339.33575  0.015105758  0.013854951         2864 
 1873000   0.51332675   -7.6653223    339.13403  0.015088718  0.013843993         2841 
 1874000   0.50146926   -7.6557344    338.99755  0.015074597  0.013833049         2796 
 1875000   0.50817985   -7.6415772    339.26714   0.01507854  0.013822111         2766 
 1876000   0.50024377   -7.6672995    339.26161  0.015070256   0.01381118         2826 
 1877000   0.50440462    -7.644449    339.40187  0.015068455  0.013800264         2852 
 1878000   0.51180559   -7.6448153    339.35842  0.015058503   0.01378935         2797 
 1879000   0.50380602   -7.6552734    339.50621  0.015057043  0.013778449         2832 
 1880000   0.49394275   -7.6443907    339.20713  0.015035777   0.01376756         2835 
 1881000     0.508826   -7.6545507    339.25568  0.015029935  0.013756679         2829 
 1882000   0.50627065   -7.6607831    339.87741  0.015049478  0.013745804         2762 
 1883000   0.50339041   -7.6423102     338.9721  0.015001421  0.013734947         2819 
 1884000   0.50377523    -7.651254    339.31332  0.015008551  0.013724105         2894 
 1885000   0.50077057   -7.6623445    339.55835  0.015011421  0.013713259         2830 
 1886000   0.50309971   -7.6617464    339.24831  0.014989763  0.013702431         2794 
 1887000   0.50534137   -7.6662783    339.55469  0.014995349  0.013691611         2795 
 1888000   0.50521947   -7.6652396    339.74755  0.014995919  0.013680789         2826 
 1889000   0.49909904   -7.6602092    339.44889  0.014974805  0.013669988         2760 
 1890000   0.49293668   -7.6490789    339.10384  0.014951668  0.013659193         2804 
 1891000   0.49313391   -7.6587071    338.82665  0.014931546   0.01364841         2769 
 1892000   0.49719014   -7.6778922    339.14094  0.014937497   0.01363763         2811 
 1893000   0.50428985   -7.6598486     338.7081  0.014910552  0.013626868         2784 
 1894000   0.49002741   -7.6521291    339.61994  0.014942799  0.013616113         2734 
 1895000   0.50364046   -7.6452845    338.62946  0.014891357  0.013605367         2795 
 1896000   0.49688849   -7.6565817    339.03704  0.014901417  0.013594635         2811 
 1897000   0.50701665   -7.6638559    339.44023  0.014911273   0.01358392         2810 
 1898000   0.50394138   -7.6679382    339.33548  0.014898818  0.013573209         2828 
 1899000   0.49410132   -7.6573314    338.71774  0.014863864  0.013562512         2843 
 1900000   0.48903806   -7.6700847    339.46779  0.014888938  0.013551822         2788 
 1901000   0.49450665   -7.6640856    339.19327  0.014869072  0.013541141         2821 
 1902000   0.49441314   -7.6811422    339.63631  0.014880665  0.013530473         2775 
 1903000   0.49591679   -7.6813919    339.32691  0.014859297  0.013519814         2805 
 1904000   0.49354403   -7.6655733    339.05043  0.014839392  0.013509152         2802 
 1905000   0.49840043   -7.6568653    339.27688  0.014841508  0.013498507         2827 
 1906000   0.48993098   -7.6665188    339.32526  0.014835837  0.013487876         2785 
 1907000   0.49771289   -7.6757028    338.83555  0.014806658   0.01347725         2825 
 1908000   0.48868144   -7.6691198    338.78855  0.014796845  0.013466624         2770 
 1909000   0.48827883   -7.6692373    339.09839  0.014802619  0.013456013         2809 
 1910000    0.4842766   -7.6752652    338.95626  0.014788668  0.013445407         2825 
 1911000   0.49022929   -7.6725039    338.66377  0.014768174  0.013434808         2851 
 1912000   0.48181631   -7.6730231    338.52524  0.014754413  0.013424225         2814 
 1913000   0.48138815   -7.6967363    339.03363  0.014768846  0.013413658         2821 
 1914000   0.49570393   -7.6753432    338.77988  0.014750082  0.013403089         2854 
 1915000   0.49081086   -7.6773032    339.10229   0.01475641  0.013392539         2854 
 1916000   0.47827654   -7.6715251    339.33071  0.014758643  0.013381995         2840 
 1917000   0.47650133   -7.6841044    338.50149  0.014714897  0.013371449         2769 
 1918000   0.48360875   -7.6780497    338.94621  0.014726547  0.013360922         2748 
 1919000   0.49357433    -7.702155    339.24571  0.014731879  0.013350408         2791 
 1920000   0.48024507    -7.683381    339.29742   0.01472645  0.013339899         2790 
 1921000     0.486545   -7.6722773    338.99631  0.014705722  0.013329404         2794 
 1922000   0.48347406   -7.6892792    338.76916  0.014688222  0.013318913         2880 
 1923000   0.47665248   -7.6940569    339.13838  0.014696584  0.013308431         2811 
 1924000   0.46750763   -7.6758725     339.0124  0.014683489  0.013297955         2855 
 1925000   0.49487995   -7.6776428    338.99045  0.014674911  0.013287497         2865 
 1926000   0.48656068   -7.6754337    338.89362  0.014663102  0.013277042         2829 
 1927000   0.47263884   -7.6931128    339.23727  0.014670354  0.013266601         2821 
 1928000   0.47440356   -7.6875404    338.77162  0.014642619   0.01325617         2873 
 1929000   0.47932676   -7.6895512    338.90388  0.014640741  0.013245758         2886 
 1930000   0.48267803   -7.6759554    338.35052  0.014609263  0.013235341         2856 
 1931000   0.47945436   -7.6834192    338.78038  0.014620248  0.013224933         2860 
 1932000   0.47747951   -7.6966924    338.87114  0.014616595  0.013214543         2840 
 1933000   0.47989688   -7.6819914    338.40652  0.014589003  0.013204157         2880 
 1934000   0.48087689   -7.7007818     338.8244  0.014599466  0.013193781         2835 
 1935000    0.4728034   -7.6980267    339.13273  0.014605199  0.013183426         2860 
 1936000   0.47859926   -7.6867383    338.43777  0.014567741  0.013173081         2836 
 1937000   0.48148416   -7.6881241    338.56343  0.014565627  0.013162731         2897 
 1938000   0.47703553   -7.7074019    339.04756  0.014578929    0.0131524         2802 
 1939000   0.48812346    -7.688886    338.85269  0.014563035  0.013142077         2825 
 1940000   0.48023308   -7.6761883    339.26963  0.014573438  0.013131758         2833 
 1941000   0.47395651    -7.679948    338.85695  0.014548212  0.013121452         2762 
 1942000   0.47708034   -7.6850912    338.32461  0.014517877  0.013111144         2826 
 1943000   0.47964268   -7.6982177    338.79161  0.014530434  0.013100858         2859 
 1944000   0.47537811   -7.7115098    338.43435  0.014507646  0.013090575         2797 
 1945000   0.47517389   -7.6880444    338.74029  0.014513294  0.013080302         2867 
 1946000   0.47017731   -7.7093943    339.11729  0.014521981  0.013070039         2812 
 1947000   0.48168424   -7.7002943    338.40997  0.014484248  0.013059792         2862 
 1948000    0.4775141   -7.6828331    338.84309  0.014495341  0.013049555         2861 
 1949000   0.46586003   -7.6944124    338.69571  0.014481602  0.013039319         2847 
 1950000   0.47964125   -7.7026481    339.14969  0.014493577  0.013029105         2822 
 1951000   0.47347368   -7.6931629    338.42166  0.014455051  0.013018899         2835 
 1952000   0.47584576    -7.693828    338.69365  0.014459258  0.013008693         2811 
 1953000   0.47326956    -7.683281    338.20182  0.014430868  0.012998503         2836 
 1954000   0.46931248   -7.6900766    338.48269  0.014435461  0.012988319         2881 
 1955000   0.47128295   -7.7048164    338.66453  0.014435828  0.012978151         2828 
 1956000   0.47805144   -7.6856174    338.52614  0.014422552  0.012967989         2847 
 1957000   0.47924837   -7.6986377    338.78879  0.014426366  0.012957838         2838 
 1958000   0.46662882   -7.7036669    338.75068  0.014417377  0.012947691         2811 
 1959000   0.47994731   -7.6998375    338.44197  0.014396885  0.012937554         2844 
 1960000   0.46724616   -7.6884731    338.23527  0.014380751  0.012927417         2825 
 1961000   0.47499265   -7.7038913     338.0976  0.014367568  0.012917287         2823 
 1962000   0.47754627   -7.6817643    338.38225  0.014372335   0.01290717         2814 
 1963000   0.47823186   -7.6982909    338.89338  0.014386712  0.012897063         2843 
 1964000   0.46960319   -7.7068746    338.63811  0.014368555  0.012886971         2813 
 1965000    0.4711767   -7.7010748    338.69425  0.014363624  0.012876884         2834 
 1966000   0.47178367   -7.7119247    338.94727  0.014367043   0.01286681         2870 
 1967000   0.46931314   -7.7246244    338.40626  0.014336818  0.012856747         2838 
 1968000   0.45160173   -7.7183876    339.02405  0.014355693  0.012846694         2851 
 1969000    0.4524546   -7.7025961    338.33592  0.014319279  0.012836638         2837 
 1970000   0.46392427   -7.7007612    339.10016  0.014344339  0.012826599         2810 
 1971000   0.46452003   -7.7183937    338.28686  0.014302674  0.012816574         2853 
 1972000   0.46236065    -7.715218    338.41828  0.014300975  0.012806554         2864 
 1973000   0.47165871   -7.7227537    338.46681  0.014295777  0.012796535         2860 
 1974000   0.45988157   -7.7028431    338.03403  0.014270265  0.012786541         2846 
 1975000   0.46081832   -7.7200023    338.32006  0.014275108  0.012776547         2819 
 1976000   0.46225277   -7.7146671    338.23476  0.014264286  0.012766557         2840 
 1977000   0.46712224   -7.7158298    338.46636  0.014266833   0.01275658         2852 
 1978000   0.46146548   -7.7174931    338.52083  0.014261916  0.012746615         2840 
 1979000   0.45765623   -7.7105606    337.90804  0.014228905  0.012736658         2838 
 1980000   0.46364658   -7.7273002    337.76196  0.014215571  0.012726704         2836 
 1981000    0.4593796   -7.7352946    338.45658  0.014237615  0.012716762         2820 
 1982000   0.45528058   -7.7104705    338.42296  0.014229018  0.012706834         2855 
 1983000   0.47409656   -7.7224453    338.54503  0.014226972  0.012696911         2828 
 1984000    0.4614133   -7.7285409    338.58075  0.014221302  0.012687002         2856 
 1985000    0.4561716   -7.7224306    337.71457  0.014177774  0.012677088         2832 
 1986000   0.45454484   -7.7122703     338.2033  0.014191142  0.012667185         2856 
 1987000   0.46383882   -7.7112023    337.83868  0.014168708  0.012657296         2831 
 1988000   0.45634419   -7.7205003    337.90566  0.014164389  0.012647404         2835 
 1989000   0.46304867    -7.719581    338.18638  0.014169029  0.012637536         2872 
 1990000   0.45685378   -7.7061162    338.16184  0.014160881  0.012627677         2762 
 1991000   0.45056348   -7.7205991     337.5328   0.01412744  0.012617827         2870 
 1992000   0.45060896   -7.7346304    338.39445  0.014156394  0.012607987         2835 
 1993000   0.46531868   -7.7382696    337.79429  0.014124197  0.012598149         2887 
 1994000   0.45516368   -7.7235491    338.12372  0.014130881  0.012588326         2866 
 1995000   0.46640385   -7.7340496    338.38208   0.01413459  0.012578518         2857 
 1996000   0.45463055   -7.7319648      338.044  0.014113393  0.012568707         2852 
 1997000   0.45086134    -7.721232    337.98525  0.014103875   0.01255891         2876 
 1998000   0.45339057   -7.7358369    338.16235  0.014104202   0.01254912         2884 
 1999000   0.46817489   -7.7310904     338.0663  0.014093142   0.01253934         2854 
 2000000   0.44673422   -7.7302294    337.93213  0.014080505   0.01252957         2819 
 2001000   0.46417452    -7.733077    338.20964  0.014085026  0.012519807         2824 
 2002000   0.45437014   -7.7217073     337.5025  0.014048556   0.01251005         2849 
 2003000   0.45620208   -7.7262951    337.91825  0.014058839  0.012500308         2846 
 2004000   0.44106611   -7.7417937     337.5224  0.014035363  0.012490572         2828 
 2005000   0.44815312   -7.7407025    337.89726  0.014043942  0.012480852         2786 
 2006000    0.4477736   -7.7317844    337.66755  0.014027399   0.01247114         2798 
 2007000   0.45282603   -7.7404168    338.14783  0.014040352  0.012461432         2804 
 2008000   0.45227922    -7.728837    337.70706  0.014015067   0.01245174         2854 
 2009000   0.45657997   -7.7397316    338.01978  0.014021063  0.012442048         2830 
 2010000   0.45244444   -7.7268167    338.07269  0.014016281  0.012432363         2799 
 2011000   0.45011572    -7.723337    337.59233  0.013989405  0.012422691         2804 
 2012000   0.45181288   -7.7365639    338.07226   0.01400233  0.012413036         2797 
Loop time of 4346.59 on 48 procs for 2000000 steps with 4000 atoms

Performance: 79510.675 tau/day, 460.131 timesteps/s
99.4% CPU use with 48 MPI tasks x no OpenMP threads

MPI task timing breakdown:
Section |  min time  |  avg time  |  max time  |%varavg| %total
---------------------------------------------------------------
Pair    | 271.88     | 296.2      | 312.63     |  66.2 |  6.81
Neigh   | 26.343     | 26.998     | 27.811     |   6.4 |  0.62
Comm    | 233.93     | 251.03     | 274.93     |  67.1 |  5.78
Output  | 4.5145     | 4.5164     | 4.5556     |   0.3 |  0.10
Modify  | 3691.7     | 3718.2     | 3733.9     |  13.3 | 85.54
Other   |            | 49.66      |            |       |  1.14

Nlocal:        83.3333 ave          92 max          74 min
Histogram: 1 0 3 13 5 9 8 6 2 1
Nghost:        1785.98 ave        1807 max        1763 min
Histogram: 1 3 3 7 12 5 4 7 4 2
Neighs:        10869.1 ave       12192 max        9222 min
Histogram: 1 0 2 5 11 13 7 2 6 1
FullNghs:      21739.3 ave       23906 max       19098 min
Histogram: 1 0 4 4 12 10 6 4 5 2

Total # of neighbors = 1043485
Ave neighs/atom = 260.87125
Neighbor list builds = 107924
Dangerous builds = 0

#clear
#
#next RN
#
#jump SELF
Total wall time: 1:12:29
