
units lj                  # Use reduced LJ style units
atom_style atomic         # Uncharged point particles
atom_modify map hash      # Needed for indexing of clusters etc
                          # Used to be able to find where atoms are in relation to each other.

lattice fcc 1.0 spacing 1 1 1
Lattice spacing in x,y,z = 1.5874011 1.5874011 1.5874011
region box block 0 10 0 10 0 10 units lattice
create_box 2 box
Created orthogonal box = (0.0000000 0.0000000 0.0000000) to (15.874011 15.874011 15.874011)
  3 by 4 by 4 MPI processor grid
create_atoms 1 box
Created 4000 atoms
  using lattice units in orthogonal box = (0.0000000 0.0000000 0.0000000) to (15.874011 15.874011 15.874011)
  create_atoms CPU = 0.002 seconds
set type 1 type/fraction 2 0.43 78393
Setting atom values ...
  1722 settings made for type/fraction
mass 1 1.0
mass 2 1.0
pair_style lj/cut  3.5
pair_modify tail  yes
pair_coeff 1  1  1.0  1.0   # Intearaction between 1 and 1 set with epsilon = 1 and sigma = 1
pair_coeff 1  2  1.5  0.8
pair_coeff 2  2  0.5  0.88

write_data data.0
System init for write_data ...
Neighbor list info ...
  update every 1 steps, delay 10 steps, check yes
  max neighbors/atom: 2000, page size: 100000
  master list distance cutoff = 3.8
  ghost atom cutoff = 3.8
  binsize = 1.9, bins = 9 9 9
  1 neighbor lists, perpetual/occasional/extra = 1 0 0
  (1) pair lj/cut, perpetual
      attributes: half, newton on
      pair build: half/bin/atomonly/newton
      stencil: half/bin/3d
      bin: standard
WARNING: Not all mixed pair coeffs generated from mixing. Use write_data with 'pair ij' option to store all pair coeffs. (../write_data.cpp:312)


#############################
#   M E L T   S Y S T E M   #
#############################

velocity all create 2.4 9580093 mom yes dist gaussian # Assign velocities
                                                    # Temperature 2.4, random number seed, zero linear momentum
                                                                                # Gaussian distribution

timestep 0.002   # simulation timestep
thermo 1000       # output thermodynamic data every 1000 steps bf 100

# Define a fix  in this case with index 1 applied to all
# particles in the simulation. This fix is for simulations
# in the anisotropic NPT ensemble. Note that we use the MTK
# correction.
fix 1 all npt temp 2.4 2.4 0.1 iso 5.68 5.68 0.5 mtk yes tchain 5 pchain 5 # Use NPT ensemble
                                                                         # Set temperature and pressure and damping
                                                                         # Numbers of thermostats in chain and in barostat
run 10000          # run for 10000 steps
Per MPI rank memory allocation (min/avg/max) = 3.642 | 3.644 | 3.648 Mbytes
Step Temp E_pair E_mol TotEng Press Volume 
       0          2.4   -5.6998203            0   -2.1007203   -4.1891945         4000 
    1000    2.4313988   -4.9988997            0   -1.3527132    5.5666371    3848.8453 
    2000    2.4094224   -5.0391984            0   -1.4259682    5.5343611    3832.6531 
    3000     2.398026    -5.066802            0   -1.4706623    5.7291638    3795.2227 
    4000    2.3820748   -5.0750191            0   -1.5028001    5.7145356    3790.0711 
    5000    2.3933034   -5.0022572            0   -1.4131996    5.6138199    3837.3229 
    6000    2.4145473   -5.0063256            0   -1.3854101    5.7209277    3821.4008 
    7000    2.4125561   -5.0584048            0   -1.4404754    5.7617577    3805.4613 
    8000    2.3941276   -5.0796754            0   -1.4893819    5.6506906    3798.1251 
    9000    2.3679739   -5.0251814            0   -1.4741086    5.8742506    3803.4863 
   10000    2.3635362   -5.0740511            0   -1.5296331    5.8409492     3787.918 
Loop time of 2.57194 on 48 procs for 10000 steps with 4000 atoms

Performance: 671865.188 tau/day, 3888.109 timesteps/s
99.6% CPU use with 48 MPI tasks x no OpenMP threads

MPI task timing breakdown:
Section |  min time  |  avg time  |  max time  |%varavg| %total
---------------------------------------------------------------
Pair    | 1.1545     | 1.2085     | 1.3418     |   3.4 | 46.99
Neigh   | 0.21103    | 0.21862    | 0.24686    |   1.2 |  8.50
Comm    | 0.73908    | 0.87898    | 0.94921    |   4.8 | 34.18
Output  | 0.00023824 | 0.00024508 | 0.00030565 |   0.0 |  0.01
Modify  | 0.22319    | 0.25033    | 0.28898    |   3.6 |  9.73
Other   |            | 0.0153     |            |       |  0.59

Nlocal:        83.3333 ave          95 max          73 min
Histogram: 1 4 4 6 9 14 5 4 0 1
Nghost:        1702.25 ave        1732 max        1674 min
Histogram: 1 7 5 3 8 7 7 6 1 3
Neighs:        10061.1 ave       11916 max        8529 min
Histogram: 1 4 7 3 13 12 3 3 1 1

Total # of neighbors = 482932
Ave neighs/atom = 120.73300
Neighbor list builds = 904
Dangerous builds = 193

# Equilibrate just above the melting temperature to avoid step fn in T

fix 1 all npt temp 1.25 1.25 0.1 iso 5.68 5.68 0.5 mtk yes tchain 5 pchain 5
run 2000
Per MPI rank memory allocation (min/avg/max) = 3.643 | 3.645 | 3.649 Mbytes
Step Temp E_pair E_mol TotEng Press Volume 
   10000    2.3635362   -5.0740511            0   -1.5296331    5.8409492     3787.918 
   11000    1.2355373   -7.0489873            0   -5.1961447    5.8231704    3019.3312 
   12000    1.2521663   -7.1283009            0   -5.2505211    5.6162327     3002.339 
Loop time of 0.635394 on 48 procs for 2000 steps with 4000 atoms

Performance: 543914.330 tau/day, 3147.652 timesteps/s
99.6% CPU use with 48 MPI tasks x no OpenMP threads

MPI task timing breakdown:
Section |  min time  |  avg time  |  max time  |%varavg| %total
---------------------------------------------------------------
Pair    | 0.27542    | 0.30312    | 0.36168    |   2.5 | 47.71
Neigh   | 0.03851    | 0.041406   | 0.049857   |   0.9 |  6.52
Comm    | 0.18043    | 0.24013    | 0.26894    |   3.0 | 37.79
Output  | 5.0968e-05 | 5.2164e-05 | 6.7254e-05 |   0.0 |  0.01
Modify  | 0.038562   | 0.045804   | 0.051327   |   1.8 |  7.21
Other   |            | 0.00488    |            |       |  0.77

Nlocal:        83.3333 ave          91 max          76 min
Histogram: 2 3 9 7 5 2 6 3 9 2
Nghost:        1990.85 ave        2017 max        1974 min
Histogram: 4 4 10 8 6 8 5 2 0 1
Neighs:        12726.6 ave       14320 max       11554 min
Histogram: 6 4 7 4 9 8 4 2 1 3

Total # of neighbors = 610879
Ave neighs/atom = 152.71975
Neighbor list builds = 141
Dangerous builds = 7

#############################
# L I N E A R  Q U E N C H  #
#############################

# Define solid atoms. This closely follows ten Wolde  Ruiz-Montero and Frenkel  Faraday Discuss  1996  104  93-110
# Compute components of the per-atom q6 vector
compute q6 all orientorder/atom degrees 1 6 components 6 nnn NULL cutoff 1.3 # compute the Q6 parameter.
                                                                             # Use all neighbours within 1.3 unit cell.

# get number of connections
compute coord_number all coord/atom orientorder q6 0.5

# An atom is solid if it has 8 or more connections (of a possible 14)
variable is_solid atom c_coord_number>=8
group solid dynamic all var is_solid    # Must be dynamic to update
dynamic group solid defined

# do clustering
compute cluster solid cluster/atom 1.3 # Create a cluster where all atoms within are solid and max 1.3 units from another member

# define chunks one chunk per cluster
compute clus_chunks solid chunk/atom c_cluster nchunk every compress yes  # Says which atoms are in which chunk

# count the size of each chunk
compute size_chunks solid property/chunk clus_chunks count


# Find the maximum entry in the vector of chunk sizes
variable max_n equal max(c_size_chunks)


# Thermo style which includes this variable
# thermo_style custom step temp pe vol v_max_n

thermo ${N}  # Print the thermo information every 100 steps
thermo 1000  

# Reset the npt fix at a lower temperature (below freezing)
fix 1  all npt temp  ${temp} ${temp}  0.1  iso  5.68  5.68  0.5  mtk yes tchain  5  pchain  5
fix 1  all npt temp  0.45 ${temp}  0.1  iso  5.68  5.68  0.5  mtk yes tchain  5  pchain  5
fix 1  all npt temp  0.45 0.45  0.1  iso  5.68  5.68  0.5  mtk yes tchain  5  pchain  5

dump dmp2 all dcd ${N} traj.dcd
dump dmp2 all dcd 1000 traj.dcd


compute msd all msd com yes
variable twopoint equal c_msd[4]/6/(step*dt+1.0e-6)
fix 9 all vector 10 c_msd[4]
variable fit equal slope(f_9)/6/(10*dt)
thermo_style custom step temp pe c_msd[4] v_twopoint v_fit v_max_n

fix 1 all npt temp 1.25 ${temp} 0.1 iso 5.68 5.68 0.5 mtk yes tchain 5 pchain 5
fix 1 all npt temp 1.25 0.45 0.1 iso 5.68 5.68 0.5 mtk yes tchain 5 pchain 5
run 2000000 # 5000000  # Run for this many steps
Neighbor list info ...
  update every 1 steps, delay 10 steps, check yes
  max neighbors/atom: 2000, page size: 100000
  master list distance cutoff = 3.8
  ghost atom cutoff = 3.8
  binsize = 1.9, bins = 8 8 8
  4 neighbor lists, perpetual/occasional/extra = 1 3 0
  (1) pair lj/cut, perpetual
      attributes: half, newton on
      pair build: half/bin/atomonly/newton
      stencil: half/bin/3d
      bin: standard
  (2) compute orientorder/atom, occasional
      attributes: full, newton on
      pair build: full/bin/atomonly
      stencil: full/bin/3d
      bin: standard
  (3) compute coord/atom, occasional
      attributes: full, newton on
      pair build: full/bin/atomonly
      stencil: full/bin/3d
      bin: standard
  (4) compute cluster/atom, occasional
      attributes: full, newton on
      pair build: full/bin/atomonly
      stencil: full/bin/3d
      bin: standard
Per MPI rank memory allocation (min/avg/max) = 9.826 | 9.835 | 9.842 Mbytes
Step Temp PotEng c_msd[4] v_twopoint v_fit v_max_n 
   12000    1.2521663   -7.1283009 2.6075797e-30 1.8108192e-32 8.3333333e+20            5 
   13000    1.2356146   -7.1171866   0.45883369 0.0029412415   0.03683475            1 
   14000    1.2420683   -7.1158389   0.85756975 0.0051045817  0.034911479            2 
   15000    1.2433844   -7.0972407    1.2946929 0.0071927381  0.034933483            2 
   16000    1.2473808   -7.1241544    1.7036732 0.0088732977   0.03516035            2 
   17000    1.2438915   -7.0893184    2.1171447   0.01037816  0.035073625            1 
   18000    1.2635111   -7.1598907    2.4992684  0.011570687  0.034596106            1 
   19000    1.2639757   -7.1156326    2.9484444  0.012931773  0.034599478            1 
   20000    1.2536821   -7.1635058    3.3620205  0.014008418  0.034664846            3 
   21000    1.2485771   -7.1129165    3.8063324  0.015104493  0.034686578            3 
   22000    1.2331355   -7.1040738    4.2186021  0.015979553  0.034881852            1 
   23000    1.2328522   -7.1419624    4.6243291  0.016754815  0.034750964            2 
   24000    1.2539354   -7.0767134    5.0532225  0.017545911   0.03477286       -1e+20 
   25000    1.2456918   -7.1614883    5.3569448  0.017856482     0.034589            2 
   26000     1.209813   -7.1441473    5.7107039  0.018303538   0.03434676            1 
   27000    1.2244498   -7.1326943    6.1653978  0.019029005  0.034109301            1 
   28000    1.2643156   -7.1344858    6.5630793  0.019532974  0.034005477            1 
   29000    1.2434415   -7.1503916     6.998768  0.020111402  0.033972343            1 
   30000     1.256951   -7.1945896    7.3332195  0.020370054   0.03392497            1 
   31000    1.2467353   -7.1649274    7.6637772  0.020601551  0.033763872            1 
   32000    1.2349934   -7.1618708    8.1005978  0.021095307  0.033636162            1 
   33000    1.2649687   -7.1480181    8.5014769  0.021468376  0.033535612            2 
   34000    1.2340282   -7.1484118    8.9111457  0.021841043   0.03348506            1 
   35000    1.2416502   -7.2025688    9.2782072  0.022090969  0.033458794            2 
   36000     1.244482   -7.1871549    9.7475641  0.022563805   0.03342742            1 
   37000    1.2328993   -7.1770183    10.130118  0.022815581  0.033403159            2 
   38000    1.2522172   -7.1937636    10.474629  0.022970678  0.033361879            1 
   39000    1.2593623   -7.1930215    10.839005  0.023160266  0.033304086            3 
   40000    1.2660677   -7.1352501    11.189828  0.023312142  0.033226119            2 
   41000    1.2426293   -7.1896982    11.534209  0.023443513  0.033149808            2 
   42000     1.230978   -7.1368009     11.93827  0.023687044  0.033077412            1 
   43000    1.2259821   -7.1828783    12.362057  0.023957474  0.033012752            1 
   44000    1.2290884   -7.1399669    12.699077  0.024051281  0.032951774            1 
   45000    1.2509294   -7.1254053     13.14701  0.024346314  0.032900795            2 
   46000    1.2180278   -7.2124104    13.579384  0.024600333  0.032880235            1 
   47000    1.2182515   -7.1752271     14.12361  0.025041861  0.032895522            1 
   48000    1.2303506   -7.1886292    14.421472  0.025037277  0.032926293            4 
   49000    1.2441858   -7.1190107    14.850386  0.025255758  0.032937834            2 
   50000     1.207964   -7.1698757    15.207158  0.025345263  0.032952426            2 
   51000    1.2454556   -7.1734012    15.592981  0.025478727   0.03295013            2 
   52000    1.2530527   -7.1689951      16.0785  0.025766826  0.032979159            1 
   53000     1.229805   -7.1443263    16.555038  0.026029933  0.033020813            2 
   54000    1.2041752    -7.207841    16.854316  0.026009747  0.033065479            2 
   55000    1.2154878    -7.210904    17.220268  0.026091315  0.033079277            1 
   56000    1.2281963   -7.2086606    17.667939  0.026291576  0.033093226            3 
   57000    1.2344038   -7.1628099    18.135589  0.026514019  0.033116919            1 
   58000    1.2377138   -7.2004828    18.728165  0.026908283  0.033169826            2 
   59000    1.2263345   -7.1693297    19.011799  0.026852824   0.03322185            2 
   60000    1.2445798   -7.1542171    19.542838   0.02714283  0.033270225            2 
   61000    1.2486058   -7.1968107    19.981359  0.027296938  0.033330712            1 
   62000    1.2327569   -7.1380631    20.470125  0.027513609  0.033388323            1 
   63000    1.2306084   -7.1955353    20.815276  0.027533433   0.03345413            1 
   64000    1.2286802    -7.206173    21.297482  0.027731097  0.033503062            3 
   65000    1.2493797   -7.2095577    21.692195  0.027810507  0.033559886            1 
   66000     1.237989   -7.1877434     22.24445  0.028086427   0.03362117            1 
   67000     1.232056   -7.1852228    22.692231  0.028224168  0.033690241            2 
   68000    1.2337906   -7.1613477    22.916568   0.02808403  0.033744521            1 
   69000    1.2267189    -7.208786     23.40342     0.028265  0.033783606            1 
   70000    1.2345556    -7.186191    23.927695  0.028485351   0.03382883            1 
   71000    1.2113218   -7.1620427    24.255344  0.028468713  0.033878184            2 
   72000    1.2654193   -7.1510649    24.701679  0.028589906  0.033909943            2 
   73000    1.2119072    -7.255174     25.03499  0.028578755  0.033947883            1 
   74000    1.2120394   -7.1824763    25.511429  0.028729087  0.033983186            1 
   75000    1.2274375   -7.1855107    25.858245  0.028731383  0.034010384            2 
   76000    1.2276213   -7.2059832    26.174707  0.028700337  0.034028989            1 
   77000    1.2178059   -7.1981572    26.500513  0.028680209  0.034046393            1 
   78000    1.2242913   -7.1582631    27.026389  0.028874347  0.034060748            1 
   79000    1.2243837   -7.1688323     27.53987  0.029050495  0.034078624            1 
   80000     1.226758    -7.193753    27.820841  0.028980043  0.034095295            2 
   81000     1.250955   -7.1774202    27.981099  0.028787139  0.034087926            1 
   82000      1.23799   -7.1961778    28.475356   0.02893837  0.034070469            2 
   83000    1.2151334   -7.1669242    28.839654  0.028955476  0.034055005            1 
   84000    1.2576296   -7.1931372     29.11909  0.028887985  0.034034916            1 
   85000    1.2211219   -7.1954947    29.417705  0.028840887  0.034002038            1 
   86000    1.2480506   -7.1878039    29.998867  0.029068669  0.033986503            2 
   87000    1.2001611    -7.193527    30.299048  0.029022077  0.033966404            3 
   88000    1.2556738   -7.1565131    30.593996  0.028971587  0.033939661            2 
   89000    1.2213985   -7.2214611    30.875539   0.02890968  0.033906114            4 
   90000    1.2042121   -7.2005901    31.302637  0.028983923  0.033872061            1 
   91000    1.2179603    -7.172475    31.668065   0.02900006  0.033834904            1 
   92000    1.2411052   -7.1931045    31.948107  0.028938503  0.033796145            1 
   93000    1.2180342   -7.2011116    32.269423  0.028915253  0.033749907            3 
   94000    1.2033648    -7.191723    32.666888  0.028960007  0.033707978            1 
   95000    1.2319537   -7.1921348    32.953544  0.028906617  0.033668314            3 
   96000    1.1916336   -7.2389419    33.412513  0.029003918  0.033629898            2 
   97000    1.2139114    -7.230361    33.893022  0.029117717   0.03359123            3 
   98000    1.2255073   -7.1962286    34.256704   0.02912985   0.03355586            1 
   99000    1.2010546   -7.1871303    34.666233   0.02918033  0.033517995            1 
  100000    1.2106953    -7.152862    35.000838  0.029167365  0.033485512            2 
  101000    1.2320804   -7.2299503    35.205483  0.029047428  0.033449937            1 
  102000     1.187874   -7.1868142    35.712091  0.029176545  0.033413953            3 
  103000    1.1916749   -7.1639967     36.35793  0.029415801   0.03338732            1 
  104000    1.2377601   -7.2149994    36.643292  0.029361612  0.033366896            1 
  105000     1.244718   -7.2028007    36.958685  0.029332289  0.033349723            1 
  106000    1.1821925   -7.2325877    37.459725  0.029449469  0.033329754            2 
  107000    1.2147437    -7.225149    37.931937  0.029542007  0.033313414            1 
  108000    1.1988603   -7.2189583    38.535279  0.029734011  0.033307904            1 
  109000    1.1975069   -7.2137619    38.699205  0.029586548  0.033296315            2 
  110000    1.1992872   -7.2271651    38.945653  0.029504282   0.03327987            1 
  111000      1.22654    -7.231667    39.365115  0.029553389  0.033265202            2 
  112000    1.2379867   -7.2334348    39.858088  0.029656316  0.033251876            2 
  113000    1.2196319   -7.2000439    40.333933  0.029744788  0.033238876            3 
  114000    1.2300742    -7.205064    40.486252  0.029595213  0.033223566            1 
  115000    1.2077754    -7.239736    40.834498  0.029590216  0.033205725            2 
  116000    1.2220648   -7.2613882    41.226753   0.02961692  0.033187226            2 
  117000    1.1947979   -7.2181624    41.586336  0.029619897  0.033168298            3 
  118000    1.1824108   -7.3032535    41.943385  0.029621034  0.033148259            3 
  119000    1.1810029    -7.230733    42.208031  0.029557445  0.033123951            2 
  120000     1.226225   -7.2270583    42.663661  0.029627542  0.033101103            2 
  121000    1.2312587   -7.2624528    43.014404  0.029624245  0.033078995            1 
  122000     1.204387   -7.2470233    43.403741  0.029647364  0.033056247            2 
  123000    1.1942057   -7.2550495    43.774951  0.029657826  0.033035097            2 
  124000    1.2271086   -7.2784121    43.936778  0.029527405  0.033013104            1 
  125000    1.2115774   -7.2330089    44.538373  0.029692249  0.032987891            2 
  126000    1.1928057   -7.2638508    44.926164  0.029713071  0.032969332            1 
  127000    1.2095505   -7.2135891    45.574956  0.029904827   0.03295491            2 
  128000     1.210541    -7.287564    45.802719  0.029819478  0.032941984            1 
  129000    1.1821134   -7.2076803    46.399846   0.02997406  0.032928843            1 
  130000     1.207376   -7.3251635    46.682183  0.029924476  0.032918228            3 
  131000    1.1977359   -7.2857644    47.068525   0.02994181  0.032911232            2 
  132000    1.1863141   -7.2323914    47.648623  0.030081201  0.032904782            2 
  133000    1.2028719   -7.2282661    47.763673  0.029927113  0.032894556            2 
  134000    1.2194853   -7.1814873    48.538551  0.030185666  0.032887505            1 
  135000    1.1754532   -7.2156617    48.653544  0.030033052  0.032879515            4 
  136000    1.2010146   -7.2578512    48.950419  0.029994129  0.032869381            2 
  137000    1.2420513   -7.2882701    49.097614  0.029864728  0.032858526            3 
  138000     1.208189   -7.2699716    49.733058   0.03003204  0.032853022            3 
  139000    1.1857059   -7.2271686    50.050877  0.030006521  0.032843766            2 
  140000    1.1905877   -7.2143574     50.29455  0.029937232  0.032828717            2 
  141000    1.2068811    -7.272107    50.474934  0.029831521  0.032808452            2 
  142000     1.219637   -7.2550453    50.904802   0.02987371  0.032785348            2 
  143000    1.1990202    -7.199624    51.609926  0.030075715  0.032769805            1 
  144000     1.215868   -7.2654344    51.854126  0.030008175  0.032756305            1 
  145000    1.1961181   -7.2665161    52.147515  0.029969836  0.032742358            1 
  146000    1.2040594   -7.2817522    52.451791  0.029938236  0.032728521            2 
  147000    1.1959619   -7.2402255    53.030819  0.030062822  0.032715828            1 
  148000    1.1994709   -7.2021028     53.55092  0.030152545  0.032706433            3 
  149000    1.1782385   -7.2457256    53.848481    0.0301166  0.032693294            3 
  150000    1.1804022   -7.2485169    53.993027  0.029996126  0.032679718            1 
  151000    1.1751948   -7.2546862    54.266247   0.02994826  0.032661253            2 
  152000    1.2071864   -7.2368496    54.502437  0.029880722  0.032638413            1 
  153000    1.2004976   -7.2792407    54.796586  0.029845635  0.032616111            2 
  154000    1.1858945   -7.2486327    55.236645  0.029889959   0.03259465            2 
  155000    1.1879512   -7.2279037    55.589338  0.029886741  0.032573761            3 
  156000    1.2210252   -7.2438535    55.863759  0.029841751  0.032551413            2 
  157000    1.2091625   -7.2906107    56.355687  0.029912785  0.032529809            1 
  158000      1.18546   -7.2951291    56.571345  0.029837207  0.032510795            1 
  159000    1.1805609   -7.2404865    57.009998  0.029879454  0.032488138            2 
  160000    1.2212988   -7.2892317    57.288338  0.029837676  0.032462612            1 
  161000    1.1790465   -7.2972735    57.504497  0.029764232  0.032435394            1 
  162000    1.1934291     -7.25144    57.605597  0.029632509  0.032407699            1 
  163000     1.190112   -7.2674288    57.877392  0.029589668  0.032377971            1 
  164000    1.1957949   -7.2693092    58.162607   0.02955417  0.032346215            1 
  165000    1.1944197   -7.2626857    58.485667  0.029538216  0.032315486            3 
  166000    1.2294897   -7.3067317    59.014472  0.029625739  0.032284236            1 
  167000    1.1964786    -7.291195    59.306233  0.029593929  0.032253421            1 
  168000    1.1674339   -7.2553227      59.8025  0.029663938  0.032225786            3 
  169000    1.1678302   -7.2261258    60.330641  0.029748837  0.032201517            1 
  170000    1.1799002   -7.2893668     60.49537  0.029654593  0.032176237            1 
  171000    1.1916314   -7.3337302    61.042427  0.029747771  0.032153785            1 
  172000    1.1631944   -7.2447664    61.350796  0.029724223  0.032132605            1 
  173000    1.1691879   -7.2892688    61.749902  0.029744654  0.032109283            2 
  174000    1.1930673   -7.2693476    61.903125   0.02964709  0.032087378            2 
  175000    1.1725254   -7.2602359    62.438227  0.029732489  0.032065935            2 
  176000    1.1787593   -7.2936011    62.870669  0.029768309  0.032045085            1 
  177000    1.1708065   -7.2852793    63.156834  0.029734856  0.032023129            3 
  178000    1.1920161   -7.2600129    63.483677  0.029720823  0.032000278            1 
  179000    1.1875641   -7.2947962    63.663494  0.029638498   0.03198107            2 
  180000    1.1580393   -7.2640363    64.215008  0.029729171  0.031957863            2 
  181000    1.2036984   -7.3198763    63.987066  0.029459975  0.031932458            1 
  182000    1.1893543   -7.3320856    64.386722    0.0294811  0.031905864            1 
  183000    1.1612601   -7.2929536    64.864567  0.029537599  0.031878989            1 
  184000    1.1655141   -7.2499129    65.042982  0.029457872   0.03185338            3 
  185000    1.1879674   -7.2984668    65.437351  0.029476284  0.031827689            3 
  186000    1.1899372   -7.2977411    65.686262  0.029429329  0.031800473            3 
  187000    1.1853437   -7.2993773    66.115057  0.029463038  0.031770554            2 
  188000    1.1885046   -7.2990047    66.557105  0.029502263  0.031742224            1 
  189000    1.1800798   -7.2370518    67.059708  0.029567772  0.031715239            2 
  190000    1.1740807   -7.2710017    67.219154  0.029482085   0.03168914            3 
  191000    1.1586118   -7.3040963    67.629781  0.029506885  0.031663561            2 
  192000    1.1925732   -7.3095947    67.921019  0.029479609  0.031638945            3 
  193000    1.1932279   -7.3173524    68.278009  0.029481005  0.031615946            5 
  194000    1.1685868   -7.3212907    68.727302  0.029522037   0.03159426            2 
  195000    1.1987485    -7.289795    68.876113  0.029434236  0.031571645            1 
  196000    1.1586629   -7.3511963    69.297153  0.029463075  0.031546942            2 
  197000    1.1619607   -7.3001805    69.712654  0.029489278  0.031522673            1 
  198000    1.1907759   -7.3344371    69.689359  0.029330538  0.031498795            2 
  199000    1.1819857   -7.3349417    70.018378  0.029320929  0.031473899            2 
  200000    1.1987931   -7.2824077    70.609374  0.029420572   0.03145015            4 
  201000    1.1795262   -7.3157175    70.635932  0.029285212  0.031424398            3 
  202000    1.2032657   -7.3099543    71.051479  0.029311666  0.031398515            1 
  203000    1.1672718   -7.3300634    71.041356  0.029163118  0.031369926            2 
  204000    1.1795535   -7.3050021    71.564636   0.02923392   0.03134069            1 
  205000    1.1810824   -7.3140915    71.891432  0.029224159  0.031313192            2 
  206000    1.1908976   -7.3275657    71.925975  0.029096268   0.03128328            2 
  207000    1.1776516   -7.3557047    72.252633  0.029087211  0.031254084            2 
  208000    1.1628968   -7.3343791    72.666949  0.029113361  0.031225765            3 
  209000    1.1658387    -7.344441    72.767538   0.02901417  0.031194563            2 
  210000    1.1975968   -7.3551443    73.305433  0.029089457  0.031163148            5 
  211000    1.1874857   -7.3446944    73.377384  0.028980009  0.031134117            2 
  212000    1.1670999   -7.3775656    73.640764  0.028946841  0.031103535            1 
  213000    1.1675889   -7.3155461    74.217249  0.029036482  0.031071113            2 
  214000    1.1795063   -7.3237988    74.477168  0.029002012  0.031040966            2 
  215000    1.1518775   -7.4111419    74.829718  0.029003766  0.031010496            2 
  216000    1.1774094   -7.3280592    75.309679   0.02905466  0.030981004            1 
  217000    1.1802705   -7.3382199      75.6546  0.029053226  0.030954339            2 
  218000     1.167418   -7.3177817    76.012381  0.029056721  0.030927873            2 
  219000    1.1478052   -7.3393896    75.750044  0.028824217  0.030900112            3 
  220000    1.1542981   -7.3407336    76.249465  0.028882373  0.030870273            1 
  221000    1.1634742   -7.3032914    76.805777  0.028961454  0.030842086            1 
  222000    1.1553731   -7.3353424    76.842367  0.028844732  0.030814695            1 
  223000    1.1733661   -7.3279757    77.253136  0.028868885  0.030786756            2 
  224000    1.1566747   -7.3259965    77.599272  0.028868777  0.030757949            3 
  225000    1.1547061   -7.3437741    77.782799  0.028808444  0.030729581            1 
  226000    1.1722587   -7.3449359     77.95273  0.028743632  0.030701104            1 
  227000    1.1649986   -7.3107139    78.543314  0.028833815  0.030672832            1 
  228000    1.1947645    -7.320633     78.76687  0.028789061    0.0306436            2 
  229000    1.1679447   -7.3640045    79.097115  0.028783521  0.030615428            2 
  230000     1.160721   -7.3539788    79.285991  0.028726808  0.030587786            2 
  231000    1.1543295   -7.3391185    79.646683   0.02873257   0.03056063            2 
  232000    1.1513356   -7.3325461    80.403131  0.028880435  0.030535145            1 
  233000    1.1468707   -7.3492964    80.429053  0.028765756   0.03050817            3 
  234000    1.1597499   -7.3754859    80.564502  0.028691062  0.030480567            2 
  235000    1.1836089   -7.3816177    80.855355  0.028672112  0.030452307            2 
  236000    1.1713647   -7.3643903    81.293165  0.028705214  0.030424154            2 
  237000    1.1859454   -7.3444102    81.625533  0.028700961  0.030397471            4 
  238000     1.146665   -7.3565899     81.85634  0.028661183  0.030372545            7 
  239000    1.1491315   -7.3058057    82.221677  0.028668646  0.030346525            1 
  240000     1.153317   -7.3543134    82.058368  0.028492489  0.030317594            3 
  241000    1.1782265   -7.3687981    82.584288  0.028556116  0.030289033            2 
  242000    1.1398858   -7.3722396    82.703653  0.028479219  0.030260563            1 
  243000    1.1671662   -7.3412018    83.152662  0.028516002  0.030232979            1 
  244000     1.139196   -7.3155312    83.661227  0.028572823  0.030205569            3 
  245000     1.166551   -7.3306118    83.752104   0.02848711  0.030177661            4 
  246000    1.1723629   -7.3285452    84.022991  0.028463073  0.030149716            2 
  247000    1.1662824   -7.3227005    84.444313  0.028489984  0.030121383            3 
  248000     1.126011   -7.3852293    84.381304  0.028353933  0.030093624            1 
  249000    1.1526458    -7.334418     84.84935  0.028396704  0.030065434            2 
  250000    1.1697609   -7.3712077     85.34947  0.028449823  0.030038254            1 
  251000    1.1690358   -7.3927249    85.572551  0.028410542  0.030010777            1 
  252000    1.1513993   -7.3820187      85.6392  0.028319841  0.029983123            2 
  253000    1.1658216   -7.3345009    85.838647  0.028273599  0.029956264            1 
  254000    1.1536493   -7.4391043    86.068278  0.028237624   0.02992879            1 
  255000    1.1634083   -7.3538768     86.56997   0.02829084   0.02990111            2 
  256000    1.1493841   -7.3508712     86.88769  0.028283753  0.029873547            1 
  257000    1.1639591   -7.3939329    87.064044  0.028230883  0.029846446            4 
  258000    1.1487955   -7.3845038    87.172915  0.028156626  0.029818921            3 
  259000    1.1632511   -7.3592278    87.588172  0.028181522  0.029791485            3 
  260000     1.162993   -7.3817623    87.619575  0.028083197  0.029762985            1 
  261000    1.1653729   -7.3201379    88.222327  0.028168048  0.029733838            2 
  262000    1.1482435   -7.3227387    88.229224   0.02806273  0.029705751            2 
  263000    1.1566316   -7.3877794    88.998429  0.028199756  0.029677088            1 
  264000    1.1463834   -7.3802228    88.918268  0.028067635  0.029650073            6 
  265000    1.1514289   -7.4321652    89.169764  0.028040806  0.029621765            2 
  266000    1.1459504   -7.3856594    89.604652  0.028071633  0.029594705            2 
  267000    1.1530652   -7.3655901    90.197258  0.028151454   0.02956791            1 
  268000    1.1046724   -7.4147821    90.141846  0.028029181  0.029541239            1 
  269000    1.1428052   -7.3726315    90.632406  0.028076953  0.029513651            3 
  270000    1.1376081    -7.387003     90.73117  0.028003447  0.029486645            1 
  271000    1.1396584   -7.3927933    90.876422  0.027944779  0.029459032            1 
  272000       1.1427   -7.3874066    91.122699  0.027917494  0.029430864            2 
  273000    1.1491226   -7.3816575    91.275324  0.027861821  0.029402561            1 
  274000    1.1269203   -7.3886512    91.539324  0.027840427  0.029373648            2 
  275000    1.1547088    -7.414195    91.445082  0.027710631  0.029345204            2 
  276000    1.1677824    -7.393474    92.501014   0.02792905  0.029317199            2 
  277000    1.1518722     -7.38275     92.44788  0.027812238  0.029290598            5 
  278000     1.159387   -7.3792283    92.771255  0.027809129  0.029263586            2 
  279000     1.149329   -7.3852536     92.89832  0.027747407  0.029235281            2 
  280000    1.1369907   -7.3412636    93.741059  0.027899125  0.029209259            2 
  281000    1.1343922   -7.3897656    93.625955  0.027765704  0.029184033            4 
  282000    1.1267156   -7.4235097    94.064528  0.027796846    0.0291583            1 
  283000    1.1548446   -7.3892928    94.412163   0.02780099  0.029132397            3 
  284000     1.143707   -7.3437468    94.844252  0.027829886  0.029107664            2 
  285000    1.1592527   -7.3806535    95.420112  0.027900617  0.029083133            1 
  286000    1.1632879   -7.3774805    95.637847  0.027866506  0.029059846            1 
  287000    1.1431035   -7.3670067    95.905598  0.027847154  0.029036327            1 
  288000    1.1291744   -7.4246367    95.960202  0.027766262  0.029012048            3 
  289000     1.127263    -7.367613    96.181575  0.027734018  0.028987316            1 
  290000    1.1675843   -7.4347771    96.076347  0.027608146  0.028961993            1 
  291000    1.1279865   -7.3989286    96.411696  0.027609306  0.028935963            1 
  292000    1.1743085    -7.371136    97.280792  0.027762783  0.028911862            1 
  293000    1.1515423   -7.3379004    97.771766   0.02780767  0.028888862            2 
  294000    1.1167325   -7.3959219    97.755311  0.027708421  0.028865541            2 
  295000    1.1418993   -7.4077834     97.82844  0.027635153  0.028842297            1 
  296000    1.1354865    -7.426562    98.279788  0.027668859  0.028819261            2 
  297000    1.1600945   -7.4135222    98.760729  0.027710642  0.028796838            3 
  298000    1.1547598   -7.4224139    98.977664  0.027678318  0.028775317            1 
  299000    1.1256646   -7.4127451    99.456017  0.027719068  0.028753902            1 
  300000    1.1357864   -7.4310438    99.519054  0.027644182  0.028731903            3 
  301000    1.1325332    -7.390614    99.997059  0.027684679  0.028710624            3 
  302000    1.1118742   -7.3942771    100.33885  0.027687321  0.028690864            2 
  303000     1.117496   -7.4173071    100.78772  0.027719395  0.028670247            3 
  304000    1.1029582    -7.443297    100.72987  0.027612354  0.028650486            1 
  305000    1.1314031   -7.4096206    101.73801  0.027797271  0.028631297            1 
  306000    1.1301992   -7.3921132    101.72128  0.027701875  0.028613157            1 
  307000    1.1512205   -7.3624418    102.25414   0.02775628  0.028594438            2 
  308000    1.1276497   -7.4051707    102.32894  0.027686401  0.028575417            3 
  309000    1.1033958    -7.404997    102.84408  0.027735728   0.02855686            1 
  310000    1.1334542   -7.4091304    103.00872  0.027690517  0.028539485            3 
  311000    1.1320622    -7.454546     103.5194  0.027738318   0.02852326            2 
  312000    1.1360744   -7.4203028    103.79928  0.027724166  0.028507175            5 
  313000    1.1220387   -7.4169501    103.97696  0.027682896  0.028489768            1 
  314000    1.1244884   -7.4076881    104.22752  0.027661232  0.028471782            3 
  315000    1.1366546   -7.4728499     104.0421  0.027524366  0.028454906            1 
  316000    1.1260925   -7.4568868    104.15992  0.027468334  0.028436367            2 
  317000    1.1088965   -7.3914107    104.93995  0.027586738  0.028418464            1 
  318000    1.1265085   -7.4090435      105.406  0.027622118  0.028400492            1 
  319000    1.1583091   -7.4583869    105.42013  0.027539219  0.028382882            2 
  320000    1.1347389   -7.4542423    105.65321  0.027513856  0.028364181            3 
  321000    1.1241766   -7.4408339    105.85431  0.027480351  0.028345754            1 
  322000    1.1064517   -7.4444211    105.94797  0.027419246  0.028327209            1 
  323000    1.1151432   -7.4035143    106.73311  0.027536922  0.028308771            3 
  324000    1.1199878   -7.4072252    106.71338  0.027446857  0.028290529            1 
  325000    1.1103827   -7.4361944    106.96988  0.027428175  0.028271012            2 
  326000    1.1054848   -7.4183329    107.30597  0.027429952  0.028251734            1 
  327000    1.1195989   -7.4594298    107.17459  0.027312586   0.02823203            4 
  328000    1.0932886   -7.4380159    107.47698  0.027306144  0.028211143            1 
  329000    1.1036298   -7.4381303     107.4872  0.027225733  0.028189846            1 
  330000     1.120796    -7.434386     107.8459  0.027233813  0.028168964            5 
  331000    1.1333246    -7.495898    107.57122  0.027082382  0.028147827            2 
  332000    1.1258506    -7.434267    108.41437  0.027212443  0.028125988            1 
  333000    1.1322888   -7.4785423    108.51023  0.027154712  0.028104392            2 
  334000    1.1325764   -7.4660792    108.92654   0.02717728  0.028082987            2 
  335000    1.1140489   -7.4706748    109.04127  0.027124694  0.028062219            1 
  336000    1.1340642   -7.4714741    109.37299  0.027126238  0.028042631            1 
  337000    1.1242296   -7.4748529    110.08611  0.027222085  0.028023385            1 
  338000    1.1461989   -7.4631828    110.15644  0.027158887  0.028004126            2 
  339000    1.1151304   -7.4792156     110.3153  0.027117821  0.027985034            1 
  340000    1.1193796   -7.4606618    110.63498  0.027116416  0.027965107            1 
  341000     1.119029   -7.4066617     110.7191  0.027057454  0.027945719            1 
  342000     1.117963    -7.459434    111.20498  0.027096731  0.027925714            3 
  343000    1.1243174   -7.4631033    111.07774  0.026986816   0.02790519            3 
  344000      1.14905   -7.4758815     111.4918  0.027008672  0.027884856            4 
  345000    1.0833296     -7.48065    111.39543  0.026907108  0.027864028            3 
  346000    1.0962326   -7.4736838    112.13774  0.027008127  0.027842925            1 
  347000    1.1055206   -7.4496044    112.14176  0.026931259  0.027821587            3 
  348000    1.0955589   -7.4736065     112.2852  0.026888218  0.027801195            1 
  349000    1.1134641    -7.461663     112.7262  0.026916476  0.027780304            4 
  350000    1.1024327   -7.4464151    113.02418   0.02691052  0.027759887            2 
  351000    1.1016641   -7.5028035    113.19914  0.026875388  0.027739455            2 
  352000     1.130819   -7.4437036    113.33788  0.026831884  0.027718883            2 
  353000    1.1125938    -7.427901    113.84904  0.026876545  0.027699096            2 
  354000    1.1123197   -7.4691769    114.30628  0.026908259  0.027679982            5 
  355000    1.1214741   -7.4866384    114.19076  0.026805343  0.027660586            3 
  356000    1.1568782    -7.443947    114.37344  0.026772808  0.027640406            2 
  357000    1.1329109   -7.4073368    114.98833  0.026841346  0.027620826            1 
  358000    1.1114748   -7.4627478    115.13377  0.026800226  0.027601511            2 
  359000    1.1128268   -7.5014821    115.23224   0.02674843  0.027581713            1 
  360000    1.0909061   -7.4618221    115.69826  0.026782005  0.027562623            3 
  361000    1.1342371   -7.4518216    115.83115  0.026738492  0.027543413            1 
  362000    1.1383845   -7.4370564    116.58578  0.026838348   0.02752457            1 
  363000    1.1054225   -7.4763287      116.805  0.026814739  0.027505555            4 
  364000    1.1063988   -7.4843755    116.94268  0.026772591  0.027486831            4 
  365000    1.0960115   -7.4721075    117.29218  0.026779037  0.027468381            2 
  366000    1.1023796   -7.4790826      116.845  0.026604054  0.027449029            1 
  367000    1.1048803    -7.507772     117.0173  0.026570686  0.027428829            1 
  368000    1.0966726   -7.4609539    117.55728   0.02662076  0.027407649            1 
  369000    1.1021181   -7.5027654    117.74316  0.026590597  0.027387311            3 
  370000    1.1237706   -7.4518352    118.18234  0.026617643  0.027367005            1 
  371000    1.1203743   -7.4614304    118.13405  0.026535053  0.027345861            1 
  372000    1.1130056   -7.4922492    118.67894  0.026585784  0.027325611            1 
  373000    1.0990737   -7.4788107    118.90803   0.02656569  0.027306234            2 
  374000    1.0655763   -7.4868219    119.43293  0.026611615  0.027286679            3 
  375000    1.0919693   -7.4871966    119.51743  0.026559429  0.027266979            1 
  376000     1.080444   -7.5016501    119.53041  0.026491669   0.02724673            2 
  377000    1.1119428   -7.4917944    119.65522  0.026448987  0.027227027            1 
  378000    1.1020929   -7.4505583    119.90341  0.026433732  0.027207935            1 
  379000    1.1296481   -7.5363947    119.52264  0.026280263  0.027187327            2 
  380000    1.0869795   -7.4941005    120.39757  0.026402976  0.027166532            4 
  381000    1.1066088   -7.4800732    120.96743  0.026458319  0.027146518            5 
  382000    1.1150995   -7.5025122    121.28181  0.026457638  0.027127046            1 
  383000    1.1085223   -7.4797441    121.30496  0.026393594  0.027107508            2 
  384000     1.114741   -7.4806155    121.39083  0.026343496  0.027087515            3 
  385000    1.0925069   -7.5125828    121.92571  0.026390847  0.027067799            2 
  386000    1.1280942   -7.4729212     121.6117  0.026254685  0.027047683            1 
  387000    1.0844783   -7.4943658    122.58708  0.026396873  0.027028405            2 
  388000     1.134773   -7.5139866    122.57678  0.026326627  0.027009127            1 
  389000    1.1087988   -7.4990747    122.34659  0.026209638  0.026989417            2 
  390000    1.0829394   -7.5233809    122.88949  0.026258439  0.026969955            3 
  391000    1.0979253   -7.5171269    122.80157  0.026172543  0.026949812            3 
  392000    1.0673856    -7.516313     123.1002  0.026169259  0.026929801            2 
  393000    1.1064619   -7.5058061     123.7746  0.026245675  0.026910121            2 
  394000    1.1164898   -7.5282486    124.23086  0.026275562  0.026891017            1 
  395000    1.0853934   -7.5194421    124.03919  0.026168605  0.026872074            1 
  396000    1.1033346   -7.4930735    124.58697  0.026217796  0.026853266            2 
  397000    1.1269536   -7.5379012    124.41639   0.02611595  0.026833754            1 
  398000    1.0833424   -7.4999295    124.66434  0.026102249  0.026814061            3 
  399000    1.0948488   -7.5575763    124.90749  0.026087613  0.026794527            1 
  400000     1.127146   -7.5260432    125.55815  0.026157948  0.026775329            1 
  401000    1.0709195   -7.5144047    125.91056  0.026165952  0.026756602            3 
  402000    1.1085174   -7.5093704    126.29362  0.026180269  0.026738696            3 
  403000    1.0935184   -7.5401061    125.77063  0.026007161  0.026720442            2 
  404000    1.0884172   -7.4610792    127.12148  0.026221428  0.026701716            2 
  405000    1.0811005   -7.4689101    127.24427  0.026181949  0.026683746            4 
  406000    1.0897014   -7.5065292    126.81814  0.026029995  0.026665449            2 
  407000    1.1225731   -7.5512626    127.17196  0.026038484   0.02664661            2 
  408000    1.0768777   -7.5307673    126.94749  0.025928818   0.02662773            5 
  409000    1.0764808   -7.5061117    127.44218  0.025966213   0.02660861            3 
  410000    1.0807882   -7.5081601     127.8084  0.025977316  0.026589261            2 
  411000    1.0714563   -7.5068784    128.25602  0.026004869  0.026570427            1 
  412000    1.0698629   -7.5456807    128.06872  0.025903868  0.026551223            2 
  413000     1.069887   -7.5148695    128.75966  0.025980561  0.026531979            1 
  414000    1.0842321   -7.5431331    128.17116  0.025799348  0.026511815            4 
  415000    1.1034761   -7.5277662    128.85765   0.02587503  0.026491855            5 
  416000    1.0825747   -7.5062397    128.90866  0.025823048   0.02647189            3 
  417000    1.1156316   -7.5049819    129.13715  0.025806785  0.026452048            1 
  418000    1.0790326   -7.5250727    129.25335  0.025768212  0.026431971            1 
  419000    1.0875058   -7.4734499    129.94607  0.025844485  0.026412306            1 
  420000    1.0845297   -7.5477142      129.856   0.02576508  0.026392126            2 
  421000    1.0738753    -7.551526    129.63355  0.025659848  0.026372197            2 
  422000    1.0898288   -7.5349631    130.17827  0.025706609  0.026352212            3 
  423000    1.0862579   -7.5228511    130.55106  0.025719279   0.02633242            1 
  424000    1.0653644    -7.494771    130.69516  0.025686941  0.026312192            2 
  425000    1.0706082   -7.5441482    130.79147  0.025645387  0.026292209            2 
  426000    1.0930669   -7.4957222     131.1028  0.025646087  0.026272527            3 
  427000    1.0989829   -7.5280606    131.61329  0.025685654  0.026253091            3 
  428000    1.0800913   -7.4832558    131.67849  0.025638336  0.026234202            1 
  429000    1.0764182   -7.5158421    132.22265  0.025684275   0.02621483            2 
  430000    1.0960675   -7.5129461    131.95519  0.025572712  0.026195273            1 
  431000    1.0791272    -7.550907    132.25267  0.025570895  0.026175633            2 
  432000    1.0670228   -7.5469174    132.21601  0.025504631   0.02615555            1 
  433000    1.0822757    -7.584149    132.56937  0.025513735  0.026135823            2 
  434000    1.0974287   -7.5800384    132.95432  0.025528864  0.026115991            1 
  435000    1.0890893   -7.5229968    132.93878  0.025467199  0.026096635            1 
  436000    1.0762467   -7.5348196    133.27467  0.025472988  0.026077878            2 
  437000    1.0974161   -7.5934027    133.74059  0.025503546   0.02605853            2 
  438000    1.0663728   -7.5112103    134.28709  0.025549294  0.026039859            1 
  439000    1.0660404   -7.5138852    134.47126  0.025526055  0.026021488            1 
  440000    1.1008481   -7.5186547    134.80575  0.025531393   0.02600302            3 
  441000    1.0790946   -7.5636924     134.9516  0.025501058  0.025984625            1 
  442000    1.0839394   -7.5435426    134.88184   0.02543021  0.025966276            2 
  443000    1.0766995   -7.5590533     134.9999  0.025395015  0.025948041            2 
  444000     1.118236   -7.5576565    135.70898  0.025470905  0.025929766            1 
  445000    1.0610478   -7.5614049    135.72609   0.02541687  0.025911821            1 
  446000    1.0860004   -7.5645332    135.61475  0.025339079  0.025893466            4 
  447000    1.0694851   -7.5429708    136.23445  0.025397922  0.025875149            2 
  448000    1.0733984   -7.5569073    135.99993  0.025297605  0.025856946            2 
  449000    1.0749974   -7.5479059     136.4076  0.025316926  0.025838123            3 
  450000    1.0925599   -7.5426304    136.46425  0.025271158  0.025819561            1 
  451000    1.0666461   -7.5784491    137.06359  0.025325866  0.025800697            2 
  452000     1.089955   -7.5232133    136.90219  0.025240078  0.025781912            2 
  453000    1.0660501   -7.5772127    137.38679  0.025273508  0.025762734            3 
  454000    1.0943621   -7.5630881     137.1756  0.025179074  0.025743125            1 
  455000    1.0843994   -7.5368885    137.37009  0.025159358  0.025724194            2 
  456000    1.0925146   -7.5846301    137.58756  0.025143926   0.02570492            1 
  457000    1.0563616   -7.5613977    137.85091  0.025136928  0.025685831            2 
  458000    1.0710193    -7.560033    138.33922  0.025170892  0.025667097            2 
  459000     1.085092   -7.5626628    138.38231  0.025123876  0.025648097            3 
  460000    1.0527262    -7.589472    138.72369  0.025131104  0.025629362            1 
  461000    1.0871152   -7.5464057    139.41438  0.025201442  0.025611046            2 
  462000    1.0689948   -7.5500136     139.0884  0.025088094  0.025592859            3 
  463000    1.0563982   -7.5561323    139.46657  0.025101974  0.025574623            3 
  464000    1.0771436    -7.525238    140.18072  0.025176135  0.025556836            1 
  465000    1.0771811   -7.5181868    140.26214  0.025136585  0.025538983            3 
  466000    1.0795953   -7.5741282    140.31295  0.025091729  0.025520893            1 
  467000    1.0746994   -7.5737295     140.3482   0.02504429  0.025503306            1 
  468000    1.0838653   -7.5504429    141.32217  0.025164204  0.025486062            2 
  469000    1.0602175   -7.5996599       140.64  0.024989338  0.025468711            1 
  470000    1.0817059   -7.5794014     141.9543  0.025169201  0.025451661            1 
  471000    1.0583997   -7.5722675    141.69111  0.025069199  0.025434941            1 
  472000    1.0685032   -7.5763205     141.6668  0.025011794  0.025417557            3 
  473000    1.0680364   -7.6140348     141.4238  0.024916103  0.025400368            2 
  474000    1.0746122   -7.6245855    142.36185  0.025028455  0.025382969            2 
  475000    1.0742422   -7.6191203    142.51092  0.025001915  0.025365599            2 
  476000    1.0418361   -7.6090407    142.53765   0.02495407  0.025348187            2 
  477000    1.0715691   -7.5575676    143.48067  0.025066505  0.025331385            4 
  478000    1.0655998   -7.5901399    143.05638  0.024940093  0.025314557            4 
  479000    1.0536772   -7.6034947    144.05327  0.025061459  0.025298357            3 
  480000    1.0760277   -7.6157356      143.552  0.024922222  0.025281673            6 
  481000    1.0423414   -7.5869838    143.99388  0.024946965  0.025265286            2 
  482000    1.0570083    -7.567808    144.66589  0.025011392  0.025249137            2 
  483000     1.081462   -7.6133799    144.27116  0.024891504  0.025232876            3 
  484000    1.0696386   -7.5419136    145.02224  0.024969393  0.025216963            1 
  485000    1.0371281   -7.6049252     145.0943  0.024930292  0.025200964            2 
  486000     1.048349   -7.6114284    144.94438  0.024853288   0.02518451            3 
  487000    1.0731829   -7.5567447    145.45765  0.024890084  0.025168228            3 
  488000    1.0543313     -7.60691    145.66109  0.024873821  0.025152147            4 
  489000    1.0547318   -7.6106571     145.6976  0.024829176  0.025136064            1 
  490000    1.0393086   -7.5980534    146.25306  0.024872969  0.025119884            5 
  491000    1.0435227   -7.5689695    146.87988  0.024928697  0.025103713            2 
  492000    1.0589457   -7.6140068    146.65501   0.02483994  0.025088161            3 
  493000    1.0632183   -7.5853138    146.86245  0.024824619  0.025072252            1 
  494000    1.0566291   -7.5721586    147.17815  0.024827623  0.025056905            5 
  495000    1.0525028   -7.5936451    147.77317  0.024877638  0.025041614            6 
  496000    1.0772119    -7.583282    148.02985  0.024870606  0.025026917            1 
  497000    1.0632084   -7.6208696    148.09744  0.024831899  0.025011996            2 
  498000    1.0471984   -7.6337168    147.99346  0.024764635  0.024997307            1 
  499000    1.0548986   -7.6112067    148.14542  0.024740383  0.024982283            3 
  500000    1.0437479   -7.5879609    148.44621  0.024741035   0.02496727            2 
  501000    1.0468501   -7.6412365    148.75469  0.024742963  0.024952399            2 
  502000    1.0587943   -7.6007537     148.7699  0.024696199  0.024936818            4 
  503000    1.0627932   -7.6357945    148.64364  0.024626182  0.024921133            2 
  504000    1.0595599   -7.6482849    148.57389  0.024565788  0.024904928            1 
  505000    1.0600217   -7.6006477    149.42947  0.024658328  0.024888684            3 
  506000      1.04501   -7.6513494     149.5254  0.024625395   0.02487225            3 
  507000    1.0532251   -7.5834039    149.35576  0.024548941  0.024856077            1 
  508000    1.0695714   -7.6361259    149.59456   0.02453979  0.024840343            3 
  509000     1.057067   -7.6276094    149.82663  0.024529572  0.024823946            1 
  510000    1.0558135   -7.6129374    150.39141   0.02457376  0.024807544            1 
  511000    1.0655989   -7.6110341    150.25808  0.024503927  0.024791692            2 
  512000    1.0504285   -7.6581156    150.65244  0.024520254  0.024775207            2 
  513000    1.0345313   -7.6148292    150.93416   0.02451822  0.024759042            1 
  514000    1.0281479   -7.6690939    150.85152   0.02445712  0.024742842            2 
  515000    1.0321931   -7.6336181    150.16142  0.024297965  0.024725728            4 
  516000    1.0402105   -7.6464475    151.04746  0.024393969  0.024708296            2 
  517000    1.0554444   -7.6511254    150.66889  0.024285766  0.024690949            1 
  518000    1.0347073   -7.6174071    151.33998  0.024346844  0.024673204            2 
  519000    1.0079669   -7.6523943      151.222  0.024280989  0.024655671            2 
  520000    1.0235878   -7.6197166    151.46467  0.024273184  0.024638192            3 
  521000    1.0413934   -7.6507809    151.39179  0.024214937    0.0246209            2 
  522000    1.0501047   -7.6597113    151.65641  0.024210793  0.024603512            1 
  523000    1.0643886   -7.6376181    152.31591  0.024269585  0.024586324            3 
  524000    1.0410982   -7.6149532     152.7038  0.024284956  0.024569329            4 
  525000    1.0457291   -7.6643998    152.97269  0.024281379  0.024552522            5 
  526000    1.0420983    -7.613887    152.85378  0.024216379   0.02453557            1 
  527000    1.0562165   -7.6190798    152.44519  0.024105817  0.024518499            1 
  528000     1.039673    -7.667987    153.25121  0.024187376  0.024501929            1 
  529000    1.0344907   -7.6337665    153.68645  0.024210216  0.024485231            4 
  530000    1.0394894   -7.5961085    154.10451  0.024230269  0.024468731            1 
  531000    1.0410135   -7.6127631    154.41696  0.024233672  0.024452495            3 
  532000    1.0252315   -7.6292315    154.64575  0.024223958  0.024436401            1 
  533000    1.0512132   -7.6526273    154.42406  0.024143849  0.024419982            3 
  534000    1.0388038    -7.659003    154.80288  0.024157753  0.024403901            1 
  535000    1.0529676   -7.6383383    155.26187  0.024184091  0.024387938            3 
  536000    1.0341666   -7.6473623    155.32306  0.024148486  0.024371981            1 
  537000    1.0340893   -7.6585602    155.34768  0.024107337  0.024355884            1 
  538000    1.0346776   -7.6455688    155.62292  0.024105161  0.024340373            4 
  539000    1.0154647   -7.6367247    156.42163  0.024183925  0.024324642            3 
  540000    1.0242708   -7.6350819    156.36404  0.024130253  0.024309254            2 
  541000     1.010319   -7.6272705    156.52347  0.024110208  0.024293769            2 
  542000    1.0418694    -7.674521    157.04153  0.024145376  0.024278435            2 
  543000    1.0327045   -7.6528337     157.0705  0.024105355  0.024263034            3 
  544000    1.0281691   -7.6703594    157.26584  0.024090968  0.024247417            3 
  545000    1.0314102   -7.6386035    157.35798  0.024060854  0.024232243            2 
  546000    1.0430126   -7.6354175    158.03214   0.02411968  0.024217003            2 
  547000    1.0495366   -7.6637621     157.9411  0.024061715  0.024201755            2 
  548000    1.0295186   -7.6686133    157.70174  0.023981409  0.024186302            2 
  549000    1.0620239   -7.6751594    158.25935  0.024022367  0.024170796            4 
  550000    1.0303906    -7.685043    158.48345  0.024012643  0.024155436            1 
  551000     1.060061   -7.6925265    158.57089  0.023982289  0.024139945            3 
  552000    1.0311407   -7.6959409    158.47004  0.023923618  0.024124245            2 
  553000    1.0364095   -7.6622779    158.97428  0.023956341  0.024108311            2 
  554000    1.0249916   -7.6745194    158.69138  0.023870545  0.024092552            3 
  555000    1.0350036   -7.6965014    159.08164  0.023886132  0.024076826            2 
  556000    1.0122702   -7.6436627    159.82476   0.02395455   0.02406138            6 
  557000    1.0118299   -7.6722998    159.48096  0.023860107  0.024046259            1 
  558000    1.0293088   -7.6508546    160.03105    0.0238995  0.024031039            2 
  559000     1.034554   -7.7018511    159.68262  0.023804803   0.02401495            1 
  560000    1.0185493   -7.6942892    159.94742    0.0238017  0.023999165            2 
  561000    1.0260715   -7.6905977    160.53344  0.023846322  0.023983296            1 
  562000    1.0568857   -7.7091472    160.44836  0.023791275  0.023967857            2 
  563000    1.0233918   -7.6769838    160.55871  0.023765351  0.023952137            1 
  564000    1.0334513   -7.6789182    161.04944  0.023795721  0.023936253            6 
  565000    1.0254488   -7.7078851    161.17182  0.023771655  0.023920469            2 
  566000     1.043956   -7.6825817    161.01726    0.0237069  0.023904835            2 
  567000    1.0218015    -7.704631    161.27287  0.023702655  0.023889094            3 
  568000    1.0199602   -7.6951802    161.26634  0.023659967  0.023873486            1 
  569000    1.0210713   -7.6796846    161.60932  0.023668617  0.023857762            4 
  570000    1.0584571   -7.6708816    161.88945  0.023668049  0.023841763            1 
  571000    1.0195322    -7.655088    161.81861   0.02361626  0.023825967            2 
  572000    1.0294799    -7.704868     161.5051  0.023529298   0.02380982            4 
  573000    1.0240549   -7.6805647    162.63943  0.023653203  0.023793535            5 
  574000    1.0237647   -7.7137886    162.42755  0.023581235  0.023777745            1 
  575000    1.0107241   -7.7342088    162.13813  0.023498279  0.023761435            4 
  576000    1.0058049   -7.7208945    162.61051  0.023525826  0.023745227            3 
  577000    1.0427999    -7.653546    163.24065  0.023576062  0.023729305            1 
  578000    1.0290192   -7.6861194    163.06783  0.023510357   0.02371339            1 
  579000    1.0380446   -7.7326254    163.03805  0.023465465  0.023697029            8 
  580000    1.0139733   -7.7030136    163.20654  0.023449215  0.023680983            2 
  581000    1.0261623   -7.6804608    163.55353  0.023458625  0.023664931            2 
  582000    1.0089134   -7.6720077    163.60268  0.023425356  0.023648757            2 
  583000    1.0232115   -7.6718569    163.19584  0.023327021  0.023632482            2 
  584000    1.0019301   -7.7003172    163.84258  0.023379363  0.023616094            4 
  585000    1.0180921   -7.6903575     163.8412  0.023339202  0.023599595            1 
  586000    1.0372832   -7.6986817    164.53304  0.023397759  0.023583341            3 
  587000    0.9970036   -7.6924275    164.44623  0.023345575  0.023566879            3 
  588000   0.98960661   -7.6999214    164.54006  0.023319169  0.023550586            1 
  589000    1.0135949   -7.6754397    164.88216  0.023327979  0.023534155            7 
  590000    1.0257163   -7.7317032    164.75139  0.023269971   0.02351796            1 
  591000    1.0326152   -7.6997285    164.94423  0.023257788  0.023501737            3 
  592000   0.99526089   -7.6898188    165.61002  0.023312221   0.02348558            1 
  593000    1.0018468   -7.7416232    165.02159  0.023190218  0.023469106            3 
  594000    1.0251701   -7.7398727    165.67321  0.023242594  0.023452683            2 
  595000    1.0104805   -7.6617402    166.25338  0.023284787  0.023436341            3 
  596000    1.0270403   -7.7080266    165.42341  0.023129671  0.023420017            1 
  597000    1.0100418   -7.6676241    166.04313  0.023177433   0.02340358            1 
  598000    1.0295864   -7.7500264    165.72632  0.023094526   0.02338677            3 
  599000    1.0341136   -7.7027965    166.49157  0.023162433  0.023370096            2 
  600000   0.99330298   -7.7556736     165.6184  0.023002556  0.023353343            8 
  601000    1.0276565   -7.7300816    166.47398  0.023082914  0.023336449            2 
  602000    0.9944159   -7.6781689    166.68716  0.023074081  0.023319573            4 
  603000    1.0229499   -7.7075199    166.53134  0.023014281  0.023302962            1 
  604000    1.0167194   -7.7023381    167.40462  0.023096664  0.023286411            1 
  605000    1.0015297   -7.7283926    167.28361   0.02304182   0.02326969            1 
  606000    1.0210662   -7.7020218    167.73789  0.023066267  0.023253228            3 
  607000    1.0094268   -7.7499408     167.4872  0.022993849  0.023236794            3 
  608000   0.99113278   -7.7340147     167.5858  0.022969545  0.023219771            3 
  609000    1.0013476   -7.7905225    167.38603  0.022904492  0.023202832            2 
  610000     1.023181    -7.729353    168.19172  0.022977012  0.023185757            4 
  611000    1.0149357   -7.6487044    168.63967    0.0230005  0.023169028            4 
  612000    1.0084646   -7.7331136    168.19662   0.02290259  0.023152582            3 
  613000   0.98731153   -7.7217014    168.16454  0.022860867   0.02313635            3 
  614000   0.99805362   -7.7436578    168.48054  0.022866523  0.023119968            2 
  615000     1.016197   -7.6963917    168.94708  0.022892558  0.023103578            2 
  616000    1.0089031    -7.736881    168.87672  0.022845877  0.023086909            2 
  617000    1.0043957   -7.6718405    169.29142  0.022864859  0.023070231            5 
  618000   0.99946544   -7.6691936    169.61905   0.02287204   0.02305339            2 
  619000    1.0019498   -7.7433126    169.02251   0.02275478  0.023036649            3 
  620000     1.002931   -7.7271456    169.11467  0.022730466  0.023019744            3 
  621000   0.98988661   -7.7000977     169.5333   0.02275004  0.023002952            2 
  622000    1.0062005   -7.7216027    169.88212  0.022760198  0.022985886            2 
  623000    1.0200421   -7.7524032     169.3685  0.022654962  0.022968549            2 
  624000    1.0011553   -7.7380423     169.5623  0.022644538   0.02295151            4 
  625000    1.0214797   -7.7287861    169.97584  0.022663445  0.022934391            2 
  626000   0.99028872    -7.700535    170.34637  0.022676567  0.022917423            4 
  627000   0.99249566   -7.7594099    170.15287  0.022614682  0.022900198            3 
  628000    1.0117939    -7.737079    170.28802  0.022596605  0.022883027            4 
  629000   0.98738519   -7.7641982    170.10817  0.022536853  0.022865804            3 
  630000    1.0130021   -7.7147029    170.16376  0.022508434  0.022848627            2 
  631000    1.0099959   -7.7647607    170.34434  0.022496611  0.022831319            5 
  632000    1.0007051   -7.7555995    171.10816   0.02256173  0.022813923            1 
  633000    1.0060098   -7.7205872    171.54091  0.022583059  0.022796829            3 
  634000    1.0069747   -7.7469221    171.35974  0.022523626  0.022779909            2 
  635000    1.0169491    -7.779839    171.45538  0.022500706  0.022762952            5 
  636000    1.0183294   -7.7469799    171.79417  0.022509718  0.022746274            2 
  637000     1.003218   -7.7323483     171.8607  0.022483085  0.022729683            2 
  638000    1.0133768   -7.7526954     172.3004  0.022505276  0.022713248            4 
  639000   0.98324093   -7.7869667      171.603  0.022379108  0.022696408            2 
  640000   0.97766806    -7.744031    172.37206  0.022444279   0.02267945            2 
  641000   0.97130477   -7.8055283    171.91902  0.022350366  0.022662354            7 
  642000    1.0033986   -7.7073122      173.126  0.022472223  0.022645488            1 
  643000    1.0185929   -7.7551637    172.37975  0.022340558  0.022628572            2 
  644000   0.98214441   -7.7311327    172.66783  0.022343146  0.022611595            5 
  645000   0.99772622   -7.7280157    173.00887  0.022352567  0.022594686            2 
  646000     1.003833    -7.759696    172.78031  0.022288481  0.022577721            3 
  647000    1.0098003    -7.752127    173.61937  0.022362103  0.022560851            2 
  648000    1.0001809    -7.748787     173.3494  0.022292876   0.02254408            1 
  649000    1.0029049   -7.7523801    173.80654  0.022317224  0.022527544            2 
  650000   0.98541251   -7.8012633    174.00123   0.02230785  0.022511061            6 
  651000   0.98725802   -7.7709803    174.77052  0.022372059   0.02249453            3 
  652000   0.98396445   -7.7811205    173.84691  0.022219697  0.022477914            1 
  653000    1.0094799   -7.7653214    174.26613  0.022239169   0.02246137            1 
  654000   0.98391332   -7.7735601    174.20321  0.022197147   0.02244461            2 
  655000   0.99179694   -7.7159548    174.84987  0.022245531   0.02242793            2 
  656000   0.98626832   -7.7491954     175.0476  0.022236737  0.022411448            5 
  657000    1.0114152   -7.7600504    174.58848  0.022144657  0.022394736            2 
  658000    1.0042223   -7.6944408    175.53071  0.022230333  0.022378271            2 
  659000   0.98530308   -7.7894817    175.07083  0.022138446  0.022361715            3 
  660000   0.97712803   -7.7601012    175.08906  0.022107205  0.022345326            4 
  661000    1.0100903   -7.7286441    175.62203  0.022140952  0.022328827            1 
  662000    0.9972971    -7.774463    175.68699  0.022115684  0.022312244            4 
  663000   0.99366183   -7.7770183    176.29188  0.022158356  0.022295538            3 
  664000   0.96667709   -7.7742445    175.66313  0.022046076  0.022279045            1 
  665000   0.98898919   -7.7932127    176.31825  0.022095019  0.022262361            3 
  666000   0.99833595   -7.7517974    176.58799  0.022095595  0.022245912            2 
  667000   0.99820416   -7.7703278    177.31944  0.022153854  0.022229573            6 
  668000   0.99153548   -7.7618549    177.10507  0.022093946  0.022213144            5 
  669000   0.96866168   -7.7639216    177.06498  0.022055927  0.022196867            1 
  670000   0.97783643   -7.7725893    176.95119  0.022008854  0.022180451            3 
  671000   0.97995168   -7.7992503    177.27856  0.022016712  0.022163798            3 
  672000   0.97821258   -7.7939086    176.96376   0.02194491  0.022147106            2 
  673000    1.0027505   -7.7851848    177.19264  0.021940644  0.022130635            2 
  674000   0.98891609   -7.7854858    177.51556  0.021948017  0.022114202            1 
  675000   0.98131613   -7.7864682    177.61214  0.021927425  0.022098128            1 
  676000   0.98603194   -7.7770999      177.883  0.021928378  0.022082022            5 
  677000    1.0137078   -7.7655396    177.94733  0.021903906   0.02206565            2 
  678000   0.97347894   -7.7939799    178.21894  0.021904982  0.022049337            1 
  679000   0.98237691   -7.8160425    178.40072  0.021895032  0.022032815            2 
  680000   0.98822883   -7.8075967    178.12503  0.021829048  0.022016052            1 
  681000   0.99272583   -7.8235512    178.09233  0.021792992  0.021999657            2 
  682000   0.98645982   -7.8003698    179.06751  0.021880195  0.021983344            3 
  683000   0.98841071   -7.8275691    178.93629  0.021832149    0.0219671            2 
  684000   0.99129045   -7.7825768    179.13289  0.021824182  0.021951108            1 
  685000   0.95952762   -7.8057181    179.65786  0.021856188  0.021935434            5 
  686000   0.96787646   -7.7630699    180.55109  0.021932833  0.021919861            3 
  687000   0.96588924    -7.796367    179.79131  0.021808747  0.021904458            2 
  688000   0.99805915    -7.780791    180.08444  0.021812553  0.021888685            2 
  689000   0.98365586   -7.7898306     179.9293  0.021762131  0.021873069            2 
  690000   0.96315828   -7.7987478    180.34056  0.021780261  0.021857391            2 
  691000   0.95362195   -7.8479456      179.583   0.02165738  0.021841445            2 
  692000   0.97145762   -7.8157216    180.69422  0.021759901  0.021825388            2 
  693000   0.98182638   -7.7864737    180.43533   0.02169737   0.02180966            2 
  694000   0.97742887   -7.7379328    180.98556  0.021732176  0.021793913            9 
  695000   0.95699224   -7.8238807    180.84288  0.021683798  0.021777985            4 
  696000   0.96866155   -7.8649336    180.66988   0.02163193  0.021762044            4 
  697000   0.98975049    -7.842995    180.84199  0.021621472  0.021746225            3 
  698000   0.97599703   -7.8394859    181.28044  0.021642842    0.0217304            8 
  699000   0.96390559   -7.8138998    180.75777  0.021549567  0.021714548            5 
  700000    0.9814673   -7.7943996    181.68641  0.021629335  0.021698838            2 
  701000    0.9372801   -7.8217564    181.96895  0.021632067  0.021683271            5 
  702000    0.9567464   -7.8547385    181.84243  0.021586234  0.021667617            3 
  703000   0.94874055   -7.8496952    181.47618  0.021512112  0.021651959            2 
  704000   0.94723988   -7.8311181    182.23453  0.021571322  0.021636141            3 
  705000   0.98070261   -7.8134813    181.90848  0.021502185  0.021620326            3 
  706000   0.97848749   -7.8254325    182.84058  0.021581749  0.021604621            3 
  707000   0.97253492    -7.833904    182.81495  0.021548203  0.021589009            5 
  708000   0.98547245   -7.8561412    182.32406  0.021459988  0.021573287            6 
  709000   0.96849786   -7.8226544    182.72332  0.021476648  0.021557465            4 
  710000   0.97293421   -7.8731151    182.05523  0.021367985  0.021541421            5 
  711000     0.951533   -7.7990144    183.09261  0.021459518  0.021525522            3 
  712000   0.96485624   -7.8282181    183.29264   0.02145279  0.021509747            3 
  713000   0.97064221   -7.8582131    183.13852   0.02140469  0.021493935            2 
  714000   0.96744613   -7.8495935    182.97833  0.021356014  0.021478044            2 
  715000   0.98222356   -7.8018601    183.64098  0.021403378  0.021462173            2 
  716000   0.96047096   -7.8723074    183.55639   0.02136364  0.021446273            2 
  717000   0.97286565   -7.8386048    183.77663  0.021359441  0.021430597            3 
  718000   0.96695976   -7.8216064    184.18488  0.021377075   0.02141496            2 
  719000   0.96013144   -7.8139784    184.31127  0.021361992  0.021399351            1 
  720000    0.9660321   -7.8283109    184.24831  0.021325036  0.021383632            2 
  721000   0.97014587   -7.8493059    184.01982  0.021269049  0.021367877            2 
  722000   0.96223804   -7.8131264    184.69226  0.021317205  0.021352033            2 
  723000   0.97377896   -7.8519419     184.0989  0.021219329  0.021336413            2 
  724000   0.96885552    -7.816812    184.12795  0.021193364  0.021320641            2 
  725000   0.95555148   -7.8106749    184.18447  0.021170628  0.021304821            1 
  726000   0.96618195   -7.8664491    184.55597   0.02118411  0.021288983            2 
  727000   0.96186547   -7.8593883    184.40699  0.021137894   0.02127303            2 
  728000   0.95931112   -7.8477367    184.42832    0.0211113  0.021256984            1 
  729000   0.95915944   -7.7962664    185.53123  0.021208417  0.021241014            5 
  730000   0.96089653   -7.8460468    185.15726  0.021136673  0.021225196            2 
  731000   0.94774738   -7.8616465    185.41965  0.021137671  0.021209465            5 
  732000   0.95003273   -7.8511319    184.93768  0.021053926  0.021193447            2 
  733000   0.95636414   -7.8372365    185.48849  0.021087823  0.021177044            3 
  734000   0.94454562   -7.8452508    185.67147  0.021079867  0.021160611            2 
  735000   0.96037144   -7.8435639    185.62142  0.021045513  0.021144653            2 
  736000    0.9460366   -7.8763968    185.36395  0.020987766  0.021128571            6 
  737000   0.97482922   -7.8339067    186.47071  0.021084431  0.021112613            5 
  738000   0.95162292   -7.8744372    185.73628  0.020972931  0.021096349            2 
  739000   0.95029689   -7.8312516    185.93784   0.02096728  0.021080052            1 
  740000   0.95346831   -7.8954015    185.58475  0.020899183  0.021063607            4 
  741000   0.94383286   -7.8696129    185.78186  0.020893147  0.021046916            3 
  742000   0.96241905   -7.8970543    185.25423  0.020805731  0.021030197            1 
  743000   0.94995058   -7.8886111    185.73948  0.020832153    0.0210134            3 
  744000   0.95026595   -7.9013813    185.72629  0.020802676  0.020996651            4 
  745000   0.94151743   -7.8928971    185.96047  0.020800948  0.020980106            1 
  746000   0.95697797   -7.8855645    185.77846  0.020752733  0.020963294            2 
  747000   0.96198239   -7.8806709    186.25744  0.020778385  0.020946577            3 
  748000   0.95548082     -7.84797     186.9968  0.020832976  0.020930039            3 
  749000   0.94439968   -7.8797373    186.79961  0.020783224  0.020913728            1 
  750000   0.95383608   -7.9095242    186.94163  0.020771292  0.020897525            2 
  751000   0.95621494   -7.8955569    187.34712  0.020788629  0.020881128            2 
  752000   0.97076474    -7.901152     187.1086  0.020734552  0.020864909            3 
  753000   0.96313222   -7.9019052    187.10763  0.020706909  0.020848645            1 
  754000   0.95746158   -7.9006074    187.35173  0.020706424  0.020832527            6 
  755000   0.97449634   -7.8501539    188.03593  0.020754518  0.020816683            3 
  756000    0.9470209   -7.8923819    188.13351  0.020737821  0.020800864            2 
  757000   0.95624347   -7.8689294    187.97167  0.020692611  0.020784873            2 
  758000   0.95726011    -7.885883     188.3939  0.020711731  0.020768812            1 
  759000   0.96019185   -7.9042731    188.42245  0.020687577  0.020752831            5 
  760000   0.94012776   -7.8386812    188.97663  0.020721122  0.020737008            2 
  761000   0.93926528   -7.8962333    188.51323  0.020643148  0.020721073            3 
  762000   0.95487323   -7.8924366    188.99426  0.020668664  0.020705367            2 
  763000   0.96391023   -7.8854623    188.87401  0.020628442  0.020689551            7 
  764000   0.94167888   -7.9061097    188.83489  0.020597174  0.020673756            2 
  765000   0.93522583    -7.895172    189.27229  0.020617896  0.020657991            3 
  766000   0.93937356   -7.9161064     189.0851  0.020570616  0.020642308            5 
  767000   0.94651951    -7.871723    189.91043  0.020633467  0.020626864            4 
  768000   0.96958106    -7.868725    190.15977  0.020633655  0.020611504            5 
  769000   0.96198231   -7.8830492    189.87593  0.020576065  0.020596168            2 
  770000   0.93314164   -7.8858333    189.47346  0.020505785  0.020580739            5 
  771000   0.94391308    -7.868795    190.47641  0.020587593  0.020565402            1 
  772000   0.96571336   -7.8702623    190.83401  0.020599526  0.020550349            1 
  773000   0.95790469   -7.9137414    190.66049  0.020554171  0.020535309            1 
  774000   0.94714621   -7.8755011    190.72519  0.020534582  0.020520202            2 
  775000   0.93202142   -7.9107669     190.4858  0.020482344  0.020505003            3 
  776000   0.95802143   -7.9263857    191.18524  0.020531061  0.020489845            3 
  777000   0.92554679   -7.9120049    191.11116  0.020496693  0.020474792            2 
  778000    0.9385332   -7.8542421    191.67621  0.020530871  0.020459958            2 
  779000   0.94174223   -7.9056605    191.42998  0.020478175  0.020445167            1 
  780000   0.92908566   -7.8737305    192.22488  0.020536847  0.020430504            2 
  781000   0.92743923   -7.8657023    192.69481  0.020560693  0.020416037            1 
  782000   0.93422856    -7.908951    192.15596  0.020476978  0.020401757            3 
  783000   0.93370728    -7.929331    192.47114   0.02048437  0.020387222            1 
  784000   0.93813087   -7.9229195    192.73614   0.02048641  0.020372686            4 
  785000   0.92905371   -7.9259713    192.51143  0.020436458  0.020358016            2 
  786000     0.943493   -7.8926852    192.40397  0.020399064  0.020343394            2 
  787000   0.94429264   -7.9097608    192.64503  0.020398669  0.020328704            4 
  788000   0.96112697   -7.9113062    192.86412  0.020395952  0.020313855            3 
  789000   0.92820225   -7.9377019    192.55352  0.020337296  0.020299071            2 
  790000   0.95617144   -7.8955789    193.50995  0.020412442  0.020284285            2 
  791000   0.92939719   -7.8945505    193.26428  0.020360755  0.020269791            1 
  792000   0.94177351   -7.9589185    193.40396  0.020349743  0.020255088            2 
  793000   0.93842383   -7.9282596    193.47913  0.020331981  0.020240386            2 
  794000   0.93645294   -7.9411954    193.36532   0.02029443  0.020225594            2 
  795000   0.94394443   -7.9337395    193.54673  0.020287917  0.020210796            2 
  796000   0.93694151   -7.9382977    193.55218     0.020263  0.020195971            1 
  797000    0.9549575    -7.926023    194.36649   0.02032272  0.020181273            3 
  798000   0.93698618   -7.9167098    193.87707  0.020246144  0.020166804            1 
  799000   0.92157692   -7.9318845    193.90271  0.020223478  0.020152055            4 
  800000   0.94607046   -7.9554784    193.53825  0.020160235  0.020137272            4 
  801000   0.92834113   -7.9239961    194.50413  0.020235553  0.020122644            3 
  802000   0.91741287   -7.9144297    194.56138   0.02021627  0.020108166            1 
  803000   0.91795009    -7.911812     194.8894  0.020225135  0.020093551            5 
  804000    0.9316603   -7.9369559    194.26776  0.020135547  0.020078884            5 
  805000   0.95054444   -7.9204259    194.80158  0.020165795  0.020064245            2 
  806000   0.92984014   -7.9404799    194.78619  0.020139185   0.02004957            7 
  807000    0.9354031   -7.9461641    195.08243  0.020144819  0.020035007            4 
  808000   0.94316275   -7.9388255    194.77099  0.020087767  0.020020373            1 
  809000   0.93069786   -7.9031456    194.70637   0.02005628  0.020005854            1 
  810000   0.90349605    -7.912388    195.09025  0.020071013  0.019991234            2 
  811000    0.9419321   -7.8921368    195.28912  0.020066699  0.019976622            3 
  812000   0.92824178   -7.9429724    195.31276  0.020044413  0.019961817            2 
  813000   0.93351594   -7.9168356    195.31723  0.020020216  0.019947074            1 
  814000   0.90415685   -7.9789551    195.45766  0.020009998  0.019932373            3 
  815000   0.92052386   -7.9181421    195.83955  0.020024493  0.019917584            7 
  816000   0.92289604   -7.9309029    195.48297  0.019963539   0.01990266            2 
  817000   0.91278035   -7.9313195    195.59119  0.019950142  0.019887751            2 
  818000   0.93794734   -7.9613204    195.74345  0.019941264  0.019872682            2 
  819000   0.92402852   -7.9395067    195.93423  0.019936327  0.019857752            2 
  820000   0.94296044   -7.9642939    195.82629  0.019901045  0.019842927            4 
  821000   0.93399673   -7.9731466     196.4234  0.019937414  0.019828122            2 
  822000   0.91426813   -7.9159892    196.47712  0.019918605  0.019813492            4 
  823000   0.92328016   -7.9612976    196.39386  0.019885972  0.019798893            2 
  824000   0.91066393   -7.9335084    196.96211  0.019919307  0.019784426            2 
  825000   0.91956003   -7.9653807    196.93502  0.019892427  0.019769947            4 
  826000   0.91485602   -7.9518008    196.64798  0.019839384  0.019755463            2 
  827000   0.93234267   -7.9575682    197.27224  0.019878299  0.019741071            3 
  828000   0.92116922   -7.9550287    197.63523  0.019890825  0.019726627            1 
  829000   0.93567161   -7.9496513    197.53669  0.019856925  0.019712421            2 
  830000   0.90379773   -7.9538983    197.84979  0.019864437  0.019698218            5 
  831000   0.91785887   -7.9774868      197.859  0.019841456  0.019683961            5 
  832000   0.91870094   -7.9583306    198.06052  0.019837792  0.019669712            1 
  833000   0.92066357   -7.9896777     198.0334  0.019811264    0.0196556            6 
  834000   0.91823392   -7.9929071    197.80145  0.019764333  0.019641467            3 
  835000   0.90382244   -7.9462661    198.12215   0.01977267  0.019627458            1 
  836000   0.90707329   -7.9683422    198.07191   0.01974401  0.019613464            3 
  837000   0.91443999   -7.9332864    198.71818  0.019784765  0.019599428            2 
  838000   0.92666419   -7.9905036    198.44097  0.019733589  0.019585642            2 
  839000   0.90534445   -7.9503435    199.40085  0.019805408  0.019571714            2 
  840000   0.91724256   -7.9604145    199.20656  0.019762556   0.01955762            4 
  841000   0.90241552   -7.9361553    200.09968  0.019827555  0.019543659            5 
  842000   0.93103664   -7.9841333    199.02101   0.01969725  0.019529797            2 
  843000   0.91464614   -7.9700364    199.08918  0.019680622   0.01951571            2 
  844000   0.92436253   -7.9582928    198.94557  0.019643125  0.019501498            3 
  845000   0.90906469   -8.0114804      199.295  0.019654339   0.01948742            2 
  846000   0.93821902   -7.9888483    198.90523  0.019592713  0.019473209            2 
  847000   0.92528107   -8.0089617    199.19657  0.019598246  0.019458834            5 
  848000   0.91857158    -7.998261    199.19687  0.019575164  0.019444312            5 
  849000   0.91155908    -8.032415    199.15127  0.019547631  0.019429891            2 
  850000   0.91886602   -8.0221487    199.34076  0.019543212  0.019415422            2 
  851000   0.91221849   -8.0060513    199.15628  0.019502182  0.019400896            1 
  852000   0.93700949   -8.0078654    199.35758  0.019498981  0.019386299            2 
  853000   0.91288873   -8.0244397    199.58547  0.019498385   0.01937174            3 
  854000   0.91295823   -8.0240907    199.26769  0.019444544  0.019357274            2 
  855000   0.91726705   -8.0021577     200.0548  0.019498518  0.019342998            2 
  856000   0.91169439   -8.0513794    200.04146  0.019474441  0.019328745            1 
  857000   0.92384222   -8.0160306     200.0862  0.019456068  0.019314417            2 
  858000   0.89663844   -8.0217056    200.26325  0.019450588  0.019300074            2 
  859000   0.91053551    -7.977997    200.45733  0.019446772  0.019285932            1 
  860000   0.91550308   -7.9626035    200.77287  0.019454735  0.019271888            3 
  861000   0.91371524   -7.9869248    200.47379  0.019403193  0.019257731            5 
  862000   0.93289006   -8.0044198    200.39792  0.019373349  0.019243616            3 
  863000   0.90064749   -7.9622917    201.69873  0.019476509  0.019229397            2 
  864000   0.89389501   -8.0020461    200.60471  0.019348448  0.019215397            3 
  865000   0.93195515   -7.9730654    201.40806  0.019403474  0.019201274            2 
  866000     0.901583   -8.0035399     201.2595  0.019366772  0.019187364            4 
  867000   0.91532952   -7.9691862    201.55683  0.019373013  0.019173524            3 
  868000   0.92940399   -7.9812919    201.51231   0.01934642  0.019159765            5 
  869000   0.90673069   -7.9817178    201.94236  0.019365397  0.019145964            2 
  870000    0.9104416   -7.9748299    202.18897   0.01936676  0.019132294            3 
  871000   0.91039492   -7.9890546    202.08875  0.019334935  0.019118645            2 
  872000   0.91195751   -8.0003717      202.101  0.019313933  0.019104984            2 
  873000   0.90091563   -8.0318567    201.94219   0.01927665   0.01909138            2 
  874000   0.91207896   -8.0127283    202.63644   0.01932079  0.019077586            4 
  875000   0.91930099   -7.9865937    202.85285  0.019319319  0.019063737            3 
  876000   0.88361855    -7.974544    202.31788  0.019246374  0.019049796            4 
  877000   0.91372172   -8.0475608    201.82856  0.019177932  0.019035742            9 
  878000    0.9112062   -8.0394051    202.03385  0.019175574  0.019021772            2 
  879000   0.92537363   -8.0080851    202.69594  0.019216529  0.019007795            2 
  880000   0.89486907   -8.0064374    202.52277  0.019178293   0.01899383            1 
  881000   0.89871048   -8.0144664    202.80635  0.019183348  0.018979979            3 
  882000   0.89579347   -7.9858551     203.1479  0.019193868  0.018966157            3 
  883000   0.89164896   -8.0045867    202.73828  0.019133473   0.01895243            2 
  884000   0.89905849   -8.0087738     203.5313  0.019186585  0.018938561            4 
  885000    0.9014621   -8.0424036    203.40095  0.019152632  0.018924685            3 
  886000   0.88299811   -8.0508739    202.45239  0.019041798  0.018910576            4 
  887000   0.89534157   -8.0413466    203.05848  0.019077272  0.018896577            3 
  888000   0.89137079   -8.0707443    203.03416  0.019053506   0.01888253            8 
  889000   0.91838172   -8.0638794    202.52966  0.018984783  0.018868481            4 
  890000   0.88647725   -7.9931013    203.27216  0.019032974  0.018854418            8 
  891000   0.91641178   -8.0344115    203.05486  0.018991289  0.018840376            6 
  892000   0.90906866   -8.0217155    203.48955  0.019010608  0.018826346            2 
  893000   0.90690855   -8.0426847    203.28781  0.018970494  0.018812204            3 
  894000   0.89694384   -8.0700825    202.91273  0.018914312  0.018798001            4 
  895000   0.89789766   -8.0309207    203.35624  0.018934473  0.018783791            4 
  896000   0.91861484   -8.0157969    203.02255  0.018882306  0.018769578            5 
  897000   0.90515801   -7.9936617    203.25614  0.018882956  0.018755456            2 
  898000   0.90459799   -8.0371135    203.03744  0.018841633  0.018741188            2 
  899000   0.90900947   -7.9988666    203.66387  0.018878742  0.018726957            3 
  900000   0.90737872   -8.0001607    203.71613  0.018862605  0.018712777            3 
  901000   0.90069426   -7.9799345    204.37155  0.018902289   0.01869864           14 
  902000   0.88244311   -8.0115112    203.63705  0.018813475  0.018684378            6 
  903000   0.89085574   -8.0038378    203.87018  0.018814155  0.018670153            1 
  904000   0.90629191   -8.0675009    203.61614  0.018769924  0.018655714            4 
  905000   0.90014946   -8.0072028    204.41392  0.018822645  0.018641248            5 
  906000   0.88835975   -8.0510342     203.0073  0.018672489  0.018626701            3 
  907000   0.89028587   -8.0673211    203.17207   0.01866704  0.018612066            4 
  908000   0.87925788   -8.0768497    202.95135  0.018626226  0.018597307            2 
  909000   0.90706747   -8.0622365    203.73459  0.018677538  0.018582657            4 
  910000    0.8765221   -8.0058649    203.47789  0.018633506  0.018567943            3 
  911000    0.8862422   -8.0127632    203.88371  0.018650175  0.018553123            2 
  912000   0.89061246   -8.0114778    203.88698  0.018630024  0.018538487            2 
  913000   0.89945803   -8.0096884    204.37259  0.018653942  0.018523941            4 
  914000   0.87385547   -7.9943371    204.27307   0.01862446  0.018509515            1 
  915000   0.89038937   -8.0490935    203.81914  0.018562763   0.01849489            2 
  916000   0.89324402   -8.0734351    203.97466  0.018556646  0.018480172            2 
  917000   0.88604338   -8.0425005    204.10071  0.018547866  0.018465395            2 
  918000   0.90479406   -8.0518406      204.057  0.018523693  0.018450524            3 
  919000   0.86909024   -8.0835552    204.10981  0.018508325  0.018435714            2 
  920000   0.88126875   -8.0535469    204.17282  0.018493915  0.018421011            2 
  921000   0.87391534   -8.0506135    204.16971  0.018473553   0.01840632            2 
  922000   0.87400771   -8.0311539    204.12872  0.018449812  0.018391623            2 
  923000   0.88074129   -8.0775503    203.94676  0.018413394  0.018376865            2 
  924000   0.89220299   -8.0789326    204.68561  0.018460102  0.018361933            2 
  925000   0.88147261   -8.0392016    205.05391  0.018473326  0.018347329            2 
  926000   0.87944611   -8.0694995    204.81994   0.01843232  0.018332757            3 
  927000   0.88568666   -8.0822027    204.22463   0.01835892  0.018318143            5 
  928000   0.89544057   -8.0335752    205.16422  0.018423512  0.018303645            2 
  929000   0.88884083   -8.0716862    204.60194  0.018353242   0.01828905            5 
  930000    0.8696063   -8.0567148    205.01962  0.018370934  0.018274502            5 
  931000   0.89145228   -8.0745152    204.87834  0.018338556  0.018259836            5 
  932000   0.87446039   -8.0710474      204.707  0.018303558  0.018245195            2 
  933000   0.87081113   -8.0430178    205.28479  0.018335547  0.018230568            3 
  934000   0.87433349   -8.0551742      205.566  0.018341006  0.018215981            6 
  935000   0.88681667   -8.0559566    205.32472  0.018299886  0.018201347            4 
  936000   0.87710274    -8.112928    204.89883  0.018242417  0.018186672            2 
  937000   0.87585872   -8.0933966    205.41839  0.018269156  0.018171929            1 
  938000   0.88987001    -8.068396    205.48011  0.018255163  0.018157235            3 
  939000   0.86085176   -8.0798104    206.15295  0.018295434  0.018142891            2 
  940000   0.88443393   -8.0681551    205.63234  0.018229817  0.018128465            2 
  941000   0.88860514   -8.0771491    205.65775  0.018212695  0.018113962            1 
  942000   0.87756403   -8.0535197    205.88286  0.018213275  0.018099511            4 
  943000   0.87543912   -8.0710815    206.58202  0.018255746  0.018085101            4 
  944000    0.8791778   -8.0872404    205.80219  0.018167566  0.018070648            2 
  945000   0.88324152   -8.1020163    206.07967   0.01817281  0.018056245            2 
  946000   0.86213516   -8.1040204    206.32671  0.018175362  0.018041794            5 
  947000   0.88643716   -8.1181498    205.61474  0.018093518   0.01802733            1 
  948000   0.88103615   -8.0606638    206.54652  0.018156339  0.018012889            8 
  949000   0.88100656   -8.0761267    206.90025  0.018168269  0.017998496            3 
  950000   0.86238967   -8.0834843     206.7788  0.018138491  0.017984104            2 
  951000     0.861842   -8.0947157      206.614  0.018104977  0.017969766            4 
  952000   0.86007587   -8.0764952     207.3318  0.018148792  0.017955367            6 
  953000   0.88180338   -8.0666851    207.25974  0.018123447  0.017941071            5 
  954000   0.88226762   -8.1019269    206.95009  0.018077401  0.017926686            1 
  955000   0.87254241   -8.1115069    206.62098  0.018029754  0.017912359            3 
  956000   0.85965077   -8.1262616    206.33673  0.017986117  0.017897879           13 
  957000   0.87666003   -8.0863022    206.44689  0.017976915  0.017883363            2 
  958000   0.87183487    -8.154038    206.38084  0.017952405  0.017868837            3 
  959000   0.88759685   -8.0879169    206.71168  0.017962433  0.017854278            6 
  960000   0.86621892   -8.1108017    206.85597  0.017956247  0.017839643           13 
  961000   0.89682715   -8.0952701    206.60968  0.017916205  0.017825012           11 
  962000   0.87591241    -8.079023    206.70539  0.017905872  0.017810467            3 
  963000   0.88685541    -8.090515     207.0955  0.017921037  0.017795876            3 
  964000   0.86755336   -8.1234456     206.8271  0.017879244  0.017781295            4 
  965000   0.87172298    -8.125279    207.07725  0.017882319  0.017766691            2 
  966000   0.87018735   -8.1048381    206.43273  0.017808206  0.017752139            1 
  967000   0.87389343   -8.1242341    206.80799   0.01782213  0.017737682            1 
  968000   0.85579435   -8.1069895    207.27287  0.017843739   0.01772316            5 
  969000   0.86237175   -8.1494992    207.72888  0.017864541  0.017708661            3 
  970000   0.86243703   -8.1358773    207.23632  0.017803807  0.017694194            5 
  971000    0.8585572   -8.1187568    207.52355  0.017810122  0.017679622            6 
  972000   0.87179452    -8.130045    207.11883  0.017757102  0.017665003            3 
  973000   0.85727877   -8.1056397     207.3163  0.017755764  0.017650505            3 
  974000    0.8556948   -8.1049764    207.17607  0.017725536  0.017636022            4 
  975000   0.86146591   -8.1071076     207.6606  0.017748769  0.017621476            5 
  976000   0.86746056   -8.1307247    207.53267  0.017719661  0.017606916            2 
  977000   0.86960733   -8.0753221    208.50303  0.017784291  0.017592533            2 
  978000   0.87851116   -8.1016995    208.47486  0.017763707   0.01757823            7 
  979000   0.87643815   -8.0967087    208.39809  0.017739027  0.017563864            3 
  980000   0.86442357   -8.1204031    207.97762  0.017685172  0.017549491            2 
  981000   0.86046086   -8.1326651    208.33395  0.017697414  0.017535133            3 
  982000   0.86568055   -8.1217225     208.0017  0.017651196  0.017520649            8 
  983000   0.86777952    -8.163667    207.66705   0.01760487  0.017506196            6 
  984000   0.86501075   -8.1585894    207.67431  0.017587594  0.017491723            2 
  985000   0.84677021   -8.1178006    208.45539   0.01763582  0.017477271            2 
  986000   0.87280449   -8.1441793    208.13449  0.017590812  0.017462852            2 
  987000   0.82920543   -8.1281968    207.99631  0.017561323  0.017448443            7 
  988000   0.85398664   -8.1533348    208.03003  0.017546393   0.01743396            2 
  989000   0.87103842   -8.1038752    208.47357  0.017566024  0.017419492            3 
  990000   0.86452039   -8.1240145    208.09936  0.017516781  0.017405129            3 
  991000   0.86388947   -8.0821761     208.6298   0.01754371  0.017390779            4 
  992000   0.87120911   -8.1510849    207.91686  0.017466134  0.017376387            6 
  993000   0.85700238   -8.1520425    208.68097  0.017512669  0.017361969            4 
  994000   0.85265126   -8.1589148    208.23127   0.01745735  0.017347514            4 
  995000   0.84741641    -8.136165    208.94129   0.01749927  0.017333142            3 
  996000   0.86295379   -8.1519251    208.19878  0.017419577  0.017318803            5 
  997000   0.86922734   -8.1318091    208.02632  0.017387689   0.01730425            2 
  998000   0.81740939   -8.1486347    208.57277  0.017415896  0.017289737            3 
  999000   0.85243934   -8.1505982      208.128  0.017361361  0.017275211            2 
 1000000   0.84891181   -8.1777655    208.47641  0.017373034  0.017260589            4 
 1001000   0.86742331   -8.1449273    208.74708  0.017378211  0.017246017            3 
 1002000   0.85918439   -8.1427539    208.70727  0.017357558  0.017231521            6 
 1003000   0.87482712   -8.1454071     208.4278  0.017317033   0.01721705            3 
 1004000   0.83632644   -8.1489635    208.95496  0.017343539  0.017202502            5 
 1005000   0.86078697   -8.1755706    208.40535  0.017280709   0.01718802            3 
 1006000    0.8443371   -8.1594326    208.86448  0.017301564  0.017173543            3 
 1007000   0.83335889   -8.1375495     209.5034  0.017337256   0.01715922            3 
 1008000   0.84107861    -8.126551    210.37319  0.017391964  0.017144921            4 
 1009000   0.85307894   -8.1231595    209.40019  0.017294367  0.017130707            2 
 1010000   0.86218175   -8.1139309    209.68143  0.017300448  0.017116559            3 
 1011000   0.84147883    -8.136079    209.64613  0.017280426  0.017102338            5 
 1012000   0.86081243   -8.1727798    209.99557  0.017292126  0.017088068            3 
 1013000   0.85135544   -8.1813768    209.70257  0.017250952   0.01707392            4 
 1014000    0.8387912   -8.1399479    210.12408   0.01726858  0.017059754            4 
 1015000   0.84866012   -8.1847498    210.16207  0.017254685  0.017045754            3 
 1016000   0.83969493   -8.1665692    210.17725  0.017238948   0.01703177            4 
 1017000    0.8321442   -8.1700701    209.91616  0.017200603  0.017017731            4 
 1018000   0.84786956   -8.1932713    209.94424  0.017186006  0.017003591            3 
 1019000    0.8511235   -8.1992637    209.90796  0.017166173  0.016989527            2 
 1020000   0.86345285   -8.1866836    209.74366   0.01713592  0.016975427            4 
 1021000   0.84867189   -8.1777315    210.27202  0.017162261  0.016961313            6 
 1022000   0.86198704   -8.1573827    210.39895  0.017155818  0.016947247            2 
 1023000   0.83934257    -8.180029     210.4247  0.017141146   0.01693316            2 
 1024000   0.85247332   -8.1826383    210.03002  0.017092286  0.016919024            3 
 1025000   0.86419615   -8.1601557    210.12621  0.017083432  0.016905008            2 
 1026000   0.84866043   -8.1474941    210.86988  0.017127183  0.016891026            2 
 1027000    0.8438521   -8.1417675    210.31469  0.017065457  0.016876977            2 
 1028000   0.83926489   -8.1825964    210.66681    0.0170774  0.016863015            4 
 1029000   0.84232877   -8.1844935    211.17123  0.017101654  0.016849123            3 
 1030000   0.85614619   -8.1949377    210.70094  0.017047002  0.016835223            4 
 1031000   0.85037804   -8.1639235    210.98478  0.017053409  0.016821364            2 
 1032000   0.83362716   -8.2016137    211.04275  0.017041566  0.016807538            3 
 1033000   0.86163694   -8.2021442    211.41655  0.017055224  0.016793699            4 
 1034000   0.82027031   -8.1877424    211.33357  0.017032041  0.016779905            4 
 1035000   0.84772261   -8.1810369    211.19344  0.017004302  0.016766087            3 
 1036000   0.82460265   -8.1665252    211.37564  0.017002545  0.016752272            4 
 1037000   0.83190001    -8.189498    211.13281  0.016966635  0.016738517            3 
 1038000   0.85501759   -8.1938655    211.80755  0.017004459  0.016724835            6 
 1039000   0.85134044   -8.2014106    211.74225  0.016982856  0.016711171            3 
 1040000   0.83941207   -8.2364713    211.34428  0.016934637  0.016697497            3 
 1041000   0.82137602   -8.2263265    211.40884  0.016923538  0.016683853            3 
 1042000    0.8373422   -8.1479869    212.35682  0.016983111  0.016670248            3 
 1043000   0.85242859   -8.1848586    212.08881  0.016945414  0.016656738            8 
 1044000    0.8257775   -8.1914801    212.27533  0.016944072  0.016643271            3 
 1045000    0.8452194   -8.2206857    211.65791  0.016878621  0.016629754            1 
 1046000   0.82765275   -8.1933012    211.94457  0.016885323  0.016616205            1 
 1047000   0.84428829   -8.2223514    211.61992  0.016843356  0.016602659            2 
 1048000   0.83585075   -8.1989767    211.99691   0.01685726  0.016589015            1 
 1049000   0.85026782   -8.2059649    212.14908   0.01685328  0.016575435            1 
 1050000   0.82068039   -8.2113652    212.26938  0.016846776  0.016561853            2 
 1051000   0.82245398   -8.2398922    211.70834  0.016786262  0.016548191            3 
 1052000   0.82774164   -8.2253726    212.03934  0.016796526   0.01653461            2 
 1053000   0.85112594   -8.2230374    212.18078  0.016791768   0.01652092            4 
 1054000   0.83097568   -8.1903384    212.41593  0.016794428  0.016507284            3 
 1055000   0.85156664   -8.2488447    211.50903  0.016706874  0.016493674           11 
 1056000   0.82748969   -8.1928971    211.88254  0.016720529  0.016479987            3 
 1057000   0.82636857   -8.2239898    211.84353  0.016701634  0.016466361           10 
 1058000   0.82047091    -8.222945    212.04251  0.016701521  0.016452659           14 
 1059000   0.83816803   -8.2381019    212.00093  0.016682478  0.016438973            5 
 1060000   0.82457849    -8.238287    212.45657   0.01670256  0.016425302            2 
 1061000   0.84533904   -8.2052957    212.30212  0.016674688  0.016411634            2 
 1062000   0.82491282    -8.228278    212.54762   0.01667825  0.016398119            5 
 1063000   0.83513256   -8.2384263    212.77972  0.016680756  0.016384529            4 
 1064000   0.81321043   -8.2362884    212.56873  0.016648553  0.016371001            1 
 1065000   0.84167234   -8.2470381    212.92719  0.016660969  0.016357466            5 
 1066000   0.83220354     -8.27001    212.82584  0.016637417  0.016343939            4 
 1067000   0.82642637   -8.2394376    212.32094  0.016582391  0.016330397            5 
 1068000   0.82690935   -8.2158631    212.96031  0.016616754  0.016316882            3 
 1069000    0.8328039   -8.2213003    212.82096  0.016590346  0.016303451            6 
 1070000   0.82869167   -8.2242999    213.17434  0.016602363  0.016289985            4 
 1071000   0.83311605   -8.2145882    212.89954  0.016565479  0.016276606            2 
 1072000    0.8176219   -8.2217954    213.15924  0.016570215  0.016263183            1 
 1073000   0.83490048   -8.2388356    213.12931  0.016552447  0.016249839            2 
 1074000   0.80839291   -8.2408302    212.88115   0.01651778   0.01623646            4 
 1075000   0.83750981   -8.2298578    213.46481  0.016547659  0.016223137            2 
 1076000   0.84186997   -8.2167143    212.90398  0.016488846  0.016209877            9 
 1077000   0.82843165   -8.2155952    213.71865  0.016536571  0.016196647            2 
 1078000   0.82445489     -8.24325    213.06328  0.016470569    0.0161834            4 
 1079000    0.8433794   -8.2153991    213.68368  0.016503219  0.016170102            7 
 1080000   0.80057787   -8.1873607    214.29227  0.016534898  0.016156911            2 
 1081000   0.81232211   -8.2584311    213.39346  0.016450313  0.016143651            5 
 1082000   0.82661392   -8.2112572    213.51425  0.016444412   0.01613029            4 
 1083000   0.81817741   -8.2496782    213.65534  0.016440084  0.016117022           11 
 1084000   0.81908598   -8.2666092     213.9443  0.016447132  0.016103784            2 
 1085000   0.82979441   -8.2440987    213.42926  0.016392416  0.016090556            6 
 1086000   0.80304232   -8.2604492    213.74138  0.016401272  0.016077327            3 
 1087000   0.81773456   -8.2098744    214.02072  0.016407599  0.016064093            3 
 1088000   0.80830945   -8.2644394    213.70538  0.016368366  0.016050861            1 
 1089000   0.80397834   -8.2425032    213.47435  0.016335656  0.016037625            5 
 1090000   0.81589831   -8.2279304    213.01149  0.016285282   0.01602441            1 
 1091000   0.83133266    -8.226015    214.51914  0.016385514  0.016011288            3 
 1092000   0.81728262   -8.2351654     214.1946  0.016345742  0.015998104            3 
 1093000     0.792968   -8.2356722    213.94538  0.016311786  0.015984837            5 
 1094000   0.81820128   -8.2838036    213.74478  0.016281595  0.015971511            3 
 1095000   0.81188704   -8.2653466    214.44597  0.016320089   0.01595837            1 
 1096000   0.81535879    -8.254745    214.08693    0.0162779  0.015945243            2 
 1097000   0.81058081   -8.2770091    214.46164  0.016291525  0.015932111            3 
 1098000   0.81473183   -8.2624495    214.21881  0.016258258  0.015919039            2 
 1099000   0.81962594   -8.2692946    214.17218  0.016239929  0.015905856            2 
 1100000   0.79492438   -8.2750779    214.17945  0.016225716  0.015892726            3 
 1101000   0.81542651   -8.2869878    214.24902  0.016216245   0.01587964            3 
 1102000   0.81740201   -8.2795294    214.34022  0.016208426  0.015866522            2 
 1103000   0.81170182   -8.2622761    214.56464  0.016210686  0.015853425            2 
 1104000   0.81077148   -8.2751198    214.48796  0.016190214  0.015840328            3 
 1105000   0.81081252   -8.2825758    214.98733  0.016213222  0.015827272            2 
 1106000   0.81162566    -8.276214    214.44524  0.016157718  0.015814215            2 
 1107000   0.81820103   -8.2886034    214.85736  0.016174147  0.015801144            2 
 1108000   0.80089222   -8.2663229    214.25009  0.016113876  0.015788091            2 
 1109000   0.81284492   -8.2682841    215.15193  0.016167112  0.015775091            4 
 1110000   0.83893128    -8.277819    214.08336  0.016072324  0.015762089            2 
 1111000   0.79657425   -8.2901569    214.74033  0.016107135  0.015749125            1 
 1112000   0.81645226   -8.2715563    214.76185  0.016094264   0.01573615            3 
 1113000   0.80040071   -8.2924652       214.65  0.016071429  0.015723099            1 
 1114000   0.80116337   -8.2628682    214.91594  0.016076896  0.015710092            5 
 1115000   0.81415745   -8.2758379    214.65476  0.016042957  0.015697007            2 
 1116000   0.79940577   -8.2645481    214.94965  0.016050601  0.015683928            3 
 1117000   0.81777808   -8.2688805     214.8979  0.016032371   0.01567086            3 
 1118000   0.79323679   -8.3067384    214.87088  0.016016017  0.015657744            3 
 1119000   0.79953197   -8.3109321    214.78225  0.015995103  0.015644692            4 
 1120000   0.81109826    -8.291847     214.5708  0.015965089  0.015631588            1 
 1121000   0.79322911   -8.3245769    214.04333  0.015911636  0.015618426            2 
 1122000   0.80782637   -8.3002612    215.20412  0.015983669  0.015605304            3 
 1123000   0.79261704   -8.3229097    214.32671  0.015904327  0.015592231            5 
 1124000   0.82257214   -8.3179609    214.55358  0.015906997  0.015579105            6 
 1125000   0.82427407   -8.3108904    214.84563  0.015914491  0.015565979            5 
 1126000    0.8336765   -8.3436021    214.78042  0.015895531  0.015552829            2 
 1127000   0.80163648   -8.2672373    214.70512  0.015875859  0.015539674            5 
 1128000   0.80873276   -8.2908951     214.7383  0.015864236  0.015526508            2 
 1129000   0.83234137   -8.3259763    214.39148  0.015824585  0.015513331            3 
 1130000   0.78981484   -8.3286926    214.54884  0.015822186  0.015500151            8 
 1131000   0.80776596   -8.2896846    214.50366  0.015804867  0.015486912            6 
 1132000   0.82047043   -8.3212043    214.29627  0.015775638   0.01547371            3 
 1133000   0.80274238   -8.3041247    214.57184  0.015781983  0.015460552            4 
 1134000   0.79451984   -8.3058355     214.7748  0.015782981  0.015447467            5 
 1135000    0.7877119   -8.2917882    214.91814  0.015779599  0.015434414            3 
 1136000   0.80456159   -8.2924102    215.02875  0.015773823  0.015421392            5 
 1137000   0.79922282   -8.2954218    215.00691  0.015758349  0.015408367            4 
 1138000   0.80887814   -8.2748011    214.81845  0.015730701  0.015395323            3 
 1139000   0.79647639   -8.3274633     214.8616  0.015720047  0.015382248            8 
 1140000   0.81199267   -8.2891036    214.82567  0.015703631  0.015369155            2 
 1141000   0.79419949   -8.2880889    214.99314  0.015702099  0.015356121            4 
 1142000   0.79738796   -8.3204449    215.16432  0.015700841  0.015343081           11 
 1143000    0.8030081   -8.3040268    215.05351  0.015679025  0.015330062           10 
 1144000    0.8076201   -8.3220818    214.96761  0.015659063  0.015317066            2 
 1145000   0.80289301   -8.2979559    215.29166  0.015668971  0.015304164            5 
 1146000   0.79484268   -8.3065411    215.01013  0.015634826  0.015291289            5 
 1147000   0.80891191   -8.3119345    214.92714  0.015615166  0.015278376            1 
 1148000   0.79447511   -8.3403502    214.75528  0.015589089  0.015265423            1 
 1149000   0.80274413   -8.3315757    215.00119  0.015593356  0.015252491            5 
 1150000   0.80044159   -8.3262275    215.04466  0.015582946    0.0152395            5 
 1151000   0.78396962   -8.3659433     214.9354  0.015561497  0.015226519            3 
 1152000   0.79791897   -8.3232466    215.48174   0.01558751  0.015213531            2 
 1153000   0.79069696    -8.303758    215.66813  0.015587462  0.015200665            3 
 1154000   0.78190691    -8.343206    215.31968  0.015548792  0.015187868            2 
 1155000   0.80045965   -8.3249761    215.59984  0.015555544    0.0151751            6 
 1156000   0.79989566   -8.3164302    215.23401  0.015515716  0.015162367           11 
 1157000   0.80061596   -8.2968755    215.88477  0.015549176  0.015149579            8 
 1158000    0.7808016    -8.326824    215.14166  0.015482272  0.015136794            5 
 1159000   0.78488871   -8.2908442    215.96194  0.015527894  0.015124034            2 
 1160000     0.778174   -8.3056266    215.91107  0.015510853  0.015111254            2 
 1161000   0.77815572   -8.3266164      216.169  0.015516006  0.015098423            4 
 1162000   0.77128106   -8.3524986     215.7157  0.015470145  0.015085544            5 
 1163000   0.78520908    -8.356154    215.57303   0.01544662  0.015072693            9 
 1164000   0.76900099   -8.3513668    215.75582  0.015446436  0.015059798            3 
 1165000   0.77247897   -8.3198125    215.66781  0.015426882  0.015046955            3 
 1166000   0.77541287   -8.3371997    215.66961   0.01541378  0.015034124            1 
 1167000   0.79666771   -8.3365542    215.66843  0.015400487   0.01502121            8 
 1168000   0.79556004   -8.3518803    215.58728  0.015381512  0.015008319            6 
 1169000   0.78734408   -8.3775612    214.90755    0.0153199  0.014995432            4 
 1170000   0.78677211   -8.3624862    215.43125  0.015344106  0.014982503            6 
 1171000   0.78269091   -8.3591117    215.36728  0.015326451  0.014969585            7 
 1172000   0.77289198    -8.317009    215.42776  0.015317674  0.014956648            2 
 1173000   0.79619656   -8.3593537    215.75577  0.015327918  0.014943761            3 
 1174000   0.78054217   -8.3490251    215.34248  0.015285525  0.014930939            1 
 1175000   0.78127973   -8.3504737    215.75927  0.015302076  0.014918157            2 
 1176000   0.79759605   -8.3584715    215.94558  0.015302266  0.014905408            4 
 1177000   0.78401766   -8.3298452    216.06541  0.015297749  0.014892615            3 
 1178000   0.77470044   -8.3538863    216.02158  0.015281662  0.014879871           10 
 1179000   0.76875832   -8.3393661    216.14613  0.015277504  0.014867122            3 
 1180000   0.79876874   -8.3545025    216.23041  0.015270509  0.014854336            4 
 1181000   0.78747082   -8.3696525    215.45697  0.015203004  0.014841585            7 
 1182000   0.77858196   -8.3733785    215.20632  0.015172471  0.014828743            2 
 1183000    0.7927127   -8.3646184    215.72195  0.015195967  0.014815916            5 
 1184000   0.78212233   -8.3712381    216.16281  0.015214162  0.014803137            5 
 1185000   0.75995724   -8.3819175    215.84126   0.01517871  0.014790312            2 
 1186000    0.7789025    -8.355106    216.16369  0.015188567  0.014777522            4 
 1187000   0.77647235   -8.3817358    215.19992   0.01510811  0.014764699            2 
 1188000   0.78804229    -8.407183    215.52678   0.01511832  0.014751862            2 
 1189000    0.7799128   -8.3911924    215.75533  0.015121624  0.014739003            5 
 1190000   0.76240577   -8.3779271    215.72305  0.015106656  0.014726214            2 
 1191000   0.76816932   -8.4090198    215.17392   0.01505555  0.014713365           10 
 1192000   0.78746363   -8.3961149    215.77233  0.015084754  0.014700588            2 
 1193000   0.77788433   -8.3724376    215.91804  0.015082289  0.014687828            7 
 1194000   0.77891094   -8.3803737    215.90477   0.01506873  0.014675112            4 
 1195000   0.78475109   -8.3678622    216.21461  0.015077727  0.014662387            4 
 1196000   0.78120766   -8.3768765    216.06937  0.015055001   0.01464971            4 
 1197000   0.79151232   -8.3769186    215.72252  0.015018276  0.014636973            6 
 1198000   0.75409518    -8.387419    215.49032  0.014989588  0.014624259            5 
 1199000   0.79695452   -8.3791965    216.08506  0.015018422  0.014611528            3 
 1200000   0.79613323   -8.3668745    215.68802  0.014978335  0.014598842            6 
 1201000   0.78687454   -8.3828508    215.70209   0.01496684  0.014586119            4 
 1202000   0.76703593   -8.4296711    215.93266  0.014970373  0.014573346            6 
 1203000   0.77222711   -8.4075654    215.95456  0.014959446  0.014560613            6 
 1204000   0.77559118   -8.4142913    215.87297  0.014941374  0.014547834            7 
 1205000    0.7620015   -8.3921572    215.85321  0.014927608  0.014535035            3 
 1206000   0.77102016   -8.3920755      215.379  0.014882463  0.014522298            3 
 1207000   0.77107715   -8.4064706    215.65105  0.014888916  0.014509543            3 
 1208000    0.7841813   -8.3633883     216.0252  0.014902401  0.014496874            6 
 1209000   0.77403965   -8.4022266    216.36002  0.014913153  0.014484215            2 
 1210000    0.7683283   -8.3831234    216.36671  0.014901289  0.014471591            3 
 1211000   0.76759666   -8.3683537    216.29754  0.014884224  0.014458965            3 
 1212000    0.7731911    -8.365637    216.57046  0.014890708  0.014446455            7 
 1213000    0.7609367    -8.390083    216.34581  0.014862999  0.014433951            7 
 1214000   0.76700036   -8.3940818    216.22137  0.014842214  0.014421414            4 
 1215000   0.76822415   -8.3823222    216.39252  0.014841737  0.014408895            7 
 1216000   0.76247103   -8.4030491    216.50676   0.01483736  0.014396392            2 
 1217000   0.75572336   -8.4047173      216.013  0.014791359  0.014383858            6 
 1218000    0.7671738   -8.4007245    216.33313  0.014801117  0.014371287            9 
 1219000   0.75664064   -8.4047207    216.17646  0.014778265  0.014358783            6 
 1220000   0.77314141   -8.4181238    216.16306  0.014765236  0.014346245            8 
 1221000   0.76725339   -8.4102736    216.17345  0.014753853  0.014333746            4 
 1222000   0.76519181   -8.4032597    216.38549  0.014756239  0.014321225            3 
 1223000   0.75869753   -8.3853879    216.16521  0.014729164  0.014308721            8 
 1224000   0.76762558   -8.4129343     216.7709  0.014758368  0.014296232            3 
 1225000   0.74970073   -8.4111865    216.43567  0.014723515  0.014283721            7 
 1226000   0.76714972   -8.4195934    216.50238   0.01471604  0.014271177            8 
 1227000   0.76109824   -8.4370818    216.44946  0.014700452  0.014258612            6 
 1228000   0.77999377   -8.4066168    216.05565  0.014661757  0.014246085           10 
 1229000   0.76295384     -8.41167    216.54947  0.014683311  0.014233568            3 
 1230000   0.76838383   -8.3882155    216.50093  0.014668085  0.014221129            1 
 1231000   0.74265539   -8.3984629    216.79711  0.014676219  0.014208733            7 
 1232000   0.75046193   -8.3923825    216.79426  0.014664114  0.014196291            4 
 1233000   0.75857655   -8.3869833     216.4552  0.014629305  0.014183907            7 
 1234000   0.77733345   -8.4349573    216.33153  0.014609098  0.014171437            6 
 1235000   0.76556478   -8.4114384     216.4562  0.014605682  0.014159019            6 
 1236000   0.76171754   -8.4282529    216.78049  0.014615729  0.014146591            3 
 1237000   0.76501247   -8.4387275    216.40646  0.014578716  0.014134152            7 
 1238000   0.75687486    -8.424189    216.47752  0.014571724  0.014121714            3 
 1239000   0.75290428   -8.4260206    216.05441  0.014531505  0.014109256            1 
 1240000   0.73523312   -8.4359956    216.44622  0.014546117  0.014096753            3 
 1241000   0.75400348   -8.4624526    216.20673  0.014518314  0.014084268            9 
 1242000   0.76801128   -8.4473818    216.41168  0.014520376  0.014071826            3 
 1243000   0.76116129   -8.4578271    216.44346  0.014510825  0.014059341           10 
 1244000   0.75349036   -8.4410866    215.94489  0.014465762  0.014046881            8 
 1245000   0.74585699   -8.4552271      216.883  0.014516935  0.014034442            7 
 1246000   0.75561793   -8.4647733    216.30904  0.014466897  0.014021952            5 
 1247000   0.75003269   -8.4468374    216.47881  0.014466641  0.014009492            8 
 1248000   0.74245774   -8.4681754    216.55716  0.014460281  0.013997061           12 
 1249000   0.77435975   -8.4462081    216.31917  0.014432824  0.013984647            5 
 1250000   0.74195079   -8.4588316    216.47308  0.014431539  0.013972268            4 
 1251000   0.74060446   -8.4504125    216.66743  0.014432949  0.013959891            7 
 1252000   0.73929952   -8.4456674     216.8636  0.014434478  0.013947588            5 
 1253000   0.76000026   -8.4499071    216.46542  0.014396476  0.013935234           12 
 1254000   0.75876022   -8.4396829    216.69186  0.014400044  0.013922962            4 
 1255000    0.7628887   -8.4437235    216.58693  0.014381602  0.013910663            5 
 1256000   0.75392713   -8.4423606    216.89351  0.014390493  0.013898413            4 
 1257000   0.75999374   -8.4456809    216.49969  0.014352936  0.013886127            4 
 1258000   0.76987952   -8.4600638     216.3856  0.014333969  0.013873824            8 
 1259000   0.76177079   -8.4777531     216.7218  0.014344837  0.013861537            2 
 1260000   0.75730119   -8.4667294    216.50853  0.014319348  0.013849253            3 
 1261000   0.74576556   -8.4653377    216.68205  0.014319459  0.013836997            3 
 1262000   0.75652407    -8.459888    216.21525  0.014277288  0.013824791            3 
 1263000   0.75840339   -8.4708366    216.70196  0.014298097  0.013812546            5 
 1264000    0.7370865   -8.4700599    216.48749  0.014272646  0.013800312            5 
 1265000   0.73577426    -8.437301    216.66119  0.014272806  0.013788082            5 
 1266000   0.74871655   -8.4692262    216.51937  0.014252196  0.013775836            4 
 1267000    0.7553243   -8.4655936    216.68696  0.014251971  0.013763548            3 
 1268000   0.74614449   -8.4508604    217.40606   0.01428799  0.013751371            5 
 1269000   0.72915449   -8.4652031    216.69831  0.014230254  0.013739142            7 
 1270000    0.7602086   -8.4520506    216.86224  0.014229806  0.013726966            2 
 1271000   0.74468961   -8.4870973    216.79099  0.014213939  0.013714818            1 
 1272000   0.75001639   -8.4998739    216.59608  0.014189994  0.013702681            2 
 1273000   0.74001524   -8.4502418    217.03383  0.014207504  0.013690529            1 
 1274000   0.72680846   -8.4806612    216.58555   0.01416703   0.01367841            4 
 1275000    0.7394125   -8.4567921    216.92874  0.014178349  0.013666263            4 
 1276000   0.73538176   -8.4625939    216.56579  0.014143534  0.013654094            5 
 1277000   0.74701457   -8.4727156    216.84508  0.014150684  0.013641934            2 
 1278000    0.7544163   -8.4722292    216.97382  0.014148006  0.013629773            3 
 1279000   0.73528213   -8.4696918    216.37669  0.014098038  0.013617651            6 
 1280000   0.74175414   -8.4873682    217.03973  0.014130191  0.013605567            6 
 1281000   0.74682756   -8.4678229    216.88461  0.014109069  0.013593452           10 
 1282000   0.74397209   -8.4532497    216.85939  0.014096424  0.013581362            9 
 1283000   0.73351113   -8.4632857    216.68711  0.014074247  0.013569319            3 
 1284000   0.74111121   -8.4903762    216.49082  0.014050547  0.013557232            5 
 1285000   0.73332705   -8.4715387    216.83462  0.014061908  0.013545187            2 
 1286000   0.73898364   -8.4754461    217.21981  0.014075934  0.013533138            2 
 1287000   0.73346938   -8.4506786    216.95164  0.014047633  0.013521091            3 
 1288000   0.74930301   -8.4733569    217.21298  0.014053635   0.01350905            7 
 1289000   0.73928323   -8.4555055     216.9683  0.014026914  0.013497003            7 
 1290000   0.76211871   -8.4294722    217.09008  0.014023907  0.013484962            2 
 1291000   0.74281356   -8.4450653     216.9006  0.014000813  0.013472972            8 
 1292000   0.73392487   -8.4510901    216.73367   0.01397921  0.013460975            3 
 1293000   0.73518108   -8.4636254    216.62067  0.013961115  0.013448987            4 
 1294000    0.7410267   -8.4755916    216.96584  0.013972555  0.013437085            5 
 1295000   0.74773116   -8.4813311    217.06593  0.013968207  0.013425172            7 
 1296000    0.7512529   -8.4734076    217.50087  0.013985396  0.013413276            5 
 1297000   0.73227339   -8.4681238    216.95957  0.013939834  0.013401424            2 
 1298000   0.74043743   -8.4462103    216.94801  0.013928352  0.013389559            4 
 1299000   0.73284266   -8.4704396    217.00228  0.013921111  0.013377691            8 
 1300000   0.72799176   -8.4757669    217.28799  0.013928718  0.013365804            8 
 1301000   0.73534942   -8.4729885    217.08253  0.013904851  0.013353949            4 
 1302000   0.72152415    -8.481951    217.50207  0.013921023  0.013342092            2 
 1303000   0.72700584   -8.4753847    216.99688   0.01387803  0.013330244            2 
 1304000   0.73805911   -8.4884166    216.73961  0.013850946  0.013318407            3 
 1305000   0.72819564   -8.4805365    217.07342  0.013861649  0.013306578            7 
 1306000   0.73102488   -8.4921139    216.94448  0.013842808  0.013294746            5 
 1307000   0.70509022   -8.4968135    217.04142  0.013838397  0.013282962            3 
 1308000   0.72655821   -8.4511193    217.72417  0.013871316  0.013271196            4 
 1309000    0.7154297   -8.4676837    216.94413   0.01381106  0.013259428            3 
 1310000   0.73770761   -8.4529628    217.22939  0.013818664  0.013247685            3 
 1311000   0.72239516    -8.489252     216.7058  0.013774841  0.013235951            5 
 1312000   0.72243259   -8.4849083    217.15377  0.013792796  0.013224205            6 
 1313000   0.72873605   -8.4640326    217.26821  0.013789554  0.013212464            4 
 1314000   0.72868612   -8.4779524      217.038   0.01376446  0.013200704            4 
 1315000   0.75013574   -8.5038291    216.97413  0.013749945  0.013188954            3 
 1316000   0.72181997   -8.4960563    217.25128  0.013757047  0.013177214            4 
 1317000   0.72818481   -8.4946286     217.0711    0.0137352  0.013165478            2 
 1318000   0.72001924   -8.5264664    217.00945  0.013720881  0.013153752            3 
 1319000   0.72028578   -8.5215101    216.67164  0.013689136  0.013142018            3 
 1320000   0.73048771   -8.5039352    217.46275  0.013728709  0.013130273            1 
 1321000   0.73292177   -8.4977598    216.79191  0.013675997  0.013118563            9 
 1322000   0.74332877   -8.4925377    217.02493  0.013680341  0.013106847            6 
 1323000   0.71977766   -8.4815569    216.59547   0.01364295   0.01309516            2 
 1324000   0.71850321    -8.504965    217.27351  0.013675321  0.013083481            8 
 1325000   0.72929655   -8.5256824    217.24646    0.0136633  0.013071789            3 
 1326000   0.73719573   -8.4888268    217.47006  0.013667047  0.013060164            3 
 1327000   0.71132863   -8.4847599    217.37551  0.013650811  0.013048527            5 
 1328000     0.722916   -8.5208651    216.96099   0.01361452  0.013036863            3 
 1329000   0.70746331   -8.5160496    216.94017   0.01360297  0.013025187            4 
 1330000   0.71772899    -8.493234    217.05415  0.013599884  0.013013533            5 
 1331000   0.71068782   -8.5278192      217.038  0.013588655  0.013001887            4 
 1332000   0.72586366   -8.5153912    217.24356  0.013591314  0.012990273            4 
 1333000   0.71923349   -8.4870534     217.3745  0.013589304  0.012978693            5 
 1334000   0.71989917   -8.5413122    216.61613  0.013531742  0.012967079            3 
 1335000   0.71656613   -8.5111416    217.32631  0.013565937  0.012955498            5 
 1336000   0.71405949   -8.5113633    217.59096   0.01357229  0.012943929            2 
 1337000    0.7188766   -8.5253099    217.43046  0.013552136   0.01293234            5 
 1338000   0.71472039   -8.5091764    217.06723  0.013519384  0.012920816            3 
 1339000   0.72055455   -8.5152197    216.96761  0.013503087  0.012909287            3 
 1340000   0.71738516   -8.5238528    217.16055  0.013505009   0.01289777            2 
 1341000   0.70819458   -8.5316851    216.74765   0.01346928  0.012886263            6 
 1342000   0.70536522   -8.5125028    217.15202  0.013484353  0.012874776            6 
 1343000   0.73277985   -8.5097559    217.03641  0.013467139  0.012863242            4 
 1344000   0.72803323   -8.5268208     217.2119     0.013468  0.012851715            2 
 1345000    0.7175571   -8.5401941    217.09945  0.013451019  0.012840195            2 
 1346000   0.71227898   -8.5082703    216.63096  0.013412021  0.012828664            4 
 1347000   0.70681813   -8.5394951    217.23488  0.013439426  0.012817141            8 
 1348000   0.71621108   -8.5409557    216.97307  0.013413271  0.012805619            4 
 1349000   0.71919836   -8.5362111    217.04497  0.013407769  0.012794094            2 
 1350000   0.71299431   -8.5642059    216.50947  0.013364782  0.012782561            3 
 1351000   0.71945748    -8.530832    217.04581  0.013387972  0.012771014            6 
 1352000   0.72533302   -8.5479293    217.15559  0.013384837  0.012759525            3 
 1353000   0.71471592   -8.5686995    216.98147  0.013364219  0.012748059            5 
 1354000   0.71856711   -8.5523026    217.11104  0.013362324  0.012736608            4 
 1355000   0.72569023   -8.5767578    216.30341  0.013302793  0.012725107            3 
 1356000   0.71233434   -8.5428607    216.92084  0.013330927  0.012713596            4 
 1357000   0.73919135   -8.5500293    217.15348  0.013335389  0.012702141            6 
 1358000   0.70565101    -8.550139    216.96782  0.013314177  0.012690686            4 
 1359000   0.71482822   -8.5807352    216.55251  0.013278913   0.01267921            5 
 1360000   0.71249437   -8.5730468    217.07975  0.013301455   0.01266778            3 
 1361000    0.7155418   -8.5720246    216.75201  0.013271615  0.012656361            2 
 1362000   0.71433817   -8.5667902    216.36949  0.013238466   0.01264494            9 
 1363000   0.70557071   -8.5785043    216.60923  0.013243411  0.012633529            2 
 1364000   0.71800316   -8.5960505    216.41216  0.013221662  0.012622107            5 
 1365000   0.71430743   -8.5861063    216.45807  0.013214778  0.012610638            7 
 1366000   0.72070177   -8.5949757    216.39967  0.013201542  0.012599192            4 
 1367000   0.72250542   -8.5800692    216.73013  0.013212029  0.012587752            2 
 1368000    0.7099428   -8.6036392    216.50461  0.013188634  0.012576302            5 
 1369000   0.71269142   -8.5751973    216.58665  0.013183994  0.012564875            6 
 1370000    0.7280808   -8.6117042    216.28751  0.013156174  0.012553489            3 
 1371000   0.69929928   -8.5977493    216.43288  0.013155415  0.012542069            4 
 1372000   0.69996446   -8.6056548     216.3041  0.013138004  0.012530661            3 
 1373000   0.70182885   -8.5989877    216.72237  0.013153822  0.012519236            2 
 1374000   0.70667878   -8.5935705    216.34391  0.013121295  0.012507862            6 
 1375000   0.71229435   -8.5936881    216.50355  0.013121427   0.01249649            3 
 1376000   0.70545412   -8.5853725     216.9791  0.013140692  0.012485176            7 
 1377000   0.72466623   -8.5847078    216.60363  0.013108426  0.012473856            5 
 1378000   0.69017392   -8.5791548    216.93052  0.013118681  0.012462578            6 
 1379000   0.71332195   -8.5792356     216.6407  0.013091655  0.012451327            2 
 1380000   0.71583684   -8.5701373    216.75307  0.013088954  0.012440093            2 
 1381000   0.69561756   -8.5780207     216.9188  0.013089476   0.01242886            2 
 1382000   0.70337399   -8.5863892    216.27675   0.01304129  0.012417602            4 
 1383000   0.71245666   -8.5700728    216.74214  0.013059902  0.012406347            6 
 1384000   0.69829213   -8.6183291    216.46189  0.013033591  0.012395089            5 
 1385000   0.69424236   -8.6075289    216.81648  0.013045516  0.012383863            5 
 1386000   0.69750996    -8.573957    217.06175  0.013050851  0.012372677           14 
 1387000   0.69057269   -8.5766096    216.94989  0.013034721  0.012361502            2 
 1388000   0.70173513   -8.6160465    216.73664  0.013012526  0.012350303            3 
 1389000   0.68509412   -8.5971865    217.01644  0.013019945  0.012339101            8 
 1390000   0.70678357   -8.6012531    217.08913  0.013014936  0.012327932            6 
 1391000   0.71069662   -8.6045413    216.79821  0.012988151  0.012316745            7 
 1392000     0.706721   -8.5988415    216.54658  0.012963756  0.012305565            5 
 1393000   0.70008635   -8.5637906    217.01098  0.012982231  0.012294421            5 
 1394000   0.69398561   -8.6082824    216.97297  0.012970646  0.012283313            9 
 1395000   0.70341576   -8.6145662    216.56841  0.012937181  0.012272209            5 
 1396000   0.69524073   -8.5828985    217.12927  0.012961394  0.012261087            3 
 1397000   0.68321087   -8.5807318    216.97829   0.01294311  0.012250018            7 
 1398000   0.69705536   -8.6065624    216.58783  0.012910576  0.012238925            3 
 1399000   0.68813234   -8.5800722    216.92484  0.012921423  0.012227859            5 
 1400000   0.69977413    -8.597391    216.42574  0.012882484  0.012216765            7 
 1401000   0.69151611   -8.6060365    216.89599  0.012901261  0.012205714            4 
 1402000   0.67814901   -8.5822023    216.50703  0.012868939  0.012194695            4 
 1403000   0.70986323   -8.5908266    217.25529  0.012904211  0.012183683            2 
 1404000   0.69451307   -8.6023693    217.05197  0.012882952  0.012172665           14 
 1405000   0.70168612   -8.5818515     216.7137  0.012853719  0.012161704            5 
 1406000   0.69054587   -8.6194116     217.1044  0.012867734  0.012150732            9 
 1407000   0.68403256   -8.5890966    217.36992  0.012874314  0.012139774            4 
 1408000   0.69056224   -8.6005002     217.3873  0.012866199  0.012128846            6 
 1409000   0.70101812    -8.614851    217.27328  0.012850324  0.012117929            5 
 1410000      0.68014   -8.5848837    217.38533  0.012847833  0.012107057            3 
 1411000   0.66986899   -8.6055272    217.34086  0.012836101  0.012096165            5 
 1412000   0.71109034   -8.5996746    217.21911  0.012819825  0.012085293            5 
 1413000   0.69306848   -8.5814271    217.01826  0.012798907  0.012074431            3 
 1414000    0.7072451   -8.6175859    216.78734  0.012776246  0.012063589            2 
 1415000   0.69132968   -8.5832632    217.06087  0.012783325  0.012052753            2 
 1416000   0.68208612   -8.6108071    216.96301  0.012768539  0.012041932            2 
 1417000   0.68671077   -8.5914276     217.0902  0.012767008  0.012031111            5 
 1418000   0.68629939   -8.6228746    216.94897  0.012749704  0.012020279            4 
 1419000   0.69468223   -8.5990938    217.06782  0.012747699  0.012009429            7 
 1420000   0.68564359   -8.6357184     217.2065   0.01274686   0.01199861            6 
 1421000   0.68472296   -8.6042238    216.79199  0.012713582  0.011987805            5 
 1422000   0.67261326   -8.6027797    216.84959  0.012708016  0.011976979            8 
 1423000    0.6985681   -8.6330749    216.95367  0.012705181  0.011966181           13 
 1424000   0.67740571    -8.622103    217.01225  0.012699687   0.01195539            3 
 1425000    0.6758143   -8.6229087    217.02444  0.012691488  0.011944601            5 
 1426000   0.68362483   -8.6271156    217.24284  0.012695351  0.011933807            2 
 1427000   0.68812798   -8.5938488    217.09752  0.012677968   0.01192301            5 
 1428000    0.6876142   -8.6163717    216.90523  0.012657868  0.011912237            2 
 1429000   0.68347941   -8.5957169    217.04696  0.012657275   0.01190149            4 
 1430000   0.68884362   -8.6163834    217.02487  0.012647137  0.011890718            2 
 1431000   0.68083155   -8.6245605    216.73936  0.012621672  0.011879975            3 
 1432000   0.69168177   -8.6196101      216.541  0.012601315  0.011869222            7 
 1433000   0.70178269    -8.635968    217.16388  0.012628744  0.011858498            2 
 1434000   0.67798122    -8.603301    216.82623  0.012600316  0.011847742            2 
 1435000   0.67772858   -8.6242726    216.74257  0.012586676  0.011837027            7 
 1436000   0.70060692   -8.6261337    216.53176  0.012565678  0.011826269            7 
 1437000   0.67941002   -8.6397594     216.8798  0.012577116  0.011815532            5 
 1438000   0.66933463   -8.6308741    216.57001  0.012550418  0.011804795            7 
 1439000   0.67758704   -8.6454261     216.7772  0.012553694  0.011794051            4 
 1440000   0.67149751   -8.6293542    216.77334  0.012544753  0.011783326            4 
 1441000   0.68811447   -8.6497064     216.2884  0.012508004  0.011772599            9 
 1442000   0.68673652    -8.606889    216.70966  0.012523675  0.011761897            3 
 1443000   0.66224316   -8.6338634    216.28701  0.012490587  0.011751209            6 
 1444000   0.68141351   -8.6312796    217.01802  0.012524124  0.011740509            3 
 1445000   0.66899761   -8.6458147    216.54461  0.012488155  0.011729823            5 
 1446000   0.67707912   -8.6580439    216.47846  0.012475707  0.011719162            5 
 1447000   0.68712058   -8.6307416    216.56331  0.012471971  0.011708488            4 
 1448000   0.67241597   -8.6621863    216.37851  0.012452722  0.011697814            4 
 1449000   0.68631425   -8.6828833    216.35528  0.012442793  0.011687134            3 
 1450000   0.67247777   -8.6631539    215.99221  0.012413345  0.011676472            2 
 1451000   0.67137851   -8.6379871    216.19838  0.012416631  0.011665794            3 
 1452000   0.66680273   -8.6320597    216.88049  0.012447227  0.011655152            2 
 1453000   0.66763215   -8.6585887    216.30919  0.012405895  0.011644502            5 
 1454000   0.67953146   -8.6696426    216.40953  0.012403114  0.011633825            3 
 1455000    0.6755227   -8.6452769    216.02528  0.012372582  0.011623198            7 
 1456000    0.6669073   -8.6656983    216.19924  0.012374041  0.011612585            6 
 1457000   0.66366612   -8.6278154    216.87302  0.012404085  0.011601974            4 
 1458000   0.67502823   -8.6709389    216.18934  0.012356501  0.011591367            3 
 1459000   0.68590729   -8.6477246    216.36616  0.012358131  0.011580785            4 
 1460000   0.67563889   -8.6475741    216.20714   0.01234059  0.011570217            1 
 1461000   0.65312673   -8.6788822    216.12312  0.012327351  0.011559636            3 
 1462000   0.66915969   -8.6507785     216.5938  0.012345748  0.011549097            2 
 1463000   0.65568129   -8.6604161    215.96345  0.012301404   0.01153853            6 
 1464000   0.66879727    -8.676787    215.87759  0.012288114  0.011527972            4 
 1465000   0.65847125   -8.6419262    215.93265  0.012282859  0.011517416            7 
 1466000    0.6686798   -8.6617005    216.43017  0.012302761  0.011506869            4 
 1467000   0.67236713   -8.6512268     216.1066  0.012275994  0.011496356            9 
 1468000   0.67491011   -8.6383396    216.02847  0.012263197  0.011485823            3 
 1469000   0.67286678    -8.665542    216.04716  0.012255909  0.011475292            9 
 1470000   0.66133937    -8.683119    215.95013  0.012242071   0.01146479            3 
 1471000   0.66076561   -8.6533518    216.22728  0.012249449  0.011454288            5 
 1472000   0.66924703   -8.6694361    216.15898  0.012237261  0.011443819           18 
 1473000   0.66819358   -8.6613268    216.17053  0.012229607  0.011433332            3 
 1474000   0.68284955    -8.664898    216.30713  0.012229033  0.011422901            5 
 1475000   0.66704074   -8.6716451     216.1893  0.012214085  0.011412465            5 
 1476000    0.6743524   -8.6667658    216.40609  0.012218049  0.011402029            3 
 1477000   0.66797304   -8.6821735    215.97927  0.012185696  0.011391601            7 
 1478000   0.66161257   -8.6705561    216.49649  0.012206613    0.0113812            4 
 1479000    0.6677598   -8.6711604    216.33642  0.012189341   0.01137078           11 
 1480000   0.67697656   -8.6896453    216.36948  0.012182966   0.01136036            5 
 1481000   0.66876488   -8.6754603     216.4461  0.012179052   0.01134997            5 
 1482000   0.65516708   -8.6587393    216.21317  0.012157736  0.011339602            5 
 1483000   0.66918733   -8.6858842    216.01385  0.012138337   0.01132925            7 
 1484000   0.65167314   -8.6833547    216.64036  0.012165339   0.01131891            9 
 1485000   0.66444874   -8.6661793    216.52444  0.012150642  0.011308572            4 
 1486000   0.65630658   -8.7033325     215.9578  0.012110689  0.011298251            2 
 1487000   0.65216344   -8.6796432    215.91132   0.01209994   0.01128794           10 
 1488000   0.65068574   -8.6842501    216.05712  0.012099973  0.011277606            4 
 1489000   0.65513191   -8.6922815    215.81443  0.012078264  0.011267288            6 
 1490000    0.6566366   -8.6749304    216.15224  0.012089052  0.011256979            3 
 1491000   0.65290997   -8.6702091    216.23002   0.01208529  0.011246683            5 
 1492000   0.63871532   -8.6941755     216.2859  0.012080312  0.011236398            8 
 1493000   0.65239434   -8.6939995    216.12268   0.01206311  0.011226112            9 
 1494000   0.66181431   -8.7006111    215.71359  0.012032217  0.011215851            4 
 1495000   0.65342238   -8.6953987    216.35678  0.012060021  0.011205577            5 
 1496000   0.64656955   -8.6766164     216.3612  0.012052206  0.011195371            6 
 1497000   0.67190155    -8.701042    216.03427  0.012025956  0.011185136            9 
 1498000   0.64741499   -8.6959702    216.35695  0.012035878  0.011174917            5 
 1499000    0.6640264   -8.7013626    216.03429  0.012009912  0.011164695            8 
 1500000   0.65511393   -8.6928833    216.12279  0.012006822  0.011154474            1 
 1501000   0.65798955   -8.7047618    216.47308   0.01201827  0.011144308            2 
 1502000    0.6520092   -8.6907596    216.21692  0.011996056  0.011134097            8 
 1503000   0.65726968   -8.7078541    215.79237  0.011964536  0.011123922            4 
 1504000   0.66553161   -8.7066638      215.747  0.011954067  0.011113734            7 
 1505000   0.64849742   -8.6971601    215.60574  0.011938303  0.011103559            7 
 1506000   0.66856768   -8.7115799    215.77583  0.011939787  0.011093406            1 
 1507000   0.65534154   -8.7164304    215.93501  0.011940667  0.011083242            6 
 1508000   0.64889201   -8.7086493    215.83161  0.011927034  0.011073097            4 
 1509000   0.65066191   -8.7201696    216.38043  0.011949438  0.011062956            6 
 1510000   0.64232648   -8.7330371    216.01282  0.011921237  0.011052822            7 
 1511000   0.64638853   -8.7387782    215.43221  0.011881327  0.011042699            5 
 1512000    0.6469782   -8.7332519    215.78532   0.01189293  0.011032572            5 
 1513000   0.64111547   -8.7132735    215.78627  0.011885122  0.011022482            5 
 1514000    0.6586646   -8.7169521    215.84707  0.011880618  0.011012395            6 
 1515000   0.63329117   -8.7211705    215.91793  0.011876674  0.011002311           15 
 1516000    0.6437549   -8.7270457    215.80969   0.01186289  0.010992241            9 
 1517000   0.64903338   -8.7117346    215.67927  0.011847905  0.010982172            5 
 1518000   0.66150577     -8.73564    215.80096  0.011846781  0.010972114            4 
 1519000   0.63276505   -8.7142747    216.11565  0.011856246  0.010962048           12 
 1520000   0.63685219   -8.7095461    215.94857  0.011839286  0.010952006            6 
 1521000   0.64020339   -8.7232189    215.66923  0.011816197  0.010941971           11 
 1522000   0.65123287   -8.7215601     216.0429  0.011828893  0.010931963            9 
 1523000   0.64473274   -8.7353416    216.21255  0.011830408  0.010921927            5 
 1524000   0.64629527    -8.744439    215.71946  0.011795683  0.010911919            3 
 1525000   0.65208191   -8.7382273    216.17613  0.011812904  0.010901903            4 
 1526000   0.64449199   -8.7146751    216.06014  0.011798828    0.0108919            3 
 1527000   0.64541706   -8.7293452    215.86876  0.011780657  0.010881918            3 
 1528000   0.63996511   -8.7568711    215.73946  0.011765896  0.010871938            1 
 1529000   0.64834791   -8.7430432    215.62105  0.011751747  0.010861953            7 
 1530000   0.64277429   -8.7135543    216.00174    0.0117648  0.010851979            7 
 1531000   0.64367606   -8.7567037     215.2465  0.011716008  0.010842014            3 
 1532000    0.6475171   -8.7174751    215.72388  0.011734328  0.010832075            6 
 1533000   0.63951256   -8.7668036    215.74047  0.011727575  0.010822136            7 
 1534000   0.64410361   -8.7415232    215.66883  0.011716038  0.010812207            4 
 1535000   0.63416212   -8.7470381    215.98285  0.011725454  0.010802287            7 
 1536000   0.62186454   -8.7386019    215.70455  0.011702721  0.010792363            8 
 1537000   0.64467193   -8.7357407    215.47497  0.011682659  0.010782456            5 
 1538000   0.63489427   -8.7205771    215.70269  0.011687402  0.010772556            8 
 1539000   0.63170229   -8.7453054    215.47079  0.011667251  0.010762667            9 
 1540000   0.63742547   -8.7334587     215.5928  0.011666277  0.010752775            2 
 1541000   0.64457257   -8.7601171     215.7847  0.011669084  0.010742895            7 
 1542000   0.64360818   -8.7724184    215.55562  0.011649136  0.010733031            4 
 1543000   0.62753189   -8.7328936    215.74957  0.011652062   0.01072317            6 
 1544000   0.62378632   -8.7406235    215.62423   0.01163775   0.01071334            6 
 1545000   0.62621095   -8.7501928     215.1689  0.011605658  0.010703515            9 
 1546000    0.6284177   -8.7397331    215.86562  0.011635706  0.010693694            7 
 1547000   0.61845474   -8.7388695    215.55893  0.011611664  0.010683887            6 
 1548000   0.63736037   -8.7374796    215.72214  0.011612949  0.010674094            5 
 1549000   0.64432655   -8.7532512    215.66338  0.011602291  0.010664293            5 
 1550000   0.62176126   -8.7517284    215.29214  0.011574846  0.010654503            5 
 1551000   0.64570761   -8.7519752    216.01068   0.01160599  0.010644721            5 
 1552000   0.63369211   -8.7524368    215.45956   0.01156892  0.010634952            4 
 1553000   0.63671834   -8.7742186    215.54152  0.011565868  0.010625181            7 
 1554000   0.62615451   -8.7255063    215.18199  0.011539146  0.010615411            6 
 1555000   0.62962991   -8.7609142    215.23373  0.011534498  0.010605658            6 
 1556000   0.63051873   -8.7593308    215.40527  0.011536272  0.010595931            3 
 1557000   0.62914223   -8.7578443     215.4367  0.011530545  0.010586206            4 
 1558000   0.62334479   -8.7365126    215.46005  0.011524393  0.010576474            4 
 1559000   0.63810956   -8.7632849     215.1339  0.011499567  0.010566774            3 
 1560000   0.63085936   -8.7610253    215.38842  0.011505792  0.010557072            6 
 1561000   0.63383116   -8.7697493    215.24915  0.011490986  0.010547388            6 
 1562000   0.63093448   -8.7723287    215.19859  0.011480932  0.010537731            6 
 1563000   0.62642941   -8.7643852    215.73226   0.01150204  0.010528091            8 
 1564000   0.64030728   -8.7530732    215.60905  0.011488121  0.010518441            8 
 1565000   0.63130061   -8.7647121    215.65831  0.011483403  0.010508808            4 
 1566000   0.61366161   -8.7357758    215.52391  0.011468918  0.010499184            3 
 1567000   0.61747852   -8.7791201    215.64601  0.011468092   0.01048959            6 
 1568000   0.63146958   -8.7426598    215.43475  0.011449551  0.010479989            4 
 1569000   0.62778598   -8.7560367    215.10316  0.011424642  0.010470412            4 
 1570000   0.62506087   -8.7633706    215.36905  0.011431478  0.010460823            2 
 1571000   0.61991566   -8.7469271     215.2764  0.011419287  0.010451246            3 
 1572000   0.63748368   -8.7897439    215.11517  0.011403476  0.010441664            6 
 1573000   0.63156219   -8.7784486    214.97496  0.011388798  0.010432096            7 
 1574000   0.63370079     -8.76839    215.31941  0.011399799  0.010422543            4 
 1575000   0.62395112   -8.7677369    214.96194  0.011373648  0.010413007            7 
 1576000   0.62173403   -8.7734312    215.16266  0.011377044   0.01040349            5 
 1577000   0.63669223   -8.7635354    215.16199  0.011369795  0.010393976            4 
 1578000   0.63266363    -8.779709    215.30281  0.011370026  0.010384476            3 
 1579000   0.62709143   -8.7918767    215.17623  0.011356145  0.010374989            3 
 1580000   0.61174703   -8.7735902    215.07526  0.011343632  0.010365514            5 
 1581000   0.63440903   -8.7818333    215.25192  0.011345768  0.010356039            5 
 1582000   0.61861734   -8.7895173      215.261  0.011339075  0.010346585            8 
 1583000   0.62751787   -8.7920192     215.2906   0.01133347  0.010337122            7 
 1584000   0.63145767   -8.7938183     215.7462  0.011350284   0.01032767            3 
 1585000    0.6341347   -8.7941017    215.28917  0.011319094  0.010318231            3 
 1586000   0.61251949   -8.7849393    215.32711  0.011313951  0.010308793            4 
 1587000   0.62627408   -8.7671195    215.17497  0.011298832  0.010299358            4 
 1588000    0.6136221   -8.7839335    215.27798  0.011297123  0.010289929            4 
 1589000   0.62473364   -8.7790566    215.08406  0.011279844  0.010280511            5 
 1590000   0.62608118   -8.7856721    215.25614  0.011281768  0.010271113            3 
 1591000   0.61048372    -8.793117    215.34219  0.011279185   0.01026172            5 
 1592000   0.61177105   -8.7766103    215.57268  0.011284164  0.010252332            4 
 1593000   0.61423726   -8.7860331    214.90677  0.011242246  0.010242958            6 
 1594000   0.59996683   -8.7907739    215.37229   0.01125953  0.010233606            7 
 1595000   0.60555545    -8.791392    215.38572  0.011253173  0.010224265            6 
 1596000   0.60829349    -8.802084    214.93989  0.011222843  0.010214928            3 
 1597000   0.60279719   -8.7745196     215.1857  0.011228642  0.010205608            4 
 1598000   0.61769007   -8.8043506    215.18366  0.011221509  0.010196291            4 
 1599000   0.59888643   -8.8048696    215.24295  0.011217581  0.010186985            3 
 1600000   0.62275043   -8.7988245    215.29555   0.01121331  0.010177685            3 
 1601000   0.61641763   -8.8036378    215.15308   0.01119889  0.010168397            2 
 1602000   0.61933239   -8.7740373    215.50083  0.011209989  0.010159115            6 
 1603000    0.5976444     -8.79086    215.59094   0.01120768  0.010149844            7 
 1604000   0.60170095   -8.8006343    215.03087  0.011171596  0.010140578            4 
 1605000   0.62247687    -8.804267    214.64325  0.011144509  0.010131327            4 
 1606000    0.6173913   -8.8047049    215.14083  0.011163389  0.010122081            9 
 1607000   0.61967657   -8.8008315    215.03932  0.011151178  0.010112839            7 
 1608000   0.61887756   -8.7793803    214.87393  0.011135672  0.010103613           14 
 1609000   0.60393454   -8.8017398    215.16447  0.011143799  0.010094409           11 
 1610000   0.60663265   -8.8058521    215.35457  0.011146717   0.01008521           10 
 1611000   0.61904233   -8.8054187    215.29193  0.011136558  0.010076023           16 
 1612000   0.61739336   -8.7982542    215.15229   0.01112243  0.010066853            8 
 1613000   0.60308359   -8.8222887     215.0286  0.011109144  0.010057682           15 
 1614000   0.61052542   -8.8104398    215.30773  0.011116673   0.01004852            7 
 1615000   0.62506206   -8.8200608    215.05988  0.011097001  0.010039389            6 
 1616000   0.60915951   -8.8172645    215.14039  0.011094286  0.010030261            7 
 1617000   0.60804064   -8.8016247     215.0209  0.011081267   0.01002112            4 
 1618000   0.60109424   -8.7939683    214.90252  0.011068321  0.010011987            3 
 1619000   0.61015293   -8.8021119    215.25641    0.0110797  0.010002887            9 
 1620000   0.60750532   -8.8169137    214.90622  0.011054847 0.0099937973            3 
 1621000   0.59712886   -8.8140314    215.31353  0.011068966 0.0099846951            8 
 1622000   0.60401278   -8.8307761    215.19327  0.011055964 0.0099756116            8 
 1623000   0.60345572   -8.8286007    214.72909  0.011025318 0.0099665275            4 
 1624000   0.60765984   -8.8130454    215.19933  0.011042659 0.0099574627            6 
 1625000   0.59901945   -8.8076569    214.94986   0.01102307   0.00994842            6 
 1626000   0.61117216   -8.8111966    215.04655  0.011021246 0.0099393774            7 
 1627000   0.58873345   -8.8084328    214.88912  0.011006409  0.009930343            5 
 1628000   0.61185504   -8.8264694    215.01124  0.011005899 0.0099213068            6 
 1629000   0.61106377   -8.8303566    215.21527   0.01100958 0.0099122878            4 
 1630000   0.60423323   -8.8224992    214.72058  0.010977535 0.0099032828            4 
 1631000   0.61505501       -8.836     215.0539  0.010987835 0.0098942793            4 
 1632000   0.59050942    -8.838041    215.00071  0.010978386  0.009885285            6 
 1633000   0.60232705   -8.8258641    214.69508  0.010956067 0.0098763077           12 
 1634000   0.60836061   -8.8228427    215.17556  0.010973866 0.0098673309            7 
 1635000    0.6066299   -8.8251206    214.93475   0.01095488 0.0098583737            7 
 1636000   0.60331038   -8.8321531    214.91859  0.010947361  0.009849425            6 
 1637000   0.61474108   -8.8227685    214.74991  0.010932087 0.0098404854            3 
 1638000     0.596525   -8.8360729     214.4454   0.01090992 0.0098315379           11 
 1639000   0.60006446   -8.8315714    214.93901  0.010928361 0.0098226041            9 
 1640000    0.5971504    -8.841937    215.15286  0.010932564  0.009813676            4 
 1641000   0.60036566   -8.8276664    215.17802   0.01092718 0.0098047653            5 
 1642000   0.59831708   -8.8511561    214.96344  0.010909635  0.009795867            6 
 1643000   0.58939594   -8.8117915    214.88535  0.010899034 0.0097869689            6 
 1644000    0.5905491   -8.8336292    214.84654  0.010890437 0.0097780749            7 
 1645000    0.6132726   -8.8230833    215.29488  0.010906529  0.009769208            7 
 1646000   0.59917979    -8.825523    214.85151  0.010877456 0.0097603427            8 
 1647000   0.59927329   -8.8382256     214.5302  0.010854594 0.0097515018            7 
 1648000   0.59324054   -8.8436996    215.14643  0.010879168 0.0097426653            6 
 1649000   0.59401041   -8.8299133    214.65701  0.010847838 0.0097338446            4 
 1650000     0.585682   -8.8465411    214.78277  0.010847614 0.0097250311            7 
 1651000   0.60885118    -8.822997    214.79722  0.010841773 0.0097162207           20 
 1652000   0.58792489   -8.8275073    214.90112  0.010840452 0.0097074242            6 
 1653000   0.60197843   -8.8325236    214.98118   0.01083793 0.0096986277            6 
 1654000   0.59179704    -8.848234    214.56092  0.010810204 0.0096898512            6 
 1655000   0.59434755   -8.8193994    215.18121  0.010834905 0.0096810781            8 
 1656000   0.59905149   -8.8363511    215.13693  0.010826134 0.0096723243           10 
 1657000   0.60654231   -8.8427587    214.73322  0.010799297 0.0096635807            6 
 1658000   0.58812921   -8.8431618    214.95258  0.010803809 0.0096548324            6 
 1659000   0.58894024   -8.8368695    214.67949  0.010783579 0.0096460967            4 
 1660000   0.59596396   -8.8462935    214.77705   0.01078198 0.0096373634            4 
 1661000   0.58860988   -8.8393319    214.52687  0.010762938 0.0096286542            5 
 1662000   0.58173172   -8.8412316     215.1308  0.010786743 0.0096199462            7 
 1663000   0.60174989   -8.8254822    214.74778  0.010761064 0.0096112471            7 
 1664000   0.58385548   -8.8497883    215.04075  0.010769268 0.0096025642            4 
 1665000   0.58002657   -8.8586098    214.85279  0.010753393 0.0095938897            5 
 1666000   0.59096878   -8.8391156    214.53663  0.010731124 0.0095852187            5 
 1667000   0.59062942   -8.8502123    214.73247  0.010734477 0.0095765539            6 
 1668000   0.59112122   -8.8545878    214.82764  0.010732796 0.0095679041            6 
 1669000   0.58804627   -8.8568298    214.77797  0.010723885  0.009559252            8 
 1670000   0.58125778   -8.8282244    214.43076  0.010700138 0.0095506136            4 
 1671000   0.58664089   -8.8495486    214.83341  0.010713815 0.0095419913            5 
 1672000   0.59283757   -8.8495748     214.4827  0.010689927 0.0095333721            4 
 1673000   0.58483403   -8.8535706    214.71594  0.010695156 0.0095247677            4 
 1674000   0.59174636   -8.8588857    214.73126  0.010689529 0.0095161863            7 
 1675000   0.57972699    -8.839662    214.39458  0.010666397 0.0095076135            7 
 1676000   0.59444024   -8.8670325    214.58835  0.010669667 0.0094990423            4 
 1677000   0.58106271   -8.8645246    214.76874  0.010672269 0.0094904795           10 
 1678000   0.58200153   -8.8509998    214.72638  0.010663805  0.009481942            5 
 1679000   0.57615259    -8.853943    214.55662  0.010649028 0.0094734015            5 
 1680000   0.58319665   -8.8445201    214.66525  0.010648078 0.0094648712            9 
 1681000   0.58850136    -8.835576    214.59969  0.010638493 0.0094563558           10 
 1682000   0.58931638   -8.8408572    214.80575  0.010642378 0.0094478424           10 
 1683000    0.5913839   -8.8790878    214.86707   0.01063909 0.0094393331            9 
 1684000   0.59061373   -8.8363404    214.25741  0.010602604 0.0094308164            4 
 1685000   0.58459921   -8.8687767    214.97397  0.010631749 0.0094223208            3 
 1686000   0.58118342   -8.8701645    215.17311  0.010635286 0.0094138219           11 
 1687000   0.57870498    -8.872099    214.95708  0.010618311 0.0094053528            7 
 1688000   0.56861184   -8.8707208    214.30849      0.01058 0.0093968815            4 
 1689000   0.58240669   -8.8717559    214.56209  0.010586249 0.0093884052            4 
 1690000   0.57494538   -8.8328756    214.51714  0.010577768 0.0093799447            3 
 1691000   0.58769001   -8.8458243    214.32029  0.010561812 0.0093714949            8 
 1692000   0.56826727   -8.8613868    214.71588  0.010575053 0.0093630547            5 
 1693000   0.58618481   -8.8598745    214.61769  0.010563974 0.0093546271            6 
 1694000   0.57627107   -8.8657927    214.64156  0.010558912 0.0093462034            9 
 1695000   0.59066054   -8.8659687    214.25698  0.010533775 0.0093377843            5 
 1696000   0.57678424   -8.8760189    214.66488  0.010547606 0.0093293823            7 
 1697000   0.57329186   -8.8493771    214.48412  0.010532514 0.0093209929            6 
 1698000   0.57038353   -8.8848122    214.48284  0.010526249 0.0093125982            3 
 1699000   0.58138417   -8.8846462    214.30608  0.010511383 0.0093042223            6 
 1700000   0.58967716   -8.8699892    214.43513  0.010511526 0.0092958569            4 
 1701000   0.57473077   -8.8638794    214.60211  0.010513527 0.0092875051            3 
 1702000   0.56585664   -8.8833215    214.37007  0.010495989  0.009279151            3 
 1703000   0.58299215   -8.8673023    214.71473  0.010506691 0.0092708101            7 
 1704000   0.56756216   -8.8825281    214.35371  0.010482869 0.0092624754            8 
 1705000   0.56283812   -8.8789989     214.1041  0.010464521 0.0092541441            8 
 1706000   0.58315984   -8.8826644    214.63521   0.01048433 0.0092458227            7 
 1707000   0.56037384   -8.8746064    214.42457  0.010467905 0.0092375088            2 
 1708000   0.56673281   -8.8622753    214.17937  0.010449813  0.009229212            7 
 1709000   0.57484267   -8.8861221    214.58122  0.010463293 0.0092209193            5 
 1710000   0.57159781   -8.8596107    214.25589   0.01044132 0.0092126361            4 
 1711000   0.56462063   -8.8854045    213.95117  0.010420377 0.0092043563            4 
 1712000   0.58000522    -8.866793    214.24533  0.010428608  0.009196091            4 
 1713000   0.58511256   -8.8724762    214.27578  0.010424002 0.0091878322            7 
 1714000   0.56642711   -8.8912763    214.28923  0.010418574 0.0091795824            4 
 1715000   0.57185808   -8.8768404    214.66316  0.010430668 0.0091713299            2 
 1716000   0.56723421   -8.8855535    214.27465  0.010405723 0.0091630995            6 
 1717000   0.57144198   -8.8918746    214.18008  0.010395073 0.0091548778            5 
 1718000   0.55937793   -8.8860924    214.23621  0.010391745 0.0091466595            3 
 1719000   0.55673137   -8.8755854    214.32366  0.010389939 0.0091384581            5 
 1720000   0.55086672   -8.8773132     214.8102  0.010407471 0.0091302628            3 
 1721000    0.5788568   -8.9019663    214.27754  0.010375632 0.0091220727            4 
 1722000   0.56186835   -8.8956072    214.47066  0.010378952 0.0091138822            3 
 1723000   0.56567782   -8.8909525    214.36711   0.01036792 0.0091057175            5 
 1724000   0.56121776    -8.881487    214.20911  0.010354269 0.0090975606            5 
 1725000   0.56083517   -8.8735184    214.15615  0.010345708   0.00908943            4 
 1726000   0.56110853   -8.8913369    214.48444  0.010355564 0.0090813014            3 
 1727000   0.56028063   -8.8838258    214.27925  0.010339667  0.009073185            5 
 1728000   0.57155897   -8.8707828    214.26321  0.010332909  0.009065069            6 
 1729000   0.55406068   -8.8897261    214.64102  0.010345142 0.0090569645           11 
 1730000   0.56917355   -8.8918932     214.3575  0.010325506 0.0090488556            3 
 1731000   0.57026989   -8.8963685      214.274  0.010315521 0.0090407604            8 
 1732000   0.55366718   -8.8899645    214.04656  0.010298622 0.0090326704            3 
 1733000   0.57644542   -8.8956888     214.5759  0.010318133 0.0090245919            4 
 1734000   0.55756162   -8.9058349    213.99479  0.010284255 0.0090165241            8 
 1735000    0.5654954   -8.9030627    213.89277  0.010273428 0.0090084613            6 
 1736000   0.56778966   -8.9035244    214.06131    0.0102756 0.0090004026            5 
 1737000   0.56787413   -8.8931526    214.16892  0.010274847 0.0089923546            6 
 1738000   0.56029251   -8.8991692    214.60678   0.01028993 0.0089843279            8 
 1739000    0.5659645   -8.8974951      214.202  0.010264616  0.008976304            5 
 1740000   0.55839121   -8.9028734     214.1348  0.010255498  0.008968281            4 
 1741000   0.55695126   -8.9089227    214.31109  0.010258046 0.0089602776            8 
 1742000   0.54146966   -8.8884413    214.03698  0.010239044 0.0089522799            7 
 1743000   0.56656888   -8.8916723    214.57782  0.010259028 0.0089442894           10 
 1744000   0.55580788     -8.90506    214.20294  0.010235232 0.0089363058            6 
 1745000   0.56325113   -8.9011097    214.11048  0.010224951  0.008928325            9 
 1746000   0.56021453   -8.9068036    213.87641  0.010207924 0.0089203499            2 
 1747000   0.55499558   -8.9001542    214.20635  0.010217819 0.0089123926            5 
 1748000   0.55625932    -8.901408    214.31088  0.010216957 0.0089044478            5 
 1749000   0.55975926   -8.8978711     214.1445  0.010203187 0.0088965056            5 
 1750000   0.55255276   -8.9070554    213.89336  0.010185398 0.0088885744            7 
 1751000   0.55536192   -8.9034048    214.32645  0.010200193 0.0088806529            7 
 1752000   0.55208103   -8.9107088    214.19927  0.010188322 0.0088727514            8 
 1753000   0.55832678   -8.9190272    214.04137  0.010175003  0.008864842            6 
 1754000   0.54914265   -8.9160137    213.91958  0.010163416 0.0088569475            5 
 1755000   0.54400598    -8.911211    214.24727  0.010173185 0.0088490504            8 
 1756000   0.55639063   -8.9121914    214.05508  0.010158271 0.0088411654            5 
 1757000   0.55719043   -8.9079665    213.88062  0.010144215 0.0088332848           10 
 1758000    0.5589376   -8.9214817    214.09381   0.01014855 0.0088254148            5 
 1759000   0.54817117   -8.9083025    214.21198  0.010148379 0.0088175623            7 
 1760000   0.54836396    -8.892903    213.97654  0.010131465 0.0088097218            5 
 1761000   0.55639429   -8.9221554    213.80899  0.010117783 0.0088018876            3 
 1762000   0.55069033    -8.911704    213.96941  0.010119628 0.0087940603            4 
 1763000   0.56011305   -8.9079492    214.18215  0.010123943 0.0087862331            4 
 1764000   0.55334657   -8.9114738    213.95592  0.010107517 0.0087784148            5 
 1765000   0.54150893   -8.9054789    213.94901  0.010101464 0.0087705933            8 
 1766000   0.55601393   -8.9239204     213.8381   0.01009051 0.0087627905            7 
 1767000   0.55743412   -8.8919962    214.13435  0.010098772 0.0087550055            4 
 1768000   0.54396692   -8.9199692    214.04405  0.010088803 0.0087472293            5 
 1769000   0.54690064   -8.9097184    214.13784  0.010087518 0.0087394686            6 
 1770000   0.54861245   -8.9214307    214.04603  0.010077497 0.0087316979            5 
 1771000   0.54426792   -8.9157626    214.25833  0.010081796  0.008723943            6 
 1772000   0.54892325   -8.9286513    214.40913  0.010083198 0.0087161938            2 
 1773000   0.54268363   -8.9335338    214.33061  0.010073821 0.0087084516            4 
 1774000   0.54268664   -8.9450868    214.07706  0.010056232 0.0087007133            4 
 1775000   0.55684168   -8.9496369    213.80691  0.010037883 0.0086929872            3 
 1776000   0.55065848   -8.9296349    213.81622  0.010032668 0.0086852739           13 
 1777000   0.54302227   -8.9355363    214.12853  0.010041668 0.0086775794            3 
 1778000   0.54729757   -8.9265241    214.04904  0.010032295 0.0086698714            3 
 1779000   0.53724811   -8.9362945    213.72964  0.010011694 0.0086621849            5 
 1780000   0.54129849   -8.9243676    213.89522  0.010013821 0.0086545042            4 
 1781000   0.54012001   -8.9469581    213.88769  0.010007846  0.008646833            8 
 1782000   0.52887313   -8.9252035     214.0016  0.010007557 0.0086391742            5 
 1783000   0.54496603   -8.9341612    214.10884  0.010006957  0.008631519            6 
 1784000   0.52794993   -8.9346807     214.0268 0.0099975152 0.0086238686            4 
 1785000   0.53409665    -8.933013     213.4861 0.0099666712 0.0086162264           10 
 1786000   0.53889564   -8.9409283    213.88679 0.0099797866 0.0086085939            6 
 1787000   0.54845547   -8.9501943    214.11595 0.0099848883 0.0086009737            9 
 1788000   0.53679078   -8.9417554    214.00337 0.0099740574 0.0085933495            4 
 1789000   0.55258877   -8.9256855    213.74517 0.0099564546 0.0085857378            3 
 1790000   0.54832008   -8.9304091     214.1435 0.0099694368 0.0085781396            4 
 1791000   0.54777902   -8.9344346    213.83009 0.0099492875 0.0085705467           13 
 1792000   0.54666465   -8.9373617    213.66269 0.0099359508 0.0085629605            7 
 1793000   0.54406001   -8.9265884    213.70884 0.0099325544 0.0085553814           13 
 1794000   0.53444359   -8.9511833    213.65608  0.009924567 0.0085478145            5 
 1795000   0.54000827   -8.9455964    213.74257 0.0099230533 0.0085402582            6 
 1796000   0.53839652   -8.9489447    213.70452 0.0099157627 0.0085327051            5 
 1797000   0.54211504    -8.945883    213.69399 0.0099097565 0.0085251532            3 
 1798000   0.53073349   -8.9500135    213.70081 0.0099045613 0.0085176207            4 
 1799000   0.53996175   -8.9548709    213.63562 0.0098960359  0.008510088            3 
 1800000    0.5299638   -8.9422896    214.15125 0.0099144097  0.008502566            3 
 1801000   0.52529903    -8.937472    213.75495 0.0098905675 0.0084950514            3 
 1802000   0.53532524   -8.9326392     214.1852 0.0099049758 0.0084875468            5 
 1803000   0.52724958   -8.9485906    213.97512 0.0098897727 0.0084800563            5 
 1804000   0.53277203   -8.9672021    213.92942 0.0098821792  0.008472574            4 
 1805000   0.52784237   -8.9484421    213.39152 0.0098518706 0.0084650927           14 
 1806000   0.53054074   -8.9612425    213.74168 0.0098625727 0.0084576173            8 
 1807000   0.52452807    -8.959066     213.7161 0.0098559351 0.0084501541            4 
 1808000   0.52490627   -8.9579126    213.96779 0.0098620845 0.0084426954            4 
 1809000   0.52201875   -8.9491054    213.81601 0.0098496411 0.0084352538            6 
 1810000    0.5422934   -8.9278146    213.96662 0.0098511333 0.0084278181            6 
 1811000   0.52329741   -8.9330219     213.6293 0.0098301723 0.0084203956            5 
 1812000   0.52524441   -8.9588679    213.66867 0.0098265576 0.0084129766           12 
 1813000   0.52168244   -8.9487796    213.59616 0.0098178045 0.0084055666            4 
 1814000   0.52601948   -8.9508751    213.70707 0.0098174874 0.0083981679            7 
 1815000   0.52649222   -8.9557599    213.56227   0.00980543 0.0083907749           12 
 1816000   0.53092911   -8.9539901    213.50583 0.0097974406 0.0083833881            4 
 1817000   0.52240468   -8.9574591    213.50603 0.0097920577 0.0083760078            8 
 1818000   0.52765709   -8.9490264    213.47965 0.0097854626 0.0083686334            5 
 1819000   0.52135151   -8.9530451     213.5394 0.0097828204 0.0083612664            5 
 1820000    0.5228803   -8.9537081    213.51251 0.0097762137 0.0083539118            5 
 1821000   0.51868191   -8.9498744    213.84603  0.009786108 0.0083465654            6 
 1822000   0.53143771   -8.9737066    213.60748 0.0097698263 0.0083392234            5 
 1823000   0.53559128   -8.9725524     213.3236 0.0097514901 0.0083318911            8 
 1824000   0.53090592   -8.9565274    213.53665 0.0097558779 0.0083245734            6 
 1825000   0.52979219   -8.9639683     213.3674 0.0097428038 0.0083172594            3 
 1826000   0.52547807   -8.9723261    213.60964  0.009748523 0.0083099429            5 
 1827000   0.53508638   -8.9435772    213.41081 0.0097341185 0.0083026483            4 
 1828000   0.52933773   -8.9471875    213.48975 0.0097323919 0.0082953625            5 
 1829000   0.51617456   -8.9663529    213.65349 0.0097345313 0.0082880847            7 
 1830000   0.52224278   -8.9606334    213.52981 0.0097235797 0.0082808044            4 
 1831000   0.52250988    -8.968317    213.51891 0.0097177729 0.0082735353            5 
 1832000   0.52061437   -8.9673372    213.64732 0.0097183096 0.0082662781            5 
 1833000   0.52121618   -8.9624756    213.41245 0.0097023301 0.0082590278            9 
 1834000   0.52453074   -8.9666102    213.42149 0.0096974503 0.0082517855           12 
 1835000   0.52774472   -8.9594555    213.51037 0.0096962022 0.0082445505            4 
 1836000   0.51337228   -8.9664471    213.87204 0.0097073367 0.0082373252           11 
 1837000   0.52361691   -8.9737988    213.64196 0.0096916149 0.0082301105            6 
 1838000   0.52727433   -8.9771675    213.41284 0.0096759539 0.0082228968            6 
 1839000   0.51766473   -8.9811336    213.73849 0.0096854489 0.0082157028            5 
 1840000    0.5106868   -8.9686413    213.95097 0.0096898086 0.0082085137            8 
 1841000   0.50884824   -8.9568213    213.56425 0.0096670399 0.0082013379            7 
 1842000   0.52217993   -8.9548772    213.40703 0.0096546794 0.0081941656            7 
 1843000   0.51857836   -8.9578084    213.54464 0.0096556629 0.0081870087            9 
 1844000   0.52060147   -8.9662575    213.19686 0.0096347101 0.0081798468           10 
 1845000    0.5130777   -8.9762912    213.54374 0.0096451554  0.008172697           10 
 1846000   0.52747117   -8.9537641    213.46047 0.0096361713 0.0081655577            5 
 1847000   0.51097861   -8.9668156    213.45751 0.0096308207 0.0081584282            8 
 1848000   0.51934576   -8.9695784    213.49052 0.0096270977 0.0081512999            3 
 1849000    0.5185576   -8.9689034    213.37095 0.0096165021 0.0081441818            6 
 1850000   0.50900647   -8.9623066    213.47154 0.0096158352 0.0081370812            5 
 1851000   0.51199599   -8.9555843    213.56465 0.0096148319 0.0081299791            3 
 1852000   0.52597752   -8.9757134    213.71787 0.0096165349 0.0081228801            5 
 1853000   0.50244928   -8.9749811    213.61448 0.0096066954 0.0081157838            7 
 1854000   0.50173866   -8.9662217    213.31238 0.0095879353 0.0081086942            3 
 1855000   0.51049113   -8.9689206    213.83042 0.0096060386 0.0081016217            4 
 1856000   0.51882426   -8.9811043    213.19955 0.0095725372 0.0080945494            6 
 1857000   0.52157082    -8.984444     213.3333 0.0095733846 0.0080874891           15 
 1858000   0.50796578   -8.9892207     213.5441 0.0095776867 0.0080804424            9 
 1859000   0.51942118   -8.9762127    213.25987 0.0095597931 0.0080733924            6 
 1860000   0.49854664   -8.9697415    213.69226 0.0095740262 0.0080663529            8 
 1861000   0.51185164    -8.990179    213.39985 0.0095557878 0.0080593302           13 
 1862000   0.51905997   -8.9761506    213.41698 0.0095514222  0.008052306            6 
 1863000   0.51550039   -8.9735079     213.4164 0.0095462693 0.0080453015            3 
 1864000   0.52011275   -8.9767853    213.26432 0.0095343491    0.0080383            4 
 1865000   0.50495791   -8.9718709    213.40962 0.0095357291 0.0080312992            3 
 1866000   0.51396239   -8.9717372    213.46932 0.0095332849 0.0080243139            4 
 1867000   0.52846992   -8.9970395    213.22175 0.0095171285 0.0080173333            5 
 1868000    0.5149594   -9.0023587    213.38265 0.0095192117 0.0080103571            4 
 1869000    0.5094162   -8.9882118    213.25354 0.0095083617 0.0080033901            4 
 1870000   0.50373522   -8.9868377    213.32814 0.0095066014 0.0079964287            3 
 1871000   0.51733588    -9.004863    213.82129 0.0095234853  0.007989471            9 
 1872000   0.51653298   -9.0076224    213.72242 0.0095139968 0.0079825332            9 
 1873000   0.49842823   -8.9903601    213.20847 0.0094860505 0.0079756018            5 
 1874000    0.4982511     -8.99174    213.40951 0.0094899284 0.0079686764            4 
 1875000   0.50648097   -8.9756453    213.37305 0.0094832465 0.0079617621            7 
 1876000   0.49474113   -9.0063547    213.42046 0.0094802975 0.0079548561            5 
 1877000   0.50896017   -8.9742689    213.53171 0.0094801862 0.0079479543            4 
 1878000    0.4940631   -8.9968947     213.0803 0.0094551075 0.0079410613            4 
 1879000   0.49916272   -8.9915453    213.36846 0.0094628552 0.0079341685            5 
 1880000   0.50370672   -8.9865221    213.32454  0.009455875  0.007927284            3 
 1881000    0.5033607   -8.9696781    213.15795 0.0094434675 0.0079204102            6 
 1882000   0.50811051   -9.0105523    213.27498 0.0094436319 0.0079135534            5 
 1883000   0.50851925   -8.9962609    213.23618 0.0094368995 0.0079067009            4 
 1884000   0.50687361   -9.0003007     213.5355 0.0094451299 0.0078998488            5 
 1885000   0.50133845   -8.9883093    213.32977 0.0094310245 0.0078930135            5 
 1886000   0.49963574   -8.9847855    213.32512 0.0094258182 0.0078861775           11 
 1887000   0.51017564   -8.9913405    213.27536 0.0094186255 0.0078793503            7 
 1888000   0.50787213   -8.9959003    213.12088 0.0094068185 0.0078725371            6 
 1889000   0.50430954   -8.9880014    213.21303 0.0094059038 0.0078657214           10 
 1890000   0.49034108   -9.0023081    213.29279  0.009404444 0.0078589127            5 
 1891000   0.49490269   -9.0051017    213.29911 0.0093997492 0.0078521189            4 
 1892000   0.49894885   -8.9893385    213.14987 0.0093882079 0.0078453339            6 
 1893000   0.50059698   -9.0266561    213.08932  0.009380583  0.007838545            3 
 1894000   0.50089331   -8.9896156    213.32804 0.0093861336 0.0078317709            3 
 1895000   0.49985826   -8.9942616    213.29951 0.0093799258 0.0078250048           12 
 1896000   0.48513705   -9.0048237    213.02741 0.0093630192 0.0078182433            3 
 1897000   0.49128257   -9.0121429    213.17688 0.0093646496 0.0078114898            4 
 1898000   0.49509391   -8.9940005    213.27778 0.0093641458  0.007804745            7 
 1899000   0.49916575   -9.0043768    213.58843 0.0093728466 0.0077980045            4 
 1900000   0.49674423   -9.0084857    213.01312 0.0093426807 0.0077912754            5 
 1901000   0.48817525   -9.0154365    213.14701 0.0093436354 0.0077845486            7 
 1902000   0.49890371   -9.0137627    213.00596  0.009332543 0.0077778299            5 
 1903000   0.49599469   -9.0175043    213.17481  0.009335033 0.0077711215           11 
 1904000   0.49556372   -9.0133159    213.09827 0.0093267799 0.0077644326            5 
 1905000    0.4817095   -9.0138962    213.30541 0.0093309453 0.0077577409           13 
 1906000   0.49486095   -8.9887192     213.1437 0.0093189796  0.007751057            4 
 1907000   0.47929869   -9.0188782    213.28719 0.0093203632 0.0077443774            4 
 1908000   0.49169418   -9.0133105    213.22978  0.009312971 0.0077377034            8 
 1909000   0.49410126   -9.0173717    213.17614 0.0093057509 0.0077310344            7 
 1910000   0.50214551   -9.0147423    213.19959  0.009301902 0.0077243784            5 
 1911000   0.48706779   -9.0103149    213.17004 0.0092957458 0.0077177221            7 
 1912000   0.48956356   -9.0081292    212.91572 0.0092797994 0.0077110731            4 
 1913000   0.48694648   -9.0154329     212.8993 0.0092742333 0.0077044338            8 
 1914000   0.48588684   -9.0209421    213.46292 0.0092939273 0.0076977982            3 
 1915000   0.49170468   -9.0146772    213.20196 0.0092777182 0.0076911648            9 
 1916000   0.49182394   -9.0202384    212.76551 0.0092538932  0.007684547            9 
 1917000    0.4861397   -9.0092623    212.83977 0.0092522939 0.0076779299            3 
 1918000   0.49094689     -8.99767    212.83028 0.0092470577 0.0076713224            8 
 1919000   0.49161524   -9.0268494    212.96676 0.0092481658 0.0076647206            7 
 1920000   0.48274839   -9.0280322     213.1805 0.0092526261 0.0076581362            6 
 1921000   0.48612128   -9.0256073    212.82281 0.0092322925 0.0076515541           10 
 1922000   0.47867552   -9.0374921    212.84152 0.0092283003 0.0076449754            6 
 1923000   0.48488522   -9.0198879    213.14755 0.0092367631 0.0076384113            5 
 1924000   0.48727441   -9.0273237    212.88813 0.0092207262 0.0076318456            3 
 1925000   0.48826129   -9.0347003    213.16071 0.0092277364 0.0076252954           13 
 1926000   0.49494182   -9.0287423    213.08406 0.0092196288 0.0076187446           10 
 1927000   0.48961096   -9.0282255    212.64507 0.0091958602 0.0076122045            9 
 1928000   0.48376332   -9.0204097     212.8843 0.0092014307 0.0076056731            8 
 1929000   0.48599566   -9.0164515    212.94564 0.0091993107 0.0075991526            4 
 1930000    0.4846982   -9.0205864    213.17958 0.0092046452 0.0075926372            4 
 1931000    0.4893604   -9.0238977    213.14976 0.0091985913 0.0075861296            4 
 1932000   0.49124511   -9.0298484    213.03058 0.0091886896 0.0075796299            5 
 1933000   0.48550715   -9.0252403    212.94849 0.0091803972 0.0075731383            8 
 1934000   0.48026104   -9.0249267    212.55987 0.0091589051 0.0075666507            7 
 1935000   0.47846432   -9.0296938    213.13934 0.0091791273 0.0075601592            7 
 1936000   0.47501063   -9.0360625    213.14341 0.0091745613 0.0075536824            4 
 1937000    0.4732463   -9.0288059    213.01017 0.0091640928 0.0075472111            9 
 1938000   0.48940266   -9.0423121    212.71383 0.0091466215 0.0075407468            7 
 1939000   0.47948137   -9.0224806    212.95932 0.0091524548 0.0075342961            6 
 1940000   0.47506908   -9.0301279    212.94757 0.0091472322 0.0075278505            7 
 1941000   0.47824433   -9.0487637     212.8599  0.009138756 0.0075214052            3 
 1942000   0.48323141   -9.0366136    212.98434 0.0091393898  0.007514974           10 
 1943000   0.47467157   -9.0334019    212.88133 0.0091302679 0.0075085458            8 
 1944000   0.47412882   -9.0358692    212.75974  0.009120359 0.0075021265            7 
 1945000   0.47371601   -9.0254337    212.96427 0.0091244331 0.0074957113            5 
 1946000    0.4793992   -9.0210372    212.76371 0.0091111557 0.0074893058            5 
 1947000   0.47987965    -9.041265    213.09325  0.009120581 0.0074829065            4 
 1948000   0.47848927   -9.0509828    212.86411 0.0091060964 0.0074765136            8 
 1949000   0.47779569   -9.0376617    213.10814  0.009111858 0.0074701318            6 
 1950000   0.47602155   -9.0456464    212.62719 0.0090866319 0.0074637593            6 
 1951000   0.47994914   -9.0358635    212.77308  0.009088206 0.0074573851            6 
 1952000   0.47741856   -9.0408997     212.8474  0.009086723 0.0074510217            8 
 1953000   0.47656216   -9.0478924     212.6998 0.0090757723 0.0074446645            7 
 1954000   0.47397256   -9.0382235    212.89679 0.0090795288 0.0074383206           10 
 1955000   0.48162648   -9.0493429    212.86771 0.0090736449 0.0074319819            3 
 1956000   0.47311959   -9.0382263    212.76296 0.0090645434 0.0074256474            8 
 1957000    0.4774075   -9.0430837    213.14234 0.0090760663 0.0074193127           11 
 1958000    0.4736492   -9.0453584    212.89131 0.0090607468 0.0074129899            6 
 1959000   0.46521556   -9.0410148    212.75481 0.0090503154 0.0074066693            5 
 1960000   0.46107532   -9.0576086    212.50504 0.0090350784 0.0074003524           13 
 1961000   0.46481679   -9.0495366    212.94417 0.0090491319 0.0073940482            7 
 1962000   0.47356043   -9.0500976    212.97428 0.0090457987 0.0073877538           14 
 1963000   0.46788602   -9.0747354    212.89285 0.0090377336 0.0073814647            7 
 1964000   0.46992549   -9.0647741    212.40832 0.0090125732  0.007375176            7 
 1965000   0.46371231   -9.0478058    212.35087 0.0090055502  0.007368901            8 
 1966000   0.48034527   -9.0457095    212.85844 0.0090224837 0.0073626332            8 
 1967000   0.46726361   -9.0486127    213.07241  0.009026962 0.0073563714            4 
 1968000   0.45375398   -9.0458178    212.62578 0.0090034627 0.0073501213            8 
 1969000   0.47413458   -9.0476579    212.70765 0.0090023555 0.0073438736           12 
 1970000   0.47223663     -9.05443    212.50759 0.0089893227  0.007337633            9 
 1971000   0.46872594   -9.0468904    212.61432 0.0089892744 0.0073314003            5 
 1972000   0.45486196   -9.0832506    212.69354 0.0089880639 0.0073251723            7 
 1973000   0.46615338   -9.0494521    212.55649 0.0089777194 0.0073189514            8 
 1974000    0.4718825   -9.0590967    212.87858 0.0089867687 0.0073127331            9 
 1975000   0.46085151   -9.0620342    212.87415 0.0089820316 0.0073065286           13 
 1976000   0.47342093   -9.0695086    212.75972 0.0089726602 0.0073003312            5 
 1977000   0.46065019   -9.0654765    212.37716 0.0089519963 0.0072941323            8 
 1978000   0.45940726   -9.0624826    212.83085 0.0089665846 0.0072879458            6 
 1979000   0.45832519   -9.0607288    212.55339 0.0089503702 0.0072817662            6 
 1980000    0.4695006    -9.047852    212.49802 0.0089435193 0.0072755968            3 
 1981000   0.46476775   -9.0677831    212.51787 0.0089398399 0.0072694327            5 
 1982000   0.45735306   -9.0669436    212.58525  0.008938162 0.0072632779           14 
 1983000   0.46068224   -9.0601946     212.6907 0.0089380863 0.0072571221           17 
 1984000   0.46119009   -9.0719506    212.50411 0.0089257439 0.0072509778           13 
 1985000   0.45666953   -9.0686759    212.61948 0.0089260905 0.0072448423            6 
 1986000    0.4494559    -9.045358    212.46171 0.0089149761 0.0072387074            7 
 1987000   0.45876495    -9.072045    212.65382 0.0089185466 0.0072325844            4 
 1988000   0.46044337    -9.056022    212.69925 0.0089159647 0.0072264595            4 
 1989000   0.45596664   -9.0730482    212.93732 0.0089214564  0.007220348            4 
 1990000   0.46030882   -9.0593253    212.46011 0.0088969897 0.0072142389            3 
 1991000   0.44721395   -9.0702325    212.22775 0.0088827954 0.0072081343            6 
 1992000   0.45580972   -9.0775337    212.57591 0.0088929014  0.007202036            7 
 1993000   0.46725923   -9.0525007    212.49477 0.0088850464 0.0071959496            6 
 1994000   0.44840784   -9.0643333    212.13526 0.0088655657 0.0071898648            5 
 1995000   0.44323857   -9.0712376    212.92476 0.0088941002  0.007183791            7 
 1996000   0.45492974   -9.0742304    212.42993 0.0088689849  0.007177723            5 
 1997000   0.45910075   -9.0628889    212.48805 0.0088669692 0.0071716585            7 
 1998000   0.45360816   -9.0673121    212.52157 0.0088639295 0.0071656059            7 
 1999000   0.46552154   -9.0696606    212.63972 0.0088644204 0.0071595551           12 
 2000000   0.44634412     -9.06002    212.65758 0.0088607325 0.0071535148           12 
 2001000   0.46228233    -9.076796    212.46928 0.0088484626  0.007147476            7 
 2002000   0.44625947   -9.0786562     212.7337 0.0088550492 0.0071414443            5 
 2003000   0.45440322   -9.0928233    212.56084 0.0088434364 0.0071354253            5 
 2004000   0.44577386   -9.0815015    212.73939 0.0088464485  0.007129408            5 
 2005000   0.45934069   -9.0781593    212.65677 0.0088386023 0.0071233998            8 
 2006000   0.44337341   -9.0541909    212.12872 0.0088122601 0.0071173936            4 
 2007000   0.44568898   -9.0804344    212.59786 0.0088273486 0.0071113944            6 
 2008000   0.44897322    -9.082975    212.31722 0.0088113057 0.0071054032            9 
 2009000   0.45339279   -9.0660938    212.26357 0.0088046942 0.0070994243            6 
 2010000   0.44655608    -9.065987    212.30098  0.008801865 0.0070934461            7 
 2011000   0.44271921   -9.0704551    212.43308 0.0088029621 0.0070874756            8 
 2012000   0.45228361   -9.0884337    212.41826 0.0087979732 0.0070815155            5 
Loop time of 4978.82 on 48 procs for 2000000 steps with 4000 atoms

Performance: 69413.982 tau/day, 401.701 timesteps/s
99.4% CPU use with 48 MPI tasks x no OpenMP threads

MPI task timing breakdown:
Section |  min time  |  avg time  |  max time  |%varavg| %total
---------------------------------------------------------------
Pair    | 337.38     | 361.92     | 385.19     |  72.3 |  7.27
Neigh   | 33.128     | 34.449     | 35.911     |  12.8 |  0.69
Comm    | 314.4      | 342.38     | 369.79     |  74.4 |  6.88
Output  | 4.4591     | 4.4615     | 4.4941     |   0.2 |  0.09
Modify  | 4175.9     | 4190.5     | 4202.9     |  10.1 | 84.17
Other   |            | 45.13      |            |       |  0.91

Nlocal:        83.3333 ave          91 max          75 min
Histogram: 1 0 0 12 8 12 8 3 3 1
Nghost:        2224.25 ave        2246 max        2206 min
Histogram: 2 5 3 8 9 8 6 2 4 1
Neighs:        14912.4 ave       16260 max       12821 min
Histogram: 1 1 3 2 9 6 9 10 2 5
FullNghs:      29824.8 ave       32614 max       26715 min
Histogram: 1 0 0 10 10 12 7 5 2 1

Total # of neighbors = 1431590
Ave neighs/atom = 357.89750
Neighbor list builds = 106696
Dangerous builds = 0

#clear
#
#next RN
#
#jump SELF
Total wall time: 1:23:02
