
units lj                  # Use reduced LJ style units
atom_style atomic         # Uncharged point particles
atom_modify map hash      # Needed for indexing of clusters etc
                          # Used to be able to find where atoms are in relation to each other.

lattice fcc 1.0 spacing 1 1 1
Lattice spacing in x,y,z = 1.5874011 1.5874011 1.5874011
region box block 0 10 0 10 0 10 units lattice
create_box 2 box
Created orthogonal box = (0.0000000 0.0000000 0.0000000) to (15.874011 15.874011 15.874011)
  3 by 4 by 4 MPI processor grid
create_atoms 1 box
Created 4000 atoms
  using lattice units in orthogonal box = (0.0000000 0.0000000 0.0000000) to (15.874011 15.874011 15.874011)
  create_atoms CPU = 0.017 seconds
set type 1 type/fraction 2 0.82 78393
Setting atom values ...
  3266 settings made for type/fraction
mass 1 1.0
mass 2 1.0
pair_style lj/cut  3.5
pair_modify tail  yes
pair_coeff 1  1  1.0  1.0   # Intearaction between 1 and 1 set with epsilon = 1 and sigma = 1
pair_coeff 1  2  1.5  0.8
pair_coeff 2  2  0.5  0.88

write_data data.0
System init for write_data ...
Neighbor list info ...
  update every 1 steps, delay 10 steps, check yes
  max neighbors/atom: 2000, page size: 100000
  master list distance cutoff = 3.8
  ghost atom cutoff = 3.8
  binsize = 1.9, bins = 9 9 9
  1 neighbor lists, perpetual/occasional/extra = 1 0 0
  (1) pair lj/cut, perpetual
      attributes: half, newton on
      pair build: half/bin/atomonly/newton
      stencil: half/bin/3d
      bin: standard
WARNING: Not all mixed pair coeffs generated from mixing. Use write_data with 'pair ij' option to store all pair coeffs. (../write_data.cpp:312)


#############################
#   M E L T   S Y S T E M   #
#############################

velocity all create 2.4 9580093 mom yes dist gaussian # Assign velocities
                                                    # Temperature 2.4, random number seed, zero linear momentum
                                                                                # Gaussian distribution

timestep 0.002   # simulation timestep
thermo 1000       # output thermodynamic data every 1000 steps bf 100

# Define a fix  in this case with index 1 applied to all
# particles in the simulation. This fix is for simulations
# in the anisotropic NPT ensemble. Note that we use the MTK
# correction.
fix 1 all npt temp 2.4 2.4 0.1 iso 5.68 5.68 0.5 mtk yes tchain 5 pchain 5 # Use NPT ensemble
                                                                         # Set temperature and pressure and damping
                                                                         # Numbers of thermostats in chain and in barostat
run 10000          # run for 10000 steps
Per MPI rank memory allocation (min/avg/max) = 3.642 | 3.644 | 3.648 Mbytes
Step Temp E_pair E_mol TotEng Press Volume 
       0          2.4    -3.598932            0 0.00016796869   -3.1561227         4000 
    1000    2.4145009   -2.9098298            0   0.71101622    5.8359963    3801.3969 
    2000    2.3848236   -2.8917621            0   0.68457894    5.5451088     3849.098 
    3000    2.3904793   -2.9169022            0   0.66792039     5.644284    3828.6593 
    4000    2.4427394   -2.8774667            0   0.78572637    5.6123298     3849.287 
    5000    2.4062396   -2.9356415            0   0.67281553    5.7632473    3793.1236 
    6000    2.4171236   -2.9325229            0   0.69225605    5.8829621    3786.2706 
    7000    2.4318221   -2.9267871            0   0.72003412    5.6763743    3814.2852 
    8000    2.4360495   -2.8792294            0   0.77393128    5.7338434    3851.7482 
    9000    2.3565865   -2.9592576            0   0.57473839    5.3999686    3805.7076 
   10000    2.4027141   -2.9321657            0   0.67100442     5.443747     3828.052 
Loop time of 2.56087 on 48 procs for 10000 steps with 4000 atoms

Performance: 674769.400 tau/day, 3904.916 timesteps/s
99.6% CPU use with 48 MPI tasks x no OpenMP threads

MPI task timing breakdown:
Section |  min time  |  avg time  |  max time  |%varavg| %total
---------------------------------------------------------------
Pair    | 1.1334     | 1.2052     | 1.3073     |   3.2 | 47.06
Neigh   | 0.20901    | 0.22001    | 0.23758    |   1.0 |  8.59
Comm    | 0.74965    | 0.87739    | 0.96218    |   4.3 | 34.26
Output  | 0.0002492  | 0.00025433 | 0.00032013 |   0.0 |  0.01
Modify  | 0.21975    | 0.24238    | 0.26994    |   3.0 |  9.46
Other   |            | 0.01559    |            |       |  0.61

Nlocal:        83.3333 ave          90 max          75 min
Histogram: 4 0 4 2 9 5 9 6 5 4
Nghost:        1693.15 ave        1711 max        1665 min
Histogram: 2 2 1 1 7 7 10 10 3 5
Neighs:        9973.19 ave       11107 max        8474 min
Histogram: 3 1 2 4 10 4 8 8 4 4

Total # of neighbors = 478713
Ave neighs/atom = 119.67825
Neighbor list builds = 905
Dangerous builds = 193

# Equilibrate just above the melting temperature to avoid step fn in T

fix 1 all npt temp 1.25 1.25 0.1 iso 5.68 5.68 0.5 mtk yes tchain 5 pchain 5
run 2000
Per MPI rank memory allocation (min/avg/max) = 3.643 | 3.645 | 3.649 Mbytes
Step Temp E_pair E_mol TotEng Press Volume 
   10000    2.4027141   -2.9321657            0   0.67100442     5.443747     3828.052 
   11000    1.2458284   -4.3018465            0    -2.433571    5.7437432    2936.0621 
   12000    1.2587665   -4.3152941            0   -2.4276164    5.8258156    2923.0339 
Loop time of 0.635053 on 48 procs for 2000 steps with 4000 atoms

Performance: 544206.848 tau/day, 3149.345 timesteps/s
99.6% CPU use with 48 MPI tasks x no OpenMP threads

MPI task timing breakdown:
Section |  min time  |  avg time  |  max time  |%varavg| %total
---------------------------------------------------------------
Pair    | 0.28178    | 0.30902    | 0.33371    |   2.2 | 48.66
Neigh   | 0.040749   | 0.043228   | 0.04584    |   0.6 |  6.81
Comm    | 0.20453    | 0.23285    | 0.26429    |   2.9 | 36.67
Output  | 5.3928e-05 | 5.5498e-05 | 7.2514e-05 |   0.0 |  0.01
Modify  | 0.042309   | 0.044914   | 0.047527   |   0.8 |  7.07
Other   |            | 0.004989   |            |       |  0.79

Nlocal:        83.3333 ave          90 max          78 min
Histogram: 10 4 0 4 9 7 1 4 6 3
Nghost:        2030.62 ave        2049 max        2005 min
Histogram: 2 1 4 5 2 10 4 11 5 4
Neighs:        13059.1 ave       14358 max       11528 min
Histogram: 3 2 7 5 5 4 5 5 8 4

Total # of neighbors = 626839
Ave neighs/atom = 156.70975
Neighbor list builds = 143
Dangerous builds = 16

#############################
# L I N E A R  Q U E N C H  #
#############################

# Define solid atoms. This closely follows ten Wolde  Ruiz-Montero and Frenkel  Faraday Discuss  1996  104  93-110
# Compute components of the per-atom q6 vector
compute q6 all orientorder/atom degrees 1 6 components 6 nnn NULL cutoff 1.3 # compute the Q6 parameter.
                                                                             # Use all neighbours within 1.3 unit cell.

# get number of connections
compute coord_number all coord/atom orientorder q6 0.5

# An atom is solid if it has 8 or more connections (of a possible 14)
variable is_solid atom c_coord_number>=8
group solid dynamic all var is_solid    # Must be dynamic to update
dynamic group solid defined

# do clustering
compute cluster solid cluster/atom 1.3 # Create a cluster where all atoms within are solid and max 1.3 units from another member

# define chunks one chunk per cluster
compute clus_chunks solid chunk/atom c_cluster nchunk every compress yes  # Says which atoms are in which chunk

# count the size of each chunk
compute size_chunks solid property/chunk clus_chunks count


# Find the maximum entry in the vector of chunk sizes
variable max_n equal max(c_size_chunks)


# Thermo style which includes this variable
# thermo_style custom step temp pe vol v_max_n

thermo ${N}  # Print the thermo information every 100 steps
thermo 1000  

# Reset the npt fix at a lower temperature (below freezing)
fix 1  all npt temp  ${temp} ${temp}  0.1  iso  5.68  5.68  0.5  mtk yes tchain  5  pchain  5
fix 1  all npt temp  0.45 ${temp}  0.1  iso  5.68  5.68  0.5  mtk yes tchain  5  pchain  5
fix 1  all npt temp  0.45 0.45  0.1  iso  5.68  5.68  0.5  mtk yes tchain  5  pchain  5

dump dmp2 all dcd ${N} traj.dcd
dump dmp2 all dcd 1000 traj.dcd


compute msd all msd com yes
variable twopoint equal c_msd[4]/6/(step*dt+1.0e-6)
fix 9 all vector 10 c_msd[4]
variable fit equal slope(f_9)/6/(10*dt)
thermo_style custom step temp pe c_msd[4] v_twopoint v_fit v_max_n

fix 1 all npt temp 1.25 ${temp} 0.1 iso 5.68 5.68 0.5 mtk yes tchain 5 pchain 5
fix 1 all npt temp 1.25 0.45 0.1 iso 5.68 5.68 0.5 mtk yes tchain 5 pchain 5
run 2000000 # 5000000  # Run for this many steps
Neighbor list info ...
  update every 1 steps, delay 10 steps, check yes
  max neighbors/atom: 2000, page size: 100000
  master list distance cutoff = 3.8
  ghost atom cutoff = 3.8
  binsize = 1.9, bins = 8 8 8
  4 neighbor lists, perpetual/occasional/extra = 1 3 0
  (1) pair lj/cut, perpetual
      attributes: half, newton on
      pair build: half/bin/atomonly/newton
      stencil: half/bin/3d
      bin: standard
  (2) compute orientorder/atom, occasional
      attributes: full, newton on
      pair build: full/bin/atomonly
      stencil: full/bin/3d
      bin: standard
  (3) compute coord/atom, occasional
      attributes: full, newton on
      pair build: full/bin/atomonly
      stencil: full/bin/3d
      bin: standard
  (4) compute cluster/atom, occasional
      attributes: full, newton on
      pair build: full/bin/atomonly
      stencil: full/bin/3d
      bin: standard
Per MPI rank memory allocation (min/avg/max) = 9.834 | 9.840 | 9.845 Mbytes
Step Temp PotEng c_msd[4] v_twopoint v_fit v_max_n 
   12000    1.2587665   -4.3152941 1.0196027e-30 7.0805741e-33 8.3333333e+20            2 
   13000    1.2098925   -4.3034009   0.80084914 0.0051336481  0.067009813            3 
   14000    1.2544579   -4.3028131    1.6710985 0.0099470145  0.070364331            2 
   15000    1.2405067   -4.2999236    2.5900951  0.014389417  0.072518728            1 
   16000     1.247204   -4.3126046    3.3979497  0.017697654  0.072184465            1 
   17000      1.25009   -4.2749777     4.183922  0.020509421  0.070850441            2 
   18000    1.2474526    -4.295616    5.0452422  0.023357602  0.070168438            2 
   19000    1.2384794   -4.2654674    6.0025697  0.026327059  0.070763588            1 
   20000    1.2567695   -4.2999635    6.8204749  0.028418645   0.07126511            3 
   21000    1.2507856   -4.2975397    7.7900687   0.03091297  0.071737773            2 
   22000     1.245881   -4.3023807    8.7628638  0.033192665  0.072367962            1 
   23000    1.2490125   -4.2660408    9.6303286  0.034892494  0.073037445            2 
   24000    1.2395387   -4.2778421    10.558464  0.036661331  0.073410928            2 
   25000    1.2332903   -4.3211988    11.294178  0.037647261   0.07358796            2 
   26000     1.224863   -4.3169269    12.177088  0.039029128  0.073506047            1 
   27000     1.218495   -4.3370886    12.975655  0.040048316  0.073319141            3 
   28000    1.2336854   -4.3233165    13.834199  0.041173211  0.073087416            2 
   29000    1.2392858   -4.3014391    14.864398  0.042713788   0.07300253            3 
   30000    1.2499226   -4.2730254    15.851023  0.044030619  0.073075764            1 
   31000    1.2461667    -4.313396    16.758219  0.045048975   0.07329346            2 
   32000    1.2671615    -4.356448    17.510128  0.045599292  0.073459997            2 
   33000    1.2544969   -4.3141263    18.461189  0.046619165  0.073505146            3 
   34000    1.2610609   -4.3324516    19.203892  0.047068361  0.073527557            2 
   35000    1.2455827   -4.3367115    20.023983  0.047676149  0.073481686            4 
   36000    1.2636787   -4.2808834    21.045002  0.048715282  0.073426355            2 
   37000    1.2184144   -4.3271306    21.789506  0.049075463   0.07335469            3 
   38000    1.2123257   -4.3437402    22.618054  0.049600994  0.073244013            3 
   39000    1.2497699   -4.3063421    23.617963  0.050465732   0.07321419            1 
   40000    1.2279218   -4.3471482    24.484742  0.051009878   0.07321665            2 
   41000    1.2335784   -4.2956501    25.450348   0.05172835  0.073196001            2 
   42000     1.228274    -4.308201    26.204234  0.051992528  0.073163612            2 
   43000    1.2449288   -4.2949882    27.342908  0.052990132   0.07318283            2 
   44000    1.2569344   -4.3136479    28.109446  0.053237586  0.073214768            2 
   45000    1.2409901   -4.3652088    28.837505  0.053402786  0.073193085            3 
   46000     1.229954   -4.3016998    29.771033   0.05393303  0.073168596            1 
   47000    1.2431305   -4.3238823    30.423143  0.053941742  0.073115864            2 
   48000    1.2782312   -4.2797816     31.06424  0.053930972  0.073000657            2 
   49000    1.2272269   -4.3231896    32.240826  0.054831336  0.072896641            2 
   50000    1.2570202   -4.3283993    33.088013  0.055146687  0.072850716            4 
   51000    1.2432109   -4.3173156    34.260814  0.055981722  0.072855097            1 
   52000    1.2420269   -4.3042035    35.031909   0.05614088  0.072890485            4 
   53000    1.2192551   -4.2989859    36.122425  0.056796265  0.072962071            2 
   54000    1.2206852   -4.3423879    36.977736  0.057064407   0.07305262            1 
   55000    1.2282411   -4.3295327     37.78324  0.057247332  0.073131984            4 
   56000     1.224631   -4.3606358    38.292375    0.0569827  0.073146183            4 
   57000    1.2240599   -4.2940263    39.350301   0.05752968  0.073106598            2 
   58000    1.2351594   -4.3639628     40.25823  0.057842284  0.073086409            1 
   59000    1.2205859   -4.3057004    41.186642  0.058173223  0.073118371            4 
   60000    1.2277243   -4.3670156    42.031684  0.058377338  0.073141698            3 
   61000    1.2463739   -4.2959526    42.758118  0.058412729  0.073118242            2 
   62000    1.2218932   -4.3251503    43.443609  0.058391947  0.073066513            2 
   63000    1.2376179   -4.3726037     44.23067  0.058506176  0.072994409            4 
   64000    1.2286097   -4.3357245    45.166194  0.058810148  0.072942936            3 
   65000    1.2165501   -4.3034259    45.877431  0.058817218  0.072883749            1 
   66000    1.2057615   -4.3314268    46.952707  0.059283721  0.072828468            2 
   67000    1.2364237   -4.3125148    47.498077  0.059077209  0.072763082            1 
   68000    1.2528751   -4.3401435    48.591449  0.059548344  0.072674522            2 
   69000    1.2463361   -4.3301738    48.767461  0.058897899  0.072558118            2 
   70000    1.2453556   -4.3507371    49.267982   0.05865236  0.072405559            3 
   71000    1.2207772   -4.3732281    50.380525  0.059132071  0.072260868            3 
   72000    1.2313211   -4.3607587    50.926225   0.05894239  0.072094309            2 
   73000    1.2284381   -4.3127846    51.755567  0.059081697  0.071946712            1 
   74000    1.2075417   -4.3529933    52.595222  0.059228853  0.071827014            3 
   75000    1.2516359   -4.3228846    53.374784  0.059305315  0.071701524            3 
   76000    1.2270794   -4.3490918    53.875302  0.059073795  0.071549135            1 
   77000    1.2141077   -4.3214224    54.517864  0.059002017  0.071396975            2 
   78000    1.2618478   -4.3337295    55.487753  0.059281787  0.071244326            3 
   79000    1.2209173   -4.3743468     56.22519  0.059309272  0.071096855            4 
   80000    1.2108398   -4.3410813    57.713551  0.060118282  0.071001424            3 
   81000    1.2451043   -4.3385199    58.422571  0.060105526  0.070927036            3 
   82000    1.2292493     -4.35809    58.935584  0.059893886  0.070826225            1 
   83000    1.2211278   -4.3193155    59.549995  0.059789151   0.07071263            2 
   84000    1.2276889   -4.3541879    60.282265  0.059803834  0.070595431            1 
   85000    1.2203753   -4.3326739    61.439823   0.06023512  0.070492484            1 
   86000    1.2132786   -4.3710727    62.016404  0.060093414  0.070391919            2 
   87000    1.2188657   -4.3636189    62.729044  0.060085291  0.070306714            1 
   88000    1.2406138    -4.381607    63.573946    0.0602026  0.070228129            2 
   89000    1.2112443   -4.3498882    64.579315  0.060467523  0.070134396            2 
   90000    1.2045913   -4.3437771    65.621202  0.060760372  0.070060894            2 
   91000    1.1930395   -4.3826485    65.973161  0.060414982  0.069987339            5 
   92000    1.2263268   -4.3400185    66.753678  0.060465288  0.069909192            1 
   93000    1.2126439   -4.3537629    68.174976  0.061088688  0.069839716            3 
   94000    1.1942224   -4.3477649    68.905265  0.061086228   0.06978699            1 
   95000    1.2002759   -4.3660713    69.624816    0.0610744  0.069730052            2 
   96000    1.2174165   -4.3506409    70.127718  0.060874755   0.06967523            2 
   97000      1.21698   -4.3569452    71.157527  0.061131896  0.069626425            2 
   98000    1.2112944   -4.3328222    72.228811  0.061419057  0.069589082            2 
   99000    1.2107924   -4.3596609     72.95748   0.06141202  0.069543051            3 
  100000    1.2112888   -4.3363666    73.934588  0.061612157  0.069491988            1 
  101000    1.2129378   -4.3701809    74.295975  0.061300309  0.069445603            2 
  102000    1.1967356   -4.3534361    75.435359  0.061630195  0.069401613            2 
  103000    1.2218482   -4.4042278     75.69919  0.061245299  0.069363133            1 
  104000    1.2343625   -4.3889547    76.485279  0.061286281  0.069326473            2 
  105000    1.2148637    -4.341186    77.465122  0.061480255  0.069277484            3 
  106000    1.2053913   -4.3582712    78.413994  0.061646221  0.069224531            1 
  107000    1.2103948   -4.3451756    78.936248  0.061476828  0.069182281            2 
  108000    1.2256207   -4.3153566    80.225631  0.061902493  0.069143166            5 
  109000    1.1707437   -4.3886092    80.712748  0.061706994  0.069109564            2 
  110000    1.2066847   -4.3232024    81.832658  0.061994437  0.069079736            1 
  111000    1.2141247   -4.3754131    81.981119  0.061547387  0.069041005            1 
  112000     1.201392   -4.3684165    83.346065  0.062013441   0.06900102            2 
  113000    1.2141429   -4.3424652    84.337603  0.062195872  0.068978603            1 
  114000    1.2095528   -4.3364662    85.480711    0.0624859  0.068972503            4 
  115000    1.2053311   -4.3740003    85.767856   0.06215062   0.06895208            5 
  116000    1.1899629   -4.3626585    86.614766  0.062223251  0.068933162            2 
  117000    1.2256155   -4.3491192    87.540021  0.062350442  0.068911768            2 
  118000    1.2032801   -4.3644576    88.399298  0.062428883  0.068895766            1 
  119000    1.2391776   -4.3540633    89.181117  0.062451762  0.068871629            3 
  120000    1.2025396   -4.3907362    89.683787  0.062280407  0.068844239            2 
  121000    1.2288199   -4.3947246    90.493057  0.062323042  0.068811441            2 
  122000    1.2281557   -4.3961136     91.63426  0.062591707  0.068787941            2 
  123000     1.174895   -4.3377927    92.666491  0.062782175  0.068770149            2 
  124000    1.2134982   -4.3721967     93.51388  0.062845349  0.068753169            1 
  125000    1.2079863   -4.3928109    94.053565  0.062702377  0.068738914            2 
  126000    1.1928842   -4.3971865    94.647277  0.062597405  0.068720907            1 
  127000     1.198999   -4.3682722    95.928465  0.062945187  0.068715483            1 
  128000    1.2423313   -4.3745919    96.806758  0.063025233  0.068711111            1 
  129000    1.2203804     -4.34845    97.215305  0.062800585  0.068704915            3 
  130000    1.2055902   -4.3830354    98.417521  0.063088155  0.068700952            2 
  131000    1.1729251   -4.3699226    99.521459  0.063308816  0.068699796            2 
  132000    1.1734475   -4.3461597    100.44581  0.063412758  0.068703521            1 
  133000    1.2125435   -4.3499015    101.33401   0.06349249  0.068701398            3 
  134000    1.1844771   -4.4049592    101.02939   0.06282922  0.068689751            2 
  135000    1.1921871   -4.2899745    102.51743  0.063282365  0.068677047            2 
  136000    1.2428409   -4.3655509    103.38712  0.063349952  0.068667915            1 
  137000    1.1948641   -4.4125483    103.30902  0.062840036  0.068656612            3 
  138000    1.2231111   -4.4041811    104.16813  0.062903462  0.068634569            2 
  139000    1.2163277   -4.3393913    105.20774  0.063074182  0.068617453            2 
  140000    1.1785415   -4.3966642    105.86577   0.06301534  0.068590124            2 
  141000    1.2004964   -4.3658223    106.72718  0.063077528  0.068557893            1 
  142000     1.201034   -4.3619142    107.11647   0.06286178  0.068527767            2 
  143000     1.215427   -4.3762482    108.28835  0.063105099  0.068498429            1 
  144000    1.1940985   -4.3770866    108.98155  0.063068028  0.068470377            1 
  145000    1.1920478   -4.3973173    109.64373   0.06301364  0.068450617            1 
  146000    1.1965049   -4.3919358    109.96675  0.062766409  0.068424283            1 
  147000    1.2135854   -4.4069443    111.84561  0.063404543  0.068404561            3 
  148000    1.1661322   -4.3780596    112.57938   0.06338929    0.0683924            1 
  149000    1.1738512   -4.3827405    113.45186  0.063451825  0.068382355            2 
  150000    1.2287701    -4.402853    113.99245  0.063329139  0.068369758            4 
  151000    1.2052363   -4.3639677    115.03957  0.063487623  0.068357242            2 
  152000    1.1811548   -4.3589866    115.96076  0.063574975  0.068355182            3 
  153000    1.1820353    -4.416482    116.38273  0.063389288  0.068342489            4 
  154000    1.2019082   -4.4192421    116.43415  0.063005491  0.068319271            3 
  155000    1.2083363   -4.4197404    117.75146  0.063307236  0.068300006            2 
  156000    1.2114493   -4.3528448    119.25172  0.063702839  0.068279272            3 
  157000    1.2142782   -4.4145842    119.59924   0.06348155  0.068260113            3 
  158000    1.1877512   -4.3926559    120.32034  0.063460092  0.068235904            4 
  159000    1.1765647   -4.3791023    121.01546  0.063425294  0.068216573            2 
  160000    1.1727408    -4.368292    121.92018  0.063500092  0.068197052            2 
  161000    1.1991671   -4.3895866    122.62168  0.063468777  0.068179545            1 
  162000    1.1884657   -4.4102464    123.28112  0.063416212  0.068157224            2 
  163000    1.2110476    -4.406576    123.71646  0.063249726  0.068134587            2 
  164000     1.176791   -4.3833942    124.71563  0.063371764   0.06811435            3 
  165000     1.170088   -4.4049693    125.86737  0.063569377  0.068092157            1 
  166000    1.1778181   -4.4517016     126.4399  0.063473843  0.068075299            3 
  167000    1.1928956   -4.3867795    127.48621  0.063615874  0.068063742            2 
  168000    1.1683695   -4.3749195     128.2861  0.063633978   0.06805021            6 
  169000    1.2022832   -4.3833531    129.40696  0.063810137  0.068038372            2 
  170000     1.203845    -4.405774    130.59438  0.064016851  0.068030942            3 
  171000    1.1807286    -4.439169    130.73883  0.063712882  0.068020417            4 
  172000     1.186451   -4.3805523    131.46452  0.063694048  0.068011343            2 
  173000    1.1833278   -4.4133113    132.14393  0.063653143  0.068005097            2 
  174000    1.1954888   -4.4060215    133.40688  0.063892183  0.067998261            4 
  175000    1.1945953   -4.4081638    134.62496  0.064107126   0.06799521            3 
  176000    1.1788716   -4.3853614    134.91678  0.063881052  0.067991283            3 
  177000     1.198731   -4.4649483    135.64063  0.063860938  0.067984827            2 
  178000    1.1893474   -4.4350359    136.22426  0.063775401  0.067973932            2 
  179000    1.1830256   -4.4169117    136.19714   0.06340649  0.067960356            2 
  180000    1.2121506   -4.4254764    137.24067  0.063537349  0.067944292            2 
  181000    1.1477731   -4.4292163    138.29814  0.063673174  0.067929932            1 
  182000    1.1917096   -4.4053786    139.56429  0.063903064  0.067918071            2 
  183000    1.1822378   -4.3863393    141.18655    0.0642926  0.067907178            2 
  184000    1.1967715   -4.3934641    141.75751  0.064201773  0.067904427            2 
  185000    1.2007025   -4.3844558    141.95757  0.063944852  0.067890202            5 
  186000    1.2065595   -4.4154838    141.89871  0.063574689  0.067870242            2 
  187000    1.1648732   -4.4229062    142.32596  0.063425114  0.067842025            3 
  188000    1.1860653   -4.4285475    142.66087  0.063236203   0.06781352            3 
  189000    1.1886177   -4.4261503      144.074  0.063524693  0.067783531            2 
  190000    1.1920341   -4.4173255    145.09303  0.063637292  0.067752594            3 
  191000    1.1706953   -4.4229152    145.72078  0.063578003  0.067725679            2 
  192000    1.1535751   -4.4233149    146.45658  0.063566223  0.067699526            2 
  193000    1.1824662   -4.4363905    146.62947  0.063311515  0.067668515            2 
  194000    1.1851744   -4.3951089    147.93254  0.063544907  0.067641142            2 
  195000    1.1769463   -4.4300028    147.79248  0.063159177  0.067608067            2 
  196000    1.1852191   -4.3792473     149.3412  0.063495409  0.067575297            6 
  197000    1.1834535   -4.3847597    149.50791  0.063243619  0.067544794            2 
  198000    1.1919397   -4.4282702    149.73549  0.063019988  0.067510761            1 
  199000    1.1620621   -4.4154549    151.21602  0.063323292  0.067481481            2 
  200000    1.1694911   -4.4636085    151.84724  0.063269685  0.067451926            3 
  201000    1.1716702   -4.3923266    153.22119  0.063524538  0.067419442            1 
  202000    1.1590613   -4.4623411    152.33229  0.062843355  0.067388223            5 
  203000    1.1859416   -4.4269675    154.27265  0.063330318  0.067356331            4 
  204000    1.2116902   -4.4353343    154.99779   0.06331609   0.06732407            1 
  205000     1.176867   -4.4133356    154.91322  0.062972853  0.067289922            1 
  206000    1.2000758   -4.4767318    155.22458  0.062793115  0.067254632            5 
  207000    1.1735324   -4.4098799    157.05433  0.063226379  0.067217612            5 
  208000    1.1520386   -4.4084851     158.2859  0.063415827  0.067184238            4 
  209000    1.1776455   -4.4241781    158.55161  0.063218346  0.067154421            3 
  210000     1.159537   -4.4397198    159.37022   0.06324215  0.067124531            1 
  211000    1.1762915   -4.4352717    160.79823   0.06350641  0.067100958            5 
  212000    1.1509092   -4.4279792    161.31693  0.063410743  0.067080591            1 
  213000    1.1575545   -4.4404343    162.61478  0.063620807  0.067060515            4 
  214000    1.1469543   -4.3921509     164.2918  0.063976557  0.067044449            2 
  215000     1.170682   -4.4148299    164.18242  0.063636598  0.067033438            4 
  216000    1.1534391   -4.4247315    165.20497  0.063736486  0.067019466            3 
  217000     1.155455   -4.3997491      166.109  0.063789938  0.067000484            2 
  218000    1.1515892   -4.4342127    166.54154  0.063662668  0.066980354            2 
  219000    1.1801741   -4.4446877    166.96663  0.063533724  0.066960734            3 
  220000    1.1746583    -4.429532    167.31839  0.063378176  0.066938507            3 
  221000    1.1807588   -4.4151944    168.55285  0.063556882  0.066919913            3 
  222000    1.1629622    -4.491175    169.05507  0.063459109  0.066895838            3 
  223000    1.1740915   -4.3830302    170.42254  0.063685554  0.066874361            2 
  224000    1.1625637   -4.4583769     170.7778  0.063533406  0.066849762            1 
  225000    1.1585596   -4.4635029    171.08416  0.063364502  0.066828732            3 
  226000    1.1629885   -4.4727124    171.26532  0.063150931  0.066802959            6 
  227000    1.1471574   -4.4395434    171.73471  0.063045047  0.066775387            3 
  228000    1.1719473    -4.418761    173.12167  0.063275463  0.066743381            2 
  229000    1.1687228   -4.4295386    173.36165  0.063086482  0.066709585            3 
  230000    1.1717885    -4.421945    173.92871   0.06301765  0.066675185            3 
  231000    1.1683516   -4.4528372    174.26763  0.062867112  0.066638225            3 
  232000    1.1334859   -4.4310267    175.00789  0.062862029  0.066601617            2 
  233000    1.1585645   -4.4303175    176.26335  0.063041255  0.066567545            1 
  234000    1.1628243   -4.4350898    176.43646  0.062833495  0.066534099            1 
  235000    1.1817262   -4.4316465    177.34421  0.062888018  0.066496826            2 
  236000    1.1818364   -4.4266008    178.12317  0.062896601   0.06646108            2 
  237000    1.1028399   -4.4393175    178.36532  0.062716358  0.066428076            1 
  238000    1.1587025   -4.4479551    179.49721  0.062849162  0.066396343            2 
  239000    1.1426933   -4.4597799    179.66613  0.062645092  0.066362992            4 
  240000    1.1582847   -4.4472726    181.56984  0.063045084  0.066331852            2 
  241000     1.143511   -4.4496387    181.67013  0.062818165  0.066303085            1 
  242000    1.1414857   -4.4730618    182.16271  0.062728205  0.066274006            1 
  243000    1.1296473   -4.4300678    183.13107   0.06280215  0.066243458            3 
  244000    1.1800347   -4.4458365    184.36038  0.062964612  0.066217362            3 
  245000    1.1566251   -4.4017162    185.80541  0.063199118  0.066192862            2 
  246000    1.1553894    -4.470818    186.06097  0.063028784  0.066167369            4 
  247000    1.1729736   -4.4450531    187.14863  0.063140564  0.066145982            3 
  248000     1.165801   -4.4552864    187.52561  0.063012637  0.066123697            3 
  249000     1.181236   -4.4888991    188.32055   0.06302562  0.066102258            1 
  250000     1.137534   -4.5095657    188.24362  0.062747875  0.066076498            5 
  251000    1.1491331   -4.4285353    190.11876  0.063120437  0.066048628            3 
  252000     1.138275   -4.4471853    191.15783  0.063213569  0.066026256            4 
  253000    1.1565821   -4.4347646    192.34981  0.063356326  0.066004765            2 
  254000     1.143162   -4.4746608    192.17405  0.063049228  0.065983882            2 
  255000    1.1648697    -4.477879    194.08523  0.063426545  0.065963946            2 
  256000    1.1123033   -4.4752439    193.54843  0.063004047  0.065944756            3 
  257000    1.1749424   -4.4407964    195.45825  0.063378161  0.065924772            3 
  258000    1.1676103   -4.4853409    194.83288  0.062930517  0.065905049            3 
  259000    1.1676163   -4.4899496    195.28341    0.0628325  0.065882594            2 
  260000      1.15294   -4.4776581    196.62279  0.063020125  0.065860472            3 
  261000    1.1783589   -4.4734838    197.00159  0.062899615  0.065838599            4 
  262000    1.1668911   -4.4758531    198.19837  0.063040194  0.065816538            1 
  263000    1.1426996   -4.4770767    198.51585  0.062901094  0.065795804            4 
  264000    1.1208896   -4.4701109    198.67235  0.062712231  0.065774852            4 
  265000    1.1526091   -4.4795794    200.24969    0.0629716  0.065749353            5 
  266000    1.1481959   -4.4985946    200.64345  0.062858222  0.065721245            3 
  267000    1.1407965   -4.4833743    201.38861   0.06285537  0.065695649            1 
  268000    1.1476662    -4.478418    201.56288  0.062675024    0.0656714            2 
  269000    1.1449178   -4.4519182    203.53018  0.063051481  0.065648501            2 
  270000    1.1514639   -4.4567987     202.6253  0.062538673  0.065624352            4 
  271000    1.1272213   -4.4721273    204.02608  0.062738646  0.065598434            4 
  272000    1.1600206   -4.4977521    204.48703  0.062649213  0.065573561            2 
  273000    1.1448853    -4.467989    205.69861  0.062789564   0.06554839            2 
  274000    1.1671632    -4.509858    205.60849  0.062532994  0.065522151            3 
  275000    1.1340142    -4.470429    206.91995  0.062703014  0.065497794            2 
  276000    1.1262668   -4.4460257    208.39536  0.062921305  0.065475463            2 
  277000     1.141121   -4.4777297    208.03284  0.062585089  0.065451499            3 
  278000    1.1280465   -4.4866698    208.42031  0.062476112   0.06542671            2 
  279000    1.1392431    -4.444773    210.18221  0.062778437  0.065399361       -1e+20 
  280000    1.1446444   -4.5071655    209.70764  0.062412987  0.065371829            3 
  281000    1.1416368   -4.4659102    212.48186    0.0630136  0.065346721            2 
  282000    1.1540892   -4.4872108    213.08974  0.062969782  0.065323596            3 
  283000    1.1345463   -4.4777584     212.5571   0.06259043  0.065298959            3 
  284000    1.1356375   -4.4613945    213.91002  0.062767025  0.065276826            3 
  285000    1.1568037   -4.4575326    214.44487  0.062703178  0.065255327            2 
  286000    1.1421758   -4.4780837    215.87351  0.062900207  0.065235423            3 
  287000    1.1731755   -4.4939886    216.34582  0.062818182   0.06521738            2 
  288000    1.1261428   -4.4500319     217.3718  0.062896931  0.065200615            1 
  289000    1.1256712   -4.4722837    218.87482  0.063112694  0.065185852            2 
  290000    1.1383511   -4.4948372    219.60515  0.063104928  0.065171894            2 
  291000    1.1450386    -4.500275    219.30127   0.06280105  0.065156869            3 
  292000    1.1418609   -4.5316757    220.30889  0.062873541  0.065140586            4 
  293000    1.1172406   -4.4789764    221.32462  0.062947845  0.065127831            2 
  294000    1.1373815   -4.4831105    222.22226  0.062988168   0.06511416            4 
  295000    1.1432685   -4.4820903    222.93137  0.062974964  0.065097003            2 
  296000    1.1279243   -4.4875103    224.17297   0.06311176  0.065080438            2 
  297000    1.1236808   -4.4715182    225.13858  0.063170195  0.065064175            2 
  298000    1.1209444    -4.499837    224.15841   0.06268412  0.065048633            2 
  299000    1.1411602   -4.4835779    224.95678  0.062696985  0.065031819            2 
  300000    1.0956858   -4.4874599    226.49626  0.062915629  0.065015591            2 
  301000    1.1366051   -4.4689909     227.5621  0.063001688  0.064999861            3 
  302000    1.1260541   -4.4820521    228.03572  0.062923764  0.064983997            2 
  303000    1.1342465   -4.4753246    229.22693   0.06304371    0.0649692            2 
  304000    1.1288335   -4.4895725    230.55248  0.063199694  0.064957826            2 
  305000     1.113435    -4.449543    231.36577  0.063214691  0.064946486            1 
  306000     1.137831   -4.5150618       230.87  0.062873093  0.064936775            3 
  307000    1.1176135   -4.5068532    232.65027  0.063151538  0.064928293            2 
  308000    1.1388137   -4.4460412    233.50446  0.063177613  0.064920354            2 
  309000    1.1296898   -4.4600218    235.62001  0.063543693  0.064914033            3 
  310000    1.1190928    -4.496619    234.58725  0.063061088  0.064907241            1 
  311000    1.1493151   -4.4715565    235.53615  0.063112581  0.064901645            1 
  312000    1.1400224   -4.4974362    236.76591  0.063238758   0.06489355            5 
  313000    1.1232428    -4.529903    237.47467  0.063225418  0.064884872            4 
  314000    1.1302065   -4.5113649    238.15585  0.063204845  0.064877344            1 
  315000    1.1192663   -4.4835352    239.07349  0.063246954  0.064867229            2 
  316000    1.1177635   -4.5047952    238.96513  0.063018231  0.064858037            3 
  317000    1.1343083   -4.4904933    239.85387  0.063053067  0.064846386            2 
  318000    1.1292256   -4.4992129    240.46371  0.063014598  0.064836235            3 
  319000    1.1217906   -4.5036267    240.36235  0.062790582  0.064822317            5 
  320000    1.1268924   -4.5239389    241.59357  0.062914992   0.06480925            3 
  321000    1.1619466   -4.5024033    241.82196  0.062778285   0.06479462            2 
  322000     1.123574   -4.5012633    243.37369  0.062984909  0.064780667            3 
  323000    1.1276135   -4.5220067    243.80338  0.062900769  0.064766102            5 
  324000    1.0953878   -4.5214475    244.16271  0.062799051  0.064752118            2 
  325000    1.1297327   -4.5069189    244.72427  0.062749813  0.064738346            2 
  326000    1.1144623   -4.4678521     246.9894   0.06313635   0.06472727            2 
  327000    1.1267408   -4.5340299    246.64313  0.062855028  0.064714486            3 
  328000    1.1353129   -4.4976168    247.36635  0.062847142  0.064699378            1 
  329000    1.1211702   -4.5167057    247.17455  0.062607535  0.064684447            2 
  330000    1.1005101   -4.5190456    248.13445  0.062660215  0.064670458            2 
  331000    1.1160098   -4.5801968    248.80964  0.062640895  0.064655586            3 
  332000    1.1083665   -4.5297797    249.71923  0.062680529  0.064642282            1 
  333000    1.1390815   -4.5270096     250.9494  0.062800149  0.064630286            3 
  334000    1.1470871   -4.5364018    251.89785  0.062848765  0.064617206            2 
  335000    1.1224404   -4.4801909    252.06168  0.062701911  0.064605727            2 
  336000    1.1358008   -4.5252284    251.80055  0.062450533  0.064591285            2 
  337000    1.1075232   -4.5149464    252.45662  0.062427452  0.064577205            4 
  338000    1.1404197   -4.5042041    253.51969  0.062504853  0.064561688            2 
  339000    1.1025776   -4.5125096    254.25005  0.062500011  0.064544906            1 
  340000    1.1200908   -4.5262362    254.66023  0.062416722  0.064526425            3 
  341000    1.1184876   -4.5135729    255.94039  0.062546528  0.064508079            4 
  342000     1.120823   -4.4978547    257.44936  0.062731325  0.064488697            5 
  343000    1.1102683    -4.546812    256.57821  0.062336786  0.064469709            2 
  344000    1.1279166   -4.5433341     257.1752  0.062300193  0.064451758            2 
  345000    1.1182337   -4.5157885    259.62954  0.062712448  0.064434184            3 
  346000    1.1170831   -4.5209771    258.37923  0.062230065  0.064415086            2 
  347000    1.1309524   -4.4937812    259.66827  0.062360295   0.06439583            2 
  348000    1.0957252   -4.5578775     259.7814  0.062208189  0.064374609            1 
  349000    1.0853155   -4.4804198    260.84068  0.062282874  0.064352818            2 
  350000    1.1535905   -4.5152483    261.35233  0.062226745  0.064331517            2 
  351000    1.1087073   -4.5722045    261.47837  0.062079385  0.064310456            2 
  352000    1.1128356   -4.4850957    262.90901  0.062241717  0.064290676            1 
  353000    1.1020477   -4.5491126    262.76698  0.062031865  0.064269874            3 
  354000    1.1035559   -4.5592161    264.03711  0.062155629  0.064250878            1 
  355000    1.1129188   -4.5154292    264.88282  0.062179066  0.064230711            3 
  356000    1.1518581   -4.5600633    264.88845  0.062005723  0.064211314            1 
  357000    1.1112099   -4.5382677    265.11591  0.061885133  0.064188099            3 
  358000    1.1226177   -4.5310423    265.79868  0.061871202  0.064166084            6 
  359000    1.1234662   -4.5312049    267.27119  0.062040666  0.064145123            2 
  360000    1.1163532   -4.5650915    266.71164  0.061738806  0.064122833            3 
  361000    1.1424708   -4.5125649    268.74822  0.062037909   0.06410188            3 
  362000    1.1248799   -4.5150328    269.74389  0.062095738  0.064081197            1 
  363000    1.0988647   -4.4738835    271.18551  0.062255626  0.064060808            3 
  364000    1.1411961    -4.514686    271.38475  0.062130208  0.064038918            7 
  365000    1.0936815   -4.5576985    271.14099  0.061904336  0.064017225            2 
  366000    1.1162775   -4.5044025    272.99997  0.062158463  0.063996547            3 
  367000    1.1079811   -4.5089085    273.60615  0.062126737  0.063975149            1 
  368000    1.1219019   -4.5789996    271.82196  0.061553886  0.063955807            2 
  369000    1.1178955   -4.5432687    275.12728  0.062133532  0.063933684            2 
  370000    1.1265986   -4.5468695     273.5651   0.06161376  0.063909598            1 
  371000    1.0909334    -4.538194    274.46318  0.061649411  0.063885131            4 
  372000    1.1075948   -4.5475064    274.91852  0.061585691  0.063859823            3 
  373000    1.1105518   -4.5643937    275.78746  0.061614713  0.063833426            2 
  374000    1.1260678   -4.5560678    275.68368  0.061426844  0.063806383            5 
  375000    1.0792832   -4.5487228    275.28107  0.061173571  0.063778793            3 
  376000    1.1235774   -4.5435697    277.77256  0.061563068  0.063750675            2 
  377000    1.1000289    -4.537459    277.85254   0.06141745  0.063724096            3 
  378000     1.130625   -4.4908596    279.84241  0.061693652  0.063698148            2 
  379000    1.1097116   -4.5557001    278.33156  0.061198671  0.063671902            4 
  380000    1.1173949   -4.5398163     278.3184  0.061034736  0.063644799            2 
  381000    1.1284743   -4.5493528    279.80674  0.061200075  0.063615803            2 
  382000    1.1133504   -4.5692759    279.01533  0.060867219  0.063582565            4 
  383000    1.1003183   -4.5529653    280.32675  0.060993635  0.063548836            3 
  384000    1.0622923   -4.5410055    281.15778  0.061015143    0.0635163            5 
  385000    1.1003803   -4.5686821    281.58546  0.060949234  0.063483796            3 
  386000    1.1273397   -4.5710814    282.03402  0.060888173  0.063453141            2 
  387000    1.1136492   -4.5378307    282.55752  0.060843566  0.063421096            3 
  388000    1.0946459     -4.54755    283.10606  0.060804565  0.063389464            3 
  389000    1.0893701   -4.5613521    283.72704  0.060781286  0.063357429            3 
  390000    1.1141246   -4.5410702    283.34205  0.060543172  0.063322176            3 
  391000    1.0876984    -4.554294    284.87301  0.060714624  0.063286483            4 
  392000    1.0980755   -4.5837996    283.62256  0.060293912    0.0632522            1 
  393000    1.1087661   -4.5518542    285.32341  0.060501147  0.063216323            3 
  394000    1.1044945   -4.5258434     286.3361  0.060561781  0.063181955            2 
  395000    1.1013422   -4.5672211    287.72016  0.060700456  0.063147608            1 
  396000     1.065888   -4.5199279    288.79431  0.060773212  0.063114835            6 
  397000    1.1010562   -4.5747534    288.07305  0.060468734  0.063082135            3 
  398000    1.1230066   -4.5643189    287.52358  0.060201755  0.063048783            2 
  399000    1.0928793   -4.5640202    289.49305  0.060462208   0.06301552            3 
  400000    1.1161471    -4.587287     289.9041  0.060396688  0.062982261            2 
  401000    1.1105066   -4.5849915    290.22162  0.060312058  0.062949151            2 
  402000    1.0891779   -4.5642306    292.02733  0.060536346  0.062915499            6 
  403000    1.0662263   -4.5619398    291.78403   0.06033582  0.062882245            2 
  404000    1.0802407    -4.557621    292.75205  0.060386148  0.062847693            4 
  405000    1.1069266   -4.5787774    292.73449  0.060233433  0.062814524            2 
  406000    1.1028717   -4.5747329    292.24345  0.059984287  0.062780043            2 
  407000    1.0907748   -4.5743087    293.98932  0.060194374  0.062743598            3 
  408000     1.094463   -4.5562119    295.22938  0.060300119  0.062708704            2 
  409000    1.1057629   -4.6227854    294.75634  0.060056303  0.062674877            3 
  410000    1.0924334   -4.5742282     295.6823  0.060098028  0.062641898            2 
  411000    1.1007633   -4.5433694    296.87691  0.060194021  0.062609519            4 
  412000    1.1069556   -4.5362268    299.20546  0.060518903  0.062576544            4 
  413000    1.0998156    -4.552167    298.51567  0.060233185  0.062545091            2 
  414000    1.1049465   -4.6061753    298.46152  0.060076795  0.062512573            3 
  415000    1.0766961   -4.6135752    299.09667  0.060059571  0.062479096            1 
  416000     1.096497   -4.5816566    299.66739  0.060029525   0.06244675            1 
  417000    1.0893319   -4.5807957    299.44252  0.059840632  0.062414223            3 
  418000    1.0925399   -4.5517307      301.459  0.060099481  0.062382244            2 
  419000    1.0732419   -4.6121142    301.68541  0.060001076   0.06234874            2 
  420000    1.0694917   -4.5944926    301.88839  0.059898489  0.062316261            3 
  421000    1.0984768   -4.6026099    301.95135  0.059768676  0.062282611            5 
  422000    1.1047303    -4.551545    302.90887  0.059816127  0.062250126            1 
  423000    1.1011268   -4.5889333    303.02242  0.059697087  0.062215993            1 
  424000    1.0816545   -4.5335719     304.9728  0.059939623  0.062181217            2 
  425000    1.0824308   -4.5639934    304.55656  0.059716973  0.062147683            2 
  426000     1.066631   -4.5659082    305.27724  0.059717769  0.062112683            7 
  427000    1.0822779   -4.5827184     305.4251  0.059606773  0.062078823            1 
  428000    1.0878906   -4.5269258    307.25589  0.059823966  0.062045655            2 
  429000    1.0972221   -4.5871332    307.52319  0.059736439  0.062010562            3 
  430000    1.0961722   -4.6083445     305.8923  0.059281454  0.061973505            5 
  431000    1.1139802   -4.5988553    306.27183  0.059217291  0.061936606            2 
  432000    1.1067966   -4.5841746    308.81337  0.059570481  0.061899409            5 
  433000    1.0685712     -4.57589    308.52498  0.059377401  0.061864578            3 
  434000    1.0761448   -4.6015119    308.40907  0.059218331  0.061828796            2 
  435000    1.0825031   -4.6125546    310.15138  0.059415973  0.061793192            3 
  436000    1.0783695   -4.5378617    311.19941   0.05948001  0.061756515            2 
  437000    1.0806496   -4.5876545    311.77364  0.059453402  0.061722051            5 
  438000    1.0741224   -4.6064817    311.92747  0.059346931  0.061687179            2 
  439000    1.0876166   -4.5914932    312.38132  0.059297897  0.061651309            3 
  440000    1.0937526   -4.5939715    312.19377  0.059127607  0.061616331            2 
  441000    1.0940319   -4.5741579     313.2193   0.05918732  0.061582187            1 
  442000    1.0904053    -4.593432    314.50033  0.059294934  0.061546577            6 
  443000    1.0991275   -4.6014196    315.69142  0.059385144  0.061512158            4 
  444000    1.0658872   -4.5689902    316.04764   0.05931825  0.061477465            2 
  445000    1.0356485   -4.6019689    316.39189  0.059249418  0.061443783            3 
  446000    1.0757276   -4.5998601     317.0408  0.059237817  0.061409967            2 
  447000    1.0811926   -4.5759085    317.06705  0.059110188  0.061375875            2 
  448000    1.0639747   -4.5629472    318.60878  0.059265026  0.061343444            3 
  449000    1.0793296   -4.5774846    318.24217  0.059064991   0.06131004            4 
  450000    1.0668283   -4.5780061    320.45612  0.059343726  0.061278084            2 
  451000    1.0817133   -4.5983953    319.62866  0.059059249  0.061245298            3 
  452000    1.0807815   -4.5858984    320.34506  0.059060666  0.061211735            2 
  453000    1.0768588   -4.6093311    322.54443  0.059334884  0.061179894            2 
  454000     1.082335     -4.59393    323.12402  0.059310577  0.061147582            3 
  455000    1.0874535   -4.5638207    321.69323  0.058918174  0.061115796            3 
  456000    1.0889506   -4.5954897    322.58249  0.058951479  0.061082517            5 
  457000    1.0814271   -4.5957253    322.97607   0.05889425  0.061049874            4 
  458000    1.0521902   -4.5909839    322.86332  0.058745145  0.061017206            2 
  459000    1.0871528   -4.5759713    324.96367  0.058998487  0.060985233            2 
  460000    1.0989522   -4.5885722    325.62393  0.058989842  0.060954871            4 
  461000    1.0707123   -4.6091843    325.21348  0.058787686  0.060922615            4 
  462000    1.0498775    -4.591771    326.71157  0.058930658  0.060889868            3 
  463000    1.0720513   -4.6095151    325.75994  0.058632099  0.060856696            5 
  464000    1.0739753   -4.6325756    326.97327  0.058723648  0.060825141            3 
  465000    1.1046743   -4.5646047    329.08308  0.058975462   0.06079349            1 
  466000    1.0670593   -4.5649029    328.82061  0.058801968  0.060760828            2 
  467000    1.0788072   -4.5927742    329.59124  0.058813569  0.060727537            3 
  468000    1.0519445   -4.6214554    330.22029  0.058799909  0.060695724            3 
  469000    1.0677024   -4.6190667    329.58311   0.05856132  0.060662103            4 
  470000    1.0908572   -4.6314401     329.7359  0.058463812  0.060629206            2 
  471000    1.0343631   -4.5997546    330.72258  0.058514256  0.060595231            2 
  472000    1.0699727   -4.6152689    331.46548  0.058521448    0.0605623            2 
  473000    1.0821704   -4.6479066    330.52869   0.05823268  0.060528011            2 
  474000    1.0452035    -4.591335     332.8912  0.058525176  0.060494819            1 
  475000    1.0756706   -4.6295134    333.11692  0.058441564   0.06046084            4 
  476000    1.0510623   -4.6063318     333.9789  0.058469695    0.0604277            4 
  477000    1.0745794   -4.6339108    333.73684  0.058304828  0.060392303            2 
  478000    1.0452251   -4.6378874    333.19964  0.058089197  0.060356734            4 
  479000     1.057191   -4.6200954    333.85861  0.058082569  0.060321957            4 
  480000     1.079432    -4.623847    335.58512  0.058261305  0.060285597            4 
  481000    1.0708284   -4.6480758    335.05526  0.058048383  0.060249275            2 
  482000    1.0908398   -4.6307101    335.40468  0.057988361  0.060213907            2 
  483000    1.0586969   -4.6090772    335.68328   0.05791637  0.060177664            1 
  484000    1.0622747    -4.614507    336.94868   0.05801458   0.06014163            3 
  485000    1.0378348   -4.6207636    336.97481  0.057899452  0.060105542            9 
  486000    1.0448737    -4.615091    338.49949   0.05804175  0.060068999            1 
  487000    1.0653189   -4.6231626      338.404  0.057906229  0.060032837            3 
  488000    1.0549032   -4.6170271    338.43769  0.057793321  0.059995041            8 
  489000    1.0534882   -4.6261099    338.38931  0.057666891  0.059957036            2 
  490000    1.0517999   -4.6155872    339.78777  0.057787036   0.05992014            3 
  491000    1.0843765   -4.6133368    339.25023   0.05757811   0.05988425            3 
  492000    1.0468186   -4.6486512     340.7114   0.05770857  0.059848083            1 
  493000     1.067371   -4.6234278     342.0098  0.057810987  0.059812551            3 
  494000    1.0487695   -4.6431076    341.34159   0.05758124  0.059777172            7 
  495000     1.071277     -4.64352    341.95312  0.057567865  0.059741346            1 
  496000    1.0340639   -4.6086472    344.83377  0.057935781  0.059707379            2 
  497000    1.0638813   -4.6026825    344.46746   0.05775779  0.059674176            3 
  498000    1.0557834   -4.6136445    344.83187  0.057702789  0.059639928            3 
  499000    1.0721841   -4.6293198    345.60785  0.057716742  0.059606246            2 
  500000    1.0494674   -4.6169885    346.93043  0.057821738  0.059572508            2 
  501000    1.0474316   -4.6157521    345.74115  0.057508508  0.059538105            2 
  502000     1.067186   -4.5858587    348.91607  0.057920995  0.059504876            3 
  503000    1.0581395   -4.6311965    346.57207  0.057417507  0.059471107            5 
  504000    1.0692553   -4.6275359    347.28138  0.057420862  0.059437701            5 
  505000    1.0342316   -4.6331697    348.01969  0.057428991  0.059404928            3 
  506000      1.05006   -4.6095503    350.82286  0.057777151  0.059372423            5 
  507000    1.0722863   -4.6236392    350.93119  0.057680997  0.059339847            3 
  508000    1.0382723   -4.6254981    350.07848  0.057427571   0.05930778            2 
  509000    1.0476331   -4.6250969     353.1666  0.057820334  0.059275648            3 
  510000     1.031191   -4.6293802    352.77112   0.05764234  0.059243865            5 
  511000    1.0251603   -4.6144449     354.0245  0.057733936  0.059212897            2 
  512000    1.0503742   -4.6250432    354.29154  0.057664639  0.059180486            5 
  513000    1.0422756   -4.6807517    352.70916  0.057295186  0.059147559            2 
  514000    1.0373293    -4.687147     352.8689  0.057209614  0.059115232            4 
  515000    1.0456416   -4.6226843    354.68649  0.057392636  0.059082736            1 
  516000    1.0653505    -4.648389    355.56989  0.057424078   0.05905092            2 
  517000    1.0356019   -4.6190457     356.5086  0.057464313  0.059019679            4 
  518000     1.072965   -4.6555179    355.54231  0.057197927  0.058987277            3 
  519000    1.0502448   -4.6655248    357.50324  0.057402575  0.058956996            2 
  520000    1.0582372   -4.6434509    357.98749  0.057369791  0.058925658            6 
  521000    1.0250662    -4.629804     357.9745  0.057257597   0.05889401            4 
  522000    1.0457108   -4.6168235    359.35263  0.057367916  0.058862754            3 
  523000    1.0322509   -4.6308418    359.31676  0.057252511  0.058833688            6 
  524000    1.0553673   -4.6478347    362.30053  0.057617769  0.058804988            4 
  525000    1.0232163    -4.633145    361.64171  0.057403446  0.058777218            2 
  526000    1.0447329    -4.654646    363.36646  0.057567563   0.05874884            3 
  527000    1.0320644   -4.6630674    363.51585   0.05748195  0.058720835            3 
  528000    1.0255289   -4.6628441    363.42416  0.057358611  0.058693975            2 
  529000    1.0306769    -4.640833    364.87781  0.057479176   0.05866642            3 
  530000    1.0149703   -4.6619562    365.30562   0.05743799  0.058640367            4 
  531000    1.0250286   -4.6727417    365.08813  0.057295689  0.058613308            1 
  532000    1.0468174   -4.6438727    366.48681  0.057407082  0.058586958            3 
  533000    1.0366483   -4.6625159    366.10842  0.057240215  0.058559954            2 
  534000    1.0492045   -4.6596121    366.50806   0.05719539  0.058532723            3 
  535000    1.0520788   -4.6302253    368.13665  0.057342157   0.05850656            2 
  536000    1.0464218    -4.622566    368.68932  0.057321101  0.058480731            3 
  537000    1.0456834   -4.6426516     368.6451  0.057207496   0.05845414            6 
  538000    1.0612022   -4.6888624    369.22142   0.05719043  0.058426313            2 
  539000    1.0472811   -4.6661542     369.4597  0.057121165  0.058399093            2 
  540000    1.0273577   -4.6570064    371.01764  0.057255808  0.058372436            4 
  541000    1.0217294   -4.6469583    370.83861  0.057122399  0.058345618            2 
  542000     1.042541   -4.6690634    370.44957  0.056957191  0.058318604            7 
  543000     1.032925   -4.6887879      370.876  0.056917741  0.058291363            5 
  544000    1.0257021   -4.6671633    371.99353  0.056984302   0.05826337            4 
  545000    1.0303635   -4.6626652    372.62094   0.05697568    0.0582356            3 
  546000    1.0414629    -4.664374    371.81404  0.056748175  0.058207417            5 
  547000    1.0279762   -4.6430552     373.2558  0.056864077  0.058179195            1 
  548000     1.035705   -4.6469162    373.28773  0.056765166  0.058149163            3 
  549000    1.0367233   -4.6855103    373.01237  0.056619971  0.058119576            2 
  550000    1.0434564    -4.643209    373.18588  0.056543316  0.058089972            2 
  551000    1.0046172   -4.6578012    374.63832  0.056660363  0.058059797            2 
  552000    1.0391131   -4.6651793    374.79862  0.056581917  0.058030056            6 
  553000    1.0452904   -4.6622094    375.03866  0.056515772  0.058001252            4 
  554000    1.0324092    -4.639107     376.3141  0.056605611  0.057971658            4 
  555000    1.0267598   -4.6625347    377.33524  0.056656943  0.057941545            2 
  556000    1.0077679    -4.666374    375.94976  0.056347385  0.057911619            2 
  557000    1.0184604   -4.6390013    376.24052  0.056289725   0.05788187            2 
  558000    1.0322858   -4.6577583    378.01732  0.056454199  0.057851207            4 
  559000    1.0472131   -4.6650383    378.46347  0.056419718  0.057820648            4 
  560000    1.0221985   -4.6705559    378.31175  0.056296392  0.057789694            1 
  561000    1.0300722   -4.6886946      377.288   0.05604397  0.057758477            2 
  562000    1.0335532    -4.712626    377.14866  0.055923586  0.057727523            2 
  563000    1.0374036   -4.6928445    378.84815  0.056075807  0.057696164            4 
  564000    1.0485605   -4.6698027    379.42912  0.056062222   0.05766467            3 
  565000    1.0397546   -4.6437924    382.12729  0.056360957  0.057633748            2 
  566000    1.0307662    -4.682372    381.18431  0.056122543  0.057602315            2 
  567000    1.0408676   -4.6470273    381.89685  0.056128285  0.057571514            8 
  568000    1.0198194   -4.6879157    381.94614  0.056036698  0.057540631            4 
  569000    1.0139412   -4.6435162    383.73092  0.056199608  0.057509702            2 
  570000    1.0175002   -4.6911346     383.1409  0.056014752  0.057478431            3 
  571000    1.0184726   -4.7031739    382.90056  0.055881575   0.05744714            2 
  572000    1.0386262   -4.6542652    385.30128  0.056133636  0.057416954            3 
  573000     1.017719   -4.6697582    384.79796  0.055962473  0.057386374            4 
  574000    1.0432203   -4.6885729    385.01121  0.055895937  0.057355237            2 
  575000    1.0359252   -4.7013967    385.39643  0.055854555  0.057324017            3 
  576000      1.01851   -4.6693649    385.47195  0.055768511  0.057292824           10 
  577000    1.0045473   -4.6752215    387.84175  0.056014117  0.057261707            3 
  578000    1.0255028   -4.6713967    385.91741  0.055639765  0.057230516            4 
  579000    1.0274891   -4.7042375    387.52372  0.055774859  0.057199522            3 
  580000   0.99686769   -4.6937427    387.97738  0.055743876  0.057168944            2 
  581000    1.0110018   -4.6556112    389.66277  0.055889669   0.05713849            3 
  582000     1.015275   -4.6958567    388.92757  0.055688369  0.057108047            5 
  583000    1.0308072   -4.6711068    391.60943   0.05597619  0.057078486            5 
  584000    1.0249522   -4.6616529    389.92984  0.055640673  0.057048775            2 
  585000    1.0340705   -4.7008606    389.37078  0.055465923  0.057017607            2 
  586000    1.0306331   -4.6764845    390.58383  0.055543776  0.056986942            6 
  587000    1.0273088   -4.7058721    389.91409  0.055354073  0.056954949            3 
  588000    1.0092417   -4.6759967     393.0041   0.05569786  0.056923047            6 
  589000    1.0350061   -4.6936218    392.52526  0.055535549  0.056891158            3 
  590000    1.0161787    -4.710892    392.57338  0.055448218  0.056859972            1 
  591000    1.0083356   -4.6878425    391.66128  0.055225787    0.0568276            3 
  592000    1.0393662   -4.7062528    393.85737  0.055441634  0.056795437            2 
  593000    1.0126663   -4.6973527    392.85208  0.055206868  0.056764362            4 
  594000   0.99705559    -4.722372    394.11475   0.05529107  0.056732601            2 
  595000    1.0371796   -4.7213931    393.70696  0.055141031  0.056700456            3 
  596000    1.0105832   -4.6980388    394.41852  0.055148003  0.056668798            3 
  597000   0.99621454   -4.7050796    394.65274  0.055088323  0.056636549            2 
  598000    1.0417006   -4.6983484    395.41686  0.055102684  0.056603921            4 
  599000    1.0127608   -4.7289745    395.65229  0.055043446  0.056570859            3 
  600000    1.0319182   -4.7066985    394.89409  0.054846401  0.056537958            3 
  601000    1.0305117   -4.6864243     396.1554  0.054930033  0.056504222            3 
  602000   0.99663664   -4.6955015     396.8408  0.054933666  0.056471381            3 
  603000   0.99822323   -4.6904681    397.01672  0.054866877  0.056439032            4 
  604000    1.0035557   -4.7142664    397.63835  0.054861803  0.056406476            2 
  605000     1.013188   -4.7124542    397.73168  0.054783977  0.056372791            3 
  606000    1.0188401   -4.7108461    398.37287  0.054781747  0.056338991            2 
  607000    1.0019676   -4.6607755    399.40881  0.054833718  0.056306202            2 
  608000   0.99715162   -4.7052082    397.59419  0.054494818  0.056273329            4 
  609000   0.99510822   -4.7193922    399.47651  0.054662905  0.056240574            6 
  610000    1.0286478    -4.717881    399.05579  0.054515818  0.056208051            2 
  611000    1.0124354   -4.7331535    400.32296  0.054599422  0.056175037            4 
  612000    1.0073139   -4.7238495    401.01337  0.054604217  0.056141066            2 
  613000    1.0096017   -4.7070563    401.12947  0.054530924  0.056107753            3 
  614000    1.0211251   -4.7056972     401.6312  0.054510206   0.05607343            2 
  615000     1.001512   -4.7230731    401.56747  0.054412936  0.056039793            5 
  616000    1.0436288   -4.7400862    400.90753  0.054235326  0.056006809            6 
  617000    1.0036334   -4.7044107    403.32267  0.054473619  0.055973674            6 
  618000   0.98417044   -4.7148444    402.95799  0.054336299  0.055940837            2 
  619000    1.0243645    -4.727282    402.77413  0.054223766  0.055908671            5 
  620000   0.99173004   -4.7469042    403.06281  0.054175108  0.055876406            4 
  621000   0.99107556   -4.7027914    407.19027  0.054641743   0.05584372            4 
  622000    1.0165368   -4.7496213    404.48568  0.054191544  0.055810921            4 
  623000   0.99627473   -4.6865666    405.01846  0.054175824  0.055777991            3 
  624000    1.0134453   -4.7366966     405.2489  0.054119778  0.055745487            5 
  625000    1.0031047   -4.7021267     405.8958   0.05411944  0.055712121            5 
  626000   0.99915926   -4.7027851    406.72179  0.054142943  0.055679056            2 
  627000    1.0080653   -4.7125704     407.2404  0.054125518  0.055646022            5 
  628000   0.99601543   -4.7124472    408.04727    0.0541464  0.055613151            3 
  629000   0.99539607    -4.707425    407.65567  0.054008435  0.055579211            3 
  630000    1.0005962   -4.7360248     407.8227  0.053944801  0.055545684            4 
  631000    1.0062288   -4.7427056    409.01454  0.054016711  0.055512954            7 
  632000    1.0113454   -4.6921606    410.16071  0.054082372  0.055480058            4 
  633000    1.0086792   -4.7144299    411.23876  0.054138857  0.055448165            3 
  634000   0.99691259   -4.7135812    411.76069  0.054122068  0.055416877            9 
  635000    1.0224609    -4.738541    410.99883  0.053936854  0.055385464            5 
  636000    1.0046152   -4.7392174    410.40582  0.053774347  0.055353919            7 
  637000   0.99412167   -4.7560136    411.35676  0.053814333  0.055321992            3 
  638000   0.98528827    -4.728291    412.34452  0.053859002  0.055290144            1 
  639000    1.0140157    -4.728523    414.28476  0.054027746  0.055259342            3 
  640000   0.99529747   -4.7136836    414.94018  0.054028669  0.055227818            3 
  641000    1.0138151   -4.7227148    413.44079  0.053749452  0.055195705            5 
  642000    1.0250258   -4.7367906    413.90925  0.053726539  0.055163141            2 
  643000   0.99747981   -4.7411193    413.94871  0.053648097  0.055130875            6 
  644000   0.99723752   -4.7623968    415.16505  0.053722185   0.05509781            6 
  645000    0.9830892   -4.7517979    413.29853  0.053397743  0.055064851            6 
  646000   0.99469692   -4.7587213    415.02935  0.053538358  0.055031714            1 
  647000     1.011154   -4.7481309    415.38662  0.053501625  0.054999061            2 
  648000   0.99451231   -4.7277621    416.84628  0.053606774  0.054966128            7 
  649000    1.0050713   -4.7125465    417.17998  0.053567023  0.054933798            8 
  650000   0.99222748   -4.7124345    419.20279  0.053743947  0.054901773            5 
  651000    1.0135203   -4.7664932    416.80145     0.053354  0.054869144           11 
  652000   0.98191492   -4.7483783    418.33384  0.053468026  0.054835852            5 
  653000   0.97079302   -4.7267547    417.46764  0.053275605  0.054801981            2 
  654000   0.96785191   -4.7381013    418.80085  0.053364023  0.054768169            3 
  655000   0.99619331   -4.7560669    417.87218  0.053164399  0.054734304            4 
  656000   0.99390944    -4.735064    420.44636   0.05341036  0.054700632            2 
  657000   0.97457757   -4.7461372    419.20273  0.053171325  0.054667167            3 
  658000   0.97562828   -4.7462609    420.41475  0.053244016  0.054633463            2 
  659000   0.98730944   -4.7633837    421.42642  0.053291151  0.054600146            4 
  660000   0.98406456   -4.7425798     420.9154  0.053145884  0.054566903            2 
  661000   0.99551948   -4.7768983    421.61596  0.053153803  0.054533743            3 
  662000   0.99751606   -4.7440839    421.44222  0.053051639  0.054500278            4 
  663000   0.99882498   -4.7170916    422.00785  0.053042716  0.054466863            3 
  664000    1.0128498   -4.7251981    422.91695  0.053076927  0.054433325            7 
  665000   0.98988017   -4.7742512    420.14296  0.052649493  0.054400076            3 
  666000   0.97737751   -4.7574676    422.28774  0.052838807  0.054366675            4 
  667000     1.001536   -4.7138527     423.0266    0.0528519  0.054333807            4 
  668000   0.98544067   -4.7697463    426.01611  0.053145722  0.054300539            5 
  669000   0.98948924   -4.7591243    424.88104  0.052924893  0.054267884            5 
  670000   0.99134533   -4.7261442     424.6117    0.0528124  0.054235185            5 
  671000   0.98366768   -4.7621484    426.31351  0.052945046   0.05420256            3 
  672000   0.96961816   -4.7701593    425.00423  0.052703898  0.054169898            3 
  673000   0.99038763   -4.7449676    427.10064   0.05288517  0.054137195            2 
  674000    0.9725382   -4.7614296      426.524  0.052735411   0.05410485            4 
  675000   0.97430636   -4.7525864    429.61151  0.053038459  0.054073768            2 
  676000   0.97352604   -4.7489099    428.50002  0.052822981  0.054042268            3 
  677000   0.98195496   -4.7848075    427.07134  0.052569097  0.054011239            5 
  678000   0.97302669   -4.7714084    429.61771  0.052804537  0.053980429            3 
  679000   0.96892856   -4.7703958    431.05393  0.052903035  0.053949734            3 
  680000   0.97395802   -4.7732729    430.74868  0.052787828  0.053919378            2 
  681000   0.99399285    -4.808702    430.84363  0.052721932  0.053888591            4 
  682000    0.9871401   -4.7956553    431.02832  0.052667195  0.053858032            8 
  683000   0.97941714   -4.7381803     434.9657  0.053070485  0.053828243            5 
  684000   0.99601984   -4.7367598    433.88694   0.05286147  0.053799129            2 
  685000   0.99195643   -4.7471379    433.69694  0.052761184  0.053769537            4 
  686000   0.99024809   -4.7446036    435.35958  0.052886247   0.05373901            2 
  687000   0.98438314   -4.7790589    433.71619  0.052609921  0.053707902            7 
  688000   0.97708633     -4.74571    434.73541  0.052656905  0.053677286            2 
  689000   0.95963855   -4.7697817    434.82735    0.0525916  0.053646609            6 
  690000    0.9897587   -4.7732028    435.46629  0.052592547  0.053615877            3 
  691000   0.97360999   -4.7829545    435.55948  0.052527675  0.053584988            2 
  692000    0.9644529   -4.7866198        436.2  0.052528902  0.053554675            4 
  693000   0.94939432   -4.7465069    438.23157  0.052697399  0.053525037            3 
  694000    1.0060365   -4.7859263    437.08083  0.052483288  0.053495051            3 
  695000   0.98124412   -4.8079145    437.37184  0.052442666  0.053465479            8 
  696000   0.98024791   -4.7458325    438.20933  0.052467592  0.053435965            3 
  697000   0.97206371   -4.7805318    440.15185  0.052624563  0.053406045            2 
  698000   0.98065707   -4.8081643    439.86545  0.052514978   0.05337743            2 
  699000   0.96496197   -4.7587855    441.71327  0.052660142  0.053349068            4 
  700000   0.97638797   -4.7644416    442.22645  0.052646006  0.053321013            3 
  701000   0.95098351   -4.7970023    441.83916  0.052524864   0.05329323            2 
  702000   0.99427224   -4.7772458    443.48973  0.052645979  0.053265398            4 
  703000   0.98934642   -4.7781358    441.58516  0.052345325  0.053237433            3 
  704000   0.97310937   -4.7887941    445.56155  0.052741661  0.053210144            4 
  705000   0.97256673   -4.7660177    445.45825  0.052654639  0.053183589            3 
  706000   0.96562448   -4.7975013     443.1929  0.052312665  0.053156213            5 
  707000   0.96326899   -4.7717826    444.91995  0.052442238  0.053129228            3 
  708000   0.96112373   -4.7988842    445.93484  0.052487622  0.053102403            5 
  709000   0.97808316   -4.7665779    447.00163  0.052538978   0.05307549            3 
  710000   0.96234261   -4.7698611    445.82656  0.052327061  0.053048579            4 
  711000   0.96800712   -4.7552581    446.03344  0.052277712  0.053021516            4 
  712000   0.95093623   -4.7584233    449.09233  0.052562305  0.052994875            5 
  713000   0.96986027   -4.7999148    447.75658  0.052332466  0.052968153            5 
  714000    0.9606051   -4.8072483    447.58754  0.052239442  0.052941764            3 
  715000   0.97095181   -4.7944657    448.74874  0.052301718   0.05291492            7 
  716000   0.97391886    -4.791794    448.28543  0.052174748  0.052888444            4 
  717000   0.97941376   -4.7525932    450.66176  0.052378169  0.052861215            4 
  718000   0.98468166   -4.7576313     449.0704  0.052120519  0.052834589            2 
  719000    0.9690955   -4.8042377    450.77122  0.052245158  0.052808018            3 
  720000   0.96439786     -4.78692    451.63151  0.052272166  0.052781687            4 
  721000   0.97368797   -4.7634732    451.72243  0.052210175  0.052755275            7 
  722000   0.97207067   -4.8147012    449.96019  0.051934463  0.052728939            1 
  723000    0.9601505   -4.7850132     452.3463  0.052137655  0.052702525            2 
  724000   0.96273307   -4.8086171    452.77265  0.052114716  0.052676372            6 
  725000   0.96647696    -4.825828    452.01744  0.051956028  0.052650433            4 
  726000   0.96998149   -4.8202872    453.25386  0.052026384  0.052624273            3 
  727000    0.9542895   -4.8022219    455.65817  0.052230418  0.052598855            7 
  728000   0.96532716   -4.7905562    456.83444   0.05229332  0.052572703            3 
  729000   0.98390856    -4.810997    456.14727  0.052143035  0.052546192            3 
  730000   0.96881041   -4.8007335    455.68706  0.052019071  0.052520043            4 
  731000   0.96794484   -4.8191112    454.33094  0.051793313  0.052493998            5 
  732000   0.97282461   -4.7980209    455.93183  0.051904807  0.052467494            3 
  733000   0.97066844   -4.7910744    456.06959  0.051849658  0.052441015            7 
  734000   0.95226872    -4.829063    457.31423  0.051920326  0.052414566            2 
  735000   0.96819344   -4.8170413    456.23505   0.05172733  0.052387942            4 
  736000   0.95087175   -4.8027328    458.04394  0.051861859  0.052361663            3 
  737000   0.94238451   -4.8062337    457.35495  0.051713586  0.052335367            2 
  738000   0.96321099   -4.8107422    458.45449  0.051767671  0.052309303            2 
  739000   0.95942534   -4.8053138    459.40953  0.051805315  0.052283134            4 
  740000   0.93586124   -4.8087281    459.31032  0.051724135  0.052256888            4 
  741000   0.94352185   -4.8236087    460.85851  0.051828443  0.052231137            3 
  742000    0.9636965   -4.7939862    462.89183  0.051986953  0.052205778            6 
  743000   0.94993549   -4.8116639     462.9212  0.051920278  0.052180439            4 
  744000   0.97905117   -4.7977285     463.6943  0.051937086   0.05215526            2 
  745000   0.95426992   -4.7936151    463.15485   0.05180703  0.052130342            5 
  746000   0.94704527   -4.8059858       461.71  0.051576185  0.052105234            7 
  747000   0.96416244   -4.8099398    465.25719  0.051902854  0.052080064            6 
  748000   0.95748663   -4.7992773    463.50995  0.051638809  0.052054755            3 
  749000   0.96823848   -4.8364537    463.75307  0.051596915  0.052029661            3 
  750000   0.96192803   -4.8436075    463.81268  0.051534742  0.052003925            4 
  751000   0.95158664   -4.8419148    464.87358  0.051583841  0.051978764            2 
  752000    0.9641743   -4.7967153    465.77171  0.051614773  0.051953425            3 
  753000   0.95514612   -4.7989622    467.63849  0.051752821   0.05192889            3 
  754000   0.95926508   -4.8381858    466.06696  0.051510495  0.051904619            4 
  755000   0.94289462   -4.8149426    468.43411  0.051703544   0.05187969            5 
  756000    0.9687354   -4.8104519    468.25943  0.051615899  0.051854863            8 
  757000   0.93658711   -4.8027502    468.86502  0.051614379  0.051830625            3 
  758000   0.96739009    -4.836327    468.01106  0.051452403  0.051805734            2 
  759000   0.93066655   -4.7999858    470.93852   0.05170603  0.051781697            8 
  760000   0.93826335   -4.8050078     470.9874  0.051643355  0.051757467            3 
  761000   0.93556296   -4.8374613    469.89101  0.051455433  0.051733789            3 
  762000   0.94911114   -4.8226541    470.35108  0.051438219  0.051709897            4 
  763000   0.97196452   -4.8463099    469.84381    0.0513154  0.051685988            2 
  764000   0.94434881   -4.8094391    472.50367  0.051538358  0.051661701            9 
  765000   0.95265928   -4.8128508     472.1317  0.051430468  0.051637762            2 
  766000   0.95227311   -4.8237514    472.92262  0.051449371  0.051614171            2 
  767000   0.95201476    -4.817304    474.20688  0.051521825  0.051590469            5 
  768000   0.94593773   -4.8444027    473.63293  0.051392462  0.051566164            5 
  769000   0.95097655   -4.8743768    472.25317  0.051176113  0.051541946            3 
  770000   0.92819769   -4.8167006    474.22318  0.051322855  0.051518052            7 
  771000   0.93729826   -4.8491192    473.53949  0.051182392  0.051494206            4 
  772000   0.93420714    -4.880947    473.89441  0.051154405  0.051469956            3 
  773000   0.94417914   -4.8071871    476.16837  0.051333374  0.051445375            2 
  774000   0.92823458   -4.8317427    476.62984  0.051316736  0.051420814            3 
  775000   0.93978726   -4.8257156    476.26164   0.05121093  0.051396847            4 
  776000   0.95851888   -4.8411929    476.10927  0.051128573  0.051372381            3 
  777000    0.9280544   -4.8736357    475.83896  0.051033779  0.051348449            4 
  778000   0.92635775   -4.8224123    477.61705  0.051158638  0.051324237            6 
  779000   0.98049429   -4.8491476    478.63435  0.051201792  0.051301365            6 
  780000   0.94454974   -4.8479559    479.31928  0.051209325   0.05127835            5 
  781000   0.94460649   -4.8483994    478.53809  0.051060402  0.051254573            3 
  782000   0.93191592   -4.8417713    479.31507  0.051077906  0.051231209            3 
  783000   0.93538844   -4.8511459    480.79253  0.051169916  0.051207385            3 
  784000   0.95161897   -4.8182948    480.91161  0.051117305  0.051184154            9 
  785000   0.93807479   -4.8378977     480.0108  0.050956561  0.051161102            5 
  786000   0.94628003   -4.8301841    481.06274  0.051003259  0.051137442            3 
  787000   0.93534535   -4.8628565    480.61153  0.050890675  0.051114047            8 
  788000   0.95998989   -4.8550342    482.22353  0.050996566  0.051090414            3 
  789000   0.95818235   -4.8612136    482.25868  0.050935645  0.051066981            3 
  790000   0.92285118   -4.8379812       483.37  0.050988397  0.051043334            2 
  791000   0.92172315    -4.831773    483.43254  0.050930524  0.051020161            9 
  792000   0.92795608    -4.864761     482.4083  0.050758449  0.050996644            5 
  793000   0.92018983   -4.8803694    482.13665  0.050665894  0.050972977            9 
  794000   0.92587941   -4.8534944    483.94704  0.050792091  0.050948893            4 
  795000   0.94467166   -4.8374546    484.35288  0.050770742  0.050925051            4 
  796000   0.92772782   -4.8455458    483.94538  0.050664298  0.050901067            5 
  797000   0.95028498   -4.8394354    484.60614  0.050669818  0.050877015            2 
  798000   0.93188457   -4.8600224    484.62627  0.050608425  0.050853236            6 
  799000   0.92326814   -4.8372252    487.83278  0.050879514  0.050829429            3 
  800000   0.92698509   -4.8622616    485.76747  0.050600778  0.050805447            4 
  801000   0.94973098   -4.8511533    485.14829  0.050473188  0.050780639            2 
  802000    0.9371301   -4.8533151     486.6732  0.050568703  0.050757026            3 
  803000   0.95408758   -4.8517832     486.1791  0.050454452  0.050732505           11 
  804000   0.93447851   -4.8871105    486.27465  0.050401602  0.050708785            4 
  805000   0.91951188   -4.8578053    487.16524  0.050431184  0.050684462            3 
  806000   0.92714368   -4.8537307    486.90889   0.05034211  0.050660477            3 
  807000   0.93336804   -4.8661452    487.06318  0.050295661  0.050635849            4 
  808000   0.93745444   -4.8675216    488.84271  0.050416946   0.05061108            5 
  809000   0.94146053   -4.8773172    487.28715  0.050194391  0.050586389            3 
  810000   0.91340199   -4.8522696     488.5673  0.050264126  0.050561869            4 
  811000   0.94365466   -4.8323247    488.72015  0.050217854  0.050537265            2 
  812000   0.93974562   -4.8772408     487.3968  0.050020198  0.050511984            6 
  813000    0.9301337    -4.856467    490.66873  0.050294048  0.050487051            7 
  814000   0.91083584   -4.8466977    489.69111  0.050132178  0.050461925            2 
  815000   0.93992174   -4.8709872    489.88963  0.050090964  0.050436601            7 
  816000   0.93125436   -4.8716056    489.54058  0.049993932   0.05041068            3 
  817000   0.92396071   -4.8521526    491.02128   0.05008377  0.050384961            6 
  818000   0.92464497   -4.8488344    492.93482  0.050217483  0.050360062            3 
  819000   0.92615338   -4.8757355    493.10785  0.050173774  0.050335024            2 
  820000   0.94517351   -4.8650293    493.61463  0.050164089  0.050310371            7 
  821000     0.920335   -4.8978921    491.31304  0.049869371  0.050285307            4 
  822000   0.93506254   -4.8754325     492.6949  0.049948794  0.050260695            4 
  823000   0.92877169    -4.879499    493.66465  0.049986295  0.050236104            4 
  824000   0.91702218    -4.896728    493.23696  0.049882378  0.050211112            4 
  825000   0.92050844   -4.8815142    493.59587  0.049858169  0.050185811            5 
  826000   0.92117958   -4.9105466    493.19691  0.049757557  0.050160813            3 
  827000   0.93757281   -4.8951978    493.65919  0.049743973  0.050135787            4 
  828000   0.92811113   -4.8704862    495.80937  0.049900299  0.050111478            4 
  829000   0.91536468   -4.8917373    497.44617  0.050004642  0.050086872            4 
  830000   0.89387616   -4.8873784    495.02347  0.049701152  0.050061994            3 
  831000    0.9311066   -4.8835807    496.82208  0.049821708  0.050037013            6 
  832000   0.93070922   -4.8796917      497.065  0.049786158  0.050012013            5 
  833000   0.90971478   -4.8693792    496.68368  0.049688244   0.04998714            4 
  834000   0.91670295     -4.85946    496.57288  0.049617593  0.049962556            6 
  835000   0.92636592   -4.9298247    496.21862  0.049522817  0.049937766            7 
  836000   0.92684721   -4.9186197    498.51903  0.049692885  0.049912524            4 
  837000   0.91776402   -4.8968987    497.16635   0.04949884  0.049886856            4 
  838000   0.91561712   -4.8769997    497.50575  0.049473523  0.049861211            3 
  839000   0.89802075   -4.9056278    496.27943  0.049292752  0.049835278            5 
  840000   0.92865154   -4.9059732    496.87243    0.0492929  0.049808987            3 
  841000   0.91558237    -4.885449    498.00514  0.049346526   0.04978269            6 
  842000   0.92309842   -4.8911059    499.38385  0.049424372  0.049757136            5 
  843000   0.94003968   -4.9059037    500.10658  0.049437186   0.04973181            3 
  844000   0.91703311    -4.886746    499.21259  0.049290342  0.049706258            3 
  845000   0.89838925   -4.8481482    500.35574  0.049344747  0.049680614            3 
  846000   0.90777895   -4.8753047    500.66824  0.049317203  0.049655352            3 
  847000   0.91995127   -4.9257326    499.00551  0.049095386  0.049629781            3 
  848000   0.90816169   -4.8850824    501.56416  0.049288931  0.049604657            5 
  849000   0.91660712   -4.8784036    503.08711   0.04938036  0.049579931            4 
  850000   0.91674832   -4.8849232    501.93916  0.049209721  0.049554938            5 
  851000   0.90234052   -4.9020374    503.68144  0.049322507  0.049530123            3 
  852000   0.92525316   -4.8903562    503.27554  0.049224916  0.049505403           15 
  853000   0.92655253   -4.8731051    504.48442  0.049285309  0.049481056            3 
  854000   0.91567896   -4.8743515    505.83174  0.049359069  0.049456937            4 
  855000   0.91113462   -4.8893159    505.82153  0.049300344  0.049433126            5 
  856000   0.92073752   -4.8839394    505.75021  0.049235807  0.049408522            3 
  857000   0.92207679   -4.8906196     505.3579  0.049140209  0.049383811            3 
  858000   0.90496998    -4.895845    507.24726  0.049266439   0.04935945            6 
  859000   0.89421779   -4.8917185    506.19604  0.049107105  0.049334611            4 
  860000   0.89012955    -4.888291    507.45691  0.049172181  0.049310021            4 
  861000   0.92084157   -4.8957418    506.79329  0.049050841  0.049284938            2 
  862000   0.90990164   -4.9120281    507.26387   0.04903943  0.049260481            3 
  863000   0.93287131   -4.9088342    506.23899  0.048883641  0.049235652            2 
  864000   0.91109656   -4.9060885    506.35291  0.048838051  0.049210639            2 
  865000   0.90129935   -4.9049619     508.2615  0.048965462  0.049185455            4 
  866000    0.9240985   -4.9352418    507.98198  0.048882023  0.049160391            4 
  867000   0.92336366   -4.8941155    508.80209  0.048904469  0.049135435            4 
  868000   0.92750606   -4.8958163    507.85088  0.048756805  0.049110304            2 
  869000    0.9048142   -4.8823815    509.81978  0.048889507   0.04908555            4 
  870000   0.90076575   -4.9153196    509.05417  0.048759978  0.049060103            6 
  871000   0.91187708   -4.9085173    509.31315  0.048728774   0.04903499            4 
  872000    0.8945112   -4.9160029    510.21536  0.048759113  0.049009936            2 
  873000   0.89800521   -4.9105663    511.19633  0.048796901  0.048984834            3 
  874000   0.88814743   -4.9319727    510.39574  0.048664735  0.048959719            3 
  875000   0.92472495   -4.9026929    510.91045  0.048658138  0.048935276            9 
  876000   0.89352941   -4.8694405    510.09055  0.048524596  0.048910193            3 
  877000   0.93826075   -4.9426911    509.72759  0.048434777  0.048884972            2 
  878000   0.89304179   -4.9282118     512.4692  0.048639826   0.04885959           12 
  879000   0.93198308   -4.8916928    513.31051   0.04866425  0.048834547            3 
  880000   0.91115085   -4.9403739    513.14417  0.048593198  0.048809331            4 
  881000   0.91758055   -4.9384351    511.15745  0.048350119  0.048783717            4 
  882000   0.89174025   -4.9123041    513.06026  0.048475081  0.048758815            7 
  883000   0.90540361   -4.9218087    511.25877  0.048250167  0.048733612            7 
  884000   0.90331446   -4.9265189    513.46004  0.048403096  0.048708548            3 
  885000   0.90184758   -4.8967612     513.6381  0.048365169  0.048683214            5 
  886000   0.89898036   -4.9127436    513.99323  0.048343984   0.04865746            5 
  887000   0.89689613   -4.9090596     515.0904  0.048392559  0.048632099            2 
  888000   0.91092454   -4.9564536    515.10773  0.048339689  0.048607182            2 
  889000   0.88240823   -4.8988243    515.79088  0.048349351  0.048581938            3 
  890000   0.88661617   -4.9080288    517.52717  0.048457601  0.048556551            5 
  891000   0.90493767   -4.9312864    516.52374  0.048309366  0.048531038            4 
  892000   0.89877971   -4.9267612    517.45294  0.048342016  0.048506116            4 
  893000   0.89940773   -4.9569089     516.8867  0.048235041  0.048481158            5 
  894000   0.89047174   -4.9166071     516.0907  0.048106888  0.048455714            2 
  895000   0.90936616   -4.9376853    515.42994  0.047991614  0.048430599            4 
  896000   0.89222903   -4.9203661    517.44857  0.048125797   0.04840494            5 
  897000   0.88842324   -4.9472928    515.40065  0.047881889  0.048379449            4 
  898000   0.89532119   -4.9380091    516.02928  0.047886904  0.048353644            4 
  899000   0.92269365   -4.9413107    517.78396  0.047996289  0.048327838            5 
  900000   0.89063775   -4.9213627    517.82733  0.047946975  0.048302395            3 
  901000   0.89851432   -4.9342534    517.88412  0.047899012  0.048277243            9 
  902000   0.88311757   -4.9157584    516.93021   0.04775778  0.048251458            3 
  903000    0.8867468   -4.9416028    517.84203  0.047789039  0.048225282            7 
  904000   0.90012561   -4.9453824    517.84844  0.047736766  0.048199282           11 
  905000   0.89550353   -4.9319492    518.54312  0.047747985  0.048173535            7 
  906000   0.91013546   -4.9000787    520.43056  0.047868889  0.048147565            2 
  907000   0.90602588   -4.9711529    519.15616  0.047699022  0.048121892            8 
  908000   0.88435042   -4.9437908    520.53156   0.04777272  0.048096003            6 
  909000   0.88943631   -4.9338081    520.98592  0.047761819  0.048070367            5 
  910000   0.89771771   -4.8987597    521.74455  0.047778805  0.048044625            4 
  911000    0.8893785   -4.8907502    519.61259  0.047531338  0.048018965            5 
  912000   0.87566092   -4.9438643    520.89168  0.047596097  0.047992977            4 
  913000   0.86294301   -4.9285897    521.59542  0.047608199  0.047967111            4 
  914000   0.89061566   -4.9126247    524.31545  0.047804107  0.047941984            6 
  915000   0.89303574    -4.976625    521.14109  0.047462758  0.047916171            3 
  916000   0.89077018   -4.9255588    524.31514  0.047699703  0.047890837            6 
  917000   0.88641369   -4.9515185    523.90042  0.047609998  0.047865406            3 
  918000   0.90568334   -4.9679032    524.05773  0.047572416  0.047840034            4 
  919000   0.90217197   -4.9375007     525.1165  0.047616657  0.047815021            2 
  920000   0.89875149   -4.9387749    524.71742  0.047528752  0.047789905            6 
  921000   0.89517529   -4.9434439    523.89502  0.047402734  0.047764561            3 
  922000   0.89258841   -4.9651247    525.97303  0.047539139  0.047739807            3 
  923000   0.89737904   -4.9519376    527.43704  0.047619812  0.047715223            4 
  924000   0.87702264   -4.9625668    525.86728  0.047426703  0.047690212            3 
  925000   0.87933537   -4.9560459    527.91806  0.047560185   0.04766571            3 
  926000   0.88506181   -4.9617372    527.06017  0.047431621  0.047640807            9 
  927000   0.89588003   -4.9696677    525.99653  0.047284838  0.047615931            5 
  928000   0.88448611   -4.9818135    526.58575  0.047286795  0.047591024            4 
  929000   0.88655874   -4.9723196    526.94907  0.047268484  0.047565805            4 
  930000   0.86566052   -4.9757847    528.72209  0.047376532  0.047540555            3 
  931000   0.90015089   -4.9566571    528.66056  0.047320136  0.047515523            5 
  932000   0.89161568   -4.9553173    528.92214  0.047292752  0.047490592            5 
  933000   0.88389369   -4.9589598    528.01053   0.04716064  0.047465578            6 
  934000   0.89073127   -4.9661107    528.67355  0.047169303  0.047440455            4 
  935000    0.8795595   -4.9774316    528.14329  0.047071594   0.04741516            5 
  936000   0.87248191   -4.9692899    528.99219  0.047096883  0.047389909            3 
  937000   0.88543245   -4.9637986    529.04659  0.047051457  0.047364857            2 
  938000   0.86836661   -4.9711094    530.35998   0.04711798  0.047339904            6 
  939000   0.89036327   -4.9414016    531.88135  0.047202818  0.047315256            4 
  940000   0.87467294   -4.9706405    530.37561  0.047019114  0.047290758            5 
  941000   0.85708261   -4.9466016    532.51856  0.047158923  0.047265584            5 
  942000   0.87013814   -4.9668017    529.33633  0.046827347  0.047240455            6 
  943000   0.88006337   -4.9641948    532.52157   0.04705917  0.047215371            6 
  944000   0.87275088   -4.9649672     531.5234  0.046921204  0.047189902            6 
  945000   0.87941448    -4.977468    532.67794  0.046973364  0.047164543            4 
  946000   0.87855548   -4.9745842     531.8996  0.046855144     0.047139            4 
  947000   0.87868362   -4.9367442    533.57759  0.046953325  0.047113818            6 
  948000   0.90032286   -4.9629087    532.22778  0.046785142  0.047088579            4 
  949000   0.87586516   -4.9843673    531.92499  0.046709255  0.047063314            7 
  950000   0.86616636   -4.9270427    535.22829   0.04694985  0.047038287            5 
  951000    0.8844703   -4.9784962    533.50419  0.046749403  0.047012884           10 
  952000   0.88540118   -4.9992291    532.87579   0.04664529   0.04698737            5 
  953000   0.87046248   -5.0025123    533.89784  0.046685715  0.046962213            4 
  954000    0.8756045   -4.9622235    534.34309  0.046675671  0.046937089            4 
  955000    0.8733532   -4.9776732    535.40239  0.046719232  0.046912178            3 
  956000    0.8590067   -4.9960189     535.2217  0.046654611  0.046887625            6 
  957000   0.87422028   -5.0040388    534.81502  0.046570448  0.046862833            7 
  958000   0.88502504   -4.9933731    535.93964  0.046619663  0.046838197           11 
  959000    0.8756155   -5.0024579    538.86987  0.046825675  0.046813176            4 
  960000   0.87903091   -4.9887374    537.07981  0.046621511  0.046788356            5 
  961000   0.88801571    -4.999593    536.25041  0.046501076  0.046763899            4 
  962000   0.88009548   -4.9614214    538.53139  0.046650329   0.04673918            3 
  963000   0.86942832   -4.9845067    537.88601  0.046546038  0.046714465            4 
  964000    0.8518697   -4.9384081    537.66316  0.046478489  0.046689929            4 
  965000   0.87426888   -4.9903489    538.62994  0.046513811  0.046665528            6 
  966000   0.87308212   -5.0077891    540.67955  0.046642473  0.046640885            5 
  967000    0.8625742   -4.9764626    540.34815   0.04656568  0.046616502            8 
  968000   0.86027224   -4.9922413    538.15229  0.046328537  0.046592063            5 
  969000   0.87452069   -5.0116412    538.09065  0.046275426  0.046567338            4 
  970000   0.86696971   -4.9913261    540.61551  0.046444632  0.046543053            6 
  971000    0.8642405   -5.0136784    541.07079  0.046435873  0.046518109            4 
  972000   0.86637166   -4.9993811    538.89093  0.046201212  0.046493524            4 
  973000   0.85274885   -5.0020786    541.01761  0.046335869  0.046469014            7 
  974000   0.86295876   -4.9900368    542.99592  0.046457556  0.046444723            3 
  975000   0.86234119   -5.0066933    539.64405  0.046123423  0.046420174            3 
  976000    0.8662686   -4.9630124    541.88703  0.046267677  0.046395737            6 
  977000    0.8600064    -4.979305     542.7177  0.046291172   0.04637096            4 
  978000   0.86535197   -5.0107173    541.19695   0.04611426  0.046346542            5 
  979000   0.85846344   -4.9865724    541.81348  0.046119635  0.046322023            3 
  980000   0.86829982   -4.9832106    543.35968  0.046204055  0.046297217            6 
  981000   0.86616935   -4.9711211    543.45932  0.046165419    0.0462724            3 
  982000    0.8772621   -5.0161705    542.27208  0.046017657  0.046247347            6 
  983000   0.86537913   -5.0121603    541.87755  0.045937398  0.046222167            8 
  984000   0.85456146   -4.9572902    543.66295  0.046041916  0.046197042            4 
  985000   0.86017063   -5.0085907    542.27511  0.045877759  0.046171778            6 
  986000   0.87294329   -5.0099647    542.88432  0.045882718  0.046146183           12 
  987000   0.83715804   -5.0275661    543.01268  0.045847069  0.046121121            5 
  988000   0.86521013   -4.9736249    544.41954  0.045919327  0.046095756            7 
  989000   0.83368212   -5.0267142     542.5563    0.0457159  0.046070562            8 
  990000   0.84112959   -5.0069249    544.69378  0.045849645  0.046045472            5 
  991000   0.86451453   -5.0247103    544.77229  0.045809981  0.046020162            3 
  992000   0.86099087   -5.0088316    544.18919  0.045714818  0.045994607            9 
  993000   0.83746565   -4.9856305    544.96644  0.045734008  0.045969326            7 
  994000   0.87883643   -4.9837335    545.38302  0.045722923  0.045943957            3 
  995000   0.85288296   -5.0093224    543.15313  0.045490212  0.045918719            9 
  996000   0.86132206   -4.9923145    545.49699  0.045640645   0.04589321            5 
  997000   0.83819253   -4.9900958    546.47701  0.045676781   0.04586772            4 
  998000   0.85256942   -5.0187441    547.11828  0.045684559  0.045842147            5 
  999000   0.84336665   -5.0010147    547.86706  0.045701289  0.045816899           10 
 1000000   0.86417052   -5.0415979     544.9751  0.045414592  0.045791505            5 
 1001000   0.84740332   -5.0342024    546.94981  0.045533617  0.045766398            7 
 1002000    0.8451017    -5.022497    544.55679  0.045289154   0.04574064            4 
 1003000   0.87770304   -5.0049152    547.12434  0.045457323  0.045715018            7 
 1004000   0.85005491   -4.9993118    547.82526  0.045470224  0.045689645            6 
 1005000   0.83833751   -5.0021901    547.76576  0.045420046  0.045664195            5 
 1006000   0.84211983   -5.0036551     548.1812  0.045409311  0.045638749            9 
 1007000   0.83964416   -5.0224208    547.03996  0.045269775  0.045613245            3 
 1008000   0.85098907    -5.031205    548.08093  0.045310923  0.045587573            7 
 1009000   0.83733733   -5.0125227    549.20769  0.045359075  0.045562265            8 
 1010000   0.86200284   -5.0227005      548.224  0.045233003  0.045537269            9 
 1011000   0.84793087   -5.0001131    548.64049  0.045222593  0.045511699            4 
 1012000   0.84879373   -5.0184635    549.30955     0.045233  0.045486379           12 
 1013000   0.85024991   -5.0086176    549.23458   0.04518218  0.045461059            9 
 1014000   0.85126069   -5.0481793    548.39412   0.04506855  0.045435405            5 
 1015000    0.8495524    -5.006546    548.92249  0.045067527  0.045409539            7 
 1016000   0.83178264   -5.0315284    549.58583  0.045077578  0.045383597           14 
 1017000   0.83757782   -5.0189573    549.72271   0.04504447  0.045357977            6 
 1018000   0.85917735   -5.0311611    548.16816  0.044872967  0.045332129            4 
 1019000   0.82751834   -5.0549421    550.29965  0.045003242   0.04530632            3 
 1020000   0.85586887   -5.0382498    550.19357  0.044950455  0.045280648            2 
 1021000   0.85431804   -5.0183455    550.64456  0.044943239  0.045254453            6 
 1022000   0.85418083   -5.0046562     553.1051  0.045099894  0.045228646            2 
 1023000   0.83411987   -5.0379263    550.30952  0.044828081  0.045203254            5 
 1024000   0.86138993   -5.0058544    551.82981  0.044908025  0.045177515            3 
 1025000   0.84994795   -5.0285162    553.11996  0.044969102  0.045152039            4 
 1026000   0.82335519   -5.0159329    553.40571  0.044948482  0.045126557            3 
 1027000   0.87522939   -5.0278981    553.07185  0.044877625  0.045101334            5 
 1028000   0.86824315   -5.0481539    552.96708  0.044825477  0.045075727            3 
 1029000   0.83119257   -5.0337986    552.04469  0.044707215  0.045050297            5 
 1030000   0.84572084   -5.0151369    554.16806  0.044835603  0.045024671           11 
 1031000   0.84345892   -5.0346528    554.11079  0.044787487  0.044999051            4 
 1032000   0.85097612   -5.0224986    552.21183  0.044590749   0.04497343            8 
 1033000   0.82465773   -5.0334266    554.70179   0.04474845  0.044947823            8 
 1034000   0.84286651   -5.0354829     555.1664  0.044742617  0.044922191            5 
 1035000   0.84525617   -5.0240742    555.56178  0.044731222  0.044896742            3 
 1036000    0.8514249   -5.0256312     556.1022  0.044731515   0.04487153            2 
 1037000   0.84638848   -5.0418788    556.28135  0.044702777  0.044846311            7 
 1038000   0.83707668   -5.0395148    554.08998  0.044483781    0.0448211            4 
 1039000   0.84537279   -5.0421095    553.93287  0.044428366  0.044795513            4 
 1040000   0.83694522   -5.0725395    552.00667  0.044231304  0.044769597            4 
 1041000   0.84422437    -5.037205    554.39369  0.044379898   0.04474356            9 
 1042000   0.84948335   -5.0755289    554.87534  0.044375827  0.044717604            4 
 1043000   0.83712213   -5.0588242     555.8102  0.044407974   0.04469155            7 
 1044000   0.84551924   -5.0684004    555.09457  0.044308315  0.044665881            3 
 1045000   0.83082345   -5.0347666     555.3676  0.044287687  0.044640005            6 
 1046000   0.82055283   -5.0370397    556.04425  0.044299255  0.044614198            7 
 1047000   0.83868325   -5.0665766    557.71875  0.044390222  0.044588561            5 
 1048000   0.84639341   -5.0523791    557.25046  0.044310628  0.044563077            6 
 1049000   0.86672365   -5.0551729    557.47435  0.044286173  0.044537393            4 
 1050000   0.83844237   -5.0476455    557.29189  0.044229515  0.044511892            6 
 1051000   0.85065914   -5.0158992    558.85493  0.044311364  0.044486551            4 
 1052000   0.83510841   -5.0610734    558.01234  0.044202498  0.044461272            3 
 1053000   0.82091465   -5.0468326    559.81034  0.044302812  0.044435902           20 
 1054000   0.82220658   -5.0356709    559.94007  0.044271036  0.044410414            4 
 1055000     0.833278   -5.0511954    559.51642   0.04419561  0.044384968            6 
 1056000   0.83871059   -5.0527643    560.30376   0.04421589  0.044359684            6 
 1057000   0.79874116   -5.0422147    559.73339  0.044129091  0.044334539            6 
 1058000   0.83258184   -5.0364685    562.18071  0.044280144   0.04430966            4 
 1059000   0.82412629   -5.0444245    559.34755  0.044015388   0.04428463            7 
 1060000   0.84125943   -5.0813408      559.475  0.043983884  0.044259205            3 
 1061000    0.8525142   -5.0744673    561.09754  0.044069867  0.044233935            4 
 1062000   0.83876945   -5.0686795    561.46869  0.044057493  0.044208924            4 
 1063000   0.83139992   -5.1057573    560.27344  0.043922346  0.044184011            8 
 1064000   0.82926595   -5.0755317    562.22246  0.044033714  0.044159044            8 
 1065000   0.83841983   -5.0698899    561.61046   0.04394448  0.044133829            7 
 1066000   0.83413272   -5.0349354    563.03152  0.044014346  0.044109214            7 
 1067000   0.80886813   -5.0577206    562.91309  0.043963846  0.044084804            8 
 1068000   0.82558627   -5.0596575    562.83976   0.04391696  0.044060311            7 
 1069000   0.83027688   -5.0550355    562.88702  0.043879562  0.044035705            3 
 1070000   0.83142235   -5.0711655     564.9627  0.044000211  0.044010802            4 
 1071000   0.83526032   -5.0893112    564.44593  0.043918918  0.043986037            6 
 1072000   0.83506293   -5.0905542     562.8764  0.043755939  0.043960765            4 
 1073000   0.81870411   -5.0695906     563.7065  0.043779629  0.043935842            4 
 1074000   0.82862706   -5.0721366    563.41486  0.043716237  0.043911244            5 
 1075000   0.82398444   -5.0702798    564.30295  0.043744415  0.043886307            5 
 1076000   0.80318421   -5.0930251    562.35594  0.043552969  0.043861042            3 
 1077000   0.82063052   -5.0959237    565.62173  0.043765222  0.043836136            4 
 1078000   0.83599359   -5.0728019    566.66124  0.043804982  0.043811164            6 
 1079000   0.82179545   -5.0689718     564.3256  0.043583998  0.043785995            4 
 1080000   0.82841964   -5.0825149    565.88644  0.043664077  0.043760938           10 
 1081000   0.82852763   -5.0613273     566.1574  0.043644573  0.043736087            4 
 1082000   0.83622399   -5.0792479    565.36648  0.043543321  0.043711155            6 
 1083000   0.81946377   -5.0807646    564.89345  0.043466717  0.043685875           10 
 1084000   0.81594721   -5.0631676    565.82137  0.043497953  0.043660742            6 
 1085000   0.82879137   -5.0938603    564.82468  0.043381312  0.043635766            4 
 1086000   0.81646704    -5.093095    566.21494  0.043448046  0.043611032            7 
 1087000   0.82276195   -5.0945817       567.89  0.043536492   0.04358631            4 
 1088000   0.82934622   -5.0945258    567.20007  0.043443633  0.043561644            7 
 1089000   0.83652516    -5.084337    567.89406  0.043456845  0.043536977            8 
 1090000   0.81782988   -5.1007097    567.59664  0.043394238  0.043512494            6 
 1091000   0.81489377   -5.1158718    567.29142   0.04333115  0.043487826            7 
 1092000   0.81845003   -5.1088466    565.40025   0.04314715  0.043462961            9 
 1093000   0.80215177   -5.0970375    569.04555  0.043385602   0.04343847            5 
 1094000   0.81144245    -5.099126    567.05257  0.043194132  0.043413823            4 
 1095000   0.82451728   -5.0951223    571.58227  0.043499412  0.043389215            7 
 1096000   0.81802768   -5.1020683    569.53074  0.043303736  0.043364664            9 
 1097000   0.81413351    -5.103851    569.51603  0.043263144  0.043339967            6 
 1098000   0.80883944   -5.0923048    570.20618  0.043276122   0.04331549           10 
 1099000   0.80677833   -5.0823523    570.12168  0.043230337  0.043290823            4 
 1100000   0.80603109   -5.0883993    570.82255  0.043244132  0.043266365            6 
 1101000   0.80315476   -5.1239461    568.35018  0.043017725  0.043241807            7 
 1102000   0.82407913   -5.1218157    571.64243  0.043227649  0.043216851            3 
 1103000   0.80688591   -5.0832495    571.36636    0.0431676  0.043192466            3 
 1104000   0.82115603   -5.0960659     571.5986   0.04314603  0.043168023            7 
 1105000   0.80845406   -5.1001617    571.46798  0.043097133   0.04314358            9 
 1106000    0.8254717   -5.1114154    570.98425  0.043021719  0.043118837            5 
 1107000   0.80684601    -5.092288    572.40128  0.043089527  0.043094237            6 
 1108000    0.8130337   -5.1342628    571.07458  0.042950856  0.043069825            4 
 1109000   0.80596851   -5.1058873    572.07583  0.042987363  0.043044895           11 
 1110000   0.82139394   -5.1055565    572.72577   0.04299743  0.043020339            6 
 1111000     0.804125   -5.0969945    574.13189  0.043064198  0.042995805            4 
 1112000   0.82012889   -5.1081359    573.10031  0.042948165  0.042971318            4 
 1113000   0.83002622   -5.0925546    573.21585  0.042918228  0.042947238            3 
 1114000   0.81934249   -5.1298795    571.90875  0.042781923  0.042922572            4 
 1115000   0.81534426   -5.1128966    572.81279   0.04281112  0.042897676            7 
 1116000   0.81476945   -5.1005853    573.80996  0.042847219  0.042873071            5 
 1117000   0.83882426    -5.106188    572.90452   0.04274131  0.042848414            5 
 1118000   0.80650116   -5.1278784    573.85219  0.042773717  0.042823981           10 
 1119000   0.79400932   -5.1086502     575.0848  0.042827286  0.042799469            6 
 1120000   0.78328849   -5.1094483    574.17392  0.042721274  0.042775287            6 
 1121000   0.79245857   -5.1160724    575.79273  0.042803504   0.04275114            4 
 1122000   0.82032932   -5.1116034    578.35001  0.042955289  0.042727005            4 
 1123000   0.80133572   -5.1040394    576.22189  0.042759119  0.042703022            5 
 1124000   0.81073275   -5.1095888    576.64871  0.042752722  0.042678986            5 
 1125000   0.80047166   -5.1209267    576.82675  0.042727908  0.042655189            8 
 1126000   0.82081204     -5.10512    577.34146  0.042728054  0.042631192           11 
 1127000   0.81603525   -5.1410725    576.21191  0.042606619  0.042607144            6 
 1128000    0.8064041   -5.0999852    577.88879   0.04269273  0.042583406            5 
 1129000   0.80054466   -5.1031372    577.40839  0.042619456  0.042559816            4 
 1130000   0.78996029   -5.1085821    577.37334  0.042579155  0.042536066            5 
 1131000   0.80087661   -5.1436516    577.41264  0.042544403  0.042512033           18 
 1132000   0.80097461    -5.104753    577.36628  0.042503407  0.042487876            8 
 1133000   0.80082225   -5.1239997    577.68754  0.042489522  0.042463937            5 
 1134000   0.81940688   -5.1167366    577.78866  0.042459484  0.042439673            4 
 1135000   0.78863548   -5.0962641    578.87963  0.042502175  0.042416006            8 
 1136000   0.80165851   -5.1293226     577.9967  0.042399993  0.042392129            8 
 1137000   0.79961325   -5.1209357    579.73111  0.042489821   0.04236849            5 
 1138000   0.80957069   -5.1059623    580.14763  0.042482984  0.042345013            5 
 1139000   0.80811484   -5.1374891    579.94735  0.042431032  0.042321269            6 
 1140000   0.79116536   -5.1181541    579.68122  0.042374358  0.042297343            2 
 1141000   0.79640929   -5.1490103    578.09092  0.042221072  0.042273166            6 
 1142000    0.7857502    -5.145808     578.1222  0.042186383  0.042248996            7 
 1143000   0.80160961   -5.1324135    580.24841  0.042304492  0.042224982           10 
 1144000   0.80718137   -5.1303327    580.18931  0.042263207  0.042201127            3 
 1145000   0.79038175   -5.1360842    582.73307  0.042411432  0.042177461            6 
 1146000   0.80515602    -5.135665    579.53144  0.042141611  0.042153816            5 
 1147000   0.79211921   -5.1311249    579.35447  0.042092013  0.042129995            5 
 1148000   0.79662475   -5.1363546    582.25538  0.042265925   0.04210625            4 
 1149000   0.80167508   -5.1467485    579.40751  0.042022593  0.042082128            3 
 1150000   0.79110123   -5.1484708    580.03378  0.042031433  0.042058229            7 
 1151000   0.79765139   -5.1699905    583.17421  0.042222286  0.042034443            5 
 1152000   0.80138058   -5.1318472    581.16321  0.042040163  0.042010315            3 
 1153000   0.79532644   -5.1224933    583.82253  0.042195904  0.041986609            4 
 1154000   0.78729894   -5.1219429    582.42759  0.042058607  0.041962845            4 
 1155000    0.7950813   -5.1558625    581.10311  0.041926631  0.041938722            5 
 1156000   0.79635083   -5.1515396    581.89811  0.041947672  0.041914622            5 
 1157000    0.7911308   -5.1452691    582.67411  0.041967309  0.041890555            3 
 1158000   0.79646228   -5.1304891    583.12635  0.041963612  0.041866358            6 
 1159000   0.78298574   -5.1649181    581.19772  0.041788735  0.041842399            3 
 1160000   0.78054881   -5.1494749    581.41851  0.041768571  0.041818226           10 
 1161000   0.80680706   -5.1443784    583.01579  0.041847243  0.041794059            3 
 1162000   0.81139412   -5.1215054    584.02101  0.041883319   0.04177026            8 
 1163000   0.79045816   -5.1396936    583.27707  0.041794001   0.04174651            7 
 1164000   0.77621314   -5.1457955    584.16128  0.041821398  0.041722703            3 
 1165000    0.7802439   -5.1425443    583.21579  0.041717868  0.041698693            6 
 1166000   0.79083233   -5.1436521    583.76022  0.041720999  0.041674843            6 
 1167000   0.78570956   -5.1482965    584.43756  0.041733616  0.041650948            4 
 1168000   0.79854097   -5.1648883    584.15878  0.041677995  0.041626965            3 
 1169000   0.77910722   -5.1539857    584.13669  0.041640768  0.041602704            9 
 1170000   0.78126271   -5.1562822    582.79963  0.041509945  0.041578501            4 
 1171000   0.77357522   -5.1804389    582.85391   0.04147836  0.041554214            7 
 1172000   0.78615266   -5.1579018    584.55622  0.041564009  0.041530099           10 
 1173000   0.77397044   -5.1527721    584.43214   0.04151976  0.041505856            6 
 1174000   0.77819881   -5.1530943    583.27205  0.041402048  0.041481504            7 
 1175000   0.77924953   -5.1569519    586.34691  0.041584887  0.041457083           11 
 1176000   0.78435688   -5.1406631     585.0597  0.041458312  0.041432759            6 
 1177000    0.7984847   -5.1407866    586.93062  0.041555552  0.041408276            7 
 1178000    0.7871052   -5.1490968    583.91306  0.041306809  0.041383853            4 
 1179000   0.77291507    -5.145081    585.39777  0.041376715  0.041359225           10 
 1180000    0.7900351   -5.1574029     583.3187  0.041194823  0.041334453            4 
 1181000   0.77197288   -5.1617696    584.18683  0.041221199  0.041309772            7 
 1182000     0.773226   -5.1333735    585.18109  0.041256422  0.041284975            4 
 1183000   0.78403468   -5.1841988     583.8165  0.041125422  0.041260425            6 
 1184000   0.79590193   -5.1788209     585.0672  0.041178716  0.041235683            3 
 1185000   0.78235583   -5.1598492     587.1829  0.041292749  0.041211075           10 
 1186000   0.79767515   -5.1570481    585.99573  0.041174518   0.04118681            8 
 1187000   0.78556205   -5.1745722     585.3724  0.041096068  0.041162473            3 
 1188000   0.79399268    -5.173406     585.7302  0.041086574  0.041138121            9 
 1189000    0.7647019   -5.1762757    587.17794  0.041153486  0.041113601            6 
 1190000   0.76845131   -5.1851499    585.28782  0.040986542  0.041088942            7 
 1191000   0.78969809   -5.1783642    585.47043  0.040964906  0.041064559            5 
 1192000   0.79535787   -5.1811124      588.494  0.041141918  0.041040295            4 
 1193000   0.79199919   -5.1452107    587.60847  0.041045576   0.04101615            4 
 1194000   0.77397309   -5.1561148    588.69452  0.041086999  0.040992045            6 
 1195000   0.76742038   -5.1922282    587.58973  0.040975574  0.040967966            6 
 1196000   0.76786157   -5.1766752     588.8018  0.041025766  0.040943872            5 
 1197000   0.77771688   -5.1885536    586.30126  0.040817409  0.040919729           11 
 1198000   0.77016473   -5.1933923    587.89668  0.040894315  0.040895494            9 
 1199000   0.77733959   -5.1572878    590.94842  0.041072312  0.040871217            8 
 1200000   0.75022012   -5.1782974    588.89792  0.040895689  0.040847109            9 
 1201000   0.77619929   -5.1919405    589.37881  0.040895005  0.040823033            6 
 1202000   0.76494296   -5.1888368    588.12491  0.040774051  0.040798732            7 
 1203000   0.77929128   -5.1586849     589.7045  0.040849578  0.040774476            5 
 1204000   0.76892438   -5.1614252     588.8393  0.040755766  0.040750305            6 
 1205000   0.77569802   -5.1679304    587.98249  0.040662689  0.040726304            5 
 1206000   0.76940894   -5.1973977    589.68723  0.040746769  0.040702144            6 
 1207000   0.77059492   -5.1916168     589.1707  0.040677347  0.040677988            8 
 1208000   0.76870131   -5.1976379     590.4415   0.04073134  0.040653645            6 
 1209000   0.76401561   -5.1817492    590.76075  0.040719655  0.040629391            7 
 1210000   0.78145251   -5.1945849    588.73101  0.040546213  0.040605083            5 
 1211000   0.76025842   -5.1601538    590.31746  0.040621901  0.040580909            5 
 1212000   0.77086624    -5.175969    590.48428  0.040599854  0.040556448            3 
 1213000   0.75642768   -5.2151313    587.93425  0.040391196  0.040531945            6 
 1214000   0.77657352   -5.1919002    589.91034   0.04049357  0.040507341            6 
 1215000   0.74679185   -5.1651956    591.21284  0.040549578  0.040482831            4 
 1216000   0.76383896   -5.1937888    589.56112  0.040403037  0.040458236           12 
 1217000   0.75928259   -5.2065462    589.32099  0.040353396  0.040433861            4 
 1218000   0.74554819   -5.1961431    590.76978  0.040419388  0.040409672            6 
 1219000   0.78095017    -5.209266    589.98298  0.040332443  0.040385455           13 
 1220000   0.76430164   -5.1974031    590.33977  0.040323755  0.040361114            7 
 1221000   0.76489647   -5.1776306    591.79807  0.040390259  0.040336916            8 
 1222000   0.76387944   -5.2119126    590.56732  0.040273276  0.040312492            6 
 1223000   0.75229106   -5.1813914    590.82455  0.040257874  0.040288033            7 
 1224000   0.77113105    -5.168302    592.32679   0.04032726  0.040263778            4 
 1225000   0.76844648   -5.2047127    590.66103  0.040181022  0.040239596            9 
 1226000   0.76018504   -5.2062519    592.86738  0.040298218  0.040215403           21 
 1227000   0.77537952   -5.1785881     592.2438  0.040223024  0.040191121            8 
 1228000   0.77592081   -5.2130364    591.94223  0.040169804   0.04016663            7 
 1229000   0.77005743   -5.2216852    589.44061  0.039967494  0.040141913            7 
 1230000   0.74629703   -5.1697756     592.6149  0.040150061  0.040117478           10 
 1231000   0.77311359   -5.1973068    592.54328  0.040112597  0.040092826            5 
 1232000   0.74869535   -5.2261044    589.96857  0.039905883  0.040068156            8 
 1233000   0.77318857   -5.2153721    592.46502  0.040042243   0.04004339            3 
 1234000   0.75171555   -5.2056717    591.69852  0.039958031  0.040018767            4 
 1235000   0.75116861   -5.2371716    589.62719   0.03978591  0.039994041           10 
 1236000   0.74899421   -5.2321326    590.34176  0.039801899  0.039969332           15 
 1237000    0.7427409   -5.2274106    592.29219  0.039901118   0.03994449            2 
 1238000   0.77625661   -5.1833417    591.93559  0.039844884   0.03992006            5 
 1239000   0.74724112   -5.2085647    592.73646   0.03986659  0.039895513            6 
 1240000   0.76077655    -5.222038    593.68564  0.039898228  0.039870947            6 
 1241000   0.77717658   -5.2095213    593.57681   0.03985877  0.039846407            3 
 1242000   0.75522288   -5.2158248    594.21229  0.039869316  0.039821838            3 
 1243000   0.74982758   -5.2210922    591.95291  0.039685768   0.03979732           16 
 1244000   0.76534688   -5.2051318    592.66079  0.039701286  0.039772875            7 
 1245000   0.77394318   -5.2524561    591.10766  0.039565439  0.039748149            5 
 1246000    0.7613616   -5.2300539     593.0683  0.039664814  0.039723271            4 
 1247000   0.75218415   -5.2409261    592.85342  0.039618646  0.039698478            4 
 1248000   0.74841545   -5.2236535    592.31099   0.03955068  0.039673774            8 
 1249000   0.75215025   -5.2174292    592.65515  0.039541977  0.039649016           13 
 1250000   0.74997343     -5.24255    593.15823  0.039543882  0.039624288            6 
 1251000   0.75146036   -5.2374218    593.11038  0.039509084  0.039599608           10 
 1252000     0.733094   -5.2110593    594.10639  0.039543823  0.039574872            8 
 1253000   0.75572551   -5.2204547     596.0132  0.039639079  0.039550276            5 
 1254000   0.75075016   -5.2372292    593.74743    0.0394569  0.039525809            6 
 1255000   0.73492553   -5.1906229    596.04736  0.039578178  0.039501172            2 
 1256000   0.74508716   -5.2398015    594.17582  0.039422493  0.039476512            7 
 1257000   0.74347324   -5.2368236      593.247  0.039329554  0.039451919            8 
 1258000   0.73473614   -5.2194527    594.63612   0.03939031  0.039427561            5 
 1259000   0.75679604   -5.2408288    593.69177  0.039296516  0.039403031            8 
 1260000   0.75798567   -5.2370017    596.07459  0.039422923   0.03937845           18 
 1261000   0.77089713   -5.2215587    595.70759  0.039367406  0.039354004            6 
 1262000    0.7397051    -5.224877    595.94377  0.039351807  0.039329637            5 
 1263000   0.75813957   -5.2203359    595.41427  0.039285713  0.039305519            5 
 1264000   0.73086803   -5.2540495    596.41716  0.039320752   0.03928125            5 
 1265000   0.74820156   -5.2410797    594.77065  0.039181202  0.039256863            9 
 1266000   0.75086564   -5.2087235    595.62355  0.039206395  0.039232543            5 
 1267000   0.76300904   -5.2251511    597.35096  0.039289066  0.039208233            5 
 1268000   0.76013546   -5.2253292     596.8305  0.039223876  0.039184047           12 
 1269000   0.73932178   -5.1857872    596.67791  0.039182947  0.039159541           13 
 1270000   0.73784054   -5.2360985    594.07575  0.038981348  0.039134944            6 
 1271000   0.74004529    -5.261015    595.81111  0.039064458  0.039110137           10 
 1272000   0.74230276   -5.2406946    594.81621  0.038968568  0.039085558            6 
 1273000   0.73894228   -5.2520941    596.15961  0.039025898  0.039060837           11 
 1274000   0.73060066   -5.2618032    596.34932  0.039007674  0.039036195            5 
 1275000   0.74594188   -5.2160248    597.02643  0.039021335  0.039011801            4 
 1276000   0.73685807   -5.2295769    597.41845  0.039016357  0.038987485            7 
 1277000   0.73599414   -5.2418048    596.89891    0.0389519  0.038963014           12 
 1278000   0.75407111   -5.2293723    596.46458    0.0388931  0.038938475            6 
 1279000   0.73108891   -5.2633343    596.80378  0.038884792  0.038914076            9 
 1280000   0.74646097   -5.2394843    598.37291   0.03895657  0.038889493            5 
 1281000   0.73992607   -5.2658414    596.55579  0.038807949  0.038864951            9 
 1282000    0.7538218   -5.2462339    594.57787  0.038649108  0.038840428            8 
 1283000   0.75305695   -5.2655314    596.62305  0.038751822  0.038815831            6 
 1284000    0.7550492   -5.2501561     597.7511  0.038794854  0.038791254            7 
 1285000   0.72815431   -5.2383782    597.23209  0.038731004  0.038766551           15 
 1286000   0.74911519   -5.2672115    596.38649  0.038646092    0.0387419            8 
 1287000   0.73374411   -5.2622407    596.66722  0.038634241  0.038717302            6 
 1288000   0.74629443   -5.2552699    596.27521  0.038578882  0.038692571            4 
 1289000   0.74830501   -5.2432386    595.59713  0.038505115  0.038667946            7 
 1290000   0.74041416   -5.2622915    597.48915   0.03859749    0.0386434            5 
 1291000   0.71525027   -5.2887297    597.51267  0.038569111  0.038618722            7 
 1292000   0.74615953   -5.2671897    598.21922  0.038584831  0.038594051            9 
 1293000   0.74679095   -5.2649756     596.5761  0.038449091   0.03856946            9 
 1294000   0.72905077   -5.2554036    597.99476  0.038510739  0.038544794            9 
 1295000   0.72524313   -5.2609848    597.78701  0.038467633  0.038520478            9 
 1296000   0.74751904   -5.2897858    597.00551    0.0383877  0.038495953           22 
 1297000   0.73649077   -5.2482661    598.32749  0.038443041  0.038471288           10 
 1298000   0.72149158   -5.2459243    600.10165  0.038527327  0.038446792            8 
 1299000   0.75548951    -5.255138    599.56377  0.038463162  0.038422479            3 
 1300000   0.73281761   -5.2828961    598.86497   0.03838878  0.038398141            7 
 1301000   0.72429397   -5.2343127    601.02163  0.038497414   0.03837379           11 
 1302000    0.7406587    -5.256276    600.60735  0.038441331  0.038349522           14 
 1303000   0.74502697   -5.2589791    599.75764  0.038357485  0.038325003            7 
 1304000   0.75255676   -5.2651439    600.08334  0.038348884  0.038300683            5 
 1305000   0.72074617   -5.2631426    600.00925  0.038314767  0.038276651            7 
 1306000   0.74566761   -5.2735303     599.9685  0.038282829   0.03825257           12 
 1307000   0.73919986   -5.2620597    602.28377  0.038401159  0.038228515            5 
 1308000   0.72913612   -5.2998917    600.03294  0.038228398  0.038204201            7 
 1309000   0.74435256   -5.2628038     601.7349  0.038307544   0.03817999            3 
 1310000   0.73462621   -5.2737271    602.07319  0.038299821   0.03815589            5 
 1311000   0.72810846   -5.2976512    601.86163  0.038257159   0.03813176           10 
 1312000   0.72586647   -5.3031383    600.17415  0.038120817  0.038107473           10 
 1313000   0.71472301   -5.2715576    601.55277  0.038179282  0.038083349            7 
 1314000   0.74385006   -5.2679151    602.06227  0.038182539   0.03805929           10 
 1315000   0.71799362   -5.2786804    602.17064   0.03816037  0.038035415            8 
 1316000   0.72830928   -5.2715605    600.90318  0.038051113  0.038011393           12 
 1317000     0.741295   -5.2718098    602.78994  0.038141606  0.037987442           20 
 1318000   0.73173032   -5.3111481    600.97829  0.037998122  0.037963508           13 
 1319000   0.72037601   -5.2975573    601.48773  0.038001499  0.037939467            7 
 1320000    0.7373299   -5.2750615    602.73241  0.038051288  0.037915565            7 
 1321000   0.72569531   -5.2878112    601.19837  0.037925711  0.037891813           13 
 1322000   0.72876982   -5.2868048    603.23867  0.038025635  0.037868047           12 
 1323000   0.71746227   -5.2872019    602.88591  0.037974673   0.03784441            9 
 1324000   0.71679657   -5.2865355    602.92144  0.037948228   0.03782067           12 
 1325000   0.71436524   -5.2799577    602.86086  0.037915777   0.03779683            5 
 1326000    0.7080679   -5.2754349    605.06723  0.038025844  0.037773085            7 
 1327000   0.71420499   -5.2813084    604.32541  0.037950603  0.037749398            8 
 1328000   0.73207627   -5.2640805    605.93345  0.038022933  0.037725698            5 
 1329000   0.71157887    -5.302711    602.35328  0.037769832  0.037701952            5 
 1330000   0.73115067   -5.2977213    603.47053  0.037811437  0.037678201            7 
 1331000   0.72404063    -5.268084    605.58818  0.037915613  0.037654409            4 
 1332000   0.72553872   -5.2604854    603.66907  0.037767084  0.037630694            9 
 1333000   0.71494066   -5.2900122    604.00211  0.037759572  0.037606774            3 
 1334000   0.71761557   -5.2684291    603.70271  0.037712563  0.037582833            9 
 1335000   0.72240382   -5.2945545    605.98832  0.037826987   0.03755891            6 
 1336000    0.7331968    -5.291682    603.34284   0.03763366  0.037534993           12 
 1337000   0.74027881   -5.2859518    603.45769  0.037612671  0.037511109            5 
 1338000   0.72442371   -5.2923788    604.87159   0.03767262  0.037487332            5 
 1339000   0.71223342   -5.2771522    605.38218  0.037676262  0.037463592           11 
 1340000   0.70762065   -5.3087017    602.69886  0.037481272  0.037439736            5 
 1341000   0.73399427   -5.2849337    605.98154  0.037657316  0.037416022           10 
 1342000   0.72949155   -5.2991199    604.49333  0.037536844  0.037392329            6 
 1343000   0.72354184   -5.3281317    604.65304  0.037518804   0.03736846            9 
 1344000   0.72670891   -5.2906251    605.35759  0.037534573  0.037344509            3 
 1345000   0.72500219   -5.2964219     606.0524  0.037549715  0.037320687            7 
 1346000   0.71862003   -5.2847379    606.24398  0.037533679   0.03729688            6 
 1347000   0.71231014   -5.2872556    604.97757  0.037427466  0.037273148            9 
 1348000   0.71033534   -5.2998255     604.6546  0.037379736   0.03724933           11 
 1349000    0.6949534   -5.2873319    602.61842  0.037226243  0.037225282            6 
 1350000   0.71614698   -5.3039184     604.2834  0.037301444  0.037201428            6 
 1351000   0.71597372   -5.3186717    604.62196  0.037294718  0.037177561            9 
 1352000   0.70073943   -5.2936744    603.76182  0.037214116  0.037153437            9 
 1353000   0.72613407   -5.3157262    605.20937  0.037275768  0.037129418           12 
 1354000   0.70767232   -5.2838085    606.38437  0.037320555  0.037105638            9 
 1355000   0.70846512   -5.3043423    606.65267  0.037309512  0.037081948           10 
 1356000   0.72270063   -5.2964965    606.52014  0.037273853  0.037058237            7 
 1357000   0.71144066   -5.3139867    606.82451  0.037265077  0.037034458           12 
 1358000   0.72134421   -5.2960796    606.90502  0.037242576  0.037011007           25 
 1359000    0.6914484   -5.3192648    605.31795  0.037117853  0.036987453           11 
 1360000   0.72762886   -5.3439566    604.90615  0.037065328  0.036963581            9 
 1361000   0.70146529   -5.3069339    605.97783  0.037103712  0.036939835           12 
 1362000   0.70013757   -5.3210134    605.27576  0.037033514   0.03691611            8 
 1363000    0.7138133   -5.2969006    609.03337  0.037236082  0.036892563            8 
 1364000   0.72125245   -5.3065022    607.21989  0.037097989  0.036869106           10 
 1365000   0.71435774     -5.29637    605.16293  0.036945234    0.0368455            8 
 1366000   0.69793579   -5.3172413    607.13021  0.037038202  0.036821879           12 
 1367000   0.71724129   -5.3551967    606.24354  0.036957055  0.036798126           15 
 1368000   0.70638547   -5.3206818    606.40858  0.036940094  0.036774326            3 
 1369000   0.71267747   -5.3120626    607.84102  0.037000306  0.036750778            8 
 1370000   0.69294666   -5.3291675    606.77449  0.036908424  0.036727282            9 
 1371000   0.71161317   -5.3287688    607.11612  0.036902268  0.036703666           11 
 1372000   0.70535385    -5.361763    605.67002  0.036787538  0.036680028           12 
 1373000   0.70817696   -5.3434491     607.3503  0.036862728  0.036656339           10 
 1374000   0.71291148   -5.3542751    607.78126  0.036862036  0.036632767            6 
 1375000   0.71163405   -5.3224269    607.87369   0.03684083  0.036609328            3 
 1376000   0.71316504   -5.3304765    607.49485  0.036791112    0.0365859            9 
 1377000   0.70567133   -5.3183071      609.636  0.036893972  0.036562486            5 
 1378000   0.70632284   -5.3402726    606.31326  0.036666259  0.036539053            7 
 1379000   0.70053388   -5.3393503    608.45531  0.036769115  0.036515698           12 
 1380000     0.707582   -5.3170646    609.04844  0.036778288  0.036492189            6 
 1381000   0.70722816   -5.3280452    609.04489  0.036751442  0.036468803            7 
 1382000   0.71147925   -5.3288857    609.06784  0.036726232   0.03644531            8 
 1383000   0.69808495   -5.3145997    606.60691  0.036551392  0.036421961            5 
 1384000   0.69630091   -5.3256638    607.55901   0.03658231  0.036398666            6 
 1385000   0.67316849   -5.3451787    607.21985  0.036535491  0.036375213            9 
 1386000   0.70469201    -5.324045    609.08328  0.036621169  0.036351613           13 
 1387000   0.70539938   -5.3435304    607.42539  0.036495157  0.036327965           12 
 1388000   0.69017158   -5.3496928    605.32889  0.036342993  0.036304233           17 
 1389000   0.70719036   -5.3408645    607.63054  0.036454916  0.036280681            9 
 1390000   0.69759079   -5.3519433    608.36453  0.036472694  0.036257074           17 
 1391000   0.71331646   -5.3252196    608.61657  0.036461572  0.036233457           26 
 1392000   0.69796084    -5.354006    608.15834  0.036407947  0.036209835           16 
 1393000   0.70572194    -5.336407    608.47958  0.036401028  0.036186237           23 
 1394000   0.68044106   -5.3469432    607.81561  0.036335223  0.036162748            7 
 1395000    0.7018379   -5.3770926    607.45316  0.036287525  0.036139164           17 
 1396000   0.69227482   -5.3564145    607.99206    0.0362937  0.036115633           10 
 1397000   0.69390538   -5.3645565    610.31978  0.036406573  0.036092139            9 
 1398000   0.68536522   -5.3532129    608.97622  0.036300442  0.036068496           13 
 1399000   0.69603404    -5.322101    609.07384   0.03628031   0.03604515           12 
 1400000   0.70286858   -5.3547186    607.75274  0.036175759  0.036021621            6 
 1401000   0.69045098   -5.3495033    607.30424   0.03612326   0.03599809            8 
 1402000   0.68395588   -5.3535501    608.14831  0.036147665  0.035974439           10 
 1403000   0.68445096   -5.3438052    608.70013  0.036154677   0.03595096            6 
 1404000   0.70998076   -5.3739937    607.64342  0.036066205  0.035927359           25 
 1405000   0.68273797   -5.3563874    609.05624  0.036124332  0.035903685            8 
 1406000   0.69374343   -5.3487044    609.42556  0.036120529  0.035880078           22 
 1407000   0.68871307   -5.3557085    609.61968  0.036106354  0.035856443           35 
 1408000   0.70664929   -5.3342627     609.9576   0.03610071  0.035833072           12 
 1409000   0.69708418   -5.3755435    609.84298   0.03606831  0.035809661           13 
 1410000   0.68842987   -5.3823402    607.74076  0.035918485  0.035786271           11 
 1411000   0.69636516   -5.3701147    609.72042  0.036009947  0.035762916            7 
 1412000    0.7004634   -5.3499435    610.48384    0.0360295  0.035739519            8 
 1413000   0.68891774    -5.355046     610.7864  0.036021845  0.035716098           10 
 1414000   0.67835573   -5.3971574    608.27683  0.035848469  0.035692612            7 
 1415000   0.69548746   -5.3588903    608.10635  0.035813095  0.035669143            8 
 1416000   0.68834566   -5.3513972    610.49404  0.035928322  0.035645788           15 
 1417000   0.66701178   -5.3470357    609.03705  0.035817281  0.035622336            7 
 1418000   0.69341772   -5.3475609    610.93246  0.035903412  0.035598843           12 
 1419000   0.68545484   -5.3825511    611.58887  0.035916659  0.035575553            5 
 1420000   0.68149786   -5.3508805    613.06187  0.035977809  0.035552367           14 
 1421000   0.69544457   -5.3627539    610.81008  0.035820436   0.03552916            9 
 1422000   0.68202949   -5.3484326    611.86266  0.035856931   0.03550599            6 
 1423000   0.67514231   -5.3424786    613.22065  0.035911259  0.035482943            7 
 1424000   0.67702979    -5.361723    612.40363  0.035838228  0.035459953            7 
 1425000   0.68577368   -5.3815038    612.33617  0.035809133  0.035437037            8 
 1426000   0.69566686   -5.3811585    611.82319  0.035754043  0.035414044           18 
 1427000   0.67952486   -5.4001286    612.17513   0.03574954  0.035391257            7 
 1428000   0.66978111   -5.3870399    612.20118  0.035726026  0.035368463            8 
 1429000   0.68139674   -5.3760936    613.02934   0.03574932  0.035345755           22 
 1430000   0.68691399   -5.3600585    612.71527  0.035706018  0.035323057           18 
 1431000   0.67834941   -5.3741634    612.63739  0.035676531  0.035300219           15 
 1432000    0.6787819   -5.3954555    611.96528  0.035612505  0.035277193           12 
 1433000   0.69674701   -5.3930279    613.15146  0.035656633  0.035254257           12 
 1434000   0.67419244   -5.4043037     613.0832  0.035627801   0.03523123            9 
 1435000   0.68295209   -5.3798554    612.22966  0.035553407  0.035208141            7 
 1436000   0.69028228   -5.3879342    613.32837  0.035592408   0.03518508           12 
 1437000   0.68447424   -5.4032054    612.10985  0.035496976  0.035162088            7 
 1438000   0.66830462   -5.3693559    609.94373  0.035346762  0.035138945           10 
 1439000   0.69668257   -5.3742559    611.78123  0.035428609  0.035116033            7 
 1440000   0.68983103    -5.412966    610.98778  0.035358089  0.035093023            8 
 1441000   0.66679069   -5.3807982    613.42172  0.035474307  0.035070003            7 
 1442000   0.68734381   -5.4176067    613.33096  0.035444461   0.03504705            8 
 1443000   0.67593535   -5.3928658      612.514  0.035372719  0.035024077            5 
 1444000   0.67797076   -5.4169837    610.71598  0.035244459  0.035001143            6 
 1445000   0.65092535   -5.3925105    611.56003  0.035268744  0.034978217            6 
 1446000   0.68393201   -5.3850099    612.64701  0.035306997  0.034955399           13 
 1447000   0.67833945   -5.3880377    615.46242  0.035444737  0.034932611           14 
 1448000   0.66925666   -5.3879254    613.02544  0.035280009  0.034909837           21 
 1449000   0.66347225   -5.3916917    613.45469  0.035280348  0.034887023           13 
 1450000   0.66106056    -5.410016    614.61534  0.035322721  0.034864272           17 
 1451000    0.6886403   -5.4122442    613.37275  0.035227013  0.034841515           10 
 1452000   0.67703546   -5.4218621    611.84336  0.035114977   0.03481875           17 
 1453000   0.67136984   -5.3910444    613.54635  0.035188481  0.034796001            9 
 1454000   0.65767328   -5.3847766    614.24965  0.035204588   0.03477337            5 
 1455000   0.67689798   -5.3838417    614.69322  0.035205798  0.034750796            7 
 1456000   0.67019754   -5.4147136    612.51873  0.035057162  0.034728127            9 
 1457000   0.66581413   -5.4011776    615.25766  0.035189754  0.034705374           14 
 1458000   0.66479441   -5.4052693    614.44968  0.035119437  0.034682696            4 
 1459000   0.66879625    -5.418544    613.33229  0.035031545  0.034660107           22 
 1460000   0.65503103   -5.4136488    615.53807  0.035133451  0.034637517           12 
 1461000   0.67314523   -5.3982564    613.57957  0.034997694  0.034614834            6 
 1462000   0.67049877    -5.398744    613.54669  0.034971881   0.03459217            9 
 1463000   0.66873748   -5.4006418    615.61094  0.035065558  0.034569403            8 
 1464000   0.68383328   -5.4117668    611.99076  0.034835539  0.034546616            6 
 1465000   0.66466777   -5.4243075    614.65222  0.034963153  0.034523758           10 
 1466000   0.67043043   -5.4403646     614.0264  0.034903729   0.03450094           17 
 1467000   0.66571915   -5.4193582    614.27231  0.034893905  0.034478338            8 
 1468000   0.67200242   -5.4405452    612.86381   0.03479018   0.03445568            7 
 1469000   0.67061113     -5.41946    613.18895  0.034784942  0.034433029           11 
 1470000   0.67501099   -5.4252429    614.65039  0.034844126  0.034410546            7 
 1471000   0.67386319   -5.4082134    614.77256   0.03482736  0.034388081           10 
 1472000   0.67574251   -5.3907666    616.81001  0.034919045  0.034365582            5 
 1473000   0.67754117    -5.401754    616.38535  0.034871314  0.034343265            6 
 1474000   0.65756356   -5.4272721    614.56874  0.034744954  0.034320869            9 
 1475000   0.65766116   -5.4150647    616.41906  0.034825935  0.034298532            8 
 1476000   0.65354626   -5.4121224    616.14111  0.034786648  0.034276351            7 
 1477000   0.65598489   -5.4099244    615.83849  0.034746022   0.03425398           15 
 1478000   0.65150958   -5.4360184    614.46398  0.034645015  0.034231541           10 
 1479000   0.65021567   -5.4061775    617.99556  0.034820575  0.034209042            6 
 1480000   0.67584919   -5.4119613    615.71421  0.034668593   0.03418675            6 
 1481000   0.65048665   -5.4361217    614.25963  0.034563337  0.034164289           16 
 1482000   0.66642399   -5.4334155    613.83167  0.034515951  0.034141681           19 
 1483000   0.66153411   -5.4402778     615.0839  0.034563042  0.034119186            7 
 1484000   0.66294607   -5.4207425    617.00333  0.034647536  0.034096787            3 
 1485000   0.64918704   -5.4080882    614.38005  0.034476995  0.034074304            6 
 1486000   0.65425984   -5.4371296    613.53247  0.034406262  0.034051901            7 
 1487000   0.66145315   -5.4240243    615.56144   0.03449683    0.0340294            7 
 1488000   0.65917046   -5.4573986    615.27464  0.034457585  0.034006951            5 
 1489000   0.65744858   -5.4129918    616.88719  0.034524692  0.033984665           11 
 1490000   0.66995486   -5.4245072    614.26684  0.034354969  0.033962339           28 
 1491000   0.65337381   -5.4261999    616.99051  0.034484155  0.033940079            7 
 1492000   0.65722951   -5.4462988    616.06479  0.034409338  0.033917711           15 
 1493000   0.65199986   -5.4477332    615.16655  0.034336155   0.03389533            9 
 1494000   0.67304382   -5.4360005    617.24713  0.034429224  0.033873044            9 
 1495000   0.65558289   -5.4457495    617.13499  0.034399944  0.033850815           10 
 1496000   0.66026205   -5.4522108    616.59952  0.034347121  0.033828583           24 
 1497000   0.64849307   -5.4476881    615.00353  0.034235333  0.033806241            9 
 1498000    0.6529303   -5.4317934    615.95724  0.034265534  0.033783862           12 
 1499000   0.66026191   -5.4554461    616.14467  0.034253095   0.03376154           12 
 1500000   0.66464531   -5.4338084    614.60655  0.034144808  0.033739274           16 
 1501000   0.64797839    -5.440945    617.01202  0.034255608   0.03371704            8 
 1502000   0.64981101   -5.4515819    616.95974  0.034229901  0.033694703            6 
 1503000   0.64513374   -5.4417511    616.40728  0.034176496  0.033672532            8 
 1504000    0.6626165   -5.4592988     616.3708  0.034151751  0.033650339           17 
 1505000   0.63793118   -5.4281789    618.96344  0.034272615  0.033628113           15 
 1506000   0.64191494   -5.4234354      617.831  0.034187196   0.03360605           14 
 1507000   0.66324469   -5.4632373     616.1168  0.034069719  0.033583952            6 
 1508000   0.64796272   -5.4598495    617.46089  0.034121402    0.0335618           26 
 1509000   0.65326224   -5.4457186    617.75766  0.034115179  0.033539629           13 
 1510000   0.64602703   -5.4570243    615.91542  0.033990917   0.03351743           14 
 1511000   0.64697623   -5.4365843      617.869  0.034076163  0.033495327           16 
 1512000   0.65338931   -5.4535242    616.20455  0.033961891  0.033473193           14 
 1513000   0.65456182   -5.4697714    616.19024  0.033938656  0.033451057           18 
 1514000   0.64657851   -5.4659308    616.41906  0.033928834  0.033428777           53 
 1515000   0.64653356    -5.492248    615.94619  0.033880428  0.033406603            5 
 1516000   0.64227047   -5.4525058    616.62362  0.033895318  0.033384445            9 
 1517000    0.6396503   -5.4586409    616.26679  0.033853372  0.033362277           10 
 1518000   0.64062185   -5.4596519    617.70783  0.033910179  0.033340207           11 
 1519000   0.63790487   -5.4854443    617.81686  0.033893837  0.033318172           11 
 1520000   0.62348799   -5.4727442    616.51866  0.033800365  0.033296144            7 
 1521000   0.65063026   -5.4434985    617.47543  0.033830562  0.033274226            9 
 1522000   0.64604019   -5.4702359    616.84237  0.033773673  0.033252289            9 
 1523000   0.63704233   -5.4517457    618.81134  0.033859233  0.033230464            5 
 1524000   0.63948558   -5.4751671    616.62996  0.033717736  0.033208469            7 
 1525000   0.65390442   -5.4704734    617.63098  0.033750327  0.033186512           36 
 1526000   0.64525909   -5.4632839    617.86823  0.033741166  0.033164635           24 
 1527000   0.64253248   -5.4598401    618.50167  0.033753638  0.033142818            8 
 1528000   0.64304496   -5.4503965    619.57452  0.033790059  0.033121064            8 
 1529000   0.63259429   -5.4847011    618.32163  0.033699675  0.033099214           22 
 1530000   0.64892109   -5.4729917    617.62127  0.033639503  0.033077278            7 
 1531000   0.64327752   -5.4493813    619.00357   0.03369277  0.033055366           14 
 1532000   0.63022151   -5.4569138    618.06943  0.033619965  0.033033482           10 
 1533000   0.63597176   -5.4750803    618.61887  0.033627901  0.033011725           17 
 1534000   0.64620047   -5.4729413    619.63421  0.033661137  0.032989945           22 
 1535000   0.64366502   -5.4757108    619.41548  0.033627333  0.032968255           18 
 1536000   0.63813182   -5.4932269    617.13288  0.033481602  0.032946318           10 
 1537000    0.6443631   -5.4929322    618.04487  0.033509264  0.032924476           12 
 1538000   0.63678929   -5.4569439    618.70166  0.033523063  0.032902734           25 
 1539000   0.64117456    -5.482148    618.68198  0.033500215  0.032880996           12 
 1540000   0.63888529   -5.4917585    618.05355  0.033444456  0.032859155            8 
 1541000    0.6519483    -5.494322    619.25125  0.033487522  0.032837337           11 
 1542000   0.63154908   -5.4665682     618.5007  0.033425243  0.032815573           23 
 1543000   0.63120729    -5.457152    620.57802  0.033515771  0.032793894            9 
 1544000   0.62870767   -5.4611508    617.76154  0.033342052  0.032772317           12 
 1545000   0.62521014   -5.5005969     618.6134  0.033366419  0.032750663           30 
 1546000    0.6278435   -5.4814919    618.50814  0.033339162  0.032728977           60 
 1547000   0.63496715   -5.5106597    618.37034  0.033310188   0.03270722           22 
 1548000   0.64744973   -5.4822137    619.31913  0.033339746  0.032685714            7 
 1549000   0.63850723   -5.4854272    621.16617   0.03341759  0.032664234           17 
 1550000   0.64186654   -5.4738449     621.4205  0.033409704  0.032642734            8 
 1551000   0.64828895   -5.4815797    618.66131  0.033239915  0.032621219           12 
 1552000   0.62211292   -5.4931568    620.63431  0.033324437  0.032599631           12 
 1553000   0.63864242    -5.497438    618.79565  0.033204317  0.032578097           14 
 1554000   0.63299054    -5.489221    618.66212  0.033175789   0.03255654            9 
 1555000   0.64247804   -5.4839073    618.43179  0.033142111  0.032535046            9 
 1556000    0.6287657   -5.4955618    621.81536  0.033302022  0.032513477            9 
 1557000    0.6269957   -5.4873212    619.83149  0.033174454  0.032491888            8 
 1558000   0.63181197    -5.482723    620.27611  0.033176942  0.032470372           33 
 1559000   0.63020286   -5.4973548     621.3519  0.033213166  0.032448953           17 
 1560000   0.62828089   -5.4916432    621.27735  0.033187892  0.032427505            5 
 1561000   0.64134856   -5.4770693    620.24939  0.033111755  0.032406205           10 
 1562000   0.63565132   -5.4943537    620.26413  0.033091343  0.032384867           11 
 1563000   0.64538808   -5.4919733    621.62894  0.033142938  0.032363496            5 
 1564000   0.63663641   -5.5023065    620.31047  0.033051496  0.032342119           14 
 1565000    0.6310183   -5.5056173    619.90864   0.03300898  0.032320757           10 
 1566000   0.62128958    -5.501309    623.55219   0.03318179  0.032299472           10 
 1567000   0.62392824   -5.4939821    620.49223  0.032997885  0.032278251            7 
 1568000   0.62890321   -5.4856144    620.17246  0.032959846  0.032256963            9 
 1569000   0.62913324   -5.4879873    621.34024  0.033000862  0.032235762            9 
 1570000   0.63798443   -5.5055785    620.43764  0.032931934  0.032214463           19 
 1571000   0.63261146   -5.4747511    621.37054  0.032960457  0.032193167           17 
 1572000   0.63390573   -5.5032037    621.24678   0.03293293  0.032171928            6 
 1573000   0.63683058   -5.5016421    621.22331  0.032910749  0.032150771           20 
 1574000   0.61722823   -5.4853713    623.04703  0.032986395  0.032129525           15 
 1575000   0.61091807   -5.5220558    620.71069  0.032841836  0.032108329           14 
 1576000   0.62589759   -5.5294365    620.38629  0.032803844  0.032087135            8 
 1577000   0.62686436   -5.5395803    620.44687  0.032786243  0.032065811           33 
 1578000     0.627052    -5.518069    620.66072   0.03277676   0.03204457           11 
 1579000   0.61561127   -5.5025652    621.17012  0.032782886  0.032023391           19 
 1580000   0.62611062    -5.509605    621.14612  0.032760871  0.032002257           10 
 1581000    0.6247591   -5.5218831    621.79488  0.032774345   0.03198103           13 
 1582000   0.61869954   -5.5251573    621.13671  0.032718958  0.031959918           15 
 1583000   0.61678512   -5.4995413     621.0804  0.032695325  0.031938748           13 
 1584000   0.61814488   -5.4959717    621.68057  0.032706259  0.031917647           10 
 1585000   0.62990846    -5.513022     621.4633  0.032674201  0.031896533           10 
 1586000   0.62290893   -5.5038317    622.97083   0.03273281  0.031875406           15 
 1587000   0.61763972   -5.5325961    621.23848  0.032621218  0.031854326           14 
 1588000   0.61887344   -5.5338867    621.85813  0.032633193  0.031833211           27 
 1589000   0.62248551   -5.5369184    621.19441  0.032577848  0.031812052           19 
 1590000   0.61939487   -5.5258235    621.24821  0.032560179  0.031790929           12 
 1591000   0.62210577   -5.5172121    622.09955  0.032584305  0.031769804           14 
 1592000   0.62075215   -5.5244008    621.07962  0.032510449   0.03174876           25 
 1593000   0.60804299   -5.5389406    622.54263  0.032566574  0.031727802           27 
 1594000   0.60795982   -5.5434514     621.3715  0.032484918   0.03170671           21 
 1595000   0.61782214   -5.5157528    621.08545  0.032449606  0.031685673           12 
 1596000   0.61610221   -5.5447899    621.80668  0.032466932  0.031664737           20 
 1597000   0.61829591   -5.5362451    622.34227   0.03247455  0.031643722            9 
 1598000   0.61959408   -5.5341689    621.02271  0.032385415  0.031622735           24 
 1599000   0.62326498   -5.5343364     622.4811  0.032441166  0.031601758           21 
 1600000   0.61090416   -5.5538528    621.52071   0.03237087  0.031580754           14 
 1601000   0.61238019   -5.5632642     621.6254    0.0323561  0.031559763           33 
 1602000   0.62148074   -5.5330212    621.84656  0.032347407  0.031538799           12 
 1603000   0.61878542   -5.5276443    622.48725  0.032360535   0.03151795           10 
 1604000   0.60537315   -5.5374117    622.00214  0.032315157  0.031497067           16 
 1605000   0.62314496   -5.5144797    622.10347  0.032300284  0.031476166            8 
 1606000   0.61119413   -5.5602847    621.81215  0.032265056  0.031455307           18 
 1607000    0.6059562   -5.5446166    621.07918  0.032206968  0.031434518           24 
 1608000   0.62897039   -5.5163201    621.95753  0.032232459  0.031413699           11 
 1609000   0.61746391   -5.5334775    623.23666  0.032278675   0.03139285           11 
 1610000   0.60976997   -5.5495073    622.66942  0.032229266  0.031372001           14 
 1611000   0.61772497   -5.5494112    622.02448  0.032175899  0.031351036            9 
 1612000   0.60784793   -5.5241949    623.76585   0.03224596  0.031330331           17 
 1613000   0.61696774    -5.538791    621.48106  0.032107928   0.03130961           15 
 1614000   0.60610044   -5.5561486     621.7577  0.032102318  0.031288731           13 
 1615000   0.59863126   -5.5140508    621.87444  0.032088464  0.031267905           11 
 1616000   0.61066375    -5.542182    621.40283  0.032044288  0.031247103            9 
 1617000   0.61388285    -5.545723    623.97263  0.032156907  0.031226377           18 
 1618000   0.60762451   -5.5484581    621.78577  0.032024401  0.031205649           23 
 1619000   0.61697546   -5.5527692    622.66448   0.03204985  0.031184922           15 
 1620000   0.60569122   -5.5776686    622.14465  0.032003325  0.031164124           10 
 1621000   0.61196335   -5.5596457    621.76501  0.031964066  0.031143285           17 
 1622000   0.60145185   -5.5758745    620.72954   0.03189116  0.031122452           32 
 1623000   0.60871923   -5.5789099    622.20492  0.031947264  0.031101666           12 
 1624000   0.60660603   -5.5829554    622.18075  0.031926352  0.031080715           16 
 1625000   0.61222172   -5.5637636    624.16142  0.032008278  0.031059796           36 
 1626000   0.60529016   -5.5738148    622.06243  0.031881018  0.031039118           22 
 1627000    0.6003529    -5.563801    622.45371  0.031881464  0.031018323           22 
 1628000   0.60896047   -5.5551253    621.56724  0.031816505  0.030997569           20 
 1629000   0.62373638   -5.5775527    622.38193   0.03183865  0.030976845           28 
 1630000   0.61303468   -5.5841527    621.77387   0.03178803  0.030956085           44 
 1631000   0.60776989   -5.5813643    622.02991  0.031781622  0.030935335           22 
 1632000   0.60344861   -5.5568194     622.3815  0.031780101   0.03091457            9 
 1633000   0.59633747   -5.5803838     622.1578  0.031749224  0.030893829           10 
 1634000   0.59420435   -5.5801508    620.93889   0.03166763   0.03087311            9 
 1635000   0.59698644   -5.5989066    619.69567  0.031584897  0.030852346           20 
 1636000   0.59958221   -5.5674853    623.34191   0.03175132  0.030831579           19 
 1637000   0.60620696   -5.5643343    622.61626  0.031694984  0.030810898           12 
 1638000   0.61115791   -5.5711528    621.83375  0.031635824  0.030790271           10 
 1639000   0.60227151   -5.5897161    622.00995   0.03162548  0.030769527           16 
 1640000   0.59889968   -5.5772972    621.19968  0.031565024  0.030748742            8 
 1641000   0.60125746   -5.5827896    621.31864   0.03155183  0.030727995           20 
 1642000   0.59709449   -5.5732591    620.46466  0.031489274  0.030707148           11 
 1643000   0.59450761   -5.5699922    622.57068  0.031576926  0.030686368           15 
 1644000   0.60417926   -5.5849201     620.6286  0.031459276  0.030665621           12 
 1645000   0.59092562   -5.5938961    621.52579  0.031485602  0.030644917           40 
 1646000   0.60224927   -5.5833262    621.85263  0.031483021  0.030624213           17 
 1647000   0.58185915   -5.6019847    620.98513  0.031420013  0.030603468           16 
 1648000   0.60579881   -5.5814123     623.3914  0.031522623  0.030582798           33 
 1649000   0.59610711   -5.5740336    621.69062  0.031417557  0.030562178           23 
 1650000   0.59106024   -5.5761376    622.68512  0.031448744  0.030541525           15 
 1651000   0.58981942   -5.5840032    622.02328  0.031396289  0.030520901           14 
 1652000   0.59282905   -5.5922886    622.67803  0.031410312  0.030500269           19 
 1653000   0.60167063   -5.5873446    623.10711  0.031412942  0.030479602           17 
 1654000   0.58074814   -5.5942925    621.06851  0.031291239   0.03045911           30 
 1655000   0.59288045   -5.6019417     622.4055  0.031339652  0.030438646           20 
 1656000   0.58865985   -5.5914685    622.83787  0.031342485  0.030418234           22 
 1657000   0.59430339   -5.5826915     622.7145  0.031317366  0.030397711           15 
 1658000     0.586846   -5.5676929    622.32337  0.031278818  0.030377214           36 
 1659000     0.596126   -5.5648527    622.67424  0.031277589  0.030356767           16 
 1660000   0.59588231   -5.5805516    622.37139  0.031243544   0.03033631            6 
 1661000   0.58973268    -5.605721    623.06809  0.031259687  0.030315787           27 
 1662000   0.58749905    -5.606271    621.39586  0.031157032  0.030295147           13 
 1663000   0.59410701   -5.5934356    622.43009  0.031190123  0.030274529           10 
 1664000   0.59369366   -5.6215035    620.83409  0.031091451  0.030253876           13 
 1665000   0.59743782   -5.5645828     621.6266  0.031112442  0.030233248           21 
 1666000   0.59502143   -5.6003682    622.34216   0.03112956  0.030212688           17 
 1667000   0.58644278   -5.6063246    622.44736  0.031116145  0.030192138           24 
 1668000   0.59277517   -5.6280373    623.30269  0.031140222  0.030171506           16 
 1669000   0.60607274   -5.6072807    621.54308  0.031033707  0.030150996           15 
 1670000    0.5961701   -5.5974212    621.80842  0.031028364   0.03013043           19 
 1671000   0.59600414   -5.6012001    622.48224  0.031043399   0.03010992           13 
 1672000   0.58987693   -5.5948945    620.90529  0.030946236  0.030089374           18 
 1673000    0.5881926   -5.6082505    621.58574  0.030961633  0.030068892           42 
 1674000   0.58421242   -5.6093092     621.8296  0.030955277  0.030048341           29 
 1675000   0.57910937   -5.5984044    622.79102  0.030984628  0.030027819           22 
 1676000   0.57824489   -5.6048705     621.8471  0.030919208  0.030007347           16 
 1677000   0.57461827   -5.5863144    623.29086  0.030972513  0.029986917           13 
 1678000   0.59043749   -5.6153546    620.64587  0.030822699  0.029966499           18 
 1679000   0.58001442   -5.6171677    621.49888  0.030846679  0.029946064           20 
 1680000   0.57866911    -5.593446    621.66947  0.030836779   0.02992563           10 
 1681000   0.56813133   -5.6150855    622.68035  0.030868548  0.029905228           13 
 1682000   0.59302144   -5.6352302    622.67955  0.030850156  0.029884839           16 
 1683000   0.58931944   -5.6225814    620.96793  0.030747075  0.029864407           26 
 1684000    0.5879673   -5.6182325    623.26589  0.030842532  0.029844034           19 
 1685000   0.57156701   -5.6135693     622.2506  0.030774016  0.029823689           10 
 1686000   0.58701582   -5.6158147    621.03712  0.030695785  0.029803455           11 
 1687000   0.57036863   -5.6311008    621.68786  0.030709734  0.029783042           19 
 1688000   0.58776882   -5.6153429    621.67229  0.030690773  0.029762585           10 
 1689000   0.59818859   -5.6287245    622.62085  0.030719402   0.02974219           23 
 1690000   0.57296276   -5.6028084    622.75133  0.030707659  0.029721814           18 
 1691000   0.56552576   -5.6299543     620.0517  0.030556461  0.029701428           20 
 1692000   0.58982752   -5.6561609    619.50637  0.030511543  0.029680918           11 
 1693000   0.58523829   -5.6217558    622.37342  0.030634643  0.029660452           17 
 1694000   0.56359823   -5.6362493    621.06835  0.030552359  0.029640073           19 
 1695000    0.5836164   -5.6134528    621.03226  0.030532559  0.029619646           20 
 1696000   0.57047741   -5.6208832     621.6605  0.030545425  0.029599224           15 
 1697000   0.56869597   -5.6155779    621.97692  0.030542964  0.029578862           13 
 1698000   0.57465606    -5.641885    620.97324  0.030475719  0.029558483           19 
 1699000   0.57562322   -5.6147505    622.05022  0.030510605  0.029538142           16 
 1700000   0.56532384   -5.6164553    621.25975   0.03045391  0.029517794           12 
 1701000   0.58152053   -5.6371417    620.86816  0.030416822  0.029497436           17 
 1702000   0.57564052   -5.6268921    620.79875  0.030395552   0.02947703           18 
 1703000   0.56590107   -5.6201541    620.68354  0.030372066  0.029456682           23 
 1704000   0.56400207   -5.6225155    619.94932  0.030318335  0.029436394           12 
 1705000   0.57604561   -5.6150003    621.49918  0.030376304  0.029416077           15 
 1706000   0.56441706   -5.6210416    621.73224  0.030369883  0.029395768            7 
 1707000   0.57496885   -5.6225299    621.17846  0.030325057  0.029375498           51 
 1708000   0.56862588   -5.6223544    620.55834  0.030277046  0.029355202           13 
 1709000   0.57468165   -5.6472237    621.79573  0.030319667   0.02933494           22 
 1710000   0.57593264    -5.620954    621.26703  0.030276171  0.029314694           28 
 1711000   0.57559977   -5.6311411    623.28108  0.030356569  0.029294486           16 
 1712000   0.57510492   -5.6510389    620.66057  0.030211281  0.029274283           18 
 1713000   0.57199838   -5.6036247    622.73934  0.030294772  0.029254161           24 
 1714000   0.56167182   -5.6320333    620.79723  0.030182674  0.029234003           38 
 1715000   0.56240848   -5.6435503    620.88849  0.030169509  0.029213838           26 
 1716000   0.56108847   -5.6383445     620.1154  0.030114384  0.029193644           20 
 1717000   0.57824528   -5.6464128    621.34894  0.030156714  0.029173468           15 
 1718000   0.56748042   -5.6648513    619.65984  0.030057229  0.029153197           21 
 1719000   0.55671256   -5.6297376    621.29318  0.030118925  0.029133015           10 
 1720000   0.56925557   -5.6400297    620.87421  0.030081115  0.029112965           20 
 1721000   0.54407214   -5.6272343    622.06385   0.03012124  0.029092788           20 
 1722000   0.57534733   -5.6365276    619.69196  0.029988964  0.029072583           36 
 1723000   0.55547109   -5.6340365    621.42036  0.030055154  0.029052483           26 
 1724000   0.56114801   -5.6347505    623.14438  0.030121055  0.029032433           25 
 1725000   0.56156278   -5.6180029    621.76075  0.030036751  0.029012374           61 
 1726000   0.57128043   -5.6482623    620.04453  0.029936488  0.028992348           41 
 1727000   0.56133349   -5.6312983    621.15628  0.029972799  0.028972298           32 
 1728000   0.57330043   -5.6478941    620.95741  0.029945863  0.028952229           22 
 1729000   0.56522201   -5.6682238    619.72843  0.029869309   0.02893214           19 
 1730000   0.54660098   -5.6706309    620.36722  0.029882814  0.028911994           28 
 1731000   0.56676108   -5.6664591     621.4078  0.029915646  0.028891903           21 
 1732000   0.55123165   -5.6637379    619.72403  0.029817361  0.028871754           29 
 1733000   0.56140653   -5.6607486    622.17517  0.029918021  0.028851632           16 
 1734000   0.56445207   -5.6717359    620.78758  0.029834082   0.02883153           16 
 1735000   0.55372717   -5.6602812    619.77667  0.029768332  0.028811424           30 
 1736000   0.56395743    -5.669811    619.70763   0.02974787  0.028791284           26 
 1737000   0.56320284   -5.6556098    620.51043  0.029769259  0.028771251           24 
 1738000   0.54770147   -5.6601857    621.76398  0.029812235  0.028751241           44 
 1739000   0.55700236   -5.6566633    620.42183  0.029730776  0.028731243           42 
 1740000    0.5586298   -5.6727857      620.165  0.029701389  0.028711175           41 
 1741000   0.54741503   -5.6860108    620.45212  0.029698072  0.028691084           18 
 1742000   0.57306928   -5.6662433    620.63172  0.029689615  0.028671012           22 
 1743000    0.5619084   -5.6738913    622.31072  0.029752855  0.028651058           14 
 1744000   0.54184442    -5.651204    620.92861  0.029669754  0.028631045           20 
 1745000   0.55723985   -5.6446114    621.32969  0.029671905   0.02861105           28 
 1746000    0.5432557    -5.652882     620.9128  0.029635013  0.028591105           22 
 1747000   0.56305713   -5.6705523    620.32995  0.029590248  0.028571132           31 
 1748000   0.56225738   -5.6703401    621.16785  0.029613265  0.028551206           10 
 1749000   0.54963784   -5.6815412    619.56418  0.029519925   0.02853125           18 
 1750000   0.55233871   -5.6763376    620.05521  0.029526439  0.028511223           36 
 1751000   0.55406894   -5.6881653    620.03244  0.029508492  0.028491263           31 
 1752000    0.5548039   -5.6670713    619.84446  0.029482708  0.028471322           72 
 1753000   0.55026967    -5.690606    619.98789  0.029472708   0.02845138           42 
 1754000   0.55959639   -5.6624501    620.71905  0.029490643  0.028431406           71 
 1755000   0.55892594   -5.6683942    618.78876  0.029382182  0.028411428           73 
 1756000   0.55323381    -5.674373    619.24404  0.029387056   0.02839147           24 
 1757000   0.54593928   -5.6741921    619.16142  0.029366412  0.028371519           19 
 1758000   0.54651722   -5.6736785    619.52613  0.029366995  0.028351587           37 
 1759000   0.54925871    -5.681294    618.80175  0.029315982  0.028331714           58 
 1760000   0.54633451   -5.6843439    619.14693  0.029315669  0.028311795           77 
 1761000   0.55811759   -5.6890567    621.04913  0.029389037  0.028291883           69 
 1762000   0.55121837   -5.6887593    619.83489   0.02931493  0.028272052           91 
 1763000   0.55124426   -5.6970022    618.77061  0.029247996  0.028252207           43 
 1764000   0.54633411   -5.6847726     619.2706  0.029255036  0.028232292           44 
 1765000   0.54736953   -5.6832793    619.10814   0.02923079  0.028212444           42 
 1766000   0.55170298     -5.69033    620.82502  0.029295254  0.028192554           28 
 1767000   0.54914102   -5.6801217    620.10801   0.02924486  0.028172717           56 
 1768000   0.54900289    -5.692906    618.75578  0.029164582  0.028152897           41 
 1769000   0.55354686   -5.6825259    620.44596  0.029227716  0.028133138           27 
 1770000   0.53667737   -5.6915974    619.90479  0.029185725  0.028113299           76 
 1771000   0.54281734   -5.6903203     618.8486  0.029119546  0.028093486           49 
 1772000    0.5574144   -5.6828715    619.15952  0.029117735  0.028073643           66 
 1773000     0.548549   -5.6958264    618.69487  0.029079473  0.028053747           53 
 1774000    0.5476407   -5.6828961    619.44606  0.029098368  0.028033929           44 
 1775000   0.53744548   -5.6810973    617.68498  0.028999295  0.028014137           53 
 1776000    0.5559303   -5.6705209    619.38537  0.029062752  0.027994353           20 
 1777000   0.53893436   -5.6772558    619.52635  0.029053008   0.02797466           22 
 1778000   0.53946026   -5.6706033     620.8717  0.029099723   0.02795498           22 
 1779000   0.54585662   -5.7002303    618.92444  0.028992151  0.027935275           39 
 1780000   0.54782168   -5.6917455    619.39405  0.028997849  0.027915563           25 
 1781000   0.54959399    -5.703438    618.82793  0.028955078  0.027895865           45 
 1782000   0.55636604   -5.6894428    618.88277  0.028941394  0.027876111           36 
 1783000   0.54114375   -5.6995296    620.15151   0.02898446  0.027856374           36 
 1784000   0.53364599   -5.7004447    618.49837  0.028890993  0.027836683           68 
 1785000   0.54544992   -5.7049341    618.51996  0.028875815  0.027817009           62 
 1786000   0.55086863   -5.7163315    618.93329  0.028878933  0.027797327          134 
 1787000   0.54713083    -5.704133    619.01009  0.028866354  0.027777667          122 
 1788000   0.53838544   -5.6908397    620.38921  0.028914486  0.027758046           76 
 1789000   0.53353021   -5.6927354    619.40717  0.028852579   0.02773847           70 
 1790000   0.53648925   -5.7123753    617.52976  0.028749058  0.027718887           77 
 1791000   0.54321253    -5.710497    620.12877  0.028853935  0.027699289           56 
 1792000   0.54652699   -5.6956848    618.27242  0.028751508  0.027679702           79 
 1793000   0.54604776   -5.6951631    619.46993  0.028791129   0.02766011           32 
 1794000   0.53747521   -5.7138514    619.23056  0.028763961  0.027640524           22 
 1795000   0.53788112   -5.7108182    618.75787  0.028725992  0.027620888           56 
 1796000   0.53643722   -5.7037852    619.56121  0.028747272   0.02760129           20 
 1797000   0.53624595   -5.6992328    618.59183  0.028686321  0.027581673           40 
 1798000   0.53224171   -5.7213349    619.07839  0.028692917  0.027562095           31 
 1799000   0.53441771   -5.6977217    617.89832  0.028622305   0.02754253           33 
 1800000   0.52521584   -5.7166815    619.03988  0.028659254  0.027523014           33 
 1801000   0.54151524   -5.7178206    620.58677  0.028714916  0.027503487           46 
 1802000   0.52364808   -5.7302197     618.0469  0.028581525  0.027484015           59 
 1803000   0.53145493   -5.7029159    618.35447  0.028579889   0.02746458           42 
 1804000   0.52140832   -5.7258323    618.47318   0.02856953  0.027445146           48 
 1805000   0.53708527   -5.7148238    618.51123  0.028555458  0.027425695           94 
 1806000   0.53618878   -5.7174779      620.117  0.028613741  0.027406278           50 
 1807000   0.53762032   -5.7046866    618.97896  0.028545423  0.027386889          104 
 1808000   0.53554205   -5.7256717    618.68464  0.028516069  0.027367469           31 
 1809000   0.53352626   -5.7399254    619.36014  0.028531424  0.027348088           34 
 1810000   0.53921738   -5.7304224    618.76085  0.028488069  0.027328717           40 
 1811000   0.52946427   -5.7360531    617.97821  0.028436325  0.027309348           59 
 1812000   0.52922588   -5.7380757     620.2453  0.028524894  0.027289985           35 
 1813000   0.53444552   -5.7280571    618.86934  0.028445916  0.027270672           62 
 1814000   0.54678005   -5.7232244    619.17617   0.02844433  0.027251367           29 
 1815000   0.52596109   -5.7172665    619.78731  0.028456718  0.027232144           51 
 1816000   0.53763152   -5.7327234    618.36601  0.028375826   0.02721276           63 
 1817000   0.52043946   -5.7353236    618.21565  0.028353313  0.027193453           77 
 1818000   0.52450831   -5.7349756    618.94743  0.028371261   0.02717415           40 
 1819000   0.52664075   -5.7287909    620.09798  0.028408374  0.027154869           32 
 1820000   0.51692832   -5.7353698     618.2468  0.028308003  0.027135614           30 
 1821000    0.5323176   -5.7493971    618.52544   0.02830521   0.02711632           41 
 1822000   0.52865133    -5.738521    618.59474  0.028292844   0.02709706           40 
 1823000   0.51435689   -5.7301132    618.93054  0.028292674  0.027077792           19 
 1824000   0.52966095   -5.7181237    618.37147   0.02825162  0.027058576           41 
 1825000   0.52799665   -5.7423466     618.0162  0.028219918  0.027039332           16 
 1826000   0.52105003   -5.7517537    619.43388  0.028269162  0.027020118          108 
 1827000   0.52946383   -5.7612552    618.31818    0.0282028  0.027000904           69 
 1828000   0.52858228   -5.7324673    619.20758  0.028227917  0.026981732           27 
 1829000   0.52025544    -5.742104    618.59974  0.028184788  0.026962614           39 
 1830000    0.5195257   -5.7511208    618.77699  0.028177459  0.026943495           20 
 1831000   0.50930926   -5.7450527    619.15938  0.028179473  0.026924405           23 
 1832000   0.52690956   -5.7477021    618.92678  0.028153511  0.026905322           19 
 1833000   0.52119943   -5.7259609    619.61804  0.028169578  0.026886317           18 
 1834000   0.52025069   -5.7341449     618.5801  0.028107056   0.02686734           43 
 1835000   0.52507402   -5.7243477    618.55629  0.028090658  0.026848381           44 
 1836000   0.50754582   -5.7480585    619.53176  0.028119633  0.026829474           13 
 1837000   0.52261335   -5.7517243     619.6497  0.028109676  0.026810519           16 
 1838000   0.52096624   -5.7768375    619.11413    0.0280701  0.026791572           46 
 1839000   0.53184504   -5.7483502    618.63842   0.02803328  0.026772658           40 
 1840000   0.52973594    -5.756535    618.69601  0.028020653  0.026753722           29 
 1841000   0.52142271   -5.7305584     618.7774  0.028009117  0.026734781           22 
 1842000     0.522543   -5.7643894    620.30042  0.028062813  0.026715905           42 
 1843000   0.50904501   -5.7260744    620.24839  0.028045234  0.026696983           55 
 1844000   0.51089798   -5.7547335    619.51189  0.027996741  0.026678072           37 
 1845000   0.52358845   -5.7490399    619.26897  0.027970595   0.02665923           30 
 1846000   0.52684712   -5.7518087    618.28154  0.027910868  0.026640373           38 
 1847000   0.52796135    -5.746956    618.92142  0.027924626  0.026621553           27 
 1848000   0.50776243   -5.7504979    618.15227  0.027874832  0.026602764           23 
 1849000    0.5300327   -5.7631125    618.41944  0.027871797  0.026583943           37 
 1850000   0.50359872   -5.7637803    618.12917  0.027843656  0.026565112          105 
 1851000   0.50068625   -5.7594085    618.01376  0.027823418  0.026546232           43 
 1852000   0.52121507   -5.7702854    616.66138  0.027747542   0.02652733           40 
 1853000   0.50596171   -5.7721903    618.09945  0.027797241  0.026508488           43 
 1854000   0.51200225   -5.7668818    618.67689  0.027808202  0.026489675           42 
 1855000   0.50483219   -5.7713045    618.47484  0.027784135  0.026470828           31 
 1856000   0.50455698   -5.7683823    617.96294  0.027746181  0.026451959           47 
 1857000   0.50330178   -5.7948149    617.90791   0.02772877  0.026433109          105 
 1858000   0.50748402    -5.772266    618.55715  0.027742965  0.026414287           81 
 1859000   0.51658238   -5.7657721    618.03995  0.027704857  0.026395483           77 
 1860000   0.50448147   -5.7746575    617.06414  0.027646243  0.026376732           79 
 1861000   0.52662849   -5.7748837    618.28648  0.027686122  0.026357967           32 
 1862000   0.50380066   -5.7531282    619.08078  0.027706802  0.026339179           26 
 1863000    0.5135269    -5.789073    618.13868  0.027649789  0.026320414           61 
 1864000   0.49842123   -5.7718449    616.60176  0.027566245  0.026301613           48 
 1865000   0.51415235   -5.7674516    618.51786   0.02763708  0.026282836           39 
 1866000   0.49975682   -5.7819804    616.87837  0.027549052  0.026264064           42 
 1867000   0.51614035   -5.7855494    618.18533  0.027592632   0.02624534           34 
 1868000   0.50107403   -5.7729536    617.23677  0.027535545  0.026226627           38 
 1869000    0.5110795   -5.7899508    618.16455  0.027562179  0.026207955          108 
 1870000    0.5069564   -5.7892871     618.2638  0.027551863   0.02618928           83 
 1871000   0.49098681   -5.7765623    617.63287  0.027509036  0.026170611           44 
 1872000   0.51229122   -5.7797141    616.80769  0.027457607  0.026151929           64 
 1873000   0.50009317    -5.784748    616.95232  0.027449383  0.026133239           50 
 1874000   0.49624212   -5.7771262    617.57204  0.027462293  0.026114559           57 
 1875000   0.51830355   -5.7990499    616.86758  0.027416337  0.026095874          114 
 1876000   0.49699962   -5.8155995    617.66391  0.027437096  0.026077208           98 
 1877000   0.50040037   -5.8190138    616.61189  0.027375772  0.026058557          132 
 1878000   0.49532726   -5.8014694    617.70469  0.027409686  0.026039906           99 
 1879000   0.49870734   -5.8017304    616.55391  0.027344062  0.026021239          111 
 1880000   0.50060491   -5.8133051     617.1863  0.027357549  0.026002578           88 
 1881000   0.50416229   -5.7996309    617.77772  0.027369206  0.025983898           71 
 1882000   0.50708202   -5.8010784    615.98636  0.027275344   0.02596523           76 
 1883000   0.50090736   -5.8185595    617.72397  0.027337757  0.025946552           48 
 1884000   0.49410806   -5.8055755    616.43108   0.02726606  0.025927908           73 
 1885000   0.49052342     -5.80581      617.017  0.027277498  0.025909324           57 
 1886000   0.49841904    -5.823368    615.54128   0.02719783  0.025890748           81 
 1887000   0.50661596   -5.8024241    615.82952  0.027196146  0.025872204          135 
 1888000   0.50168933    -5.825189    617.01802    0.0272342   0.02585367          120 
 1889000    0.5059379   -5.8167401    616.20501  0.027183916  0.025835086           72 
 1890000   0.50748197    -5.792764    616.76636  0.027194284  0.025816546           53 
 1891000   0.49817489   -5.8047331    617.16275  0.027197371  0.025798026           67 
 1892000   0.49747789   -5.8014641    617.42925  0.027194734  0.025779451           78 
 1893000   0.50275888   -5.8211631    616.33588  0.027132236  0.025760866           74 
 1894000   0.49953858   -5.8118557    616.64504  0.027131514  0.025742316           62 
 1895000   0.49857983   -5.8309312    616.26136  0.027100324  0.025723743          113 
 1896000   0.50478892   -5.8122729    616.60238  0.027101019  0.025705193          215 
 1897000   0.49166687   -5.8179905    617.51277  0.027126725  0.025686686          241 
 1898000   0.50874699   -5.8378644    616.55645  0.027070445  0.025668183           46 
 1899000   0.49967382   -5.8279474    616.18392  0.027039842  0.025649736           56 
 1900000   0.48906737   -5.8179863    616.39852  0.027035023  0.025631247           70 
 1901000    0.4847175   -5.8364895    616.75797  0.027036559  0.025612751           85 
 1902000   0.49213578   -5.8339214    616.02718  0.026990325   0.02559428           96 
 1903000   0.49444787    -5.828932    615.30783  0.026944641  0.025575789           93 
 1904000   0.50013261   -5.8304838    616.54807  0.026984772  0.025557356          159 
 1905000   0.48563636   -5.8130049       618.19  0.027042432  0.025538951          108 
 1906000   0.49208103   -5.8263742    614.72841  0.026876898  0.025520563          216 
 1907000   0.49536602   -5.8168057    615.80081  0.026909667  0.025502203           73 
 1908000   0.48896571   -5.8246934    617.34044  0.026962807  0.025483827          122 
 1909000   0.49475161   -5.8245788    615.70353  0.026877227  0.025465488          103 
 1910000   0.48768146   -5.8265561    615.44766  0.026851992   0.02544714           88 
 1911000   0.48401541   -5.8518912    616.73493  0.026894075  0.025428807          114 
 1912000   0.49591387   -5.8175974      615.397  0.026821696  0.025410496          176 
 1913000   0.48067726   -5.8226078    615.73032  0.026822195  0.025392221          131 
 1914000   0.49164954   -5.8080718    616.52186  0.026842645   0.02537401           77 
 1915000   0.49434319   -5.8224379    615.68664  0.026792282  0.025355809          146 
 1916000   0.48637777   -5.8324584    616.25168  0.026802874  0.025337615           90 
 1917000   0.48759843   -5.8310742    616.64094  0.026805814  0.025319429          279 
 1918000   0.49193853   -5.8468153       616.09  0.026767901  0.025301235          216 
 1919000   0.48718325   -5.8332111    615.61121   0.02673316  0.025283054           94 
 1920000   0.48601132   -5.8393008    615.83548  0.026728971  0.025264896          176 
 1921000    0.4787985   -5.8229407    617.14572  0.026771895   0.02524674          101 
 1922000   0.48652187    -5.825089    617.00231  0.026751748  0.025228604          171 
 1923000   0.47665936   -5.8329827    615.71822   0.02668219  0.025210492           84 
 1924000   0.47507011    -5.832996    615.59685  0.026663065  0.025192384          141 
 1925000   0.47526685   -5.8186639    615.58632  0.026648759  0.025174255           83 
 1926000   0.48145571   -5.8355679    615.46232  0.026629557   0.02515614          126 
 1927000   0.47763403   -5.8280187    616.45584  0.026658702  0.025138049           54 
 1928000    0.4828608   -5.8325927    615.57938  0.026606993  0.025120011          231 
 1929000   0.48647923   -5.8407368     615.0338   0.02656963  0.025102001          142 
 1930000    0.4931417   -5.8256235    616.95063  0.026638628  0.025084006          118 
 1931000   0.48292273   -5.8356127    617.46509  0.026647035  0.025066025          146 
 1932000    0.4911819   -5.8480519    615.26617  0.026538396  0.025048045           48 
 1933000   0.49358909   -5.8422353    615.29489  0.026525905  0.025030074           48 
 1934000   0.48514934   -5.8554475    615.73206  0.026531026   0.02501212          132 
 1935000   0.48181987   -5.8428185    616.41107  0.026546557  0.024994157           58 
 1936000   0.47651732   -5.8493206    617.02114  0.026559105  0.024976234           83 
 1937000   0.47692927   -5.8486206    616.32241  0.026515333   0.02495833          119 
 1938000   0.47992311   -5.8525059    615.25863  0.026455909  0.024940417          124 
 1939000   0.48265329   -5.8591011      616.333  0.026488439  0.024922499           69 
 1940000   0.47725296   -5.8560501    616.78172   0.02649406  0.024904572          191 
 1941000   0.48132899   -5.8381431    615.43204  0.026422464  0.024886671           56 
 1942000   0.47025863   -5.8484529    615.08491  0.026393963  0.024868813          142 
 1943000   0.47477251   -5.8489054     615.3128  0.026390153  0.024850919           98 
 1944000   0.47302281    -5.846227    615.89462  0.026401518  0.024833066          163 
 1945000   0.47216508   -5.8386179    615.85152  0.026386098  0.024815249          236 
 1946000    0.4845916   -5.8495001    615.87454  0.026373524   0.02479741          231 
 1947000   0.47324716   -5.8534252    616.07373  0.026368504  0.024779569          258 
 1948000   0.48036471   -5.8407347    615.04167  0.026310817  0.024761744          260 
 1949000   0.47513534   -5.8411899    615.78485  0.026329094  0.024743931          282 
 1950000   0.47451548   -5.8363762    615.02382  0.026283069  0.024726127          125 
 1951000   0.47961129   -5.8478582    614.51758  0.026247974   0.02470836          114 
 1952000   0.47586876    -5.847185    615.33225  0.026269307  0.024690586          268 
 1953000   0.48257085   -5.8561493    614.74302  0.026230714  0.024672812          343 
 1954000   0.47617373   -5.8556987    614.89147  0.026223621  0.024655006          284 
 1955000     0.470588   -5.8594162    615.22597  0.026224466  0.024637224          318 
 1956000   0.47567643   -5.8847226     614.5324   0.02618151  0.024619454          213 
 1957000   0.48336991   -5.8632441    615.27762  0.026199864  0.024601703          236 
 1958000   0.46945669   -5.8669497    615.57836  0.026199283  0.024583946          157 
 1959000    0.4761603   -5.8445297    615.37613  0.026177307  0.024566216          248 
 1960000   0.47024479   -5.8768189    615.23948  0.026158141  0.024548478          308 
 1961000    0.4744015   -5.8594869    614.31914  0.026105692  0.024530768          337 
 1962000   0.46319613   -5.8692477    615.13779  0.026127157   0.02451306          208 
 1963000   0.46909773   -5.8628453    614.57538  0.026089972  0.024495369          140 
 1964000   0.47386313   -5.8768728    614.63952  0.026079409  0.024477687          207 
 1965000   0.47567698   -5.8574158    614.13598  0.026044783      0.02446          260 
 1966000   0.46359639   -5.8868524    613.97667  0.026024782  0.024442309          335 
 1967000   0.45925054   -5.8627078    614.59792  0.026037872  0.024424644          317 
 1968000   0.47240107   -5.8883603    613.88551  0.025994475  0.024406986          250 
 1969000    0.4760762   -5.8774108    614.13411  0.025991794  0.024389345          268 
 1970000   0.46663256   -5.8566416    614.30868  0.025985985  0.024371747          271 
 1971000   0.46814025   -5.8913584    613.96691  0.025958351   0.02435412          231 
 1972000   0.46244261   -5.8911542    614.35529  0.025961599  0.024336504          164 
 1973000   0.47123941   -5.8822841    613.31975  0.025904703   0.02431886          302 
 1974000   0.46321667    -5.891672     613.4194  0.025895787  0.024301232          291 
 1975000   0.46530136   -5.8774307    613.54804  0.025888103   0.02428359          342 
 1976000   0.45870614   -5.8659397    614.35066   0.02590885  0.024265992          265 
 1977000   0.46632374   -5.8758471    614.50748  0.025902355  0.024248438          318 
 1978000   0.45188212   -5.8904614    612.76807  0.025815979  0.024230904          188 
 1979000   0.46092729   -5.8883481    613.57312  0.025836833   0.02421335          186 
 1980000    0.4683213   -5.8898638     614.3219  0.025855299  0.024195849          116 
 1981000     0.450819    -5.888968    614.03206  0.025830055  0.024178343          173 
 1982000   0.45636048   -5.8780954    614.44394   0.02583434  0.024160869          189 
 1983000   0.45552528   -5.8889295    613.18083  0.025768231  0.024143412          197 
 1984000   0.45668255   -5.8894855    614.67363  0.025817945  0.024125959          137 
 1985000   0.46096218   -5.8807602    614.13762  0.025782436  0.024108508          138 
 1986000   0.45156466   -5.8931818    613.03999  0.025723397  0.024091056           70 
 1987000   0.46426104   -5.8865961    613.02189  0.025709692  0.024073619          104 
 1988000   0.45725418   -5.9033066    613.51708  0.025717517  0.024056211          113 
 1989000   0.45783678   -5.8854361    612.84149  0.025676282  0.024038821          118 
 1990000   0.44905772   -5.8821519    613.28446  0.025681929  0.024021451          128 
 1991000   0.45214083   -5.8975688    613.35401  0.025671941  0.024004087          123 
 1992000   0.46164286   -5.8989089    613.78513  0.025677089  0.023986734          115 
 1993000   0.45212227   -5.8953425    615.00852  0.025715359  0.023969389          150 
 1994000   0.45384388   -5.9085509     613.5925  0.025643284   0.02395205          188 
 1995000   0.45482436   -5.8851473    613.29739  0.025618103  0.023934748          214 
 1996000   0.45967313   -5.9042575    613.64887  0.025619943  0.023917422          192 
 1997000   0.45908697   -5.9113437     613.1109  0.025584664  0.023900112          250 
 1998000   0.45902069   -5.8837654    614.51738  0.025630522  0.023882826          157 
 1999000   0.45961036   -5.8806279    613.62732  0.025580595  0.023865559          236 
 2000000   0.45405395   -5.8970482    613.65108  0.025568795  0.023848304          277 
 2001000   0.44781759   -5.8969791    613.58992   0.02555347   0.02383108          300 
 2002000   0.45835292   -5.8915601     613.1445  0.025522165  0.023813877          312 
 2003000    0.4562475    -5.902995    613.20971  0.025512136  0.023796682          288 
 2004000    0.4587168   -5.8907691    612.68099   0.02547742   0.02377947          204 
 2005000   0.45264572   -5.9060407    612.75184  0.025467657  0.023762295          364 
 2006000   0.45086349   -5.9080554    613.75889  0.025496797  0.023745117          236 
 2007000   0.44989806   -5.9042739    614.48419  0.025514208  0.023727944          292 
 2008000   0.44784789   -5.9075698    612.58393   0.02542264   0.02371079          236 
 2009000    0.4462757   -5.9237159    613.47248  0.025446843   0.02369363          233 
 2010000    0.4536838   -5.9027049    613.36112  0.025429565  0.023676489          212 
 2011000   0.45999706   -5.9071027    612.28917    0.0253725  0.023659347          274 
 2012000     0.453355    -5.904661    613.08796  0.025392974  0.023642225          202 
Loop time of 5056.04 on 48 procs for 2000000 steps with 4000 atoms

Performance: 68353.885 tau/day, 395.566 timesteps/s
99.4% CPU use with 48 MPI tasks x no OpenMP threads

MPI task timing breakdown:
Section |  min time  |  avg time  |  max time  |%varavg| %total
---------------------------------------------------------------
Pair    | 356.77     | 378.6      | 397.52     |  43.6 |  7.49
Neigh   | 34.343     | 35.713     | 37.534     |  12.4 |  0.71
Comm    | 329.08     | 351.19     | 374.39     |  54.2 |  6.95
Output  | 4.2821     | 4.2847     | 4.3304     |   0.3 |  0.08
Modify  | 4228.5     | 4239.4     | 4254.8     |   8.5 | 83.85
Other   |            | 46.81      |            |       |  0.93

Nlocal:        83.3333 ave          88 max          78 min
Histogram: 1 4 3 6 3 6 7 7 5 6
Nghost:        2349.12 ave        2371 max        2325 min
Histogram: 2 4 4 7 3 9 6 3 7 3
Neighs:        15993.1 ave       17489 max       14632 min
Histogram: 4 2 7 7 6 6 6 2 5 3
FullNghs:      31985.8 ave       33738 max       29803 min
Histogram: 5 0 5 4 3 8 5 9 4 5

Total # of neighbors = 1535319
Ave neighs/atom = 383.82975
Neighbor list builds = 107614
Dangerous builds = 1

#clear
#
#next RN
#
#jump SELF
Total wall time: 1:24:19
