
units lj                  # Use reduced LJ style units
atom_style atomic         # Uncharged point particles
atom_modify map hash      # Needed for indexing of clusters etc
                          # Used to be able to find where atoms are in relation to each other.

lattice fcc 1.0 spacing 1 1 1
Lattice spacing in x,y,z = 1.5874011 1.5874011 1.5874011
region box block 0 10 0 10 0 10 units lattice
create_box 2 box
Created orthogonal box = (0.0000000 0.0000000 0.0000000) to (15.874011 15.874011 15.874011)
  3 by 4 by 4 MPI processor grid
create_atoms 1 box
Created 4000 atoms
  using lattice units in orthogonal box = (0.0000000 0.0000000 0.0000000) to (15.874011 15.874011 15.874011)
  create_atoms CPU = 0.002 seconds
set type 1 type/fraction 2 0.2 78393
Setting atom values ...
  836 settings made for type/fraction
mass 1 1.0
mass 2 1.0
pair_style lj/cut  3.5
pair_modify tail  yes
pair_coeff 1  1  1.0  1.0   # Intearaction between 1 and 1 set with epsilon = 1 and sigma = 1
pair_coeff 1  2  1.5  0.8
pair_coeff 2  2  0.5  0.88

write_data data.0
System init for write_data ...
Neighbor list info ...
  update every 1 steps, delay 10 steps, check yes
  max neighbors/atom: 2000, page size: 100000
  master list distance cutoff = 3.8
  ghost atom cutoff = 3.8
  binsize = 1.9, bins = 9 9 9
  1 neighbor lists, perpetual/occasional/extra = 1 0 0
  (1) pair lj/cut, perpetual
      attributes: half, newton on
      pair build: half/bin/atomonly/newton
      stencil: half/bin/3d
      bin: standard
WARNING: Not all mixed pair coeffs generated from mixing. Use write_data with 'pair ij' option to store all pair coeffs. (../write_data.cpp:312)


#############################
#   M E L T   S Y S T E M   #
#############################

velocity all create 2.4 9622624 mom yes dist gaussian # Assign velocities
                                                    # Temperature 2.4, random number seed, zero linear momentum
                                                                                # Gaussian distribution

timestep 0.002   # simulation timestep
thermo 1000       # output thermodynamic data every 1000 steps bf 100

# Define a fix  in this case with index 1 applied to all
# particles in the simulation. This fix is for simulations
# in the anisotropic NPT ensemble. Note that we use the MTK
# correction.
fix 1 all npt temp 2.4 2.4 0.1 iso 5.68 5.68 0.5 mtk yes tchain 5 pchain 5 # Use NPT ensemble
                                                                         # Set temperature and pressure and damping
                                                                         # Numbers of thermostats in chain and in barostat
run 10000          # run for 10000 steps
Per MPI rank memory allocation (min/avg/max) = 3.642 | 3.644 | 3.648 Mbytes
Step Temp E_pair E_mol TotEng Press Volume 
       0          2.4   -7.0365901            0   -3.4374901   -3.6176696         4000 
    1000    2.3994287   -4.8137251            0   -1.2154819    5.5638261    4495.4885 
    2000    2.3818304   -4.8482938            0   -1.2764415    5.7282697     4453.565 
    3000     2.394227   -4.8764038            0   -1.2859611    5.6981674    4441.9687 
    4000    2.4254177   -4.8546539            0   -1.2174369    5.7041204    4458.7547 
    5000    2.4155326   -4.8275748            0   -1.2051817    5.8202221    4459.7841 
    6000    2.3475275   -4.8241833            0   -1.3037724    5.8393397    4445.8023 
    7000    2.3874224   -4.8469938            0   -1.2667554    5.5851118    4476.9019 
    8000    2.4046912   -4.8413428            0   -1.2352077    5.5334864    4483.1434 
    9000    2.4616692   -4.8235184            0   -1.1319377    5.4015613    4520.9754 
   10000    2.4232114   -4.8575648            0   -1.2236564     5.474963    4484.9963 
Loop time of 2.32741 on 48 procs for 10000 steps with 4000 atoms

Performance: 742455.170 tau/day, 4296.616 timesteps/s
99.7% CPU use with 48 MPI tasks x no OpenMP threads

MPI task timing breakdown:
Section |  min time  |  avg time  |  max time  |%varavg| %total
---------------------------------------------------------------
Pair    | 0.99438    | 1.0433     | 1.1621     |   4.0 | 44.83
Neigh   | 0.19886    | 0.20545    | 0.23073    |   1.5 |  8.83
Comm    | 0.68186    | 0.8214     | 0.89112    |   5.5 | 35.29
Output  | 0.00024412 | 0.00025059 | 0.00031815 |   0.0 |  0.01
Modify  | 0.21386    | 0.24247    | 0.30199    |   4.7 | 10.42
Other   |            | 0.01458    |            |       |  0.63

Nlocal:        83.3333 ave          93 max          72 min
Histogram: 1 0 2 8 7 14 8 5 0 3
Nghost:        1524.96 ave        1554 max        1489 min
Histogram: 2 1 3 4 9 5 13 6 3 2
Neighs:        8500.50 ave        9827 max        7198 min
Histogram: 1 0 7 6 13 8 6 3 2 2

Total # of neighbors = 408024
Ave neighs/atom = 102.00600
Neighbor list builds = 906
Dangerous builds = 190

# Equilibrate just above the melting temperature to avoid step fn in T

fix 1 all npt temp 1.25 1.25 0.1 iso 5.68 5.68 0.5 mtk yes tchain 5 pchain 5
run 2000
Per MPI rank memory allocation (min/avg/max) = 3.643 | 3.645 | 3.649 Mbytes
Step Temp E_pair E_mol TotEng Press Volume 
   10000    2.4232114   -4.8575648            0   -1.2236564     5.474963    4484.9963 
   11000    1.2604656   -6.5410447            0   -4.6508189    5.6973542    3649.0161 
   12000    1.2432461   -6.5505701            0   -4.6861671     5.680635    3645.1451 
Loop time of 0.506463 on 48 procs for 2000 steps with 4000 atoms

Performance: 682378.979 tau/day, 3948.952 timesteps/s
99.7% CPU use with 48 MPI tasks x no OpenMP threads

MPI task timing breakdown:
Section |  min time  |  avg time  |  max time  |%varavg| %total
---------------------------------------------------------------
Pair    | 0.23001    | 0.24547    | 0.26861    |   1.8 | 48.47
Neigh   | 0.032423   | 0.034239   | 0.03776    |   0.6 |  6.76
Comm    | 0.15243    | 0.17153    | 0.18943    |   2.3 | 33.87
Output  | 5.1642e-05 | 5.3101e-05 | 6.6918e-05 |   0.0 |  0.01
Modify  | 0.041242   | 0.048924   | 0.056237   |   1.8 |  9.66
Other   |            | 0.006249   |            |       |  1.23

Nlocal:        83.3333 ave          91 max          78 min
Histogram: 10 4 3 11 3 5 2 3 1 6
Nghost:        1748.02 ave        1776 max        1722 min
Histogram: 1 3 5 12 4 6 8 6 2 1
Neighs:        10474.2 ave       11807 max        9644 min
Histogram: 8 5 9 5 6 3 5 2 4 1

Total # of neighbors = 502761
Ave neighs/atom = 125.69025
Neighbor list builds = 142
Dangerous builds = 11

#############################
# L I N E A R  Q U E N C H  #
#############################

# Define solid atoms. This closely follows ten Wolde  Ruiz-Montero and Frenkel  Faraday Discuss  1996  104  93-110
# Compute components of the per-atom q6 vector
compute q6 all orientorder/atom degrees 1 6 components 6 nnn NULL cutoff 1.3 # compute the Q6 parameter.
                                                                             # Use all neighbours within 1.3 unit cell.

# get number of connections
compute coord_number all coord/atom orientorder q6 0.5

# An atom is solid if it has 8 or more connections (of a possible 14)
variable is_solid atom c_coord_number>=8
group solid dynamic all var is_solid    # Must be dynamic to update
dynamic group solid defined

# do clustering
compute cluster solid cluster/atom 1.3 # Create a cluster where all atoms within are solid and max 1.3 units from another member

# define chunks one chunk per cluster
compute clus_chunks solid chunk/atom c_cluster nchunk every compress yes  # Says which atoms are in which chunk

# count the size of each chunk
compute size_chunks solid property/chunk clus_chunks count


# Find the maximum entry in the vector of chunk sizes
variable max_n equal max(c_size_chunks)


# Thermo style which includes this variable
# thermo_style custom step temp pe vol v_max_n

thermo ${N}  # Print the thermo information every 100 steps
thermo 1000  

# Reset the npt fix at a lower temperature (below freezing)
fix 1  all npt temp  ${temp} ${temp}  0.1  iso  5.68  5.68  0.5  mtk yes tchain  5  pchain  5
fix 1  all npt temp  0.45 ${temp}  0.1  iso  5.68  5.68  0.5  mtk yes tchain  5  pchain  5
fix 1  all npt temp  0.45 0.45  0.1  iso  5.68  5.68  0.5  mtk yes tchain  5  pchain  5

dump dmp2 all dcd ${N} traj.dcd
dump dmp2 all dcd 1000 traj.dcd


compute msd all msd com yes
variable twopoint equal c_msd[4]/6/(step*dt+1.0e-6)
fix 9 all vector 10 c_msd[4]
variable fit equal slope(f_9)/6/(10*dt)
thermo_style custom step temp pe c_msd[4] v_twopoint v_fit v_max_n

fix 1 all npt temp 1.25 ${temp} 0.1 iso 5.68 5.68 0.5 mtk yes tchain 5 pchain 5
fix 1 all npt temp 1.25 0.45 0.1 iso 5.68 5.68 0.5 mtk yes tchain 5 pchain 5
run 2000000 # 5000000  # Run for this many steps
Neighbor list info ...
  update every 1 steps, delay 10 steps, check yes
  max neighbors/atom: 2000, page size: 100000
  master list distance cutoff = 3.8
  ghost atom cutoff = 3.8
  binsize = 1.9, bins = 9 9 9
  4 neighbor lists, perpetual/occasional/extra = 1 3 0
  (1) pair lj/cut, perpetual
      attributes: half, newton on
      pair build: half/bin/atomonly/newton
      stencil: half/bin/3d
      bin: standard
  (2) compute orientorder/atom, occasional
      attributes: full, newton on
      pair build: full/bin/atomonly
      stencil: full/bin/3d
      bin: standard
  (3) compute coord/atom, occasional
      attributes: full, newton on
      pair build: full/bin/atomonly
      stencil: full/bin/3d
      bin: standard
  (4) compute cluster/atom, occasional
      attributes: full, newton on
      pair build: full/bin/atomonly
      stencil: full/bin/3d
      bin: standard
Per MPI rank memory allocation (min/avg/max) = 9.773 | 9.780 | 9.784 Mbytes
Step Temp PotEng c_msd[4] v_twopoint v_fit v_max_n 
   12000    1.2432461   -6.5505701 2.2159103e-30 1.5388265e-32 8.3333333e+20            1 
   13000    1.2512072   -6.6141904   0.51224715 0.0032836355  0.042614396            1 
   14000    1.2317105    -6.556442    1.0410827 0.0061969204  0.042828666            1 
   15000    1.2115894   -6.5782275      1.57985  0.008776944  0.042988882            2 
   16000    1.2752627   -6.6046669    2.1235532  0.011060173  0.043993302            1 
   17000    1.2375171   -6.5301811    2.6156937  0.012822028  0.043725208            2 
   18000     1.258859   -6.5423094    3.1703681   0.01467763  0.043929655            1 
   19000    1.2737167    -6.583663    3.6881369  0.016176039  0.044012297            1 
   20000    1.2458935   -6.5920604    4.2014401     0.017506  0.044011653            2 
   21000    1.2623942   -6.5882258    4.7829026  0.018979772  0.044127705            2 
   22000    1.2383107   -6.5819056    5.2972449  0.020065321  0.044263278            3 
   23000     1.246847   -6.5521346    5.7340293  0.020775468  0.044070122            2 
   24000    1.2651354   -6.5224793    6.2514345  0.021706369  0.043759269            1 
   25000    1.2475825   -6.5991984    6.6919308  0.022306436  0.043468644            2 
   26000    1.2360964   -6.6088491    7.2091457  0.023106236  0.043264623            2 
   27000    1.2423206   -6.5819207    7.7114938  0.023800906  0.043100994            1 
   28000    1.2739801   -6.5702738    8.2466561  0.024543619  0.042989518            3 
   29000    1.2088328    -6.571996    8.6764547  0.024932341  0.042856168            2 
   30000     1.254427   -6.5747236    9.1067613  0.025296559  0.042573805            3 
   31000    1.2569648   -6.5813626    9.6884206  0.026044141  0.042398848            1 
   32000    1.2350839   -6.5710029    10.316441  0.026865732  0.042364424            3 
   33000    1.2334128   -6.6499334    10.741653  0.027125386  0.042380425            3 
   34000    1.2685488   -6.5302068    11.360656  0.027844744  0.042422105            3 
   35000    1.2058324   -6.5903103    11.799904  0.028095009  0.042492573            3 
   36000    1.2546197   -6.5663146    12.424259  0.028759858  0.042533496            3 
   37000    1.2420682   -6.5844263    12.838043  0.028914511  0.042561074            1 
   38000    1.2352493   -6.5768304    13.296695  0.029159419  0.042517617            2 
   39000     1.221838   -6.5582981    13.819456  0.029528753   0.04245906            2 
   40000    1.2593569   -6.5610648      14.3764  0.029950834  0.042430223            2 
   41000    1.2372811   -6.5746681    14.915323  0.030315697   0.04244242            2 
   42000     1.245668   -6.5534124     15.56081  0.030874623  0.042510451            1 
   43000    1.2064728   -6.5982109    15.985449  0.030979552  0.042562691            1 
   44000    1.2499804   -6.5758537     16.37605  0.031015246  0.042582006            2 
   45000    1.2387618   -6.6054013    16.914532  0.031323207    0.0425865            2 
   46000    1.2386869   -6.5534644    17.390085  0.031503777  0.042576631            2 
   47000    1.2380469   -6.6073108    17.836083   0.03162426  0.042529083            2 
   48000    1.2269479   -6.5885158    18.215805  0.031624661  0.042479742            1 
   49000    1.2193584   -6.6368472    18.627696  0.031679754  0.042390576            2 
   50000    1.2154904   -6.5915537    19.240462  0.032067437  0.042320548            2 
   51000    1.2384382   -6.6105676    19.634311  0.032082207  0.042270265            1 
   52000    1.2440846   -6.5825597    20.201776  0.032374641  0.042216224            1 
   53000    1.2375984   -6.6278335     20.67285   0.03250448  0.042175597            4 
   54000    1.2231857   -6.6029873    21.204343  0.032722752  0.042132699            1 
   55000     1.230488   -6.5888509    21.499973  0.032575717  0.042057239            4 
   56000    1.2252552    -6.566803    22.085734  0.032865675  0.041975772            1 
   57000    1.2488341   -6.6401881    22.550341  0.032968334  0.041926117            2 
   58000    1.2307109   -6.6174252     23.14633  0.033256221  0.041882871            2 
   59000    1.2450096   -6.5830877    23.792913  0.033605809  0.041861717            2 
   60000     1.223913   -6.6008086    24.198815  0.033609466  0.041844098            3 
   61000    1.2220424   -6.6464531    24.705919  0.033751255  0.041841049            1 
   62000    1.2266006   -6.5803856    25.370889  0.034100657  0.041837592            2 
   63000    1.2371433   -6.6457255    25.715197   0.03401481  0.041845054            2 
   64000    1.2290059   -6.6301428    26.233643  0.034158389  0.041825475            2 
   65000    1.2371266   -6.6226994    26.795475  0.034353172  0.041803051            5 
   66000    1.2246741   -6.5934525    27.251487  0.034408442  0.041795823            1 
   67000    1.2412563     -6.58583    27.711498  0.034467037  0.041782631            1 
   68000    1.2346965   -6.5968067    28.365103  0.034761156  0.041779896            2 
   69000    1.2211496   -6.5692093    28.818023  0.034804375  0.041792141            1 
   70000    1.2288653   -6.6567184     29.21023  0.034774083  0.041783211            4 
   71000    1.2374232   -6.5966091    29.478383  0.034599041  0.041760284            1 
   72000     1.233906   -6.5845245    29.908048  0.034615796   0.04171798            3 
   73000     1.215048   -6.6316563    30.252972  0.034535356  0.041656453            2 
   74000    1.2262439   -6.6513046    30.658464  0.034525298  0.041593626            3 
   75000    1.2317105   -6.6311789    31.195302  0.034661446  0.041529876            2 
   76000    1.2183479   -6.5833005    31.708688  0.034768298  0.041468007            2 
   77000    1.2103445   -6.6216821     32.01618  0.034649545  0.041404158            1 
   78000    1.2403783   -6.6176381    32.377026   0.03459084  0.041340396            3 
   79000    1.2318769   -6.6435166    32.905755  0.034710712  0.041276621            3 
   80000    1.1851927   -6.6186651    33.429368  0.034822259  0.041218676            2 
   81000    1.2126389   -6.6324495    33.914213  0.034891165  0.041167331            1 
   82000    1.2522063   -6.5933824    34.555884  0.035117768  0.041121985            4 
   83000    1.2537174   -6.6357933    34.830366  0.034970247  0.041075724            2 
   84000     1.193351   -6.6138003    35.311935  0.035031681  0.041022059            2 
   85000    1.2390196   -6.6574073    35.731846  0.035031221  0.040973017            1 
   86000    1.2288056   -6.6185769     36.32102  0.035194787  0.040920419            2 
   87000    1.2195742   -6.6213118    36.692203  0.035145788  0.040870964            2 
   88000    1.2212525   -6.6578446    36.987518  0.035026059  0.040814867            3 
   89000    1.2164836   -6.6311422     37.48791  0.035101039  0.040763363            1 
   90000    1.2175299   -6.5955807    38.043786  0.035225728  0.040724428            1 
   91000    1.2301493   -6.6105612    38.479446  0.035237587  0.040680897            2 
   92000    1.1990764   -6.6462563    39.019645  0.035343881  0.040635146            2 
   93000    1.2050707   -6.6276499    39.392333  0.035297789    0.0405946            1 
   94000    1.2155059   -6.6420111    39.925061  0.035394557  0.040545208            2 
   95000    1.2298261   -6.6710555    40.266684  0.035321653  0.040502518            1 
   96000    1.2067269   -6.6169725    40.917561  0.035518716  0.040471432            3 
   97000    1.2196049   -6.5987362    41.438791  0.035600336  0.040445636            1 
   98000    1.2226324   -6.6297122    42.027701  0.035737841  0.040423107            4 
   99000    1.2346432   -6.6532849    42.528023  0.035797999  0.040407653            1 
  100000    1.1821708   -6.6325207    43.117971  0.035931642  0.040394607            2 
  101000    1.2161571     -6.62346    43.742629  0.036091278  0.040384846            2 
  102000    1.2136896   -6.6213428    43.991433  0.035940713  0.040372029            2 
  103000    1.2262832   -6.6163626    44.397058   0.03591995  0.040351161            2 
  104000     1.213573   -6.6218683    45.087567  0.036127858  0.040341575            2 
  105000    1.1905132   -6.6249505    45.421658  0.036048935  0.040328848            3 
  106000    1.2122168   -6.6288216    46.089254   0.03623369  0.040319694            2 
  107000    1.1922707   -6.6025467    46.237705  0.036010673  0.040307375            1 
  108000    1.2144975   -6.6332607    46.826221  0.036131343  0.040293071            2 
  109000     1.205712    -6.600563    47.249978  0.036123836  0.040277491            2 
  110000    1.1937828   -6.6381748    47.732227  0.036160778  0.040258636            1 
  111000     1.204706   -6.6240365    48.231444  0.036209792  0.040240315            2 
  112000    1.2134891   -6.6481088    48.555954  0.036127942  0.040222425            2 
  113000    1.2041364   -6.6440981    49.053897   0.03617544  0.040203424            2 
  114000    1.2130105   -6.6139573    49.657806  0.036299566  0.040190054            3 
  115000    1.2294308   -6.6095727    49.999514  0.036231532  0.040172283            1 
  116000    1.1861848   -6.6013823    50.628383  0.036370965  0.040157344            3 
  117000    1.2283012    -6.593992    51.078392  0.036380621  0.040143662            2 
  118000    1.2257013   -6.6556199    51.307175  0.036233881  0.040128534            1 
  119000    1.1993956   -6.6344332    51.610787  0.036142007  0.040106396            2 
  120000    1.2262199   -6.6279367    51.982761  0.036099139  0.040080737            2 
  121000    1.2163715   -6.6500683     52.63122  0.036247396  0.040057968            1 
  122000     1.209567    -6.636451    52.934297  0.036157306  0.040040768            1 
  123000    1.2021105   -6.6829223    53.555436  0.036284171  0.040021395            2 
  124000    1.1991305   -6.6626685    54.138565  0.036383444  0.040005593            1 
  125000    1.1868604   -6.6338037    54.657814  0.036438543  0.039992175            1 
  126000    1.1995846     -6.64776    55.235837  0.036531638  0.039980445            2 
  127000    1.1982181   -6.6303829    55.570651  0.036463682  0.039968258            1 
  128000    1.1796677   -6.6284646    55.994299  0.036454621  0.039958805            1 
  129000    1.2044374   -6.6541221    56.470741  0.036479807  0.039944365            1 
  130000    1.2165121   -6.6340222    57.130313  0.036621995  0.039936294            2 
  131000    1.1687643   -6.6334747    57.705826  0.036708541  0.039926559            1 
  132000    1.1864072   -6.6742949    58.201885  0.036743614  0.039916771            1 
  133000    1.2063107   -6.6670031    58.606309  0.036720745  0.039913295            3 
  134000    1.2132159   -6.6397362    59.398974   0.03693966  0.039914059            2 
  135000    1.2069872   -6.6806346    59.901246  0.036976078  0.039913256            1 
  136000    1.2154489   -6.6503759    60.138941  0.036849841  0.039916735            3 
  137000    1.2153048   -6.6677811    60.483543  0.036790476   0.03991876            3 
  138000    1.2136329   -6.6922633    61.168288  0.036937372  0.039917123            5 
  139000    1.2081618   -6.6812437    61.488815  0.036863798  0.039914784            4 
  140000    1.1855373   -6.6730224    61.942241  0.036870382  0.039909869            3 
  141000    1.2271821   -6.6755993     62.16451  0.036740254  0.039902077            2 
  142000    1.2055975   -6.6485671    62.996958  0.036970046   0.03989355            2 
  143000    1.2124588   -6.6391997     63.24521  0.036856183  0.039883439            2 
  144000    1.2059563   -6.6519746     63.67933  0.036851464  0.039873756            1 
  145000    1.2267722   -6.6558032    63.998337  0.036780653   0.03985869            2 
  146000     1.204663   -6.6689589    64.257274  0.036676526  0.039845274            3 
  147000    1.2083955   -6.7074482     64.78639  0.036726978  0.039831252            2 
  148000      1.19985   -6.6927395    65.080656  0.036644513  0.039815707            1 
  149000    1.1868459   -6.6649516    65.728548  0.036760933  0.039795862            3 
  150000    1.1671156     -6.66992      66.2512  0.036806222  0.039778979            2 
  151000    1.2040228   -6.7359794    66.333786   0.03660805  0.039761454            1 
  152000    1.1788946   -6.6593069    67.137394  0.036807782  0.039742828            1 
  153000    1.2158629   -6.6860192    67.165955  0.036582764  0.039724125            1 
  154000    1.1901852   -6.6749843     67.73462  0.036652933  0.039706915            2 
  155000    1.2201449   -6.6525665    68.231901  0.036683818  0.039689607            3 
  156000    1.1973131   -6.7126152    68.585344   0.03663747  0.039674237            1 
  157000     1.175127   -6.6476526     68.99221  0.036620069  0.039654321            1 
  158000    1.1992639   -6.6635448     69.40449  0.036605744  0.039632764            2 
  159000    1.1906528   -6.6692355    69.513671  0.036432741  0.039610487            1 
  160000    1.1649433    -6.700782    69.799436  0.036353873  0.039583035            1 
  161000    1.1915815   -6.6773562    70.507622  0.036494628   0.03955485            2 
  162000    1.1923377   -6.6849283    71.090459  0.036569166  0.039529585            6 
  163000    1.2100835   -6.6481307    71.363048  0.036484176  0.039506921            2 
  164000    1.1732503   -6.6899679     71.86674  0.036517652  0.039480482            1 
  165000    1.2073407   -6.6686958    72.534246  0.036633457  0.039453468            2 
  166000     1.176021   -6.6409313    72.925592  0.036609233  0.039431267            1 
  167000    1.1865367   -6.6686003    73.325952  0.036589797  0.039411675            1 
  168000    1.2031583   -6.6989633    73.868297   0.03664102  0.039389598            3 
  169000    1.1916015    -6.648214    74.408582  0.036690622  0.039368763            2 
  170000     1.199446   -6.6679228    74.863905  0.036697993  0.039348517            6 
  171000    1.1967575   -6.6819595    75.015752  0.036557384  0.039328811            5 
  172000     1.187637   -6.6860758    75.413017  0.036537315  0.039307925            1 
  173000    1.1940777   -6.6936687    75.949332  0.036584456  0.039284202            4 
  174000     1.201157   -6.6617708    76.422354  0.036600744  0.039262679            3 
  175000    1.1860476   -6.6588311    76.957828  0.036646585  0.039243405            3 
  176000    1.1914153    -6.744707    77.099445  0.036505419  0.039225097            2 
  177000    1.1723889   -6.7005611    77.687172  0.036575881  0.039204266            1 
  178000    1.1829344   -6.6420904    78.126216  0.036575944  0.039184026            2 
  179000     1.178937   -6.7034041    78.586405  0.036585849  0.039165575            1 
  180000    1.1955038   -6.7201512    79.050648  0.036597522  0.039141515            5 
  181000     1.179217   -6.6926948     79.71583  0.036701579  0.039120175            2 
  182000    1.2066577   -6.6760183     79.78558  0.036531859  0.039099058            2 
  183000    1.1690204   -6.7123217    79.945915  0.036405244  0.039075347            2 
  184000    1.1447792   -6.6721481    80.344183  0.036387764  0.039049841            8 
  185000    1.1845876   -6.6781082    81.300151   0.03662169  0.039027982            2 
  186000    1.1863705   -6.6898825    81.376454  0.036458985  0.039006446            1 
  187000    1.1931307   -6.7135924    81.953575  0.036521201  0.038983773            2 
  188000    1.1867572   -6.6697089    82.556301  0.036594105  0.038962213            2 
  189000     1.161417   -6.7360895    82.793527  0.036505082  0.038941948            2 
  190000    1.1931903   -6.6962883    83.328964  0.036547791  0.038920047            2 
  191000    1.1868614   -6.6768492    83.806765  0.036564906  0.038900076            1 
  192000    1.1672117   -6.7163725    84.008683  0.036462102  0.038879044            2 
  193000    1.2097638   -6.6911077    84.614983  0.036534967  0.038857348            2 
  194000    1.2009045   -6.7060569    84.850001  0.036447595  0.038836759            3 
  195000    1.1909407   -6.7072023    85.319617  0.036461374  0.038818305            2 
  196000     1.199355   -6.7089081    86.150898  0.036628783  0.038798535            1 
  197000    1.1685624   -6.7102513    86.502154  0.036591435  0.038782149            2 
  198000    1.1771919   -6.7176674    87.194007  0.036697814  0.038769179            2 
  199000    1.1648733    -6.701429    87.641416   0.03670076  0.038756692            4 
  200000    1.1519681   -6.6787701    88.261683  0.036775701  0.038746939            1 
  201000     1.165964   -6.7020382    88.463797  0.036676533  0.038736015            3 
  202000    1.1769813   -6.6841081    88.936876   0.03669013  0.038726906            1 
  203000    1.1816254   -6.7441797    89.109589  0.036580291  0.038714106            6 
  204000    1.1770112   -6.6781867    89.616693  0.036608126   0.03869937            2 
  205000    1.1784738   -6.7463044    89.961752  0.036569818   0.03868465            2 
  206000    1.1932011   -6.7002644    90.438298  0.036585072  0.038669791            2 
  207000    1.1656256   -6.7130554    91.232111  0.036727903  0.038653313            3 
  208000    1.1986854   -6.6958955     91.15535  0.036520573  0.038636916            3 
  209000    1.1446779   -6.7247229     91.33567  0.036417731  0.038620159            1 
  210000    1.1693035   -6.7020064    91.947756  0.036487205  0.038604563            1 
  211000    1.1928917      -6.7161    92.914874  0.036696238  0.038590354            1 
  212000    1.1530775   -6.6893328    93.457022  0.036736251  0.038576451            2 
  213000     1.156902   -6.7460983     93.32848   0.03651349  0.038561685            2 
  214000    1.1677071   -6.7572223    93.536994  0.036424063  0.038544535            3 
  215000    1.1449305   -6.7119948    94.210674  0.036515765   0.03852657            3 
  216000    1.1814164    -6.731377    94.621807  0.036505327  0.038510545            2 
  217000      1.13124   -6.7314992    95.374849  0.036626286  0.038497326            2 
  218000    1.1603086   -6.7550737    95.840717   0.03663636  0.038485445            3 
  219000    1.1540951   -6.7004169    95.995902  0.036528121   0.03847199            1 
  220000     1.177452   -6.7212165    96.790381  0.036663023  0.038459193            2 
  221000    1.1670374   -6.7525189    96.945459  0.036555603  0.038448041            4 
  222000    1.1681117   -6.7516605    97.872479  0.036738918  0.038436488            2 
  223000    1.1744995   -6.7501336    97.734601  0.036522646  0.038425727            3 
  224000    1.1649142   -6.7252476    98.274187  0.036560337  0.038413688            1 
  225000    1.1552245   -6.7170378    98.757424  0.036576824  0.038401221            2 
  226000    1.1343709   -6.7315412    99.346903  0.036632339  0.038389847            3 
  227000    1.1871685   -6.7421815      100.269  0.036809472  0.038380505            1 
  228000    1.1557466   -6.7257088    100.48002  0.036725153  0.038372854            2 
  229000    1.1579065   -6.6812132    101.14152  0.036805503  0.038365505            2 
  230000    1.1233197   -6.6853407    101.54911  0.036793156  0.038358707            1 
  231000    1.2001302   -6.7260025     101.8631  0.036747151  0.038350416            3 
  232000    1.1885179   -6.7258755    102.08587  0.036668776  0.038342531            2 
  233000    1.1540016   -6.7525692    102.73099  0.036742128  0.038332198            4 
  234000    1.1592117   -6.7310535    102.88725  0.036640757  0.038320971            1 
  235000    1.1553123   -6.7625619    102.77443  0.036444833  0.038309361            1 
  236000    1.1377618   -6.7577101     103.3409  0.036490429  0.038299248            3 
  237000    1.1486539   -6.7262187    104.34655  0.036690066   0.03828808            4 
  238000    1.1438715   -6.7387989    104.63614  0.036637305  0.038276143            2 
  239000    1.1589544   -6.7362437    104.91501  0.036581245  0.038262688            1 
  240000    1.1496157   -6.7350046    105.19323  0.036525428  0.038249184            3 
  241000    1.1613214   -6.7355219     105.8038  0.036584994  0.038237095            1 
  242000    1.1517401    -6.748678    106.64351  0.036722972  0.038226618            2 
  243000     1.147264   -6.7287866    106.78079  0.036618925  0.038216223            1 
  244000    1.1528762   -6.6947584    107.41353  0.036684949    0.0382055            2 
  245000    1.1650867   -6.6618831    107.83993  0.036680248  0.038194624            1 
  246000    1.1542096   -6.7703339    107.96937   0.03657499  0.038184038            2 
  247000    1.1918848   -6.7474101    108.04905  0.036453795  0.038172187            1 
  248000    1.1732723   -6.7415735    108.94284  0.036607139  0.038158807            5 
  249000    1.1645685    -6.754595    108.92584  0.036454431  0.038145597            2 
  250000     1.149087   -6.7184048    109.48552  0.036495174   0.03813187            1 
  251000    1.1520449   -6.7812219    109.29628  0.036286947  0.038116686            2 
  252000    1.1307705   -6.7504085    110.11702  0.036414357   0.03810101            2 
  253000    1.1747937    -6.764945    110.25344  0.036315361  0.038085787            3 
  254000    1.1404854   -6.7998831    110.74657  0.036334175  0.038068784            2 
  255000    1.1260182   -6.7586408     111.1492  0.036323268  0.038051606            2 
  256000    1.1619697   -6.7492417    111.58905   0.03632456  0.038035898            2 
  257000     1.182368   -6.7372588    112.21148  0.036385045  0.038021651            2 
  258000    1.1545219   -6.7778799    112.22249  0.036247576  0.038005654            3 
  259000    1.1540226   -6.7708386    112.96489  0.036346491  0.037991599            2 
  260000    1.1503727   -6.7673842    113.10014  0.036250045  0.037977139            4 
  261000    1.1431294    -6.788944     113.6738  0.036294316  0.037961603            3 
  262000    1.1686725   -6.7298387    114.33593  0.036366389  0.037946679            5 
  263000    1.1434215   -6.7836104    114.59726  0.036310919  0.037930449            2 
  264000    1.1498878    -6.770982    114.98691  0.036296373  0.037914905            3 
  265000    1.1484513   -6.7921953    114.77532  0.036092868  0.037897024            2 
  266000    1.1313222   -6.7554781    114.79719  0.035964031  0.037876466            4 
  267000    1.1533006   -6.7778274     115.4325   0.03602762  0.037853728            2 
  268000    1.1565982    -6.748787    115.81974  0.036013601   0.03783035            2 
  269000    1.1789416   -6.7703529    116.02918  0.035944605  0.037807464            5 
  270000    1.1338204   -6.7676932    115.93256  0.035781656  0.037784186            2 
  271000    1.1431984   -6.7359061     116.7599   0.03590403  0.037760101            1 
  272000    1.1370221   -6.7906186    116.72147  0.035760254  0.037736718            2 
  273000    1.1276713   -6.7474322    117.34048  0.035818218  0.037714497            2 
  274000     1.144104   -6.7478429    117.83049  0.035836525  0.037691926            3 
  275000    1.1169741   -6.7431239    118.48359   0.03590412  0.037670426            1 
  276000    1.1447413   -6.7645469    119.29303  0.036018426  0.037650111            2 
  277000    1.1410331   -6.7393685     119.7884  0.036037423  0.037632009            1 
  278000    1.1552509   -6.7919319    120.00205  0.035971837  0.037614956            4 
  279000    1.1359164   -6.7571472    120.76211  0.036069925  0.037598047            2 
  280000    1.1588979   -6.7829604    121.06187   0.03603032  0.037580353            2 
  281000    1.1415125   -6.7605546     121.2533  0.035958869  0.037561501            3 
  282000    1.1189201   -6.7922114    121.62556   0.03594136  0.037543542            2 
  283000     1.141419   -6.7589537    122.01213  0.035928188  0.037525181            1 
  284000    1.1206505   -6.7677571    122.74257  0.036016012  0.037507464            2 
  285000    1.1420394   -6.7933988     122.6537  0.035863654  0.037490224            1 
  286000    1.1249147   -6.7898477    123.52513   0.03599217  0.037472164            2 
  287000    1.1355148   -6.7815191    123.79595  0.035945398  0.037455227            3 
  288000    1.1519124   -6.7931759     124.2636  0.035955903   0.03743969            1 
  289000    1.1419057   -6.8341846    125.01717  0.036048781  0.037425066            4 
  290000    1.1537415   -6.7485149    125.78838  0.036146085  0.037412401            1 
  291000    1.1624607    -6.775408    126.08563  0.036106997  0.037400167            3 
  292000    1.1443943    -6.747575    126.88512  0.036211507  0.037388282            1 
  293000    1.1208339     -6.78097    127.39463  0.036232829  0.037378173            1 
  294000    1.1392661   -6.7877531     127.7336  0.036205668  0.037368986            3 
  295000    1.1585462   -6.8037804    127.78151  0.036096473   0.03735773            1 
  296000    1.1261765    -6.789358    128.62904  0.036213132  0.037347097            3 
  297000    1.1184665   -6.7670591    128.76697  0.036129901  0.037336095            4 
  298000    1.1135749   -6.7612551    129.48949  0.036210708  0.037325772            2 
  299000    1.1281088   -6.7465819    130.43971  0.036354434  0.037318364            2 
  300000    1.1437713   -6.8021052     130.5466  0.036262943  0.037310393            3 
  301000    1.1379444   -6.7983869    130.17043  0.036038324  0.037302543            2 
  302000    1.1594346   -6.8167217    131.03894  0.036158648  0.037292331            1 
  303000    1.1536127   -6.7848975    131.33344  0.036120307  0.037280918            1 
  304000    1.1148137   -6.7755547    131.65962  0.036090904  0.037270055            3 
  305000     1.147781   -6.7849939    131.73202  0.035992356  0.037257821            1 
  306000    1.1103377    -6.798799      132.332  0.036038127  0.037244895            3 
  307000    1.1419267   -6.8026017    132.61328  0.035997089  0.037231066            2 
  308000     1.110191   -6.7912273    132.91482  0.035961802  0.037217937            2 
  309000    1.1254915   -6.7968818    132.75579  0.035802532  0.037202792            2 
  310000    1.1566833   -6.8049062    132.79048  0.035696366  0.037186531            1 
  311000    1.1387484    -6.817133    134.07364  0.035925411  0.037169771            2 
  312000    1.1402086   -6.8192389    134.36384  0.035887779  0.037154122            3 
  313000    1.1250675    -6.797578    134.81707  0.035893789   0.03713948            1 
  314000    1.0988582   -6.8251657    134.55016   0.03570864  0.037123623            2 
  315000    1.1417313   -6.7917532    135.44337   0.03583158  0.037107656            2 
  316000     1.146402   -6.7885141    135.52549  0.035739846  0.037091572            4 
  317000    1.1534616     -6.78413    135.90027  0.035725622  0.037074531            2 
  318000    1.1428278   -6.7758423    136.37966  0.035738904  0.037058053            3 
  319000    1.1299926   -6.7906182    137.11295  0.035818429  0.037043094            1 
  320000    1.1249095   -6.7695995    137.41198  0.035784369  0.037029199            1 
  321000    1.1141187   -6.7878912    137.82183  0.035779291  0.037014071            2 
  322000    1.1307764   -6.8175224    138.12164  0.035745766  0.036999766            5 
  323000     1.111944   -6.8109758    138.31143  0.035684064  0.036985002            2 
  324000    1.1632805   -6.8278552    138.94599  0.035737136  0.036970734            2 
  325000    1.1289016   -6.8323001    139.52639  0.035775996  0.036958211            1 
  326000    1.1072945   -6.7974107    140.06057  0.035802804  0.036945704            2 
  327000     1.115571   -6.8178631    139.98414  0.035673839  0.036931618            4 
  328000    1.1029341   -6.8496949    139.76906  0.035510432  0.036916737            4 
  329000    1.1308589   -6.8389755    140.50886  0.035589883  0.036899718            2 
  330000     1.127967   -6.8028057    140.73375  0.035538826  0.036884473            2 
  331000    1.1257522   -6.8294111    141.38145  0.035594524  0.036868087            4 
  332000    1.1121175   -6.8039637    141.82552  0.035598774   0.03685379            2 
  333000    1.1389485   -6.8084781    142.67159    0.0357036  0.036839525            3 
  334000    1.1090436   -6.8556942     142.3115   0.03550686  0.036824442            3 
  335000     1.113628   -6.7989544       142.69  0.035495024   0.03680797            1 
  336000    1.1220723   -6.8096952    143.50463  0.035591426  0.036791703            3 
  337000    1.1072621   -6.8524181    143.95482  0.035597137   0.03677664            5 
  338000    1.1168451   -6.8284215    144.20431  0.035553331  0.036762518            1 
  339000    1.1293547    -6.789866    144.76825  0.035587082  0.036747665            2 
  340000    1.1052056   -6.8251796    144.59783  0.035440643  0.036732061            1 
  341000    1.1254869   -6.8092427    145.55586  0.035570835  0.036716907            7 
  342000    1.0778955   -6.8165199    145.87816   0.03554536  0.036702715            2 
  343000     1.127743   -6.8112872    146.45673  0.035582296   0.03668924            4 
  344000    1.1265547   -6.8338446    146.72822  0.035544627  0.036674721            2 
  345000    1.0938387   -6.8673554    147.00657  0.035508834  0.036659439            4 
  346000    1.1172088   -6.7913143    147.62573  0.035555331  0.036644756            1 
  347000    1.1076867   -6.8284165    147.99924  0.035542566  0.036630982            2 
  348000    1.1287367   -6.8317999    147.96393  0.035431976  0.036617693            5 
  349000    1.1031375   -6.8471108    148.37193  0.035427873  0.036603686            2 
  350000    1.1149111   -6.8083307    149.05094  0.035488318  0.036589367            4 
  351000    1.1066176    -6.788049    149.45737  0.035483705  0.036574964            1 
  352000    1.1052859   -6.8385672    149.55654  0.035406378  0.036560706            3 
  353000    1.1340992   -6.8003809     149.9889  0.035408143  0.036546471            2 
  354000    1.1039212    -6.801429    150.27167  0.035374686  0.036531094            6 
  355000     1.113068   -6.7859264    150.29213  0.035279842   0.03651644            2 
  356000    1.1167863   -6.8208804    151.52379  0.035469052  0.036501487            3 
  357000    1.1137358   -6.8149355     151.5374  0.035372877  0.036487909            6 
  358000     1.131743   -6.8160227    152.65957  0.035535281   0.03647467            2 
  359000    1.0978774   -6.8259513    152.69289  0.035444032  0.036461678            3 
  360000    1.1310035   -6.8649735    152.53577  0.035309207  0.036448664            1 
  361000    1.1400247   -6.8191562    153.58801  0.035454296  0.036436506            2 
  362000    1.1021896   -6.8441118    153.32229  0.035295187  0.036423928            3 
  363000    1.1390646   -6.8073089     154.3552  0.035435078  0.036410119            2 
  364000    1.0986244   -6.7846593      154.592  0.035391941  0.036395912            3 
  365000    1.1259022   -6.8432117    154.03935  0.035168802  0.036381298            1 
  366000     1.108429   -6.8655726    154.97762  0.035286343  0.036366517            4 
  367000    1.1145464   -6.8459204    156.02913  0.035428958  0.036352827            5 
  368000     1.090578   -6.8154348    156.20319    0.0353721  0.036338011            2 
  369000     1.106114   -6.8557117    156.04321   0.03524011  0.036323821            2 
  370000    1.1079347   -6.8429963    157.17881  0.035400632  0.036310404            3 
  371000    1.0947007   -6.8397141    157.59757  0.035399275  0.036297431            2 
  372000    1.1111716   -6.8249579    158.39514  0.035482781  0.036285535            2 
  373000    1.1047347   -6.8301954    158.00974   0.03530155  0.036273714            4 
  374000    1.1061733   -6.8322621    158.48944  0.035314046   0.03626134            3 
  375000     1.127302   -6.8711298    158.32027  0.035182283  0.036247768            4 
  376000     1.115707   -6.8550976    159.03919  0.035248048  0.036233791            2 
  377000    1.1175898   -6.8867847    158.85241  0.035113266   0.03621998            2 
  378000    1.0899031   -6.8658571    159.83709  0.035237453  0.036205986            1 
  379000    1.1221557   -6.8745005    160.08457  0.035198894  0.036191465            2 
  380000    1.0976066   -6.8663628    159.71359  0.035024909  0.036175712            2 
  381000    1.1195156   -6.8837059    159.43876  0.034872869  0.036159177            3 
  382000     1.109567   -6.8790523    160.04986  0.034914892  0.036141654            2 
  383000    1.0948353   -6.8609882     160.1981  0.034855983  0.036122967            3 
  384000    1.1162702   -6.8431002    160.31848  0.034791337  0.036104555            3 
  385000    1.1022639    -6.842217    161.62875  0.034984579  0.036087013            1 
  386000     1.111095   -6.8459286    160.74889  0.034703991  0.036068528            2 
  387000     1.087281   -6.8322715    161.97809  0.034879002  0.036049803            3 
  388000    1.1075874    -6.841532    162.15306  0.034826688  0.036032379            2 
  389000    1.0878388   -6.8314583    162.35389  0.034780183  0.036014018            2 
  390000    1.0903616   -6.8656351    162.94676  0.034817684  0.035994891            4 
  391000    1.0799824   -6.8879004    162.57739  0.034649914   0.03597573            5 
  392000    1.1179727   -6.8433814    163.46464  0.034750135  0.035956661            2 
  393000    1.0811858   -6.9014587    162.66792  0.034492773  0.035937245            3 
  394000    1.1001035   -6.8594476    163.95063   0.03467653  0.035917564            2 
  395000    1.1309888   -6.8613843    163.89587  0.034577187   0.03589728            1 
  396000    1.0828572   -6.8635511    164.23276  0.034560766  0.035876791            2 
  397000    1.0966992   -6.8876405    164.07021  0.034439591  0.035856619            1 
  398000    1.0861235   -6.8791915    164.39648  0.034421374  0.035834892            3 
  399000    1.0855849   -6.8714357    164.90656  0.034441637  0.035813765            2 
  400000    1.0697946   -6.8525516    165.78008  0.034537517  0.035793163            1 
  401000    1.1026922   -6.8539577    165.61476  0.034417033   0.03577308            3 
  402000    1.0784737   -6.8501012    166.01659  0.034414715  0.035752609            3 
  403000    1.1015377   -6.8767788    166.54669  0.034438935  0.035732005            3 
  404000    1.0658859   -6.8770632    166.73981  0.034393525  0.035711388            3 
  405000    1.0936868   -6.8618418    166.75475  0.034311678    0.0356913            2 
  406000    1.0864157   -6.8899371    167.56753  0.034393993  0.035670816            3 
  407000    1.0839501    -6.890796    167.83203  0.034363643  0.035650097            2 
  408000    1.0923024   -6.8460115    168.23315  0.034361347  0.035629815            2 
  409000    1.0811172    -6.821334    168.71079  0.034374651  0.035610019            1 
  410000    1.0775568   -6.8548925    169.03636  0.034356985  0.035590006            2 
  411000    1.0736801   -6.8563131    168.78535  0.034222496  0.035569529            5 
  412000    1.0910071   -6.8994136    168.91319  0.034165289  0.035548477            2 
  413000    1.0931846   -6.8641206    170.01341  0.034304563   0.03552754            1 
  414000    1.0870127   -6.8807044    169.90441   0.03419976  0.035507108            3 
  415000    1.0624778   -6.9332893    170.39533  0.034215929  0.035486782            1 
  416000    1.0943667   -6.8448309    170.92191  0.034239165  0.035466838            2 
  417000    1.0953076   -6.8960422    171.50044   0.03427267  0.035447896            2 
  418000    1.0937262   -6.9003354    171.88136  0.034266618   0.03542858            6 
  419000    1.0819589   -6.8346119    172.59088   0.03432595  0.035408966            3 
  420000    1.0871837    -6.850564    172.60763  0.034247546  0.035389874            2 
  421000    1.0940165   -6.8799688    173.34191  0.034311541  0.035371328            2 
  422000    1.0674242   -6.8684675    173.32791  0.034227471  0.035352524            4 
  423000    1.0833902   -6.9035917    173.23814  0.034128868  0.035333791            1 
  424000    1.0789116    -6.884247    174.05167  0.034208268  0.035315349            1 
  425000    1.0711871   -6.8816753    174.98008  0.034309819  0.035297234            1 
  426000    1.0895369   -6.8972828    174.65939  0.034166548  0.035279461            3 
  427000    1.0749392    -6.885805    174.93527  0.034140373  0.035261193            3 
  428000    1.0906303   -6.8898745    175.11929  0.034096435  0.035242022            3 
  429000    1.0827602   -6.8847532    175.39114  0.034069763  0.035222788            1 
  430000     1.091659    -6.892476    175.99934  0.034108398  0.035203996            2 
  431000    1.0973376   -6.8899497    176.97704  0.034218298  0.035186188            3 
  432000    1.0591128   -6.9159895     176.4464  0.034036727   0.03516874            3 
  433000    1.0754204   -6.8978694    176.85577  0.034036908  0.035151087            2 
  434000    1.0813973   -6.8645495    177.48508  0.034079317  0.035133357            4 
  435000     1.080884   -6.9266961     177.0281  0.033913429  0.035114628            4 
  436000    1.0976839   -6.9122992     177.4423  0.033914812  0.035096031            3 
  437000    1.0551021    -6.869611     178.5789  0.034053948  0.035076773            3 
  438000    1.0982727    -6.866038    179.05792  0.034067337  0.035058664            2 
  439000    1.0467521   -6.9462806     178.9968  0.033978132  0.035040519            1 
  440000    1.0728939   -6.9129899    179.43896  0.033984651   0.03502235            2 
  441000     1.088553   -6.8702863    179.57942   0.03393413  0.035005258            3 
  442000    1.0904001   -6.9310602    179.84045  0.033906571  0.034987185            2 
  443000    1.0721851   -6.9068173    180.90923  0.034031081  0.034968302            3 
  444000    1.0995312   -6.8871446    181.15634  0.034000815  0.034950143            1 
  445000    1.0773296    -6.907132    180.60337  0.033820856  0.034931971            3 
  446000    1.0883982   -6.8804159    181.31853  0.033878648  0.034912746            3 
  447000    1.0745679   -6.8926262    181.51765  0.033839979  0.034893507            1 
  448000    1.1224338   -6.9254208    182.07528  0.033868169  0.034874481            2 
  449000    1.0793965   -6.9085279    182.68606  0.033906098   0.03485624            2 
  450000     1.055332    -6.896046    182.60057  0.033814921  0.034838409            5 
  451000    1.0690749   -6.8799753    182.46432  0.033714766  0.034820355            3 
  452000    1.1105058   -6.9267871    183.33181  0.033800113  0.034802391            2 
  453000    1.0731354   -6.9075488    183.43093  0.033743732  0.034783823            2 
  454000    1.0671814   -6.9344053     184.0587  0.033784637  0.034765304            3 
  455000    1.0638947   -6.9041193    184.07252  0.033712916  0.034746583            4 
  456000     1.102875   -6.9341511    184.86577   0.03378395  0.034728229            2 
  457000     1.063233   -6.9064355    184.78751  0.033695753  0.034709991            2 
  458000     1.079285     -6.93057    185.00987  0.033662641  0.034691544            1 
  459000    1.0613394   -6.8715994    186.05969    0.0337799   0.03467309            2 
  460000     1.079211   -6.9116676     185.5339  0.033611215  0.034654985            1 
  461000      1.09227   -6.9176733    185.85932   0.03359713  0.034636653            2 
  462000    1.0764446    -6.874927    186.84218  0.033701692  0.034618851            2 
  463000    1.0610616   -6.9193643    186.51157  0.033569397  0.034600803            1 
  464000    1.0585075   -6.9384898    187.61492  0.033695209  0.034582622            6 
  465000    1.0660837   -6.9023187    187.53492  0.033608409  0.034564223            2 
  466000    1.0407075    -6.909961    188.04866  0.033628158  0.034546098            3 
  467000    1.0757123   -6.9546541     188.1616  0.033576303  0.034528214            2 
  468000    1.0700561   -6.9403547    188.66872  0.033594858   0.03451041            3 
  469000    1.0887424   -6.9345171    188.78161  0.033543285  0.034492823            2 
  470000    1.0454359   -6.9231184     189.8697  0.033664841  0.034475639            2 
  471000    1.0524868   -6.9263081     189.5911  0.033544074  0.034458068            1 
  472000    1.0780958   -6.9510256    189.97925  0.033541535  0.034441019            3 
  473000    1.0417876   -6.8927179    190.23088  0.033514955  0.034424068            2 
  474000    1.0689641   -6.9153878    191.38164  0.033646561  0.034407043            3 
  475000     1.052358   -6.8955222    191.28482  0.033558741  0.034390744            2 
  476000    1.0969614   -6.8953831    191.73944   0.03356783  0.034374293            2 
  477000    1.0606051   -6.9132618    191.93798  0.033532141  0.034356991            1 
  478000    1.0650583   -6.9506332    190.90098  0.033281203  0.034339292            2 
  479000    1.0661169   -6.9032882    192.77251  0.033537319  0.034322262            4 
  480000    1.0576482   -6.9130314    192.90292  0.033490091  0.034305285            4 
  481000    1.0263426   -6.9206612    193.57373  0.033536682  0.034288807            3 
  482000    1.0509686   -6.9447362     193.6119  0.033473703  0.034272216            2 
  483000    1.0629128   -6.9574329    194.03963  0.033478196  0.034255573            3 
  484000    1.0525278   -6.9026171    193.69193  0.033349161  0.034238485            3 
  485000    1.0524675    -6.910567    194.16262  0.033361276  0.034221352            3 
  486000    1.0556336   -6.9284355    194.54378  0.033357987  0.034203997            3 
  487000     1.054711   -6.9295642    194.96489  0.033361549  0.034186468            2 
  488000    1.0699562   -6.9277194    195.36756  0.033361947   0.03416876            2 
  489000    1.0675245   -6.9428716    195.09496  0.033247266  0.034150864            2 
  490000    1.0738803   -6.9329312    194.97834  0.033159581  0.034133331            2 
  491000    1.0643809    -6.926186     195.4117  0.033165597  0.034114829            1 
  492000    1.1002941   -6.9346034    196.28222  0.033245634   0.03409616            2 
  493000    1.0525167   -6.9687591     195.5182  0.033049053  0.034077448            2 
  494000    1.0515438   -6.9370161    196.75308  0.033190465  0.034058575            2 
  495000     1.049627   -6.9081242    197.01312  0.033167192  0.034040067            2 
  496000    1.0617629   -6.9377044    196.56611  0.033025221  0.034020964            3 
  497000     1.062762   -6.9477041      196.655  0.032973676  0.034001544            2 
  498000    1.0542366   -6.9454866    197.00416  0.032965891  0.033982078            1 
  499000    1.0588508   -6.9595521    196.70578  0.032849996  0.033962369            3 
  500000    1.0804985   -6.9188481    197.67638  0.032946064  0.033943095            4 
  501000    1.0637675   -6.9625277    198.72854  0.033055313  0.033924454            3 
  502000    1.0540005   -6.9309572    197.83127  0.032840516  0.033905242            3 
  503000    1.0431377   -6.9451419    198.24805  0.032844275  0.033885477            2 
  504000    1.0565089   -6.9383732     198.3944  0.032803307  0.033865472            3 
  505000    1.0548959   -6.9102998     199.0683  0.032849554   0.03384555            4 
  506000    1.0558266   -6.9756033    199.34479   0.03283017  0.033825783            4 
  507000    1.0471564   -6.9437774    199.71178  0.032825737   0.03380687            3 
  508000    1.0543027   -6.9355547    199.84053   0.03278224   0.03378775            2 
  509000    1.0486254   -6.9727293    199.86435  0.032721733  0.033767912            2 
  510000    1.0382053   -6.9604144    200.64519  0.032785162  0.033748423            3 
  511000    1.0511375   -7.0281127    200.29336  0.032663627  0.033728411            2 
  512000    1.0377908   -6.9513798    201.58434  0.032809952  0.033708344            3 
  513000    1.0575535   -6.9417291    201.86673  0.032791866  0.033688964            2 
  514000    1.0617009   -6.9801491    201.47252  0.032664157  0.033669493            1 
  515000    1.0557642   -6.9400295    201.94388  0.032677003  0.033649181            4 
  516000    1.0340593   -6.9630828    203.05713  0.032793464  0.033630025            3 
  517000    1.0419028   -6.9245909    202.82693  0.032692929  0.033611178            3 
  518000    1.0550038    -6.979502    202.40991  0.032562726  0.033591235            2 
  519000    1.0458813   -6.9622345    203.49974  0.032674974  0.033571649            3 
  520000    1.0363037   -6.9687892    203.97906  0.032688951   0.03355221            2 
  521000    1.0391754   -6.9307952    204.54857  0.032717301  0.033533343            2 
  522000     1.040795   -6.9515484    204.18732  0.032596955  0.033514283            1 
  523000     1.026954   -7.0014382    204.36659  0.032563191  0.033494753            2 
  524000    1.0602645   -6.9346995    205.36676  0.032660108   0.03347601            4 
  525000    1.0511682   -6.9631916    205.18997  0.032569836  0.033456588            3 
  526000    1.0422575   -6.9975158    205.06764  0.032488536  0.033436929            2 
  527000    1.0575824   -6.9775575    205.51123  0.032497032  0.033417795            2 
  528000    1.0313318   -6.9757856    205.53882  0.032439839  0.033398574            2 
  529000    1.0351766   -7.0092012    206.15089  0.032474935  0.033379055            1 
  530000    1.0285674   -7.0377393    206.34092  0.032443541  0.033359576            3 
  531000    1.0532902   -6.9444885    206.63761  0.032429004   0.03333981            2 
  532000    1.0415532   -7.0066104    206.25445  0.032308027  0.033319745            1 
  533000    1.0443831   -6.9755241    207.07216  0.032375259  0.033300065            1 
  534000    1.0512539   -7.0165124     207.8669  0.032438655  0.033280609            2 
  535000    1.0533683   -6.9915382    207.56727  0.032331351    0.0332609            4 
  536000    1.0503573   -6.9749787    207.84067  0.032313537  0.033240977            1 
  537000    1.0518849   -7.0027964    208.31057  0.032326283  0.033221002            3 
  538000    1.0287096   -6.9905443    208.56798  0.032306069  0.033201816            1 
  539000     1.023302   -6.9799352    208.36805  0.032215221  0.033182136            3 
  540000    1.0263148   -7.0252615     208.8524  0.032230308  0.033162311            1 
  541000    1.0329586   -6.9887853    208.95305  0.032186237  0.033142046            2 
  542000    1.0322484   -7.0059722    209.62253  0.032229787   0.03312205            3 
  543000     1.058285   -6.9716257    209.96549  0.032223065  0.033102394            2 
  544000    1.0403735   -7.0113832     209.8291  0.032142938  0.033082801            3 
  545000    1.0258833   -6.9897776    210.19147  0.032139368  0.033062988            2 
  546000    1.0511987   -6.9579044    211.00638  0.032204882  0.033043103            2 
  547000    1.0135465   -6.9841462    211.09906  0.032160125  0.033023277            2 
  548000    1.0251977   -7.0046712    210.83017  0.032060549  0.033003318            3 
  549000     1.021683   -6.9681795    211.03661  0.032033486  0.032982997            3 
  550000     1.050683    -6.981674    211.68466  0.032073434   0.03296281            5 
  551000    1.0166359   -6.9862121    211.22724  0.031946044  0.032942865            2 
  552000    1.0376994   -6.9767713    212.35548  0.032058496  0.032922946            1 
  553000    1.0510779   -6.9827387    212.90328  0.032083075  0.032903211            1 
  554000    1.0309786   -6.9950223    212.66897  0.031989918  0.032883422            3 
  555000     1.019244   -6.9903697    212.82007  0.031954965  0.032863132            6 
  556000    1.0351789   -7.0091565    213.64504  0.032021139  0.032843301            1 
  557000    1.0444688   -7.0002436    214.25728  0.032055249  0.032823744            3 
  558000    1.0225467   -6.9681921    214.19972  0.031989205  0.032804515            3 
  559000      1.05378   -6.9821844    213.86562  0.031882174  0.032785058            4 
  560000    1.0239785   -6.9645371    214.28234  0.031887254  0.032765677            4 
  561000    1.0496308   -6.9881009    214.87489  0.031918433  0.032746409            2 
  562000    1.0233252    -6.997682    214.93185  0.031870084  0.032726555            3 
  563000    1.0149216   -7.0477274    214.59872  0.031764167  0.032706857            3 
  564000     1.028414   -7.0179257    215.30004  0.031811471  0.032687396            1 
  565000     1.030135   -7.0306556    216.03835  0.031864063  0.032668045            2 
  566000    1.0305795   -6.9817923     216.2955  0.031845627  0.032648735            6 
  567000    1.0297065   -7.0208925    216.34878  0.031797293  0.032629501            4 
  568000    1.0354406   -6.9785577    217.11072  0.031853098  0.032610545            5 
  569000    1.0570351   -6.9982003    217.07167  0.031791399  0.032591643            2 
  570000    1.0210153   -7.0250262    217.49497  0.031797511   0.03257282            3 
  571000    1.0138334    -7.013868    217.70019  0.031771774  0.032553847            4 
  572000    1.0351339    -6.999678    218.34803   0.03181061   0.03253485            3 
  573000     1.043482   -7.0434986    218.71393  0.031808309  0.032516342            2 
  574000     1.024734   -7.0215309    217.99818  0.031648981  0.032497453            4 
  575000    1.0372588   -6.9902592    219.28476    0.0317804  0.032478546            3 
  576000    1.0482001    -7.005785     218.4817  0.031609042  0.032459704            1 
  577000    1.0440967   -7.0241162    219.03331  0.031633926  0.032440467            4 
  578000    1.0089849   -6.9915054    219.13429  0.031593756  0.032421028            2 
  579000    1.0030737   -7.0057389    220.03504  0.031668831  0.032402083            6 
  580000     1.021475   -7.0219823    219.93933  0.031600479  0.032383118            2 
  581000    1.0210774   -7.0290807     220.5678  0.031636231    0.0323645            5 
  582000    1.0353782   -7.0090789    220.67946  0.031597861  0.032345639            2 
  583000    1.0253307   -7.0054643    221.03176  0.031594019  0.032327064            3 
  584000    1.0110039   -6.9628019    221.18673  0.031562033  0.032308257            3 
  585000    1.0191363   -6.9842356    221.01269   0.03148329  0.032289203            5 
  586000    1.0349527   -6.9899479    221.37435  0.031480994  0.032270072            3 
  587000    1.0037626    -7.002932    221.40961  0.031432369  0.032250692            2 
  588000    1.0159861   -7.0168944    221.65347  0.031413473  0.032231101            2 
  589000    1.0535774   -7.0105097    222.30907  0.031452896   0.03221193            1 
  590000    1.0061101   -7.0279886    221.91578  0.031344036  0.032192694            1 
  591000    1.0125043   -7.0271814    222.73237  0.031406144  0.032173183            3 
  592000    1.0561315   -7.0305811    221.93834  0.031241321  0.032153569            3 
  593000    1.0050276   -7.0391068    222.42016  0.031256347  0.032133575            4 
  594000    1.0246639   -7.0183088    223.36803  0.031336704  0.032113858            4 
  595000    0.9883867   -7.0227552    223.09458   0.03124574  0.032094009            2 
  596000    0.9996469   -7.0158266    223.18046  0.031205321  0.032074281            3 
  597000    1.0292021   -7.0106813    223.63706  0.031216786   0.03205421            7 
  598000    1.0016751   -7.0383229    223.99871  0.031214982  0.032034393            2 
  599000     1.028578    -7.019406    224.67971  0.031257611  0.032014173            2 
  600000    1.0014644   -6.9784715    225.05559  0.031257721  0.031994219            3 
  601000    1.0281177   -7.0320397     224.7605  0.031164794  0.031973847            3 
  602000    1.0083143   -7.0565797      224.075  0.031018134  0.031953454            4 
  603000    1.0166828   -7.0367908    224.75668  0.031060901  0.031933142            2 
  604000    1.0162869   -7.0194181    225.61765  0.031128262  0.031913144            2 
  605000    1.0366394    -6.991316     225.3117   0.03103467  0.031893229            2 
  606000    1.0205219    -7.040936    225.16694  0.030963551  0.031873278            4 
  607000   0.99341104   -7.0449574    226.34961  0.031074905  0.031853376            2 
  608000    1.0059457    -7.053173    226.65578  0.031065759  0.031833655            4 
  609000    1.0175393   -7.0176346    227.00747  0.031062872   0.03181372            2 
  610000     1.013716   -7.0540669    227.05507  0.031018452  0.031793334            3 
  611000    1.0030119   -7.0500562    226.36617  0.030873727  0.031773112            4 
  612000   0.98391343   -7.0355916    226.61866  0.030857661  0.031752948            2 
  613000    1.0253188   -7.0409222      227.363  0.030908511  0.031732603            2 
  614000   0.99693138   -7.0483125    227.23129  0.030840294  0.031712601            2 
  615000    1.0006383    -7.043043    227.31781  0.030801871  0.031692566            2 
  616000    1.0101406    -7.051576     227.7085  0.030804721  0.031672398            3 
  617000    1.0107631   -7.0570759    228.13068  0.030811815  0.031652302            4 
  618000   0.99159321   -7.0679033    227.60102  0.030690536  0.031631677            4 
  619000   0.99747201   -7.0416292    228.58936  0.030774012  0.031610983            3 
  620000   0.99232505   -7.0545177     229.1675  0.030802084  0.031590715            3 
  621000    1.0165618   -7.0501607    229.28532  0.030768293  0.031570537            6 
  622000    1.0089178   -7.0782004    229.07843  0.030691108  0.031550402            1 
  623000   0.98642999   -7.0497713    229.83513  0.030743062  0.031530305            3 
  624000    1.0207815   -7.0301542    230.21351  0.030744326  0.031510175            2 
  625000    1.0355048   -7.0527386    229.62381  0.030616508  0.031489851            2 
  626000    1.0216095   -7.0588202    230.29916  0.030657502   0.03146947            2 
  627000    1.0188103    -7.034499     231.0023   0.03070206  0.031449353            6 
  628000   0.98798852   -7.0756408    230.65523  0.030607117   0.03142926            5 
  629000   0.98659981    -7.063419    231.31111  0.030645351  0.031409085            2 
  630000   0.99007558   -7.0424575    231.43789  0.030613478  0.031388953            2 
  631000    1.0183631   -7.0882109    230.80914  0.030481925   0.03136856            3 
  632000   0.98822129   -7.0592661     231.5761  0.030534823  0.031348223            2 
  633000    0.9988968   -7.0721539    231.22421   0.03044026  0.031327721            2 
  634000    1.0022161   -7.0643511    231.95377  0.030488141  0.031307315            3 
  635000    0.9807124   -7.0487077    232.27309  0.030482033  0.031286962            3 
  636000   0.98692192   -7.0489267    233.09452  0.030541735  0.031266662            3 
  637000    1.0075205   -7.0622663     231.9074  0.030338488   0.03124611            3 
  638000    0.9975062   -7.0689491    231.92553  0.030293303  0.031225315            3 
  639000   0.99931578   -7.0913445    232.22042  0.030284354  0.031204527            4 
  640000    1.0101154    -7.027342    233.70123  0.030429848  0.031184375            2 
  641000   0.99926604   -7.0407698    234.30308  0.030460618  0.031164195            3 
  642000    1.0165517   -7.0472197    233.96364  0.030369112  0.031144505            3 
  643000    1.0176905   -7.0721517    234.52957  0.030395227   0.03112446            2 
  644000    1.0048276   -7.0484068    234.73504  0.030374617  0.031104067            3 
  645000    1.0005838   -7.0635927    234.93297  0.030353096  0.031084093            2 
  646000   0.99221153   -7.0174896    235.49361  0.030378433  0.031064018            2 
  647000    1.0042699   -7.0581017    234.86375  0.030250354  0.031043505            4 
  648000   0.99631714   -7.1101868    235.35526   0.03026688  0.031022851            2 
  649000   0.97247454   -7.0785154    235.54303  0.030244354  0.031002479            2 
  650000    1.0051765   -7.0512549    235.70978  0.030219202  0.030982174            3 
  651000   0.99226538    -7.075608    235.56576  0.030154347   0.03096202            2 
  652000   0.98663615   -7.0611903     236.1827   0.03018695  0.030941977            3 
  653000   0.99750371   -7.0351351    235.85522   0.03009893  0.030921663            1 
  654000    0.9873425   -7.0877166    237.17329  0.030220858  0.030901293            2 
  655000    0.9869462   -7.0738149    236.75226  0.030121153  0.030880899            2 
  656000    1.0043917   -7.0564757    236.98872  0.030105274  0.030860811            2 
  657000    1.0090276   -7.1050116    236.46401  0.029992898  0.030840543            3 
  658000   0.96181445   -7.0863089    237.07016  0.030024084  0.030820062            4 
  659000   0.98514136   -7.0712179    237.78615  0.030069063  0.030799249            3 
  660000   0.98860899    -7.077335    237.36055  0.029969766  0.030778719            2 
  661000   0.99390589     -7.08787    237.75012   0.02997354  0.030758079            2 
  662000     0.991276   -7.0928037    237.95141  0.029953602   0.03073743            1 
  663000   0.99624663   -7.0756538    238.60353  0.029990388  0.030716861            2 
  664000   0.97878589   -7.0749015    238.20579  0.029895305  0.030696485            5 
  665000   0.97645336   -7.0780857    238.35348  0.029868857  0.030676106            1 
  666000   0.96813483   -7.0986436    239.31738  0.029944618  0.030655986            2 
  667000   0.97724721   -7.0509692    238.73612  0.029827101  0.030635447            4 
  668000   0.98552877   -7.0771504     239.2126  0.029841892  0.030614973            5 
  669000   0.99401578   -7.1010599    239.59156  0.029844489  0.030594618            5 
  670000   0.99852486   -7.1006653    240.33131  0.029891953  0.030574302            5 
  671000   0.97011201   -7.0830734    239.24516  0.029712513  0.030554126            3 
  672000   0.99518549   -7.0444409    240.60566  0.029837012  0.030533783            2 
  673000   0.98097071   -7.1041875    240.14956  0.029736201  0.030513398            3 
  674000   0.97596517   -7.0901464     240.9507  0.029791134  0.030493388            3 
  675000    1.0105421   -7.0989169    240.61099   0.02970506  0.030473102            2 
  676000    0.9826245   -7.0656857    241.32226  0.029748799  0.030452938            3 
  677000   0.97387495   -7.0872739     241.1297  0.029681154  0.030432791            2 
  678000   0.97965372   -7.0718983    241.61071  0.029696499  0.030412633            3 
  679000   0.98551133   -7.0965178    241.68435  0.029661801  0.030392257            2 
  680000   0.98760288   -7.0932478    241.85146   0.02963866  0.030372341            3 
  681000   0.94102613   -7.1150937    242.07636  0.029622658  0.030352024            1 
  682000   0.99458302    -7.127966    241.76612  0.029541315   0.03033172            2 
  683000   0.97728452   -7.1092678    242.05728  0.029533587  0.030311232            2 
  684000    0.9564586   -7.1426076    242.15559  0.029502387  0.030290588            4 
  685000   0.96794897   -7.1241225    242.89749  0.029549572  0.030269998            2 
  686000    1.0121889   -7.1048819    243.11493  0.029532912  0.030249841            3 
  687000   0.98009089   -7.0735724    244.06036  0.029604605   0.03023014            4 
  688000   0.98911091   -7.1251407    243.92065  0.029544652  0.030210372            6 
  689000   0.96530898   -7.1198081    244.79631  0.029607681  0.030190437            3 
  690000   0.96328223   -7.1432682    244.81595  0.029567144  0.030170951            3 
  691000   0.97662573   -7.1135815     244.4533   0.02948062  0.030151504            6 
  692000    0.9740589   -7.0631773    246.09659  0.029635909  0.030132289            2 
  693000    0.9869119   -7.1164323    246.11573  0.029595446  0.030113415            5 
  694000   0.96744294   -7.1004003    246.64452  0.029616297  0.030094867            4 
  695000   0.97786409   -7.1166922     247.0013  0.029616463  0.030076189            2 
  696000   0.99477954   -7.1136398    246.61174  0.029527268  0.030057524            4 
  697000   0.94971887    -7.126569    245.94206  0.029404838  0.030038505            2 
  698000   0.98369226   -7.1215856    246.87082  0.029473593  0.030019445            2 
  699000   0.98685873   -7.0940675    247.45874  0.029501518  0.030000725            2 
  700000   0.96595487     -7.12942     246.5853  0.029355393  0.029981704            3 
  701000   0.97232597   -7.0993341    247.27521  0.029395531  0.029962533            3 
  702000   0.98371109   -7.1121318    247.54803  0.029386043  0.029943322            3 
  703000     0.971644   -7.1103017    248.19359  0.029420767  0.029924001            4 
  704000   0.97292132   -7.1041924    247.71878  0.029322772   0.02990474            2 
  705000   0.97594099   -7.1505054     247.9599   0.02930968  0.029885793            3 
  706000   0.98141156   -7.0964457    248.03321  0.029276819  0.029866449            2 
  707000   0.95084735   -7.1449965    248.11932  0.029245558  0.029847194            2 
  708000   0.98133073   -7.0900198    249.14653  0.029325157   0.02982806            3 
  709000   0.96567078   -7.1334328    248.33666  0.029188606  0.029808833            5 
  710000   0.97365408   -7.1504984    248.94468  0.029218859    0.0297894            3 
  711000   0.99005261   -7.1118606    249.00981  0.029185398  0.029770368            3 
  712000    0.9813622   -7.1257917    249.72852  0.029228525  0.029751436            2 
  713000   0.95580873   -7.1057365    250.51077  0.029278958  0.029732613            4 
  714000   0.96901728   -7.0965221    250.00647  0.029179093  0.029713852            3 
  715000   0.98199332   -7.1391864    250.82183  0.029233314  0.029694908            3 
  716000   0.97541966   -7.1268337    250.39909  0.029143284  0.029676038            2 
  717000   0.95363827   -7.1519648    249.88742  0.029043168  0.029657054            3 
  718000   0.96469559   -7.1256359    251.44147  0.029183086  0.029637931            4 
  719000   0.95452498   -7.1241439    250.93338  0.029083609  0.029618776            2 
  720000   0.96028131    -7.156267    250.34133  0.028974691  0.029599487            1 
  721000   0.96127105   -7.1351131    250.67075  0.028972579  0.029580196            3 
  722000   0.96849388   -7.1216178    251.41409  0.029018247  0.029560928            3 
  723000    0.9693876   -7.1268003    250.54796  0.028878281  0.029541867            7 
  724000   0.97120556   -7.1403026    251.30099  0.028925068  0.029522528            2 
  725000   0.96027979   -7.1082153    251.49637  0.028907629  0.029503469            2 
  726000   0.96409388   -7.1136958    251.74404   0.02889624  0.029484212            4 
  727000   0.95447444   -7.1190181     251.8485  0.028868467  0.029464898            5 
  728000   0.97510466    -7.138437    251.66587  0.028807907  0.029445539            4 
  729000   0.96596582   -7.1428126    251.88868  0.028793859  0.029425906            5 
  730000   0.98658431   -7.1286234    252.33993  0.028805928  0.029406165            3 
  731000   0.95813426   -7.1491102    252.08613  0.028737589  0.029386597            2 
  732000   0.95371056   -7.1604271    252.58163  0.028754739  0.029367017            2 
  733000   0.96804047   -7.1276549     253.1653  0.028781866  0.029347527            4 
  734000   0.96018184   -7.1547436    253.02377  0.028726586  0.029327976            2 
  735000   0.95645933   -7.1425108    253.30065  0.028718894  0.029308356            3 
  736000   0.96372685   -7.1734487    253.12923  0.028660465  0.029288873            4 
  737000   0.95660451   -7.1451232    253.95462  0.028714905  0.029269373            2 
  738000   0.97236711   -7.1553491    253.54133  0.028629328  0.029249921            4 
  739000   0.94855326    -7.172392    253.89027  0.028629935  0.029230299            2 
  740000   0.95051657   -7.1731895    254.31686  0.028639286  0.029210901            4 
  741000   0.97194621   -7.1341813     254.9207  0.028668544  0.029191522            3 
  742000   0.96835328   -7.1592395    255.16703  0.028657573  0.029172003            2 
  743000   0.96471959   -7.1581477    255.36426  0.028641124  0.029152678            4 
  744000   0.93276685   -7.1544676    255.49194  0.028616929  0.029133382            2 
  745000   0.96856044    -7.188594    254.51014  0.028468695  0.029114045            2 
  746000    0.9431061   -7.1470951    255.31396  0.028520326  0.029094576            3 
  747000   0.95515689   -7.1292616    255.63178  0.028517601  0.029075221            4 
  748000   0.96073915   -7.1557753    255.13445   0.02842407  0.029055737            4 
  749000   0.97394069   -7.1579263    255.80975  0.028461254  0.029036135            6 
  750000   0.94739074    -7.135809    255.78096  0.028420107  0.029016606            7 
  751000   0.96262723   -7.1515929    255.54523  0.028356106  0.028996895            3 
  752000   0.95036507   -7.1273795    256.61412  0.028436849   0.02897723            3 
  753000   0.97310974   -7.1352218    256.54793  0.028391759  0.028957825            4 
  754000   0.94208538   -7.1606974    256.85387  0.028387917  0.028938259            1 
  755000   0.95209845    -7.139565    257.54349  0.028426433  0.028918955            2 
  756000   0.93703633   -7.1727322    257.30022  0.028362017  0.028899666            3 
  757000   0.96241397   -7.1198649    257.87039  0.028387318  0.028880435            3 
  758000   0.93689783   -7.1709526     257.9456  0.028358136  0.028861168            3 
  759000   0.94090109   -7.2043302    257.27395   0.02824703  0.028841733            4 
  760000   0.96042807   -7.1617532     257.5617  0.028241414  0.028822516            4 
  761000   0.94914541   -7.1606458    259.05128   0.02836742  0.028803255            4 
  762000   0.96548835   -7.1955356    258.57079  0.028277645  0.028784407            4 
  763000   0.95563984   -7.1813225    258.86198  0.028272387   0.02876545            1 
  764000   0.95390373   -7.1707464    258.96099  0.028246181  0.028746678            6 
  765000   0.94876417   -7.1391743    259.76424  0.028296758  0.028728145            3 
  766000   0.95582335   -7.1734585    260.33662  0.028322086  0.028709722            2 
  767000   0.94225699   -7.1615366    260.70687  0.028325388  0.028691365            7 
  768000   0.94399245    -7.185963    259.90033  0.028200991    0.0286729            2 
  769000    0.9571973   -7.1869717    260.53461  0.028233052  0.028654433            2 
  770000   0.95836239   -7.1898404    260.42386    0.0281844  0.028635921            5 
  771000   0.95653331   -7.1737527    261.60828  0.028275862  0.028617479            1 
  772000   0.96245411   -7.2387705    260.97603  0.028170988  0.028599309            3 
  773000   0.94014203   -7.2100156    261.52005  0.028193192  0.028580848            2 
  774000   0.92601333   -7.1639113    261.74459  0.028180943  0.028562695            4 
  775000   0.96004473   -7.1923709    262.30686  0.028205039  0.028544656            2 
  776000   0.94138936   -7.1729668    262.56291  0.028196189  0.028526565            2 
  777000   0.97380983   -7.1846292    260.89839   0.02798138  0.028508091            3 
  778000   0.95703766   -7.1594045    262.39107  0.028105299  0.028489538            5 
  779000   0.95157162    -7.213431    262.30544   0.02806006  0.028471178            2 
  780000   0.95908477   -7.2104579    262.15535   0.02800805  0.028452598            4 
  781000   0.92011947   -7.1857974    263.24037   0.02808796  0.028434145            2 
  782000   0.93430138   -7.1895108    262.86689  0.028012243  0.028415995            2 
  783000   0.93143751   -7.1756623    263.86839  0.028083056  0.028398074            3 
  784000   0.93981739   -7.1774244    264.01563  0.028062886  0.028379975            4 
  785000   0.93776276   -7.2040222    263.63879  0.027987133  0.028362124            3 
  786000    0.9407897   -7.2078567    263.85336  0.027974275  0.028344385            2 
  787000   0.96584559   -7.1753853    264.41363  0.027998054  0.028326543            2 
  788000   0.92490707   -7.1719541    264.63217  0.027985635  0.028308574            4 
  789000   0.92657576   -7.1796982    264.03201  0.027886778  0.028290609            2 
  790000    0.9361278   -7.1506481    264.75014   0.02792723  0.028272645            5 
  791000   0.94212003   -7.1619523    265.01509  0.027919837  0.028254671            3 
  792000   0.95050834   -7.1808954    264.79927  0.027861876  0.028236801            2 
  793000   0.93203025   -7.2109974    265.19097  0.027867904  0.028218868            2 
  794000   0.93042307   -7.1915319    265.49546  0.027864763  0.028200943            2 
  795000   0.94784456   -7.1876394    265.35797  0.027815301  0.028183245            2 
  796000   0.95403147   -7.2367843    265.97758  0.027845224  0.028165409            3 
  797000   0.95867825   -7.1834804    266.11948  0.027825123   0.02814763            2 
  798000   0.94166574   -7.2025588    266.69006  0.027849839  0.028129914            3 
  799000   0.92989525   -7.2165999    265.60216  0.027701518  0.028111934            1 
  800000   0.93640226   -7.1833744    266.18152  0.027727242  0.028093873            3 
  801000   0.93750001   -7.1912141    266.65055  0.027741423  0.028076115            5 
  802000   0.96079413   -7.1927986    267.33279  0.027777722  0.028058221            2 
  803000   0.92763529   -7.2277377    266.95404  0.027703823  0.028040381            1 
  804000   0.91898009   -7.1703275    267.10498  0.027685011  0.028022634            3 
  805000   0.93315324   -7.2034904    267.10415  0.027650533  0.028004852            2 
  806000    0.9399653   -7.2043146    267.87619  0.027696049  0.027987055            4 
  807000   0.90390019    -7.179703    267.98066  0.027672517  0.027969129            2 
  808000   0.93410764   -7.2046243    267.75326  0.027614817  0.027950873            3 
  809000   0.92641606   -7.2261547    267.67811  0.027572941  0.027932832            6 
  810000   0.93337409   -7.2075927    268.67525  0.027641486  0.027914868            3 
  811000   0.92947584   -7.2247845    268.34379  0.027573344   0.02789701            2 
  812000   0.92305471   -7.2166916     268.8743  0.027593832   0.02787899            3 
  813000   0.94975881   -7.1994735    268.80188  0.027552469  0.027860999            4 
  814000   0.92170149   -7.2104228    268.80472  0.027518911  0.027843062            2 
  815000   0.94429694   -7.1937087    269.79482  0.027586382  0.027825259            3 
  816000   0.94897263   -7.2060153    269.00708  0.027472128  0.027807541            2 
  817000    0.9082758   -7.2132451    269.33434  0.027471883  0.027789746            6 
  818000   0.92125803     -7.19294    269.22815  0.027427481  0.027772031            4 
  819000   0.92204719   -7.2195036    268.87856  0.027358421  0.027754042            3 
  820000   0.92000956   -7.1716834    270.45695  0.027485463  0.027736136            4 
  821000   0.90897872   -7.2378816    269.99472  0.027405067  0.027718177            2 
  822000   0.94278909   -7.2034027    270.49492  0.027422437  0.027700093            2 
  823000   0.94557254   -7.2365423    270.66674  0.027406514   0.02768232            4 
  824000   0.92465579    -7.219827    270.79057  0.027385777  0.027664637            2 
  825000   0.90618281   -7.2349923    271.05189  0.027378979  0.027646943            4 
  826000   0.94017086   -7.2300467    271.20443  0.027361221  0.027629049            2 
  827000    0.9248193   -7.2021969    271.42762  0.027350627  0.027611268            3 
  828000   0.92152172   -7.2301046    271.36654  0.027311447  0.027593709            3 
  829000   0.92514477   -7.2233467    272.03966  0.027346166  0.027576144            2 
  830000   0.92837162   -7.2121084    271.41774  0.027250777  0.027558575            5 
  831000   0.93128884   -7.2450763     271.5024  0.027226474   0.02754101            2 
  832000   0.92055752   -7.2170538    272.08314  0.027251918  0.027523464            3 
  833000   0.94478107   -7.2533752     272.4851  0.027259414  0.027506149            2 
  834000   0.92641617   -7.2441473    273.81323  0.027359436  0.027489001            2 
  835000   0.91405279   -7.2049173    273.10743  0.027256231  0.027471656            3 
  836000   0.91146647   -7.2483313    272.80638  0.027193618  0.027454459            2 
  837000   0.91684319   -7.2213824    273.46445  0.027226648  0.027437164            3 
  838000   0.91898524    -7.224888    273.69648  0.027217231  0.027420001            4 
  839000    0.9194796   -7.2456824    273.86235  0.027201266  0.027402855            1 
  840000   0.92725332   -7.2024377    274.48996  0.027231147  0.027385768            3 
  841000   0.89534152   -7.2229319    274.33568   0.02718348  0.027368701            6 
  842000   0.90949861   -7.2057705    274.75281   0.02719248  0.027351378            2 
  843000   0.91440335   -7.2198366    273.91687  0.027077587  0.027333985            8 
  844000   0.91268563   -7.2383747    274.12316  0.027065873  0.027316696            3 
  845000   0.91389068    -7.251296    274.25056  0.027046406  0.027299028            2 
  846000   0.90066671    -7.228738    274.85568  0.027074043  0.027281771            4 
  847000   0.90765484   -7.2383796    274.83384  0.027039929  0.027264378            6 
  848000   0.90168983   -7.2223561    275.24694  0.027048638  0.027247052            3 
  849000   0.91432579   -7.1987053    274.84103  0.026976936  0.027229611            4 
  850000   0.92778601   -7.2363927     275.5955  0.027019167  0.027212066            4 
  851000   0.90636553   -7.2324519    275.18636  0.026947352  0.027194456            2 
  852000   0.92697797    -7.251163    275.25758   0.02692269     0.027177            8 
  853000    0.9076936   -7.2137905    275.05168  0.026871012  0.027159343            5 
  854000   0.89538086     -7.25309    275.29873  0.026863654  0.027141604            3 
  855000   0.91480031   -7.2728911    275.79705  0.026880804  0.027123941            2 
  856000   0.91414654   -7.2411675    275.69527  0.026839493  0.027106228            4 
  857000   0.90804746   -7.2800164    275.71416  0.026810012  0.027088379            4 
  858000   0.90868526   -7.2801442    275.18473  0.026727344  0.027070375            5 
  859000   0.91404889   -7.2808339    275.76532  0.026752553  0.027052423            4 
  860000   0.89596134   -7.2625538    275.71338  0.026716412  0.027034282            2 
  861000    0.9050081   -7.2470895    275.97567  0.026710769  0.027016282            2 
  862000   0.89778881   -7.2636641    276.12743  0.026694454  0.026998354            4 
  863000   0.89285792   -7.2744589    276.30912  0.026681066  0.026980357            2 
  864000   0.91202251   -7.2326066     276.3217  0.026651398  0.026962507            2 
  865000   0.90146913    -7.268818     277.3836   0.02672289  0.026944823            3 
  866000   0.90937403   -7.2808088    276.52746  0.026609648  0.026927055            4 
  867000   0.92028793   -7.2401094    276.92882  0.026617533  0.026909367            3 
  868000   0.90669299   -7.2655044     278.2737  0.026715985  0.026891773            4 
  869000   0.90111648   -7.2886765    276.63253  0.026527861  0.026874054            2 
  870000   0.88972242   -7.2501035    277.88185  0.026617035  0.026856393            3 
  871000    0.8962623   -7.2585016    278.65104  0.026660069  0.026838872            9 
  872000   0.90980809   -7.2899849    277.97699   0.02656508   0.02682134            7 
  873000   0.89582635    -7.257234    278.46047  0.026580801  0.026803747            2 
  874000   0.89396997   -7.2855115    278.47497  0.026551771  0.026786124            2 
  875000   0.89639864   -7.2575907    278.61138  0.026534417  0.026768625            3 
  876000   0.90390978   -7.2417176    278.64308  0.026507143  0.026750998            2 
  877000   0.90316452   -7.2343934    279.33163  0.026542344  0.026733443            3 
  878000   0.87376626   -7.2936272    278.73143  0.026455148  0.026715831            4 
  879000   0.87759231    -7.301613    278.47167  0.026400424   0.02669806            1 
  880000   0.91941365   -7.2504668    279.23135  0.026442363  0.026680601            2 
  881000   0.90225786   -7.2692342     279.3993  0.026428235  0.026663028            3 
  882000   0.91353918   -7.2385875    279.87684   0.02644339  0.026645652            4 
  883000   0.89707023   -7.2517412    279.74532  0.026401031  0.026628245            6 
  884000   0.89791074   -7.2534355    279.48041  0.026346193  0.026610945            2 
  885000   0.90457819   -7.2718376    280.03552  0.026368693  0.026593606            2 
  886000   0.88084506   -7.2700833    280.25082  0.026359182  0.026576398            6 
  887000   0.89351841   -7.2784964    280.68201  0.026369974   0.02655919            6 
  888000   0.88832437   -7.2678109    281.77328  0.026442687  0.026542027            4 
  889000   0.89167899   -7.2595233    280.84144  0.026325594  0.026525007            3 
  890000   0.87100857   -7.2714264     281.4031  0.026348605  0.026507968            2 
  891000   0.87572449   -7.3075048    280.92728  0.026274531  0.026490872            3 
  892000   0.88049866   -7.2834297    281.48186  0.026296886  0.026473858            7 
  893000   0.89313053   -7.2614683     282.1396  0.026328817  0.026456951            4 
  894000   0.90859542   -7.2637413    282.53759  0.026336465  0.026440001            5 
  895000   0.89677728   -7.2796859     282.2895  0.026283939  0.026423023            1 
  896000   0.89398753   -7.2859759    282.16861   0.02624336  0.026405987            2 
  897000   0.91047479   -7.2992551     281.7499  0.026175204  0.026388882            4 
  898000   0.90689975   -7.2970084    282.32598  0.026199515  0.026371606            4 
  899000   0.89523994   -7.2917069    283.11973   0.02624395   0.02635445            2 
  900000   0.87424277   -7.3021714    282.96264  0.026200244  0.026337391            5 
  901000    0.8964503   -7.2954309    282.08368  0.026089871  0.026320278            3 
  902000   0.87942339   -7.2689317    282.85486  0.026132194  0.026303109            7 
  903000   0.89125206   -7.2944525    283.30846  0.026145114  0.026286038            3 
  904000   0.88880462   -7.2942887    282.95006  0.026083154  0.026268853            3 
  905000   0.88346363   -7.2732647    283.11049  0.026069106  0.026251549            3 
  906000   0.88120195    -7.289107    284.29981  0.026149725  0.026234579            3 
  907000   0.88418183   -7.2556577    284.45948  0.026135564  0.026217744            2 
  908000   0.90584567   -7.2782155     284.3482  0.026096568  0.026201069            3 
  909000   0.87200537   -7.2773747    285.16621   0.02614285  0.026184417            5 
  910000   0.91659802   -7.3133718    284.19671   0.02602534  0.026167641            6 
  911000   0.89190199    -7.256284    285.18369  0.026087055  0.026150961            3 
  912000   0.90072957   -7.3285964    284.60844  0.026005888  0.026134147            5 
  913000   0.89023692   -7.2901457    286.37007  0.026138195  0.026117418            3 
  914000   0.88606354   -7.3127316    285.34106  0.026015779  0.026100699            3 
  915000   0.89868654   -7.3076079    285.11296  0.025966572  0.026084042            2 
  916000   0.90000344   -7.3138338    284.66739  0.025897689  0.026067368            3 
  917000   0.87626782   -7.3262536    285.02135  0.025901613  0.026050509            6 
  918000   0.89473615   -7.3121253    285.61712   0.02592748  0.026033752            9 
  919000   0.89715839   -7.3037687    285.41028  0.025880511  0.026016731            2 
  920000    0.8838559   -7.3002199    285.15929  0.025829646   0.02599973            4 
  921000   0.88500432   -7.3074661    285.92886  0.025871232  0.025982934            2 
  922000   0.89409282   -7.2881611     286.0116   0.02585065  0.025966063            2 
  923000    0.8630902   -7.2766961    286.83559  0.025897038  0.025949085            3 
  924000   0.87145239    -7.306427    285.02418  0.025705644  0.025932055            2 
  925000   0.87837775   -7.3331559    286.07137  0.025772195  0.025915069            2 
  926000   0.90349393   -7.3244009    286.36415  0.025770712  0.025898092            2 
  927000    0.8884516   -7.2715726    286.44259  0.025749963  0.025881222            3 
  928000   0.87713441   -7.2805916    287.46149  0.025813711  0.025864419            4 
  929000   0.89857639   -7.3142994    285.89375  0.025645295  0.025847541            3 
  930000   0.88153176    -7.281594    287.07167  0.025723268  0.025830614            2 
  931000   0.89038347   -7.3583007    286.47004  0.025641787  0.025813714            2 
  932000   0.89251758   -7.3073139    286.88668  0.025651527  0.025796777            6 
  933000   0.89548214   -7.3181747    287.26466  0.025657794  0.025779613            3 
  934000   0.88891238   -7.3086121    286.57269  0.025568584  0.025762646            4 
  935000   0.89898323    -7.301265    286.75827  0.025557778  0.025745548            6 
  936000   0.87458475   -7.2750248    287.02988  0.025554655  0.025728338            3 
  937000   0.87654644   -7.3089549    287.93464  0.025607847  0.025711273            3 
  938000   0.87004549   -7.3037076    287.17168  0.025512765  0.025694066            2 
  939000   0.87589989   -7.3216934    287.54887  0.025519069  0.025676827            2 
  940000   0.87796788   -7.2774523    288.56398  0.025581913  0.025659668            3 
  941000   0.87499287   -7.3092422    288.13031  0.025516322  0.025642475            3 
  942000     0.868309   -7.3295657    287.61489  0.025443638  0.025625264            3 
  943000   0.88458236    -7.316941     288.2966    0.0254769  0.025608144            2 
  944000   0.86032226    -7.322302    287.93468  0.025417962   0.02559101            2 
  945000   0.89534536   -7.3468641    288.92446  0.025478348  0.025574007            4 
  946000   0.87156222   -7.3436885    288.54262  0.025417778  0.025556976            2 
  947000   0.88650187   -7.3197567     288.7088  0.025405562   0.02553994            4 
  948000   0.86745585   -7.2599495    289.33414  0.025433732  0.025522923            4 
  949000   0.87193376   -7.3447838    288.76651  0.025357087  0.025505939            4 
  950000   0.86185074   -7.3496705     289.7403  0.025415815  0.025489058            2 
  951000   0.86400232   -7.3351363    289.08028  0.025331255  0.025472206            3 
  952000    0.8626059   -7.3282663    289.80685  0.025368246  0.025455399            2 
  953000   0.84784528   -7.3392318    289.11878   0.02528146  0.025438551            4 
  954000   0.87841554    -7.360087    289.00649  0.025245151  0.025421428            3 
  955000   0.87724935   -7.3396044    290.28272   0.02533008  0.025404501            2 
  956000   0.85906934   -7.3448529    289.85142  0.025265989  0.025387696            2 
  957000   0.86466173   -7.3030685    290.63434  0.025307762  0.025370967            4 
  958000   0.86907216     -7.33161    290.40135  0.025261078  0.025354026            3 
  959000   0.86664951   -7.2944018    290.35617  0.025230811  0.025337169            3 
  960000   0.86144141    -7.356123    290.22699  0.025193315   0.02532018            6 
  961000   0.86945574    -7.347416    290.15636  0.025160974  0.025303184            4 
  962000   0.88852075   -7.3342397    290.13511  0.025132979  0.025286154            4 
  963000   0.86623782   -7.3337343    289.95571  0.025091356  0.025269043            3 
  964000   0.85980301   -7.3511963    290.28981  0.025094209  0.025251978            4 
  965000    0.8628022   -7.3393235    291.41241  0.025165147  0.025234979            2 
  966000   0.88003799   -7.3421143    290.79765  0.025086064  0.025217945            6 
  967000   0.86037734   -7.3293966    291.21955   0.02509648  0.025200719            6 
  968000    0.8681852   -7.3571586    290.36821  0.024997263  0.025183499            1 
  969000   0.85385396   -7.3502369    290.19045  0.024956179  0.025166142            2 
  970000     0.861327   -7.3825147    291.52144  0.025044797  0.025148947            3 
  971000   0.85280806   -7.3261063    291.00232  0.024974452  0.025131626            3 
  972000   0.87671475   -7.3444568    291.02557  0.024950752  0.025114316            3 
  973000   0.85757763   -7.3664931    291.49656  0.024965447  0.025097108            5 
  974000   0.87061032   -7.3575326    291.27614  0.024920956  0.025080034            3 
  975000   0.85684816   -7.3605631    291.68088  0.024929989  0.025062851            5 
  976000   0.85977626   -7.3680725    291.91989  0.024924854   0.02504565            3 
  977000   0.86388582   -7.3897925    291.50495   0.02486395   0.02502866            5 
  978000    0.8508832   -7.3510336    292.02425  0.024882775  0.025011648            1 
  979000   0.86131201   -7.3283847    292.38052  0.024887685  0.024994649            3 
  980000   0.85607636   -7.3309974    293.04822  0.024919066  0.024977969            4 
  981000   0.85659281    -7.334744    292.94071  0.024884532  0.024961174            2 
  982000    0.8483653   -7.3586599    292.99121  0.024863477  0.024944365            3 
  983000   0.87704704    -7.341897    293.35183  0.024868755  0.024927546            5 
  984000   0.85815458   -7.3680493    293.02394  0.024815713  0.024910787            2 
  985000   0.85531925     -7.35228    293.08168  0.024795405  0.024894042            3 
  986000   0.85915497   -7.3785575    292.44771  0.024716676  0.024877118            2 
  987000   0.84729471   -7.3594924    292.77927  0.024719628  0.024860172            2 
  988000   0.86506789   -7.3716629    292.20808   0.02464643  0.024843244            6 
  989000   0.84512877   -7.3733201    292.51969  0.024647766  0.024826126            5 
  990000   0.87074792   -7.3792409    293.01659  0.024664696  0.024809143            4 
  991000   0.85665665   -7.3798153    293.23735  0.024658371  0.024792096            2 
  992000   0.87109134   -7.3745805    292.86429  0.024602175  0.024775101            5 
  993000   0.85539227   -7.3842579    293.79831  0.024655783  0.024758152            5 
  994000   0.85573601    -7.352414    293.55656  0.024610711  0.024741175            3 
  995000   0.85895712   -7.3677366     294.2191  0.024641466  0.024724128            6 
  996000   0.86147818   -7.3331637    293.84316  0.024585271  0.024707132            5 
  997000   0.86248189   -7.3787121    293.95115  0.024569638   0.02469008            7 
  998000   0.85579487   -7.3605455    294.65493  0.024603785  0.024673187            1 
  999000   0.86873678   -7.3827121    294.98701  0.024606858  0.024656283            6 
 1000000   0.84732739   -7.3544868    293.82713  0.024485595  0.024639157            3 
 1001000   0.83392702   -7.3422334    294.38385   0.02450748  0.024622129            3 
 1002000   0.86097182   -7.3669884    294.19644  0.024467435  0.024605024            3 
 1003000   0.85523083   -7.3672254    295.04615  0.024513639  0.024587959            3 
 1004000   0.85531422    -7.407636    294.77924  0.024467069  0.024570896            2 
 1005000   0.83835205   -7.3814264     295.0378  0.024464162  0.024553781            3 
 1006000   0.85798169     -7.38368    294.32539  0.024380831  0.024536758            3 
 1007000   0.84415813   -7.3718598     294.6776  0.024385766  0.024519688            3 
 1008000   0.86673226   -7.3496622    295.30949  0.024413814   0.02450251            3 
 1009000   0.84776873   -7.3864868    294.29826    0.0243061  0.024485473            3 
 1010000    0.8450619    -7.403751     294.4355  0.024293358  0.024468323            3 
 1011000   0.84847887   -7.3983516    294.82662  0.024301568  0.024451233            3 
 1012000   0.85441415   -7.3779772    295.77465   0.02435562  0.024434225            3 
 1013000   0.85480712    -7.394312    295.07996  0.024274429  0.024417204            3 
 1014000   0.85099224   -7.3764534    295.59568  0.024292873  0.024400244            5 
 1015000   0.86359048   -7.3882788     296.7027  0.024359827  0.024383315            2 
 1016000   0.86750866   -7.3614665    296.62862  0.024329775   0.02436656            4 
 1017000   0.84524548   -7.3825853    295.83513  0.024240833  0.024349858            3 
 1018000    0.8675069   -7.3630099    295.94882  0.024226327  0.024333024            6 
 1019000   0.83705354   -7.4122248    296.50889  0.024248355  0.024316047            3 
 1020000   0.85501627   -7.3962707    296.48007  0.024222228  0.024299042            1 
 1021000     0.812978   -7.3970259    296.28198  0.024182336  0.024282179            4 
 1022000   0.84261687   -7.4222096    296.20616  0.024152492   0.02426529            4 
 1023000   0.86174858    -7.407977    296.79389  0.024176759  0.024248376            2 
 1024000   0.83947653    -7.370841    296.86673  0.024159076  0.024231584            5 
 1025000   0.83634527     -7.39066     296.7573   0.02412661  0.024214743            3 
 1026000   0.83942478   -7.3774171    296.97615   0.02412087  0.024197919            6 
 1027000   0.85568098   -7.4021052    296.54713  0.024062572  0.024181108            4 
 1028000   0.83383436   -7.4045106    296.65408  0.024047834  0.024164152            9 
 1029000   0.83836322   -7.4145821    296.39475  0.024003462  0.024147179            4 
 1030000   0.83661339   -7.4073235    296.45604  0.023985116   0.02413021            2 
 1031000   0.85098316   -7.3926323    296.82706  0.023991841  0.024113325            4 
 1032000   0.82835869   -7.4005273    298.13962  0.024074582  0.024096494            4 
 1033000   0.84898187   -7.4495004    297.10771   0.02396803  0.024079586            3 
 1034000   0.82921982   -7.4207714    297.60441  0.023984881  0.024062611            4 
 1035000   0.84055435   -7.4129762     297.4528  0.023949501  0.024045872            2 
 1036000   0.83297351   -7.3784007    298.71141  0.024027623  0.024029071            5 
 1037000    0.8226441   -7.4108343    297.13389  0.023877683  0.024012205            2 
 1038000    0.8371814   -7.3985976    297.54859  0.023887973  0.023995293            3 
 1039000   0.83572305   -7.4217232    298.17483  0.023915209  0.023978364            5 
 1040000   0.84995967   -7.4082901    298.10075  0.023886278  0.023961511            3 
 1041000   0.83043817   -7.3639747    298.08608  0.023862158  0.023944569            2 
 1042000   0.82672783   -7.4140798     297.5797   0.02379876  0.023927702            8 
 1043000   0.83763335   -7.4011716    297.74592  0.023789223   0.02391084            4 
 1044000   0.83509759   -7.4024044    298.92915  0.023860883  0.023893909            2 
 1045000   0.81923199   -7.4296299    297.95619  0.023760462  0.023877005            2 
 1046000   0.83672236    -7.407784    298.76394  0.023802098  0.023860039            2 
 1047000   0.83755767   -7.3900618    299.32112  0.023823712  0.023843188            2 
 1048000   0.83203067    -7.425223    298.62913  0.023745955  0.023826292            3 
 1049000   0.83344198   -7.4149728    298.43043  0.023707534  0.023809408            2 
 1050000   0.81960335   -7.4184964    298.60291  0.023698644  0.023792432            3 
 1051000   0.83698284   -7.4492143    297.96504  0.023625518  0.023775347            4 
 1052000   0.84540244   -7.3939975    299.09696  0.023692725  0.023758321            3 
 1053000   0.83049207   -7.4311838     299.5044  0.023702469  0.023741401            3 
 1054000   0.81847384   -7.4041113    298.03108  0.023563494  0.023724384            3 
 1055000   0.83283942   -7.4046348    299.08679  0.023624549  0.023707563           16 
 1056000   0.85740255   -7.4305881    299.64106  0.023645917  0.023690662            2 
 1057000   0.83225231   -7.4538405    299.51707  0.023613771  0.023673766            4 
 1058000   0.83645526   -7.4074256    299.06075   0.02355551  0.023656766            2 
 1059000    0.8223959   -7.4256091    298.90957   0.02352137  0.023639791            2 
 1060000   0.83056186   -7.4314893    298.97119  0.023504024  0.023622928            4 
 1061000   0.82566905   -7.4343719    300.28089  0.023584738  0.023606018            1 
 1062000   0.81911726   -7.4232705    299.85737  0.023529298  0.023589268            4 
 1063000   0.83883221    -7.431811    299.80196  0.023502819  0.023572458            7 
 1064000   0.83230006   -7.4065904    300.77156   0.02355667    0.0235557            4 
 1065000   0.83583013   -7.4601649    300.21199  0.023490766  0.023539027            3 
 1066000   0.81866939   -7.4284545    300.05083  0.023456131  0.023522225            2 
 1067000   0.84088546   -7.4283146    300.22977  0.023448123  0.023505381            4 
 1068000   0.81803149   -7.4518746    299.74794  0.023388572  0.023488476            4 
 1069000   0.82628509   -7.4461684    299.46951  0.023344988  0.023471581            2 
 1070000    0.8204411   -7.4367468    300.06079   0.02336922  0.023454722            3 
 1071000   0.81996117   -7.4325035    300.72976  0.023399452  0.023437876            5 
 1072000   0.82022219   -7.4287935    300.20846    0.0233371  0.023420992            3 
 1073000   0.82221247   -7.4597126    300.41364  0.023331286  0.023404227            4 
 1074000   0.83040148   -7.4256568    301.33185  0.023380808  0.023387384            2 
 1075000   0.83175305   -7.4321403    300.06382  0.023260761  0.023370648            3 
 1076000   0.81429401   -7.4345591    301.07222  0.023317242  0.023353948            3 
 1077000   0.82066182   -7.4160081    301.72779  0.023346316   0.02333734            3 
 1078000   0.81396693   -7.4602815    301.34208  0.023294842  0.023320727            2 
 1079000   0.81485657   -7.4459132     301.6199   0.02329471  0.023304078            3 
 1080000   0.81687013   -7.4419044    301.14022  0.023236128  0.023287304            5 
 1081000   0.82388694    -7.451191    302.09824  0.023288486  0.023270587            5 
 1082000    0.8271731   -7.4361044    301.98048  0.023257893   0.02325401            4 
 1083000   0.82188089   -7.4392817    301.33234  0.023186545   0.02323738            3 
 1084000   0.82788772   -7.4315722    301.41294  0.023171352  0.023220746            9 
 1085000   0.86550986   -7.4551082    302.06394  0.023199996  0.023204158            4 
 1086000   0.82257923   -7.4481987    301.03613  0.023099764  0.023187439            5 
 1087000   0.82763995   -7.4902081     301.4008   0.02310647  0.023170663            3 
 1088000   0.82187801   -7.4493945    301.81519  0.023116972  0.023153946            2 
 1089000   0.81275096   -7.4725148    301.09134  0.023040354   0.02313731            7 
 1090000   0.83638732   -7.4496186    301.81997  0.023074921  0.023120589            1 
 1091000   0.82507117   -7.4678345    302.38168  0.023096676  0.023103896            4 
 1092000   0.82307293   -7.4646692    302.13428  0.023056645  0.023087142            4 
 1093000   0.80955181   -7.4862661    301.61189  0.022995722  0.023070443            4 
 1094000   0.82453938   -7.4771667    302.91667  0.023074091  0.023053756            5 
 1095000   0.82549354   -7.4446322    302.07627  0.022989062  0.023037121            2 
 1096000   0.83267462   -7.4691751     301.2828  0.022907755  0.023020412            4 
 1097000   0.81251675   -7.4838441    302.25202    0.0229605  0.023003713            6 
 1098000   0.81874993   -7.4773166    302.30994  0.022943984  0.022987027            3 
 1099000   0.81092309   -7.4583989    302.48245  0.022936188  0.022970402            4 
 1100000    0.8121636   -7.4382288    301.92896  0.022873406  0.022953649            4 
 1101000   0.80997833   -7.4689643    301.92809  0.022852565  0.022936899            4 
 1102000   0.81991187   -7.4639374    302.77587  0.022895937  0.022920243            4 
 1103000   0.82317571   -7.4685983    302.47357   0.02285234  0.022903588            6 
 1104000   0.80937881   -7.4467902    303.21272  0.022887433  0.022886876            2 
 1105000   0.82035736   -7.4368927    303.08999  0.022857466  0.022870284            4 
 1106000   0.80885842   -7.4983821    302.54413   0.02279567  0.022853547            3 
 1107000   0.81207612   -7.4548153    303.73574   0.02286478  0.022836933            4 
 1108000   0.80357121   -7.4748597    303.62317  0.022835678  0.022820418            5 
 1109000   0.81469815   -7.4720236    303.44645  0.022801807  0.022803844            3 
 1110000   0.79729665   -7.4565387    303.25346  0.022766776  0.022787294            5 
 1111000    0.8236125   -7.4235212    303.49731  0.022764575  0.022770755            5 
 1112000   0.81809361   -7.4768895    304.03234  0.022784198  0.022754173            3 
 1113000   0.80714688   -7.4630236    303.85781   0.02275066  0.022737567            6 
 1114000   0.78875102   -7.4976102      302.637  0.022638914  0.022720948            5 
 1115000   0.81194017   -7.4948966    302.92997  0.022640506  0.022704232            4 
 1116000   0.81045712    -7.495867    303.74981  0.022681437  0.022687475            3 
 1117000   0.81427838   -7.4630204    303.02973  0.022607411  0.022670829            4 
 1118000    0.8153812   -7.4889665    303.72844   0.02263927  0.022654218            3 
 1119000   0.79449152   -7.4827228    303.12355  0.022573991   0.02263757            3 
 1120000   0.79425244   -7.4814495    303.85627  0.022608353  0.022620988            2 
 1121000   0.80769363   -7.4956164     303.1316  0.022534315  0.022604347            7 
 1122000   0.79533753   -7.4527227    304.28401  0.022599822  0.022587794            2 
 1123000   0.79264741   -7.4796881    304.03447   0.02256118  0.022571228            3 
 1124000   0.80677086   -7.4862918    304.44766  0.022571742  0.022554705            5 
 1125000   0.82251888   -7.4748992    305.09174  0.022599388  0.022538215            5 
 1126000   0.79926174   -7.5034476    304.59156    0.0225423  0.022521769            3 
 1127000   0.80441262   -7.4819521    304.30026  0.022500759  0.022505297            7 
 1128000   0.79121452   -7.4700569    305.09415  0.022539461  0.022488986            4 
 1129000   0.80245776   -7.5180099    304.47639  0.022473899  0.022472587            3 
 1130000    0.7937101   -7.4968566    304.56175  0.022460306  0.022456009            4 
 1131000   0.79778402   -7.4782401    304.29773  0.022420994  0.022439426            6 
 1132000    0.8052169   -7.4879232    304.41986  0.022410178  0.022422833            5 
 1133000   0.80481828   -7.4941256    304.47317  0.022394319  0.022406127            4 
 1134000   0.80355781   -7.5008972    304.06782  0.022344784  0.022389496            4 
 1135000   0.80209901   -7.4992082    304.32945  0.022344306  0.022372918            4 
 1136000   0.81152336   -7.4909994    304.64217  0.022347577  0.022356365            3 
 1137000   0.79813817   -7.5129137     304.9581  0.022351077  0.022339896            3 
 1138000     0.816569   -7.5070881    305.03606  0.022337146  0.022323338            5 
 1139000   0.79651119   -7.5280921    305.16208  0.022326755  0.022306821            5 
 1140000   0.79851609   -7.4849993    304.72345  0.022275106  0.022290198            3 
 1141000   0.79739478   -7.4865505    304.92406  0.022270235  0.022273706            5 
 1142000   0.84156525    -7.503147     304.4184  0.022213835  0.022257193            6 
 1143000   0.76735426   -7.5356049    304.35963  0.022190116  0.022240504            5 
 1144000   0.76961278   -7.5116197    304.80631  0.022203257  0.022223811            4 
 1145000   0.81037696   -7.5154698    305.27463   0.02221795  0.022207082            6 
 1146000   0.78400424   -7.5058644    305.34536  0.022203705  0.022190453            2 
 1147000   0.78883393   -7.5126524    305.16596  0.022171313  0.022173942            2 
 1148000   0.78038994   -7.5190768    305.52131  0.022177795  0.022157371            3 
 1149000   0.79429917   -7.5326406    304.84524   0.02210946   0.02214084            6 
 1150000   0.78996378   -7.5013517    305.30899   0.02212384  0.022124395            4 
 1151000   0.79226756   -7.4802499    306.50894  0.022191496  0.022108105            1 
 1152000   0.79718821   -7.5031121    305.71598  0.022114871  0.022091893            4 
 1153000   0.80745952   -7.4972896    306.49318  0.022151863  0.022075668            4 
 1154000   0.79425099   -7.5104453    305.97461   0.02209522  0.022059429            3 
 1155000   0.80799991   -7.5479569    305.99821  0.022077793  0.022043184           10 
 1156000   0.78926513   -7.5146598    306.19414  0.022072819  0.022026872            4 
 1157000    0.7831935   -7.5483703    306.62036   0.02208444  0.022010599            7 
 1158000   0.79593607   -7.5137254    306.00857  0.022021342  0.021994348            4 
 1159000   0.78373865   -7.5264332    306.32002  0.022024735  0.021978029            5 
 1160000   0.80179637   -7.5086918    306.10985   0.02199065  0.021961813            3 
 1161000   0.80065565    -7.501511    306.76333  0.022018614  0.021945533            3 
 1162000   0.79185493   -7.5313468    307.04125  0.022019596  0.021929277            3 
 1163000   0.80204826   -7.4944752    307.16605  0.022009605  0.021913112            3 
 1164000   0.78386829   -7.4978458    306.84405  0.021967644  0.021896955            4 
 1165000   0.81328257   -7.5031431    307.06146  0.021964339   0.02188082            2 
 1166000   0.80960839   -7.5368758    306.31655  0.021892263  0.021864646            2 
 1167000   0.78078495   -7.5455305    306.34684  0.021875667  0.021848446            3 
 1168000   0.78435791   -7.5061338    306.74091  0.021885053  0.021832216            7 
 1169000   0.78552689   -7.5089775    305.92294  0.021808023  0.021816007            4 
 1170000   0.78989235   -7.5034268    306.66075  0.021841933  0.021799818            4 
 1171000   0.80306138   -7.5586245     307.0204  0.021848876  0.021783727            8 
 1172000    0.7813129   -7.5080963    307.34114  0.021853039  0.021767705            4 
 1173000   0.77129306   -7.5193045    307.77469   0.02186521  0.021751611            4 
 1174000   0.78138355   -7.5542529    307.63904  0.021836956  0.021735493            5 
 1175000   0.75855843   -7.5166158    307.84428  0.021832928  0.021719328            4 
 1176000     0.796524   -7.5239408    308.52676  0.021862724  0.021703112            5 
 1177000   0.77842763   -7.5403781    307.49118  0.021770828  0.021687036            3 
 1178000   0.78636624   -7.5381809    307.52303    0.0217546  0.021670915            8 
 1179000   0.77988929   -7.5812872    307.38098  0.021726108  0.021654799           10 
 1180000     0.768715   -7.5171919    308.40674  0.021780137  0.021638731            2 
 1181000   0.79965832   -7.5189427    307.55948  0.021701911  0.021622785            3 
 1182000   0.78356527   -7.5327304    307.60617  0.021686842   0.02160681            8 
 1183000   0.78259376   -7.5214849    307.88268  0.021687988    0.0215908            2 
 1184000   0.79240261   -7.5297112    308.14555  0.021688172  0.021574827            3 
 1185000    0.7761791   -7.5338497    307.83341  0.021647919  0.021558898            2 
 1186000   0.79224367   -7.5215012    308.27541  0.021660723  0.021542966            3 
 1187000   0.78153107   -7.5248338    308.06653  0.021627811  0.021526915            3 
 1188000   0.78950863   -7.5449801    308.44037  0.021635828  0.021510841            2 
 1189000   0.78173379   -7.5485783    308.04528  0.021589941  0.021494787            2 
 1190000   0.77665921   -7.5200795    308.89325   0.02163118  0.021478692            4 
 1191000   0.78297668   -7.5404201    307.94741  0.021546838   0.02146262            7 
 1192000   0.77492717   -7.5370606    308.33637  0.021555954  0.021446553            8 
 1193000   0.78888752   -7.5569094    309.34039  0.021608019  0.021430539            2 
 1194000   0.76104359   -7.5426975    308.17824  0.021508811  0.021414478            4 
 1195000   0.78455149   -7.5520343    308.44599  0.021509483  0.021398452            4 
 1196000   0.79106185   -7.5655995    308.09446  0.021467005  0.021382431            3 
 1197000   0.76959601   -7.5452404     307.9644  0.021440017  0.021366386            3 
 1198000   0.78430163   -7.5470546    308.05181  0.021428201  0.021350262            6 
 1199000   0.77188017   -7.5718075    308.04207  0.021409652  0.021334185            8 
 1200000   0.75945772     -7.55885    307.80437  0.021375303  0.021318004            3 
 1201000   0.77854884   -7.5763474    307.63558  0.021345793  0.021301785            8 
 1202000    0.7812435   -7.5464549    307.42075  0.021313141  0.021285553            3 
 1203000   0.76531583   -7.5566799    308.55367  0.021373903   0.02126942            6 
 1204000   0.78823325   -7.5447081    308.31661  0.021339743  0.021253375            4 
 1205000   0.75690542   -7.5692547    308.53823  0.021337361  0.021237268            5 
 1206000   0.75253054   -7.6183148    307.40921  0.021241654  0.021221087            3 
 1207000   0.76374292   -7.5731925    307.98277  0.021263655  0.021204917            3 
 1208000   0.76733405    -7.562011    308.64281  0.021291585  0.021188707            4 
 1209000   0.77585861   -7.5692265    308.53547  0.021266575  0.021172602            2 
 1210000   0.77421879   -7.5627673    308.56551  0.021251068   0.02115655            3 
 1211000   0.78015276   -7.5695787    308.52963  0.021231051   0.02114055            3 
 1212000   0.77664016   -7.5507254     308.7067  0.021225708  0.021124494            7 
 1213000   0.75449974   -7.5805409    308.58495  0.021199846  0.021108345            8 
 1214000   0.76930174   -7.5608473    308.97748  0.021209327  0.021092132            3 
 1215000   0.77814167   -7.6289868    307.94625  0.021121142   0.02107593            4 
 1216000   0.75647733    -7.578759    308.34744  0.021131266  0.021059705           10 
 1217000   0.76969937   -7.5406209    309.57296   0.02119782  0.021043564            6 
 1218000   0.78198348   -7.5773459    308.54362  0.021109991  0.021027435            4 
 1219000   0.76691635   -7.5574391     309.3673  0.021148981  0.021011278            3 
 1220000   0.76713631   -7.5823246    309.40502  0.021134223  0.020995188            2 
 1221000   0.76460803   -7.5749362    309.22821  0.021104847  0.020979088           13 
 1222000   0.76921322   -7.5712403    308.45303  0.021034713  0.020963024            3 
 1223000   0.77221212   -7.5842962     308.4499    0.0210173  0.020947024            4 
 1224000   0.76928425   -7.6068489    308.60589  0.021010749  0.020930941            9 
 1225000   0.76768732    -7.565637    309.46699  0.021052176  0.020914984            3 
 1226000   0.76289389   -7.5644273    308.68114  0.020981589  0.020899105            2 
 1227000   0.74951372   -7.5882549    309.33964  0.021009212  0.020883118            3 
 1228000   0.75446226   -7.5693179    309.93282  0.021032357  0.020867154            4 
 1229000   0.75890111   -7.5872092    309.53781   0.02098846  0.020851237            6 
 1230000   0.77141026   -7.5565414    309.27523  0.020953606  0.020835345            4 
 1231000    0.7580208    -7.565794    309.90317  0.020979094  0.020819498            2 
 1232000   0.77433796   -7.5800133     309.7782  0.020953612  0.020803604            4 
 1233000   0.76050945   -7.5787608    309.77624  0.020936486  0.020787711            6 
 1234000   0.75358918   -7.5716063    310.11655  0.020942501  0.020771805            5 
 1235000   0.75804343   -7.5767345    309.25431  0.020867362  0.020755915            5 
 1236000   0.78069823   -7.5658179    309.52739  0.020868891  0.020740006            3 
 1237000   0.76517141   -7.5717126     309.4963  0.020849926  0.020724181            6 
 1238000    0.7633621   -7.5772546    310.08699  0.020872845  0.020708405            4 
 1239000   0.75387427   -7.5710765     310.7779  0.020902468   0.02069271            2 
 1240000   0.77414367   -7.5852833    310.17511  0.020845101  0.020676953            6 
 1241000   0.76727932   -7.5850412    310.05876  0.020820491  0.020661218            4 
 1242000   0.75266936   -7.5808886    310.33508  0.020822268  0.020645634            3 
 1243000    0.7753675   -7.5898507    310.42614  0.020811621  0.020629939            5 
 1244000   0.74906361   -7.5887429    310.52737  0.020801673  0.020614201            3 
 1245000    0.7756987   -7.5930732    310.09931  0.020756312   0.02059852            5 
 1246000   0.76814623   -7.5777384    310.04687  0.020736147  0.020582834            6 
 1247000   0.76606509    -7.611068    310.33042  0.020738467  0.020567103            3 
 1248000   0.75238903   -7.6061941    310.43255  0.020728669  0.020551391            3 
 1249000   0.75919043   -7.6118296    310.38795  0.020709098  0.020535687            3 
 1250000   0.76022868   -7.6005865    310.09276  0.020672851  0.020519933            7 
 1251000   0.77153235   -7.6186698    310.54821  0.020686665  0.020504199            6 
 1252000   0.74461531   -7.6062536    310.67798  0.020678779   0.02048843            4 
 1253000   0.74400132   -7.6229829     310.1412  0.020626576  0.020472678            3 
 1254000   0.75745306   -7.6266871    310.39879  0.020627246  0.020456922            3 
 1255000   0.75736272   -7.6053912    310.94385  0.020647002  0.020441211            4 
 1256000   0.74596798   -7.6178328    309.67161  0.020546152  0.020425472            5 
 1257000   0.75550238   -7.6297896    309.86215  0.020542439  0.020409648            4 
 1258000    0.7553413   -7.6536758    310.36604  0.020559488  0.020393863            3 
 1259000   0.74406475    -7.611238    310.25846  0.020536038  0.020378179            6 
 1260000   0.75391044   -7.5992353    311.40555  0.020595605  0.020362535            3 
 1261000   0.74386479   -7.6200359    311.23307  0.020567874  0.020346944            5 
 1262000   0.74597065    -7.592785    310.94425  0.020532504   0.02033135            6 
 1263000   0.75363969    -7.590408    311.02294  0.020521439  0.020315833            6 
 1264000    0.7420888    -7.616136    310.64236  0.020480113  0.020300262            4 
 1265000   0.75215461   -7.6311118    310.52177   0.02045598  0.020284617           11 
 1266000   0.75189414   -7.6504174    310.70319  0.020451763  0.020268985            4 
 1267000   0.76167794   -7.6508719    310.43339  0.020417876  0.020253325            5 
 1268000   0.76034584   -7.6333875    310.97393  0.020437298  0.020237732            8 
 1269000   0.74235803   -7.6412643    310.09077  0.020363197  0.020222109            5 
 1270000   0.74565867   -7.6429181    310.64112  0.020383276  0.020206506            5 
 1271000   0.73079798   -7.6464545    311.05106  0.020394116  0.020190865            4 
 1272000   0.76134124   -7.6567257    310.81653  0.020362718  0.020175239            6 
 1273000   0.75340604   -7.6431042    311.17878  0.020370436   0.02015961            5 
 1274000   0.73908505   -7.6244044    311.44421  0.020371809  0.020144052           11 
 1275000   0.74611337    -7.622862    311.33903  0.020348956  0.020128511            4 
 1276000   0.73778184   -7.6518832    311.01854  0.020312078  0.020112969            4 
 1277000   0.73089871   -7.6433596    311.36134  0.020318542  0.020097484            5 
 1278000   0.76343229   -7.6575275    311.47566  0.020310098  0.020082056            6 
 1279000   0.73941358   -7.6209681    311.79434  0.020314982  0.020066638            4 
 1280000   0.74993685   -7.6213122    311.79245  0.020298988  0.020051173            6 
 1281000   0.75564296   -7.6387123    310.96739  0.020229468  0.020035834            5 
 1282000   0.73210238   -7.6468279    311.06228  0.020219857  0.020020383            3 
 1283000   0.73130618   -7.6397447    311.06228  0.020204097  0.020004985            7 
 1284000   0.73133818   -7.6404404    311.64611  0.020226253  0.019989651            3 
 1285000   0.72238837   -7.6287004    311.74707   0.02021706  0.019974283            2 
 1286000   0.74760411   -7.6530225    312.06324  0.020221827  0.019958969            4 
 1287000    0.7385806    -7.635055    312.23417  0.020217183  0.019943675            5 
 1288000   0.73193133   -7.6369488    312.13158  0.020194848  0.019928381            7 
 1289000   0.73898916   -7.6255812    311.81075   0.02015844  0.019913061            6 
 1290000   0.73720329   -7.6480066    312.09501  0.020161176  0.019897718            3 
 1291000   0.73954414    -7.657403    312.20375  0.020152579  0.019882361            3 
 1292000   0.75148082   -7.6718829    312.11396  0.020131189  0.019867016            3 
 1293000    0.7258549    -7.684138    311.87667  0.020100327   0.01985164            6 
 1294000   0.74832453   -7.6699167    312.39796  0.020118364   0.01983628            4 
 1295000   0.72774342   -7.6746251    312.21451  0.020091024  0.019821034            3 
 1296000   0.74149216   -7.6666763    311.72896    0.0200443  0.019805778            7 
 1297000   0.72489557   -7.6568543    311.88022  0.020038565  0.019790587            5 
 1298000    0.7475243   -7.6518383    312.46551  0.020060703  0.019775367            4 
 1299000   0.73311925   -7.6417729    312.69495  0.020059979  0.019760186            3 
 1300000   0.73512465   -7.6337705    312.09235   0.02000592  0.019745048            9 
 1301000   0.74707999   -7.6649768    312.29184  0.020003321  0.019729896            3 
 1302000   0.73166275   -7.6378346     313.0498  0.020036469  0.019714829            4 
 1303000   0.74099648   -7.6456001    312.18263  0.019965633  0.019699801            5 
 1304000    0.7377465   -7.6205299    313.33568  0.020024008  0.019684787            3 
 1305000   0.73734868   -7.6580122    313.30957  0.020006997  0.019669837            6 
 1306000   0.74111684   -7.6601821    313.11538  0.019979287  0.019654838            4 
 1307000   0.73521373   -7.6667011    312.64386  0.019933936  0.019639735            7 
 1308000   0.74223846   -7.6809124    312.42257  0.019904598  0.019624646            4 
 1309000   0.74266568   -7.6819519    312.24556  0.019878124  0.019609592           13 
 1310000   0.72777306   -7.6502349    312.68475  0.019890887  0.019594539            6 
 1311000    0.7265333   -7.6814979    313.43286  0.019923269  0.019579503            3 
 1312000   0.73491391   -7.6608804    312.56683  0.019853076  0.019564481            5 
 1313000   0.74317145   -7.6600228    312.97149  0.019863639  0.019549461            4 
 1314000   0.73214209    -7.664059    312.88227  0.019842863  0.019534458            5 
 1315000   0.72363113   -7.6567534    312.83364  0.019824692  0.019519421            5 
 1316000   0.71690957   -7.6688294    313.26479  0.019836929   0.01950442            3 
 1317000   0.72233238   -7.6619603    312.91034  0.019799439  0.019489505            7 
 1318000   0.74360146    -7.687552    312.98374  0.019789058  0.019474531            3 
 1319000   0.74549236   -7.6628001    313.63901  0.019815454  0.019459562            5 
 1320000   0.72350251   -7.6768988    313.07302  0.019764711  0.019444633            6 
 1321000   0.73519945    -7.675793    313.39391  0.019769992  0.019429757            8 
 1322000   0.72554732   -7.6444675    313.92353  0.019788422  0.019414959           10 
 1323000   0.72746694   -7.6424389    314.85686  0.019832254  0.019400197           10 
 1324000   0.72395335   -7.6712717    313.83251  0.019752802  0.019385445            9 
 1325000    0.7330985   -7.7185473    313.95362  0.019745511  0.019370649            6 
 1326000   0.72216824   -7.6953817    313.64729  0.019711368  0.019355866            7 
 1327000   0.72967081   -7.6969138     314.0728  0.019723235  0.019341187            5 
 1328000   0.72902625   -7.6735964    314.47503  0.019733624  0.019326508            8 
 1329000   0.72692475   -7.7018934    314.88661  0.019744583  0.019311873            8 
 1330000    0.7226106   -7.6821594    314.45245  0.019702534  0.019297236            7 
 1331000     0.726688   -7.6860825    314.74262  0.019705899  0.019282629            7 
 1332000   0.71481707   -7.6805117    314.15929   0.01965461  0.019267985            4 
 1333000   0.72416722   -7.7004525    314.19236  0.019641933  0.019253309            4 
 1334000    0.7296948   -7.6653305    313.99757  0.019615041  0.019238625            6 
 1335000   0.71911191   -7.7061414    314.42789  0.019627209  0.019224027            3 
 1336000   0.72786629   -7.6978106    314.22262  0.019599715  0.019209376            3 
 1337000   0.72172735   -7.6980107    314.40873  0.019596655  0.019194755            5 
 1338000   0.71470616      -7.6971    314.54407  0.019590438   0.01918011            7 
 1339000   0.71826211   -7.6948449    314.93949  0.019600417  0.019165497            4 
 1340000   0.70820632   -7.7023592    314.27503  0.019544467   0.01915088            6 
 1341000   0.70854235   -7.6995991      313.701  0.019494221  0.019136239            4 
 1342000   0.71304438   -7.6674561    314.43713  0.019525405  0.019121629           10 
 1343000   0.70743584   -7.6994381     314.0799  0.019488701  0.019107058            4 
 1344000     0.710221   -7.6939316     314.3916  0.019493527  0.019092438            3 
 1345000   0.70432824   -7.6764924    314.60112  0.019492015  0.019077896            2 
 1346000   0.71480639     -7.69896    315.16187  0.019512251  0.019063413            3 
 1347000   0.72783864   -7.6647807    315.05734  0.019491298  0.019048946            6 
 1348000   0.72438466   -7.7033028    314.45081  0.019439343  0.019034438            5 
 1349000    0.7149453   -7.6757493    314.44848  0.019424789  0.019019954            3 
 1350000   0.73526425   -7.6801567    315.05049  0.019447561  0.019005471            4 
 1351000   0.70407627   -7.7023744    314.20054  0.019380739  0.018990985            4 
 1352000   0.71368927   -7.6989642    314.38171  0.019377571  0.018976449            7 
 1353000    0.7125867    -7.694106     314.3711  0.019362595  0.018961892            3 
 1354000   0.73260158     -7.70306    314.46304  0.019353954   0.01894732            3 
 1355000   0.73611019   -7.7159505    314.51791  0.019343045  0.018932796            5 
 1356000   0.70234666   -7.7089425    315.00135   0.01935849  0.018918282            4 
 1357000   0.71907511   -7.7090869    314.68819  0.019324993  0.018903779           12 
 1358000   0.71155467   -7.6961242    315.34402  0.019351008  0.018889286            4 
 1359000   0.72531554   -7.7079966    314.65496  0.019294516  0.018874767            7 
 1360000   0.71319551   -7.7193826    314.28614  0.019257729  0.018860262            5 
 1361000   0.71653707   -7.7497598    315.05516  0.019290666  0.018845753            4 
 1362000   0.70297281   -7.7187808    315.01792  0.019274224  0.018831248            1 
 1363000     0.713906     -7.74738    314.13119  0.019205869  0.018816739            5 
 1364000    0.6963185   -7.7341888    314.49016   0.01921372  0.018802257            4 
 1365000   0.72507923   -7.6963143    315.38813  0.019254465  0.018787803            2 
 1366000   0.72747514   -7.7186655    314.67415  0.019196813  0.018773407            6 
 1367000   0.70144091   -7.7027866    314.49777  0.019172017  0.018758974            3 
 1368000   0.70111618   -7.7284047    314.96274  0.019186327  0.018744531            3 
 1369000    0.7039288   -7.7172197    315.24278  0.019189358  0.018730092            3 
 1370000   0.70110386   -7.7273898    314.97672  0.019159168  0.018715655            5 
 1371000   0.70089505    -7.714166    314.87065  0.019138746   0.01870122            4 
 1372000   0.69657967    -7.722693    314.78875  0.019119822  0.018686818            3 
 1373000   0.71466553   -7.7343331    315.14043  0.019127241  0.018672379            4 
 1374000   0.70420265   -7.7074026    314.73683  0.019088842  0.018657972            3 
 1375000   0.71527562   -7.7297666    315.22509  0.019104551  0.018643634            6 
 1376000   0.70942904   -7.7182938    315.38296  0.019100228  0.018629313            6 
 1377000    0.7059013   -7.7066566    314.58651  0.019038157  0.018614961            6 
 1378000   0.69675614   -7.7181777    314.79853  0.019037163  0.018600613            5 
 1379000   0.71785594   -7.7065241     315.3796  0.019058473  0.018586297            6 
 1380000   0.69761203   -7.7071148    315.26494  0.019037738  0.018572007            5 
 1381000   0.70848673   -7.7217133    315.11405  0.019014847  0.018557665            9 
 1382000   0.68842242   -7.7169126    315.24893  0.019009222  0.018543368           10 
 1383000   0.69928032   -7.7061898    315.20323  0.018992723  0.018529113            4 
 1384000    0.6992617   -7.7416206    315.15777  0.018976263   0.01851486            8 
 1385000   0.70659938    -7.741297    315.07727  0.018957718   0.01850054            6 
 1386000   0.68701531   -7.7303587    314.69334  0.018920956  0.018486221           12 
 1387000   0.68574528   -7.7391525    315.50754  0.018956233  0.018471915           13 
 1388000     0.690574    -7.752337    315.14992  0.018921105  0.018457564            5 
 1389000   0.68439915   -7.7246505    315.05886   0.01890202  0.018443268            9 
 1390000   0.70656297   -7.7261326    315.20938  0.018897445  0.018428969            5 
 1391000   0.69955409   -7.7272958    315.17189  0.018881613  0.018414718            7 
 1392000   0.69055217   -7.7367634    315.46284  0.018885467  0.018400488            3 
 1393000   0.71082758   -7.7539905    315.82672  0.018893678  0.018386256            6 
 1394000   0.68877741   -7.7430623    315.88703   0.01888373  0.018372038            4 
 1395000   0.70183863   -7.7426146    315.94494  0.018873652  0.018357778            4 
 1396000   0.69807887   -7.7667617    314.65838  0.018783332  0.018343498            8 
 1397000   0.70645588   -7.7590864    314.96903  0.018788417  0.018329195            3 
 1398000   0.68939137    -7.759019    315.39733  0.018800508  0.018314921            4 
 1399000    0.6729531   -7.7622419    315.15115  0.018772406  0.018300654            4 
 1400000   0.69632206   -7.7508268    314.68491  0.018731245  0.018286454            4 
 1401000   0.69578988   -7.7560268    315.24805  0.018751371  0.018272324            6 
 1402000    0.6874841   -7.7472876    315.35715  0.018744481  0.018258177            5 
 1403000    0.6960155   -7.7452734    315.36419  0.018731539   0.01824403            3 
 1404000   0.69122995   -7.7219916    315.55398  0.018729462  0.018229893            4 
 1405000   0.68785038    -7.709811    316.00492  0.018742878   0.01821579            3 
 1406000     0.693713   -7.7442365    315.24009  0.018684216  0.018201709            5 
 1407000   0.69408189   -7.7588185    315.93302  0.018711977  0.018187642            8 
 1408000   0.68131448   -7.7507426    315.64267  0.018681502  0.018173596            3 
 1409000   0.68644609   -7.7515484    315.37292   0.01865229  0.018159564            6 
 1410000   0.69368697   -7.7663746    314.87591  0.018609688  0.018145444            3 
 1411000   0.69175217   -7.7684828     315.9895  0.018662267  0.018131309            5 
 1412000    0.6933574   -7.7527545    316.00568  0.018650005   0.01811723            6 
 1413000   0.67466282   -7.7601815    315.64326  0.018615432  0.018103117            4 
 1414000   0.69882731   -7.7613497    315.39787  0.018587805  0.018089025            7 
 1415000   0.69073667   -7.7446341    315.69591  0.018592221  0.018074921            8 
 1416000   0.69881929     -7.75139    315.28866  0.018555124  0.018060828            9 
 1417000   0.68893979   -7.7709518    314.46213  0.018493421  0.018046737            4 
 1418000   0.68897988   -7.7704258    315.60112  0.018547315  0.018032652           10 
 1419000   0.69387448   -7.7587585    315.13237  0.018506716  0.018018574            7 
 1420000   0.67441552   -7.7517719     315.9319  0.018540605   0.01800452            6 
 1421000   0.69173311   -7.7774969    315.91821  0.018526754  0.017990488            5 
 1422000   0.67243925   -7.7831109    315.52082  0.018490437  0.017976443           10 
 1423000   0.69808762   -7.7750734    315.15333  0.018455922  0.017962373            7 
 1424000   0.69420084   -7.7705111    315.75249  0.018478025  0.017948354            5 
 1425000   0.68515948   -7.7790794    315.58869  0.018455479  0.017934316            5 
 1426000   0.68683383   -7.7728441    315.72495    0.0184505  0.017920314            5 
 1427000   0.68306184   -7.7601349    315.99011  0.018453055  0.017906266            4 
 1428000   0.68659641   -7.7849137    315.53236   0.01841342  0.017892239            4 
 1429000    0.6920003   -7.7912645    315.19312  0.018380751  0.017878206            4 
 1430000   0.68230564   -7.7453176    315.58748  0.018390879  0.017864255           10 
 1431000   0.69229892   -7.7792592    315.53512  0.018374978  0.017850299            2 
 1432000   0.68128113   -7.7698401     315.3235  0.018349831  0.017836372            5 
 1433000   0.66296907   -7.7688317    315.90534  0.018370862  0.017822466            4 
 1434000   0.66930424   -7.7663578    315.98338  0.018362586  0.017808571            7 
 1435000   0.68133858   -7.7612991      315.915  0.018345819  0.017794662            6 
 1436000   0.68077568   -7.7888747    315.54996   0.01831186  0.017780837            5 
 1437000   0.68194691    -7.764821    316.02755  0.018326812  0.017766987            6 
 1438000    0.6722741   -7.7498609    315.26402  0.018269821  0.017753158            5 
 1439000   0.67105541   -7.7543321    316.35658  0.018320395  0.017739309           13 
 1440000   0.68263733   -7.7864843    315.99831  0.018286939   0.01772543            6 
 1441000     0.687177   -7.8063177    315.68094  0.018255895  0.017711627            7 
 1442000   0.67820169   -7.7624943    315.63234  0.018240427  0.017697836            6 
 1443000   0.67194442   -7.8013443    315.45901  0.018217776  0.017684059            3 
 1444000   0.70093834   -7.7773642    315.97903   0.01823517  0.017670307            5 
 1445000   0.69244213   -7.7861435    315.87613  0.018216617  0.017656546            5 
 1446000   0.67239287   -7.7854049    315.89439  0.018205071   0.01764284            5 
 1447000   0.67795097   -7.7813714    316.60401  0.018233357  0.017629145            4 
 1448000   0.67824798   -7.7865364    316.75488  0.018229447  0.017615472            4 
 1449000   0.67427779   -7.7682141    316.53789  0.018204387  0.017601794            5 
 1450000   0.67156807   -7.7755768    316.66382   0.01819907  0.017588152            4 
 1451000    0.6675564   -7.7807368    316.19961  0.018159867  0.017574451            7 
 1452000   0.68119327   -7.8026724    316.90775  0.018188002  0.017560761            4 
 1453000   0.68260486   -7.8036825    316.85428  0.018172418  0.017547135            4 
 1454000   0.66918765   -7.8092985    315.98314  0.018109992  0.017533543           10 
 1455000   0.65836816   -7.7842592    316.38446   0.01812053  0.017519932            7 
 1456000   0.66087061   -7.8010214    316.50839  0.018115178  0.017506313            4 
 1457000   0.68076335   -7.8100752    316.77425  0.018117951  0.017492662            7 
 1458000   0.67096169   -7.7893424    316.21806  0.018073734  0.017479017            3 
 1459000   0.67986592   -7.8264097    316.67621  0.018087515  0.017465363            3 
 1460000   0.66705076   -7.8242215    316.21741  0.018048939  0.017451723            6 
 1461000   0.66314733   -7.8153001    316.02392  0.018025549   0.01743807            3 
 1462000   0.65861536   -7.8352895    316.71883  0.018052829  0.017424391            5 
 1463000   0.65184299   -7.8243084    315.81492  0.017989002  0.017410694            4 
 1464000   0.64961965   -7.8537562    315.64234  0.017966891  0.017396991            4 
 1465000   0.66060351   -7.8362853     316.1396  0.017982912  0.017383274            3 
 1466000   0.64968557   -7.8223364    315.83267  0.017953199  0.017369603            6 
 1467000   0.66660765   -7.8229334    315.96504   0.01794848  0.017355901            5 
 1468000   0.66555752   -7.8372411    315.59921  0.017915487  0.017342216            3 
 1469000   0.66662601   -7.8250576    315.28106  0.017885243  0.017328521            6 
 1470000   0.67519514   -7.8499534    315.69766  0.017896693  0.017314838            8 
 1471000   0.67632137   -7.8249184    315.58555  0.017878175  0.017301191            5 
 1472000       0.6661   -7.8149822    316.06978  0.017893443  0.017287527            6 
 1473000   0.67214177   -7.8200433     315.1341   0.01782836  0.017273864            3 
 1474000   0.67348066   -7.8158543    316.19465  0.017876224  0.017260248            5 
 1475000   0.67599373   -7.8106582    315.91293  0.017848188  0.017246646            5 
 1476000   0.66572877   -7.8125088    315.57533  0.017817036  0.017233067            7 
 1477000   0.66126574   -7.8191403    315.71144  0.017812652  0.017219481            4 
 1478000   0.67346953   -7.8027346    315.45882  0.017786357  0.017205885            4 
 1479000   0.64890572   -7.8158546     316.0784  0.017809241  0.017192327            8 
 1480000   0.66501708   -7.8321801    315.69626   0.01777569  0.017178739            5 
 1481000   0.67543514   -7.8278335     316.4161  0.017804192  0.017165155            6 
 1482000   0.68088366   -7.8251093    316.01092  0.017769395  0.017151568            6 
 1483000   0.66716172   -7.8289039    315.96942  0.017755081  0.017137963            2 
 1484000   0.65638293   -7.8500232     315.7719  0.017732025  0.017124342            4 
 1485000   0.67030729     -7.82652    315.52604  0.017706287  0.017110767            3 
 1486000   0.66255011   -7.8571319    315.76424   0.01770773  0.017097206            8 
 1487000   0.66132215   -7.8609111    315.01374  0.017653762  0.017083656            4 
 1488000    0.6537024   -7.8512223    315.77681  0.017684633  0.017070083            5 
 1489000   0.66312464   -7.8536045    315.74301  0.017670865  0.017056529            6 
 1490000   0.67084023   -7.8408882    315.65762  0.017654229   0.01704296            5 
 1491000   0.66663231   -7.8455303    315.40924  0.017628507  0.017029397            4 
 1492000   0.65340188   -7.8578904    315.62833  0.017628928  0.017015818            4 
 1493000   0.65974913   -7.8433745    315.42435  0.017605735  0.017002247            5 
 1494000   0.65366054   -7.8321269    315.15478  0.017578915  0.016988759            7 
 1495000   0.65593295   -7.8402706    315.58395  0.017591079  0.016975213            4 
 1496000   0.65138721   -7.8417474    315.30564  0.017563817  0.016961687            7 
 1497000   0.66868354   -7.8506919    315.38953  0.017556754  0.016948173            5 
 1498000    0.6618701   -7.8400255    315.35205  0.017542949  0.016934649            6 
 1499000   0.66781157   -7.8513565    315.28701   0.01752763  0.016921143            7 
 1500000   0.65370364   -7.8536317    315.59828  0.017533238  0.016907657            8 
 1501000   0.65662942   -7.8352735    315.49242  0.017515679  0.016894143            5 
 1502000    0.6441579   -7.8410106    315.83824  0.017523205   0.01688067            7 
 1503000   0.65729926   -7.8624281    315.55272  0.017495715  0.016867209            2 
 1504000   0.65664602   -7.8645695    315.43367  0.017477486  0.016853752            5 
 1505000   0.64029733   -7.8338605    315.78746  0.017485463  0.016840298            6 
 1506000   0.65000859   -7.8488217    315.74086  0.017471274  0.016826892            9 
 1507000   0.65187825   -7.8416605    315.78964  0.017462378  0.016813501            9 
 1508000   0.65830309   -7.8488873    315.66968  0.017444169  0.016800112            4 
 1509000   0.64663867   -7.8416224    315.34996  0.017414953  0.016786745            8 
 1510000   0.65514924   -7.8474283    315.06207  0.017387531  0.016773366            8 
 1511000   0.64970897   -7.8319184    315.58811  0.017405036  0.016760012            3 
 1512000   0.65453794    -7.850142    315.58255  0.017393218  0.016746638            7 
 1513000   0.64800542   -7.8559157    315.36349  0.017369657  0.016733261            9 
 1514000   0.64664744   -7.8537351    315.48452  0.017364846  0.016719889            6 
 1515000   0.63776989   -7.8550157    315.74402  0.017367658  0.016706535           10 
 1516000   0.63246825   -7.8521639    315.52986   0.01734443  0.016693186            5 
 1517000   0.66848639   -7.8360735    316.30415   0.01737553  0.016679849           12 
 1518000   0.66460431   -7.8318783    315.68588  0.017330143   0.01666654            9 
 1519000   0.65070864   -7.8788055    315.49801  0.017308427  0.016653216            6 
 1520000   0.63847413   -7.8727012    315.15562  0.017278269  0.016639904           11 
 1521000   0.66302413   -7.8626365     315.4513  0.017283109  0.016626613            6 
 1522000   0.63888576   -7.8654085    316.07721  0.017306024  0.016613302           11 
 1523000   0.64602517   -7.8487596    314.90269  0.017230394  0.016600021            7 
 1524000   0.64844033   -7.8396825    315.73477  0.017264587  0.016586746            6 
 1525000   0.63353136   -7.8501205    315.06635  0.017216741  0.016573494            4 
 1526000   0.64027355   -7.8331712    315.82767  0.017247033  0.016560233            3 
 1527000   0.65548124   -7.8528748    315.65019  0.017226053  0.016547001            7 
 1528000   0.63894929   -7.8692779    315.48419  0.017205726  0.016533759            6 
 1529000   0.63802345   -7.8679362    315.76906  0.017209999   0.01652052            9 
 1530000   0.64240876   -7.8718776    315.14176  0.017164584  0.016507267            7 
 1531000   0.63689573   -7.8570325    314.99833  0.017145566  0.016493986            2 
 1532000    0.6462491   -7.8692249    315.35048  0.017153529  0.016480742            6 
 1533000   0.65776627   -7.8569457    315.82546   0.01716816  0.016467528            5 
 1534000   0.63820175   -7.8707205    315.49004  0.017138746  0.016454298            4 
 1535000   0.63497764   -7.8711611    315.91619  0.017150716  0.016441059            8 
 1536000   0.64624146   -7.8692652    315.50692  0.017117346  0.016427862            6 
 1537000   0.64420076    -7.875298    315.62369   0.01711254  0.016414699            4 
 1538000   0.63518297   -7.8621322    315.23702  0.017080463  0.016401512            7 
 1539000   0.63954671   -7.8524158    316.00884  0.017111157   0.01638833            4 
 1540000    0.6444595   -7.8832748    315.17273  0.017054801  0.016375142            3 
 1541000   0.61918827   -7.8580959    315.65245  0.017069676  0.016361985            6 
 1542000   0.62547413   -7.8682075    315.61414  0.017056536  0.016348833            4 
 1543000   0.64149548   -7.8775423    315.60108  0.017044776  0.016335711            7 
 1544000     0.647661    -7.883836    315.76807   0.01704275  0.016322606            6 
 1545000   0.64470025   -7.8903924      315.301  0.017006527  0.016309495            4 
 1546000   0.62678826   -7.8850592    315.60187  0.017011744  0.016296408            9 
 1547000   0.64033446   -7.8954741    316.02961  0.017023789  0.016283302            4 
 1548000   0.63822311   -7.8779435    315.44835    0.0169815   0.01627027            3 
 1549000   0.62903551    -7.848904    315.22886  0.016958729  0.016257225            5 
 1550000   0.64431713   -7.8655377    315.09107   0.01694038  0.016244161            6 
 1551000   0.62569933   -7.9024124    315.48148  0.016950434   0.01623108            6 
 1552000    0.6367858   -7.8932706    315.49385  0.016940177  0.016217993            3 
 1553000   0.64123519   -7.8855873    315.30863   0.01691933  0.016204912            5 
 1554000   0.63520923   -7.9064982    315.11835  0.016898239  0.016191859            9 
 1555000   0.64734958   -7.8760882    315.39892  0.016902407    0.0161788           14 
 1556000   0.64016278   -7.8934184    314.93329  0.016866607  0.016165744           17 
 1557000   0.63896272   -7.8753577    314.95844   0.01685712  0.016152688           11 
 1558000   0.63194386   -7.8781224    314.88372  0.016842304  0.016139663           30 
 1559000   0.62411688   -7.8971871    314.71451  0.016822456  0.016126618           11 
 1560000   0.63546075   -7.9008984    315.10849  0.016832719  0.016113587           20 
 1561000   0.63727338   -7.8925842    314.84241  0.016807731  0.016100581            7 
 1562000   0.62592903   -7.9070217    314.50897  0.016779181  0.016087574            6 
 1563000   0.62105687   -7.9029998    314.64808  0.016775862  0.016074544            9 
 1564000   0.64184644   -7.8956346    314.85594  0.016776211  0.016061549           12 
 1565000   0.61978838   -7.9148039    314.61021  0.016752407  0.016048565            9 
 1566000   0.62032028   -7.9198202    314.47939  0.016734748   0.01603556           18 
 1567000   0.61918072   -7.9048288     314.6583  0.016733583  0.016022597           10 
 1568000   0.63710639   -7.9315104    314.39951  0.016709157  0.016009637           14 
 1569000   0.62633794   -7.8949266    314.60456  0.016709399  0.015996668            6 
 1570000   0.63990884   -7.9222758    314.57044  0.016696945  0.015983707            5 
 1571000   0.63271542   -7.9296192    314.24349  0.016668973  0.015970752            8 
 1572000   0.61397816   -7.9100236    315.08405  0.016702929  0.015957806            7 
 1573000   0.63120868   -7.9373415    314.71678  0.016672853  0.015944863            8 
 1574000   0.63629815   -7.9131085    315.20655  0.016688191  0.015931947           12 
 1575000    0.6106026    -7.931712    314.74426  0.016653136  0.015919023            7 
 1576000   0.63296398   -7.9076027    314.80751  0.016645913  0.015906106            8 
 1577000   0.62813902    -7.937122    314.74726  0.016632174   0.01589321           11 
 1578000    0.6154369   -7.9147785    315.41303  0.016656793   0.01588032           10 
 1579000   0.62986482   -7.9145907     315.2595  0.016638141  0.015867453           11 
 1580000   0.62457197   -7.8947835    315.21382  0.016625201  0.015854608            7 
 1581000   0.61647681   -7.9065922    314.88236  0.016597215  0.015841792            8 
 1582000   0.62426302   -7.9128475    315.10259  0.016598324   0.01582899            7 
 1583000   0.62502985    -7.926188    314.97827  0.016581295    0.0158162           12 
 1584000   0.62937956   -7.9338048    315.32433  0.016589033   0.01580339            7 
 1585000   0.61255584   -7.9052211    315.16357  0.016570114  0.015790576            4 
 1586000    0.6258065   -7.9327771    315.51964  0.016578375  0.015777757            4 
 1587000   0.62623841   -7.9211224    314.94532  0.016537771  0.015764946            4 
 1588000   0.62407677   -7.9066912    315.04424  0.016532548  0.015752145            7 
 1589000   0.61195778   -7.9135464    314.28091  0.016482112  0.015739381            3 
 1590000   0.62793048   -7.9214683    315.08063   0.01651366  0.015726623            8 
 1591000   0.61992148   -7.9317613    314.53512  0.016474708  0.015713893            5 
 1592000   0.61903574    -7.934487    314.42359  0.016458521  0.015701143            4 
 1593000   0.61873635    -7.932384    314.71888  0.016463637  0.015688393            6 
 1594000   0.60604851   -7.9327555    314.76883   0.01645592  0.015675651           11 
 1595000   0.62580149    -7.927789    314.49758  0.016431431  0.015662908            4 
 1596000   0.61337144   -7.9406869    315.01691  0.016448251  0.015650163            3 
 1597000   0.61531269   -7.9263603    314.74561  0.016423795  0.015637447            3 
 1598000   0.61664293    -7.920037      314.502  0.016400813  0.015624752            5 
 1599000    0.6243457   -7.9250222    314.46016  0.016388376  0.015612039            3 
 1600000   0.60853888   -7.9342369    314.81757  0.016396748  0.015599359            7 
 1601000   0.61132195   -7.9258219    314.70583  0.016380691  0.015586707            7 
 1602000   0.61800692   -7.9300492    315.01907   0.01638676  0.015574056            5 
 1603000   0.60457128   -7.9575709    314.20555  0.016334246  0.015561413            5 
 1604000   0.61502263   -7.9111475    314.62386  0.016345795  0.015548787            6 
 1605000    0.6234125   -7.9154554    315.23466  0.016367324  0.015536163            4 
 1606000   0.61103689   -7.9319733    314.70009  0.016329395  0.015523549            8 
 1607000     0.622187   -7.9344545    314.44223  0.016305861  0.015510963            5 
 1608000   0.61090772   -7.9042005    314.88327  0.016318577  0.015498368            5 
 1609000   0.60422196   -7.9581561    314.19902  0.016272997  0.015485781            8 
 1610000   0.60355719     -7.94574    314.96971   0.01630278  0.015473187            9 
 1611000      0.61175   -7.9563089    314.97597  0.016292984  0.015460615            5 
 1612000   0.60677126   -7.9224752    314.30829  0.016248361  0.015448058            8 
 1613000   0.61677673   -7.9151199    314.83623  0.016265563  0.015435528           11 
 1614000   0.61660377   -7.9440653    314.34758  0.016230255  0.015422976           17 
 1615000   0.58879606   -7.9399391    314.10293  0.016207582  0.015410422            6 
 1616000   0.60685251    -7.952012    314.55552  0.016220891   0.01539791            6 
 1617000   0.60570039   -7.9377357    314.16685  0.016190829  0.015385417           14 
 1618000   0.60861186   -7.9536908    314.53684  0.016199878  0.015372936           16 
 1619000    0.5966731   -7.9441822    314.44526  0.016185159  0.015360451            8 
 1620000   0.60823467   -7.9593721    314.96047   0.01620167  0.015347969            4 
 1621000   0.61022717   -7.9554903    314.47409  0.016166671  0.015335507           13 
 1622000   0.60080421   -7.9353148     314.3053  0.016148032  0.015323051            4 
 1623000   0.61051281   -7.9501561    314.59689  0.016153054  0.015310603            7 
 1624000   0.59877922   -7.9547145    314.93837  0.016160631  0.015298164           10 
 1625000   0.59468393   -7.9488725    314.36418   0.01612124  0.015285722            9 
 1626000    0.6098249   -7.9761419    314.41438  0.016113898  0.015273319            8 
 1627000   0.60020669   -7.9456824    314.48517   0.01610762  0.015260926            4 
 1628000   0.60849496   -7.9857097    314.64462  0.016105888  0.015248511            4 
 1629000   0.60414345   -7.9411765    314.64512  0.016096026  0.015236108            5 
 1630000   0.60061002   -7.9591338    314.48311  0.016077869  0.015223726            5 
 1631000   0.59654015   -7.9629138    315.08696  0.016098864  0.015211375            4 
 1632000   0.59864414   -7.9653882    314.81153  0.016074935  0.015199036            4 
 1633000   0.60876984   -7.9643759    314.51599   0.01605001  0.015186715            7 
 1634000   0.60361076   -7.9524349    314.36646  0.016032561  0.015174399            4 
 1635000    0.6020302   -7.9539144    315.37497  0.016074158  0.015162107            4 
 1636000   0.60312725   -7.9620458    315.01834  0.016046166    0.0151498            5 
 1637000   0.60395134   -7.9603853    314.64405  0.016017311  0.015137487            4 
 1638000   0.60719233   -7.9633917    314.61883  0.016006249  0.015125178            4 
 1639000   0.59769865    -7.976443    314.74751  0.016003025  0.015112892            8 
 1640000   0.60706419   -7.9521538    314.64176  0.015987894  0.015100633            7 
 1641000   0.60078134   -7.9609551    315.31037  0.016012105  0.015088386            5 
 1642000   0.59346746   -7.9693234    314.93869   0.01598349  0.015076168            4 
 1643000   0.60115082   -7.9494449    314.89003  0.015971294  0.015063943            5 
 1644000   0.59879616   -7.9685635    313.99747  0.015916336  0.015051714            7 
 1645000   0.59365921    -7.980951    314.24272  0.015919084  0.015039495            6 
 1646000   0.60340706   -7.9834516    313.99641  0.015896943    0.0150273            3 
 1647000   0.59508472   -7.9728488    313.92663   0.01588376  0.015015099            9 
 1648000     0.591886   -7.9585077    314.73652  0.015915075  0.015002908            4 
 1649000   0.59523778    -7.960386    314.93651   0.01591553  0.014990748            4 
 1650000   0.59815118   -7.9774611    314.38388  0.015877974  0.014978584            7 
 1651000   0.60409742   -7.9686582    314.25546  0.015861875  0.014966433            9 
 1652000   0.58860954   -7.9866422    314.55128  0.015867195  0.014954304            8 
 1653000   0.59469206   -7.9604872    314.57298   0.01585869  0.014942179           10 
 1654000   0.60285252   -7.9579264    314.37655  0.015839205  0.014930072            4 
 1655000   0.60539381   -7.9667188    314.84048  0.015852995  0.014917983            6 
 1656000   0.59483356   -7.9726263    315.12604  0.015857792  0.014905897            6 
 1657000   0.59024312   -8.0076496    314.37399    0.0158104  0.014893811            6 
 1658000   0.59961255   -7.9613728    314.64873  0.015814673   0.01488172            4 
 1659000   0.58163954   -7.9881831    314.36444   0.01579086  0.014869649           17 
 1660000   0.59314244   -7.9808018    314.65335  0.015795851   0.01485759           25 
 1661000   0.60102368   -7.9829958    314.16195  0.015761687  0.014845556            9 
 1662000   0.59834716   -7.9922409     314.4926  0.015768782  0.014833546            4 
 1663000   0.58374011   -7.9677053    315.00668  0.015785061  0.014821546            6 
 1664000   0.58422009    -7.981147    314.26616   0.01573849  0.014809537            5 
 1665000    0.6010192   -7.9714101    314.93231  0.015762378  0.014797558            8 
 1666000   0.58657071   -7.9769188    315.01652  0.015757129  0.014785568           10 
 1667000   0.59501955   -7.9822197     314.1679  0.015705254  0.014773586            5 
 1668000   0.60149794   -7.9865722    313.80887  0.015677901  0.014761616            5 
 1669000   0.58360967   -7.9871795     314.4745  0.015701743   0.01474966            4 
 1670000   0.58890774   -7.9941516    314.55917  0.015696565  0.014737698            6 
 1671000   0.59244101   -7.9968924    314.41455   0.01567996  0.014725757            9 
 1672000   0.59803551   -7.9718407    314.50833  0.015675256  0.014713843            9 
 1673000    0.5762512    -7.997138    314.38165  0.015659576  0.014701923            5 
 1674000   0.58393095   -7.9838437    314.39169  0.015650721  0.014690016            7 
 1675000   0.57687144   -7.9744284    314.56463  0.015649982  0.014678126            5 
 1676000    0.5809577   -7.9771975    314.24908  0.015624954  0.014666232            6 
 1677000   0.57756604    -7.990231    314.38021  0.015622153  0.014654344            8 
 1678000   0.57841936    -7.996359    313.87216  0.015587612  0.014642484            3 
 1679000   0.57608216   -8.0025108    314.30325  0.015599724   0.01463062            4 
 1680000   0.58322983   -8.0056453    314.36416   0.01559346  0.014618746            4 
 1681000   0.59648246   -7.9768276    314.13485  0.015572816   0.01460688            8 
 1682000   0.59107296   -8.0168586    314.51017  0.015582153  0.014595021            6 
 1683000   0.57741219   -7.9929546    314.66455  0.015580538  0.014583171            7 
 1684000   0.58274994   -8.0172367     314.3456  0.015555503  0.014571341            7 
 1685000   0.57586021   -7.9948195    314.16608  0.015537393  0.014559493            6 
 1686000    0.5799424   -8.0146351    313.89054  0.015514558  0.014547667           15 
 1687000   0.59353346    -7.995827    314.49389  0.015535166  0.014535843            4 
 1688000   0.58959207   -8.0160597    314.64037  0.015533194  0.014524029            9 
 1689000   0.57916045   -8.0282827      314.243  0.015504391   0.01451222            6 
 1690000   0.58280072   -8.0179187    314.34311  0.015500154  0.014500406           10 
 1691000   0.57480054   -8.0308483    313.69695  0.015459144   0.01448861            4 
 1692000   0.57778436   -8.0280202    313.72678  0.015451476  0.014476803            7 
 1693000   0.57748141   -8.0078479    314.21148  0.015466208  0.014465018            8 
 1694000   0.58197329   -8.0328988    313.74338  0.015434051  0.014453223           10 
 1695000   0.58222357   -8.0338854    314.18077  0.015446449  0.014441455            6 
 1696000   0.57486366    -8.024721     314.0389   0.01543037  0.014429693            7 
 1697000   0.58429449   -8.0267855    313.67725  0.015403519  0.014417959           10 
 1698000   0.59335838   -8.0310527    314.29448  0.015424739  0.014406251            7 
 1699000   0.57613768   -8.0164639     313.7292  0.015387934   0.01439452            7 
 1700000   0.57632265   -8.0063785     313.8686  0.015385715   0.01438281            4 
 1701000   0.57998015    -8.030776    313.94565  0.015380445  0.014371108           10 
 1702000   0.57852135   -8.0216465    314.37896  0.015392625  0.014359422           18 
 1703000   0.57016121   -8.0188512    313.55689  0.015343359  0.014347731            6 
 1704000   0.56784824   -8.0005995    313.55516   0.01533427   0.01433606           12 
 1705000   0.56745442   -8.0391029    313.85703  0.015340031  0.014324395           10 
 1706000   0.57180678   -8.0394607    313.65639  0.015321238  0.014312733            6 
 1707000   0.57507558   -8.0205349    314.01991  0.015330009  0.014301079            5 
 1708000   0.57183357   -8.0291377    314.15575  0.015327662  0.014289456            7 
 1709000   0.57232544   -8.0189646    314.02318  0.015312229  0.014277821            5 
 1710000   0.56647024   -8.0288675    314.60932  0.015331838  0.014266199            5 
 1711000   0.56715489   -8.0197729    313.30418  0.015259311  0.014254595            4 
 1712000   0.57708934   -8.0365466       313.18  0.015244353  0.014242975            4 
 1713000   0.55635676   -8.0319126    313.98126  0.015274434  0.014231376            3 
 1714000   0.56955797    -8.028043    313.46022   0.01524019  0.014219795            5 
 1715000    0.5765131   -8.0198444    313.78388   0.01524703  0.014208229            8 
 1716000   0.56216317   -8.0356403    313.33881  0.015216531   0.01419667            5 
 1717000    0.5736619   -8.0382712      314.019  0.015240681  0.014185119            7 
 1718000   0.55516922   -8.0284521     313.8907  0.015225587  0.014173569            5 
 1719000   0.57321531   -8.0418193    313.51196  0.015198369  0.014162036            7 
 1720000   0.56883169   -8.0271971    313.38654  0.015183456  0.014150497            7 
 1721000   0.56397728   -8.0403458    313.85129  0.015197138  0.014138992            3 
 1722000    0.5898974   -8.0267531    313.95028  0.015193103  0.014127487            3 
 1723000   0.55863028   -8.0309141    313.58073  0.015166412  0.014116003            4 
 1724000   0.55376944   -8.0356906    313.83384  0.015169849  0.014104536            8 
 1725000   0.56540496   -8.0372193    313.82325  0.015160544  0.014093065            5 
 1726000   0.55604649   -8.0425713    313.72613  0.015147071  0.014081607           10 
 1727000   0.56311056   -8.0453593    313.58557  0.015131518  0.014070138           10 
 1728000   0.56891076   -8.0294363     313.2416  0.015106173  0.014058684            5 
 1729000   0.57044411     -8.05024    313.92413  0.015130332   0.01404724            4 
 1730000   0.56082437   -8.0551265     313.5489  0.015103511  0.014035809            5 
 1731000   0.55151536   -8.0476933    313.47452  0.015091205  0.014024396            8 
 1732000   0.56605826   -8.0376515    313.84729  0.015100428  0.014013001            7 
 1733000   0.56062453   -8.0242647     313.5088  0.015075438  0.014001632            7 
 1734000   0.55604205   -8.0456965     313.2253  0.015053119  0.013990247            5 
 1735000   0.56310174   -8.0428999    313.39191  0.015052445  0.013978856            3 
 1736000   0.56558772   -8.0535797    313.76578  0.015061721  0.013967479            7 
 1737000   0.56691868   -8.0324044    313.40551  0.015035766  0.013956105            6 
 1738000   0.55950162   -8.0537028    313.04836  0.015009991  0.013944744            4 
 1739000   0.55834515   -8.0458553    313.60028  0.015027807  0.013933387           10 
 1740000   0.54990945   -8.0624955    313.10778  0.014995583  0.013922039            5 
 1741000   0.55719474   -8.0428365     313.2874  0.014995568  0.013910688            8 
 1742000   0.56933883   -8.0512752     313.3048  0.014987792  0.013899365            4 
 1743000     0.561578   -8.0399196    313.34375  0.014981055  0.013888033            5 
 1744000   0.56147378   -8.0330799     313.9409  0.015000999  0.013876737            7 
 1745000   0.55345098   -8.0474007    313.62816  0.014977467  0.013865434            4 
 1746000   0.54413755   -8.0381549    313.60585  0.014967824  0.013854153            5 
 1747000   0.55371324   -8.0429605    313.38467  0.014948706  0.013842869            4 
 1748000   0.55921243   -8.0587551    313.53269   0.01494721  0.013831604            6 
 1749000   0.54983648   -8.0442793    314.05923  0.014963752  0.013820347            6 
 1750000   0.55599033   -8.0561537    313.30704  0.014919383  0.013809102            4 
 1751000   0.55330886   -8.0568353     313.4325  0.014916833  0.013797864            7 
 1752000   0.53657615    -8.040562    313.27078  0.014900627   0.01378664            6 
 1753000   0.54639262   -8.0633963    313.09187  0.014883622  0.013775425            4 
 1754000   0.55471385   -8.0550361    313.22997  0.014881697  0.013764218            7 
 1755000   0.56605938   -8.0582184    313.44618  0.014883484  0.013753011            4 
 1756000   0.54974097   -8.0358269    313.34019  0.014869979  0.013741815            4 
 1757000    0.5486112   -8.0663946    313.15233  0.014852605  0.013730643            4 
 1758000    0.5572905   -8.0357215    313.40157  0.014855971  0.013719491            5 
 1759000   0.56163085   -8.0425045    313.45263  0.014849945  0.013708352            4 
 1760000   0.55088703   -8.0557102    312.93898  0.014817187  0.013697216            9 
 1761000    0.5438496   -8.0646239    313.50153  0.014835393  0.013686093            5 
 1762000   0.54594111   -8.0569395    313.79199  0.014840711  0.013674962            4 
 1763000   0.54291347   -8.0619565    312.84637  0.014787595  0.013663848            5 
 1764000   0.53861934     -8.04391    313.46901  0.014808627  0.013652733            6 
 1765000    0.5461497   -8.0647258    313.70249   0.01481126  0.013641633            8 
 1766000   0.53584135   -8.0499088    313.43133  0.014790078  0.013630544            6 
 1767000   0.54612689   -8.0626775    313.36353   0.01477851  0.013619457            9 
 1768000   0.54217613   -8.0538204    313.44262  0.014773879  0.013608397            8 
 1769000   0.54541745   -8.0690307     313.4733  0.014766973  0.013597352            7 
 1770000   0.54916409   -8.0885751    313.11025  0.014741537  0.013586299           10 
 1771000   0.54709215   -8.0713969    313.39667  0.014746691  0.013575239            5 
 1772000   0.54526504   -8.0661732    313.03044  0.014721146  0.013564196            6 
 1773000   0.54872949   -8.0565929    312.87337   0.01470546  0.013553166            8 
 1774000   0.54868172   -8.0688685    313.04685   0.01470532   0.01354214            7 
 1775000   0.54718249   -8.0866228    312.52271  0.014672428  0.013531131            3 
 1776000   0.54366431   -8.0666199    312.82713   0.01467845  0.013520135            4 
 1777000   0.54800532   -8.0750648    313.71472  0.014711814  0.013509146            4 
 1778000   0.54171875   -8.0562744     313.0247  0.014671199  0.013498163            4 
 1779000   0.54411138   -8.0732364    313.04308  0.014663813  0.013487174            5 
 1780000   0.54120223   -8.0811974    313.07114  0.014656889  0.013476178            4 
 1781000   0.54605726   -8.0828832    312.57997  0.014625677  0.013465214            5 
 1782000   0.54756652   -8.0963522    312.64532  0.014620526  0.013454251            8 
 1783000   0.53727831   -8.0741318    312.40315  0.014601007    0.0134433            4 
 1784000   0.53608041   -8.0904005    312.72142   0.01460769  0.013432334            5 
 1785000   0.52329122   -8.0850304    313.03879  0.014614322  0.013421402            6 
 1786000    0.5407734   -8.0764471    313.08372  0.014608236  0.013410493            4 
 1787000   0.53738563   -8.0729396       313.66  0.014626935  0.013399598            6 
 1788000   0.54000019   -8.0720885    312.49779  0.014564587  0.013388714            5 
 1789000   0.54127816   -8.0724915    312.38977  0.014551415  0.013377833            3 
 1790000   0.53340154   -8.0701919     313.1253  0.014577528  0.013366967            5 
 1791000   0.53521922   -8.0923366    312.74444  0.014551668  0.013356099            4 
 1792000   0.53837041   -8.0872924    312.58311  0.014536045  0.013345231            4 
 1793000   0.51869727   -8.0949247    313.29144  0.014560859  0.013334377            3 
 1794000   0.53099522   -8.0850201    312.53054  0.014517398  0.013323518            4 
 1795000   0.53352764   -8.0847249    312.42321  0.014504327  0.013312664            4 
 1796000     0.535668   -8.0889478    312.64118  0.014506365  0.013301832            5 
 1797000   0.52527117   -8.0991915    312.50489  0.014491972  0.013291002            6 
 1798000   0.54242084   -8.0668522    312.78132  0.014496724  0.013280201            5 
 1799000   0.52139271   -8.0832158    312.66471  0.014483264  0.013269411            3 
 1800000   0.52748777   -8.0977896    312.60438  0.014472425  0.013258633            4 
 1801000   0.53773438   -8.0861472    313.12551  0.014488502  0.013247857            5 
 1802000   0.53150756   -8.0802798    312.51628  0.014452288  0.013237092            7 
 1803000   0.54322884   -8.0811434    312.38657  0.014438277  0.013226339           10 
 1804000   0.54168894   -8.0703999    312.93524  0.014455619  0.013215608            4 
 1805000   0.53038455   -8.0925438    313.07586  0.014454103  0.013204902            7 
 1806000   0.52231565   -8.0825442    312.68633  0.014428125    0.0131942            7 
 1807000   0.53093895   -8.1014174    312.59093  0.014415741  0.013183509            5 
 1808000   0.52674699   -8.1127161    312.71883  0.014413663  0.013172807            6 
 1809000   0.52466023   -8.0994025    312.69704  0.014404692  0.013162119           10 
 1810000   0.52290621   -8.0972582    312.62625  0.014393474  0.013151441            4 
 1811000   0.54086307   -8.0892409    312.34907  0.014372772  0.013140774            7 
 1812000   0.52798611   -8.0790192    312.73071  0.014382391   0.01313012            6 
 1813000   0.52780147   -8.0896661    312.84663  0.014379786  0.013119487            7 
 1814000   0.52482915   -8.0867975    312.93887  0.014376096  0.013108861            8 
 1815000   0.52587061   -8.0814773    313.18812   0.01437962  0.013098242            4 
 1816000   0.53794917   -8.1045845    312.75967  0.014352041  0.013087636            7 
 1817000   0.51373873   -8.0915527    312.69658  0.014341249  0.013077051            8 
 1818000   0.53633803   -8.1006953    312.71007  0.014333978  0.013066455            4 
 1819000   0.52069336   -8.1060137    312.99395  0.014339104  0.013055856            5 
 1820000   0.52112303   -8.1043348    312.36842  0.014302583  0.013045285           11 
 1821000   0.52406944   -8.0895109    312.27171  0.014290303  0.013034713            9 
 1822000   0.51853026   -8.1012288    312.70697  0.014302368  0.013024148            8 
 1823000   0.53458483   -8.1115935    312.94069  0.014305206  0.013013599            9 
 1824000   0.52422093   -8.0904874    312.37939  0.014271719  0.013003043            7 
 1825000    0.5235994   -8.0841739    312.72431  0.014279649  0.012992496            5 
 1826000   0.53699716   -8.1222571    312.32687  0.014253691  0.012981963            2 
 1827000   0.53097423   -8.1005923    312.69852  0.014262841  0.012971452           10 
 1828000   0.51817694   -8.0895023    312.18511  0.014231634  0.012960954            7 
 1829000   0.52418773   -8.1124372    311.89056  0.014210432  0.012950458            7 
 1830000   0.51175071   -8.1333273    311.97669  0.014206589   0.01293997            4 
 1831000   0.52999035   -8.1151093    312.31242   0.01421411  0.012929497            3 
 1832000   0.52459945   -8.1018754    312.60212  0.014219529  0.012919023            3 
 1833000   0.52072523   -8.0933108    312.23531  0.014195095  0.012908571            3 
 1834000   0.51526631   -8.1130853    312.40054  0.014194863  0.012898134            8 
 1835000   0.52799322   -8.1178534    312.57426  0.014195016  0.012887684            5 
 1836000   0.53195665   -8.1201843    312.48575  0.014183267  0.012877252            4 
 1837000   0.52630305   -8.1193672    312.30501  0.014167348  0.012866823           20 
 1838000   0.51221166    -8.110215     312.4705  0.014167143  0.012856415           11 
 1839000   0.50900874   -8.1176292    312.72067  0.014170775  0.012846011            7 
 1840000   0.51725384   -8.1149752    312.52545  0.014154232  0.012835624            8 
 1841000   0.53185187   -8.1157398    311.87088  0.014116915  0.012825235            4 
 1842000    0.5214075    -8.107952    312.28353  0.014127919  0.012814856            5 
 1843000   0.51719648    -8.102571    312.68864  0.014138571  0.012804497           10 
 1844000   0.51716733   -8.1188392    312.53286  0.014123864  0.012794154            8 
 1845000   0.52067549   -8.1196293     313.0128  0.014137886  0.012783805            6 
 1846000   0.52892723   -8.0968077    312.98693   0.01412906  0.012773463            4 
 1847000   0.51880528   -8.1138213    311.69272  0.014063018  0.012763121            4 
 1848000   0.51554875    -8.126873    311.76054  0.014058466  0.012752784            4 
 1849000    0.5059696   -8.1485971    311.62544  0.014044774  0.012742454            5 
 1850000   0.52010754   -8.1192765    312.13939  0.014060333  0.012732147            8 
 1851000   0.52945878   -8.1214144    312.49316  0.014068664  0.012721861            7 
 1852000   0.51761903   -8.1374826    312.08354  0.014042636  0.012711581            4 
 1853000   0.52084639    -8.125705    311.88934  0.014026324  0.012701294           10 
 1854000   0.51303239   -8.1154112    311.75249  0.014012607  0.012691023            4 
 1855000   0.51280532   -8.1302359     312.4883  0.014038109  0.012680745            4 
 1856000   0.50962833   -8.1276401    312.47242  0.014029832  0.012670504            5 
 1857000    0.5057493   -8.1324902    312.42614    0.0140202  0.012660258            7 
 1858000   0.51717336   -8.1296331     312.2321  0.014003951  0.012650018            6 
 1859000   0.51439894   -8.1334383    312.04645  0.013988096  0.012639794            5 
 1860000   0.51186761   -8.1145045    312.43548  0.013998005  0.012629581            3 
 1861000   0.52398659   -8.1319144    312.19191  0.013979577  0.012619389            4 
 1862000   0.50133405   -8.1352158    312.27585  0.013975826  0.012609196            3 
 1863000   0.50823364   -8.1303279    311.52291  0.013934644  0.012599008            6 
 1864000   0.50642421   -8.1133418     311.9944  0.013948248  0.012588834            4 
 1865000   0.50196664   -8.1225871    311.96997  0.013939677  0.012578664            4 
 1866000   0.50831635   -8.1326724    312.02267   0.01393456  0.012568504            4 
 1867000   0.49789961   -8.1138346    312.18622  0.013934397   0.01255836            6 
 1868000   0.52029025   -8.1194047    311.98306  0.013917874  0.012548229            3 
 1869000     0.495708    -8.131233    312.60561  0.013938185  0.012538103            4 
 1870000   0.51201411    -8.140411    312.31642  0.013917844  0.012527981            4 
 1871000   0.50302301   -8.1465655    312.48781  0.013918039  0.012517869            4 
 1872000   0.50250654   -8.1433998    312.05306  0.013891251  0.012507778            5 
 1873000   0.50643918   -8.1463915    311.60047  0.013863698  0.012497685            4 
 1874000   0.49824695   -8.1435808    311.92122  0.013870563  0.012487592            5 
 1875000   0.51352391   -8.1388739    311.71774  0.013854122  0.012477522            8 
 1876000   0.49867879   -8.1474562     311.7956  0.013850195  0.012467449            4 
 1877000   0.49946191   -8.1283758     312.0262  0.013853054  0.012457404            5 
 1878000   0.50424042   -8.1535719    312.05828  0.013847102  0.012447358            4 
 1879000   0.49016617   -8.1417402    311.65822   0.01382199  0.012437318            4 
 1880000   0.51030536   -8.1493871    312.16782  0.013837226  0.012427281            4 
 1881000   0.50297275   -8.1517639    311.56039  0.013802959   0.01241726            3 
 1882000   0.49799696   -8.1442787    311.99463  0.013814852  0.012407234            7 
 1883000   0.50574382   -8.1363077    311.55583  0.013788097  0.012397224            5 
 1884000   0.49029869   -8.1508329    311.87462  0.013794879  0.012387226            3 
 1885000   0.49538399   -8.1488279    311.99297  0.013792793   0.01237724            6 
 1886000   0.50190539   -8.1638201     311.4898  0.013763247  0.012367259            5 
 1887000   0.49744874   -8.1682265    311.58523  0.013760168   0.01235729            6 
 1888000   0.49837418    -8.152841    311.56111  0.013751815  0.012347328            3 
 1889000   0.49288361   -8.1467795      311.279  0.013732089  0.012337381            9 
 1890000   0.50769706   -8.1540777    311.55497  0.013736992  0.012327437            5 
 1891000   0.50349466    -8.162913    311.08487  0.013709011  0.012317505            4 
 1892000   0.50507179   -8.1484906    311.79687  0.013733125  0.012307581            4 
 1893000   0.49602137   -8.1749365    311.07361  0.013694031  0.012297659            5 
 1894000   0.48076292   -8.1723492    311.09689  0.013687825  0.012287752            3 
 1895000   0.49779708   -8.1598885    311.98543  0.013719676  0.012277852            6 
 1896000   0.49705407   -8.1741566    311.68661  0.013699306  0.012267963            5 
 1897000   0.50134001   -8.1672449     311.6846  0.013691996  0.012258078            7 
 1898000   0.50344164    -8.167208     311.6633  0.013683847  0.012248207            3 
 1899000   0.49896781   -8.1557645    311.19424  0.013656058  0.012238342            4 
 1900000   0.49414999   -8.1571134     311.4352  0.013659438  0.012228493            4 
 1901000   0.48787032   -8.1619053    311.80324  0.013668387  0.012218657            5 
 1902000   0.49420144    -8.177717    311.73333  0.013658137  0.012208822            8 
 1903000   0.48982454   -8.1704115    310.86756  0.013613048  0.012198986            6 
 1904000   0.49156038   -8.1517699    311.36692  0.013627754  0.012189164            4 
 1905000   0.49631654   -8.1483676    311.30984  0.013618103   0.01217935            5 
 1906000   0.50083267   -8.1777835    311.59061  0.013623234  0.012169557            4 
 1907000   0.49461275   -8.1574558    311.72918  0.013622146  0.012159764            5 
 1908000   0.49556051   -8.1666429    311.18999  0.013591456  0.012149979            3 
 1909000   0.48960775   -8.1691035    311.68283  0.013605851  0.012140202            3 
 1910000   0.47213811   -8.1776482    311.43694  0.013587999   0.01213043            3 
 1911000   0.49061847   -8.1776634    311.28224  0.013574143  0.012120663            4 
 1912000   0.47930843   -8.1714847    311.43694  0.013573786  0.012110905            5 
 1913000   0.48443705   -8.1653618    311.49372  0.013569164  0.012101164            6 
 1914000   0.49587052   -8.1695513    311.53309  0.013563788  0.012091431            4 
 1915000   0.47944469   -8.1790219    311.56429  0.013558063  0.012081707            4 
 1916000   0.48898571   -8.1709222    311.41486  0.013544488  0.012071988            6 
 1917000   0.49020473   -8.1881152    311.50436  0.013541313  0.012062283            4 
 1918000    0.4911985   -8.1713423    311.64131  0.013540203  0.012052592            4 
 1919000   0.49209688   -8.1769979    311.63341  0.013532804  0.012042904            5 
 1920000    0.4815018   -8.1676822    311.00515  0.013498487  0.012033224            5 
 1921000   0.50188573   -8.1652446    310.94789  0.013488976  0.012023557            4 
 1922000   0.48879681   -8.1720761    311.19504  0.013492674  0.012013904            8 
 1923000   0.48784793   -8.1865517    311.76458  0.013510339  0.012004263            6 
 1924000   0.48806287   -8.1710655    311.42126  0.013488447  0.011994623            3 
 1925000   0.47004659   -8.1707086    311.54146  0.013486643  0.011984996           11 
 1926000   0.49646275   -8.1676642    311.56095  0.013480484  0.011975383            5 
 1927000   0.48640349   -8.1721566    311.13973  0.013455273  0.011965773            4 
 1928000   0.48954467   -8.1763662    311.28675  0.013454649  0.011956174            5 
 1929000   0.48821582   -8.1723011    310.54433  0.013415601  0.011946579            6 
 1930000   0.47865495   -8.1752089    310.93093  0.013425342   0.01193699            4 
 1931000   0.49338251    -8.181213    310.83826  0.013414391  0.011927408            4 
 1932000    0.4862812   -8.1825821    311.93461  0.013454736   0.01191784            6 
 1933000   0.48420282   -8.1804079    311.41545  0.013425395  0.011908278            4 
 1934000   0.47991987    -8.180601    311.29538  0.013413279   0.01189873            4 
 1935000   0.47932124   -8.1850185    310.77073  0.013383752  0.011889189            3 
 1936000    0.4735136   -8.1939376     311.2164  0.013396023  0.011879657            5 
 1937000   0.47906014   -8.1869988    311.22396  0.013389432  0.011870141            3 
 1938000   0.48047614   -8.2034752    311.43674  0.013391673  0.011860633            6 
 1939000   0.46964285   -8.1933348    311.26981  0.013377592  0.011851133            3 
 1940000   0.47557686   -8.1836021    311.48473  0.013379928  0.011841641            6 
 1941000   0.48190267   -8.1829156     311.3302  0.013366401   0.01183216            3 
 1942000   0.48368821   -8.1961482    311.04942  0.013347469  0.011822692            3 
 1943000   0.47957199   -8.2055297    311.35601  0.013353749   0.01181322            4 
 1944000   0.48149683   -8.1820223    310.98371   0.01333092  0.011803772            4 
 1945000   0.48228955   -8.1848625     310.8216  0.013317121  0.011794325            4 
 1946000   0.47692447   -8.1945684    311.19958  0.013326464  0.011784886            4 
 1947000   0.46912723   -8.1969086    310.99992  0.013311074  0.011775459            4 
 1948000   0.47266842    -8.196056     311.3092  0.013317471  0.011766037            5 
 1949000   0.47983994   -8.1860648    310.98564  0.013296803  0.011756623            5 
 1950000   0.47798187   -8.1979108    310.83022  0.013283343  0.011747222            4 
 1951000   0.47062847   -8.2035274    311.36782  0.013299497  0.011737825            3 
 1952000   0.47424092   -8.1946595    310.75014  0.013266314   0.01172843            5 
 1953000   0.47319076   -8.1794687     311.0827  0.013273712  0.011719054            5 
 1954000   0.46436226   -8.1903215    310.85538  0.013257224  0.011709691            6 
 1955000   0.46220168   -8.2075597    311.10886  0.013261247  0.011700334            7 
 1956000    0.4736737    -8.198847     311.4759  0.013270105  0.011690987            6 
 1957000   0.47314504   -8.1944297    310.98904  0.013242592  0.011681661            4 
 1958000   0.47186448   -8.2045122     311.0041   0.01323647  0.011672342            9 
 1959000   0.46525524   -8.2093588    311.38634  0.013245973  0.011663022            5 
 1960000   0.45914802   -8.1714373    310.39296   0.01319698   0.01165371            3 
 1961000   0.46808325   -8.2089683     311.1094  0.013220695  0.011644412            6 
 1962000    0.4593596   -8.2122341    311.10815  0.013213904  0.011635118            3 
 1963000   0.47370153   -8.1820984    310.70147  0.013189908  0.011625834            5 
 1964000   0.47578143   -8.1944021    310.89326   0.01319133  0.011616556            5 
 1965000   0.47102796   -8.1932451    310.87285  0.013183751  0.011607292            7 
 1966000   0.46635273   -8.2062737    310.79702  0.013173831  0.011598033            5 
 1967000   0.47924022   -8.2105801    310.77199  0.013166073   0.01158877            5 
 1968000   0.46628123   -8.1917624    310.36614  0.013142198  0.011579525            5 
 1969000   0.46858971   -8.2019101    310.82843  0.013155088  0.011570296            5 
 1970000   0.45831191   -8.2252764    311.49088  0.013176433  0.011561067            4 
 1971000   0.46700373   -8.2163311    311.07613  0.013152212   0.01155185            4 
 1972000   0.46927215    -8.211992    310.63816  0.013127035  0.011542639            3 
 1973000   0.44938212   -8.2231715     311.2095  0.013144513  0.011533439            7 
 1974000   0.47288377   -8.1998624    310.56739  0.013110748  0.011524239            6 
 1975000   0.46803535   -8.1941531    310.86597  0.013116708  0.011515057            6 
 1976000   0.46068144   -8.1965039     311.0306  0.013117012  0.011505879            6 
 1977000   0.46738145   -8.2037663    311.05768  0.013111519  0.011496713            5 
 1978000   0.46396307    -8.215658    310.39393  0.013076927  0.011487545            4 
 1979000   0.46639498   -8.2154716    310.70808  0.013083547  0.011478391            4 
 1980000   0.45366564   -8.2206749    310.62755   0.01307355  0.011469254            8 
 1981000   0.47031869   -8.2117988    310.68843  0.013069511   0.01146012            7 
 1982000   0.46957149    -8.198149    310.90137  0.013071871  0.011451005            7 
 1983000   0.46398484   -8.2267523    310.52363  0.013049405  0.011441898            6 
 1984000    0.4544024   -8.2070484    311.35367  0.013077691  0.011432793            5 
 1985000   0.46686432   -8.2224387    310.48175  0.013034498  0.011423702            4 
 1986000   0.44416061   -8.2121907    310.82112  0.013042175  0.011414617            3 
 1987000    0.4648987   -8.2097567    310.57008  0.013025083   0.01140554            3 
 1988000   0.45665795   -8.2174201    310.64028  0.013021474  0.011396472            5 
 1989000   0.46280622   -8.2114967    310.83081   0.01302291  0.011387402            8 
 1990000   0.47237926   -8.2298612     310.8307  0.013016361  0.011378352            4 
 1991000   0.45771465   -8.2224457    310.31502   0.01298824  0.011369308            3 
 1992000   0.45660442   -8.2169373     311.0215  0.013011274  0.011360278            9 
 1993000   0.45096316   -8.2116599    310.84456  0.012997348  0.011351244            4 
 1994000   0.45896524   -8.2295833    310.60101  0.012980651  0.011342221            8 
 1995000   0.47537984   -8.2084975    310.85105  0.012984589  0.011333214            4 
 1996000    0.4535813   -8.2235323    310.45153  0.012961403  0.011324221            4 
 1997000   0.46000357     -8.21437    310.59228  0.012960786  0.011315233            5 
 1998000   0.44261949   -8.2268551    310.81332  0.012963519  0.011306255            5 
 1999000    0.4561693    -8.234519    310.66426   0.01295082   0.01129729            5 
 2000000   0.44572939   -8.2192295     310.1446  0.012922692  0.011288331            6 
 2001000   0.45659119   -8.2265109    310.91714  0.012948407  0.011279374            5 
 2002000   0.45145632   -8.2237005    310.48544  0.012923969  0.011270432            7 
 2003000   0.45390286   -8.2332127    310.62812  0.012923453  0.011261498           10 
 2004000   0.45289798   -8.2286454    310.53302   0.01291305  0.011252571            7 
 2005000   0.46615191   -8.2282176    310.51665  0.012905929  0.011243654            6 
 2006000   0.44283242   -8.2281245    310.38115  0.012893866  0.011234739            9 
 2007000   0.44789494   -8.2129837    310.23565    0.0128814  0.011225831            4 
 2008000   0.45270894   -8.2226808    310.17041  0.012872278  0.011216941           11 
 2009000   0.44529511   -8.2200084    310.30602  0.012871496  0.011208059           10 
 2010000   0.45478521   -8.2141365    309.70405  0.012840135  0.011199179            5 
 2011000   0.44762657   -8.2271147    310.72327  0.012875985  0.011190312            8 
 2012000   0.45474201   -8.2354627    310.43326  0.012857574   0.01118146            9 
Loop time of 4550.18 on 48 procs for 2000000 steps with 4000 atoms

Performance: 75952.989 tau/day, 439.543 timesteps/s
99.4% CPU use with 48 MPI tasks x no OpenMP threads

MPI task timing breakdown:
Section |  min time  |  avg time  |  max time  |%varavg| %total
---------------------------------------------------------------
Pair    | 283.91     | 300.68     | 321.02     |  53.4 |  6.61
Neigh   | 29.596     | 30.628     | 31.87      |   9.6 |  0.67
Comm    | 273.23     | 297.11     | 316.1      |  57.4 |  6.53
Output  | 4.3381     | 4.3402     | 4.3819     |   0.3 |  0.10
Modify  | 3862.8     | 3874       | 3883       |   7.8 | 85.14
Other   |            | 43.47      |            |       |  0.96

Nlocal:        83.3333 ave          90 max          73 min
Histogram: 1 2 3 2 5 10 5 10 5 5
Nghost:        1927.79 ave        1944 max        1907 min
Histogram: 1 1 2 6 13 8 2 7 2 6
Neighs:        12209.3 ave       13613 max       10205 min
Histogram: 1 0 7 2 6 7 10 4 8 3
FullNghs:      24418.0 ave       26752 max       20994 min
Histogram: 1 2 1 5 6 7 10 7 4 5

Total # of neighbors = 1172066
Ave neighs/atom = 293.01650
Neighbor list builds = 107501
Dangerous builds = 0

#clear
#
#next RN
#
#jump SELF
Total wall time: 1:15:53
