
units lj                  # Use reduced LJ style units
atom_style atomic         # Uncharged point particles
atom_modify map hash      # Needed for indexing of clusters etc
                          # Used to be able to find where atoms are in relation to each other.

lattice fcc 1.0 spacing 1 1 1
Lattice spacing in x,y,z = 1.5874011 1.5874011 1.5874011
region box block 0 10 0 10 0 10 units lattice
create_box 2 box
Created orthogonal box = (0.0000000 0.0000000 0.0000000) to (15.874011 15.874011 15.874011)
  3 by 4 by 4 MPI processor grid
create_atoms 1 box
Created 4000 atoms
  using lattice units in orthogonal box = (0.0000000 0.0000000 0.0000000) to (15.874011 15.874011 15.874011)
  create_atoms CPU = 0.002 seconds
set type 1 type/fraction 2 0.92 78393
Setting atom values ...
  3673 settings made for type/fraction
mass 1 1.0
mass 2 1.0
pair_style lj/cut  3.5
pair_modify tail  yes
pair_coeff 1  1  1.0  1.0   # Intearaction between 1 and 1 set with epsilon = 1 and sigma = 1
pair_coeff 1  2  1.5  0.8
pair_coeff 2  2  0.5  0.88

write_data data.0
System init for write_data ...
Neighbor list info ...
  update every 1 steps, delay 10 steps, check yes
  max neighbors/atom: 2000, page size: 100000
  master list distance cutoff = 3.8
  ghost atom cutoff = 3.8
  binsize = 1.9, bins = 9 9 9
  1 neighbor lists, perpetual/occasional/extra = 1 0 0
  (1) pair lj/cut, perpetual
      attributes: half, newton on
      pair build: half/bin/atomonly/newton
      stencil: half/bin/3d
      bin: standard
WARNING: Not all mixed pair coeffs generated from mixing. Use write_data with 'pair ij' option to store all pair coeffs. (../write_data.cpp:312)


#############################
#   M E L T   S Y S T E M   #
#############################

velocity all create 2.4 3143649 mom yes dist gaussian # Assign velocities
                                                    # Temperature 2.4, random number seed, zero linear momentum
                                                                                # Gaussian distribution

timestep 0.002   # simulation timestep
thermo 1000       # output thermodynamic data every 1000 steps bf 100

# Define a fix  in this case with index 1 applied to all
# particles in the simulation. This fix is for simulations
# in the anisotropic NPT ensemble. Note that we use the MTK
# correction.
fix 1 all npt temp 2.4 2.4 0.1 iso 5.68 5.68 0.5 mtk yes tchain 5 pchain 5 # Use NPT ensemble
                                                                         # Set temperature and pressure and damping
                                                                         # Numbers of thermostats in chain and in barostat
run 10000          # run for 10000 steps
Per MPI rank memory allocation (min/avg/max) = 3.642 | 3.644 | 3.648 Mbytes
Step Temp E_pair E_mol TotEng Press Volume 
       0          2.4   -3.0929104            0   0.50618957   -2.4174795         4000 
    1000    2.3859001   -2.0773318            0    1.5006237    5.5380764    4072.1823 
    2000     2.338511   -2.0645425            0     1.442347    5.6533823    4063.9119 
    3000    2.4083693   -2.0410812            0    1.5705696    5.5986498    4085.3458 
    4000    2.4269277   -2.0553702            0    1.5841112    5.8543926    4045.0961 
    5000    2.3987706   -2.0537657            0    1.5434907    5.5485469    4090.7951 
    6000    2.3979231   -2.0876259            0    1.5083596    5.2995951    4094.0791 
    7000    2.3485288   -2.0679482            0    1.4539643    5.6959918    4046.4729 
    8000    2.3448873   -2.0653542            0    1.4510975    5.4657368    4083.6415 
    9000    2.4143952   -2.0577165            0    1.5629708    5.6270696    4086.5516 
   10000    2.4306916    -2.105395            0    1.5397309    5.4472209    4059.7879 
Loop time of 2.43976 on 48 procs for 10000 steps with 4000 atoms

Performance: 708266.331 tau/day, 4098.763 timesteps/s
99.6% CPU use with 48 MPI tasks x no OpenMP threads

MPI task timing breakdown:
Section |  min time  |  avg time  |  max time  |%varavg| %total
---------------------------------------------------------------
Pair    | 1.0749     | 1.1421     | 1.2036     |   2.7 | 46.81
Neigh   | 0.20711    | 0.21553    | 0.22391    |   0.8 |  8.83
Comm    | 0.76399    | 0.82866    | 0.90138    |   3.6 | 33.96
Output  | 0.00026209 | 0.00026583 | 0.00033564 |   0.0 |  0.01
Modify  | 0.21009    | 0.23826    | 0.26225    |   2.8 |  9.77
Other   |            | 0.01498    |            |       |  0.61

Nlocal:        83.3333 ave          93 max          72 min
Histogram: 2 4 2 2 8 10 7 7 3 3
Nghost:        1622.92 ave        1653 max        1598 min
Histogram: 3 2 6 8 12 4 5 5 1 2
Neighs:        9412.62 ave       10858 max        7758 min
Histogram: 1 4 2 5 9 7 6 9 3 2

Total # of neighbors = 451806
Ave neighs/atom = 112.95150
Neighbor list builds = 914
Dangerous builds = 240

# Equilibrate just above the melting temperature to avoid step fn in T

fix 1 all npt temp 1.25 1.25 0.1 iso 5.68 5.68 0.5 mtk yes tchain 5 pchain 5
run 2000
Per MPI rank memory allocation (min/avg/max) = 3.643 | 3.645 | 3.649 Mbytes
Step Temp E_pair E_mol TotEng Press Volume 
   10000    2.4306916    -2.105395            0    1.5397309    5.4472209    4059.7879 
   11000    1.2682521   -3.1191677            0   -1.2172652    5.6666702    3143.9589 
   12000    1.2737707   -3.1115977            0   -1.2014193    5.7889768    3147.4791 
Loop time of 0.599852 on 48 procs for 2000 steps with 4000 atoms

Performance: 576142.202 tau/day, 3334.156 timesteps/s
99.6% CPU use with 48 MPI tasks x no OpenMP threads

MPI task timing breakdown:
Section |  min time  |  avg time  |  max time  |%varavg| %total
---------------------------------------------------------------
Pair    | 0.26867    | 0.29146    | 0.31991    |   1.9 | 48.59
Neigh   | 0.039286   | 0.041458   | 0.044018   |   0.5 |  6.91
Comm    | 0.18648    | 0.21772    | 0.2446     |   2.6 | 36.30
Output  | 5.245e-05  | 5.3919e-05 | 7.1054e-05 |   0.0 |  0.01
Modify  | 0.041738   | 0.044329   | 0.047328   |   0.8 |  7.39
Other   |            | 0.004828   |            |       |  0.80

Nlocal:        83.3333 ave          90 max          77 min
Histogram: 5 0 2 11 8 5 9 2 3 3
Nghost:        1924.15 ave        1953 max        1890 min
Histogram: 1 3 3 4 8 9 10 6 2 2
Neighs:        12127.0 ave       13681 max       10702 min
Histogram: 3 4 4 6 5 12 8 2 3 1

Total # of neighbors = 582098
Ave neighs/atom = 145.52450
Neighbor list builds = 143
Dangerous builds = 8

#############################
# L I N E A R  Q U E N C H  #
#############################

# Define solid atoms. This closely follows ten Wolde  Ruiz-Montero and Frenkel  Faraday Discuss  1996  104  93-110
# Compute components of the per-atom q6 vector
compute q6 all orientorder/atom degrees 1 6 components 6 nnn NULL cutoff 1.3 # compute the Q6 parameter.
                                                                             # Use all neighbours within 1.3 unit cell.

# get number of connections
compute coord_number all coord/atom orientorder q6 0.5

# An atom is solid if it has 8 or more connections (of a possible 14)
variable is_solid atom c_coord_number>=8
group solid dynamic all var is_solid    # Must be dynamic to update
dynamic group solid defined

# do clustering
compute cluster solid cluster/atom 1.3 # Create a cluster where all atoms within are solid and max 1.3 units from another member

# define chunks one chunk per cluster
compute clus_chunks solid chunk/atom c_cluster nchunk every compress yes  # Says which atoms are in which chunk

# count the size of each chunk
compute size_chunks solid property/chunk clus_chunks count


# Find the maximum entry in the vector of chunk sizes
variable max_n equal max(c_size_chunks)


# Thermo style which includes this variable
# thermo_style custom step temp pe vol v_max_n

thermo ${N}  # Print the thermo information every 100 steps
thermo 1000  

# Reset the npt fix at a lower temperature (below freezing)
fix 1  all npt temp  ${temp} ${temp}  0.1  iso  5.68  5.68  0.5  mtk yes tchain  5  pchain  5
fix 1  all npt temp  0.45 ${temp}  0.1  iso  5.68  5.68  0.5  mtk yes tchain  5  pchain  5
fix 1  all npt temp  0.45 0.45  0.1  iso  5.68  5.68  0.5  mtk yes tchain  5  pchain  5

dump dmp2 all dcd ${N} traj.dcd
dump dmp2 all dcd 1000 traj.dcd


compute msd all msd com yes
variable twopoint equal c_msd[4]/6/(step*dt+1.0e-6)
fix 9 all vector 10 c_msd[4]
variable fit equal slope(f_9)/6/(10*dt)
thermo_style custom step temp pe c_msd[4] v_twopoint v_fit v_max_n

fix 1 all npt temp 1.25 ${temp} 0.1 iso 5.68 5.68 0.5 mtk yes tchain 5 pchain 5
fix 1 all npt temp 1.25 0.45 0.1 iso 5.68 5.68 0.5 mtk yes tchain 5 pchain 5
run 500000 # 5000000  # Run for this many steps
Neighbor list info ...
  update every 1 steps, delay 10 steps, check yes
  max neighbors/atom: 2000, page size: 100000
  master list distance cutoff = 3.8
  ghost atom cutoff = 3.8
  binsize = 1.9, bins = 8 8 8
  4 neighbor lists, perpetual/occasional/extra = 1 3 0
  (1) pair lj/cut, perpetual
      attributes: half, newton on
      pair build: half/bin/atomonly/newton
      stencil: half/bin/3d
      bin: standard
  (2) compute orientorder/atom, occasional
      attributes: full, newton on
      pair build: full/bin/atomonly
      stencil: full/bin/3d
      bin: standard
  (3) compute coord/atom, occasional
      attributes: full, newton on
      pair build: full/bin/atomonly
      stencil: full/bin/3d
      bin: standard
  (4) compute cluster/atom, occasional
      attributes: full, newton on
      pair build: full/bin/atomonly
      stencil: full/bin/3d
      bin: standard
Per MPI rank memory allocation (min/avg/max) = 9.821 | 9.825 | 9.832 Mbytes
Step Temp PotEng c_msd[4] v_twopoint v_fit v_max_n 
   12000    1.2737707   -3.1115977 1.6946704e-30 1.1768544e-32 8.3333333e+20            2 
   13000    1.2523341   -3.1036796    1.0313922 0.0066114883   0.08643884            3 
   14000    1.2682229   -3.1140429    2.1739757  0.012940331  0.091998475            2 
   15000    1.2452192   -3.1042327    3.2825068  0.018236148  0.092826315            2 
   16000    1.2476464   -3.1182038    4.4441683  0.023146709  0.093500112            2 
   17000    1.2529826   -3.0934905    5.5171023  0.027044618  0.093295135            2 
   18000    1.2569928   -3.0957714    6.6519158  0.030795905  0.093373424            1 
   19000    1.2513109    -3.101559    7.6159361  0.033403228  0.092696343            1 
   20000    1.2166463   -3.0989531    8.6972916  0.036238714  0.091713279            2 
   21000    1.2595156   -3.1445024    9.7581072  0.038722647  0.091177079            2 
   22000    1.2439251   -3.1717968    10.898656  0.041282788  0.091086579            4 
   23000     1.237104   -3.1081664    12.059804  0.043694939  0.091122895            2 
   24000    1.2224775   -3.1586686     13.28709  0.046135729  0.091435035            1 
   25000    1.2173386   -3.1116053    14.355685  0.047852282  0.091945825            1 
   26000    1.2203971   -3.1442039    15.331219  0.049138522  0.092148507            1 
   27000    1.2127803    -3.158473    16.550127  0.051080637  0.092082875            3 
   28000    1.2309914   -3.1777985    17.631884  0.052475845  0.092028947            1 
   29000    1.2122714   -3.1457917    18.756747  0.053898699  0.092067343            2 
   30000    1.2048695   -3.1866103     20.04524  0.055681222  0.092230333            2 
   31000    1.2090796   -3.1612211    21.169395  0.056906974  0.092531256            1 
   32000    1.1879215   -3.1430959    22.318273  0.058120501  0.092744897            3 
   33000    1.2200576   -3.1225291    23.497125  0.059336174  0.092870193            4 
   34000    1.2302088   -3.1574412    24.730219  0.060613281  0.093147164            1 
   35000    1.2386749   -3.1406563     26.20588  0.062394952  0.093582802            3 
   36000    1.2230271   -3.1626111    27.385158  0.063391569  0.094005681       -1e+20 
   37000    1.2182915   -3.1798189    28.311433  0.063764488  0.094322003            3 
   38000     1.162043   -3.1355304    29.796762  0.065343776  0.094605356            2 
   39000    1.1916501   -3.1493115    30.692809  0.065582923  0.094811868            2 
   40000    1.2085014   -3.1775286    31.796534  0.066242779  0.094935878            3 
   41000    1.1944095   -3.1780727    32.947732  0.066966935  0.095044625            3 
   42000    1.1886609   -3.1764428    34.159413  0.067776613  0.095191834            2 
   43000    1.1982162   -3.1381797    35.073773  0.067972427  0.095280565            4 
   44000    1.1993256   -3.1546878     36.10069  0.068372518  0.095304902            3 
   45000    1.2030443    -3.177335    37.111867  0.068725679  0.095236375            2 
   46000    1.2113406   -3.2010928    38.193547  0.069191207  0.095109899            1 
   47000    1.1743561    -3.141667    39.158874  0.069430627  0.095011163            1 
   48000    1.1975853   -3.1816341     40.19675  0.069786023  0.094842068            1 
   49000    1.1842146   -3.1815703    41.101101  0.069899832  0.094649937            1 
   50000    1.1829175   -3.1644949    42.134925  0.070224874  0.094413843            1 
   51000    1.2009707   -3.1624781    43.353089   0.07083838  0.094185868            2 
   52000    1.1924179   -3.1806492    44.014795   0.07053653   0.09393196            1 
   53000    1.2007709   -3.1874843    45.273982  0.071185506  0.093694288            1 
   54000    1.1893818   -3.1945545    46.224377  0.071333914  0.093462158            2 
   55000    1.2068563   -3.1963004    47.158087  0.071451647  0.093217364            1 
   56000    1.1661711   -3.1688878    48.273223  0.071835153  0.092982177            2 
   57000     1.202089    -3.188395    48.702459  0.071202425  0.092714311            4 
   58000    1.1901235    -3.212328    49.803048  0.071556102  0.092394921            1 
   59000    1.1706558   -3.2005474    50.663211  0.071558208  0.092087951            1 
   60000    1.1508112   -3.2103293    51.742423  0.071864475  0.091813566            2 
   61000    1.1982254   -3.1883257    52.984375  0.072383026  0.091546877            2 
   62000    1.1757776   -3.1897854    53.649793  0.072109936  0.091283267            2 
   63000    1.1698628     -3.20911    54.799509  0.072486122  0.091045099            1 
   64000    1.1485998   -3.2291753    55.494428   0.07225837  0.090812854            2 
   65000    1.1750036   -3.2175535    56.668554  0.072651992  0.090551622            2 
   66000    1.1630101   -3.1741307    57.791436  0.072968984  0.090314927            2 
   67000    1.1752641   -3.2315888    58.789481  0.073121244  0.090120356            1 
   68000    1.1407265   -3.2178116    59.842223  0.073336057  0.089920114            2 
   69000    1.1596091   -3.2062073    60.643101   0.07324046  0.089700105            1 
   70000    1.1582261   -3.2329447    61.651326  0.073394435  0.089502996            2 
   71000    1.1655347   -3.2142739    62.595386  0.073468762  0.089302496            2 
   72000    1.1356117   -3.2141216    63.633272   0.07364962  0.089115587            2 
   73000    1.1331358   -3.2483705    64.389425  0.073503909  0.088915943            2 
   74000    1.1207364   -3.2106482    65.490077  0.073750087  0.088697979            1 
   75000    1.1590931   -3.2262703    66.220793  0.073578659  0.088510519            2 
   76000    1.1469223   -3.2338394    67.735849  0.074271763  0.088338629            2 
   77000    1.1312224   -3.2675346    68.153488  0.073759186  0.088153713            1 
   78000    1.1147479   -3.2412024    68.666147  0.073361268  0.087952614            6 
   79000    1.1297809    -3.271414    69.701522  0.073524812  0.087733495            3 
   80000    1.1358816    -3.269113    70.370761  0.073302876  0.087496874            1 
   81000    1.1326766   -3.2505958    71.363124  0.073418851   0.08725819            2 
   82000    1.1542643   -3.2877635    71.607256  0.072771601  0.087016728            2 
   83000     1.134812   -3.2476251    72.575588  0.072867055  0.086755721            1 
   84000     1.142116   -3.2926493    73.182251  0.072601439   0.08648067            2 
   85000    1.1298163   -3.2741295    74.301332  0.072844443  0.086200695            2 
   86000    1.1504692   -3.2833906    75.284915  0.072950498  0.085918826            5 
   87000     1.147986   -3.2711364     75.82777  0.072631963   0.08566174            1 
   88000    1.1442595   -3.2430805    77.275671  0.073177718  0.085422587            1 
   89000    1.1212817   -3.2515756    78.043625  0.073074555   0.08520552            1 
   90000    1.1312553   -3.2360294    79.151032  0.073287993  0.084994522            2 
   91000    1.1181472   -3.2668615    79.623404  0.072915205   0.08478436            2 
   92000    1.1292664   -3.2810808    80.742784  0.073136579  0.084578625            1 
   93000    1.1415351   -3.2736393    81.555363  0.073078282  0.084381929            1 
   94000    1.1206555   -3.2435812    82.957686  0.073544047  0.084208387            2 
   95000    1.1023298   -3.2917258      83.6718  0.073396315  0.084047457            2 
   96000    1.1089649   -3.2726557    84.652689  0.073483237  0.083896007            3 
   97000    1.1048864   -3.2615793    85.371926  0.073343578  0.083743579            2 
   98000    1.1018576   -3.2824237    86.450767  0.073512557  0.083596794            2 
   99000    1.1067163   -3.2791133    86.781315  0.073048244   0.08344521            2 
  100000    1.1097485   -3.2580169    88.172246  0.073476872  0.083276216            2 
  101000    1.1011462   -3.2538822    89.207999  0.073603959  0.083129059            2 
  102000    1.0996044   -3.2868876    90.124272  0.073630941  0.082982379            2 
  103000    1.1219949   -3.2703444    91.211321  0.073795567  0.082858219            1 
  104000    1.1139272   -3.2807763    91.963684  0.073688849  0.082739935            1 
  105000    1.1049871   -3.2994327    92.651383  0.073532843  0.082601835            2 
  106000    1.1086222   -3.3141577    93.054106  0.073155743  0.082462789            2 
  107000    1.1034486   -3.3215164    94.442322   0.07355321  0.082330263            3 
  108000    1.0926344   -3.2826672    95.299893  0.073533868  0.082202094            2 
  109000    1.1128918   -3.3046252    95.825122  0.073260796  0.082074735            2 
  110000    1.0962287   -3.3319421    96.831642  0.073357304   0.08194407            2 
  111000    1.0760955   -3.2832412    97.794294  0.073419139  0.081812835            4 
  112000    1.0823362    -3.334869    98.022411  0.072933341   0.08167154            2 
  113000     1.102493   -3.3101197    99.036739  0.073035943  0.081520591            4 
  114000    1.1069172   -3.3419552    99.888704  0.073018058   0.08136926            3 
  115000    1.0993342   -3.3461715    100.39951  0.072753266    0.0812187            3 
  116000    1.0827296   -3.3185891    101.38485  0.072833947  0.081071852            6 
  117000    1.0581291   -3.3177537    102.81336  0.073228891   0.08092814            4 
  118000    1.0724535   -3.3101501    103.66359  0.073208748   0.08080102            1 
  119000    1.0658426   -3.3374229    103.93754  0.072785389  0.080674621            2 
  120000    1.0864733   -3.3176987    104.82675  0.072796353  0.080539761            4 
  121000     1.093798   -3.3405893    105.71599  0.072807153  0.080399891            2 
  122000    1.0708573   -3.3425912    106.40909  0.072683806  0.080265535            4 
  123000    1.0743233   -3.3332951    106.95321  0.072461525  0.080128798            1 
  124000    1.0684557   -3.3168596    107.57511  0.072295099  0.079975637            3 
  125000    1.0571733   -3.3369655    108.15085  0.072100564   0.07982127            1 
  126000    1.0557812   -3.3365515    109.22489  0.072238681  0.079663615            1 
  127000    1.0733788   -3.3711189     109.6557  0.071952556  0.079507718            1 
  128000    1.0757978    -3.321517    110.52021  0.071953261   0.07935109            4 
  129000    1.0831898   -3.3695121    110.91327    0.0716494  0.079181942            2 
  130000    1.0588545   -3.3412772    111.85588  0.071702485  0.079019208            3 
  131000    1.0509534   -3.3505446    112.87083  0.071800781   0.07886027            5 
  132000    1.0523496   -3.3337932    112.88105  0.071263291  0.078704814            2 
  133000    1.0570965   -3.3445517      113.652  0.071210525  0.078544835            3 
  134000    1.0359493   -3.3747329    114.85406  0.071426652  0.078381741            3 
  135000    1.0640287   -3.3552367    115.86194  0.071519717  0.078223062            2 
  136000    1.0461987   -3.3840294     116.2806  0.071250366   0.07807012            1 
  137000    1.0708282   -3.3645438    116.96419  0.071146103  0.077916618            2 
  138000    1.0623224   -3.3463418    118.10402  0.071318852  0.077770679            3 
  139000    1.0414142   -3.4120369    118.57587  0.071088652  0.077621125            1 
  140000    1.0517698   -3.3890902    119.77215  0.071292947  0.077475911            2 
  141000    1.0510161   -3.4134457    119.83573  0.070824902  0.077333597            2 
  142000    1.0634972   -3.3754291    121.14788  0.071096173  0.077185621            2 
  143000    1.0481865   -3.3696974    121.71577  0.070929937  0.077045441            1 
  144000    1.0409114   -3.3923449    122.14829  0.070687668  0.076902817            2 
  145000    1.0215958   -3.3892778    123.54847  0.071004865  0.076771078            1 
  146000    1.0389162   -3.3631256    124.18709  0.070883045  0.076640449            4 
  147000    1.0371594   -3.3943987    124.74495  0.070717092  0.076504598            3 
  148000    1.0336748   -3.4369574    124.54608  0.070127295  0.076362592            4 
  149000    1.0230642    -3.400397    125.97765  0.070457298  0.076224377            4 
  150000    1.0284059    -3.397662    126.64267  0.070357038  0.076093311            1 
  151000    1.0317158   -3.3856994    127.65268  0.070448499  0.075968178            2 
  152000    1.0373317   -3.4258521     128.4641   0.07042988  0.075850427            3 
  153000    1.0241182   -3.4079231    129.26369   0.07040506  0.075732516            2 
  154000    1.0124281   -3.4138829     129.8277  0.070253082  0.075611277            2 
  155000    1.0189731   -3.4100979     130.3696  0.070091183  0.075484018            2 
  156000    1.0507545   -3.4040071    131.42527  0.070205807  0.075358078            2 
  157000    1.0285618   -3.4326985    131.67056  0.069888834  0.075236009            4 
  158000    1.0150418   -3.3927735    132.92418  0.070107689  0.075109181            2 
  159000   0.99500571   -3.3904761    134.03022  0.070246449  0.074990543            2 
  160000    1.0106209   -3.4489671    134.60861   0.07010865  0.074875147            3 
  161000    1.0038294   -3.4480363    135.52206  0.070145995  0.074772901            2 
  162000      1.00835   -3.4051812    136.79505  0.070367824  0.074675892            3 
  163000    1.0183382   -3.4333983    136.97874  0.070030033   0.07457177            3 
  164000    1.0070279   -3.4497791    137.98815   0.07011593  0.074471069            3 
  165000    1.0079175   -3.4662585    138.77542  0.070088595  0.074374088            3 
  166000    1.0049488   -3.4195189    139.45439  0.070007223  0.074277039            2 
  167000   0.98528344   -3.4412774    140.45007  0.070084867   0.07417592            3 
  168000   0.97719288   -3.3964292    140.92701  0.069904269  0.074081205            2 
  169000   0.99815243    -3.431964    141.97384  0.070006823  0.073986284            1 
  170000    0.9832298   -3.4650254    142.26154   0.06973605  0.073882994            4 
  171000    1.0004858   -3.4594348    141.98709  0.069194487  0.073772702            3 
  172000    1.0018312   -3.4340268     143.2923  0.069424564  0.073663318            2 
  173000    1.0007682   -3.4575648    143.94768  0.069338958  0.073554854            3 
  174000   0.99123135   -3.4429613    143.95845  0.068945618  0.073440446            6 
  175000   0.99165553   -3.4594064    144.88979  0.068995138  0.073323664            1 
  176000   0.98256488   -3.4610937    145.19697  0.068748563   0.07320798            2 
  177000   0.95531742     -3.45553    146.00604  0.068741074  0.073092405            2 
  178000   0.98202488   -3.4547446    146.59729  0.068631692  0.072976558            2 
  179000    1.0099089   -3.4759566     147.0949  0.068479935  0.072857121            4 
  180000   0.97865399   -3.4620213    148.73731  0.068859867  0.072741727            2 
  181000   0.99943347   -3.4581103    148.20689  0.068235218  0.072627907            3 
  182000   0.98513949   -3.4759081    148.91754  0.068185685  0.072506068            2 
  183000   0.96443676   -3.4194382    149.51197  0.068083776  0.072387357            2 
  184000    0.9674437   -3.4603047    150.36475  0.068099975  0.072270148            4 
  185000    0.9563228   -3.4623067     151.3604  0.068180359  0.072151331            3 
  186000   0.94774055   -3.4746777    151.25648  0.067767241  0.072032451            3 
  187000   0.98238014   -3.4848675    152.65373  0.068027511  0.071915938            3 
  188000    0.9766274   -3.4834465    152.59713  0.067640572  0.071797023            2 
  189000   0.97336611   -3.4720263    153.02673  0.067472102  0.071677215            4 
  190000   0.96068564   -3.4718114    154.11037  0.067592268  0.071556982            3 
  191000    0.9745835   -3.4854319    154.48798  0.067403134  0.071446515            3 
  192000   0.99148411   -3.4959491    155.61324   0.06754047   0.07133808            3 
  193000   0.97218088   -3.5084002    156.49645  0.067571869  0.071230904            2 
  194000   0.95036285   -3.4811183    157.85729  0.067808113  0.071129368            2 
  195000   0.95569081   -3.5004489    157.43156  0.067278443  0.071024209            5 
  196000   0.93639226   -3.4847135    158.64055  0.067449211  0.070917831            3 
  197000   0.96043707   -3.5216411    159.09644  0.067299678  0.070809765            2 
  198000   0.94651553   -3.4937743    159.41624  0.067094377  0.070702485            3 
  199000   0.95641387   -3.5133219    160.45714  0.067193106  0.070593992            3 
  200000   0.93624143   -3.4907466    161.16579  0.067152411  0.070488404            6 
  201000    0.9605215   -3.5579209    161.43882  0.066931518   0.07038387            4 
  202000    0.9371743     -3.51944    162.22442  0.066924266  0.070280286            1 
  203000    0.9393168   -3.5155008    162.60691  0.066751604   0.07017651            1 
  204000   0.93275794   -3.5185792    163.55048  0.066809836  0.070075409            9 
  205000   0.94460243   -3.5069973    164.03046  0.066679049   0.06997179            3 
  206000   0.93531483   -3.5217806    164.97376  0.066736959   0.06986626            4 
  207000   0.93454046   -3.5365421    165.04724  0.066444138  0.069756845            4 
  208000    0.9516691    -3.513009    165.07385  0.066135357  0.069643973            3 
  209000   0.93031926   -3.5079109     165.6671  0.066055464  0.069529478            3 
  210000   0.94382121   -3.5401804    165.93347  0.065846614  0.069415424            4 
  211000   0.94232161   -3.5416259    167.55992  0.066176904  0.069302571            2 
  212000   0.93738337   -3.5114504    168.32902  0.066167069  0.069195216            3 
  213000   0.92750019   -3.5593143    168.01282  0.065732715  0.069084387            1 
  214000   0.92223587   -3.5473924    168.27676  0.065528335  0.068964833            4 
  215000   0.90905553    -3.552601    169.11262  0.065547527  0.068849083            2 
  216000   0.94018299   -3.5392656     169.1221  0.065247722  0.068729586            3 
  217000   0.91227975    -3.527615    169.75413  0.065189759  0.068606801            3 
  218000   0.94068354   -3.5544633    169.22928   0.06469009  0.068483153            2 
  219000   0.92943412   -3.5652746    170.61146  0.064920647  0.068359642            7 
  220000   0.90479456   -3.5629221    170.92361  0.064743791  0.068237967            3 
  221000   0.89909787   -3.5633065    171.54194  0.064683988  0.068115307            3 
  222000   0.91735221    -3.572019    172.03122  0.064576285  0.067991764            5 
  223000   0.90744783   -3.5627901    171.95883  0.064259652  0.067869161            3 
  224000   0.91496411    -3.561805    172.47524  0.064164897   0.06774659            2 
  225000   0.89955466   -3.5701898    173.44547  0.064239062  0.067621745            4 
  226000   0.93384352   -3.5627209    173.91869   0.06412931  0.067497075            3 
  227000   0.91453315   -3.5861817    174.12092  0.063921043   0.06737166            4 
  228000   0.90962441   -3.5849212    174.77662  0.063880342  0.067247292            2 
  229000    0.9061693   -3.5862633    175.04507  0.063699078  0.067119033            3 
  230000   0.90866834    -3.601915    175.59673  0.063622003  0.066994703            2 
  231000   0.90100991   -3.5924514    175.92627  0.063465464    0.0668714            2 
  232000   0.90125219   -3.5755518    176.54822  0.063415309  0.066746988            4 
  233000   0.88071354   -3.6102013    176.65793  0.063182379  0.066620717            2 
  234000   0.89819516   -3.6015408    177.15751  0.063090281  0.066494791            4 
  235000   0.88762609   -3.5957439    178.59707  0.063332293   0.06637421            2 
  236000   0.89336311   -3.5981271    178.81179  0.063139757   0.06625476            2 
  237000   0.88507081   -3.6045662    180.06439   0.06331378  0.066132451            7 
  238000   0.89138933   -3.6237286    180.63861  0.063248814  0.066014259            5 
  239000   0.89448002   -3.6020553    180.76648  0.063028759  0.065897268            3 
  240000   0.88451062   -3.6114804    181.04465  0.062862724  0.065780255            5 
  241000   0.88791579   -3.6122833    181.84773  0.062879575  0.065661523            3 
  242000   0.89047808   -3.6159724     182.1383    0.0627198  0.065541623            3 
  243000   0.87471604   -3.6101669    182.72411  0.062662589  0.065420367            3 
  244000   0.88021488   -3.6129658    182.95196  0.062483592  0.065300265            1 
  245000   0.88569013   -3.6268366    183.14862  0.062295448    0.0651781            4 
  246000   0.85182846   -3.5965431    183.22712  0.062068809  0.065055348            2 
  247000   0.87698128    -3.639403    183.34633  0.061857736  0.064931895            5 
  248000   0.87569792      -3.6025    184.12056  0.061868466  0.064806357            6 
  249000   0.86984668   -3.6201807    184.15967  0.061633089  0.064683497            4 
  250000   0.88263612   -3.6124841    184.61529  0.061538429    0.0645591            3 
  251000   0.87027284   -3.6310373    185.27974  0.061513858  0.064435171            4 
  252000   0.85408337   -3.6431056    185.85212  0.061459034  0.064310685            3 
  253000   0.85945224   -3.6429738      185.871  0.061222333  0.064185236            2 
  254000    0.8455231   -3.6381506    187.13144   0.06139483  0.064065138            2 
  255000   0.86872453   -3.6347997     187.3117  0.061212974  0.063942964            3 
  256000   0.84862544   -3.6431284    187.20316  0.060938527  0.063820904            6 
  257000   0.86608408   -3.6417493    187.23092  0.060710415  0.063699365            3 
  258000   0.86080472   -3.6290795    188.81557  0.060986943  0.063577875            6 
  259000   0.85723318   -3.6450493    189.12409  0.060850737  0.063456775            5 
  260000   0.85395965   -3.6182772    189.27442  0.060664879  0.063337728            5 
  261000   0.83851578   -3.6774672    189.61968  0.060542683  0.063215603            5 
  262000   0.86483971   -3.6765147    189.95616  0.060418624  0.063092322            4 
  263000   0.86125478   -3.6542171    189.86947   0.06016143  0.062968832            6 
  264000   0.86593046   -3.6599396    190.53482  0.060143567  0.062845357            6 
  265000    0.8413592   -3.6521515    191.00773  0.060065322  0.062719781            2 
  266000   0.85702072   -3.6865683    191.11242  0.059872311  0.062595324            7 
  267000   0.84410738   -3.6954753    191.27252   0.05969804   0.06247166            3 
  268000   0.83713848   -3.6909862    192.53862  0.059868973  0.062348209            6 
  269000    0.8266772   -3.6512935    193.11974  0.059826437   0.06222881            2 
  270000   0.82768176   -3.7022088    193.33224  0.059670443  0.062108031            4 
  271000   0.84183633   -3.6892484    193.74334  0.059576674  0.061986774            4 
  272000   0.83395677   -3.6820792    193.14058  0.059172972  0.061865289            3 
  273000   0.84341878   -3.6770353    194.66139  0.059420447   0.06174349            4 
  274000   0.82748613   -3.6854655    194.57852  0.059178381  0.061621852            5 
  275000   0.83143856   -3.7212676    194.55326  0.058955532  0.061499102            5 
  276000    0.8342527   -3.6901392    194.89155  0.058844067   0.06137659           15 
  277000   0.83733058    -3.704442    194.42029  0.058489859  0.061254422            9 
  278000   0.81003496   -3.6800015    195.44826  0.058587609  0.061132459            3 
  279000   0.81721617   -3.7122891    195.95839  0.058529986  0.061009274            3 
  280000   0.79919269   -3.7262252    196.12424  0.058370309  0.060886712           10 
  281000    0.8245611   -3.7185827    196.22435  0.058192276  0.060762113            4 
  282000   0.81275415   -3.7169455     197.2317  0.058283599  0.060637242            4 
  283000   0.83510809   -3.7043758    197.34037   0.05810965  0.060511707            5 
  284000   0.80509433    -3.740264    196.94711  0.057789644  0.060386095            2 
  285000   0.81216644   -3.7251253    197.18313  0.057655886  0.060259743            3 
  286000    0.8088264    -3.726624    197.89258  0.057661008  0.060132073            4 
  287000   0.80737166   -3.7380583    198.07413  0.057512812  0.060006825            3 
  288000   0.80624217   -3.7289782    198.81342   0.05752703  0.059881477            3 
  289000   0.80990508   -3.7056456     198.9904  0.057379009  0.059757863            2 
  290000   0.80779799   -3.7217365    200.06596  0.057490219  0.059635226            5 
  291000   0.80199428   -3.7426108    199.71102  0.057191015  0.059510257            5 
  292000   0.81828603   -3.7628335    199.97187  0.057069599  0.059386442            3 
  293000   0.78841568   -3.7911302    200.46066  0.057013839   0.05926306            5 
  294000    0.7934238   -3.7202196     200.7359  0.056897931  0.059139548            3 
  295000   0.79273586   -3.7319444    200.95394   0.05676665  0.059017395            6 
  296000   0.80187279    -3.753158    201.35228  0.056687016  0.058896133            4 
  297000   0.80909315    -3.754959    202.16204  0.056723356   0.05877413            4 
  298000    0.7915785   -3.7442728    201.59072  0.056373244  0.058652451            4 
  299000   0.82531855   -3.7700842    202.09061  0.056324027  0.058531034            4 
  300000   0.80840362   -3.7507122    202.41452  0.056226256  0.058409228            3 
  301000   0.77501237   -3.7708908    202.74723  0.056131568  0.058285497            3 
  302000   0.79678921   -3.7749094     203.1941  0.056069011  0.058162424            3 
  303000   0.78697848   -3.7632135    203.41652  0.055945137  0.058038975            2 
  304000   0.76696049   -3.7786975    203.02072  0.055652608  0.057915666            4 
  305000   0.77752635   -3.7879036    203.56525  0.055618921  0.057791488            6 
  306000   0.77341854   -3.7935031    203.28651   0.05536125  0.057667388            3 
  307000   0.78972299   -3.7828891    204.49422  0.055508745  0.057542061            5 
  308000   0.79256598   -3.7919976    204.10561  0.055223379  0.057417789            3 
  309000   0.77940712   -3.7516803     204.9678  0.055277185  0.057294148            5 
  310000   0.75781425   -3.8082491    204.88999  0.055077954  0.057170882            5 
  311000   0.76829691   -3.7674405    205.75854  0.055133585  0.057048754            8 
  312000   0.77248202   -3.8188539    205.62639  0.054921579  0.056926744            2 
  313000    0.7788602   -3.7854392    206.84038  0.055069324   0.05680694            4 
  314000   0.76291759   -3.7866412    206.35478  0.054765069  0.056686443            5 
  315000   0.75873394   -3.7980175    206.96758  0.054753328  0.056565691            9 
  316000   0.75341229   -3.7889685    207.57278  0.054739657  0.056446487            3 
  317000   0.77882157   -3.8021284    207.30344  0.054496173   0.05632677            5 
  318000   0.75720544   -3.8101604    207.45712  0.054365072  0.056207048            5 
  319000   0.76223944   -3.7897173    207.86971  0.054302432  0.056086134            3 
  320000    0.7602526   -3.8026955    208.06293  0.054183056  0.055965899            5 
  321000   0.74179746   -3.8235188    207.10249  0.053764924  0.055844278            4 
  322000   0.72710094   -3.8121941     207.9724  0.053823085  0.055721878            2 
  323000   0.74782676   -3.8473161    208.49692  0.053791775  0.055600871            2 
  324000   0.76059616    -3.816188    208.59048  0.053649816  0.055478721            4 
  325000   0.77490507    -3.822534    208.95947  0.053579352  0.055356889            5 
  326000   0.74230927   -3.8366709    209.12543  0.053457421  0.055235874            4 
  327000   0.73017453   -3.8347055    208.91683  0.053240783  0.055113325            3 
  328000   0.76199074   -3.8541592    209.22957  0.053157918   0.05499173            4 
  329000   0.74483721   -3.8542102      209.112  0.052966564  0.054870006            3 
  330000   0.73666915   -3.8363394    209.43688  0.052888102  0.054747894            3 
  331000   0.75152884   -3.8215478    209.83893  0.052829538  0.054625687            6 
  332000   0.74555555   -3.8434403    209.63333  0.052618809    0.0545038            5 
  333000   0.73200441   -3.8635003    210.79458  0.052751396  0.054382614            6 
  334000   0.73075417   -3.8805672    209.99891  0.052394938  0.054261598            6 
  335000   0.73993156   -3.8486234    210.86226  0.052453298  0.054139985            5 
  336000   0.73972212   -3.8571005    211.17671  0.052375177  0.054019181            3 
  337000   0.71322887    -3.857566    211.37446  0.052268661  0.053898046           10 
  338000   0.75528392   -3.8645391    211.45457   0.05213377  0.053776551            3 
  339000   0.71659818   -3.8449666    211.42182  0.051971932  0.053655835            4 
  340000   0.72283693   -3.8817656    212.15925  0.051999815  0.053536088            5 
  341000   0.72037853   -3.8837009    211.92836    0.0517909  0.053416001            6 
  342000   0.71872024   -3.8704336    211.73277  0.051591804  0.053295275            7 
  343000   0.73258579   -3.8942997    212.64576  0.051663208  0.053175814            4 
  344000   0.71478584   -3.8545825    212.73235     0.051534  0.053056925            5 
  345000   0.73046287   -3.8675081    213.71025  0.051620832  0.052939593            5 
  346000   0.71937389   -3.8690435    212.93269  0.051284367  0.052821827            6 
  347000   0.71391193   -3.8920383    213.52304  0.051278349  0.052704313            6 
  348000   0.69822375   -3.9072188     213.9422  0.051231369  0.052587926            3 
  349000   0.71764537    -3.860391    214.38691  0.051190761  0.052472025            4 
  350000   0.70917743   -3.8528549    213.86888  0.050921162  0.052356243           11 
  351000   0.70789207   -3.8878209    214.10788  0.050832829  0.052239927           11 
  352000    0.7047547    -3.924456    213.62375  0.050573804  0.052121972            7 
  353000   0.69151246   -3.8949161    213.97429  0.050513288  0.052003538            7 
  354000   0.71308625     -3.88204    214.53798   0.05050329  0.051887593            6 
  355000    0.7061454   -3.9116677    215.52711  0.050593219  0.051771214            5 
  356000   0.69011881   -3.9141992    215.37719  0.050416009   0.05165531            5 
  357000   0.69543702   -3.9069144    215.80897  0.050375576   0.05153957            6 
  358000    0.6833753   -3.9103725    216.20008  0.050325902  0.051424755           12 
  359000   0.68846849   -3.9009885    215.63429  0.050054385  0.051310269            8 
  360000   0.69883254    -3.952082    215.34908  0.049849324  0.051193906            6 
  361000   0.68600409   -3.8862356    216.74994  0.050034611  0.051077935           11 
  362000   0.69133736   -3.9379039    216.75706  0.049898033  0.050962946            5 
  363000   0.69004657   -3.9468481    216.67039  0.049740677  0.050847132            3 
  364000   0.69593927   -3.9380005    216.53296  0.049572564  0.050730814            7 
  365000    0.6861441   -3.9339215    216.44901  0.049417583  0.050615087            4 
  366000   0.69097645   -3.9313247    216.99086  0.049405933  0.050500639            6 
  367000   0.68279602   -3.9528089    217.12565  0.049301919   0.05038684            5 
  368000   0.68567609   -3.9368807    217.85357  0.049332783  0.050273549            8 
  369000   0.68974785   -3.9664316    218.18487  0.049273908  0.050161899           11 
  370000   0.67172845    -3.940215    219.20561  0.049370633  0.050050491            7 
  371000   0.66723926   -3.9599296    219.07638   0.04920853  0.049940157            5 
  372000   0.67526283   -3.9476572    218.84726  0.049024924   0.04982932            9 
  373000   0.66587364   -3.9491864    218.41604  0.048797149  0.049718344            5 
  374000   0.66940376   -3.9524118     218.9491   0.04878545  0.049607859            6 
  375000     0.686871   -3.9872055    219.58846  0.048797436    0.0494978            5 
  376000   0.65819953    -3.962647    219.87761   0.04873174  0.049387999            9 
  377000   0.67633861   -3.9836181    219.45052  0.048508072  0.049277409            9 
  378000   0.68647307   -3.9702183    219.25679  0.048337034  0.049167006            6 
  379000    0.6506729   -3.9945878    219.70595  0.048308256  0.049056597            7 
  380000    0.6580351   -3.9806043      220.386  0.048330263  0.048946622           12 
  381000   0.65425062   -3.9933065    220.53308  0.048235583  0.048836933            3 
  382000   0.65875503   -3.9609189    220.89108  0.048187407  0.048727806            7 
  383000   0.65082371   -3.9667331    220.23523  0.047918893   0.04861804            4 
  384000   0.66224887    -3.984558    219.58101  0.047652128  0.048508008            8 
  385000    0.6554349   -3.9807266    220.52534  0.047732757  0.048398321            5 
  386000   0.65426463   -4.0029194    220.00371  0.047496484   0.04828857            6 
  387000   0.65950034   -3.9909131    220.00138  0.047373252  0.048178397           11 
  388000   0.64179937   -3.9977347    220.75257  0.047412494  0.048069084            5 
  389000   0.65844391   -4.0091938    220.23347  0.047179408  0.047959407            5 
  390000   0.64302847   -3.9955283    221.52052  0.047333445  0.047849558            9 
  391000   0.62800452   -4.0299678       220.76  0.047050298  0.047740634           16 
  392000   0.65630296   -3.9861197    221.50346   0.04708832  0.047631577            6 
  393000   0.64280486   -4.0286133    221.02887   0.04686787  0.047523565           18 
  394000    0.6326989   -4.0017331    221.40205  0.046827845   0.04741508            6 
  395000   0.64213567   -4.0041941     221.4375  0.046716772  0.047306481            6 
  396000   0.62927006   -4.0449321    221.34652  0.046579656  0.047197871            6 
  397000   0.63878985   -4.0378951    220.89651  0.046367866  0.047089153           12 
  398000   0.64330209   -4.0151124    221.14377  0.046303134  0.046980315            6 
  399000    0.6273116   -4.0409861    221.14192    0.0461867  0.046871193            8 
  400000    0.6310075   -4.0469276    221.14184  0.046071216  0.046761754            4 
  401000   0.62052981   -4.0449521    221.12627   0.04595309  0.046652071            6 
  402000   0.63331494   -4.0485215    221.85075  0.045988961   0.04654314            9 
  403000   0.61626183   -4.0568194    221.54502  0.045811626   0.04643522           18 
  404000   0.63114187   -4.0501061    221.80693  0.045752255  0.046327519            9 
  405000   0.62111464   -4.0697142    221.72881  0.045623213  0.046219386           26 
  406000   0.62669738   -4.0503406    222.17361  0.045602136  0.046111101            9 
  407000   0.62690463   -4.0676469    221.93468  0.045441171  0.046001811           13 
  408000   0.60796375    -4.058809    222.21233  0.045386505   0.04589296            8 
  409000   0.61680704   -4.0515999    222.21284  0.045275639  0.045784397            8 
  410000   0.61285548   -4.0878653    221.77104  0.045075415   0.04567597            8 
  411000   0.61008731   -4.0834632    221.79215  0.044970022  0.045566861            6 
  412000   0.60842274   -4.0857517    221.46444  0.044794587  0.045458198           26 
  413000   0.59589968   -4.0735724    222.31668  0.044858087  0.045349539           11 
  414000   0.59919864   -4.0888333    222.22475   0.04473123  0.045241322           10 
  415000   0.60799249   -4.0731419    222.39592  0.044657815  0.045132642            6 
  416000   0.59978919   -4.0893685     222.0593  0.044483033  0.045025057           29 
  417000    0.5994435   -4.1157111    223.27375  0.044619055  0.044917649            5 
  418000   0.58376757   -4.0896668    222.57713   0.04437343  0.044811017           13 
  419000   0.59798917   -4.1104754    222.13447  0.044179489  0.044703222           11 
  420000   0.59089967   -4.0981204    222.79352  0.044205064  0.044596759           14 
  421000   0.60465969   -4.1212947    223.21741  0.044183969  0.044490411            6 
  422000   0.60598416   -4.1106808    222.93333   0.04402317  0.044383806           11 
  423000   0.58444494   -4.1060211    223.22309   0.04397618  0.044277146           11 
  424000   0.58885949   -4.1178307    223.47786  0.043922536  0.044170713            6 
  425000    0.5955656   -4.1174142    223.40897   0.04380568  0.044064354           11 
  426000   0.59584181   -4.1110924    223.04073  0.043630815  0.043959033            5 
  427000   0.58783305   -4.1233132     222.9484  0.043510617  0.043853126            9 
  428000   0.57953824   -4.1246669    223.62952  0.043541573  0.043747404            8 
  429000   0.58695519   -4.1171849    223.33784  0.043383418  0.043641359           16 
  430000   0.58161745   -4.1484126    223.44207  0.043302726  0.043535803            9 
  431000   0.56893371   -4.1451187    223.43063  0.043200045  0.043430852           13 
  432000    0.5847345   -4.1476983    223.38907  0.043092027  0.043325741           39 
  433000   0.56162616   -4.1364567    223.41011  0.042996558  0.043221138            8 
  434000   0.57961389   -4.1591707    224.04418  0.043019235  0.043116601            6 
  435000   0.57260436   -4.1553867    223.65967  0.042846679  0.043012676            7 
  436000   0.58348003   -4.1611547    223.50514  0.042718871  0.042908165           11 
  437000   0.57318305   -4.1567344    224.05924  0.042726781  0.042804353           10 
  438000   0.57056082   -4.1608173    224.20561  0.042657079  0.042700348           29 
  439000   0.56371811   -4.1519828    224.13616  0.042546727  0.042596841            9 
  440000   0.56861009   -4.1531623    224.33134  0.042486995  0.042493457            9 
  441000   0.55732958   -4.1623795    223.59804  0.042252087  0.042389612           12 
  442000   0.57408055   -4.1611852     224.5276   0.04233175  0.042285838            9 
  443000   0.55745752   -4.1681484    223.83565  0.042106029  0.042181769           11 
  444000     0.564951   -4.1823628    223.75328  0.041995736  0.042078005           10 
  445000   0.55690611   -4.1869914    223.19542  0.041796895  0.041974302           25 
  446000   0.56536957   -4.1803703    223.94502   0.04184324  0.041870525            6 
  447000   0.55564065   -4.1671387    223.87881  0.041737288  0.041768555           40 
  448000   0.55702241   -4.1656542    224.24547  0.041712328  0.041666497           23 
  449000   0.55459899   -4.1713307    224.48197   0.04166332  0.041564814            6 
  450000    0.5427519   -4.1795407    224.04657  0.041490105  0.041463278            8 
  451000   0.54417574   -4.1953502    224.23421  0.041432782  0.041361793           10 
  452000   0.55388633   -4.1970534    225.08614  0.041498183   0.04126097           20 
  453000   0.54851777   -4.2107119    224.53058  0.041304375  0.041160351           12 
  454000   0.54418045   -4.2104221    224.64338    0.0412341  0.041059283           12 
  455000   0.53436307   -4.1957914    224.09326  0.041042721   0.04095821           10 
  456000   0.53888321   -4.1897678    224.10868  0.040955534  0.040856946            9 
  457000   0.53278273   -4.2036096    224.44322  0.040926919  0.040756609            8 
  458000   0.52842212   -4.2144438    224.75376  0.040894061  0.040656106           12 
  459000    0.5185915   -4.2009071    224.69873  0.040794976  0.040556126           10 
  460000   0.54212017   -4.2181973    225.59206  0.040868127   0.04045658           16 
  461000   0.52969067   -4.2264388    224.66666  0.040612195  0.040357538           12 
  462000   0.54150356   -4.2125727    224.60461  0.040513097  0.040258824           19 
  463000   0.52470733   -4.2282654    225.44282  0.040576462  0.040160532           21 
  464000   0.53180217   -4.2309677    225.14376  0.040435302  0.040062767            9 
  465000   0.52531174   -4.2230454    224.54019  0.040240177   0.03996433           19 
  466000   0.52394414   -4.2378883    224.56842  0.040158873  0.039865835           17 
  467000   0.53943817   -4.2665319    225.40262  0.040221738  0.039767605            8 
  468000   0.52879462   -4.2596467    225.12354    0.0400861  0.039669475           13 
  469000   0.51870565   -4.2375382    225.25986  0.040024851  0.039571655           14 
  470000   0.51475727   -4.2504293    225.08643  0.039908942  0.039473257            8 
  471000   0.50657551   -4.2748306    224.89977  0.039791184   0.03937519           10 
  472000   0.50810558   -4.2694004    224.70144  0.039671865  0.039277042           13 
  473000   0.51605777   -4.2812979    225.03647  0.039647017  0.039179348           12 
  474000   0.50701249   -4.2686863    224.76941  0.039516421  0.039081431           26 
  475000   0.50634535   -4.2859143    224.19666  0.039332748  0.038983456           33 
  476000    0.5085447   -4.2554475    225.21205  0.039427881  0.038886164           23 
  477000   0.51734933   -4.2748881    224.51742  0.039223868  0.038789323            6 
  478000   0.50499424   -4.2746947    224.66505  0.039167546  0.038692491           10 
  479000   0.50009561   -4.2875329    224.77119  0.039104243  0.038596255           14 
  480000   0.49905416   -4.2723328    225.22504   0.03910157  0.038500556            9 
  481000   0.49895171   -4.2546082    225.76728   0.03911422  0.038405123           39 
  482000   0.48738148   -4.2864758    224.97911  0.038896802  0.038310069           17 
  483000   0.50353387   -4.2865597    225.20617  0.038855447   0.03821473            6 
  484000   0.49676835   -4.3010265    225.50115  0.038825956  0.038119566            7 
  485000   0.48903632    -4.312677    224.57032  0.038585965  0.038023846           23 
  486000    0.4896292   -4.3031657    224.69854  0.038528557  0.037928364           11 
  487000   0.48383527   -4.3070891    224.69277  0.038448455  0.037833187           22 
  488000   0.48511186   -4.2891165    224.98286  0.038419204   0.03773833           18 
  489000    0.4821159   -4.2878692    224.12033  0.038193649  0.037643421           20 
  490000   0.49076577   -4.3136235    224.45447  0.038172529  0.037548556           50 
  491000   0.49042011   -4.3137664      224.567  0.038113884  0.037454035           14 
  492000   0.48104419   -4.3196811    224.70389  0.038059602  0.037359613           14 
  493000   0.47233504   -4.2971707    225.05399   0.03804158  0.037265461           19 
  494000   0.48098002   -4.3356523    224.65569  0.037897383  0.037171504           24 
  495000   0.47602145   -4.3257711    224.85431  0.037854261  0.037077731           22 
  496000     0.479258   -4.3348705    224.55843  0.037728231   0.03698402           13 
  497000   0.47063496    -4.307207    224.42065  0.037629217  0.036890517           14 
  498000   0.47778024   -4.3397162     224.3459  0.037541148  0.036797176            8 
  499000   0.47267209   -4.3380661    224.27293  0.037453729  0.036703821           15 
  500000   0.46977457   -4.3261245    224.49143  0.037415239  0.036610608           33 
  501000   0.46558589   -4.3452379    224.59753  0.037358206   0.03651763           29 
  502000   0.46943966   -4.3449266    224.62243   0.03728792  0.036424895           14 
  503000   0.45902108   -4.3433916    224.73492  0.037232426  0.036332765           25 
  504000   0.46733006   -4.3568739    224.61617  0.037138918  0.036241438           19 
  505000    0.4724091   -4.3412058    224.36707  0.037024268  0.036149981           26 
  506000    0.4540798   -4.3619523    224.60725  0.036990654  0.036058707           11 
  507000   0.46146886   -4.3774829    224.58114  0.036913402  0.035967365           12 
  508000   0.45237568   -4.3543768    224.22096  0.036781653    0.0358762           11 
  509000   0.46434895   -4.3721362    223.93546  0.036662649  0.035785066           20 
  510000   0.45391592   -4.3897127    224.33344   0.03665579  0.035693679            9 
  511000    0.4497561   -4.3842464    224.45201  0.036603393  0.035602658           16 
  512000   0.45637803   -4.3715388    223.97475  0.036454224  0.035511665           20 
Loop time of 1279.1 on 48 procs for 500000 steps with 4000 atoms

Performance: 67547.405 tau/day, 390.899 timesteps/s
99.4% CPU use with 48 MPI tasks x no OpenMP threads

MPI task timing breakdown:
Section |  min time  |  avg time  |  max time  |%varavg| %total
---------------------------------------------------------------
Pair    | 83.456     | 88.361     | 92.582     |  23.9 |  6.91
Neigh   | 8.6285     | 8.8486     | 9.0658     |   3.6 |  0.69
Comm    | 78.042     | 84.829     | 92.857     |  37.9 |  6.63
Output  | 0.86727    | 0.86813    | 0.89485    |   0.4 |  0.07
Modify  | 1073.8     | 1084.1     | 1089.9     |  10.5 | 84.76
Other   |            | 12.05      |            |       |  0.94

Nlocal:        83.3333 ave          92 max          77 min
Histogram: 4 2 7 7 12 1 9 3 2 1
Nghost:        2242.92 ave        2266 max        2224 min
Histogram: 6 2 6 7 6 6 5 9 0 1
Neighs:        14986.6 ave       16497 max       13407 min
Histogram: 3 0 4 10 8 5 8 4 3 3
FullNghs:      29972.7 ave       33237 max       27661 min
Histogram: 4 6 6 10 6 3 7 5 0 1

Total # of neighbors = 1438689
Ave neighs/atom = 359.67225
Neighbor list builds = 27049
Dangerous builds = 0

#clear
#
#next RN
#
#jump SELF
Total wall time: 0:21:22
