
units lj                  # Use reduced LJ style units
atom_style atomic         # Uncharged point particles
atom_modify map hash      # Needed for indexing of clusters etc
                          # Used to be able to find where atoms are in relation to each other.

lattice fcc 1.0 spacing 1 1 1
Lattice spacing in x,y,z = 1.5874011 1.5874011 1.5874011
region box block 0 10 0 10 0 10 units lattice
create_box 2 box
Created orthogonal box = (0.0000000 0.0000000 0.0000000) to (15.874011 15.874011 15.874011)
  3 by 4 by 4 MPI processor grid
create_atoms 1 box
Created 4000 atoms
  using lattice units in orthogonal box = (0.0000000 0.0000000 0.0000000) to (15.874011 15.874011 15.874011)
  create_atoms CPU = 0.017 seconds
set type 1 type/fraction 2 0.97 78393
Setting atom values ...
  3879 settings made for type/fraction
mass 1 1.0
mass 2 1.0
pair_style lj/cut  3.5
pair_modify tail  yes
pair_coeff 1  1  1.0  1.0   # Intearaction between 1 and 1 set with epsilon = 1 and sigma = 1
pair_coeff 1  2  1.5  0.8
pair_coeff 2  2  0.5  0.88

write_data data.0
System init for write_data ...
Neighbor list info ...
  update every 1 steps, delay 10 steps, check yes
  max neighbors/atom: 2000, page size: 100000
  master list distance cutoff = 3.8
  ghost atom cutoff = 3.8
  binsize = 1.9, bins = 9 9 9
  1 neighbor lists, perpetual/occasional/extra = 1 0 0
  (1) pair lj/cut, perpetual
      attributes: half, newton on
      pair build: half/bin/atomonly/newton
      stencil: half/bin/3d
      bin: standard
WARNING: Not all mixed pair coeffs generated from mixing. Use write_data with 'pair ij' option to store all pair coeffs. (../write_data.cpp:312)


#############################
#   M E L T   S Y S T E M   #
#############################

velocity all create 2.4 9622624 mom yes dist gaussian # Assign velocities
                                                    # Temperature 2.4, random number seed, zero linear momentum
                                                                                # Gaussian distribution

timestep 0.002   # simulation timestep
thermo 1000       # output thermodynamic data every 1000 steps bf 100

# Define a fix  in this case with index 1 applied to all
# particles in the simulation. This fix is for simulations
# in the anisotropic NPT ensemble. Note that we use the MTK
# correction.
fix 1 all npt temp 2.4 2.4 0.1 iso 5.68 5.68 0.5 mtk yes tchain 5 pchain 5 # Use NPT ensemble
                                                                         # Set temperature and pressure and damping
                                                                         # Numbers of thermostats in chain and in barostat
run 10000          # run for 10000 steps
Per MPI rank memory allocation (min/avg/max) = 3.642 | 3.644 | 3.648 Mbytes
Step Temp E_pair E_mol TotEng Press Volume 
       0          2.4   -2.8451072            0   0.75399283    -1.976462         4000 
    1000    2.3345656   -1.6583643            0    1.8426087    5.7446039    4159.2444 
    2000    2.3888069   -1.7186423            0    1.8636722    5.4970332    4162.0448 
    3000    2.3653783   -1.6842131            0    1.8629673    5.6413557     4160.745 
    4000    2.4252978   -1.6918929            0    1.9451444    5.5356858    4200.7835 
    5000    2.4325789   -1.6694954            0    1.9784608    5.5577002    4221.2622 
    6000    2.3380491   -1.6729271            0    1.8332698    5.4324868     4213.956 
    7000    2.3866214   -1.6936082            0    1.8854289    5.7017873    4149.1377 
    8000    2.3795416   -1.6800218            0    1.8883983    5.6920701    4170.6123 
    9000    2.4086457   -1.6727231            0    1.9393422    5.7619283    4166.2744 
   10000    2.3894279   -1.6354513            0    1.9477946     5.564452      4231.88 
Loop time of 2.39667 on 48 procs for 10000 steps with 4000 atoms

Performance: 721001.299 tau/day, 4172.461 timesteps/s
99.6% CPU use with 48 MPI tasks x no OpenMP threads

MPI task timing breakdown:
Section |  min time  |  avg time  |  max time  |%varavg| %total
---------------------------------------------------------------
Pair    | 1.0539     | 1.1033     | 1.1551     |   2.5 | 46.03
Neigh   | 0.20323    | 0.21058    | 0.22112    |   0.8 |  8.79
Comm    | 0.76398    | 0.82665    | 0.87604    |   3.4 | 34.49
Output  | 0.00024527 | 0.00024854 | 0.00032275 |   0.0 |  0.01
Modify  | 0.22312    | 0.24101    | 0.26412    |   2.1 | 10.06
Other   |            | 0.01491    |            |       |  0.62

Nlocal:        83.3333 ave          94 max          77 min
Histogram: 8 4 10 3 8 6 4 4 0 1
Nghost:        1574.44 ave        1604 max        1550 min
Histogram: 4 6 3 10 6 7 3 3 2 4
Neighs:        9023.81 ave       10507 max        8021 min
Histogram: 3 9 5 5 10 8 5 0 2 1

Total # of neighbors = 433143
Ave neighs/atom = 108.28575
Neighbor list builds = 907
Dangerous builds = 221

# Equilibrate just above the melting temperature to avoid step fn in T

fix 1 all npt temp 1.25 1.25 0.1 iso 5.68 5.68 0.5 mtk yes tchain 5 pchain 5
run 2000
Per MPI rank memory allocation (min/avg/max) = 3.643 | 3.645 | 3.649 Mbytes
Step Temp E_pair E_mol TotEng Press Volume 
   10000    2.3894279   -1.6354513            0    1.9477946     5.564452      4231.88 
   11000    1.2544643   -2.5285866            0  -0.64736053    5.7096144    3274.7411 
   12000     1.276508   -2.5623966            0  -0.64811328    5.6137719    3264.1016 
Loop time of 0.583966 on 48 procs for 2000 steps with 4000 atoms

Performance: 591814.929 tau/day, 3424.855 timesteps/s
99.6% CPU use with 48 MPI tasks x no OpenMP threads

MPI task timing breakdown:
Section |  min time  |  avg time  |  max time  |%varavg| %total
---------------------------------------------------------------
Pair    | 0.25145    | 0.27628    | 0.30394    |   2.3 | 47.31
Neigh   | 0.038455   | 0.040913   | 0.044315   |   0.6 |  7.01
Comm    | 0.18301    | 0.21663    | 0.24404    |   2.8 | 37.10
Output  | 5.0234e-05 | 5.1576e-05 | 6.836e-05  |   0.0 |  0.01
Modify  | 0.041102   | 0.045541   | 0.049065   |   1.0 |  7.80
Other   |            | 0.004542   |            |       |  0.78

Nlocal:        83.3333 ave          91 max          77 min
Histogram: 3 2 9 4 9 7 9 3 1 1
Nghost:        1885.96 ave        1913 max        1861 min
Histogram: 5 4 5 3 8 4 9 3 3 4
Neighs:        11696.2 ave       12953 max        9961 min
Histogram: 1 1 2 6 9 7 8 6 3 5

Total # of neighbors = 561419
Ave neighs/atom = 140.35475
Neighbor list builds = 146
Dangerous builds = 18

#############################
# L I N E A R  Q U E N C H  #
#############################

# Define solid atoms. This closely follows ten Wolde  Ruiz-Montero and Frenkel  Faraday Discuss  1996  104  93-110
# Compute components of the per-atom q6 vector
compute q6 all orientorder/atom degrees 1 6 components 6 nnn NULL cutoff 1.3 # compute the Q6 parameter.
                                                                             # Use all neighbours within 1.3 unit cell.

# get number of connections
compute coord_number all coord/atom orientorder q6 0.5

# An atom is solid if it has 8 or more connections (of a possible 14)
variable is_solid atom c_coord_number>=8
group solid dynamic all var is_solid    # Must be dynamic to update
dynamic group solid defined

# do clustering
compute cluster solid cluster/atom 1.3 # Create a cluster where all atoms within are solid and max 1.3 units from another member

# define chunks one chunk per cluster
compute clus_chunks solid chunk/atom c_cluster nchunk every compress yes  # Says which atoms are in which chunk

# count the size of each chunk
compute size_chunks solid property/chunk clus_chunks count


# Find the maximum entry in the vector of chunk sizes
variable max_n equal max(c_size_chunks)


# Thermo style which includes this variable
# thermo_style custom step temp pe vol v_max_n

thermo ${N}  # Print the thermo information every 100 steps
thermo 1000  

# Reset the npt fix at a lower temperature (below freezing)
fix 1  all npt temp  ${temp} ${temp}  0.1  iso  5.68  5.68  0.5  mtk yes tchain  5  pchain  5
fix 1  all npt temp  0.45 ${temp}  0.1  iso  5.68  5.68  0.5  mtk yes tchain  5  pchain  5
fix 1  all npt temp  0.45 0.45  0.1  iso  5.68  5.68  0.5  mtk yes tchain  5  pchain  5

dump dmp2 all dcd ${N} traj.dcd
dump dmp2 all dcd 1000 traj.dcd


compute msd all msd com yes
variable twopoint equal c_msd[4]/6/(step*dt+1.0e-6)
fix 9 all vector 10 c_msd[4]
variable fit equal slope(f_9)/6/(10*dt)
thermo_style custom step temp pe c_msd[4] v_twopoint v_fit v_max_n

fix 1 all npt temp 1.25 ${temp} 0.1 iso 5.68 5.68 0.5 mtk yes tchain 5 pchain 5
fix 1 all npt temp 1.25 0.45 0.1 iso 5.68 5.68 0.5 mtk yes tchain 5 pchain 5
run 2000000 # 5000000  # Run for this many steps
Neighbor list info ...
  update every 1 steps, delay 10 steps, check yes
  max neighbors/atom: 2000, page size: 100000
  master list distance cutoff = 3.8
  ghost atom cutoff = 3.8
  binsize = 1.9, bins = 8 8 8
  4 neighbor lists, perpetual/occasional/extra = 1 3 0
  (1) pair lj/cut, perpetual
      attributes: half, newton on
      pair build: half/bin/atomonly/newton
      stencil: half/bin/3d
      bin: standard
  (2) compute orientorder/atom, occasional
      attributes: full, newton on
      pair build: full/bin/atomonly
      stencil: full/bin/3d
      bin: standard
  (3) compute coord/atom, occasional
      attributes: full, newton on
      pair build: full/bin/atomonly
      stencil: full/bin/3d
      bin: standard
  (4) compute cluster/atom, occasional
      attributes: full, newton on
      pair build: full/bin/atomonly
      stencil: full/bin/3d
      bin: standard
Per MPI rank memory allocation (min/avg/max) = 9.813 | 9.821 | 9.827 Mbytes
Step Temp PotEng c_msd[4] v_twopoint v_fit v_max_n 
   12000     1.276508   -2.5623966 1.9129877e-30 1.3284636e-32 8.3333333e+20            1 
   13000    1.2821685   -2.5714189    1.1106568 0.0071195946  0.094174919            2 
   14000    1.2600781   -2.5424055    2.3753076  0.014138735   0.10011831            1 
   15000    1.2721021   -2.5687875     3.677032  0.020427955   0.10350666            1 
   16000    1.2436977   -2.5523294    5.0394771  0.026247276   0.10579036            2 
   17000     1.224134   -2.5707605    6.4272267  0.031506012   0.10824883            1 
   18000     1.272618   -2.5515934     7.766745  0.035957152   0.10976091            2 
   19000    1.2465916   -2.5160754    9.1554665  0.040155554   0.11057587            2 
   20000    1.2682069   -2.5652349     10.45205  0.043550206   0.11119589            2 
   21000    1.2515869   -2.5794631    11.616851  0.046098615   0.11082798            2 
   22000     1.239534   -2.5330518    12.891514  0.048831493   0.11005313            1 
   23000    1.2050883   -2.5383433    14.170622  0.051342831    0.1093977            1 
   24000    1.2449103   -2.5453239    15.377784  0.053395083   0.10881148            2 
   25000    1.2704219   -2.5507962    16.484435  0.054948116   0.10813874            1 
   26000     1.261043   -2.5841813    17.612196  0.056449346   0.10744813            1 
   27000    1.2384688   -2.5521896    18.930527   0.05842755    0.1066945            3 
   28000    1.2350373   -2.5281438    19.965659  0.059421603   0.10601091            1 
   29000    1.2357081   -2.5693682    21.230499   0.06100718   0.10544178            1 
   30000    1.2421274    -2.548398      22.5514  0.062642777   0.10485231            3 
   31000    1.2294172   -2.5612271    23.716133  0.063753044   0.10456731            2 
   32000    1.2573467   -2.5853849    25.007084  0.065122613   0.10439804            2 
   33000    1.2410414   -2.5497324     26.37847  0.066612297   0.10433331            1 
   34000    1.2808756   -2.5509412    27.698347  0.067888104   0.10432953            2 
   35000    1.2375937   -2.5277268     29.12348  0.069341618   0.10442211            1 
   36000    1.2671498    -2.527611    30.197493  0.069901604   0.10455204            1 
   37000    1.2482627   -2.5682081    31.452995  0.070840077    0.1045532            2 
   38000    1.2131278   -2.5525032    32.972559  0.072308243   0.10464947            3 
   39000    1.2585482    -2.584886    33.908617  0.072454309   0.10462179       -1e+20 
   40000    1.2469562   -2.5412198    34.978781  0.072872459   0.10448575            1 
   41000    1.2525391   -2.5577451     36.21541  0.073608556   0.10433781            1 
   42000    1.2392592   -2.5347648     37.77917  0.074958671   0.10428026            1 
   43000    1.2288964   -2.5619922    39.021301  0.075622675   0.10431476            2 
   44000    1.2414873   -2.5506776    40.311929   0.07634835   0.10435733            1 
   45000    1.2357803    -2.559303    41.414665  0.076693823   0.10433542            1 
   46000    1.2471286   -2.5657189    42.787695  0.077513939   0.10435587            1 
   47000    1.2272232   -2.5701519    43.848705   0.07774593   0.10436412            1 
   48000    1.2006652   -2.5552685    45.040663  0.078195594   0.10430239            2 
   49000    1.2527479   -2.5504741    46.094208  0.078391509   0.10418598            1 
   50000    1.2473732   -2.5884277    47.352174   0.07892029   0.10410994            1 
   51000    1.2611866   -2.5778424    48.681497  0.079544929   0.10408446            1 
   52000    1.2438482    -2.558487    50.192335  0.080436433   0.10406527            1 
   53000     1.202854    -2.537995    51.511995  0.080993703   0.10408815            1 
   54000    1.2487358   -2.5441598    52.671394  0.081283014   0.10408759            4 
   55000    1.2244937   -2.5831636    53.323241  0.080792789    0.1040283            1 
   56000     1.213366   -2.5682622    54.704968  0.081406202   0.10397536            2 
   57000    1.2242962   -2.5623132      56.2113  0.082180262    0.1039323            3 
   58000    1.2200149   -2.6011224    56.976539  0.081862842   0.10383362            3 
   59000    1.2428463   -2.5642318     58.22768  0.082242485   0.10372279            1 
   60000    1.2276438   -2.5785001    59.540612  0.082695294   0.10360601            2 
   61000    1.2529668   -2.5435697    61.214486  0.083626346   0.10354269            1 
   62000    1.2084297   -2.5418313    62.211837  0.083618059   0.10351365            2 
   63000     1.222357   -2.5924665    62.838453  0.083119646   0.10344673            1 
   64000    1.2143977   -2.5653771    64.616838  0.084136508   0.10335959            1 
   65000    1.2126463    -2.543052    65.026389  0.083367165   0.10321632            1 
   66000    1.2391526   -2.5968448    66.228075  0.083621306   0.10308028            3 
   67000    1.2244394   -2.5726145    67.456148  0.083900681   0.10292676            2 
   68000    1.2549054   -2.5508206    68.034832  0.083376019   0.10275451            2 
   69000    1.2123401   -2.5646612    69.646425  0.084114039   0.10258652            3 
   70000    1.2239426   -2.5803848    71.030941  0.084560643   0.10244915            2 
   71000    1.2182553   -2.5951264    72.069638  0.084588776   0.10230116            2 
   72000    1.2402822   -2.5542252    73.514517  0.085086245   0.10218453            1 
   73000    1.2490184   -2.5512783    74.645737  0.085212028   0.10210719            1 
   74000    1.2180165   -2.5422943    76.105181  0.085704033   0.10203026            1 
   75000    1.2454119   -2.6034623    77.066093  0.085628991   0.10195796            8 
   76000    1.2506197   -2.5771999    78.679647  0.086271542   0.10192451            1 
   77000    1.2237996   -2.5785731    79.953967  0.086530267   0.10190366            2 
   78000    1.1939175   -2.6082566    81.135111   0.08668281   0.10189128            2 
   79000    1.2466972   -2.5425539    82.619234   0.08715109   0.10189027            1 
   80000    1.2513484   -2.5645801    83.637991  0.087122907   0.10190055            1 
   81000    1.2317012   -2.5881261    84.526882  0.086961813   0.10189967            3 
   82000    1.2365895    -2.544652    85.422064   0.08681104   0.10184877            2 
   83000     1.214615   -2.5719674    86.693084  0.087041248   0.10177926            1 
   84000    1.2289264   -2.5855158    87.868013  0.087170648   0.10170587            1 
   85000    1.2483637   -2.5755737    89.077344  0.087330729    0.1016342            3 
   86000    1.2067492   -2.6029921    90.497777  0.087691644   0.10157534            1 
   87000    1.2277993   -2.5919744    91.410999  0.087558427   0.10150288            1 
   88000    1.2115498   -2.5832721    92.279323  0.087385722   0.10142742            2 
   89000    1.2119037    -2.574943    94.082577    0.0880923   0.10137026            1 
   90000    1.2119648   -2.5691417    94.617191   0.08760851   0.10130836            2 
   91000    1.2370057   -2.5602811    96.132254    0.0880332   0.10123845            2 
   92000    1.1928537   -2.5754909    96.320849  0.087247145   0.10115601            1 
   93000    1.2204825   -2.5763441    98.295021  0.088077975   0.10107749            1 
   94000    1.2185744   -2.6467574    98.747079  0.087541736   0.10099869            2 
   95000    1.2008438   -2.5833707    99.935756  0.087662943   0.10092735            2 
   96000    1.2034399   -2.5804923    102.32636  0.088824962   0.10087241            1 
   97000    1.2321332   -2.5959236    103.55014  0.088960604   0.10083038            1 
   98000     1.232712   -2.5499128    104.80259  0.089117846   0.10080532            4 
   99000     1.251209    -2.585623    105.92299  0.089160763   0.10079367            2 
  100000     1.223673   -2.5751947    107.06054  0.089217115   0.10077334            1 
  101000    1.1935476     -2.58184    108.70655  0.089691871   0.10075132            2 
  102000    1.1998553   -2.5947572    109.48756   0.08945062   0.10073068            4 
  103000    1.2299441   -2.5802299    110.23987  0.089190834   0.10069293            2 
  104000    1.2181403   -2.5974942     111.2161  0.089115462   0.10065172            1 
  105000    1.2177777   -2.5782604    111.99165  0.088882261    0.1005897            1 
  106000     1.223331    -2.589928    113.67967  0.089370806   0.10055192            1 
  107000    1.1919064   -2.5987849     114.7491   0.08936846    0.1004997            1 
  108000    1.2196558   -2.6031806    116.29179  0.089731316   0.10045511            2 
  109000    1.1891879   -2.5902064    117.43963  0.089785652   0.10039624            2 
  110000    1.2055278     -2.57568    117.50263  0.089017147   0.10033061            1 
  111000    1.2196731    -2.605089    118.43693  0.088916613   0.10024773            1 
  112000    1.2149859   -2.5771505    119.77222  0.089116233   0.10017462            2 
  113000    1.2206815   -2.5593643    121.36876  0.089504982   0.10009976            1 
  114000    1.1984782   -2.5874878    121.99942  0.089180864   0.10002855            1 
  115000    1.2074267   -2.6028312    123.60829  0.089571223  0.099947324            2 
  116000    1.1981577   -2.5989864    124.89806  0.089725617  0.099886521            3 
  117000    1.2066596   -2.5825893    126.28835  0.089948964  0.099843504            1 
  118000    1.2191341   -2.5753152    126.97539  0.089671884  0.099793223            1 
  119000    1.2146667   -2.5829851    129.51828  0.090699076  0.099752638            1 
  120000    1.2173888   -2.5857218    130.31657  0.090497621  0.099723826            1 
  121000    1.1893737   -2.5750382    131.54516  0.090595841  0.099710101            1 
  122000    1.1988908   -2.5939599    132.36399  0.090412558  0.099695817            3 
  123000    1.1966883   -2.5941943    134.03114  0.090807004  0.099688498            2 
  124000    1.2230428   -2.6037139    134.95663  0.090696658  0.099677231            5 
  125000    1.2338955   -2.5764435     136.9915  0.091327668  0.099685841            1 
  126000    1.2011085   -2.5844429    137.23837  0.090766118   0.09968213            1 
  127000    1.2102627   -2.6106644    138.23822  0.090707495  0.099671438            1 
  128000    1.1798819   -2.5709269    139.72823  0.090968902  0.099647108            1 
  129000    1.2274333    -2.573742    141.20744  0.091219278  0.099623673            1 
  130000    1.2304297   -2.5707242     141.9207  0.090974806  0.099603129            1 
  131000    1.2179329   -2.5832354    143.60889  0.091354258  0.099582492            2 
  132000     1.212725   -2.6313537    144.24547  0.091064059  0.099570325            2 
  133000    1.2221791   -2.5979098    145.23022  0.090996376  0.099552818            2 
  134000    1.2260667   -2.6216774    146.30043  0.090982852  0.099523427            1 
  135000    1.2054653   -2.6043322    147.02223  0.090754466  0.099481617            2 
  136000    1.2219237   -2.5855566    149.00152  0.091299952  0.099435725            2 
  137000    1.2003402   -2.6098726    149.32584  0.090830802  0.099409638            1 
  138000    1.2063296   -2.6038719    151.13544  0.091265365  0.099370448            2 
  139000    1.1948597   -2.6081499    151.02315  0.090541456  0.099331469            2 
  140000    1.1764558   -2.6087417    152.42219  0.090727495  0.099278988            1 
  141000    1.2135624    -2.596586    153.10763  0.090489142  0.099235257            2 
  142000    1.1998873   -2.5968704    154.86039   0.09088051  0.099181611            3 
  143000    1.1851925   -2.6172709    154.91377  0.090276091  0.099131266            2 
  144000    1.1968519   -2.6237252    155.90159  0.090220827  0.099069243            2 
  145000    1.2321122   -2.6361653    157.08163    0.0902768  0.098998974            1 
  146000    1.1833114   -2.6042291    158.63791  0.090546752  0.098934999            2 
  147000    1.1927231   -2.6010362    160.33822  0.090894685  0.098870378            1 
  148000    1.1624448   -2.5697813    161.23889  0.090787661  0.098807163            1 
  149000    1.1773075   -2.5838839    163.34027  0.091353618  0.098756472            1 
  150000    1.2107698    -2.611721    163.86037  0.091033536  0.098709371            2 
  151000    1.2033892   -2.6340288    164.56598  0.090820077  0.098662301            2 
  152000    1.1856857   -2.6221219     166.2004  0.091118641   0.09861507            2 
  153000     1.195927   -2.5986795    167.16925  0.091050791  0.098577705            1 
  154000     1.199284   -2.6133702     167.9698  0.090892747  0.098530248            2 
  155000    1.2193556   -2.5979788    168.92874  0.090821903  0.098486964            5 
  156000     1.189671   -2.6165188     169.6737  0.090637659  0.098430785            1 
  157000    1.1893482   -2.6108462    171.27585  0.090910747  0.098374827            2 
  158000     1.189083   -2.6494914    171.36015  0.090379828  0.098319122            1 
  159000    1.2093455   -2.6236821     173.4288  0.090895599  0.098265202            2 
  160000    1.2062757   -2.6034019    174.05146    0.0906518  0.098215027            2 
  161000    1.1694158   -2.6266921    174.67643   0.09041223  0.098160338            1 
  162000    1.1772494   -2.6129675    176.85997   0.09097735  0.098112936            2 
  163000    1.1708056   -2.5781387    179.52547  0.091781939  0.098074147            3 
  164000    1.1918725    -2.593781    179.90728    0.0914163  0.098033231            1 
  165000    1.2006995   -2.5940331    182.20519  0.092022825   0.09800279            2 
  166000    1.1791606   -2.6392177    181.12279  0.090925095  0.097975069            1 
  167000    1.1777448   -2.6215547    183.66756  0.091650481  0.097950146            1 
  168000     1.184976   -2.6120853     184.6872  0.091610713  0.097930903            1 
  169000    1.1941814   -2.5989468    186.04467  0.091738004  0.097911882            3 
  170000    1.1869264   -2.6176179    187.60892  0.091965155  0.097892853            2 
  171000    1.1822834   -2.5871899    189.54589  0.092371293  0.097882205            1 
  172000    1.1881656   -2.6397411    189.59691  0.091858969  0.097873889            1 
  173000     1.203519   -2.6009603    191.59938  0.092292571   0.09785979            1 
  174000    1.1658078   -2.6367951    191.90378  0.091907939  0.097844157            1 
  175000    1.1854794   -2.6150579    192.00811  0.091432432  0.097823345            2 
  176000    1.1916009   -2.6357556    194.36769  0.092030158  0.097809891            2 
  177000    1.2075442   -2.6255868      195.532  0.092058381  0.097807073            1 
  178000    1.2029453   -2.6356162    197.69711  0.092554825  0.097805885            2 
  179000     1.166526   -2.6036435    197.99214  0.092175113  0.097799591            1 
  180000    1.2035682   -2.6389869    199.61438  0.092414065  0.097791436            2 
  181000    1.2029209   -2.6201575    200.35152  0.092242872  0.097778988            1 
  182000    1.1749259   -2.6209882    201.36794  0.092201438  0.097767728            1 
  183000    1.1905637   -2.6239839     203.3209   0.09258693  0.097759289            3 
  184000    1.1971236   -2.5903043    203.98985  0.092386708  0.097757702            2 
  185000    1.1800642   -2.6290888    205.44476  0.092542686  0.097758928            1 
  186000    1.2119373   -2.6201491    205.90814  0.092252749  0.097746831            2 
  187000    1.1618141   -2.6072415    206.71939  0.092120938  0.097733061            1 
  188000    1.1939837   -2.6148451    207.93736  0.092170817   0.09771538            1 
  189000    1.1552226   -2.5940748    209.22276  0.092249896  0.097695596            1 
  190000    1.1627025   -2.6188876     208.7583  0.091560657  0.097670644            1 
  191000    1.1871725   -2.6435531    211.29724  0.092189025  0.097640436            2 
  192000    1.2098728   -2.6439061    211.27365  0.091698631  0.097615101            1 
  193000     1.159861   -2.6041444    212.92218   0.09193531  0.097591698            1 
  194000    1.1990158   -2.6124235    214.29175  0.092049719  0.097571462            1 
  195000    1.1903893   -2.6169721    215.50803  0.092097451  0.097552186            3 
  196000    1.1784847   -2.6156562    216.77857  0.092167757  0.097527172            1 
  197000    1.1831742   -2.6300815    217.16383   0.09186287  0.097499273            1 
  198000    1.1747168     -2.61786    217.74544  0.091643703  0.097470145            1 
  199000    1.1569465   -2.6297876    219.16423  0.091777314  0.097439128            2 
  200000    1.1698479   -2.6286308    220.52749  0.091886452  0.097411309            1 
  201000    1.1724691   -2.6495215    220.60629  0.091461977  0.097383038            2 
  202000    1.1738073   -2.6269581    223.76773   0.09231342  0.097354397            1 
  203000    1.1532012   -2.6408809    222.93471   0.09151671  0.097325397            2 
  204000    1.1636251   -2.6179651    225.47913  0.092107487  0.097292622            2 
  205000    1.1442822   -2.6380171    224.36072  0.091203546  0.097254917            2 
  206000    1.1787373   -2.6286421    227.32452  0.091959758   0.09722309            2 
  207000    1.1712837   -2.6301677    227.27467  0.091495439  0.097189724            1 
  208000     1.150982   -2.6541995    228.46019  0.091530526   0.09715601            2 
  209000      1.15264   -2.6324405    228.16482  0.090974808  0.097113202            2 
  210000    1.1696325   -2.6507095    230.57813  0.091499257  0.097072379            1 
  211000     1.190933   -2.6343547    232.20239  0.091707103  0.097030597            1 
  212000    1.1769709   -2.6136594    232.10171  0.091234948  0.096987491            1 
  213000    1.1436555   -2.6137689    233.40559  0.091316741  0.096944806            2 
  214000    1.1707768   -2.6583204    233.44401  0.090904988  0.096904411            1 
  215000    1.1755595   -2.6285608    234.57291  0.090919732  0.096864116            2 
  216000    1.1581158   -2.6438485    236.55765  0.091264526  0.096823175            2 
  217000    1.1687429   -2.6556761    236.55037  0.090841155  0.096774122            2 
  218000    1.1623352   -2.6060683    238.33088  0.091105075  0.096720133            2 
  219000    1.1769703    -2.642701    238.86793  0.090893426  0.096664178            3 
  220000    1.1481499   -2.6408315    240.01851  0.090916102  0.096617469            3 
  221000    1.1806932   -2.6398303    242.97357  0.091618992  0.096572017            2 
  222000    1.1645142   -2.6587902    242.70328  0.091104834  0.096532378            2 
  223000     1.184245   -2.6446919    244.54413  0.091384206  0.096494301            5 
  224000    1.1506487   -2.6223114    245.80654  0.091445884  0.096454249            1 
  225000    1.1581795   -2.6133474    246.96448  0.091468326  0.096409728            1 
  226000    1.1838784   -2.6446465    248.05526  0.091465803  0.096370869            1 
  227000    1.1469238   -2.6378023    247.40778  0.090825175  0.096324923            1 
  228000    1.1619592   -2.6242967    250.71859  0.091636911  0.096286029            1 
  229000    1.1619882   -2.6560481    249.71407  0.090871203  0.096250181            2 
  230000    1.1643265   -2.6596294    250.62131  0.090804822  0.096204074            4 
  231000    1.1773797   -2.6768392    252.48254  0.091083166  0.096162648            6 
  232000    1.1959412   -2.6200305    254.01639  0.091241518  0.096120019            1 
  233000    1.1619429   -2.6248687     255.6923  0.091449319  0.096077589            1 
  234000    1.1663589   -2.6189097    256.98068  0.091517336  0.096038471            3 
  235000    1.1623085   -2.6420614    257.09822   0.09116958  0.095999895            2 
  236000    1.1776949   -2.6353368    257.33288  0.090866131  0.095967256            1 
  237000    1.1347827   -2.6412985     258.8893  0.091029993  0.095927184            2 
  238000    1.1519614   -2.6621149    259.80106  0.090966759  0.095887546            1 
  239000    1.1648074   -2.6535261    261.30377  0.091110099  0.095848331            3 
  240000    1.1327315    -2.630086    262.19639  0.091040414  0.095806571            1 
  241000    1.1505194   -2.6389865    262.84353  0.090886421  0.095769065            2 
  242000    1.1656822   -2.6562537    263.98544  0.090904077  0.095728723            2 
  243000    1.1738552   -2.6792402     264.9844  0.090872564  0.095687436            2 
  244000    1.1630464   -2.6335012    266.66936  0.091075602  0.095648911            1 
  245000    1.1363405   -2.6453977     268.1564  0.091209659  0.095613904            5 
  246000    1.1695147   -2.6698057    268.24992   0.09087057  0.095578623            1 
  247000    1.1960757   -2.6513931    270.28282  0.091188534  0.095547402            1 
  248000    1.1627189   -2.6776951    269.79977  0.090658525  0.095516204            1 
  249000    1.1441013   -2.6452447    272.00978  0.091034063  0.095485423            2 
  250000     1.180376   -2.6523846    272.73551  0.090911836  0.095453043            2 
  251000     1.172205   -2.6287794    275.11598  0.091339967    0.0954185            2 
  252000    1.1655327   -2.6517518    274.98072  0.090932776  0.095384504            2 
  253000    1.1454389   -2.6510423    276.15127  0.090958916   0.09535053            1 
  254000    1.1292191   -2.6452749    278.00014  0.091207396  0.095317139            1 
  255000    1.1567152   -2.6359006    278.64543  0.091060596  0.095285394            2 
  256000     1.171583   -2.6325205    278.48972  0.090654207  0.095247357            1 
  257000    1.1769428   -2.6221491    280.10659  0.090825743  0.095210944            2 
  258000    1.1699326   -2.6657944    281.89588   0.09105164   0.09517561            4 
  259000    1.1532371   -2.6571421    282.83412  0.091001968  0.095141495            2 
  260000    1.1466633   -2.6655272    284.29917   0.09112153  0.095110894            1 
  261000    1.1751535   -2.6454691    285.71916  0.091225784  0.095086299            2 
  262000    1.1544356   -2.6340647    286.36302  0.091082385  0.095058466            3 
  263000      1.15955   -2.6778676     286.6837  0.090837676  0.095033419            2 
  264000    1.1383254    -2.656445    287.90399  0.090878784  0.095005008            1 
  265000    1.1702159   -2.6494131    290.05432  0.091212051    0.0949781            1 
  266000    1.1406893   -2.6793969    290.15533  0.090900793  0.094946345            3 
  267000    1.1702788   -2.6737781    292.59637  0.091322213  0.094923185            4 
  268000    1.1504742   -2.6481578    294.89082  0.091694906   0.09489948            2 
  269000    1.1338094   -2.6453577    295.08209  0.091413286   0.09487689            1 
  270000    1.1596342    -2.671245    296.31549  0.091455398  0.094850644            1 
  271000    1.1313866   -2.6812773    296.42362  0.091151176    0.0948272            3 
  272000    1.1602011   -2.6516381    297.99878  0.091298644  0.094803583            2 
  273000    1.1366926   -2.6686075     298.5582  0.091134982  0.094780895            1 
  274000    1.1240727   -2.6121255    299.54993  0.091103995  0.094758041            2 
  275000    1.1675043   -2.6616775     301.9511  0.091500333  0.094734932            2 
  276000    1.1150787   -2.6792651    300.94414  0.090864778  0.094709312            1 
  277000    1.1186377   -2.6445312    302.86425  0.091114397  0.094684626            3 
  278000    1.1407058   -2.6569554    304.97034  0.091417967  0.094662313            3 
  279000    1.1581718   -2.6822257    305.21427  0.091163163  0.094638408            1 
  280000    1.1442355   -2.6407389    307.24194  0.091441054  0.094614282            2 
  281000    1.1360691   -2.6457913    307.53103  0.091201373  0.094588299            2 
  282000    1.1514914   -2.6508012    307.18177  0.090774754  0.094562484            2 
  283000    1.1444877   -2.6688692    308.12116  0.090730613   0.09453604            3 
  284000    1.1273148   -2.6736304    308.53101  0.090531398  0.094506148            1 
  285000    1.1391886   -2.6574643    310.21744  0.090706853  0.094477715            2 
  286000    1.1438416   -2.6798178    309.98768  0.090322749  0.094444048            3 
  287000    1.1199076   -2.6426915    312.63275  0.090776058  0.094410053            3 
  288000    1.1424511   -2.6486877    312.37123  0.090385192  0.094376244            2 
  289000    1.1304351   -2.6583369    315.04455  0.090843296  0.094343072            2 
  290000    1.1430475   -2.6727253      315.725  0.090725573   0.09430955            2 
  291000    1.1519178   -2.6538986    316.08568  0.090517089  0.094279071            3 
  292000    1.1108612   -2.6797033    314.89021  0.089865928   0.09424533            2 
  293000    1.1813933   -2.6391956    316.55643  0.090033115  0.094205888            3 
  294000    1.1540007   -2.6620257     318.2475  0.090206207  0.094166861            2 
  295000    1.1247256   -2.6804757    318.44979  0.089957567  0.094125489            5 
  296000    1.1377147   -2.6596031    320.40355  0.090203703  0.094085547            3 
  297000     1.154451   -2.6650136     318.7435  0.089434204  0.094043703            3 
  298000     1.144078   -2.6479725    323.67933  0.090514354  0.093999393            2 
  299000    1.1215063   -2.6662262    323.05427  0.090037422  0.093956378            2 
  300000    1.1290823   -2.6716176    322.82295  0.089673041  0.093912575            1 
  301000    1.1163988   -2.6731139    325.39094  0.090086086  0.093868468            2 
  302000    1.1382891   -2.6839543    325.59993  0.089845455  0.093825164            1 
  303000    1.1166057   -2.6378587    327.61428  0.090102936  0.093786573            2 
  304000    1.1280738   -2.6842684    327.52386   0.08978176   0.09374923            1 
  305000    1.1455831   -2.6512169    330.85532  0.090397628  0.093711315            2 
  306000    1.1263319   -2.6810487    328.50655  0.089462569  0.093675688            1 
  307000    1.1219342   -2.6671594    332.22057  0.090179306  0.093635716            2 
  308000    1.1365824   -2.6678208    332.78453  0.090039106  0.093597994            1 
  309000    1.1199791   -2.6667693    332.90206  0.089779411   0.09356277            1 
  310000    1.1343612    -2.684234    335.11945  0.090085872  0.093525713            1 
  311000    1.1386821   -2.6879246    336.41418  0.090143135  0.093491021            1 
  312000     1.149776    -2.665893    338.09757  0.090303837   0.09346035            3 
  313000    1.1126074    -2.637742    339.10451  0.090283415  0.093431751            1 
  314000    1.1190657   -2.6796508    340.85368  0.090460107  0.093401063            2 
  315000    1.1293323   -2.6809297    340.05982  0.089962915  0.093373055            1 
  316000    1.1278486      -2.7277    340.19129  0.089712893  0.093344447            1 
  317000    1.1529875   -2.6830845    341.61075  0.089803035  0.093314326            3 
  318000    1.1240662   -2.6789204    345.35795  0.090502609  0.093288979            5 
  319000    1.1444584   -2.6884754    344.91031  0.090101961  0.093264185            2 
  320000    1.1191278   -2.6801648    345.17188  0.089888511  0.093239912            2 
  321000    1.1480575   -2.6859351    348.34235  0.090431555  0.093213239            2 
  322000    1.1156544   -2.6842209    348.23172  0.090122081  0.093188265            2 
  323000      1.11719   -2.6630971    349.91967  0.090278552  0.093165925            2 
  324000      1.09114   -2.6811014    350.06665  0.090037718  0.093141041            4 
  325000    1.1290987   -2.6877146    352.19501  0.090306412  0.093118498            1 
  326000    1.1241357    -2.671196     352.6646  0.090149437  0.093093613            6 
  327000     1.147772   -2.6584645    354.68871   0.09038958  0.093068461            3 
  328000    1.1310045   -2.6899739    354.48347  0.090061857  0.093043553            2 
  329000    1.1358154   -2.6914015    355.44168  0.090030819  0.093015976            3 
  330000     1.146677   -2.6496902    356.13239  0.089932422  0.092988166            3 
  331000    1.1147668   -2.7227945    357.25807  0.089944127  0.092961824            2 
  332000    1.1602264   -2.6953319    358.54985  0.089997453    0.0929368            3 
  333000    1.1214947   -2.6782014    360.50596  0.090216707  0.092913373            2 
  334000    1.1526991   -2.6931819    362.38452    0.0904153  0.092889148       -1e+20 
  335000    1.1356843   -2.6899467    362.52618  0.090180641  0.092865889            1 
  336000    1.1201026   -2.6679797    362.46353  0.089896709  0.092842817            2 
  337000    1.1209918   -2.6780055    363.21556  0.089815914  0.092819192            3 
  338000    1.1309824   -2.6956857     366.3667  0.090327097  0.092794828            2 
  339000    1.1217419   -2.6998771    365.81904  0.089926018  0.092769735            4 
  340000    1.1115818   -2.7075914    366.83582  0.089910739   0.09274328            4 
  341000    1.1029207    -2.654209    369.06268  0.090191271  0.092716399            5 
  342000    1.1358566   -2.6796958    366.62302  0.089333096  0.092686413            4 
  343000    1.1149916   -2.6932522    369.11517  0.089678126  0.092657807            1 
  344000    1.1273536   -2.6916281     370.4693   0.08974547  0.092627713            2 
  345000    1.1236489    -2.691449    371.10755  0.089639504  0.092595331            1 
  346000    1.1276971   -2.6848685    370.94777  0.089341949  0.092561244            3 
  347000    1.1224192   -2.7077938    371.30583  0.089170468  0.092527633            2 
  348000    1.1067204   -2.6650767    374.83373  0.089759034  0.092495992            1 
  349000    1.0996376   -2.6885746    374.03726  0.089311667  0.092463567       -1e+20 
  350000    1.1453733   -2.7035729    373.27514  0.088875034  0.092427897            5 
  351000      1.11407   -2.6942771    376.05826  0.089282587  0.092395391            3 
  352000    1.1123404   -2.6820098    377.93493  0.089473231  0.092361334            2 
  353000     1.113683   -2.6758347    378.95116   0.08945967  0.092330234            3 
  354000    1.1033734   -2.7065914    379.81909  0.089411274  0.092299468            1 
  355000    1.1044777   -2.7292255    379.17259   0.08900765  0.092267786            1 
  356000    1.1161294   -2.6793792    381.85396   0.08938529  0.092236795            1 
  357000    1.0933895   -2.7064913    380.92869  0.088918928  0.092205156            3 
  358000    1.0986536   -2.7048727    380.88736  0.088660931   0.09217349            3 
  359000    1.1121497   -2.6695857    386.21121  0.089649771  0.092141366            1 
  360000    1.1171217   -2.6940155    385.01914    0.0891248  0.092109154            3 
  361000    1.0855682   -2.7109113     385.2084  0.088921605  0.092078122            2 
  362000    1.1155993   -2.6755397    388.33699  0.089396176  0.092046889            2 
  363000    1.1319424   -2.6703704    388.15999  0.089109273  0.092018796            3 
  364000    1.1102868   -2.6915377    390.58881  0.089420514  0.091991524            2 
  365000    1.1064651   -2.6958457    391.61416  0.089409625  0.091963745            1 
  366000    1.1047259   -2.7053528    392.91665  0.089461896  0.091937039            2 
  367000    1.1010695   -2.7231947    392.24703  0.089066083  0.091906688            1 
  368000    1.0974641   -2.6628226    394.99672  0.089446721  0.091880395            3 
  369000    1.1112918   -2.7372003    394.23176  0.089031563  0.091852327            2 
  370000    1.1211777   -2.7037153    395.87809  0.089161732  0.091825134            3 
  371000    1.1082168   -2.6827744    399.83366  0.089809898  0.091800507            1 
  372000    1.1009339   -2.7009707    400.52202  0.089722675  0.091777988            2 
  373000    1.0947564   -2.7062149    400.64287   0.08950913  0.091755271            1 
  374000    1.1059918   -2.6921172    402.03732  0.089580508  0.091731197            2 
  375000    1.1083077   -2.7266121    402.73564   0.08949681   0.09171026            2 
  376000    1.1061389   -2.6906884    404.37703  0.089622568   0.09168739            2 
  377000    1.0862129    -2.694727    404.82549  0.089483971  0.091667157            2 
  378000    1.0821027   -2.6978973    407.07935  0.089744124  0.091648409            1 
  379000    1.1128652   -2.7051969      406.641  0.089410949  0.091630768            2 
  380000    1.0783439   -2.6962389    409.13625  0.089722861  0.091615637            1 
  381000    1.0863624   -2.6999621    409.35941  0.089536179  0.091597253            4 
  382000    1.1283013   -2.6904949    411.34715  0.089735416  0.091577854            4 
  383000     1.079582   -2.6928708    411.29873  0.089490586  0.091561325            2 
  384000    1.1240889   -2.7089308    411.81282  0.089369101  0.091540169            2 
  385000    1.1250658    -2.708716    413.98102  0.089606282  0.091520522            1 
  386000    1.1045475   -2.6914689     413.6385  0.089300194  0.091498766            1 
  387000    1.0970267   -2.7122335    416.64534  0.089716912  0.091479151            1 
  388000     1.099516   -2.7004001    416.01586  0.089350485  0.091455517            1 
  389000    1.0927662    -2.729287     418.0005  0.089545951  0.091434531            2 
  390000    1.0964147   -2.7367279    417.85373  0.089284985   0.09141294            1 
  391000    1.1286171   -2.7218711    418.74488  0.089246564  0.091391072            3 
  392000    1.1078326   -2.6994471    420.43673  0.089378556   0.09136809            1 
  393000    1.1078832   -2.7220594    419.13117  0.088874294  0.091347525            1 
  394000     1.080473   -2.6948815    420.98036  0.089039838  0.091323006            5 
  395000    1.1009759   -2.6877072    422.63263  0.089163002  0.091296813            1 
  396000    1.0849696   -2.6725036    425.06393   0.08944948  0.091272617            1 
  397000    1.0805045   -2.7161036    424.99403  0.089209495  0.091248656            1 
  398000    1.0945627   -2.7050779    425.37588  0.089065302  0.091225303            3 
  399000     1.105379   -2.6887141    429.04946  0.089609327  0.091202607            2 
  400000      1.09594   -2.7344646    427.93377  0.089152868  0.091181883            4 
  401000    1.0775963   -2.7157179    429.05102  0.089162722  0.091161934            1 
  402000    1.0859124   -2.7184354    430.38174  0.089216779  0.091143636            1 
  403000    1.1030863   -2.7122997    432.36397  0.089405287  0.091122987            1 
  404000    1.0882948    -2.700875    434.75189  0.089676545  0.091102807            1 
  405000    1.1018526   -2.6896165    432.48564  0.088988814   0.09108435            3 
  406000    1.0817731   -2.7136684    433.94979  0.089070154   0.09106599            2 
  407000    1.0648868   -2.6968207    436.50921  0.089375351  0.091045687            2 
  408000    1.0662934   -2.7213231    434.60692  0.088767753  0.091022858            2 
  409000    1.0854865   -2.6969263    437.55383  0.089151147  0.091003009            1 
  410000    1.1070637   -2.7252585    439.27605  0.089283749  0.090982674            1 
  411000    1.0738776   -2.7295497    438.12952  0.088834048   0.09096243            2 
  412000    1.0903323   -2.7414993    440.08238  0.089013426  0.090937859            1 
  413000    1.0825239   -2.7285254    438.38561  0.088455531  0.090913197            2 
  414000    1.0868991   -2.7101479    439.70049  0.088506541  0.090886719            2 
  415000    1.1017722   -2.7146169    440.72109   0.08849821  0.090862765            1 
  416000    1.0893232   -2.7199892    444.51701  0.089045876  0.090838329            3 
  417000     1.108221    -2.730633    444.06311  0.088741629  0.090813931            7 
  418000    1.1095383   -2.7172632    445.12773  0.088741572  0.090788963            3 
  419000    1.0601263   -2.7334742       445.58  0.088619729  0.090765393            3 
  420000    1.0909496   -2.7196634    446.26583  0.088544807  0.090744194            2 
  421000    1.0847465   -2.6858205    448.82016  0.088840095  0.090721775            1 
  422000    1.0858876   -2.7452704    448.65006  0.088595982  0.090697475            4 
  423000    1.0742501   -2.7295857    448.19469  0.088296826  0.090670336            2 
  424000    1.0703394   -2.7335804    450.25381  0.088493281  0.090644483            1 
  425000    1.0972997   -2.7215903    451.99935  0.088627324  0.090620319            2 
  426000    1.0979995   -2.7259938    451.62894  0.088346819  0.090599706            1 
  427000    1.0862558   -2.7462698    453.98366  0.088599465  0.090578398            2 
  428000    1.0800012   -2.7191587    454.80795  0.088552949  0.090557406            1 
  429000    1.0887561   -2.7562811    457.01611  0.088775468  0.090538272            1 
  430000    1.0677639   -2.7400953     458.3264  0.088822946  0.090519598            1 
  431000    1.0765118   -2.7412491    459.19343    0.0887845  0.090497725            2 
  432000     1.084728   -2.7363549      458.397  0.088425348  0.090478276            4 
  433000    1.0874853   -2.7452983    461.41253  0.088801487   0.09045793            3 
  434000    1.0644858   -2.7482172    458.99968  0.088133579  0.090437217            1 
  435000    1.1177202   -2.7320881    462.50937  0.088603328   0.09041381            2 
  436000    1.0909804   -2.7358315     463.5999  0.088608543  0.090393215            2 
  437000    1.0921691    -2.731895    464.62815   0.08860186  0.090371998            2 
  438000    1.0839944    -2.744572     462.9554  0.088081316  0.090349112            1 
  439000     1.076356   -2.7015213    466.03313  0.088464906  0.090325571            1 
  440000     1.103451   -2.7735987    463.36842  0.087759171  0.090303313            4 
  441000    1.0753384   -2.7457385    466.66101  0.088182352  0.090280413            2 
  442000    1.0657407   -2.7382464    468.63423  0.088354869  0.090258674            2 
  443000     1.086611   -2.7480707    467.34683  0.087913248  0.090236426            5 
  444000     1.063662   -2.7415933    471.57541  0.088508898  0.090215738            2 
  445000    1.0978973   -2.7431886    471.00872  0.088203881  0.090195403            2 
  446000    1.0969222   -2.7467225    473.10096  0.088397041  0.090172735            2 
  447000    1.0870674   -2.7409142    474.13852  0.088392715   0.09015291            1 
  448000    1.0885152   -2.7432131    476.09426    0.0885592  0.090132599            1 
  449000    1.0636485   -2.7695873    476.38903  0.088416673  0.090112294            2 
  450000    1.0844049   -2.7150648    476.06526  0.088160234  0.090090528            3 
  451000      1.07371   -2.7645385    475.22433  0.087809374  0.090066355            2 
  452000    1.1018658   -2.7230143    479.02468  0.088315759  0.090040887            4 
  453000    1.0944696   -2.7228463    478.63209  0.088048582  0.090017826            1 
  454000    1.0604068   -2.7391269    479.09707   0.08793999  0.089992279            4 
  455000    1.0831307   -2.7625292    477.79027  0.087507375  0.089966711            1 
  456000     1.069412   -2.7150065    480.26893  0.087768445  0.089940253            1 
  457000     1.072119   -2.7514701    479.63133  0.087460125  0.089910984            2 
  458000    1.0459097   -2.7343896     482.5683  0.087803549  0.089882035            1 
  459000    1.0513939   -2.7378919    484.07859  0.087886454  0.089853247            4 
  460000    1.0889485    -2.757286    483.74422  0.087634823  0.089825904            2 
  461000    1.0837316   -2.7261209    482.58099  0.087234453  0.089797404            2 
  462000    1.0725461   -2.7454837    484.37598  0.087369405  0.089767544            2 
  463000      1.08572   -2.7488372    485.18067  0.087325535  0.089736211            1 
  464000     1.084679   -2.7717948    486.27345  0.087333594   0.08970552            1 
  465000    1.1075176   -2.7629014    487.02328  0.087280158  0.089671689            2 
  466000    1.0435605   -2.7409305    486.66214  0.087028279  0.089639942            3 
  467000    1.0708097   -2.7683281    487.47368  0.086986738  0.089606818            7 
  468000    1.0728086   -2.7379303    489.25979  0.087118909  0.089576177            2 
  469000    1.0756206    -2.722563    494.05984  0.087786041  0.089546883            7 
  470000    1.0470537   -2.7551211    493.97871  0.087584878  0.089519189            2 
  471000    1.0587422   -2.7349577     492.2299  0.087089509  0.089490259            1 
  472000    1.0668654   -2.7793674    494.91972  0.087379893  0.089463781            2 
  473000    1.0799231   -2.7506351    493.61002  0.086964415  0.089434582            1 
  474000    1.0679377   -2.7363486    498.52117  0.087644368  0.089405652            2 
  475000    1.0565919   -2.7482388    496.14766  0.087043449  0.089378166            1 
  476000    1.0705328   -2.7234714    500.83685  0.087681521  0.089351706            4 
  477000    1.0626425   -2.7277014    501.39801  0.087595739  0.089323698            1 
  478000    1.0702719   -2.7526632    499.16356  0.087022936  0.089294984            3 
  479000      1.04565   -2.7652276    500.62803  0.087096039  0.089264675            3 
  480000    1.0801019   -2.7369849    501.08419  0.086993783  0.089235331            3 
  481000    1.0613296   -2.7359346     503.6695  0.087260829  0.089206021            1 
  482000    1.0580254   -2.7475194    503.10792  0.086982698  0.089176779            2 
  483000    1.0549715    -2.754076    503.14412  0.086808854  0.089149005            2 
  484000    1.0634219   -2.7741489    505.28229  0.086997639  0.089120762            3 
  485000     1.082095    -2.757024    505.78741  0.086905053  0.089092591            2 
  486000    1.0587436   -2.7653676    506.77057  0.086894816  0.089063161            3 
  487000    1.0490231   -2.7737103    506.44526  0.086660722  0.089031334            1 
  488000    1.0283334   -2.7724434    505.03541  0.086242386  0.089000312            2 
  489000    1.0625147   -2.7497102    506.91158  0.086385751  0.088968357            4 
  490000     1.074925   -2.7748251    508.36418  0.086456493  0.088935903            1 
  491000    1.0592583   -2.7575596    511.89079  0.086878953  0.088907438            2 
  492000    1.0715681   -2.7817546    510.57118  0.086478858  0.088876618            2 
  493000    1.0596342   -2.7515705    512.96555  0.086708173  0.088844301            1 
  494000    1.0450342    -2.750246    511.47008  0.086280378  0.088812068            2 
  495000    1.0342079   -2.7663518    512.21566  0.086231593  0.088778412            2 
  496000    1.0819851   -2.7247749    514.40497  0.086425566  0.088745343            1 
  497000    1.0587662   -2.7694396    512.87827  0.085995686  0.088709124            3 
  498000    1.0414488   -2.7337808    514.25472  0.086053334  0.088674943            2 
  499000    1.0764459   -2.7537507    515.14852  0.086030148  0.088638865            2 
  500000    1.0740934   -2.7509437    518.36657  0.086394429  0.088603618            3 
  501000    1.0671298   -2.7670449    517.94178  0.086151327  0.088568638            3 
  502000    1.0615086   -2.7314259    519.46866  0.086233176  0.088534624            1 
  503000    1.0817896   -2.7598286    520.79156  0.086280907  0.088500906            3 
  504000    1.0550565   -2.7449791    518.23825  0.085687541  0.088464954            2 
  505000    1.0460835   -2.7820343    520.93849  0.085963447  0.088428573            4 
  506000    1.0698506   -2.7283051    522.12117  0.085988335  0.088391764            2 
  507000    1.0727571   -2.7504152    523.66652  0.086072735  0.088356221            1 
  508000      1.03048   -2.7701024    523.63947  0.085898863  0.088320168            1 
  509000    1.0657248   -2.7412707    522.64087  0.085566613  0.088283462            3 
  510000    1.0551377   -2.7990498    522.65552  0.085401228  0.088246158            1 
  511000    1.0290413   -2.7430783    526.57039  0.085872536  0.088208724            2 
  512000    1.0757274   -2.7529536    530.10913  0.086280783  0.088174226            4 
  513000    1.0711729   -2.7364803    527.10487  0.085624573  0.088140548            3 
  514000    1.0390947   -2.7834727    528.96064  0.085758858   0.08810705            1 
  515000    1.0488471   -2.7627762    528.64835  0.085541805  0.088071872            1 
  516000    1.0681677   -2.7895051    529.02479  0.085436821  0.088035391            2 
  517000    1.0268682   -2.7703595    531.73569  0.085708525  0.087999557            2 
  518000    1.0361879   -2.7530394    530.79113  0.085391109  0.087963369            2 
  519000     1.050009   -2.7926646     530.0438  0.085106582   0.08792519            2 
  520000    1.0442461    -2.779636    529.64981  0.084879777  0.087887178            2 
  521000    1.0299054   -2.7685177    533.00891  0.085254144  0.087851106            2 
  522000    1.0458526   -2.7719613    534.01188  0.085250938  0.087815116            2 
  523000    1.0418166   -2.7801246    533.60875  0.085023702  0.087777622            5 
  524000    1.0552375    -2.761979     534.6751  0.085031027  0.087740616            2 
  525000    1.0594966   -2.7580866    537.59442  0.085332448   0.08770263            1 
  526000     1.039259   -2.7747008     536.5553  0.085005592  0.087664635            3 
  527000    1.0438051   -2.7795598    538.42341  0.085139692  0.087627188            1 
  528000    1.0252435   -2.7868705    538.85973  0.085047306  0.087589788            1 
  529000    1.0459826   -2.7890199    542.49465  0.085459145  0.087552986            2 
  530000    1.0640965   -2.7797676     540.8067    0.0850325  0.087516773            4 
  531000    1.0415911   -2.7694753    542.16933  0.085086211  0.087481242            2 
  532000    1.0465611   -2.7734748    542.90897  0.085042132  0.087444903            2 
  533000    1.0522941   -2.7777341    544.63704  0.085152758  0.087408901            3 
  534000    1.0600021   -2.7920779    544.22004   0.08492822  0.087373443            1 
  535000    1.0340484   -2.7442033    546.82545  0.085175304  0.087338343            2 
  536000    1.0326607   -2.7820309    549.70432   0.08546398  0.087304661            2 
  537000    1.0427724   -2.7974405    547.60738   0.08497942  0.087270499            2 
  538000    1.0166803   -2.7803368    548.82424  0.085009951   0.08723774            1 
  539000    1.0722324   -2.7713662     552.6246  0.085439796  0.087205429            2 
  540000     1.032932   -2.7595797    552.04226  0.085191706  0.087172276            2 
  541000    1.0377666   -2.8061615    549.00142  0.084565838  0.087137287            6 
  542000    1.0595678   -2.7988382     551.0736  0.084728413   0.08710108            1 
  543000    1.0382177   -2.7931876    549.98912  0.084405941  0.087066534            4 
  544000     1.043152   -2.7630175    556.94934  0.085316995  0.087031713            2 
  545000    1.0469489   -2.7896716    555.50109  0.084939004  0.086997762            2 
  546000    1.0471292   -2.7836928    554.13063  0.084574271   0.08696408            1 
  547000     1.022194   -2.7579372    557.16252  0.084881555   0.08693094            2 
  548000    1.0348893   -2.7901611    557.10401  0.084717764  0.086895507            1 
  549000    1.0357487    -2.812782    557.50796  0.084624766  0.086861724            2 
  550000    1.0355389   -2.7869557      560.234   0.08488394  0.086827658            2 
  551000    1.0302527   -2.7983027    558.32012  0.084440429  0.086795325            3 
  552000    1.0463854   -2.8053829    560.31504  0.084588622  0.086761939            3 
  553000    1.0344707   -2.8007243    563.13134  0.084860058  0.086730304            3 
  554000    1.0378501   -2.7725345    565.81633   0.08511076  0.086698379            2 
  555000    1.0288981   -2.7786612    562.07368  0.084395448  0.086665524            2 
  556000    1.0222575   -2.7738286    566.14313  0.084853586  0.086633998            1 
  557000    1.0334347   -2.7806675    566.62807  0.084773799  0.086600876            2 
  558000    1.0286116   -2.7750613    566.14117  0.084549159  0.086569038            3 
  559000     1.028418   -2.7836775    566.59295  0.084465257  0.086536358            2 
  560000    1.0352068   -2.7882165    568.92696   0.08466175  0.086503371            3 
  561000    1.0204633   -2.7853661    568.53602  0.084452765  0.086470691            2 
  562000    1.0280411   -2.8311573    569.71276   0.08447698  0.086437656            3 
  563000    1.0332051   -2.7781449    570.94332  0.084509077  0.086403498            2 
  564000    1.0374237   -2.8093912    570.88141   0.08435009  0.086371044            2 
  565000    1.0540843   -2.7920676    572.13491  0.084385679  0.086338431            3 
  566000    1.0296796   -2.7875958    574.79212  0.084627815   0.08630687            1 
  567000    1.0399893   -2.7974428    573.39878  0.084273777   0.08627328            2 
  568000     1.019071   -2.7763002    573.73849  0.084175247   0.08623938            3 
  569000   0.99793773      -2.7884    575.03813  0.084217652  0.086205926            2 
  570000    1.0093861   -2.7847278    576.27578  0.084250845  0.086170988            1 
  571000    1.0158974   -2.7885563     576.3519  0.084114405  0.086136995            3 
  572000   0.99971691   -2.8015009    575.69797  0.083872082  0.086101978            1 
  573000    1.0453202   -2.8011452    577.18535  0.083942023  0.086068848            3 
  574000    1.0363277    -2.798749    577.69736  0.083870116  0.086034155            2 
  575000    1.0228746    -2.767735    581.40146  0.084261081  0.086000325            3 
  576000    1.0176936   -2.7920199     578.5685  0.083704933  0.085965251            2 
  577000    1.0234698   -2.7944244    580.41456  0.083826481  0.085929944            2 
  578000   0.99722875     -2.79078    578.41411  0.083393038  0.085893666            2 
  579000    1.0243461   -2.7941645    583.16332  0.083932544   0.08585727            1 
  580000      1.05623   -2.8308515    580.81529  0.083450472  0.085819612            3 
  581000    1.0290417   -2.7908518    582.25742  0.083513687  0.085780919            2 
  582000     1.058075    -2.810422    583.13103  0.083495279  0.085743054            2 
  583000    1.0138324   -2.8105513    585.06684  0.083628766  0.085706372            2 
  584000    1.0370516   -2.7865036    587.66424  0.083856199  0.085670785            3 
  585000    1.0192357   -2.8148679    584.51703  0.083264534  0.085634993            4 
  586000    1.0118207   -2.8008697     587.5007  0.083546743  0.085598928            2 
  587000    1.0302814   -2.8166997     585.5245  0.083123864  0.085563914            5 
  588000    1.0410745   -2.7745551    588.74609  0.083439071  0.085528896            2 
  589000   0.99823157   -2.8197801    588.77293  0.083301207  0.085495345            1 
  590000    1.0373766     -2.82007    589.15286  0.083213681  0.085460845            2 
  591000    1.0127411   -2.8172649    594.50984  0.083828234  0.085426618            1 
  592000    1.0071464   -2.7982436    592.25395  0.083369081  0.085393943            1 
  593000     1.010141   -2.8262597     594.9275  0.083604201  0.085360935            2 
  594000    1.0217895   -2.7983496    593.32094  0.083238066  0.085327586            3 
  595000   0.98664417   -2.7976313    593.12794   0.08307114  0.085294288            3 
  596000    1.0406692   -2.8014744    593.98729  0.083051914  0.085260394            3 
  597000    1.0136046   -2.8161945    594.51894   0.08298701  0.085225912            2 
  598000    1.0054621   -2.7887771    596.56474  0.083133325  0.085190522            3 
  599000   0.99929629   -2.8108122    598.00837  0.083195377  0.085154245            2 
  600000    1.0204578   -2.8309258    596.87748   0.08289965  0.085117121            3 
  601000    1.0140467   -2.8026898    594.37149  0.082414239  0.085078415            3 
  602000     1.012194   -2.8127458    597.59405  0.082723429    0.0850398            2 
  603000    1.0023834   -2.8180848    597.92012  0.082631304  0.085001056            2 
  604000    1.0299271   -2.7872391    597.52796  0.082440392  0.084962803            1 
  605000    1.0025974   -2.8228775    601.02553  0.082785886  0.084925165            1 
  606000    1.0041144   -2.8072398    598.44215  0.082294025  0.084886544            2 
  607000    1.0048127   -2.8147761    601.50038  0.082578306  0.084847781            1 
  608000    1.0305341   -2.8141962    601.53692  0.082447495  0.084808429            3 
  609000    1.0220769   -2.8110371    602.13658  0.082394168  0.084769976            3 
  610000    1.0333771   -2.8126103    600.25278  0.082001746  0.084731284            7 
  611000    1.0009671   -2.8112671    603.18174  0.082267013   0.08469311            3 
  612000    0.9951895   -2.8276038    603.92107  0.082233261  0.084653599            4 
  613000   0.99214063   -2.8121742    603.64821  0.082062019  0.084613871            3 
  614000    1.0103806   -2.8177984    605.56336  0.082188296  0.084574262            3 
  615000   0.99167259   -2.8007717    610.79864  0.082764044  0.084534262            2 
  616000    1.0008572   -2.8185107    604.91371  0.081833564  0.084493991            3 
  617000    1.0332811   -2.7983872     607.5691  0.082059576  0.084454101            3 
  618000     1.019959   -2.8095438    606.75744  0.081817346  0.084413776            2 
  619000   0.99369811   -2.8137306    611.59758  0.082336776  0.084373205            3 
  620000   0.98346978   -2.8220937    610.18975  0.082014751  0.084333321            3 
  621000    1.0016754   -2.8245265    610.33123  0.081901668  0.084292715            4 
  622000    1.0086179   -2.8191506    609.48267  0.081656306  0.084251952            4 
  623000    0.9844841   -2.8584418    608.01439  0.081328837  0.084210987            3 
  624000   0.99830756    -2.801007    610.67476  0.081553788   0.08417016            2 
  625000   0.99748761   -2.8399005    613.50625  0.081800833  0.084129713            2 
  626000     1.020969   -2.8120821     611.3255  0.081379859  0.084088453            1 
  627000    1.0266878   -2.7983983     616.3071  0.081912161  0.084048206            2 
  628000    1.0074431   -2.8338643    615.01782  0.081610645  0.084007169            3 
  629000    1.0002563   -2.8074255    615.10324  0.081492215  0.083966199            2 
  630000   0.99165398    -2.807558    615.83166  0.081459215  0.083924979            1 
  631000   0.99549473   -2.8206691     617.1933  0.081509945   0.08388424            1 
  632000    1.0024843   -2.8369863    618.24831  0.081520083  0.083844135            2 
  633000    1.0070766   -2.8252379    619.77684  0.081592528  0.083803274            3 
  634000     1.006035   -2.7911556    619.87334  0.081476517  0.083764181            2 
  635000   0.99708006   -2.8352292    619.48978  0.081297871  0.083723844            2 
  636000    1.0080311   -2.8322188    620.08811  0.081248442  0.083683751            6 
  637000    1.0174339   -2.8235787    622.82746   0.08147926  0.083643752            3 
  638000   0.97868187   -2.8083902    621.79456  0.081216635  0.083604692            2 
  639000    1.0074627   -2.8331526    622.78943  0.081219279  0.083566272            4 
  640000   0.99996454   -2.8168856    624.66381  0.081336433  0.083527049            2 
  641000   0.99071149   -2.8527089     626.4829  0.081446035   0.08348775            2 
  642000   0.98195279   -2.8182929     626.4414  0.081313785  0.083449144            2 
  643000   0.99485063   -2.8427345    627.37462  0.081308271  0.083409884            3 
  644000   0.99202975   -2.8406787    629.33189  0.081435286  0.083370784            2 
  645000    1.0060283   -2.8216317    626.97728  0.081004817  0.083331726            3 
  646000   0.98817518   -2.8280518    628.37525  0.081059759  0.083292949            4 
  647000   0.98855931   -2.8576075    629.87095  0.081127119  0.083254084            1 
  648000    1.0179307   -2.8419093     631.0721  0.081156391  0.083215443            5 
  649000    1.0031682   -2.8184364    630.91662  0.081011379   0.08317765            5 
  650000   0.99142186   -2.8391967    633.07165  0.081163032  0.083140666            1 
  651000     1.010529   -2.8394786    635.43959  0.081341473  0.083103439            1 
  652000    0.9918563   -2.8257155    635.35202  0.081205525  0.083066535            3 
  653000   0.99598426   -2.8512615    633.87241  0.080892344  0.083030427            2 
  654000    1.0049304   -2.8460811       636.69  0.081127676  0.082993688            1 
  655000   0.96556444   -2.8286635    639.58522  0.081372165   0.08295809            3 
  656000    0.9790662   -2.8281309     638.6765  0.081132686  0.082920842            3 
  657000     1.000845   -2.8270561    637.82883  0.080901678  0.082883921            3 
  658000   0.98954026   -2.8322831    639.75569  0.081022757  0.082847164            3 
  659000   0.98836502   -2.8202247    638.95791  0.080798926  0.082809527            3 
  660000   0.97814112   -2.8147529    640.00997  0.080809339  0.082772889            1 
  661000   0.99593636   -2.8470706    640.49883  0.080748718  0.082737594            2 
  662000    0.9897104   -2.8510552    641.63769  0.080770101  0.082702535            1 
  663000   0.98476139   -2.8492775    642.96126  0.080814639   0.08266508            2 
  664000    1.0069525   -2.8473532    642.81638  0.080674746  0.082627584            3 
  665000   0.98429159   -2.8477691    644.68113  0.080787109  0.082591259            3 
  666000   0.97711691    -2.845998    644.41623  0.080632662  0.082553973            1 
  667000    1.0198298   -2.8373773    645.26533  0.080617858  0.082517582            4 
  668000   0.98102019    -2.826532    645.94778  0.080582308  0.082481054            5 
  669000    1.0183872   -2.8181346    646.52278   0.08053348  0.082446052            4 
  670000   0.96353553   -2.8877276    647.24971  0.080503696  0.082410248            3 
  671000    1.0181252   -2.8562267    647.13398  0.080369346  0.082374162            2 
  672000   0.98079753   -2.8385005    647.54732  0.080301007  0.082337477            4 
  673000    0.9829719   -2.8526745    647.43093  0.080167278   0.08230096            6 
  674000   0.95912125   -2.8250396    651.56203  0.080559104  0.082264399            3 
  675000    0.9778606   -2.8385442    653.42803  0.080670127  0.082228521            6 
  676000    1.0013177   -2.8404342    651.75438  0.080344475  0.082192645            5 
  677000   0.97556573   -2.8364901    653.16144  0.080398995  0.082156485            3 
  678000    1.0128385   -2.8435893    654.73248   0.08047351  0.082120863            3 
  679000   0.98938818   -2.8621287    652.77879  0.080115217   0.08208475            2 
  680000   0.97412448   -2.8561007    653.99803  0.080146817  0.082047313            2 
  681000    1.0125649   -2.8442704    655.28623  0.080186764  0.082011964            2 
  682000   0.97957051   -2.8454314    657.80793  0.080377314  0.081977633            4 
  683000   0.97947298   -2.8556551    656.27462   0.08007255  0.081943125            4 
  684000    0.9676958   -2.8648439    660.86236   0.08051442  0.081910015            2 
  685000   0.98442146   -2.8175675    661.49569  0.080473928  0.081875813            2 
  686000    1.0012372   -2.8365231    661.01706  0.080298477  0.081840317            2 
  687000   0.98376088   -2.8528546    661.38709  0.080226478  0.081805103            2 
  688000   0.97970501   -2.8826974    659.92632  0.079932936    0.0817694            5 
  689000   0.98604957   -2.8461869    661.82109  0.080046092  0.081733677            2 
  690000   0.98631366   -2.8503918    662.39969  0.079999963  0.081698619            5 
  691000    1.0028003   -2.8414474    661.84807  0.079817663   0.08166338            2 
  692000    1.0011613   -2.8716576    662.95199  0.079835259  0.081627406            3 
  693000   0.98252073   -2.8576473    664.91275  0.079955838   0.08159124            2 
  694000   0.98156066   -2.8449047    669.25285  0.080361773  0.081556022            4 
  695000   0.98771579   -2.8290402    665.44345  0.079789382  0.081520752            1 
  696000   0.96197672   -2.8500486    667.48895  0.079919654  0.081485688            2 
  697000   0.99984915   -2.8540964    665.41084  0.079556533  0.081449477            1 
  698000   0.97964776   -2.8281359    667.16017  0.079651405   0.08141358            3 
  699000   0.97710294   -2.8610542     668.2476  0.079667096  0.081377443            1 
  700000    1.0027673   -2.8284931    668.71904  0.079609409  0.081340541            2 
  701000   0.96885605   -2.8746648    667.58662  0.079361224  0.081303409            3 
  702000    1.0020655   -2.8768268    670.35898  0.079577277  0.081266675            2 
  703000   0.96736248   -2.8791632    668.61747  0.079257642  0.081228732            2 
  704000   0.95953512   -2.8483355    670.16982  0.079328814  0.081190653            3 
  705000   0.98870403   -2.8504422    670.73595  0.079283209  0.081153524            1 
  706000   0.98996628   -2.8622671    674.50209   0.07961545  0.081116843            2 
  707000   0.98662763   -2.8825044    674.09192  0.079454493  0.081080549            3 
  708000   0.97816508   -2.8763943    671.04766  0.078983952  0.081044301            4 
  709000   0.96826228   -2.8757253     673.2391  0.079130124  0.081007705            2 
  710000   0.99011928   -2.8708019     674.6846  0.079188333  0.080972031            5 
  711000   0.97023702   -2.8973299    673.80729  0.078974132  0.080935408            2 
  712000   0.97937409     -2.83526    675.50899  0.079062382  0.080898488            3 
  713000   0.98239156   -2.8610035    676.51754  0.079069371  0.080861959            4 
  714000   0.95152805   -2.8395832    677.95524  0.079126428  0.080823978            4 
  715000   0.97177188    -2.872532    674.66032  0.078631739  0.080786804            2 
  716000   0.98739288   -2.8882986     677.1128  0.078807356  0.080748894            2 
  717000   0.98623584    -2.866136    677.60639   0.07875481  0.080710973            2 
  718000   0.96376837   -2.8727163      678.214  0.078715645  0.080672983            1 
  719000   0.95176136   -2.8703531    680.52778  0.078874337  0.080635423            2 
  720000   0.98041439   -2.8701645    678.97615  0.078585203  0.080597642            2 
  721000    0.9714497   -2.8415882    680.32597   0.07863222  0.080560079            1 
  722000   0.96153804   -2.8679025    680.88498  0.078587833  0.080522325            2 
  723000   0.98043944   -2.8555559    683.83642   0.07881932  0.080484327            5 
  724000   0.95240577   -2.8682817    682.52774  0.078559823  0.080445277            2 
  725000   0.98012305   -2.8512168    685.79291  0.078826771  0.080407364            3 
  726000   0.97522232   -2.8497508    685.80472   0.07871955  0.080369345            3 
  727000   0.97883007   -2.8759547    682.81389  0.078268443  0.080330267            1 
  728000   0.98163357   -2.8753585    685.55711  0.078474943  0.080291487            2 
  729000   0.97722027   -2.8639831    685.23615  0.078330607  0.080253639            1 
  730000   0.94941912   -2.8471807    687.01234  0.078426066  0.080215884            1 
  731000   0.94356286   -2.9017956     687.0052  0.078317967  0.080177841            3 
  732000   0.95182346   -2.8796691    685.95241  0.078091121  0.080139372            2 
  733000   0.96446619   -2.8736365    687.95982  0.078212804  0.080102532            3 
  734000    0.9718209   -2.8661755     691.0698  0.078459333  0.080065427            4 
  735000   0.96764889   -2.8755836    691.37473  0.078387157  0.080028738            3 
  736000   0.96873712   -2.8694752    691.64737  0.078311523   0.07999201            4 
  737000     0.957808   -2.9259812    691.70876  0.078212207  0.079954682            3 
  738000   0.96719956   -2.8773045    693.46924  0.078305018  0.079918113            1 
  739000   0.97339188   -2.9121727    694.56179  0.078322259  0.079881731            2 
  740000   0.95051603   -2.8867837    696.02945  0.078381695  0.079845979            2 
  741000   0.95874677    -2.886785    697.09606  0.078395868  0.079809935            3 
  742000   0.97287926   -2.8821827    698.04712  0.078397026  0.079774127            3 
  743000   0.96937665   -2.8623083    697.04481  0.078179095  0.079738822            2 
  744000   0.95740322   -2.8766136    701.16243  0.078535218  0.079703305            1 
  745000   0.96832856   -2.8871684     699.2412  0.078214899   0.07966799            6 
  746000   0.94877367   -2.8766162    699.87173  0.078180488  0.079632104            3 
  747000   0.95088783   -2.8833541     701.6593  0.078275245  0.079597128            6 
  748000   0.93519736   -2.8922132    699.86103  0.077970257  0.079562901            4 
  749000   0.95879146   -2.8931337    703.36904  0.078256458  0.079527686            2 
  750000   0.97640652   -2.8831887    699.70838  0.077745376  0.079492071            5 
  751000   0.95494581   -2.8741173    706.89025  0.078438776  0.079457079            2 
  752000    0.9542791   -2.8722458     705.3824  0.078167376  0.079422833            2 
  753000   0.93928677   -2.8857419    703.94076  0.077904024  0.079387892            2 
  754000   0.94411629   -2.8890607    703.02573  0.077699572  0.079353149            5 
  755000   0.96013714   -2.8619104     709.3447  0.078294117  0.079318379            2 
  756000   0.94310299   -2.9046692    706.26228  0.077850781  0.079283974            2 
  757000   0.94508072   -2.8868512    708.02482  0.077941966  0.079249029            4 
  758000   0.94095263   -2.8725824    704.26881  0.077426211  0.079214261            3 
  759000   0.93031888   -2.8794333     709.6873  0.077919115  0.079179499            3 
  760000   0.93881871   -2.8941945    706.95515  0.077517012  0.079144528            3 
  761000   0.94693787   -2.8962397    711.04156  0.077862633  0.079110071            1 
  762000   0.93629087   -2.9018009    710.58409  0.077710421  0.079075565            2 
  763000   0.94512062   -2.9075994    710.02541  0.077547554  0.079040276            5 
  764000   0.95107072   -2.9026401    712.51389  0.077717483  0.079005227            1 
  765000   0.97027176   -2.8808757    711.47479    0.0775027  0.078969593            3 
  766000   0.93961977   -2.8860723    711.57225  0.077412124  0.078934395            2 
  767000   0.92457066    -2.923045    712.03469  0.077361439   0.07889781            4 
  768000   0.97170142   -2.8736942     715.7332  0.077662023   0.07886216            2 
  769000   0.94962734   -2.9017304     713.7918   0.07735065  0.078826589            2 
  770000    0.9373472   -2.9161838    712.62665  0.077124096  0.078790475            3 
  771000   0.94481147   -2.8950901    715.84079  0.077371465   0.07875432            3 
  772000   0.92361137   -2.9075383    716.04382  0.077293159  0.078718482            3 
  773000   0.95773469   -2.8988331     714.8467  0.077064111  0.078682596            2 
  774000    0.9629996   -2.8876244    717.76974  0.077279257  0.078647022            1 
  775000   0.93271231   -2.9099895    718.26119  0.077232386    0.0786111            4 
  776000   0.96073961   -2.9138924    717.63837  0.077065976  0.078575041            2 
  777000   0.96750177   -2.9088032    719.91357  0.077210808  0.078539591            2 
  778000   0.95460822   -2.8666232    720.29165  0.077152062  0.078504476            5 
  779000    0.9287171   -2.9020654    718.21532  0.076830907  0.078469314            2 
  780000   0.92665017   -2.8841127    721.87803  0.077123721  0.078433597            3 
  781000   0.95222396   -2.8803184    719.34361  0.076754546  0.078398639            3 
  782000   0.92844703   -2.8705518    721.88507  0.076927224  0.078364143            2 
  783000   0.93596392   -2.9183569    721.22031  0.076758228  0.078329225            2 
  784000   0.95736406   -2.9249019    725.97929  0.077166166  0.078295182            2 
  785000   0.92861556   -2.8932781    725.77319  0.077045986  0.078260788            4 
  786000   0.93195799   -2.8921567    725.75263  0.076945783   0.07822704            1 
  787000   0.93169009   -2.8997893    729.53718  0.077248749  0.078194313            2 
  788000   0.93500648   -2.9214995    727.98677  0.076986757  0.078161013            3 
  789000   0.96772964   -2.9176331    727.15295  0.076801114  0.078127756            2 
  790000   0.92767429   -2.8834742    730.43387  0.077049986  0.078093874            2 
  791000   0.94806277   -2.9300661    729.49773  0.076853953  0.078059418            4 
  792000   0.96876677   -2.9038984    729.50211  0.076757377  0.078025334            2 
  793000   0.95092223   -2.9097974    734.25791  0.077160352  0.077991953            2 
  794000   0.94373705   -2.9101064    730.69468  0.076689198  0.077958109            2 
  795000   0.93480643   -2.9217088    735.00215  0.077044251  0.077924418            3 
  796000   0.94359019   -2.9090736    732.68097  0.076704457  0.077890193            3 
  797000   0.94215912   -2.8977565     732.7433  0.076614733  0.077856961            4 
  798000    0.9421894   -2.8994509    736.90073  0.076952875  0.077824053            3 
  799000   0.92578737   -2.8879749    735.28971  0.076688538  0.077791526            3 
  800000   0.94024162   -2.9112488    733.27063  0.076382357  0.077758896            4 
  801000   0.90125725     -2.90695    735.64251  0.076533761  0.077725201            6 
  802000   0.94026596   -2.9137969    737.99127  0.076682385  0.077691726            3 
  803000    0.9492823    -2.918474    736.67218  0.076449997  0.077657966            3 
  804000   0.92130099   -2.9175123    737.28749  0.076418687  0.077624745            3 
  805000   0.92616134   -2.9298718    736.92301  0.076286026  0.077591677            4 
  806000   0.94201334   -2.9066359    739.30985  0.076438157  0.077558085            2 
  807000    0.9200288   -2.9338871    742.16369  0.076638134  0.077525951            4 
  808000   0.93010791   -2.9172495    738.84893  0.076201416  0.077492761            4 
  809000   0.91807691   -2.9324354    741.51769  0.076382127  0.077459195            2 
  810000   0.90678057    -2.905393    741.86338  0.076323393  0.077425488            2 
  811000   0.92342136    -2.899938    742.12408  0.076256071  0.077392144            2 
  812000     0.936718   -2.9207763    742.12459  0.076162212  0.077359232            2 
  813000   0.95127709    -2.920129    743.87325  0.076247771  0.077325628            2 
  814000    0.9063698    -2.929234    741.82617   0.07594453  0.077291306            2 
  815000   0.92877467   -2.9180419    744.33067   0.07610743  0.077257529            3 
  816000   0.90385131   -2.9175463    745.15666  0.076098515  0.077223988            2 
  817000   0.92850059   -2.9215523    748.08915  0.076304483  0.077191277            3 
  818000   0.93573539   -2.8843691    750.26349  0.076432711   0.07715817            4 
  819000   0.92462903   -2.9397064    749.68001  0.076280018  0.077125967            4 
  820000   0.94317509   -2.9319111    747.32943  0.075948113  0.077093371            2 
  821000   0.93781196   -2.9087934    752.81749  0.076412656  0.077061566            2 
  822000   0.92189051   -2.9168857    746.93538  0.075723376  0.077029013            1 
  823000   0.91706415   -2.9107593    749.83166  0.075924631  0.076996668            5 
  824000   0.95223551   -2.9317056    753.40539   0.07619391  0.076964741            5 
  825000   0.91592606   -2.9183571    754.37893  0.076199892  0.076933185            2 
  826000   0.91345104   -2.9214767    752.22037  0.075889868  0.076901481            2 
  827000   0.92244357   -2.9222276    753.90118  0.075967471  0.076869393            2 
  828000   0.92367718   -2.9028028    757.38268  0.076226115  0.076836906            2 
  829000    0.9204284   -2.9119024    757.86181  0.076182329  0.076805663            3 
  830000   0.93426794    -2.932188    755.28402  0.075831729  0.076773776            3 
  831000   0.89217094   -2.9181808    755.03383  0.075715386  0.076741723            4 
  832000   0.92114796   -2.9056811    759.37317  0.076059011  0.076710305            2 
  833000   0.91106004   -2.9246285    759.35017  0.075965404  0.076677942            2 
  834000   0.88802253   -2.9234575    757.88725  0.075728142  0.076645282            2 
  835000    0.9080758   -2.9377159    754.67849  0.075317214  0.076612661            4 
  836000    0.9230591    -2.918563    759.42751  0.075700509   0.07657908            2 
  837000   0.90901235    -2.957548    756.53979  0.075322559  0.076545416            2 
  838000   0.90390254   -2.9334675    758.41941  0.075419591  0.076511811            2 
  839000   0.91039547   -2.9225158    760.14418  0.075501011  0.076478566            2 
  840000   0.91262462   -2.9450986    757.77173  0.075175767  0.076445274            4 
  841000   0.90997968    -2.944082    759.06103  0.075214133  0.076411408            3 
  842000   0.92822994   -2.9596432    762.38076  0.075453361  0.076378378            2 
  843000   0.93429925   -2.9546412    761.81446  0.075307874  0.076344683            3 
  844000   0.89985449   -2.9363565    763.83148    0.0754178   0.07631182            2 
  845000   0.90376515   -2.9336329    762.45159  0.075192464  0.076279207            3 
  846000   0.91893717   -2.9430738    763.11089  0.075168527   0.07624694            3 
  847000   0.92129897    -2.946333    762.11456  0.074981755  0.076213179            3 
  848000    0.9254143   -2.9333146    765.48179  0.075224232   0.07617972            2 
  849000   0.90955072   -2.9596295    764.02374  0.074992514   0.07614596            2 
  850000   0.92759246   -2.9240745    764.20978  0.074922528  0.076111582            2 
  851000   0.90940714   -2.9384554     765.0686  0.074918586  0.076077554            3 
  852000   0.89853469   -2.9267741    766.24529  0.074945744  0.076044303            3 
  853000   0.90006566    -2.941569    767.52082  0.074982495  0.076011814            6 
  854000   0.89905867   -2.9104156     772.8501  0.075414725  0.075978807            5 
  855000   0.92070815   -2.9355166     769.3329  0.074983713  0.075946507            4 
  856000   0.91657779    -2.947281    771.69256  0.075125833  0.075914097            2 
  857000   0.92649074   -2.9407297    772.83479   0.07514924  0.075881644            2 
  858000   0.92560388   -2.9303889    768.45157  0.074635934   0.07584869            4 
  859000    0.9143502   -2.9286913     773.0667  0.074996769  0.075815934            2 
  860000   0.89968644   -2.9384013    770.40449  0.074651598  0.075783005            5 
  861000   0.91352244    -2.972372    768.92967  0.074422151  0.075750472            2 
  862000   0.89834371   -2.9427546    776.27315  0.075045741  0.075717285            2 
  863000   0.90537162   -2.9668283    772.03157  0.074549205  0.075684514            3 
  864000   0.92031019   -2.9593326    773.66557  0.074620522  0.075651844            3 
  865000   0.92633389   -2.9619557    774.71221  0.074635088  0.075620149            2 
  866000   0.91404693   -2.9427871    776.52988  0.074723814  0.075588708            2 
  867000   0.93227611    -2.939015    778.32018  0.074809706  0.075557225            3 
  868000   0.90919814   -2.9648309    777.46766  0.074641673   0.07552513            3 
  869000   0.92115565   -2.9529956    779.55328   0.07475578  0.075492864            4 
  870000   0.88788848   -2.9860056    777.49582   0.07447278    0.0754607            2 
  871000   0.92631497   -2.9530274    777.99128   0.07443468  0.075428105            2 
  872000   0.89693225   -2.9549122    779.90135  0.074531857  0.075395965            2 
  873000   0.92186028   -2.9576582    778.22606  0.074286565  0.075363949            4 
  874000   0.90138815   -2.9258275    783.31098  0.074686402  0.075332295            5 
  875000   0.89775041   -2.9477265    786.17119  0.074873447  0.075300637            3 
  876000   0.92660565   -2.9477436    784.26342   0.07460649  0.075268501            7 
  877000   0.89224626   -2.9744891    781.83222  0.074290405  0.075236253            4 
  878000    0.9091819   -2.9743245    781.72277  0.074195403  0.075203736            8 
  879000   0.90858554   -2.9629303    784.67623  0.074390996   0.07517233            5 
  880000   0.89274545   -2.9395801    786.97106  0.074523774  0.075140992            2 
  881000   0.90047871   -2.9496039    788.41007    0.0745753  0.075109816            4 
  882000   0.88346894   -2.9401806    786.45589  0.074306112  0.075078361            2 
  883000   0.90688267   -2.9747956    785.31725  0.074114501  0.075046948            3 
  884000   0.90911619   -2.9531409    790.12912  0.074484269  0.075015225            2 
  885000   0.89796337   -2.9392196    787.22906   0.07412703  0.074983646           12 
  886000   0.90713938   -2.9627255    790.93284  0.074391727  0.074951624            5 
  887000   0.90180979   -2.9650687    791.46982  0.074358307  0.074920207            6 
  888000   0.89320069   -2.9629695    788.39956  0.073986445  0.074888718            4 
  889000   0.87906781    -2.927203    794.06253  0.074434058  0.074857551            5 
  890000   0.89982867   -2.9605587     794.9154  0.074430281  0.074826468            4 
  891000   0.91072296   -2.9422261    790.99125  0.073979728  0.074795412            3 
  892000    0.9002496    -2.972054     794.1709  0.074193843  0.074763876            3 
  893000   0.90747021   -2.9788124    796.88316  0.074363864   0.07473292            4 
  894000   0.88672452   -2.9688112    794.62496  0.074070186  0.074701984            4 
  895000   0.90906396   -2.9539838    797.98105  0.074299912  0.074671299            5 
  896000   0.90300823   -2.9486429    794.77675  0.073918968  0.074640474            3 
  897000   0.89090955   -2.9772638    795.12845  0.073869235  0.074609873            3 
  898000   0.89665392   -2.9573966    800.32523   0.07426923  0.074578924            4 
  899000   0.90004743   -2.9759969    795.42452  0.073732343  0.074548348            2 
  900000   0.89612462   -2.9737992    800.44867  0.074115617  0.074518094            5 
  901000   0.90421054   -2.9441715    804.88118   0.07444332  0.074488128            4 
  902000   0.89907901   -2.9684903    801.68694  0.074065681  0.074458064           10 
  903000   0.90495242   -2.9799538    798.17228   0.07365931  0.074427082            5 
  904000   0.88220983   -2.9597602    803.51298   0.07407015  0.074396429            3 
  905000   0.88649917   -2.9767855    801.54626  0.073807206  0.074365833            3 
  906000   0.90400704   -2.9511374    802.61964   0.07382447  0.074335134            3 
  907000   0.87493321   -2.9818388    802.87386  0.073766433  0.074304675            4 
  908000    0.8970665   -2.9525922    803.31122  0.073725333  0.074273538            1 
  909000   0.88043438   -2.9667977    804.06787  0.073713593    0.0742431            1 
  910000   0.90109511   -2.9910892    803.28845  0.073561213  0.074212181            2 
  911000   0.88441879   -2.9795143    807.38898   0.07385556   0.07418143            2 
  912000   0.89573827   -2.9847285    805.70132   0.07362037  0.074150877            3 
  913000   0.89921623   -2.9455093    804.44453  0.073425021  0.074120549            2 
  914000   0.89067766   -2.9794318    806.48891  0.073531082  0.074090001            3 
  915000   0.88960704   -2.9676083    805.19528  0.073332903  0.074058943            3 
  916000   0.87986217   -2.9791424    809.07448  0.073605757  0.074028492            2 
  917000   0.87286311    -2.982422    812.73313  0.073857973  0.073997558            3 
  918000   0.90613539   -2.9637018    808.18431  0.073364589   0.07396715            1 
  919000   0.88920416   -2.9703748    809.28542  0.073384604  0.073936804            1 
  920000   0.88049377   -2.9964274    805.57124   0.07296841  0.073905471            2 
  921000   0.88059195   -3.0168972    808.12055  0.073119847  0.073874501            2 
  922000   0.91453986   -2.9853875    808.38894  0.073064799  0.073843224            2 
  923000   0.87461742   -2.9658948     811.3155  0.073249864  0.073812436            2 
  924000   0.87574004    -2.957756    811.69999  0.073205266  0.073781047            2 
  925000   0.88519359   -2.9748027    810.00578  0.072973493  0.073749353            5 
  926000   0.89690723   -2.9846706    813.22934  0.073184786  0.073717237            5 
  927000   0.88978972   -2.9822013    811.84528  0.072981416  0.073685445            3 
  928000   0.89662749    -2.975818    810.86032  0.072814325  0.073653262            2 
  929000   0.86701367   -2.9574727    813.56307  0.072978388   0.07362091            3 
  930000   0.88858784   -2.9618627    815.45798  0.073069712  0.073587674            5 
  931000   0.89164612    -2.994495    811.03781  0.072595579  0.073554916            6 
  932000   0.88813852   -2.9787894     814.5139  0.072828496  0.073522428            3 
  933000   0.89613098   -3.0053064    812.56146   0.07257605  0.073489438            3 
  934000   0.85185938   -2.9693595    811.58402  0.072411136  0.073455952            2 
  935000   0.87855062   -3.0028199    812.26764   0.07239462  0.073422712            5 
  936000   0.89242073   -2.9714945    815.53315  0.072608009  0.073389952            3 
  937000   0.88016928     -2.98402    816.42781  0.072610087  0.073357061            2 
  938000    0.8758393   -2.9930145    816.59331   0.07254738  0.073324023            3 
  939000   0.87246658   -2.9935265    815.71876  0.072392506  0.073290719            2 
  940000   0.87947787   -2.9948807    815.78363  0.072321244  0.073257258            5 
  941000    0.8839184   -3.0085441    815.14528  0.072187856  0.073223663            5 
  942000    0.8833156   -2.9832017    817.27685  0.072299792  0.073190412            9 
  943000   0.88929179   -2.9964989    819.61084  0.072429377    0.0731574            2 
  944000   0.87558309   -2.9612968    815.79072  0.072015423  0.073123563            3 
  945000   0.86621893   -2.9816047    817.42367  0.072083216  0.073089413            2 
  946000   0.87047398   -2.9849442    817.52716  0.072016135  0.073055292            2 
  947000   0.88626916   -2.9811562    817.87677  0.071970852  0.073021289            2 
  948000   0.89021977   -2.9771682    817.68824  0.071878361  0.072987393            2 
  949000   0.86489532   -3.0062974    816.87588  0.071731286  0.072954226            4 
  950000   0.86619839   -2.9917912    822.63632  0.072161081  0.072920725            2 
  951000    0.8850663   -2.9504275    824.74662  0.072270121  0.072887725            3 
  952000   0.86776998    -2.991366    822.66698  0.072012166  0.072854299            5 
  953000   0.85981341   -2.9766018    820.68067  0.071762913  0.072821118            4 
  954000   0.86844263    -3.010664    825.47649  0.072106612  0.072787987            1 
  955000   0.87979291   -3.0160349    821.71094  0.071702525  0.072755375            3 
  956000   0.85377136   -2.9904828    824.40208  0.071862106  0.072722018            9 
  957000   0.89203341   -2.9753825     827.0108  0.072014176   0.07268919            3 
  958000   0.87704808   -2.9916144    824.94647  0.071759435  0.072655807            8 
  959000    0.8727273   -2.9745896    826.51172  0.071820622  0.072622231            2 
  960000   0.87562724   -3.0015405    823.83182  0.071513179   0.07258877            5 
  961000    0.8536282   -3.0243626    822.16145  0.071293917  0.072554644            3 
  962000   0.86970989   -3.0276344    822.64756  0.071261916  0.072519934            3 
  963000   0.84683998   -3.0040747     825.4045  0.071426488  0.072485507            4 
  964000   0.88134839   -3.0094198    823.41014  0.071179991  0.072450855            3 
  965000   0.86752799   -2.9987256    828.00891   0.07150336  0.072416696            6 
  966000   0.87331632   -3.0053428    827.13518  0.071353966  0.072381658            4 
  967000   0.85754827   -3.0066421    825.63707  0.071151074  0.072347181            3 
  968000   0.84604984   -2.9936162    827.18326   0.07121068  0.072312752            4 
  969000    0.8682507   -2.9926728    827.68941   0.07118072   0.07227815            3 
  970000    0.8550949    -3.005711    826.84251   0.07103458  0.072242918            5 
  971000   0.87248062   -2.9968351    829.12189  0.071157045  0.072207811            2 
  972000   0.88066859    -2.985476    827.76078  0.070967145  0.072172739            3 
  973000   0.86536994   -3.0155274     822.3829  0.070433616  0.072137126            3 
  974000    0.8522879   -2.9971384    827.28116  0.070780386  0.072100935            6 
  975000    0.8470012   -2.9768962    830.35949  0.070970897  0.072065183            4 
  976000   0.87881473   -2.9902809    831.05324  0.070957414  0.072029652            5 
  977000   0.87683315   -2.9953169    832.30661  0.070991693  0.071993908            2 
  978000   0.87546596    -2.997098    824.74641  0.070274915  0.071957792            3 
  979000   0.84617556   -3.0051353    828.40505   0.07051456  0.071921386            3 
  980000   0.84686259   -2.9979786     831.6736  0.070720545  0.071885019            3 
  981000   0.84380563   -2.9957768    830.60318  0.070557525  0.071849576           12 
  982000   0.86395522   -3.0126974    829.58893  0.070399604  0.071813994            3 
  983000   0.86419962   -2.9998488    833.64749  0.070672049  0.071778062            4 
  984000   0.86241232   -3.0007811    834.17547  0.070644942  0.071742316            1 
  985000   0.86550708   -2.9996849    832.98892  0.070472836  0.071706695            4 
  986000   0.87756611   -2.9952825    833.57702  0.070451067  0.071671398            2 
  987000   0.84980474   -3.0169258    834.43743  0.070452333  0.071636167            6 
  988000   0.85755518   -3.0236789    833.44914  0.070297667  0.071601314           12 
  989000   0.83774032   -3.0268327    835.93424  0.070435982   0.07156661            1 
  990000   0.86448813   -3.0252726    837.24859  0.070475471  0.071531431            6 
  991000   0.86516228   -3.0002437    837.02887  0.070385879  0.071496784            4 
  992000   0.87087034   -3.0186228    836.94536   0.07030791  0.071462563            2 
  993000   0.86332792   -3.0242208    837.94984  0.070321403  0.071428175            2 
  994000   0.84263999    -3.020299    840.27295  0.070445418  0.071393527            3 
  995000   0.85896968   -3.0111311    840.65762  0.070406836  0.071358438            2 
  996000   0.85436735   -3.0045603    837.30916  0.070055987  0.071323598            3 
  997000   0.86806722   -3.0222872    842.00012   0.07037781  0.071288879            2 
  998000   0.88222496   -3.0203063    841.12405  0.070234139  0.071253715            3 
  999000   0.84768866   -2.9998628    841.92752  0.070230858  0.071219066            2 
 1000000   0.83934879   -3.0241142    842.98962  0.070249135  0.071184601            2 
 1001000   0.84555242   -3.0133704    844.26019  0.070284731  0.071150334            3 
 1002000   0.85250682   -2.9873753     847.7264  0.070502861  0.071115616            3 
 1003000   0.84807183   -3.0259002    844.25086  0.070143807  0.071080919            4 
 1004000   0.86771416   -3.0249209    843.18855  0.069985769  0.071046576            4 
 1005000   0.84799818   -3.0108741    843.29104  0.069924631  0.071011425            3 
 1006000   0.84014799   -3.0247325    846.06076  0.070084556  0.070976289            5 
 1007000   0.86566982   -3.0152169    840.27838  0.069536443  0.070941607            3 
 1008000   0.84706661   -3.0376322    842.57946  0.069657694  0.070906004            2 
 1009000   0.83509778   -3.0192859    841.75113  0.069520245  0.070870555            2 
 1010000   0.83433222   -3.0159973    844.53046  0.069680731   0.07083532            5 
 1011000   0.85109663   -3.0310905    844.94333   0.06964584  0.070800798            4 
 1012000   0.88316671   -3.0139954     847.9643  0.069825783  0.070767043            3 
 1013000   0.82817042   -3.0229773    849.19053  0.069857727  0.070732519            2 
 1014000    0.8592001   -3.0223244    848.99994  0.069773171  0.070697877            3 
 1015000   0.84638034   -3.0371789    851.66427  0.069923175  0.070663319            2 
 1016000   0.84824827   -3.0342162    850.05181  0.069722097  0.070628746            4 
 1017000   0.83267832     -3.00806    850.83038  0.069717337  0.070594078            3 
 1018000   0.85108404   -3.0164391    849.33932  0.069526794  0.070559499            3 
 1019000   0.84660954   -2.9933393    853.18033   0.06977268  0.070525267            2 
 1020000   0.85431997    -3.024161    849.37713  0.069393556  0.070490423            5 
 1021000   0.83980218   -3.0132612    850.75834  0.069438324  0.070455907            2 
 1022000   0.83587065   -3.0174628    847.08374  0.069070755  0.070421232            2 
 1023000    0.8249364   -3.0296704    849.36047  0.069188699  0.070386555            3 
 1024000   0.83861034   -3.0220918    854.21029  0.069515811  0.070351506            3 
 1025000   0.82465344   -3.0253856    852.41868  0.069302332   0.07031709            3 
 1026000   0.87167792   -3.0212313    854.50406  0.069404164  0.070282447            2 
 1027000   0.85050961   -3.0554855    849.12855  0.068900401  0.070247346            4 
 1028000   0.83993857   -3.0218463    851.74099  0.069045151  0.070212828            3 
 1029000   0.85394378   -3.0203298    856.89205   0.06939521  0.070178515            3 
 1030000   0.84240508   -3.0399652    852.92945  0.069007237  0.070143678            3 
 1031000   0.84149657   -3.0352274    857.23616  0.069288406  0.070108858            2 
 1032000   0.83527893   -3.0340954    854.98141  0.069039196  0.070074679            2 
 1033000   0.84071943   -3.0123996    858.07881  0.069222234  0.070040283            5 
 1034000     0.836653   -3.0337261    856.93652  0.069063227  0.070006484            5 
 1035000   0.85395941   -3.0460776    855.72614  0.068899045   0.06997187            3 
 1036000   0.82957853   -3.0266801    856.09962  0.068862582  0.069937354            3 
 1037000   0.84894892   -3.0133759    858.86634   0.06901851  0.069903042            6 
 1038000    0.8431328   -3.0535961     856.2226  0.068739772  0.069868294            2 
 1039000   0.84925937   -3.0389772    859.82261  0.068962353  0.069833381            4 
 1040000   0.82368875   -3.0414251    858.94188  0.068825471  0.069799107            2 
 1041000   0.84997158   -3.0125839    861.90642  0.068996672  0.069764518            2 
 1042000   0.85088013   -3.0639301     858.3978  0.068649856  0.069730039            3 
 1043000   0.82856779   -3.0159561    861.32729  0.068818096  0.069695349            6 
 1044000    0.8359668    -3.048632    862.58703  0.068852732  0.069660912            2 
 1045000   0.82480365   -3.0496288    861.82457  0.068726043  0.069625804            7 
 1046000   0.82894443   -3.0359246    860.94463  0.068590235  0.069591236            4 
 1047000   0.82047837   -3.0240008    861.53195   0.06857147  0.069556509            5 
 1048000   0.84389985   -3.0503702    863.10886   0.06863143  0.069522068            6 
 1049000   0.83833251   -3.0368453    861.15901  0.068411107  0.069487525            3 
 1050000   0.81678218   -3.0278189    865.04695   0.06865452  0.069453476            3 
 1051000    0.8305187   -3.0397034    868.18653  0.068838133  0.069419634            3 
 1052000   0.84704467   -3.0250112    865.25169  0.068540216  0.069385774            5 
 1053000     0.824566   -3.0566056    867.33159  0.068639727  0.069351716            4 
 1054000   0.82368216   -3.0438333    866.92031  0.068542086  0.069317684            4 
 1055000   0.84050311    -3.070907    866.37223  0.068433825   0.06928324            3 
 1056000   0.81594121   -3.0528673    867.80377   0.06848199  0.069249123            3 
 1057000   0.83471413    -3.070737     866.4283  0.068308759  0.069214849            3 
 1058000   0.82579448   -3.0452263    867.68404  0.068343103  0.069181051            6 
 1059000   0.83704553   -3.0371458    867.14906   0.06823647  0.069146866            4 
 1060000   0.85101179   -3.0489587    869.16583  0.068330647  0.069113048            5 
 1061000   0.81882581   -3.0598112    871.04511  0.068413848  0.069078958            7 
 1062000   0.83554318   -3.0332349    867.98708   0.06810947  0.069044774            6 
 1063000   0.83208961   -3.0370613    870.64542  0.068253796  0.069011345            2 
 1064000   0.83797838   -3.0659489    867.58255  0.067949761  0.068977164            4 
 1065000   0.82908962   -3.0625919    871.31042  0.068177654  0.068942526            3 
 1066000   0.84053459    -3.048903    870.30754  0.068035299  0.068908448            2 
 1067000   0.79742158   -3.0493173    870.17806  0.067961423  0.068874289            4 
 1068000   0.83293775   -3.0404777    872.34488  0.068066861  0.068840274           14 
 1069000    0.8369351   -3.0690598    870.40274  0.067851788  0.068806684            7 
 1070000   0.83421632   -3.0400363    872.81444  0.067976203  0.068772248            5 
 1071000   0.81221674   -3.0399492    873.22297   0.06794452  0.068738044            4 
 1072000   0.82955382   -3.0448123    874.02875  0.067943777  0.068704313            2 
 1073000   0.82351705    -3.028452    873.51354  0.067840443    0.0686703            7 
 1074000   0.82003101    -3.089805    874.90505  0.067885246  0.068636245            4 
 1075000   0.81766924   -3.0620858    873.35029  0.067701572  0.068602584            3 
 1076000    0.8113009   -3.0550853    873.28366  0.067633493    0.0685682            3 
 1077000   0.82643993   -3.0692037    874.77943  0.067686431  0.068534058            2 
 1078000   0.82184352   -3.0521201    871.67423  0.067383598  0.068499879            3 
 1079000   0.81385421   -3.0676352    877.69944  0.067786487  0.068465426            3 
 1080000   0.82669166   -3.0781948     874.3379  0.067464344  0.068430474            4 
 1081000   0.83765643   -3.0752262    873.38798  0.067328707  0.068395284            9 
 1082000   0.81208959   -3.0818296    874.67152  0.067365336  0.068360507            5 
 1083000   0.81671877    -3.056076    875.27846  0.067349835   0.06832552            5 
 1084000   0.81553632   -3.0384554    878.12623  0.067506629  0.068290531            4 
 1085000   0.82637799   -3.0412741    876.77405  0.067340557  0.068255519            4 
 1086000   0.82291003   -3.0598572    876.05977  0.067223739  0.068220649            4 
 1087000   0.81684046   -3.0770674    877.98632  0.067309592  0.068185982            2 
 1088000   0.82170294     -3.05657    878.53407  0.067289681  0.068151232            3 
 1089000   0.82766226   -3.0623433    877.39783  0.067140942  0.068116101            2 
 1090000   0.82631662   -3.0502704    875.33068  0.066921305  0.068081055            9 
 1091000   0.83360987   -3.0516341    878.54785  0.067105702  0.068046488            8 
 1092000   0.80917827   -3.0649976     877.4345  0.066959287  0.068011927            5 
 1093000   0.82619281    -3.039481    880.80856  0.067155273  0.067976805            4 
 1094000   0.80765531   -3.0392229    880.28656  0.067054126   0.06794233            6 
 1095000   0.80656856   -3.0573737    880.52761  0.067011233    0.0679075            8 
 1096000   0.80613517   -3.0431463     883.2294   0.06715552  0.067872472            4 
 1097000   0.82611621   -3.0925402    880.21447  0.066865274  0.067837493            2 
 1098000   0.80166274   -3.0716874    881.08297  0.066870292  0.067802614            6 
 1099000   0.81045352   -3.0628616    877.75404  0.066557025  0.067767412            2 
 1100000   0.80990316   -3.0932748    881.01515  0.066743572  0.067732288            2 
 1101000   0.80665153   -3.0876806    877.82464  0.066441465  0.067696809            4 
 1102000   0.80568207   -3.0540409    881.43567   0.06665424  0.067661687            7 
 1103000   0.82739605   -3.0626596    880.49147  0.066522474  0.067626052            4 
 1104000   0.80982043   -3.0709884    884.81953  0.066788913  0.067590512            3 
 1105000   0.82632036   -3.0824712    882.57906  0.066559507  0.067555122            1 
 1106000   0.81858569   -3.0804667    885.65877  0.066731372  0.067519583            2 
 1107000   0.80992869   -3.0849652    886.01214  0.066697692  0.067484492            4 
 1108000   0.83298865    -3.070407    883.40039  0.066441064  0.067449389            4 
 1109000   0.81441041   -3.0680168    883.11822   0.06635995  0.067414578            4 
 1110000   0.82075684   -3.0929946    886.26282  0.066536248   0.06737981            3 
 1111000   0.81891503   -3.0762081    887.06099  0.066536228  0.067344803            4 
 1112000   0.80158977   -3.0866099    884.81957  0.066308421  0.067309957            2 
 1113000    0.8097569   -3.0989241    888.69552  0.066539047  0.067275445            4 
 1114000   0.81243691   -3.0702863    886.58797  0.066321662  0.067240804            6 
 1115000   0.80636807   -3.0736698    887.47722  0.066328641  0.067206802            1 
 1116000   0.81847994   -3.0667305    886.38438  0.066187603  0.067172342            2 
 1117000    0.8115711   -3.0747516    889.43466  0.066355913  0.067138045            2 
 1118000    0.7825649   -3.0723593    889.19519  0.066278711  0.067103581            7 
 1119000   0.81544514   -3.0803469    890.20269  0.066294511  0.067069452            3 
 1120000   0.79117853   -3.0774937    890.42079  0.066251547  0.067035289            5 
 1121000   0.80130182   -3.0760466    889.92324   0.06615546  0.067000884            1 
 1122000   0.80507921   -3.0911234    888.55538  0.065994904  0.066966486            8 
 1123000   0.80920017   -3.1080089    888.72343  0.065948607   0.06693205            4 
 1124000   0.79264188   -3.0799801    892.58784  0.066176441  0.066897704            4 
 1125000   0.81490375   -3.0578831    893.43793  0.066180588  0.066863717            4 
 1126000   0.81206541   -3.0996986    894.54601  0.066203819   0.06682956            5 
 1127000    0.8184117   -3.0963675     891.6209  0.065928786  0.066795361            4 
 1128000   0.79088474   -3.0802222    894.78362  0.066103991  0.066761531            2 
 1129000   0.79570931   -3.1014193    890.16012  0.065704172  0.066727542            4 
 1130000    0.8081836   -3.0921226    891.28162  0.065728733  0.066693355            4 
 1131000   0.79752987   -3.0873971    895.37129  0.065971949  0.066659515            4 
 1132000   0.79619753   -3.0842679    891.73813  0.065646211  0.066625539            4 
 1133000   0.79668362   -3.0729244    895.31292    0.0658512  0.066591937            5 
 1134000   0.78021814   -3.0870498    895.80624  0.065829383  0.066558307            7 
 1135000   0.80460634   -3.0690585    898.00875  0.065933095  0.066524913            5 
 1136000   0.79449171   -3.1043139    894.92276  0.065648677  0.066491345            5 
 1137000    0.8003261   -3.0894224    896.77214  0.065726483  0.066457534            3 
 1138000   0.78503562   -3.1111241    897.95228  0.065755147  0.066423287            4 
 1139000   0.79273159   -3.0984473    897.46001    0.0656614  0.066389279            5 
 1140000   0.79772623   -3.1091103    897.50676   0.06560722  0.066355497            2 
 1141000   0.81870033   -3.0924399    897.15487  0.065524019   0.06632194            4 
 1142000   0.80437344   -3.0917362    901.55698  0.065787871  0.066288454            6 
 1143000   0.79302806   -3.1156777    897.77287  0.065454423  0.066255006            4 
 1144000   0.81972071   -3.1092626    901.51004  0.065669437  0.066221585            2 
 1145000   0.80223559   -3.0743994    903.35785  0.065746568  0.066188015            3 
 1146000   0.79300174   -3.0989607      903.815   0.06572244  0.066154903           10 
 1147000   0.80673707   -3.1160989    900.15175  0.065398994  0.066121244            4 
 1148000   0.79356455   -3.1067476    899.98569  0.065329972  0.066087733            2 
 1149000   0.80733996   -3.1173995    900.33605  0.065298524   0.06605417            5 
 1150000   0.78493044    -3.094978    903.65847  0.065482498  0.066020978            3 
 1151000   0.78557095   -3.1024641    898.93607  0.065083701  0.065987964            3 
 1152000   0.79261497   -3.0868474    905.81083   0.06552451  0.065954955            5 
 1153000   0.79649215   -3.1039737    905.13401  0.065418763  0.065921626            2 
 1154000   0.80490962   -3.1114066    907.02472  0.065498608  0.065888424            3 
 1155000   0.79385475   -3.1070221    907.55662  0.065480276  0.065855656            3 
 1156000    0.8267597   -3.1070917    905.87217  0.065302204  0.065822995            2 
 1157000   0.78957226   -3.1040254    904.98714  0.065182018  0.065790315            5 
 1158000   0.79220166   -3.0967769    905.67649  0.065175337  0.065757377            5 
 1159000   0.79485311   -3.0910572     906.6945  0.065192299  0.065724091            2 
 1160000   0.79770326   -3.1113544    903.10132  0.064877969  0.065691074            2 
 1161000   0.78059132   -3.1161805    908.10927  0.065181544  0.065658032            2 
 1162000   0.80610796   -3.1199091    909.55439  0.065229087  0.065624464            7 
 1163000   0.81523876     -3.11725    906.04743  0.064921713  0.065591433            3 
 1164000   0.79451091   -3.0958355    909.48371   0.06511195  0.065558809            3 
 1165000   0.78324487   -3.1126063    909.71113  0.065072327  0.065526322            4 
 1166000   0.79432508   -3.1144123     907.4332  0.064853717   0.06549379            2 
 1167000   0.79122858   -3.1216206    909.04699  0.064913381  0.065461079            6 
 1168000   0.78081324   -3.1187346    908.19424  0.064796964  0.065428091            7 
 1169000   0.79217398   -3.0999021    907.16261  0.064667993   0.06539498            3 
 1170000    0.7975717   -3.0810053    910.14447  0.064825104  0.065362338            3 
 1171000   0.79771927   -3.0912155    911.74142  0.064883392  0.065329368            7 
 1172000   0.79133163   -3.1250998    912.52328  0.064883624   0.06529668            3 
 1173000   0.77667984   -3.1088904    911.19072   0.06473364  0.065263718            6 
 1174000   0.79117951    -3.112129    910.29149  0.064614671  0.065230936            3 
 1175000   0.79895958   -3.1358279     908.1538  0.064408071  0.065197702            3 
 1176000   0.80126979   -3.0980981    912.73978  0.064678272  0.065165049            4 
 1177000   0.78945457   -3.1288984    916.15214  0.064864921  0.065131871            9 
 1178000   0.78187102   -3.1231783    912.86995  0.064577671  0.065099056            5 
 1179000    0.7825729   -3.1039661    916.34816  0.064768742  0.065066234            2 
 1180000   0.77763105   -3.1203834    912.99783  0.064477248  0.065033528            3 
 1181000   0.79022853   -3.0939113    914.80136  0.064549913  0.065000883            6 
 1182000    0.7602212   -3.1181089    915.30564  0.064530855  0.064968268            4 
 1183000   0.79414506   -3.1216478    915.17494  0.064467099  0.064935791            7 
 1184000     0.790648   -3.0985826    916.33477  0.064494283  0.064903359            4 
 1185000   0.78263618   -3.1082128    917.03268  0.064488937  0.064871129            4 
 1186000   0.78902629   -3.0913851     917.2255   0.06444811  0.064839214            5 
 1187000   0.77352791   -3.1101345    915.64554  0.064282894   0.06480727            3 
 1188000   0.77014895   -3.1222698    919.87203  0.064525255  0.064774763            4 
 1189000   0.77119591    -3.115008     920.7481  0.064532387  0.064742508            5 
 1190000   0.79358338   -3.1133547    921.44579  0.064527016  0.064710641            3 
 1191000   0.78338301   -3.1181562    920.11398  0.064379652  0.064678853            4 
 1192000   0.78587904    -3.125321    920.52034  0.064354051  0.064646868            4 
 1193000   0.76751847   -3.1249231    921.73749  0.064385128  0.064614721            4 
 1194000   0.78264578    -3.104209     921.0518  0.064283347  0.064582749            3 
 1195000   0.76596394   -3.1359017     920.8537  0.064215739  0.064550699            4 
 1196000   0.78114958   -3.1226149     921.6621  0.064218374  0.064518398            6 
 1197000   0.78144599   -3.1434161    918.87525  0.063970708  0.064485812            3 
 1198000   0.79301321   -3.1365663    919.36806   0.06395159   0.06445338            9 
 1199000   0.76443246   -3.1301962    921.07137  0.064016637  0.064420844            3 
 1200000   0.78069943   -3.1291928    923.79173  0.064152204  0.064388565            4 
 1201000   0.77267671   -3.1431744    919.74537  0.063818024   0.06435615            3 
 1202000   0.78812902   -3.1330593    922.79008  0.063976018  0.064323592            3 
 1203000   0.76459815     -3.14199    924.20548  0.064020884  0.064291634            2 
 1204000   0.76735182   -3.1305012    925.09581  0.064029333  0.064259429            4 
 1205000   0.78106526   -3.1336452    922.07568  0.063767336  0.064227325            5 
 1206000   0.76807038   -3.1608749    921.43837  0.063670423  0.064195253            2 
 1207000   0.76893846   -3.1429965    923.70478   0.06377415  0.064162571            2 
 1208000   0.75613541   -3.1503258    925.87174  0.063870843  0.064130394            1 
 1209000   0.75353881   -3.1421847    922.72082  0.063600829  0.064098393            6 
 1210000    0.7799019   -3.1399239    925.69895  0.063753371  0.064066569            4 
 1211000   0.77293614   -3.1418116    925.87184  0.063712623  0.064034231            4 
 1212000   0.76485908   -3.1308422    928.00444  0.063806686  0.064002446            3 
 1213000   0.75773107   -3.1237842    925.70894  0.063596382  0.063970717            3 
 1214000    0.7665335   -3.1368021    928.63398  0.063744782  0.063938997            2 
 1215000   0.76485246   -3.1323601    930.56514   0.06382477  0.063907051            7 
 1216000   0.76388156   -3.1650003    927.13246  0.063537038  0.063875611            4 
 1217000   0.75543092   -3.1322328    929.09427  0.063619164  0.063843765           10 
 1218000   0.76989222   -3.1214898     930.3517  0.063652963   0.06381213            3 
 1219000   0.77332643   -3.1435232    928.49673  0.063473936   0.06378055            3 
 1220000   0.75126749   -3.1387057    931.76337  0.063645039  0.063748549            5 
 1221000   0.77386652   -3.1482825    929.79878   0.06345883  0.063716716            2 
 1222000   0.74922479   -3.1594649    932.75042  0.063608185  0.063685267            5 
 1223000    0.7852232   -3.1357303    930.22532  0.063384118  0.063653737            4 
 1224000   0.78623068   -3.1517774    932.72735  0.063502679  0.063622534            5 
 1225000   0.77074205   -3.1539221    930.44194   0.06329537  0.063591506            7 
 1226000   0.75320815   -3.1321028    933.93176  0.063480951  0.063559989            4 
 1227000   0.77493427   -3.1443631    932.83193  0.063354518  0.063528829            7 
 1228000   0.76804904   -3.1488093    932.77473  0.063299045  0.063497476            4 
 1229000   0.75914555   -3.1353194    932.82686  0.063251075  0.063466208            3 
 1230000    0.7556047   -3.1392348    937.11621  0.063490258  0.063435021            8 
 1231000   0.77304535   -3.1669287    932.74921  0.063143055  0.063403826            3 
 1232000   0.76960995   -3.1600948    934.86143  0.063234674  0.063372505            2 
 1233000   0.73948353   -3.1475362    931.55271  0.062959767  0.063341276            5 
 1234000   0.75027331   -3.1431806    934.70953  0.063121929  0.063310073            4 
 1235000   0.75331253   -3.1517534    937.16611  0.063236579  0.063278817            3 
 1236000   0.76844774   -3.1524224    932.85265  0.062894596  0.063247554           13 
 1237000   0.76875297     -3.14122    938.73718  0.063240176  0.063216221            4 
 1238000   0.76713889   -3.1576037    935.87698  0.062996566  0.063184926            4 
 1239000   0.75875658   -3.1170164    938.61944  0.063130175  0.063153728            2 
 1240000   0.75404354   -3.1686482    938.83181  0.063093536  0.063123049            7 
 1241000    0.7567446   -3.1481779    939.16426  0.063065019  0.063092233            5 
 1242000   0.76760252   -3.1406202    937.08493  0.062874727  0.063061448            3 
 1243000   0.76548812   -3.1360065    939.46554  0.062983745  0.063030353            2 
 1244000   0.77104355   -3.1204299    942.16815  0.063114158  0.062999278            4 
 1245000   0.76007615   -3.1503419    940.28403  0.062937351  0.062968531            4 
 1246000   0.76485165   -3.1574628    939.84582  0.062857532  0.062937332            6 
 1247000   0.75948509   -3.1784031    937.83877     0.062673  0.062905952            5 
 1248000   0.75293286   -3.1418328    940.57017  0.062805166  0.062874749            3 
 1249000   0.75525399   -3.1628523    939.20688  0.062663923  0.062843372            5 
 1250000   0.73995978   -3.1472324    942.75759  0.062850506  0.062811501           11 
 1251000   0.76594959   -3.1787966    939.16874    0.0625612  0.062780169            8 
 1252000   0.74086228   -3.1829218    939.02094  0.062501394   0.06274852            5 
 1253000   0.76264888   -3.1555282    941.30161  0.062603193  0.062717021            6 
 1254000   0.75292263   -3.1718855    939.47492   0.06243188  0.062685671            5 
 1255000   0.75888114   -3.1640844    940.81057  0.062470821  0.062654104            5 
 1256000   0.74901382    -3.146502    939.85988  0.062358007  0.062622294            6 
 1257000   0.75428474    -3.179072    939.98962  0.062316999  0.062590698            3 
 1258000   0.75641789   -3.1480484    943.77801  0.062518416  0.062559248            4 
 1259000   0.74681111   -3.1751923    939.67296  0.062197045  0.062527903            3 
 1260000   0.74687776   -3.1699363    942.22665  0.062316578  0.062496465            3 
 1261000   0.75147185   -3.1688433    947.05719  0.062586386  0.062465254            3 
 1262000   0.73061612   -3.1791548    938.36644  0.061962919  0.062433978            5 
 1263000    0.7579233   -3.1477423    940.85075  0.062077775  0.062402559            4 
 1264000   0.74316861   -3.1880035    942.92382  0.062165336  0.062371222            6 
 1265000   0.76000654   -3.1547621    943.84993  0.062177202  0.062339673            7 
 1266000   0.74942391   -3.1934135    946.10765  0.062276702  0.062308045            6 
 1267000   0.73328821   -3.1527927    941.27274  0.061909546  0.062276556            7 
 1268000   0.73998647   -3.1802741    943.14463  0.061983743  0.062245169            3 
 1269000   0.75407077    -3.159064    945.83529   0.06211159  0.062213981            6 
 1270000   0.75203649   -3.1617976    945.76748  0.062058234  0.062183049            5 
 1271000   0.73380371   -3.1439585    948.90183  0.062214912  0.062152196            4 
 1272000   0.73768969   -3.1700891    948.64152  0.062148946  0.062121338            3 
 1273000   0.75863999   -3.1753942    948.20025  0.062071239  0.062090766            5 
 1274000   0.73498103    -3.163301    947.81909  0.061997585  0.062059896            5 
 1275000   0.72758086   -3.1773924    945.28688  0.061783456  0.062028704            3 
 1276000   0.74162273   -3.1944972    948.08375  0.061917696  0.061997491            5 
 1277000   0.74547325   -3.1503851    944.93749  0.061663892  0.061966354            6 
 1278000    0.7355845   -3.1693815    946.96081  0.061747575  0.061934922            5 
 1279000   0.74895835   -3.1724067    946.12786  0.061645026   0.06190337            7 
 1280000   0.74115316   -3.1917609    947.89393  0.061711844  0.061872172            3 
 1281000   0.74734837   -3.2011224    946.96959  0.061603538  0.061840949            1 
 1282000   0.75980236   -3.1630886    948.35366  0.061645454  0.061809552            4 
 1283000   0.72857717   -3.1663618    947.61947  0.061549719  0.061778407            4 
 1284000   0.74074541    -3.165621    952.36654  0.061809874  0.061746951            2 
 1285000   0.72786972   -3.1550687    952.21309  0.061751822  0.061715932            4 
 1286000   0.73011449   -3.1739494    949.68576  0.061540031   0.06168455            3 
 1287000   0.71245545    -3.183349    952.17857  0.061653624  0.061653482            4 
 1288000   0.73966827   -3.1869865    952.34501  0.061616525  0.061622579            5 
 1289000   0.72807867   -3.2081111    951.06382  0.061485894  0.061591433            6 
 1290000   0.73165059   -3.1789384    951.43517   0.06146222   0.06155993            4 
 1291000   0.72631106   -3.1629866    952.43324  0.061479037  0.061528499            3 
 1292000   0.71629453   -3.2162198    951.13169  0.061347503  0.061497173           10 
 1293000   0.73474024    -3.192087    952.16241  0.061366487  0.061465992            7 
 1294000   0.71459184   -3.1512375    952.76165  0.061357654  0.061434854            6 
 1295000   0.73998851   -3.1864458    951.48176  0.061227912  0.061403992            3 
 1296000   0.73760664   -3.1905406    951.67559  0.061193132  0.061373196            5 
 1297000   0.72415415   -3.1812407    953.38523  0.061255797  0.061342171            5 
 1298000   0.73106253   -3.1899102    954.75003  0.061296227  0.061311171            4 
 1299000   0.73422281   -3.1807595    955.20355  0.061278134  0.061280007            4 
 1300000    0.7438677   -3.1812316    952.47433  0.061056047  0.061249088            4 
 1301000   0.72706779   -3.1926218    953.44742  0.061071446   0.06121821            5 
 1302000   0.73605308   -3.2017984    954.70682  0.061105147  0.061186847            4 
 1303000   0.72648566   -3.1697329    953.62444  0.060989028  0.061155598            7 
 1304000   0.73160617   -3.1819185    957.20435  0.061171034  0.061124397            5 
 1305000   0.74439549    -3.188869    952.68992  0.060835882  0.061093256            3 
 1306000   0.72909685   -3.1843731     957.5055  0.061096574  0.061062186            8 
 1307000   0.71840189   -3.1756517    957.65987   0.06105967  0.061031182            5 
 1308000   0.73336965   -3.1990557    957.68144  0.061014363  0.061000306            5 
 1309000   0.72320439   -3.1944188    959.39885  0.061077085  0.060969376            7 
 1310000   0.72131162   -3.1849438    960.25651   0.06108502  0.060938582            4 
 1311000   0.72485462   -3.2058608    958.86867  0.060950208  0.060907911            5 
 1312000   0.74346725   -3.1867595    958.40513  0.060874309  0.060877121            6 
 1313000   0.73179995   -3.1911102    956.74118   0.06072234   0.06084647            5 
 1314000   0.72113747   -3.1849239    960.96267  0.060943853  0.060815687            4 
 1315000   0.72121117   -3.1910287    958.15301  0.060719455  0.060785147            2 
 1316000   0.73688298   -3.1890979    958.39214  0.060688458   0.06075449            9 
 1317000   0.71268509   -3.2270392    960.84521  0.060797596  0.060723671            4 
 1318000   0.72781783   -3.1758997    960.65605  0.060739508  0.060693228            2 
 1319000   0.70980327   -3.2092307    960.11519  0.060659287  0.060662826            4 
 1320000    0.7497776   -3.2008463    959.89558  0.060599469  0.060632329            4 
 1321000   0.74209536   -3.1962259    961.32815  0.060643966  0.060601797            3 
 1322000   0.73902505   -3.2141494    958.69602  0.060432175  0.060571074            5 
 1323000   0.72418655   -3.2208859    960.19116  0.060480673  0.060540462            5 
 1324000   0.72251693   -3.1965246    962.69628  0.060592666  0.060509857            4 
 1325000    0.7058515   -3.2120944    963.94213  0.060625291  0.060479686            3 
 1326000   0.71043882   -3.2063114    964.09658  0.060589277  0.060449406            4 
 1327000   0.73119637   -3.2076911    963.48979  0.060505513  0.060418752            4 
 1328000    0.7378418   -3.2036715    960.54606   0.06027523  0.060388297            5 
 1329000   0.70362048   -3.2083782    961.47941    0.0602884  0.060357642           15 
 1330000   0.72709997   -3.1956242    965.85558  0.060517267  0.060326877            5 
 1331000   0.71644075   -3.1946262     961.5951  0.060205052  0.060296405            4 
 1332000   0.72719296   -3.2099033    961.63761  0.060162513  0.060265885            4 
 1333000   0.71856923   -3.2164057    961.18916  0.060089345  0.060235325            6 
 1334000   0.72180601   -3.1799795    967.07581  0.060412032  0.060205036            7 
 1335000   0.71385525   -3.2136937    965.60792  0.060275151  0.060174799            4 
 1336000   0.72344043   -3.2117293    967.09318  0.060322679   0.06014464            4 
 1337000   0.72403549    -3.192112    966.59941  0.060246784  0.060114571            5 
 1338000   0.71743849   -3.2095426    969.44862  0.060379211  0.060084333            6 
 1339000   0.71606443   -3.2026782    966.36311  0.060142091  0.060053937            7 
 1340000   0.71922238   -3.2172603    966.13602  0.060083086  0.060023898            9 
 1341000   0.71786861   -3.2264655    966.31796  0.060049587  0.059993819            5 
 1342000   0.71690656   -3.2098541     965.7607  0.059970237  0.059963605            6 
 1343000   0.71362916   -3.2174495    966.38139  0.059964097  0.059933404            3 
 1344000   0.71334005   -3.2019802    968.60179  0.060057154  0.059903189            3 
 1345000   0.70962033   -3.2077642     967.1505  0.059922584  0.059873112            6 
 1346000   0.70975708   -3.2305683    967.56837  0.059903935  0.059843141            6 
 1347000   0.70395082   -3.2105389    971.55828  0.060106303  0.059813486            5 
 1348000   0.70934525   -3.2165098    968.65114  0.059881994  0.059783695           11 
 1349000   0.70564472   -3.1932803    973.78609  0.060154812  0.059754444            6 
 1350000   0.70275189   -3.2029192    973.23715  0.060076367  0.059725121            5 
 1351000   0.71760002   -3.2189911    976.53513  0.060235328  0.059695778            7 
 1352000   0.71923993   -3.2229539    973.83282  0.060024212  0.059666525            6 
 1353000   0.70476927   -3.2156388    975.84653  0.060103876   0.05963729            4 
 1354000   0.70504776   -3.2195128    973.23194  0.059898569  0.059608158            4 
 1355000   0.71231131   -3.2528021    976.79757  0.060073651  0.059579303            4 
 1356000    0.7073483    -3.212187    978.53047  0.060135845  0.059550652            4 
 1357000   0.72657923   -3.2245137    979.17825   0.06013131  0.059522013            6 
 1358000   0.70454058    -3.217285    978.76445  0.060061638   0.05949344            8 
 1359000   0.71145231   -3.2294687    978.19414  0.059982471  0.059464994            4 
 1360000   0.70979449    -3.220065    979.84774   0.06003969  0.059436523           11 
 1361000   0.71618494   -3.2308194    978.63052  0.059921046  0.059407942            4 
 1362000   0.70835865   -3.2034636    981.09273    0.0600277  0.059379405            5 
 1363000   0.69997914    -3.227908    976.53043  0.059704722  0.059350612            6 
 1364000   0.71508969   -3.2273964     977.8209  0.059739791  0.059321921            8 
 1365000   0.71847534   -3.2304332     978.3595  0.059728907  0.059293215           14 
 1366000   0.71494579   -3.2326697    975.21274  0.059493213   0.05926437            5 
 1367000    0.7101065   -3.2481623    980.23448  0.059755821  0.059235711            7 
 1368000   0.72039883   -3.2159362    977.71281  0.059558529  0.059207045            5 
 1369000   0.71333491   -3.2278195    979.80975  0.059642668  0.059178365            7 
 1370000   0.71121761   -3.2250261    980.10239  0.059616933  0.059149523            5 
 1371000   0.69380677   -3.2443232    975.04661  0.059266144  0.059120698            3 
 1372000   0.70159277   -3.2421527    980.20278  0.059536126  0.059091578            4 
 1373000   0.70833407   -3.2255899    981.53574  0.059573667  0.059062853            3 
 1374000   0.70279403    -3.243204    978.26859  0.059332156  0.059034142            4 
 1375000   0.71318908   -3.2218253    981.52445   0.05948633  0.059005451            5 
 1376000   0.71667841   -3.2396644    984.10897  0.059599623  0.058977108            6 
 1377000   0.70355289    -3.235202    982.90373  0.059483402  0.058948288           12 
 1378000   0.71297596    -3.225177    980.98496  0.059324199  0.058919739            5 
 1379000   0.70394813   -3.2165307      982.436  0.059368866  0.058891358            6 
 1380000     0.713292    -3.218571    981.95706  0.059296924  0.058863064            9 
 1381000    0.7246915   -3.2646089    980.79548  0.059183893   0.05883453            7 
 1382000   0.70542921    -3.226666    982.87402  0.059266403  0.058805902            9 
 1383000   0.68631814   -3.2655162    982.04932  0.059173856  0.058777075            4 
 1384000   0.70718378   -3.2228629    983.40504  0.059212731  0.058748094           10 
 1385000   0.69248547    -3.236465    984.03438  0.059207845  0.058719465            4 
 1386000   0.70449797   -3.2531875    983.47486  0.059131485  0.058690392            7 
 1387000   0.71001864   -3.2409849    980.65881  0.058919659  0.058661534            4 
 1388000   0.68608048   -3.2413946    984.92802  0.059133526  0.058632767            5 
 1389000   0.69262771   -3.2436575    981.23815  0.058869579  0.058604177            4 
 1390000   0.70374365   -3.2298437    983.14752  0.058941698  0.058575408            5 
 1391000   0.70786415   -3.2445382     982.7267  0.058874113  0.058546695            6 
 1392000   0.70350665   -3.2611029    981.51266  0.058759139  0.058517687            3 
 1393000    0.6853062   -3.2458023     984.1591  0.058875275  0.058489056            5 
 1394000   0.68735567   -3.2258535    986.79913  0.058990861  0.058460552            3 
 1395000   0.68728242   -3.2389667    989.94788  0.059136671  0.058432194            3 
 1396000   0.69346244   -3.2508736    986.57269   0.05889283  0.058403924            6 
 1397000   0.69672193   -3.2316525    989.55282  0.059028443   0.05837559            7 
 1398000   0.68476842   -3.2610094    986.03197  0.058776345  0.058347221            5 
 1399000   0.69491795   -3.2501036     989.7254  0.058954336  0.058318809            4 
 1400000   0.68745906     -3.26126     987.0485  0.058752887  0.058290343            7 
 1401000   0.67927962   -3.2364151    990.23745  0.058900633  0.058261992            5 
 1402000   0.70015372   -3.2399359    988.91486  0.058780008  0.058233734            6 
 1403000   0.68635843    -3.248305    988.99072  0.058742618   0.05820533            4 
 1404000    0.6929382   -3.2393165    988.90298  0.058695571  0.058177115            3 
 1405000   0.70276509   -3.2534032    991.20061  0.058790072  0.058148683            4 
 1406000    0.6942817   -3.2528998    990.52077  0.058707964  0.058120235            7 
 1407000   0.69856265   -3.2541463    987.31017  0.058476082  0.058091619            8 
 1408000   0.69472663    -3.247424    987.67712  0.058456269  0.058063199            8 
 1409000   0.71034852   -3.2430263    986.97235  0.058373098  0.058034828            8 
 1410000   0.69079128   -3.2474976    989.81117  0.058499478  0.058006416            8 
 1411000   0.69980303   -3.2604053    985.29636  0.058191375  0.057977705            3 
 1412000   0.66354276   -3.2523735    986.16982  0.058201713  0.057948757            6 
 1413000   0.69140655   -3.2384093    987.45129  0.058236099  0.057920036            5 
 1414000   0.67896392   -3.2525201    990.44765  0.058371502  0.057891608            7 
 1415000   0.70180719   -3.2631695    991.04725  0.058365562  0.057862768            3 
 1416000    0.6942503   -3.2636002    992.56852  0.058413873  0.057834061            7 
 1417000   0.68186472   -3.2584667    988.23515  0.058117805  0.057805058            6 
 1418000   0.68357052   -3.2412256    991.35922  0.058260415  0.057776536            8 
 1419000    0.6818371   -3.2541257    990.00417   0.05813978  0.057748057            9 
 1420000   0.68923437   -3.2687475    992.21865  0.058228794   0.05771937            6 
 1421000   0.68619598    -3.255194    990.65063  0.058095862   0.05769045            5 
 1422000   0.69003401   -3.2541106     988.9601  0.057955937  0.057661736            6 
 1423000   0.69714411   -3.2605212    993.01091  0.058152431   0.05763283            5 
 1424000   0.68871761   -3.2837186    991.64976  0.058031938  0.057604073            6 
 1425000   0.70578521   -3.2669284    991.86314  0.058003692  0.057575112            7 
 1426000   0.68054167   -3.2572535    993.30495  0.058047274  0.057546198            9 
 1427000   0.69990723   -3.2781118    992.96907  0.057986981  0.057517179            6 
 1428000   0.67965314   -3.2621459    991.15476  0.057840497  0.057488201            7 
 1429000   0.67552593   -3.2623811    992.74687  0.057892866  0.057459054            6 
 1430000   0.68204035   -3.2595755    993.97332  0.057923853  0.057430108            6 
 1431000   0.69605948   -3.2850817    989.96909  0.057650191  0.057401266           10 
 1432000   0.67946477   -3.2556057    991.61133  0.057705501  0.057372203            8 
 1433000   0.68262001   -3.2675957    993.03033  0.057747751  0.057343429            3 
 1434000   0.68145875   -3.2779786    992.62824  0.057684114    0.0573145            6 
 1435000   0.67933891   -3.2827763    992.58462  0.057641383  0.057285294            5 
 1436000   0.69106269   -3.2900896    992.91361  0.057620335  0.057256203            9 
 1437000   0.65659195   -3.2672497    991.64332  0.057506572  0.057227262            6 
 1438000   0.66046443   -3.2581398    992.41813  0.057511482  0.057198431            7 
 1439000   0.68992487   -3.2789328    993.61709  0.057540948  0.057169661            7 
 1440000   0.67142696    -3.265044    996.96952  0.057694996  0.057140645            7 
 1441000   0.68013096   -3.2861017    994.13004  0.057490749  0.057111719            2 
 1442000   0.67802581   -3.2643036    993.88909  0.057436956  0.057082872            3 
 1443000   0.67611406   -3.2707139    992.19245  0.057299171  0.057054261           11 
 1444000   0.69737407   -3.2709207    994.23474  0.057377351  0.057025293            8 
 1445000   0.67526684   -3.2899021    996.30438     0.057457   0.05699647            5 
 1446000   0.67405766   -3.2819965    992.47556  0.057196609  0.056967258            6 
 1447000   0.69573683   -3.2669759    995.65047  0.057339926  0.056938068            4 
 1448000   0.66657903    -3.285129    992.74345  0.057133025  0.056908973            9 
 1449000   0.66536472   -3.2906017    996.15912  0.057290035  0.056880044            4 
 1450000   0.67020309   -3.2860871    992.40373  0.057034697  0.056851157            8 
 1451000   0.67861518   -3.2752406    997.64613   0.05729647  0.056822122            7 
 1452000   0.66267469   -3.2824962    995.61891  0.057140663  0.056793211            5 
 1453000   0.66774471   -3.2839759     999.9367  0.057348973  0.056764264            5 
 1454000   0.68174376   -3.2794112    996.83937  0.057132014  0.056735477            5 
 1455000   0.67665133   -3.2720146     995.2007  0.056998895  0.056706615            6 
 1456000   0.66579955   -3.2710792    991.43589   0.05674427  0.056677639            8 
 1457000   0.66971955   -3.2625374    997.24476  0.057037564  0.056648395            6 
 1458000   0.66852697   -3.2814958    994.80109  0.056858773  0.056619331            4 
 1459000   0.66263895   -3.2789088    998.43384  0.057027293  0.056590167            9 
 1460000   0.67532307   -3.2774779    998.10293  0.056969345  0.056561116            3 
 1461000   0.68273692   -3.2766342     1000.702    0.0570786  0.056532308            3 
 1462000     0.664382   -3.3000778    996.39698  0.056794173  0.056503449            6 
 1463000   0.66694493   -3.2919424    999.27697  0.056919399  0.056474733            5 
 1464000   0.66703518   -3.2899837    997.95553  0.056805301  0.056445969            8 
 1465000   0.66707524   -3.3069847    996.89577  0.056706244  0.056416863            9 
 1466000   0.65553906   -3.2887685    999.83928  0.056834884  0.056388214            8 
 1467000    0.6724373   -3.2952258    998.13823  0.056699513  0.056359475            5 
 1468000   0.67216675   -3.3014383    1002.5356  0.056910511  0.056330811            7 
 1469000   0.65761168   -3.2866576    1001.3317  0.056803476  0.056302212            6 
 1470000   0.66458572   -3.3018907     1004.039  0.056918311  0.056273869            2 
 1471000   0.67259798   -3.2919651    1000.7207  0.056691631  0.056245311            2 
 1472000   0.67083853     -3.31267    997.91152  0.056494085  0.056216587           16 
 1473000   0.66059944   -3.3080956    998.60678  0.056495066  0.056187798            7 
 1474000   0.64751815   -3.3058064    999.14324  0.056487067  0.056159292            7 
 1475000   0.65874377   -3.2900622    1002.6443  0.056646571   0.05613077            7 
 1476000   0.65490775   -3.2962856    1002.4551  0.056597512  0.056102339            6 
 1477000   0.65914793   -3.2767873    1000.9363  0.056473499  0.056074005            4 
 1478000   0.65553856   -3.2971049    999.56633  0.056358047  0.056045804           10 
 1479000    0.6550248    -3.317817    1000.1391  0.056352214  0.056017413            7 
 1480000   0.66111658   -3.3037054    1002.9416  0.056471935  0.055988915            6 
 1481000   0.65488275   -3.2965962    1003.2487  0.056451084  0.055960588            5 
 1482000   0.67132806   -3.2943263    1004.3768  0.056476427  0.055932188            5 
 1483000    0.6560948   -3.2898971    1006.1372  0.056537265  0.055903681           10 
 1484000   0.65727627   -3.3057547    1003.3075  0.056340266  0.055875413            8 
 1485000   0.65600242   -3.3139455    1003.5738  0.056317271  0.055846967            6 
 1486000   0.66844375   -3.2996596    1004.9405  0.056356016  0.055818791           10 
 1487000   0.66133383   -3.3089062    1003.8394  0.056256413  0.055790269            3 
 1488000   0.67646115   -3.3201762    1004.8486  0.056275122  0.055761921            4 
 1489000   0.65482691   -3.3131807    1005.9546   0.05629923  0.055733699            5 
 1490000    0.6531162   -3.2900285    1006.0712  0.056267966  0.055705419           12 
 1491000   0.66542981   -3.2873352    1007.6277  0.056317218  0.055677152            7 
 1492000   0.65605357   -3.3036706    1005.6565  0.056169377   0.05564903            5 
 1493000   0.65628404    -3.331254    1004.2934  0.056055672  0.055620701           11 
 1494000   0.66262933   -3.3220818    1005.0133  0.056058307  0.055592436            7 
 1495000   0.65946654   -3.2972018    1006.3167  0.056093464  0.055564442            3 
 1496000   0.65104057   -3.3039255    1005.6885  0.056020974  0.055536414            9 
 1497000   0.66435504   -3.3058385    1008.1749  0.056121961  0.055508533           11 
 1498000   0.66910467   -3.3191239    1008.0259  0.056076206  0.055480307            5 
 1499000    0.6441532   -3.3093293    1005.6225  0.055905189  0.055452476            4 
 1500000   0.65486632   -3.3321379    1006.3016  0.055905645  0.055424441            7 
 1501000   0.66051588   -3.3122574     1010.361  0.056093774  0.055396447            6 
 1502000   0.65385376   -3.2945284    1010.2983  0.056052948  0.055368361            6 
 1503000   0.65373513   -3.3059273    1007.6824  0.055870613    0.0553403            7 
 1504000   0.64369792   -3.3213424    1009.8375  0.055952874  0.055312538            7 
 1505000   0.64974121   -3.3027062    1012.2095  0.056047038  0.055284619            4 
 1506000   0.65439013   -3.3317404    1007.0833  0.055726165  0.055256806            8 
 1507000   0.65449189   -3.3196839    1010.6978  0.055889063  0.055228971            3 
 1508000   0.65501667   -3.3575008    1007.8121  0.055692533  0.055201127            8 
 1509000   0.65025236   -3.3132667    1012.3068  0.055903843  0.055173315           15 
 1510000   0.65039281   -3.3234754    1010.9602  0.055792508  0.055145458            5 
 1511000   0.65784216   -3.3106271    1012.3267  0.055830943  0.055117701           17 
 1512000   0.65277765   -3.3353699    1010.5186  0.055694366  0.055090032            9 
 1513000   0.65100532   -3.3125973    1011.9157  0.055734506  0.055062225           12 
 1514000   0.65288284   -3.3463866     1010.233  0.055605075  0.055034361            5 
 1515000   0.64659237    -3.331137    1013.8765  0.055768783  0.055006654            8 
 1516000   0.64877069   -3.3339861    1009.8449  0.055510381  0.054978948            3 
 1517000   0.65717031   -3.3174999    1013.0742  0.055651188  0.054951291            5 
 1518000   0.63383845   -3.3400122    1012.0689   0.05555934  0.054923523            5 
 1519000   0.65014791   -3.3465972     1010.986  0.055463354  0.054895689            5 
 1520000   0.64463837   -3.3305674    1011.5694   0.05545885   0.05486791            5 
 1521000   0.65258076   -3.3161787    1015.6048  0.055643482    0.0548401            5 
 1522000   0.64183053   -3.3317482    1011.7319  0.055394869  0.054812567            4 
 1523000   0.65361516   -3.3059047    1014.5808  0.055514381  0.054784892            4 
 1524000   0.64205586   -3.3391597    1013.9396  0.055442893  0.054757213            9 
 1525000   0.64402113   -3.3159557    1016.8561  0.055565908  0.054729566           24 
 1526000   0.64469731   -3.3319359    1015.2542  0.055442017  0.054701871            7 
 1527000   0.64840416   -3.3327728    1016.7016  0.055484696   0.05467439           11 
 1528000   0.65011271   -3.3281236    1017.2523  0.055478418  0.054647169            4 
 1529000   0.63276194   -3.3338155    1014.5406  0.055294344  0.054619841            6 
 1530000   0.64639703   -3.3324566    1016.4036  0.055359671  0.054592266           15 
 1531000   0.64361656   -3.3299998    1014.9573  0.055244789  0.054564828            7 
 1532000   0.65002626   -3.3533837     1011.956  0.055045473  0.054537334            5 
 1533000   0.64437473   -3.3408848    1011.6525   0.05499307  0.054509686            9 
 1534000   0.64265452   -3.3209057    1014.0266  0.055086192  0.054482166            7 
 1535000    0.6437373   -3.3245499    1017.7775  0.055253939  0.054454738            4 
 1536000    0.6390985   -3.3237888     1014.931  0.055063533  0.054427329            5 
 1537000   0.64507941   -3.3450571    1016.4704   0.05511117  0.054399669            6 
 1538000   0.63900144    -3.351538    1017.2954  0.055120037  0.054371923            6 
 1539000   0.63371781   -3.3400844    1016.2664  0.055028505  0.054344391            6 
 1540000   0.64347451   -3.3410395     1019.172      0.05515  0.054317004            7 
 1541000   0.63172471       -3.322    1013.0438  0.054782816  0.054289309           10 
 1542000   0.64238306   -3.3614791    1016.6309  0.054941144  0.054261745            5 
 1543000   0.63749165   -3.3468332    1012.6633  0.054691255   0.05423396           11 
 1544000   0.63387485   -3.3663668     1016.177  0.054845479  0.054205981            7 
 1545000   0.62157616   -3.3378333     1014.849  0.054738352  0.054178014            9 
 1546000   0.63648513   -3.3399918    1019.0974  0.054931943   0.05415028            5 
 1547000   0.63289589   -3.3410514    1017.0963  0.054788637  0.054122627            9 
 1548000   0.63160411   -3.3416455    1016.4387  0.054717847  0.054095088            6 
 1549000   0.63507614   -3.3329272    1019.9273    0.0548702    0.0540673            5 
 1550000   0.64593399   -3.3415216    1015.3726  0.054589923  0.054039603            7 
 1551000   0.63371797   -3.3543781     1016.354  0.054607457  0.054011841           11 
 1552000   0.63678102   -3.3410332    1016.2872  0.054568687  0.053984021            9 
 1553000   0.64498612   -3.3413257      1016.11  0.054524041  0.053956319            7 
 1554000    0.6299759   -3.3335868    1018.1191  0.054596691  0.053928618           22 
 1555000   0.62524165   -3.3592108    1019.0887  0.054613543  0.053900981            3 
 1556000   0.63438946   -3.3454621    1020.0051  0.054627523  0.053873269            5 
 1557000   0.63597877   -3.3675982    1017.1414  0.054439169  0.053845517            5 
 1558000   0.62452536   -3.3556311    1015.3764  0.054309823  0.053817847            8 
 1559000   0.64115863   -3.3381288    1019.7394  0.054508201  0.053789958           10 
 1560000   0.63186483   -3.3311295    1019.2825   0.05444885   0.05376233           14 
 1561000   0.63900637   -3.3462999    1021.4532  0.054529855  0.053734805           12 
 1562000    0.6439116   -3.3452905    1018.8643  0.054356824  0.053707316            8 
 1563000   0.61787269   -3.3550584    1018.2887  0.054291359  0.053679602            9 
 1564000   0.61840276   -3.3603665    1020.5151  0.054375274  0.053652101            5 
 1565000   0.63050441   -3.3468821    1018.6437  0.054240881  0.053624481            5 
 1566000   0.61522725   -3.3463031     1020.117   0.05428464  0.053596925            7 
 1567000   0.62073652   -3.3472137    1019.7337  0.054229615  0.053569529            6 
 1568000    0.6206066   -3.3419675    1019.2189  0.054167672   0.05354202           12 
 1569000   0.64129323   -3.3678644    1019.7267  0.054160117  0.053514399           10 
 1570000   0.62580525   -3.3482956    1021.0413  0.054195395  0.053486764            3 
 1571000   0.61529873   -3.3582706    1020.2678  0.054119872  0.053459108            8 
 1572000   0.63661973   -3.3574437    1018.5189  0.053992735  0.053431413            3 
 1573000   0.63707333   -3.3702582    1021.2474  0.054102957  0.053403737            9 
 1574000   0.61916216   -3.3430589    1020.0873  0.054007163  0.053376134            5 
 1575000   0.62997191   -3.3682187    1020.3592  0.053987258  0.053348614            6 
 1576000   0.62998335   -3.3549447     1023.447  0.054116278  0.053321119            6 
 1577000   0.62659323      -3.3707    1020.5338  0.053928016  0.053293922           10 
 1578000   0.62661102   -3.3341637    1022.6853  0.054007462  0.053266343            4 
 1579000   0.63551692   -3.3571117    1021.1102  0.053890133  0.053238923            7 
 1580000   0.63669862   -3.3780192    1021.5847   0.05388105   0.05321152            7 
 1581000   0.62607513   -3.3539409    1025.5694  0.054057002  0.053184091            5 
 1582000   0.62131659   -3.3634062    1020.1078  0.053735137  0.053156751            7 
 1583000   0.63545086   -3.3837999    1022.9598  0.053851327   0.05312932           11 
 1584000    0.6131131   -3.3739955    1023.6402  0.053853126  0.053101886            8 
 1585000   0.61981122   -3.3798193    1026.5693   0.05397315  0.053074348            6 
 1586000   0.61686934   -3.3841561    1023.9829  0.053803223  0.053046996            6 
 1587000   0.60756648   -3.3708121    1023.5127  0.053744629  0.053019632           12 
 1588000    0.6237326   -3.3734538     1026.845  0.053885651  0.052992281            7 
 1589000   0.62584893   -3.3702473    1023.5567  0.053679292  0.052965115           15 
 1590000   0.61588114   -3.3541861    1027.7565  0.053865643  0.052938252            9 
 1591000   0.61964784   -3.3796207    1027.2733  0.053806477  0.052911264            5 
 1592000   0.62419857   -3.3852821    1027.0024  0.053758501  0.052884561            7 
 1593000   0.61230005   -3.3878905    1028.4006  0.053797895  0.052857667            6 
 1594000   0.60967784   -3.3813167    1025.2808  0.053601046  0.052830621            6 
 1595000   0.59768151   -3.3882851    1026.1601  0.053613378  0.052803542            5 
 1596000   0.61310717   -3.3753907    1027.0967  0.053628693  0.052776474            5 
 1597000    0.6238621   -3.3809749    1025.7859  0.053526709  0.052749521            6 
 1598000   0.61432918   -3.3846828    1023.8893  0.053394309  0.052722444           11 
 1599000   0.61578776   -3.3910704    1027.5183  0.053550047  0.052695354           11 
 1600000   0.60411788   -3.3952214    1025.3267  0.053402434  0.052667971           14 
 1601000    0.6147432   -3.3701594    1026.5758  0.053434094  0.052640824           16 
 1602000   0.62164353   -3.3808009    1026.6067  0.053402345  0.052613792            5 
 1603000   0.61092737   -3.3646396    1025.0868  0.053290018  0.052586592            6 
 1604000   0.61189374   -3.3970358    1026.2292  0.053316145  0.052559607            8 
 1605000   0.61667936    -3.367085    1029.4279  0.053449006   0.05253252            7 
 1606000   0.62790855   -3.4003405    1025.4513  0.053209387  0.052505563            5 
 1607000   0.61902076   -3.3831331    1028.8938  0.053354792  0.052478768            7 
 1608000   0.60601452   -3.3877077    1024.0461  0.053070383  0.052451674            5 
 1609000   0.60243899   -3.3565502    1027.4111   0.05321168  0.052424824            9 
 1610000   0.60857815   -3.3791269    1027.2115  0.053168296  0.052397865            8 
 1611000   0.60521775   -3.3887959    1026.5743  0.053102332  0.052370856            6 
 1612000    0.6091526   -3.3932888    1027.8445  0.053135053  0.052343744            4 
 1613000   0.59907223   -3.3818519    1027.2113  0.053069398  0.052316561            8 
 1614000   0.61362202    -3.390123    1025.5712  0.052951837  0.052289458            3 
 1615000   0.60880688   -3.3949622    1027.2429   0.05300531  0.052262279            7 
 1616000   0.60174356   -3.3784443    1032.8659  0.053262475  0.052235371           14 
 1617000   0.60138985   -3.3905411    1029.0307  0.053031887   0.05220816            5 
 1618000   0.59924729   -3.4123236    1027.9047  0.052941114  0.052181043           12 
 1619000   0.60576161   -3.3888748    1029.4822  0.052989611  0.052153883            7 
 1620000   0.61409294   -3.3812102    1028.1221  0.052886942  0.052126792            6 
 1621000   0.60053935   -3.3607448    1029.6456  0.052932635  0.052099624            6 
 1622000   0.61326762   -3.3981366     1027.554   0.05279254  0.052072412            9 
 1623000   0.60352282   -3.4001291    1026.6215  0.052712133  0.052045136           14 
 1624000   0.61945325   -3.3807757    1027.4452  0.052721941  0.052017839            4 
 1625000   0.61179049    -3.396919    1027.1167  0.052672649  0.051990508            9 
 1626000   0.60372356    -3.383682    1027.4281  0.052656216  0.051963069            7 
 1627000   0.61579854   -3.3874322    1028.7974  0.052693989   0.05193552            6 
 1628000   0.60164631   -3.3829702    1029.4589  0.052695479  0.051908152            7 
 1629000   0.62089203   -3.3920493    1027.4056  0.052558095  0.051880826            5 
 1630000   0.61863555    -3.397671    1031.6431  0.052742489  0.051853463            9 
 1631000   0.59806741   -3.3856536    1029.7661  0.052614249  0.051826165            7 
 1632000   0.59558946    -3.390426    1027.8728  0.052485334  0.051798703           14 
 1633000   0.58932726   -3.4146751    1023.9799  0.052254539  0.051771207           12 
 1634000   0.60185847   -3.3834949    1024.1097  0.052229176  0.051743426            4 
 1635000   0.60502778   -3.3877323    1024.5451  0.052219427  0.051715795            7 
 1636000   0.61081231   -3.3854667    1026.9478  0.052309891   0.05168818            7 
 1637000    0.6070304   -3.4009607    1027.5363  0.052307894  0.051660406            5 
 1638000   0.58948355   -3.4028622    1026.2078  0.052208375  0.051632655           11 
 1639000   0.60475683   -3.4037368    1028.5054  0.052293338  0.051605131            8 
 1640000   0.58214337   -3.3873283    1027.4503  0.052207839  0.051577544            6 
 1641000   0.59235667   -3.4200634    1028.8735    0.0522483  0.051549901            6 
 1642000   0.59251002   -3.4189127    1026.4525  0.052093611  0.051522318            9 
 1643000   0.59656612   -3.4111287    1032.0464  0.052345626  0.051494814            6 
 1644000   0.59882122   -3.4009722    1028.1054  0.052114019  0.051467315            4 
 1645000    0.5939822   -3.3995861     1027.586  0.052056031  0.051439846           13 
 1646000   0.60775614   -3.4139927    1029.2665   0.05210948   0.05141233           10 
 1647000   0.58994173   -3.4165526    1026.0646  0.051915838  0.051384751            6 
 1648000   0.59556055   -3.4114502    1027.0246  0.051932879  0.051357172            9 
 1649000    0.5784615   -3.3989798    1027.3243  0.051916529  0.051329672            8 
 1650000   0.60087383    -3.405457    1030.0136  0.052020887  0.051302191            8 
 1651000   0.60894774   -3.3988971    1028.7634  0.051926277  0.051274796           13 
 1652000   0.58369165   -3.4176629    1028.8325  0.051898328    0.0512473            8 
 1653000   0.58834208   -3.4075718    1029.6587  0.051908584  0.051219857           13 
 1654000   0.59833917   -3.4215372    1029.6188   0.05187519  0.051192119           16 
 1655000   0.58389852   -3.4210776     1029.704  0.051848138  0.051164551           11 
 1656000   0.60105162   -3.4266544    1029.9417  0.051828788  0.051137172           11 
 1657000   0.59264752   -3.3937201    1030.1431  0.051807641  0.051110103            6 
 1658000   0.59761184   -3.4264632    1029.9904  0.051768715  0.051082779            5 
 1659000   0.59830445   -3.4179017    1029.6488  0.051720353  0.051055587            7 
 1660000   0.59202751   -3.4239339    1029.2844  0.051670904  0.051028296            8 
 1661000   0.58207253   -3.4396651    1032.1684  0.051784486  0.051000945           13 
 1662000   0.60231864   -3.4309878    1033.6408  0.051827157  0.050973636            9 
 1663000   0.57427564    -3.430067     1029.689  0.051597963  0.050946256           12 
 1664000   0.59147433   -3.4286195    1031.7546  0.051670403  0.050918924           22 
 1665000   0.59337082   -3.4039546    1032.1585  0.051659584  0.050891677            7 
 1666000   0.59464097   -3.4066508    1030.3662  0.051538924  0.050864302           17 
 1667000   0.58592244   -3.4278946    1031.8916  0.051584265  0.050836907           10 
 1668000   0.58191057   -3.4249592    1031.1159  0.051514581  0.050809409            8 
 1669000   0.59435651   -3.4363245    1032.9263   0.05157411  0.050781788            7 
 1670000   0.59519454   -3.4206599    1030.3006  0.051412206  0.050754295           10 
 1671000    0.5907305   -3.4268123    1030.1795  0.051375399  0.050726953            3 
 1672000   0.57659267   -3.4304453    1031.7295  0.051421926  0.050699542           14 
 1673000   0.58491072   -3.4195873    1034.1228  0.051510398  0.050672077            7 
 1674000   0.57511568    -3.429648    1033.5348  0.051450357  0.050644676            6 
 1675000   0.57830261   -3.4360599    1032.3152  0.051358966  0.050617255           19 
 1676000   0.57516363   -3.4300288    1030.4899  0.051237564  0.050589839            6 
 1677000   0.58831933   -3.4253481    1031.2351  0.051244043  0.050562313           13 
 1678000   0.58140393   -3.4266113    1032.7711  0.051289786  0.050534887            5 
 1679000   0.57506308   -3.4345861    1033.1709  0.051279078   0.05050757           15 
 1680000   0.59101688   -3.4209591    1034.2717   0.05130316  0.050480145            5 
 1681000   0.57797327   -3.4260162    1029.8341  0.051052651  0.050452814            8 
 1682000   0.57969169   -3.4202726    1033.9839  0.051227899  0.050425479            9 
 1683000   0.57945304   -3.4408299    1031.7041  0.051084578  0.050398186           12 
 1684000   0.58792159   -3.4464663    1032.9011  0.051113476  0.050371099            6 
 1685000   0.58044559   -3.4451925    1030.4387   0.05096136  0.050343806            6 
 1686000   0.59899539   -3.4405524    1034.7902  0.051146215  0.050316477           10 
 1687000   0.57271489   -3.4485675    1035.8237   0.05116695  0.050289299            7 
 1688000   0.59136259    -3.439226    1032.3337  0.050964341   0.05026209           10 
 1689000   0.59810745   -3.4418975    1033.9475  0.051013791  0.050234973           10 
 1690000   0.58754418   -3.4453947    1033.2008  0.050946786  0.050207664           12 
 1691000   0.57614786    -3.434586    1031.3053  0.050823246  0.050180294            9 
 1692000   0.57676616   -3.4428285    1034.3105  0.050941218  0.050152967            7 
 1693000   0.57846262   -3.4526167    1032.3304  0.050813663  0.050125687            7 
 1694000   0.57242174   -3.4443203    1032.4825  0.050791148  0.050098444           11 
 1695000   0.58356047   -3.4348714    1033.4032  0.050806449  0.050071143           10 
 1696000   0.55701646   -3.4562743    1032.0887  0.050711908   0.05004364            9 
 1697000   0.57378503   -3.4662372    1032.5626  0.050705292  0.050016182           12 
 1698000   0.56724607   -3.4321073    1034.7977  0.050785122  0.049988863            8 
 1699000   0.57935921   -3.4451107    1034.4473  0.050738049  0.049961684           13 
 1700000   0.56623428   -3.4650742    1033.3751   0.05065564  0.049934278           10 
 1701000   0.57767222   -3.4604002    1033.3042   0.05062239  0.049906786            9 
 1702000   0.57658435    -3.451807    1033.5273   0.05060357  0.049879392            6 
 1703000   0.56756214   -3.4606913    1035.0247  0.050647126  0.049852277           14 
 1704000   0.57175063    -3.454949     1034.862   0.05060945  0.049825035            8 
 1705000   0.56706989    -3.467583    1035.0531  0.050589107  0.049797825           10 
 1706000   0.56582804   -3.4378404    1035.9911  0.050605271  0.049770663           11 
 1707000   0.56242706    -3.473268    1030.8158  0.050322973  0.049743395            8 
 1708000   0.56973867   -3.4595324    1035.6542  0.050529577  0.049716182            6 
 1709000   0.57306584   -3.4465547    1036.8425  0.050557955   0.04968899           16 
 1710000   0.57106218   -3.4252883    1036.5564  0.050514444  0.049661797            8 
 1711000   0.58237312   -3.4460092    1035.2186  0.050419765  0.049634551           10 
 1712000   0.57343862   -3.4450286    1034.2962  0.050345414  0.049607222            5 
 1713000   0.56273818   -3.4630116    1035.2567  0.050362752  0.049580038            5 
 1714000   0.56995573    -3.437699    1032.8741  0.050217527  0.049552865            7 
 1715000   0.57009902   -3.4495841     1034.502  0.050267345  0.049525552            5 
 1716000   0.56524559   -3.4507527    1033.7628  0.050202156   0.04949861           15 
 1717000    0.5786334   -3.4499275    1035.5831  0.050261263  0.049471537           11 
 1718000   0.56780689   -3.4707169    1035.0513  0.050206216  0.049444566            5 
 1719000   0.56130875    -3.447563    1035.9051  0.050218398  0.049417486            8 
 1720000   0.57137083   -3.4805204    1033.0153  0.050049192  0.049390454            6 
 1721000   0.55953107   -3.4656321    1034.0595  0.050070669  0.049363295           12 
 1722000   0.56232258   -3.4464891    1037.5389  0.050209972  0.049336377           10 
 1723000   0.55963599   -3.4682043    1037.6131  0.050184423   0.04930943            5 
 1724000   0.57858695   -3.4665364    1035.7451  0.050065019  0.049282378           25 
 1725000    0.5796244   -3.4681241    1037.6971  0.050130294   0.04925545            6 
 1726000   0.55658836   -3.4385143    1035.2029  0.049980828  0.049228555           12 
 1727000   0.55327069   -3.4442799    1037.6693  0.050070897  0.049201756           19 
 1728000   0.55685605   -3.4595101     1035.759  0.049949799  0.049174902           17 
 1729000   0.56443611   -3.4758244     1037.697  0.050014315  0.049148036            7 
 1730000   0.56336903   -3.4765503    1035.2048  0.049865357  0.049121136            9 
 1731000   0.55186753   -3.4880173    1036.7912  0.049912921  0.049094023           10 
 1732000   0.56251585   -3.4610597    1037.8891  0.049936928  0.049067061           11 
 1733000   0.56511884   -3.4599863    1037.5723  0.049892878  0.049040169            9 
 1734000   0.56306269   -3.4468934    1036.4519  0.049810262  0.049013347           18 
 1735000   0.56075634     -3.45932    1037.0726  0.049811365  0.048986559           12 
 1736000   0.56004326   -3.4810851    1038.1948  0.049836539  0.048959743            9 
 1737000   0.55706099   -3.4713617    1040.1126  0.049899854  0.048932925            6 
 1738000    0.5769293   -3.4766409    1038.8548  0.049810836  0.048906113            9 
 1739000   0.54804165   -3.4769506    1037.1877  0.049702303   0.04887937           34 
 1740000   0.56381093   -3.4653609    1036.1135  0.049622295  0.048852449            6 
 1741000    0.5576113   -3.4937076    1038.0294  0.049685495  0.048825593            4 
 1742000   0.56954452   -3.4807898    1037.9547    0.0496534  0.048798593            6 
 1743000   0.55802207   -3.4742125    1037.1225  0.049585128  0.048771715            9 
 1744000   0.55753428   -3.4812748    1035.6336  0.049485552  0.048744756            6 
 1745000   0.55506093   -3.4741923    1037.7886  0.049560104  0.048717643            8 
 1746000   0.56215912   -3.4737564    1036.3604  0.049463556  0.048690527            7 
 1747000   0.56126934   -3.4774343    1036.9012  0.049461036  0.048663493            6 
 1748000   0.54855016     -3.47302     1037.236  0.049448705  0.048636523            8 
 1749000    0.5492572   -3.4789214    1038.7499  0.049492562  0.048609558           15 
 1750000   0.55950742    -3.478357    1036.6689  0.049365185  0.048582518            8 
 1751000   0.54044726   -3.4885587    1036.3731  0.049322914  0.048555506           16 
 1752000   0.56472343   -3.4971073    1038.3123     0.049387  0.048528402            8 
 1753000   0.55512292   -3.4752192    1036.4076  0.049268282  0.048501405           26 
 1754000    0.5631571   -3.5106604    1037.3343  0.049284221  0.048474393           11 
 1755000   0.55656207   -3.4778444    1039.1512  0.049342412    0.0484474           13 
 1756000    0.5427851   -3.4876258    1033.1516  0.049029595  0.048420336           20 
 1757000   0.54916675   -3.4841572    1035.6197  0.049118749  0.048393177            8 
 1758000   0.54562386   -3.4996741    1035.6503   0.04909226  0.048365996           18 
 1759000   0.55715862    -3.479516    1035.7887  0.049070905    0.0483387           15 
 1760000    0.5400576   -3.4662612    1038.9398  0.049192225  0.048311658           17 
 1761000   0.54635721   -3.4822162    1036.8911  0.049067342   0.04828458            7 
 1762000   0.54366988    -3.466698    1037.3757  0.049062414  0.048257395            8 
 1763000   0.56234583   -3.4808335    1033.6674  0.048859303   0.04823034           26 
 1764000   0.54162604   -3.4754247      1034.81   0.04888558  0.048203244            9 
 1765000   0.54800539   -3.4931744    1036.2833  0.048927447  0.048175973           12 
 1766000   0.55873833   -3.4905586    1033.4388  0.048765513  0.048148696           12 
 1767000   0.54373016   -3.4878971    1035.7521  0.048847015  0.048121341           23 
 1768000    0.5487261   -3.4923204    1039.3173   0.04898743  0.048094121            9 
 1769000     0.544606   -3.4817781     1037.756   0.04888619  0.048066987            7 
 1770000   0.54220443   -3.4959809    1039.3429   0.04893328  0.048039829            7 
 1771000   0.54415853   -3.5035461    1035.9994  0.048748325  0.048012545            6 
 1772000   0.53305793   -3.5167393    1036.0619  0.048723754  0.047985341           12 
 1773000    0.5394553   -3.4920014    1037.0044  0.048740572  0.047958076           12 
 1774000   0.54564944   -3.4943123    1035.5685  0.048645647   0.04793078           23 
 1775000   0.53590105   -3.4868881    1037.6996  0.048718289  0.047903519           10 
 1776000   0.55014097   -3.5162798     1035.285  0.048577563  0.047876399            6 
 1777000   0.55958772   -3.4943836    1037.9973  0.048677418  0.047849397           11 
 1778000   0.53223614   -3.5116347    1037.6199  0.048632355  0.047822398           28 
 1779000   0.54086762    -3.495812     1036.495  0.048552324  0.047795247           10 
 1780000   0.55098553   -3.5038899    1037.0088  0.048549102  0.047768161           11 
 1781000   0.53527116   -3.5142097    1034.8226  0.048419547  0.047740977           18 
 1782000   0.53372291   -3.5134143       1034.9  0.048395997  0.047713861            7 
 1783000   0.54611574   -3.5104142    1039.2584  0.048572555  0.047686902           10 
 1784000   0.53731024   -3.5002998    1037.8126  0.048477792  0.047659958           16 
 1785000   0.53178287   -3.5293877     1036.726  0.048399908  0.047632993           24 
 1786000   0.54643351   -3.4993399     1035.024  0.048293392  0.047605935           30 
 1787000   0.54630824   -3.5126053    1036.5445  0.048337272  0.047579164            6 
 1788000   0.54411824   -3.5053847    1040.9562  0.048515855  0.047552421           11 
 1789000   0.54026194   -3.5056337    1041.0337  0.048492347  0.047525684           13 
 1790000   0.54095035   -3.4911707    1038.2811  0.048337111  0.047498997           20 
 1791000   0.53045467    -3.513201    1040.4871  0.048412763  0.047472351            8 
 1792000   0.54159358   -3.5072951    1036.9937  0.048223292  0.047445673            9 
 1793000   0.53895475   -3.5125649    1037.6322  0.048226073  0.047418941           12 
 1794000   0.53205746   -3.4917241    1040.9143  0.048351651  0.047392385           11 
 1795000    0.5294959   -3.5387881    1036.1021  0.048101303  0.047365675           16 
 1796000   0.54089432   -3.4977513    1038.5326  0.048187297  0.047339036           11 
 1797000    0.5387616   -3.5090001    1041.5918  0.048302344  0.047312373            7 
 1798000   0.53042835   -3.5135655    1042.5268  0.048318818  0.047285744           15 
 1799000   0.53777722   -3.5134234    1038.1932  0.048091218  0.047259165           22 
 1800000   0.53159542   -3.5048758     1036.583  0.047989951  0.047232455           10 
 1801000   0.53942027   -3.5259061    1036.5593  0.047962213  0.047205768            5 
 1802000   0.52793955    -3.499894    1040.4851  0.048117141  0.047179068            8 
 1803000   0.52699305   -3.5129503    1036.3024  0.047897132   0.04715227           14 
 1804000   0.53178817   -3.5213188    1039.4748  0.048017129  0.047125557           44 
 1805000   0.53728875   -3.5306401    1038.4535  0.047943377  0.047098666           11 
 1806000   0.52723861   -3.5164034    1038.5291  0.047920315  0.047071913           13 
 1807000   0.52794051   -3.5252385    1038.3805  0.047886947  0.047045189            8 
 1808000   0.54234037   -3.5394956    1038.2958  0.047856556  0.047018413            9 
 1809000   0.54126622   -3.5306276    1037.9818  0.047815635  0.046991531            6 
 1810000   0.52865161   -3.5269924     1038.808  0.047827257  0.046964841           12 
 1811000   0.52071289   -3.5206341    1038.1286  0.047769584   0.04693808            7 
 1812000   0.52331006   -3.5223321    1040.7193  0.047862366  0.046911388           11 
 1813000   0.52933138   -3.5258005    1042.9936  0.047940502  0.046884831           22 
 1814000   0.52201613   -3.5012517    1039.1488  0.047737448  0.046858301            8 
 1815000   0.53307118   -3.5490041    1039.1251  0.047710059  0.046831725           23 
 1816000   0.52507428   -3.5425825    1042.1399  0.047822133   0.04680515           16 
 1817000   0.52529734   -3.5217863    1042.1597  0.047796721  0.046778693           18 
 1818000   0.52931081   -3.5272214    1039.3463  0.047641468  0.046752177           10 
 1819000   0.54305472   -3.5310546    1039.3191  0.047614032  0.046725462           10 
 1820000   0.52860032   -3.5233773    1041.2362  0.047675648  0.046698965           12 
 1821000   0.52506154    -3.533637    1040.7906  0.047629077  0.046672518            9 
 1822000   0.51788664   -3.5408535    1039.0399  0.047522865  0.046646081           10 
 1823000   0.53598046   -3.5390414    1040.8683  0.047580376  0.046619685            7 
 1824000   0.52526688   -3.5192438    1042.1965  0.047614972  0.046593129            8 
 1825000   0.52236809   -3.5492167    1040.5426   0.04751336  0.046566676            9 
 1826000   0.53289505   -3.5387905    1040.3397  0.047478079   0.04654018           10 
 1827000   0.51968687   -3.5435594    1038.5459  0.047370276  0.046513621           14 
 1828000   0.52021141   -3.5410007    1041.4445  0.047476498  0.046487219            9 
 1829000   0.51455717   -3.5292368    1041.0235  0.047431361  0.046460868           11 
 1830000   0.53236395   -3.5286463     1043.573  0.047521539  0.046434444            9 
 1831000   0.52604029   -3.5285529     1042.239   0.04743487  0.046408168            8 
 1832000   0.51922714   -3.5266658    1039.4354  0.047281452  0.046381839            9 
 1833000   0.52661947   -3.5423785    1040.9074  0.047322578  0.046355484           10 
 1834000   0.52400293   -3.5191421    1039.3869  0.047227687  0.046329166           17 
 1835000   0.51029719   -3.5386016    1042.6438  0.047349857  0.046303009           12 
 1836000   0.51966491   -3.5376509     1041.388  0.047267064  0.046276837           13 
 1837000   0.52761772   -3.5529447    1041.0744  0.047227109  0.046250564           18 
 1838000   0.53504189   -3.5440341    1040.1997  0.047161755  0.046224435           16 
 1839000   0.51985564   -3.5357893    1042.0921  0.047221862  0.046198307            9 
 1840000   0.51588322   -3.5553084    1042.3946  0.047209902  0.046172177           13 
 1841000   0.51414137   -3.5527351    1042.8113  0.047203118  0.046145949           27 
 1842000    0.5139683   -3.5557435    1040.1594   0.04705752    0.0461197           22 
 1843000   0.52939128   -3.5411876    1044.7972  0.047241689   0.04609351            8 
 1844000   0.51930055   -3.5457277    1039.9577  0.046997363   0.04606747           19 
 1845000   0.50955765   -3.5421821    1041.9519  0.047061967  0.046041338           14 
 1846000   0.51239338   -3.5541866    1043.9149  0.047125088  0.046015286           17 
 1847000   0.50277616   -3.5552658    1044.1401  0.047109732  0.045989246           17 
 1848000   0.50425672   -3.5463035    1042.5512  0.047012591  0.045963211           14 
 1849000    0.5117034    -3.559013    1042.5296  0.046986189  0.045937079           18 
 1850000   0.51510709   -3.5483687     1041.778  0.046926937  0.045910859           16 
 1851000   0.50988203   -3.5613831    1040.7428  0.046854981  0.045884722           32 
 1852000   0.51028534   -3.5471967    1042.5217  0.046909723  0.045858585           25 
 1853000   0.51779963   -3.5660258    1042.9714  0.046904634  0.045832424           14 
 1854000   0.51434415   -3.5767208    1042.2367  0.046846309  0.045806236           36 
 1855000   0.50711334   -3.5273286    1042.7453  0.046843905  0.045780138           22 
 1856000   0.50801068   -3.5359777    1041.2361  0.046750901   0.04575406           10 
 1857000     0.515864   -3.5378438    1041.7906  0.046750608  0.045727967           13 
 1858000   0.51385466   -3.5477407    1041.9825  0.046734057  0.045701865           30 
 1859000   0.51194073   -3.5543149    1042.0798  0.046713279  0.045675779            9 
 1860000   0.49817741   -3.5456503    1042.3257  0.046699182  0.045649782           13 
 1861000   0.51408509   -3.5613421    1044.4603  0.046769671  0.045623782           19 
 1862000   0.50623481   -3.5539171    1040.6683  0.046574844  0.045597743           16 
 1863000   0.51707629   -3.5603568     1043.792  0.046689569  0.045571596           17 
 1864000   0.51335662   -3.5647894    1043.4553  0.046649467  0.045545612           23 
 1865000   0.50244981   -3.5532453    1042.5614  0.046584511  0.045519609           23 
 1866000   0.50964055   -3.5365819    1041.9286  0.046531289  0.045493566           19 
 1867000   0.51203159   -3.5583263    1042.9636  0.046552562  0.045467537           12 
 1868000   0.51258516   -3.5584537    1040.7928  0.046430801  0.045441597           12 
 1869000   0.50743854   -3.5750839    1040.0152  0.046371286  0.045415537           20 
 1870000   0.50747276   -3.5640321    1042.0592  0.046437577   0.04538935           10 
 1871000    0.5070527   -3.5745518    1039.9373   0.04631825  0.045363266           11 
 1872000   0.49531272   -3.5565316     1043.211  0.046439235  0.045337118           40 
 1873000   0.49753629   -3.5675748    1045.1161  0.046499205  0.045311072           18 
 1874000    0.4958898     -3.56785    1041.7672  0.046325473  0.045285072           36 
 1875000   0.49546938   -3.5725183    1041.7308  0.046299148  0.045259057           12 
 1876000   0.50663874   -3.5723116    1042.1303  0.046292212  0.045233043           19 
 1877000   0.49548357   -3.5582723    1039.7298  0.046160973   0.04520704           14 
 1878000    0.5039731   -3.5536393    1041.5295  0.046216252  0.045180972           21 
 1879000   0.50226065   -3.5661476    1042.0733  0.046215777  0.045155086           11 
 1880000   0.50948402      -3.5606    1042.3273  0.046202453  0.045129245           13 
 1881000   0.49887606   -3.5620785    1043.5194  0.046230702   0.04510339           19 
 1882000   0.49670395   -3.5712107    1041.0521  0.046096886  0.045077485           19 
 1883000   0.49680571   -3.5655347    1041.9009  0.046109971  0.045051556           23 
 1884000   0.50257898   -3.5572697    1042.6658  0.046119329  0.045025646           17 
 1885000    0.4953837   -3.5746783     1042.829   0.04610208  0.044999812            8 
 1886000    0.4975482   -3.5771862    1042.0167  0.046041744  0.044973976           39 
 1887000   0.49101114   -3.5550953    1040.6641  0.045957608  0.044948232            9 
 1888000   0.49558764   -3.5857088    1045.0484  0.046126781  0.044922427            8 
 1889000   0.50172817   -3.5755165    1041.4406  0.045943206  0.044896546           14 
 1890000   0.49128986   -3.5712114    1041.5349  0.045923055  0.044870656           14 
 1891000   0.49621742   -3.5851949     1040.224  0.045841002  0.044844824           11 
 1892000   0.49096084   -3.5650126    1042.4014  0.045912677  0.044819028            8 
 1893000   0.49541866   -3.6014652    1041.9199  0.045867228  0.044793205           25 
 1894000   0.49353387   -3.5844495    1043.6129  0.045917497  0.044767401           11 
 1895000   0.49218725   -3.5814251    1042.2624  0.045833878  0.044741598           14 
 1896000   0.50002841   -3.5638092    1043.3352  0.045856859  0.044715829           25 
 1897000    0.4997228   -3.5828095    1044.7256  0.045893762  0.044690104           17 
 1898000   0.48779584   -3.5719343     1040.672  0.045691604  0.044664273           17 
 1899000   0.49972433   -3.5730524    1042.3635  0.045741771  0.044638367           11 
 1900000   0.49456135   -3.5829278    1041.6507  0.045686433  0.044612608           13 
 1901000   0.49035395   -3.5715266    1045.9502  0.045850876  0.044586868           10 
 1902000   0.50238194   -3.5985973    1041.4612  0.045630091  0.044561116           14 
 1903000   0.50145821   -3.5779464     1041.393  0.045603125   0.04453528           11 
 1904000   0.49318103   -3.5886058    1042.1149  0.045610773  0.044509479            8 
 1905000   0.49079769   -3.5994645    1039.8954  0.045489737    0.0444836           22 
 1906000   0.49324302   -3.5996867    1042.3223  0.045571978  0.044457691           10 
 1907000    0.4912841   -3.5858805     1041.636  0.045518091  0.044431812           27 
 1908000   0.50130664   -3.5995385    1040.8345  0.045459227  0.044406077           32 
 1909000   0.47859147   -3.5866022     1042.027   0.04548747  0.044380347           14 
 1910000   0.48779187   -3.5876282    1042.4424  0.045481779  0.044354677           15 
 1911000   0.49066587   -3.5988117    1042.0089  0.045439078  0.044329051           15 
 1912000    0.4831239   -3.6136021     1041.371  0.045387511   0.04430343           30 
 1913000   0.48976226   -3.5951687     1041.735  0.045379639  0.044277769           12 
 1914000   0.49628051   -3.5962265    1044.3777  0.045470989  0.044252093           16 
 1915000   0.48783513   -3.6061402    1043.0357  0.045388845  0.044226392           26 
 1916000   0.48570906   -3.5945364    1044.3494  0.045422295  0.044200773           20 
 1917000   0.48223928   -3.6124277    1040.2219  0.045219174  0.044175138           22 
 1918000   0.48269962   -3.6244411    1042.1344  0.045278693  0.044149419           29 
 1919000   0.49021814   -3.5935166    1041.8979  0.045244827  0.044123761           22 
 1920000   0.49217568   -3.5872187    1041.7462  0.045214677  0.044098062           23 
 1921000   0.47897553    -3.603498    1040.8365  0.045151681  0.044072365           14 
 1922000   0.48601234   -3.5999605    1041.7834  0.045169243  0.044046771            9 
 1923000   0.48800631    -3.598467    1041.6132  0.045138378  0.044021166           10 
 1924000   0.47305347   -3.6068139    1041.4427  0.045107531  0.043995518            9 
 1925000   0.48666819   -3.6040036    1041.2888  0.045077438  0.043970048           29 
 1926000   0.47247587   -3.5784109    1044.5747  0.045196205  0.043944472           17 
 1927000   0.48038063   -3.6111548    1044.1495  0.045154364  0.043918923            9 
 1928000   0.48388911   -3.5875847    1040.1834  0.044959519  0.043893263           15 
 1929000   0.48296502   -3.6130879    1041.3012  0.044984498  0.043867676           40 
 1930000   0.48566258   -3.6047844    1040.3501  0.044920124  0.043841989           27 
 1931000   0.48093095   -3.6218793    1043.1238  0.045016562   0.04381628           37 
 1932000   0.48018917   -3.6087253    1041.9615  0.044943128  0.043790578           15 
 1933000    0.4803065   -3.6278053    1038.8349  0.044785089  0.043764868           14 
 1934000   0.47601418   -3.6011152    1041.3953  0.044872256  0.043739233           24 
 1935000   0.48845482   -3.6214233    1040.9724  0.044830853  0.043713663            9 
 1936000   0.47938035   -3.6187199    1040.0767  0.044769142   0.04368816           42 
 1937000   0.48310089   -3.6085783    1041.3003  0.044798671  0.043662709            9 
 1938000   0.48455061   -3.6073136    1042.0689  0.044808604   0.04363717           19 
 1939000   0.48022445   -3.6094603    1044.7509  0.044900761  0.043611626           14 
 1940000   0.47348307   -3.6211541    1044.2251   0.04485503  0.043586131           14 
 1941000   0.46879151   -3.6087214     1042.331  0.044750601  0.043560648           24 
 1942000   0.47557483   -3.6098669    1042.5151  0.044735459  0.043535133           11 
 1943000   0.48209994   -3.6254125    1042.4658  0.044710317  0.043509687           13 
 1944000   0.48481418   -3.6078552    1040.8576   0.04461838  0.043484208           17 
 1945000   0.47913789   -3.6320445    1041.6942  0.044631285  0.043458716           16 
 1946000   0.46886138   -3.6285014    1041.4469   0.04459776  0.043433165           15 
 1947000   0.47524956   -3.6205509    1042.4005   0.04461567  0.043407707           11 
 1948000    0.4773009   -3.6145857    1041.7519   0.04456502  0.043382268           40 
 1949000   0.47600899   -3.6404216    1041.3566  0.044525252  0.043356803            4 
 1950000   0.48563232   -3.6003532     1041.543  0.044510386   0.04333137           23 
 1951000    0.4787234    -3.627933    1040.5376  0.044444626  0.043305894           41 
 1952000   0.47318054   -3.6236528    1041.7166   0.04447219   0.04328042           25 
 1953000   0.47876749   -3.6115243    1041.5272  0.044441336   0.04325492           13 
 1954000   0.47262002   -3.6064108    1041.3882  0.044412666  0.043229539           17 
 1955000    0.4765232   -3.6366329     1041.355  0.044388534  0.043204141           20 
 1956000   0.47246593   -3.6197325    1042.2575   0.04440429  0.043178779           11 
 1957000     0.461449   -3.6213724    1043.8196  0.044448117  0.043153325           23 
 1958000   0.47288833   -3.6078406    1042.6295  0.044374767  0.043127909           12 
 1959000   0.47829679   -3.6366538    1043.3435  0.044382489  0.043102455           11 
 1960000   0.46783634   -3.6188606    1041.7611  0.044292564  0.043077082           13 
 1961000   0.47300194   -3.6149766    1040.8058  0.044229379  0.043051601           12 
 1962000   0.47837758   -3.6249191    1045.4751  0.044405161  0.043026231           13 
 1963000   0.46202771   -3.6303681     1040.918  0.044189082  0.043000879           11 
 1964000   0.47358501   -3.6214752    1039.7764  0.044118143  0.042975565            9 
 1965000   0.46917782    -3.616077    1039.4627  0.044082389  0.042950259           12 
 1966000   0.45383707   -3.6496692    1041.0969  0.044129233  0.042924863           17 
 1967000   0.45993465   -3.6366486    1042.5805  0.044169654  0.042899475           17 
 1968000   0.45977454    -3.640598    1043.6679  0.044193257  0.042874156           14 
 1969000    0.4659628   -3.6351637    1042.3692  0.044115844  0.042848762           18 
 1970000   0.46497623   -3.6324934    1042.3797  0.044093896  0.042823419           16 
 1971000   0.47278161   -3.6461116    1040.1088  0.043975512  0.042797999           20 
 1972000   0.45868996    -3.621882    1042.3778  0.044049097  0.042772615           11 
 1973000   0.47446616    -3.645388    1040.7592  0.043958403  0.042747316           31 
 1974000   0.46334988   -3.6440068    1038.3549  0.043834639  0.042721936           50 
 1975000   0.47480692   -3.6395703    1040.6501  0.043909288  0.042696567           26 
 1976000   0.46412754    -3.652061    1039.2759  0.043829111  0.042671178           33 
 1977000    0.4597789   -3.6331219    1042.6981  0.043951193  0.042645723           19 
 1978000    0.4601367   -3.6548702    1039.2096  0.043782002  0.042620337           30 
 1979000   0.46146848   -3.6393103    1039.7044  0.043780714  0.042594969           51 
 1980000   0.46084398   -3.6471825    1035.9996  0.043602677  0.042569612           25 
 1981000   0.46906192    -3.633047    1040.2424  0.043759146  0.042544385           64 
 1982000   0.45368015   -3.6595241    1037.1441  0.043606798  0.042519078           23 
 1983000   0.46807995   -3.6595469    1040.3944    0.0437214  0.042493802           11 
 1984000   0.45896045    -3.642288    1041.8257   0.04375948  0.042468412           48 
 1985000   0.45502794   -3.6459771    1041.5211  0.043724647  0.042443114           28 
 1986000   0.46448979   -3.6504185    1043.0692  0.043767591  0.042417827           38 
 1987000   0.46497366   -3.6403537    1041.0375  0.043660357  0.042392562           13 
 1988000   0.47010876   -3.6521628    1038.5446  0.043533896  0.042367218           30 
 1989000   0.46430356   -3.6406036    1040.2997  0.043585541  0.042341927           27 
 1990000   0.46783778   -3.6578858    1038.9145  0.043505631  0.042316656           19 
 1991000   0.45441585   -3.6471009    1038.4751  0.043465388  0.042291292           20 
 1992000   0.46023947   -3.6553339    1040.1411  0.043513265  0.042265849           20 
 1993000   0.45077687   -3.6509559     1041.625  0.043553478  0.042240548           26 
 1994000    0.4540643    -3.637774    1040.1198   0.04346873  0.042215315           13 
 1995000   0.44973813   -3.6531242     1039.804  0.043433751  0.042190127           36 
 1996000   0.44881593    -3.659473    1041.1171  0.043466814   0.04216485           52 
 1997000   0.45534713    -3.659154    1039.8925  0.043393944  0.042139586           52 
 1998000   0.46641226    -3.659237    1038.3404  0.043307491  0.042114426           35 
 1999000   0.45325766   -3.6519429    1038.3362   0.04328565  0.042089242           36 
 2000000   0.44767581   -3.6730631    1039.5507  0.043314613  0.042064032           30 
 2001000   0.44430023   -3.6583735    1040.2421  0.043321758  0.042038928           23 
 2002000   0.45101767   -3.6582579    1039.3628  0.043263521  0.042013791           18 
 2003000   0.44752109   -3.6593488    1040.3964  0.043284922  0.041988637           26 
 2004000   0.45391308   -3.6654648    1041.8719  0.043324682  0.041963529           16 
 2005000   0.45819866   -3.6657845    1041.9604  0.043306752  0.041938511           63 
 2006000    0.4676474   -3.6661507    1038.6448  0.043147422  0.041913413           37 
 2007000   0.45769925    -3.665921    1038.2737  0.043110518  0.041888382           27 
 2008000   0.45736556   -3.6653979    1040.1417  0.043166573  0.041863311           50 
 2009000    0.4527506   -3.6581705    1039.6546   0.04312488  0.041838218           74 
 2010000   0.45435714   -3.6803303    1042.0676  0.043203467  0.041813153           80 
 2011000   0.45074224   -3.6745945    1041.2021  0.043146116  0.041788146           43 
 2012000   0.44979703   -3.6793345    1037.7091      0.04298  0.041763095           45 
Loop time of 4814.49 on 48 procs for 2000000 steps with 4000 atoms

Performance: 71783.248 tau/day, 415.412 timesteps/s
99.4% CPU use with 48 MPI tasks x no OpenMP threads

MPI task timing breakdown:
Section |  min time  |  avg time  |  max time  |%varavg| %total
---------------------------------------------------------------
Pair    | 313.41     | 335.92     | 360.71     |  66.3 |  6.98
Neigh   | 32.392     | 33.763     | 35.013     |  12.0 |  0.70
Comm    | 308.21     | 335.15     | 361.57     |  70.3 |  6.96
Output  | 4.09       | 4.092      | 4.1243     |   0.2 |  0.08
Modify  | 4056.7     | 4062.9     | 4069.7     |   4.8 | 84.39
Other   |            | 42.66      |            |       |  0.89

Nlocal:        83.3333 ave          92 max          77 min
Histogram: 4 2 6 8 9 11 4 0 3 1
Nghost:        2196.40 ave        2226 max        2171 min
Histogram: 3 2 10 6 5 9 3 6 1 3
Neighs:        14539.0 ave       16158 max       12986 min
Histogram: 3 0 8 7 6 9 4 8 2 1
FullNghs:      29078.0 ave       32218 max       26659 min
Histogram: 3 4 7 8 6 13 3 1 2 1

Total # of neighbors = 1395743
Ave neighs/atom = 348.93575
Neighbor list builds = 108491
Dangerous builds = 0

#clear
#
#next RN
#
#jump SELF
Total wall time: 1:20:17
