
units lj                  # Use reduced LJ style units
atom_style atomic         # Uncharged point particles
atom_modify map hash      # Needed for indexing of clusters etc
                          # Used to be able to find where atoms are in relation to each other.

lattice fcc 1.0 spacing 1 1 1
Lattice spacing in x,y,z = 1.5874011 1.5874011 1.5874011
region box block 0 10 0 10 0 10 units lattice
create_box 2 box
Created orthogonal box = (0.0000000 0.0000000 0.0000000) to (15.874011 15.874011 15.874011)
  3 by 4 by 4 MPI processor grid
create_atoms 1 box
Created 4000 atoms
  using lattice units in orthogonal box = (0.0000000 0.0000000 0.0000000) to (15.874011 15.874011 15.874011)
  create_atoms CPU = 0.016 seconds
set type 1 type/fraction 2 0.95 78393
Setting atom values ...
  3802 settings made for type/fraction
mass 1 1.0
mass 2 1.0
pair_style lj/cut  3.5
pair_modify tail  yes
pair_coeff 1  1  1.0  1.0   # Intearaction between 1 and 1 set with epsilon = 1 and sigma = 1
pair_coeff 1  2  1.5  0.8
pair_coeff 2  2  0.5  0.88

write_data data.0
System init for write_data ...
Neighbor list info ...
  update every 1 steps, delay 10 steps, check yes
  max neighbors/atom: 2000, page size: 100000
  master list distance cutoff = 3.8
  ghost atom cutoff = 3.8
  binsize = 1.9, bins = 9 9 9
  1 neighbor lists, perpetual/occasional/extra = 1 0 0
  (1) pair lj/cut, perpetual
      attributes: half, newton on
      pair build: half/bin/atomonly/newton
      stencil: half/bin/3d
      bin: standard
WARNING: Not all mixed pair coeffs generated from mixing. Use write_data with 'pair ij' option to store all pair coeffs. (../write_data.cpp:312)


#############################
#   M E L T   S Y S T E M   #
#############################

velocity all create 2.4 9622624 mom yes dist gaussian # Assign velocities
                                                    # Temperature 2.4, random number seed, zero linear momentum
                                                                                # Gaussian distribution

timestep 0.002   # simulation timestep
thermo 1000       # output thermodynamic data every 1000 steps bf 100

# Define a fix  in this case with index 1 applied to all
# particles in the simulation. This fix is for simulations
# in the anisotropic NPT ensemble. Note that we use the MTK
# correction.
fix 1 all npt temp 2.4 2.4 0.1 iso 5.68 5.68 0.5 mtk yes tchain 5 pchain 5 # Use NPT ensemble
                                                                         # Set temperature and pressure and damping
                                                                         # Numbers of thermostats in chain and in barostat
run 10000          # run for 10000 steps
Per MPI rank memory allocation (min/avg/max) = 3.642 | 3.644 | 3.648 Mbytes
Step Temp E_pair E_mol TotEng Press Volume 
       0          2.4   -2.9371918            0   0.66190816   -2.1469233         4000 
    1000     2.398952   -1.8286584            0    1.7688699    5.5948416    4132.5856 
    2000     2.417364   -1.8090594            0    1.8160801    5.8799418    4113.3378 
    3000    2.3845063   -1.8307219            0    1.7451433    5.4667746    4152.5098 
    4000     2.414333   -1.8430004            0    1.7775938    5.5132568    4143.7625 
    5000      2.40267    -1.815163            0     1.787941    5.6922547     4136.718 
    6000    2.4239677   -1.7918972            0    1.8431454    5.9145912    4119.5237 
    7000    2.3914772   -1.7898247            0    1.7964943    5.6099927    4169.6747 
    8000    2.4404543   -1.8294942            0    1.8302722    5.7668381    4104.1015 
    9000    2.3907977   -1.7758525            0    1.8094475    5.8195391    4152.0026 
   10000    2.4277824   -1.8594067            0    1.7813565    5.7326373     4091.248 
Loop time of 2.44247 on 48 procs for 10000 steps with 4000 atoms

Performance: 707481.765 tau/day, 4094.223 timesteps/s
99.6% CPU use with 48 MPI tasks x no OpenMP threads

MPI task timing breakdown:
Section |  min time  |  avg time  |  max time  |%varavg| %total
---------------------------------------------------------------
Pair    | 1.0591     | 1.1229     | 1.1986     |   2.8 | 45.97
Neigh   | 0.20528    | 0.211      | 0.21821    |   0.7 |  8.64
Comm    | 0.76527    | 0.82731    | 0.90682    |   3.9 | 33.87
Output  | 0.00027397 | 0.00027926 | 0.00034705 |   0.0 |  0.01
Modify  | 0.23604    | 0.2655     | 0.29603    |   3.1 | 10.87
Other   |            | 0.01546    |            |       |  0.63

Nlocal:        83.3333 ave          90 max          73 min
Histogram: 2 1 1 1 8 11 5 8 7 4
Nghost:        1619.40 ave        1655 max        1583 min
Histogram: 2 3 3 7 4 12 10 4 1 2
Neighs:        9342.71 ave       10585 max        7686 min
Histogram: 1 1 1 2 13 10 7 6 5 2

Total # of neighbors = 448450
Ave neighs/atom = 112.11250
Neighbor list builds = 901
Dangerous builds = 168

# Equilibrate just above the melting temperature to avoid step fn in T

fix 1 all npt temp 1.25 1.25 0.1 iso 5.68 5.68 0.5 mtk yes tchain 5 pchain 5
run 2000
Per MPI rank memory allocation (min/avg/max) = 3.643 | 3.645 | 3.649 Mbytes
Step Temp E_pair E_mol TotEng Press Volume 
   10000    2.4277824   -1.8594067            0    1.7813565    5.7326373     4091.248 
   11000    1.2470083   -2.7676109            0  -0.89756612    5.6561685     3217.277 
   12000    1.2654654   -2.7689489            0   -0.8712254    5.5739915    3225.6974 
Loop time of 0.60199 on 48 procs for 2000 steps with 4000 atoms

Performance: 574095.751 tau/day, 3322.313 timesteps/s
99.7% CPU use with 48 MPI tasks x no OpenMP threads

MPI task timing breakdown:
Section |  min time  |  avg time  |  max time  |%varavg| %total
---------------------------------------------------------------
Pair    | 0.25624    | 0.28676    | 0.31634    |   2.3 | 47.63
Neigh   | 0.037924   | 0.04142    | 0.046604   |   0.8 |  6.88
Comm    | 0.18757    | 0.22209    | 0.25759    |   3.0 | 36.89
Output  | 5.3309e-05 | 5.4547e-05 | 6.9e-05    |   0.0 |  0.01
Modify  | 0.043438   | 0.046825   | 0.050027   |   0.8 |  7.78
Other   |            | 0.004847   |            |       |  0.81

Nlocal:        83.3333 ave          91 max          72 min
Histogram: 1 0 3 6 6 10 3 12 6 1
Nghost:        1902.40 ave        1942 max        1872 min
Histogram: 2 3 7 8 8 11 5 2 0 2
Neighs:        11854.9 ave       13541 max       10419 min
Histogram: 3 3 6 8 8 8 4 6 1 1

Total # of neighbors = 569037
Ave neighs/atom = 142.25925
Neighbor list builds = 144
Dangerous builds = 12

#############################
# L I N E A R  Q U E N C H  #
#############################

# Define solid atoms. This closely follows ten Wolde  Ruiz-Montero and Frenkel  Faraday Discuss  1996  104  93-110
# Compute components of the per-atom q6 vector
compute q6 all orientorder/atom degrees 1 6 components 6 nnn NULL cutoff 1.3 # compute the Q6 parameter.
                                                                             # Use all neighbours within 1.3 unit cell.

# get number of connections
compute coord_number all coord/atom orientorder q6 0.5

# An atom is solid if it has 8 or more connections (of a possible 14)
variable is_solid atom c_coord_number>=8
group solid dynamic all var is_solid    # Must be dynamic to update
dynamic group solid defined

# do clustering
compute cluster solid cluster/atom 1.3 # Create a cluster where all atoms within are solid and max 1.3 units from another member

# define chunks one chunk per cluster
compute clus_chunks solid chunk/atom c_cluster nchunk every compress yes  # Says which atoms are in which chunk

# count the size of each chunk
compute size_chunks solid property/chunk clus_chunks count


# Find the maximum entry in the vector of chunk sizes
variable max_n equal max(c_size_chunks)


# Thermo style which includes this variable
# thermo_style custom step temp pe vol v_max_n

thermo ${N}  # Print the thermo information every 100 steps
thermo 1000  

# Reset the npt fix at a lower temperature (below freezing)
fix 1  all npt temp  ${temp} ${temp}  0.1  iso  5.68  5.68  0.5  mtk yes tchain  5  pchain  5
fix 1  all npt temp  0.45 ${temp}  0.1  iso  5.68  5.68  0.5  mtk yes tchain  5  pchain  5
fix 1  all npt temp  0.45 0.45  0.1  iso  5.68  5.68  0.5  mtk yes tchain  5  pchain  5

dump dmp2 all dcd ${N} traj.dcd
dump dmp2 all dcd 1000 traj.dcd


compute msd all msd com yes
variable twopoint equal c_msd[4]/6/(step*dt+1.0e-6)
fix 9 all vector 10 c_msd[4]
variable fit equal slope(f_9)/6/(10*dt)
thermo_style custom step temp pe c_msd[4] v_twopoint v_fit v_max_n

fix 1 all npt temp 1.25 ${temp} 0.1 iso 5.68 5.68 0.5 mtk yes tchain 5 pchain 5
fix 1 all npt temp 1.25 0.45 0.1 iso 5.68 5.68 0.5 mtk yes tchain 5 pchain 5
run 5000000 # 5000000  # Run for this many steps
Neighbor list info ...
  update every 1 steps, delay 10 steps, check yes
  max neighbors/atom: 2000, page size: 100000
  master list distance cutoff = 3.8
  ghost atom cutoff = 3.8
  binsize = 1.9, bins = 8 8 8
  4 neighbor lists, perpetual/occasional/extra = 1 3 0
  (1) pair lj/cut, perpetual
      attributes: half, newton on
      pair build: half/bin/atomonly/newton
      stencil: half/bin/3d
      bin: standard
  (2) compute orientorder/atom, occasional
      attributes: full, newton on
      pair build: full/bin/atomonly
      stencil: full/bin/3d
      bin: standard
  (3) compute coord/atom, occasional
      attributes: full, newton on
      pair build: full/bin/atomonly
      stencil: full/bin/3d
      bin: standard
  (4) compute cluster/atom, occasional
      attributes: full, newton on
      pair build: full/bin/atomonly
      stencil: full/bin/3d
      bin: standard
Per MPI rank memory allocation (min/avg/max) = 9.813 | 9.822 | 9.827 Mbytes
Step Temp PotEng c_msd[4] v_twopoint v_fit v_max_n 
   12000    1.2654654   -2.7689489 1.4540679e-30 1.0097693e-32 8.3333333e+20            1 
   13000    1.2340467   -2.7548746     1.129138 0.0072380641  0.095141617            1 
   14000    1.2560564   -2.7624963    2.3216987  0.013819635   0.09855657            2 
   15000     1.268213    -2.755263    3.5207145  0.019559525  0.099391098            1 
   16000    1.2675517   -2.7703277     4.814073  0.025073296   0.10100039            2 
   17000      1.28134   -2.7335112    6.0051069  0.029436797     0.101524            1 
   18000    1.2588446   -2.7640921    7.2186995  0.033419904   0.10106518            4 
   19000    1.2313832   -2.7424435    8.5156089  0.037349161   0.10137776            2 
   20000    1.2330869   -2.7629732      9.66255  0.040260624   0.10178867            4 
   21000    1.2419229    -2.719645    10.967611  0.043522265   0.10224039            1 
   22000    1.2284256   -2.7377001    12.194971   0.04619307   0.10247791            2 
   23000    1.2476461    -2.744867    13.334551   0.04831359   0.10249922            1 
   24000    1.2545789   -2.7559592    14.628656  0.050793945     0.102535            2 
   25000    1.2490155   -2.7580739    15.951346  0.053171153   0.10255327            1 
   26000    1.2457133   -2.7775815    16.919807  0.054230149   0.10228846            1 
   27000    1.2704139   -2.7440834    18.028458  0.055643389   0.10187633            2 
   28000    1.2261388   -2.7701357    19.254016  0.057303617   0.10162388            1 
   29000    1.2466056   -2.7497738    20.559038  0.059077694   0.10140512            2 
   30000    1.2603918   -2.7701963     21.65339  0.060148305   0.10117168            1 
   31000    1.2286218   -2.7415682    23.145546  0.062219208     0.101179            1 
   32000    1.2577216   -2.7635563    24.536159  0.063896246   0.10142556            2 
   33000    1.2404439   -2.7442623    25.648858  0.064769843   0.10157714            1 
   34000    1.2332809   -2.7681533    26.978014  0.066122583   0.10175303            1 
   35000    1.2497642   -2.7532437    27.906221  0.066443381   0.10182561            2 
   36000    1.2534093   -2.7547568     29.23222  0.067667174   0.10179398            2 
   37000    1.2193922   -2.7733127    30.360492  0.068379486   0.10174194            3 
   38000    1.2402377   -2.7656013     31.21548  0.068454998   0.10156919            1 
   39000    1.2451845   -2.7878658     32.45334  0.069344743   0.10140263            3 
   40000    1.2183878   -2.7249909    33.965813   0.07076211   0.10128979            1 
   41000    1.2164077    -2.760561    35.208567  0.071562128   0.10130306            1 
   42000     1.239745   -2.7625375    36.110197  0.071647215   0.10121986            2 
   43000    1.2459137      -2.7675    37.379238  0.072440383    0.1010853            1 
   44000    1.2497951   -2.7887362    38.393489   0.07271494   0.10101276            1 
   45000    1.2303415   -2.7596712     39.24721  0.072680019   0.10083231            1 
   46000    1.2592632   -2.7703584    41.016229  0.074304761   0.10069927            3 
   47000    1.2383015   -2.7820282     41.92251  0.074330691   0.10057163            1 
   48000    1.2664611   -2.7798922    43.307118  0.075185969   0.10045663            1 
   49000     1.236119   -2.7498691    44.330725  0.075392388   0.10037106            2 
   50000      1.26684   -2.7707762    45.408088  0.075680146   0.10026206            1 
   51000    1.2518325    -2.739322    46.723074  0.076344892   0.10011011            3 
   52000    1.2581821   -2.7702532    48.029176  0.076969833   0.10003135            1 
   53000    1.2110097   -2.7674844    49.319778   0.07754682   0.10000693            2 
   54000    1.2289156   -2.7921415    50.377684  0.077743339  0.099945616            1 
   55000    1.2398548   -2.7532824    51.498586  0.078028159  0.099912737            1 
   56000     1.239194   -2.8099823    52.713669  0.078442959  0.099810416            1 
   57000    1.2162166    -2.761072    54.212197  0.079257598   0.09981037            1 
   58000    1.2390185   -2.7485961    55.143605  0.079229316  0.099805617            2 
   59000    1.2879954   -2.7639339    56.589567  0.079928766   0.09982468            1 
   60000    1.2467126   -2.7619317    57.917146  0.080440481   0.09987644            2 
   61000    1.2278734   -2.7597324    59.339201  0.081064481  0.099960978            1 
   62000    1.2148562   -2.7800881    60.565727  0.081405547   0.10005591            1 
   63000    1.2350063   -2.7430747    61.767443  0.081702966   0.10010261            2 
   64000    1.2661418   -2.7833111    62.876758  0.081870778   0.10014665            2 
   65000    1.2387524   -2.7678586    64.356182  0.082507925   0.10018933            2 
   66000    1.2295844   -2.7147319      65.2455  0.082380681   0.10023067            3 
   67000    1.2080728   -2.7816691    66.459326  0.082660853   0.10024611            1 
   68000    1.2297528     -2.78401    67.562281  0.082796913   0.10023544            2 
   69000    1.2467113   -2.7647499    68.618828   0.08287298   0.10021724            1 
   70000    1.2169283   -2.7730306     70.08246  0.083431499   0.10024772            2 
   71000    1.2538822   -2.7839022    71.127407  0.083482871   0.10026236            1 
   72000    1.2258259   -2.7486803    72.496899  0.083908447   0.10026188            2 
   73000    1.2594844   -2.7732662    73.635051  0.084058277   0.10029796            2 
   74000    1.2449356   -2.7921032    74.521479  0.083920584   0.10030615            2 
   75000    1.2517574   -2.7251387    76.422367  0.084913741   0.10031442            1 
   76000    1.2548853   -2.7661191    77.499046  0.084977023   0.10032164            1 
   77000    1.2437271   -2.7819229    78.038122  0.084456842   0.10032399            1 
   78000    1.2493931    -2.702422    79.992367   0.08546193   0.10033787            1 
   79000    1.2290559   -2.7559263    81.296872  0.085756194   0.10037954            2 
   80000    1.2390811    -2.741941    82.058797  0.085477913   0.10043056            2 
   81000    1.2543188   -2.7629826    83.692233  0.086103119   0.10046166            1 
   82000     1.228824   -2.7789639    84.790177  0.086168878   0.10053077            1 
   83000    1.2387519   -2.7592978     86.59009   0.08693784    0.1006052            2 
   84000    1.2612256   -2.7735891    87.450632  0.086756579   0.10068843            3 
   85000    1.2465958   -2.7771546    89.158381  0.087410177    0.1007901            2 
   86000    1.2385264    -2.767481    91.457938  0.088622032    0.1009261            1 
   87000    1.2122451   -2.7836234    92.326344  0.088435195   0.10107404            2 
   88000    1.2524099   -2.7458332    93.720936  0.088750886    0.1012309            2 
   89000     1.241748   -2.7639639    94.966138  0.088919604   0.10138158            1 
   90000    1.2152636   -2.7605884    95.748529  0.088656045   0.10150451            1 
   91000     1.213982   -2.7724497    96.867563  0.088706559   0.10159881            2 
   92000    1.2305328   -2.7377512    98.107189  0.088865207   0.10167324            1 
   93000    1.2509906   -2.7515934    98.964037  0.088677452   0.10171632            2 
   94000    1.2408308     -2.75559    100.05339  0.088699814   0.10174061            1 
   95000     1.222749   -2.7748234    101.05932  0.088648524   0.10176887            1 
   96000     1.284713   -2.7844917    102.19909  0.088714486   0.10179909            1 
   97000    1.2318408   -2.7486874    103.90504  0.089265494    0.1018092            3 
   98000    1.2560862   -2.7775367    105.29132  0.089533434   0.10182042            1 
   99000     1.253453   -2.7788545    105.77563  0.089036729   0.10183731            2 
  100000    1.2345071   -2.7912615    107.51349  0.089594572    0.1018592            1 
  101000    1.2357726   -2.7645337    108.55726  0.089568692    0.1018763            2 
  102000     1.232545   -2.7625118     109.6746  0.089603427   0.10189663            1 
  103000    1.2469894   -2.7397333    111.72622  0.090393379   0.10190944       -1e+20 
  104000    1.2427631   -2.7813198    112.63023  0.090248579   0.10194406            1 
  105000     1.220395   -2.7595376    114.17396  0.090614255   0.10198012            2 
  106000    1.2157916   -2.7766992    115.43804  0.090753179   0.10204081            2 
  107000    1.2575459   -2.7271841    116.85735  0.091010398   0.10210265            1 
  108000    1.2349918    -2.755859    117.70428  0.090821206   0.10215863            1 
  109000    1.2444652   -2.7473828    119.52045  0.091376493   0.10220798            3 
  110000    1.2622725    -2.756894    120.45328  0.091252484    0.1022558            1 
  111000     1.238015   -2.7594014    121.24835  0.091027286   0.10229192            1 
  112000    1.2307575   -2.7903637    121.31503  0.090264159   0.10228427            1 
  113000    1.2313965   -2.7986577    123.65959  0.091194387   0.10225887            2 
  114000    1.2171069   -2.7884792    124.05976   0.09068696   0.10223552            3 
  115000    1.2381933   -2.7724315    125.39004  0.090862346   0.10221734            1 
  116000    1.2474577   -2.7972479    126.86763  0.091140542   0.10220299            2 
  117000    1.2171457   -2.7736857    128.23785    0.0913375   0.10218734            1 
  118000    1.2606133   -2.7678214    129.48999  0.091447731   0.10219741            2 
  119000    1.2382812   -2.7540231    130.69622   0.09152396   0.10220958            2 
  120000    1.2040642   -2.7951625    131.16056  0.091083721   0.10220917            2 
  121000    1.2509972   -2.7982771    132.60656  0.091326831   0.10220607            1 
  122000    1.2469565    -2.746516     134.1602  0.091639478   0.10221094       -1e+20 
  123000    1.2248776   -2.7630223      135.364  0.091710024   0.10220368            2 
  124000    1.2182536   -2.7751795    136.10019  0.091465183    0.1022018            1 
  125000    1.2464491   -2.8142952    137.96205  0.091974703   0.10220097            3 
  126000    1.1988812   -2.7762637     140.0858  0.092649338   0.10221019            1 
  127000    1.2721829   -2.7981807    140.56103  0.092231646   0.10223739            2 
  128000    1.2307107   -2.7829262    142.28278  0.092632015   0.10225914            2 
  129000    1.2259296   -2.7739978    143.41719  0.092646762   0.10227044            2 
  130000    1.2261022    -2.756172    145.25683  0.093113352   0.10227898            3 
  131000    1.2425004   -2.7595693    146.35797  0.093103035   0.10229472            2 
  132000    1.2354264   -2.7623021    146.33396  0.092382549    0.1023096            1 
  133000    1.2412879   -2.7962774    147.60652  0.092485285   0.10230928            2 
  134000    1.2195012   -2.7843191    149.48101  0.092960827   0.10231282            1 
  135000    1.2534388   -2.7502747    150.65867  0.092999182   0.10231417            2 
  136000    1.2404115   -2.7657838    152.56054   0.09348072   0.10231941            1 
  137000    1.2376875   -2.7730722    153.49159  0.093364716   0.10233624            1 
  138000    1.2486756   -2.7779707     153.5803  0.092741725   0.10234213            2 
  139000    1.2120419   -2.7604057    154.67119  0.092728533   0.10233227            2 
  140000    1.2366243   -2.7728166    156.17958  0.092964035   0.10231649            5 
  141000    1.2358091   -2.8039001    157.17668  0.092894017    0.1022972            2 
  142000    1.2183135   -2.7735111    158.51517  0.093025337   0.10227685            2 
  143000    1.2265359   -2.7885968    159.97647  0.093226381   0.10226464            1 
  144000    1.2295385   -2.7464565    162.27077  0.093906693   0.10227261            2 
  145000    1.2378045   -2.7902021    162.63843  0.093470359   0.10228018            3 
  146000    1.2555159   -2.7997206    162.86064  0.092956987   0.10228089            1 
  147000    1.2473489   -2.7691245    164.69313  0.093363453   0.10227021            1 
  148000    1.2544957   -2.7766082    166.95953  0.094008745   0.10227041            2 
  149000    1.2068259   -2.7868893    167.19185  0.093507748   0.10227519            4 
  150000    1.2369281   -2.7409087      168.334   0.09351889   0.10228301            2 
  151000    1.2358696   -2.7728135    169.99755  0.093817631   0.10229214            1 
  152000    1.2160928   -2.7929083    171.46484  0.094004847   0.10229554            3 
  153000    1.2293964   -2.7607442    172.83135  0.094134724   0.10229828            2 
  154000    1.2431763   -2.7324733    173.81517   0.09405583   0.10231631            2 
  155000    1.2302709   -2.7796029    175.48223  0.094345286   0.10232895            1 
  156000     1.219488   -2.7786417    177.07493   0.09459131   0.10234546            1 
  157000    1.2221358   -2.7899519    177.14372  0.094025328   0.10234691            1 
  158000    1.2318814   -2.7655873    178.39945  0.094092534   0.10234318            1 
  159000    1.2260439   -2.7639612    179.39824  0.094024237   0.10233496            2 
  160000    1.2446278   -2.7676319    180.59985  0.094062422   0.10232462            2 
  161000    1.2162138   -2.7796137    181.32523  0.093853639    0.1023172            1 
  162000    1.2494025   -2.7711046    182.73941  0.094001754   0.10231543            2 
  163000    1.2208391   -2.7843716     185.1811  0.094673361   0.10231741            1 
  164000    1.2385559   -2.8021556    185.92172  0.094472421   0.10231519            1 
  165000    1.2302058   -2.7488746    186.47625  0.094179926   0.10231765            2 
  166000    1.2064916   -2.8032429    189.01996   0.09488954   0.10232055            1 
  167000    1.2283418   -2.7868164    189.23656  0.094429421   0.10232118            1 
  168000      1.23914   -2.7588496      190.542   0.09451488   0.10231956            2 
  169000    1.2094353   -2.7755644    191.10396  0.094232721   0.10230065            2 
  170000    1.2361838   -2.7792434    192.50608  0.094365725   0.10227514            2 
  171000     1.213845   -2.7500773    193.48694  0.094291882   0.10225298            1 
  172000    1.2030419   -2.7579982    194.84572  0.094401995   0.10222691            2 
  173000    1.2657038   -2.7558064    195.50146  0.094172189   0.10220355            1 
  174000    1.2158885   -2.7958385    196.28164  0.094004616   0.10217836            1 
  175000    1.2362602   -2.8100219    199.18656  0.094850744    0.1021583            1 
  176000    1.2183855    -2.820048     199.5183  0.094468892   0.10213551            2 
  177000      1.21913   -2.7984802    200.71224  0.094497289   0.10212156            3 
  178000     1.219609   -2.8155488    202.45419  0.094781926   0.10210461            2 
  179000    1.2085629    -2.797533    203.66088  0.094814189   0.10209216            2 
  180000    1.2248291   -2.7492749    205.43608  0.095109298   0.10209163            1 
  181000    1.2038026   -2.7823574    206.01479  0.094850269   0.10209133            3 
  182000    1.1973091   -2.8028072    207.18737  0.094866011   0.10209335            2 
  183000    1.2126669   -2.7918094    209.85163  0.095560852   0.10209705            1 
  184000    1.2460493   -2.7656378    210.84183  0.095489957   0.10210038            1 
  185000    1.2358713   -2.7796221    212.24358  0.095605217    0.1021074            2 
  186000    1.2242842   -2.7910024    212.54355  0.095225606   0.10211328            2 
  187000    1.2362216    -2.799993    215.01395  0.095817268   0.10211975            3 
  188000    1.2128221   -2.7644205    215.82019  0.095664976   0.10212935            1 
  189000     1.208464   -2.7962876    216.09451  0.095279767   0.10214471            1 
  190000     1.212208   -2.7876527    218.50193  0.095834179   0.10216219            1 
  191000    1.2229358   -2.7816614    219.76697  0.095884367   0.10217537            3 
  192000    1.2192578   -2.8226965    221.23357  0.096021514   0.10219112            2 
  193000    1.2264288   -2.7783511    221.58965  0.095677739   0.10220225            2 
  194000    1.2040325     -2.79191    223.99132  0.096216203    0.1022148            1 
  195000    1.2207086   -2.7470139    224.87225  0.096099252   0.10222449            2 
  196000    1.2138612   -2.8148592     225.7607  0.095986692   0.10224158            1 
  197000     1.226407    -2.776207    226.64938  0.095875372   0.10225654            5 
  198000    1.2206626   -2.7822058    227.92434  0.095927751   0.10226221            1 
  199000    1.2252573   -2.8075396     228.6355  0.095743509   0.10227036            1 
  200000    1.2319543   -2.7932128    230.75585   0.09614827    0.1022774            2 
  201000    1.2114337   -2.7533575    233.14015  0.096658437   0.10229138            6 
  202000    1.2470918   -2.7635457    232.60849    0.0959606    0.1022987            2 
  203000     1.218795   -2.7757725    234.27051  0.096170159   0.10230364            2 
  204000    1.2413557   -2.7699787    235.17384  0.096067745   0.10230173            2 
  205000    1.2234351   -2.7680009    235.73802  0.095828465   0.10229786            1 
  206000    1.2303144   -2.7904662    236.68706  0.095747194   0.10228876            1 
  207000    1.1998937   -2.7899175    238.62345  0.096064191   0.10228079            1 
  208000    1.2250168   -2.7967268    238.77417  0.095662727   0.10227545            1 
  209000    1.2303154   -2.7956041    241.73312  0.096384816   0.10227214            1 
  210000    1.1872113   -2.7664157    242.95078  0.096409038   0.10227094            3 
  211000    1.2273329   -2.7850844    243.01559  0.095977719   0.10227084            1 
  212000    1.2231157   -2.8072286    245.74627  0.096598376   0.10227319            2 
  213000    1.2121713   -2.7930053    246.52732   0.09645044   0.10227887            1 
  214000     1.216386   -2.7753924    247.39083  0.096335993   0.10228136            1 
  215000     1.216341   -2.7954249    248.93876   0.09648789   0.10228596            1 
  216000    1.1939644   -2.7741386    251.19301  0.096910882   0.10228854            3 
  217000    1.2054511   -2.7980854    251.61938  0.096628025   0.10229078            1 
  218000    1.2179869   -2.8008116    252.30389  0.096446442   0.10229234            1 
  219000    1.2318756   -2.7918217    253.17287  0.096336707   0.10229271            2 
  220000    1.2256253   -2.8123532     254.8977  0.096552158   0.10228403            3 
  221000    1.2028474   -2.7967122    254.94564  0.096133348   0.10227914            2 
  222000    1.2395651   -2.8024357    255.53814  0.095922725   0.10227123            2 
  223000    1.2335776    -2.781848    258.20589  0.096489496   0.10227148            1 
  224000    1.2486703   -2.7981678    258.42879  0.096141663   0.10226648            2 
  225000    1.2298699   -2.7744162    259.75534  0.096205682   0.10226007            1 
  226000     1.222537   -2.7695407    262.53609  0.096805341   0.10225789            3 
  227000    1.2001433   -2.7694368    262.97589  0.096540342   0.10226062            1 
  228000    1.2259967   -2.8223266    264.76001  0.096769008   0.10226516            2 
  229000    1.2353909   -2.7986985    266.05427  0.096817421   0.10226222            3 
  230000    1.2252979   -2.8190284    266.18647  0.096444372   0.10226119            3 
  231000    1.2080807   -2.7961216    266.28629  0.096062874   0.10225642            4 
  232000    1.1880013   -2.8338262    267.99004  0.096260791    0.1022482            1 
  233000    1.2229805    -2.812102     270.2728  0.096664093   0.10223633            2 
  234000    1.2284691   -2.7842204    270.41271  0.096300822   0.10222184            2 
  235000    1.2024229   -2.7849986    271.47055  0.096266154   0.10220947            2 
  236000    1.2222312   -2.7791102    274.41964  0.096899591    0.1021973            3 
  237000    1.2096467   -2.7730092    275.54434  0.096886196   0.10218993            2 
  238000    1.2244426   -2.7767171    277.50643  0.097166117   0.10217888            1 
  239000    1.1998991    -2.795169    277.21004  0.096656219   0.10216835            2 
  240000    1.2053824   -2.7999313    277.21715  0.096255953   0.10215144            1 
  241000    1.2111886   -2.7949448    278.58079  0.096328073   0.10213481            1 
  242000    1.2231772   -2.8282359    280.17653  0.096479522   0.10212021            1 
  243000    1.2135557   -2.7896352    280.37939  0.096152053   0.10211065            2 
  244000    1.2129794   -2.7804474    283.43648  0.096802078    0.1020963            2 
  245000    1.1957072   -2.7669979    284.73023  0.096847016   0.10208512            2 
  246000    1.2304016   -2.8004501    283.78344  0.096132601   0.10206697            1 
  247000    1.2098736   -2.7982587    285.33619  0.096267271   0.10205089            2 
  248000    1.2272012   -2.7856395    287.03335  0.096449377    0.1020346            1 
  249000    1.2369611   -2.8113577    287.82555  0.096327158   0.10201801            2 
  250000     1.206613   -2.7854401    288.38826  0.096129419   0.10200203            2 
  251000    1.2226197    -2.812871    289.28604  0.096044502   0.10197889            2 
  252000    1.2495573   -2.8232936    290.72362  0.096138763   0.10195236            3 
  253000    1.2225485   -2.8308417    290.84652  0.095799248   0.10192608            1 
  254000    1.2382141   -2.7956008    294.04854  0.096472617   0.10190003            1 
  255000    1.2235723   -2.7981202    295.75753  0.096652786   0.10188292            3 
  256000    1.2287995   -2.7693878    296.88973  0.096643793    0.1018698            4 
  257000    1.2068236    -2.797003    297.83198  0.096573276   0.10186166            4 
  258000    1.2223026   -2.8029607    299.32661  0.096681721   0.10184856            2 
  259000    1.2281207   -2.8019696    299.87129  0.096483685   0.10183808            1 
  260000    1.1958691   -2.7921479     300.6342  0.096357117   0.10182432            1 
  261000    1.1992854   -2.7812754    302.00051  0.096424173   0.10181023            1 
  262000    1.2262662   -2.7742778    302.85785  0.096328832   0.10179693            2 
  263000    1.1917866   -2.8132292    302.90184  0.095976502   0.10177715            1 
  264000    1.1891943   -2.7883611    304.82582   0.09622027   0.10176031            2 
  265000    1.1636348   -2.8033387    307.24207  0.096617004   0.10174335            1 
  266000    1.2207604   -2.8047396    307.59211  0.096363443    0.1017281            2 
  267000    1.1961251    -2.790249    309.48341  0.096592825   0.10171517            1 
  268000    1.2091262   -2.8034216    312.14003  0.097058466   0.10170006            1 
  269000     1.193831   -2.8104766      311.648  0.096545229   0.10168785            1 
  270000     1.203848   -2.7752763     313.8445  0.096865586   0.10167246            2 
  271000    1.2033853   -2.8165028    311.81818  0.095885049   0.10165539            1 
  272000    1.1719221   -2.7966344    313.98332  0.096195871   0.10163579            1 
  273000    1.2124671    -2.814066     316.0307  0.096468467   0.10161542            1 
  274000    1.1975666   -2.7628127    316.86536  0.096370243   0.10159611            3 
  275000      1.20061   -2.8256952    317.21832  0.096126763    0.1015744            1 
  276000    1.2317723   -2.7839539    319.00756  0.096318708   0.10154637            2 
  277000    1.2064726   -2.8219861    318.10684  0.095700013   0.10152119            1 
  278000    1.2356713   -2.8161645    318.59912  0.095503332    0.1014935            3 
  279000    1.2139976   -2.8022727    322.54948  0.096340945   0.10146602            1 
  280000    1.1831298   -2.8002817    321.85332  0.095789678   0.10144157            2 
  281000    1.2276192    -2.774011    323.85832  0.096043393    0.1014161            3 
  282000     1.212813   -2.8074962    325.43396  0.096168428   0.10138946            1 
  283000    1.1927987   -2.8028003    328.18436  0.096638504   0.10136914            2 
  284000    1.2212323   -2.8138105    328.10175  0.096273989   0.10135633            2 
  285000    1.2166513   -2.7934221    331.27444   0.09686387   0.10134232            3 
  286000    1.2108938    -2.832126    332.62957  0.096920037   0.10133289            1 
  287000    1.2126517    -2.807282    334.34482  0.097080377   0.10132563            1 
  288000    1.1870622   -2.8034433    334.92078  0.096909948   0.10131844            4 
  289000    1.1834425    -2.808136    336.51237  0.097033554   0.10131669            3 
  290000    1.1897776   -2.8188971    337.06156  0.096856769   0.10131212            2 
  291000    1.1983247   -2.8087762    337.92767  0.096771955   0.10130355            4 
  292000    1.1842429   -2.7599859    339.48894  0.096886114   0.10129226            3 
  293000    1.2013393   -2.8144411     339.6289  0.096595251   0.10127634            6 
  294000    1.2216135   -2.8048947    340.99967  0.096655234   0.10125985            2 
  295000    1.2039621   -2.7849055    342.35455  0.096710324    0.1012463            2 
  296000    1.1855466   -2.8061521    343.37066  0.096669669   0.10122845            2 
  297000    1.1950819   -2.8451749     342.9037  0.096213158   0.10120867            3 
  298000    1.2027479   -2.7869324    345.26027  0.096549292   0.10119179            2 
  299000    1.1679051     -2.81381    345.47968  0.096287537   0.10117473            1 
  300000    1.1982541   -2.8062607    347.28192  0.096467199   0.10115805            1 
  301000     1.203645   -2.8130766     348.2658  0.096419104   0.10114186            2 
  302000    1.2393261   -2.8282362    348.94302  0.096286705   0.10112193            3 
  303000    1.2364045    -2.802363    350.59959  0.096424531   0.10110156            1 
  304000    1.2014635   -2.7971082    351.24565  0.096284443   0.10108284            1 
  305000    1.2206488    -2.810691    353.14923  0.096488861   0.10106422            3 
  306000      1.21693    -2.810063     353.4607  0.096258361   0.10104667            2 
  307000    1.1938177   -2.7837021    354.49153  0.096224628   0.10102928            3 
  308000    1.1836605   -2.8109157    355.43326  0.096167007   0.10100916            2 
  309000    1.2004723   -2.8245261    356.41279  0.096119954   0.10098559            1 
  310000    1.2066584   -2.8180222    357.39447  0.096073783   0.10096639            1 
  311000    1.2075671   -2.8497952    357.88581  0.095896519    0.1009426            1 
  312000    1.2044113   -2.8040182    360.24632  0.096219636   0.10091994            1 
  313000    1.1940241   -2.7978627    361.57603  0.096266249   0.10089775            3 
  314000      1.19377   -2.8276185    363.86573  0.096567338   0.10087851            1 
  315000    1.1928123   -2.8123883    363.09806  0.096057687    0.1008564            2 
  316000    1.1893015   -2.8132956    364.14805  0.096030604   0.10083279            1 
  317000    1.1837902   -2.8237983    364.00394  0.095689784   0.10080984            1 
  318000    1.1983041   -2.7985514    366.35256   0.09600434   0.10078226            2 
  319000    1.1909838   -2.8021851    366.43156  0.095724024   0.10075778            1 
  320000    1.2171251   -2.7992479    369.71127  0.096278978   0.10073261            2 
  321000    1.1778521     -2.79938    368.67556  0.095710167   0.10070666            2 
  322000    1.2121963   -2.8023526    369.46183  0.095616414   0.10067977            1 
  323000    1.2050527   -2.7962058    371.75633  0.095912366   0.10065239            2 
  324000    1.1891145    -2.794954    372.05245  0.095692503   0.10062417            3 
  325000    1.2129463   -2.7757837     374.2112   0.09595159   0.10059745            1 
  326000    1.2007899   -2.8132771    373.94778  0.095589923   0.10056759            1 
  327000    1.1874088   -2.8111401    376.25425  0.095885383   0.10053776            1 
  328000    1.2115571   -2.8369242    375.82371  0.095483667   0.10050724       -1e+20 
  329000    1.2064749   -2.8413118    378.50814   0.09587339   0.10047914            1 
  330000    1.2089518   -2.7869703    380.01018  0.095962167   0.10045495            2 
  331000    1.1815294   -2.7965764    380.72346  0.095851829   0.10042761            3 
  332000    1.1865609   -2.7770449     381.1425  0.095668297   0.10040572            2 
  333000    1.1669746   -2.8044023    383.47077  0.095963657   0.10038349            2 
  334000    1.1915768   -2.8192637    384.25938  0.095873098   0.10036054            2 
  335000    1.2179404   -2.7948208    385.35153   0.09585859   0.10033767            2 
  336000     1.199027   -2.8119436    388.55702  0.096368308   0.10032006            1 
  337000    1.1865618    -2.810317    387.72737  0.095877193   0.10030248            2 
  338000    1.2256611   -2.8102043     390.5528  0.096290138   0.10028284            5 
  339000     1.181813    -2.840555    389.94015  0.095855495   0.10026604            1 
  340000    1.2048509   -2.8113423    393.27694  0.096391407   0.10024773            1 
  341000    1.1819372   -2.7962365    393.51526  0.096166975   0.10022942            1 
  342000    1.2084267   -2.8349526    395.58369  0.096389788   0.10021362            3 
  343000    1.1745634   -2.8352827    395.17092  0.096008484    0.1001965            1 
  344000    1.1987405   -2.8556798    396.96997  0.096165205   0.10017932            1 
  345000    1.2063799   -2.8187344     398.9239  0.096358429   0.10016316            3 
  346000     1.186468   -2.7861174    401.42916  0.096683325   0.10015049            3 
  347000    1.1776772   -2.7833951    404.38869   0.09711544   0.10014309            1 
  348000     1.177124   -2.7859285    404.42204  0.096844358   0.10013157            2 
  349000    1.2195147   -2.8318542    405.03816  0.096713982   0.10012441            2 
  350000    1.2169888   -2.8521374    404.40811  0.096287644    0.1001129            2 
  351000      1.19758   -2.7946904    406.40195  0.096486692   0.10009916            3 
  352000    1.1613927   -2.8256598     406.3657  0.096204001   0.10008714            3 
  353000    1.2116719   -2.8073742    408.89774  0.096529212   0.10007447            1 
  354000    1.2007862   -2.7979095    411.74843  0.096927596   0.10006433            2 
  355000    1.2083148   -2.8089337    411.77025  0.096659684   0.10005556            1 
  356000    1.2076174   -2.8496326    411.66409  0.096363317   0.10004586            1 
  357000    1.2061853   -2.8334452    412.23405  0.096226435   0.10003399            1 
  358000    1.2075495   -2.8443415    413.19052  0.096180288   0.10002223            1 
  359000    1.1676873   -2.8121824    415.11552  0.096359221   0.10000611            2 
  360000    1.1692051   -2.8109563    416.16424  0.096334315  0.099994001            4 
  361000     1.209749   -2.8129144    416.12651  0.096058752  0.099979184            3 
  362000    1.2156952   -2.8288106      416.524  0.095884899  0.099962427            1 
  363000    1.1771578   -2.8209021    417.37171  0.095815359  0.099944156            1 
  364000    1.1889964   -2.8211973    418.82168  0.095884085  0.099925317            1 
  365000    1.2067713   -2.7889211    420.38048  0.095977279  0.099903631            1 
  366000    1.1821282   -2.7950475    420.74607  0.095798286  0.099883677            1 
  367000    1.2065832   -2.8228222    424.24057  0.096330738   0.09986307            7 
  368000    1.1936718   -2.8150442    423.22673  0.095839386  0.099840866            3 
  369000    1.2011838     -2.78402    424.09016  0.095774652  0.099816339            3 
  370000    1.1836128   -2.8263663    424.91471  0.095701511  0.099794037            1 
  371000    1.2168372    -2.801307    426.43589  0.095785241  0.099767487            1 
  372000    1.1970124   -2.7776417    426.45556  0.095532158  0.099741218            2 
  373000    1.2087087   -2.8289607    425.25262  0.095007289  0.099715968            1 
  374000    1.1893686   -2.8103736    427.73456  0.095306274  0.099690211            1 
  375000    1.1722807   -2.8128938     430.6897  0.095708822  0.099662864            2 
  376000    1.2005951    -2.832546    428.29498  0.094923532  0.099632488            1 
  377000    1.2358527   -2.7879112    432.84014  0.095676423  0.099605215            2 
  378000    1.1420938   -2.8202262    431.01964  0.095021967  0.099577629            1 
  379000    1.2002034   -2.8209097     434.9262   0.09563021  0.099546438            1 
  380000    1.2221008   -2.7986082    437.91237  0.096033413  0.099522519            2 
  381000    1.1871009    -2.788519    435.11199  0.095168852  0.099498068            1 
  382000    1.1750391   -2.8124037    437.43749  0.095427026  0.099473435            2 
  383000    1.1904291   -2.8186137    438.10895  0.095323967  0.099448355            3 
  384000    1.1808384   -2.8299598    438.14659  0.095083896  0.099421793            2 
  385000    1.1689069   -2.8293592    440.33141  0.095309829  0.099395167            1 
  386000    1.1950006   -2.8312529    439.78313  0.094944545  0.099367833            1 
  387000     1.191933   -2.8156016    440.50787   0.09485527  0.099338006            2 
  388000    1.1825983   -2.8309877    443.68798   0.09529381  0.099308895            2 
  389000    1.2182998   -2.8088051    443.33079  0.094972319  0.099278587            2 
  390000    1.1784685   -2.8239877    446.79623  0.095469279  0.099249217            2 
  391000    1.1900632   -2.8218534    447.19287  0.095309648  0.099219711            4 
  392000    1.2009395   -2.8411228    447.53314  0.095138847  0.099190701            1 
  393000    1.1740153   -2.8324781    445.95153  0.094561393   0.09915973            2 
  394000    1.1574336   -2.7926605    447.41661  0.094631263  0.099126563            1 
  395000    1.1819669   -2.8237182    447.97205  0.094508871  0.099093364            2 
  396000    1.2051415   -2.8084165    452.29375  0.095179661  0.099060163            1 
  397000    1.2042911    -2.828313    451.78339  0.094832786  0.099029165            2 
  398000     1.174065   -2.8319191    452.45858  0.094735884  0.098999334            1 
  399000    1.1948918   -2.8085814    455.08323  0.095046622   0.09897091            3 
  400000     1.186653    -2.812831    457.80217  0.095375452  0.098947209            2 
  401000    1.1922489   -2.8340078    458.29134  0.095239263  0.098923258            2 
  402000     1.216325   -2.8546295     458.3533  0.095015195  0.098900705            1 
  403000    1.2097072   -2.8423138    460.58853  0.095241631  0.098878899            2 
  404000    1.1923401   -2.8140601    465.53446  0.096026084  0.098861137            6 
  405000    1.1800361   -2.8038926    463.85422  0.095443254   0.09884248            1 
  406000    1.1693454    -2.842298    464.53547  0.095348003  0.098820921            2 
  407000    1.1686193   -2.8486515    464.33965  0.095073639  0.098799332            3 
  408000    1.1930053   -2.8179194    465.72373   0.09512331  0.098778707            2 
  409000    1.2077995   -2.8572073    467.78248  0.095310203  0.098758135            1 
  410000    1.1745437   -2.8451643    468.34943  0.095192973  0.098738165            1 
  411000    1.1668751    -2.799649    470.45513  0.095388307  0.098719785            2 
  412000    1.1729823   -2.8149551    474.41687  0.095958104  0.098704112            2 
  413000    1.1956413   -2.8321429    473.16047  0.095472249  0.098691612            1 
  414000    1.1973175   -2.8282948    476.72455  0.095959048  0.098680578            2 
  415000    1.2087281   -2.8180677     478.7765  0.096139858  0.098673076            2 
  416000    1.1930275   -2.8293981    478.46253  0.095845859  0.098662448            2 
  417000     1.177152   -2.8498096    481.01735  0.096126569  0.098652757            3 
  418000    1.1832555   -2.8343971    481.84754  0.096062109  0.098644733            2 
  419000    1.2270681    -2.823339    483.55024  0.096171488  0.098636067            3 
  420000    1.1787531   -2.8065682    483.20018  0.095873052  0.098627003            1 
  421000    1.1682889   -2.8193774    486.39673  0.096278054  0.098620611            1 
  422000    1.1813305   -2.8725503    484.88405  0.095751195  0.098613435            2 
  423000    1.1815057   -2.8461232    486.24452  0.095792853  0.098607492            2 
  424000    1.1748467   -2.7971091    489.74697  0.096255301  0.098598365            1 
  425000    1.1963069   -2.8260278    491.31451  0.096336179  0.098590262            2 
  426000    1.1881414   -2.8468264    490.02988  0.095858741  0.098582733            4 
  427000    1.1766553   -2.8539005    492.76117  0.096167286  0.098574899            2 
  428000    1.1754142   -2.8223106    495.96085  0.096565587  0.098565557            6 
  429000     1.189481   -2.8275245    493.88887  0.095938009  0.098558318            1 
  430000    1.1814525   -2.8380498    495.89002  0.096102716  0.098548263            2 
  431000    1.1814428   -2.8347808    493.96541   0.09550762  0.098537687            1 
  432000     1.198338   -2.8255693    499.76011  0.096404342  0.098527389            1 
  433000    1.1891698   -2.8180626    501.98917  0.096610696  0.098520521            1 
  434000    1.1772966   -2.8421315    498.68472  0.095753594  0.098514811            2 
  435000    1.1806594   -2.8222468    503.55601  0.096466668  0.098506276            1 
  436000    1.1743816   -2.8439589    501.62367  0.095876083  0.098500874            1 
  437000     1.210921   -2.8176712    505.25649  0.096349444  0.098495969            1 
  438000    1.1782958   -2.8399054    505.82723  0.096238057  0.098490837            2 
  439000    1.1904001   -2.8373866    506.22744  0.096094806  0.098483745            2 
  440000    1.1687236   -2.8235865    506.55527  0.095938498  0.098477271            2 
  441000    1.1648537   -2.8311789     508.6363  0.096114192  0.098469558            1 
  442000    1.1759389   -2.8455426    510.46418  0.096241361  0.098460913            3 
  443000    1.1819858   -2.7908367    512.06185  0.096324652  0.098454221            1 
  444000    1.1664552   -2.8011586    513.68953  0.096413199  0.098446416            1 
  445000    1.1844271   -2.8427152    514.13792   0.09628051  0.098441206            2 
  446000    1.1862056   -2.8352499    514.40429  0.096114403  0.098433067            1 
  447000    1.1685005   -2.8449768    515.29225  0.096064924  0.098425971            1 
  448000    1.1603137   -2.8301206    518.60972  0.096467583  0.098420863            2 
  449000    1.1790349   -2.8344021    516.91466  0.095938133    0.0984176            4 
  450000    1.1392772   -2.8460505    518.60583  0.096038116  0.098410898            3 
  451000    1.2153512   -2.8315304    518.10749   0.09573309  0.098406799            1 
  452000    1.2018239   -2.8131644    521.41802  0.096131641  0.098399713            3 
  453000    1.1826419   -2.8393439    522.53727  0.096125325  0.098392494            1 
  454000     1.181015   -2.8504944    520.49022  0.095537851  0.098385217            2 
  455000    1.1952052     -2.85553    525.55719  0.096255896  0.098380221            3 
  456000    1.1533512   -2.8313875    526.00315  0.096126307  0.098373573            3 
  457000    1.1841635    -2.827759    525.73937  0.095867865  0.098368448            1 
  458000    1.1868591    -2.853456     528.7336  0.096203348  0.098363004            6 
  459000    1.1677715   -2.8192095    530.37419  0.096291611  0.098357161            2 
  460000    1.1652862   -2.8488487    529.03533  0.095839734  0.098351843            3 
  461000    1.1878244   -2.8291379    532.85109    0.0963216  0.098345171            1 
  462000    1.1996455    -2.842485    536.15367  0.096708815  0.098340962            2 
  463000    1.1806909   -2.8375615     535.7873     0.096434  0.098338227            3 
  464000     1.178835   -2.8267238    536.46834   0.09634848  0.098336434            3 
  465000    1.1686126   -2.8591771    537.95273  0.096407299   0.09833475            1 
  466000    1.1788886   -2.8447959    538.41216  0.096282575  0.098331966            2 
  467000    1.2042799     -2.85348    538.78755  0.096143389  0.098326704            2 
  468000    1.1620292   -2.8498492    539.46666  0.096058879  0.098322448            1 
  469000    1.1805687   -2.8551866    543.26258  0.096528531  0.098318418            2 
  470000    1.1905393   -2.8443329    544.43703  0.096531388  0.098314187            2 
  471000    1.1755446   -2.8263741    544.11526  0.096269508  0.098312947            2 
  472000    1.1668884   -2.8257915    547.49092  0.096661533  0.098309887            2 
  473000    1.1816641   -2.8287621    547.09409  0.096387261  0.098306825            1 
  474000    1.1673718   -2.8117061     548.5211  0.096434792  0.098303395            2 
  475000     1.154032   -2.8376298    548.10198  0.096158243  0.098299489            1 
  476000    1.1985212   -2.8242209     550.4125  0.096360733  0.098296416            2 
  477000    1.1579559   -2.8456002    550.78198  0.096223267  0.098292909            1 
  478000    1.1992194   -2.8278455    553.35281  0.096470154   0.09829007            3 
  479000    1.1597471   -2.8334191    553.49592  0.096293653  0.098288158            3 
  480000    1.1752262    -2.835036    555.73695  0.096482109  0.098283395            1 
  481000    1.1553132     -2.84645    555.27665  0.096201776  0.098277642            2 
  482000    1.1609333   -2.8532435    559.65575  0.096759292  0.098273885            1 
  483000    1.1705271   -2.8348468    557.22679  0.096139888  0.098269351            2 
  484000    1.1701372   -2.8364665    558.31485  0.096128589  0.098263747            2 
  485000    1.1428148   -2.8342213    559.99934  0.096219818   0.09825511            5 
  486000    1.1645772    -2.842083    560.36174  0.096083974  0.098248832            1 
  487000    1.1721228   -2.8446208    561.04429  0.096003472  0.098239122            2 
  488000    1.1449283   -2.8536467    562.31518  0.096023767  0.098228832            1 
  489000    1.1939436   -2.8169883    564.22005  0.096152019  0.098221515            1 
  490000    1.1808828    -2.816538    564.98239   0.09608544  0.098211645            1 
  491000    1.1738526   -2.8401443     564.0177  0.095726019  0.098203654            2 
  492000    1.1766781   -2.8593159    562.39856  0.095257208  0.098194928            2 
  493000    1.1766298    -2.853426    566.08247  0.095686691   0.09818622            3 
  494000    1.1940646    -2.831627     568.7234  0.095938495  0.098179217            2 
  495000    1.1903979    -2.830516    572.45975  0.096373696  0.098171962            1 
  496000    1.1719667   -2.8286589     569.0424  0.095605242  0.098165601            2 
  497000    1.1745322   -2.8238739    575.65584  0.096521771  0.098159587            1 
  498000    1.1676816   -2.8497387    571.05441  0.095557966  0.098151184            2 
  499000      1.19371   -2.8462076    575.71747  0.096145202  0.098144635            1 
  500000    1.1902866   -2.8536947    574.32857  0.095721428  0.098137286            2 
  501000     1.160486   -2.8251033    577.66148  0.096084743  0.098127846            1 
  502000     1.173876   -2.8264224    578.15861  0.095975865   0.09811982            1 
  503000    1.1628201   -2.8385319    575.89676  0.095410331  0.098109397            1 
  504000    1.1518514   -2.8518077    580.00021  0.095899506  0.098100433            1 
  505000    1.1888986   -2.8357101    584.35067  0.096427503  0.098093442            2 
  506000    1.1813501   -2.8525052    584.80995  0.096312574  0.098086963            1 
  507000    1.1725216   -2.8299879    584.98262  0.096150989  0.098082558            3 
  508000    1.1814618   -2.8405017     584.3732  0.095861745   0.09807695            4 
  509000    1.1702628   -2.8470107    588.08836  0.096281657  0.098070655            1 
  510000    1.1682503   -2.8430901    588.92806  0.096230075  0.098065568            2 
  511000    1.1693483    -2.854848    589.47167  0.096130409   0.09805979            2 
  512000    1.1612748   -2.8343291    590.02434  0.096032607  0.098054027            3 
  513000    1.1814548   -2.8467335    593.34356  0.096384594  0.098048439            1 
  514000    1.1560007   -2.8452399    592.45596  0.096053171  0.098039639            1 
  515000    1.1904932   -2.8494669     595.3329  0.096332185  0.098032126            1 
  516000    1.1594023   -2.8388318    593.56772   0.09586042  0.098026403            1 
  517000    1.1646152   -2.8313986    596.10159  0.096083428  0.098018546            3 
  518000    1.1709605   -2.8316226    598.88563  0.096345823  0.098012569            1 
  519000    1.1969227   -2.8494674     596.9308  0.095846307  0.098008507            2 
  520000    1.1695659    -2.858211    600.96174   0.09630797  0.098003227            2 
  521000    1.1592782   -2.8682047    600.88059  0.096110139    0.0980001            1 
  522000    1.1742759   -2.8200894     603.6817  0.096373197  0.097998617            2 
  523000     1.152229   -2.8441311    606.18981  0.096588561  0.097994121            1 
  524000    1.1819888   -2.8616351    604.28223  0.096100863  0.097988706            2 
  525000     1.179729   -2.8560455    606.36577  0.096248535  0.097983325            2 
  526000    1.1514405   -2.8210825    606.67443  0.096114453  0.097978428            2 
  527000    1.1581224   -2.8538996    605.23092  0.095703814  0.097972429            1 
  528000     1.184994   -2.8439037    609.84943  0.096251488  0.097967409            2 
  529000    1.1668287   -2.8692095    608.56441  0.095867109  0.097961975            2 
  530000    1.2055764   -2.8771651     611.0765   0.09608121   0.09795629            2 
  531000    1.1656939   -2.8371889    613.44086  0.096271322  0.097949483            1 
  532000    1.1680628   -2.8428898    612.13013  0.095885046  0.097943451            2 
  533000    1.1501928   -2.8607024    611.13212  0.095549112  0.097936152            1 
  534000    1.1576326   -2.8373555    615.53485  0.096057249  0.097931234            1 
  535000    1.1508279   -2.8570172    616.19049  0.095979827   0.09792606            1 
  536000    1.1766687   -2.8224027    621.34576  0.096602264  0.097921456            4 
  537000    1.1782849   -2.8411603    622.70311  0.096633009  0.097917735            2 
  538000     1.167255   -2.8246042     622.1814  0.096372584  0.097915667            1 
  539000    1.1461078   -2.8116729    622.82896  0.096293902  0.097910792            2 
  540000    1.1802878   -2.8186632    624.08258   0.09630904  0.097908555            2 
  541000    1.1544439    -2.849639     626.4696  0.096498706  0.097905213            5 
  542000    1.1770316   -2.8186656    628.24696  0.096593935  0.097902496            1 
  543000    1.1488904   -2.8271751    628.89599  0.096515651   0.09789995            1 
  544000    1.1640481    -2.847071    627.09928  0.096063002  0.097897268            2 
  545000    1.1490318    -2.870073    626.17919  0.095746053   0.09789204            2 
  546000    1.1343002   -2.8222042    632.32093  0.096508079  0.097887365            1 
  547000    1.1676879   -2.8306326     630.5144  0.096056429  0.097882786            2 
  548000    1.1859862     -2.82079    631.39067  0.096014397  0.097876609            2 
  549000     1.169897   -2.8261496    632.35003  0.095985129  0.097869651            1 
  550000    1.1482236   -2.8792385    631.19687   0.09563589  0.097861194            3 
  551000    1.1486266   -2.8292317    632.95562  0.095728314  0.097850935            3 
  552000    1.1666311   -2.8785949    635.39913  0.095923782  0.097842459            3 
  553000    1.1466388   -2.8457166    638.05631  0.096150741  0.097833253            3 
  554000    1.1633507   -2.8374241    634.98989  0.095515927  0.097824065            2 
  555000     1.155367   -2.8621021    636.96121  0.095639821  0.097814806            1 
  556000    1.1612852   -2.8089114    641.46312  0.096142553  0.097804493            2 
  557000    1.1828022   -2.8621719    640.85334  0.095878717  0.097794925            1 
  558000    1.1599241   -2.8381478    641.26903  0.095768971  0.097785696            2 
  559000    1.1358585   -2.8348065    646.87071  0.096432724  0.097778828            2 
  560000    1.1630041   -2.8648847    643.35084  0.095736732  0.097771639            2 
  561000    1.1664503   -2.8262894    645.15616  0.095834249   0.09776365            4 
  562000    1.1489008   -2.8712766    644.91814  0.095628431   0.09775538            2 
  563000    1.1856719    -2.857465    647.99499  0.095914001  0.097747745            2 
  564000    1.1552533   -2.8527479    644.69085   0.09525574  0.097738581            2 
  565000    1.1721901   -2.8775196    652.70949  0.096269837  0.097730785            1 
  566000     1.170947   -2.8707492    649.55178  0.095634832  0.097723931            2 
  567000    1.1496965   -2.8556154    649.74074  0.095493936  0.097715239            3 
  568000    1.1740203   -2.8805917    652.42995  0.095720357  0.097708088            3 
  569000    1.1637473   -2.8628289    658.88093  0.096496914  0.097701603            1 
  570000    1.1518327   -2.8515663     654.7634  0.095725643  0.097696182            1 
  571000     1.148478   -2.8621939    658.88379  0.096159339  0.097690417            2 
  572000    1.1306804    -2.846011    659.53257  0.096085747  0.097686721            3 
  573000    1.1374441   -2.8661284    660.41437  0.096046302  0.097682852            1 
  574000    1.1922206   -2.8618796    663.56207  0.096335957  0.097679748            4 
  575000     1.161339   -2.8753248    659.69292  0.095607669  0.097673995            3 
  576000    1.1768013   -2.8370844    664.62493  0.096155227  0.097668211            2 
  577000    1.1453218   -2.8481145    660.39959  0.095378334  0.097663068            2 
  578000    1.1522175   -2.8586072    664.14977  0.095754004  0.097657366            3 
  579000    1.1617728    -2.824634      666.871  0.095980282  0.097650666            1 
  580000    1.1487966     -2.86844    665.48609  0.095615817  0.097644612            1 
  581000    1.1575337   -2.8551434    666.87239  0.095650084  0.097638452            1 
  582000    1.1555606    -2.879935    669.34376  0.095839599  0.097628971            2 
  583000    1.1537419   -2.8583056    670.29225  0.095810785  0.097621485            2 
  584000    1.1515145   -2.8256347    670.32416  0.095651278  0.097612397            3 
  585000    1.1625209   -2.8556859    672.96302  0.095863678  0.097603396            1 
  586000    1.1355745   -2.8407954    671.91493  0.095551043   0.09759481            2 
  587000    1.1675653   -2.8215408    675.49927  0.095897114  0.097587055            1 
  588000    1.1341778    -2.872932    675.58589    0.0957463  0.097577479            2 
  589000    1.1465397    -2.840409     676.8888  0.095768082  0.097569222            1 
  590000    1.1701716   -2.8636435    674.07344  0.095208113  0.097559921            1 
  591000    1.1494954   -2.8861659    676.26494  0.095356026  0.097549352            2 
  592000    1.1503118   -2.8631549     678.7097  0.095539091  0.097537863            1 
  593000    1.1475786   -2.8604052    676.39745  0.095053043  0.097526196            1 
  594000     1.163198   -2.8586934    675.43554  0.094758072  0.097513185            1 
  595000    1.1739515   -2.8718161    676.77279  0.094786105    0.0974995            1 
  596000    1.1291044    -2.840462    679.75556  0.095044122  0.097486344            1 
  597000    1.1541598   -2.8423485    681.96999  0.095194024  0.097472076            3 
  598000    1.1464156   -2.8145537     681.4335  0.094960075  0.097457384            3 
  599000    1.1500748   -2.8552096    683.00156  0.095019694  0.097443598            2 
  600000    1.1746146   -2.8598535    684.38812  0.095053906  0.097430188            1 
  601000    1.1584399   -2.8454646    684.87199  0.094962838  0.097415789            5 
  602000    1.1683222   -2.8541679    685.72074  0.094922583  0.097401966            2 
  603000    1.1363383   -2.8760545    686.82599  0.094917909  0.097387477            4 
  604000    1.1650819   -2.8401463    689.51906   0.09513232  0.097374107            3 
  605000    1.1333935   -2.8520588    690.46143   0.09510488  0.097361687            6 
  606000    1.1579329   -2.8691175    692.07551    0.0951699  0.097349389            2 
  607000    1.1391825    -2.842925    692.11135  0.095018033  0.097336242            1 
  608000    1.1678649   -2.8799407     695.5517  0.095333292  0.097322535            5 
  609000    1.1529791    -2.833293     695.0548  0.095108757  0.097310151            2 
  610000    1.1619348   -2.8989718    697.31026  0.095260965  0.097298322            1 
  611000    1.1570779     -2.90874    693.68341  0.094610394  0.097286562            1 
  612000    1.1544974    -2.890831    693.73354  0.094462628  0.097274032            1 
  613000    1.1443885   -2.8678639    699.22053  0.095054449  0.097261627            1 
  614000    1.1570266   -2.8696853    698.44144  0.094793898  0.097246964            1 
  615000    1.1283471   -2.8599961    699.60428  0.094797328  0.097233483            1 
  616000    1.1806597   -2.8816704    700.72953  0.094795661  0.097218225            1 
  617000    1.1358224   -2.8493178    704.04004  0.095089146  0.097201906            2 
  618000    1.1427127   -2.8364787     706.0624  0.095207983  0.097185749            2 
  619000    1.1527092    -2.829968    705.88379  0.095030128  0.097171111            1 
  620000    1.1625909   -2.8802531    704.22749  0.094654232  0.097156591            3 
  621000    1.1334166   -2.8741373    707.87601  0.094991413  0.097142325            2 
  622000    1.1404939   -2.8592609    710.83888  0.095235649  0.097127864            3 
  623000    1.1570754   -2.8713602    707.61458  0.094651495  0.097114131            1 
  624000    1.1329572   -2.8822309    710.11091  0.094833187  0.097098544            1 
  625000     1.131329   -2.8448754    711.34159  0.094845545  0.097084701            2 
  626000    1.1357319   -2.8764302    709.01187  0.094383902  0.097069008            2 
  627000    1.1420445   -2.8674755    712.91818  0.094752549  0.097054612            3 
  628000     1.131256   -2.8746702    713.45359  0.094672716  0.097038653            1 
  629000    1.1890847   -2.8654786    711.60069   0.09427672  0.097022569            2 
  630000    1.1314761   -2.8561623    716.84632  0.094820941  0.097005688            3 
  631000    1.1455623   -2.8726242     715.1711  0.094449432  0.096989534            3 
  632000    1.1276843   -2.8799753    712.43317  0.093938973  0.096971442            3 
  633000    1.1371115   -2.8545303    718.13672  0.094541432   0.09695387            3 
  634000     1.150248   -2.8913608    719.31466  0.094547143  0.096937153            2 
  635000    1.1560965   -2.8505398    721.64862  0.094704543  0.096921174            1 
  636000    1.1712242   -2.8539618    722.42214  0.094656988  0.096905802            3 
  637000    1.1760648   -2.8632167    726.61631  0.095057078  0.096890973            4 
  638000    1.1483497   -2.8802037    720.99561  0.094173931   0.09687683            3 
  639000    1.1411303   -2.8648493    729.08334  0.095081291  0.096861605            2 
  640000    1.1672801   -2.8594718     726.1654  0.094552787  0.096846675            3 
  641000    1.1673673   -2.8791986     727.3771  0.094562805  0.096831314            2 
  642000    1.1520644   -2.8302387    729.33007  0.094669012  0.096817297            2 
  643000    1.1670409   -2.8648539    730.89985  0.094725227  0.096804047            1 
  644000    1.1608637   -2.8543107    728.04649  0.094208915  0.096791194            2 
  645000    1.1339753   -2.8272772    730.65959  0.094400463  0.096776492            2 
  646000    1.1254933   -2.9009682    733.76891  0.094655432  0.096762343            2 
  647000    1.1376347   -2.8702531    733.64675  0.094493399  0.096749412            1 
  648000    1.1438148   -2.8638167     734.8162  0.094497968  0.096735817            2 
  649000    1.1509132   -2.8707784    740.63137  0.095099046  0.096721454            1 
  650000    1.1290408   -2.8552146    736.25476  0.094391636  0.096708306            2 
  651000     1.154119   -2.8533058    736.02863  0.094217694  0.096693796            3 
  652000    1.1332622   -2.8692077    737.05194   0.09420398  0.096678658            2 
  653000    1.1406409     -2.89122    739.32308  0.094349551  0.096664511            1 
  654000    1.1475824   -2.8838292    742.18278  0.094569672  0.096649456            2 
  655000    1.1362983   -2.8950044    739.69126  0.094108302  0.096632884            4 
  656000    1.1404776    -2.870536    739.16519  0.093898017  0.096616585            1 
  657000    1.1382416   -2.8415472    741.93426  0.094106324  0.096599548            3 
  658000    1.1576902   -2.8939274    742.09302  0.093983411  0.096580651            1 
  659000     1.153701   -2.8625712    743.63462  0.094035738  0.096563297            3 
  660000    1.1353802   -2.8605853    746.98068  0.094315742  0.096547068            2 
  661000    1.1517594   -2.8813965    747.21198  0.094202216  0.096531129            1 
  662000    1.1268252   -2.8894121     746.8882   0.09401916  0.096512791            2 
  663000    1.1463355   -2.8638756    748.07268   0.09402623  0.096494456            3 
  664000    1.1594166   -2.8746577    747.53488  0.093817129   0.09647663            3 
  665000    1.1357508   -2.8500446    750.41108  0.094036476   0.09645798            2 
  666000    1.1387695   -2.8658572     751.5303  0.094035323  0.096438517            4 
  667000    1.1309264   -2.8757101    749.51409   0.09364244  0.096419626            1 
  668000    1.1491913   -2.8645574    749.56438  0.093508531  0.096400351            2 
  669000    1.1443631   -2.8617673    750.34091  0.093465485    0.0963815            2 
  670000    1.1356311   -2.8903608    751.95224  0.093526398  0.096361879            3 
  671000    1.1422775   -2.9024318    754.69042  0.093727076  0.096343403            1 
  672000    1.1271656   -2.8606528    755.76822  0.093721257  0.096326262            1 
  673000    1.1671157   -2.8621537    755.11984  0.093501713  0.096307959            4 
  674000       1.1312     -2.85862    761.82304   0.09419177  0.096289974            2 
  675000    1.1404955   -2.8820299    760.11881  0.093841828  0.096272227            2 
  676000    1.1365431   -2.8735688    761.64092  0.093890646  0.096253514            3 
  677000    1.1193939   -2.8418586    762.79685  0.093894246  0.096237356            4 
  678000    1.1362272   -2.8753645    763.97198  0.093900194  0.096219631            1 
  679000    1.1295465   -2.8659904     764.7502  0.093857413  0.096203421            2 
  680000    1.1409487   -2.8827538    768.53529  0.094183246  0.096186117            1 
  681000    1.1398932   -2.8689107    766.92502  0.093847897  0.096167467            2 
  682000    1.1470861   -2.8616242    767.24839  0.093749803  0.096150019            4 
  683000    1.1569965   -2.8984284    768.96222  0.093821647  0.096134777            4 
  684000    1.1738426   -2.8673073    770.86895  0.093916782  0.096117982            3 
  685000    1.1172705   -2.9079564    772.17284  0.093938302  0.096101802            1 
  686000    1.1055369   -2.8585142    769.30716  0.093453251  0.096084738            1 
  687000    1.1432383   -2.8656259    770.88075  0.093508096  0.096067338            2 
  688000    1.1434102   -2.8772367      776.255  0.094023135  0.096051856            2 
  689000    1.1493742   -2.8948358    776.53348  0.093920353  0.096034992            1 
  690000    1.1558386   -2.8586667    773.05637  0.093364295  0.096016524            2 
  691000    1.1802421   -2.8774278    776.90437  0.093693243  0.095998083            1 
  692000    1.1455195   -2.8905464    774.53464  0.093272476  0.095978761            2 
  693000    1.1416726   -2.8588933    774.12398  0.093088502  0.095957559       -1e+20 
  694000    1.0985725   -2.8889879    775.76146  0.093150992  0.095936402            1 
  695000    1.1333763   -2.8851914    779.24406  0.093434539  0.095915897            1 
  696000    1.1249861    -2.884625    776.11997  0.092926242  0.095895719            3 
  697000    1.1063076   -2.8807597    781.77573  0.093469121  0.095875897            1 
  698000     1.138919   -2.8741223    778.58893  0.092954744   0.09585516            2 
  699000    1.1310978   -2.8884832    781.75718  0.093199473  0.095835052            2 
  700000    1.1237698   -2.8734358    782.34987  0.093136889  0.095815713            2 
  701000    1.1532519   -2.8867733    779.11015  0.092618896  0.095794386            1 
  702000    1.1394295   -2.9043253    782.64926  0.092907082  0.095774695            4 
  703000    1.1697375   -2.8881983    789.17568  0.093548563  0.095754712            1 
  704000    1.1490043   -2.8797879    791.26348  0.093662817  0.095736638            1 
  705000    1.1480491   -2.8560877    791.45016  0.093552029   0.09571898            5 
  706000    1.1630189   -2.8582955     790.6222  0.093321789  0.095701062            2 
  707000     1.158038    -2.897458    793.86972  0.093572574  0.095682044            1 
  708000    1.1156929   -2.8771319    793.08873  0.093348486  0.095663411            3 
  709000    1.1328042   -2.8692706    793.23949  0.093234543  0.095644406            2 
  710000    1.1199011   -2.8865441    792.60534  0.093028796  0.095626073            1 
  711000    1.1521057   -2.9320089    794.96802  0.093174874  0.095607194            1 
  712000     1.147994   -2.9192236    794.27805  0.092963255   0.09558955            1 
  713000    1.1459362   -2.8313803    797.15518  0.093169142  0.095571526            2 
  714000    1.1746022   -2.8735803    802.34118  0.093643928  0.095554232            4 
  715000    1.1279848   -2.8918634     802.2854  0.093506457  0.095536976            2 
  716000    1.1076858   -2.8708848    804.84963  0.093674305  0.095520724            2 
  717000    1.1215492   -2.8747078    802.71196  0.093295207  0.095503991            1 
  718000    1.1217378   -2.8821091    802.18476  0.093104081  0.095486611            3 
  719000    1.1359911    -2.874342    803.64444  0.093143768  0.095468238            1 
  720000    1.1408716   -2.8850772    805.87796  0.093272911  0.095449215            2 
  721000    1.1393071    -2.902535    804.33479  0.092965186  0.095429867            2 
  722000    1.1471803    -2.871126     805.2953  0.092947287  0.095409593            2 
  723000    1.1316307   -2.8803665    805.41661  0.092832711  0.095389053            2 
  724000    1.1607133   -2.8933238    805.54362  0.092719109   0.09536967            2 
  725000    1.1315796   -2.8669173    807.82429  0.092853366   0.09535129            1 
  726000    1.1395366   -2.8928768    809.13263  0.092875646  0.095332781            3 
  727000    1.1595115   -2.8841605    811.79998  0.093053642  0.095312576            1 
  728000    1.1362053   -2.8814554    811.38669  0.092878513  0.095292383            3 
  729000    1.1361827   -2.8860431    809.89672  0.092580787  0.095271686            1 
  730000    1.0974579   -2.8914719    814.98044  0.093034296  0.095252241            1 
  731000    1.1439326   -2.8915243    812.95057  0.092675623   0.09523249            2 
  732000    1.1377736   -2.8778542    814.54256  0.092730254  0.095211771            1 
  733000      1.17673   -2.8831675    812.93999  0.092421554  0.095191567            2 
  734000    1.1331451   -2.8907051    817.34527  0.092795784  0.095172201            2 
  735000     1.145674   -2.9015097    819.27541  0.092888368   0.09515207            2 
  736000    1.1362984   -2.8805368      820.315  0.092879868   0.09513277            4 
  737000    1.1440584   -2.8741503    821.83957  0.092926229  0.095113897            2 
  738000    1.1416765   -2.8997026    824.38819  0.093088097  0.095095148            2 
  739000    1.1318022   -2.9020738    820.19737  0.092489555  0.095076229            1 
  740000    1.1262267   -2.8930012     823.5455   0.09274161  0.095057619            4 
  741000    1.1202879   -2.8795777    824.26292  0.092697134  0.095037713            1 
  742000    1.1190873   -2.8672233    821.83481  0.092299507  0.095018162            2 
  743000    1.1209321   -2.9035984    819.56412  0.091920606   0.09499841            2 
  744000     1.143728   -2.8977717    824.05505  0.092300073  0.094977976            4 
  745000    1.1235474   -2.8757571    824.53314  0.092229658  0.094957062            1 
  746000    1.1398142   -2.8712202    828.57053  0.092557029  0.094937676            1 
  747000    1.1346515    -2.893928    830.47924  0.092646055  0.094919033            2 
  748000    1.1373154   -2.8935328    828.06848  0.092253619  0.094899693            1 
  749000    1.1123639   -2.9046255    828.14473  0.092138933  0.094880503            1 
  750000    1.1391276   -2.8989363    828.57028  0.092063364  0.094860519            4 
  751000    1.1393922   -2.8850813    829.61315  0.092056497  0.094841113            1 
  752000    1.1314935   -2.8614487    833.40175  0.092353917  0.094821094            3 
  753000    1.1235314   -2.8716427    839.13188  0.092865413  0.094801849            1 
  754000    1.1179522    -2.889189    838.68063  0.092692378   0.09478147            2 
  755000    1.1470186   -2.8672788    840.26476  0.092744454  0.094761697            2 
  756000     1.124138   -2.9034956     834.4437  0.091980125  0.094741562            1 
  757000    1.1203588   -2.8975261     837.5964   0.09220568  0.094721807            1 
  758000    1.1500989   -2.8886932    840.77132  0.092433083  0.094702499            1 
  759000    1.1266116   -2.9019265    840.77006  0.092311162  0.094682818            2 
  760000    1.1285831   -2.8651599    841.08794  0.092224555  0.094662471            2 
  761000    1.1127571   -2.9073226    839.88777  0.091971941  0.094642149            1 
  762000    1.1259832   -2.9103938    840.50635  0.091918892  0.094622058            1 
  763000    1.1197173   -2.8987154    843.47927  0.092123118  0.094603536            2 
  764000    1.1153714   -2.9038199    845.33477  0.092204927  0.094584518            3 
  765000    1.1431872   -2.9108694    846.47612  0.092208727  0.094564912            4 
  766000    1.1190802   -2.8880408      849.512  0.092418624   0.09454428            2 
  767000    1.1229237   -2.8870495    848.12839  0.092147804  0.094525952            1 
  768000    1.1331255   -2.9017079     848.8507  0.092106195  0.094507122            2 
  769000    1.1255047   -2.8839652    852.95446  0.092431129  0.094487982            2 
  770000    1.1408093    -2.899634    849.37376  0.091923567  0.094470348            2 
  771000    1.1366606     -2.90343    853.48698  0.092248917  0.094451596            3 
  772000    1.1107877   -2.9030101    855.49708  0.092346403  0.094433912            2 
  773000    1.1252085   -2.8998143    859.21965   0.09262825  0.094415664            2 
  774000    1.1212104   -2.9051912     853.3013  0.091871372  0.094397409            1 
  775000    1.1119984   -2.8942768    859.12141  0.092378646  0.094378849            1 
  776000    1.1283701   -2.8933245     859.1922  0.092267204  0.094361704            1 
  777000    1.1323646   -2.9152919    856.57706  0.091867982  0.094344542            2 
  778000    1.1456226   -2.8849761    860.11442  0.092128794  0.094326758            4 
  779000    1.1161961   -2.8826841    864.24805  0.092452722  0.094309547            3 
  780000    1.1208174   -2.9206033    862.56667  0.092154558  0.094292907            2 
  781000    1.1232407   -2.8871685     866.7641  0.092484432  0.094277047            2 
  782000    1.1382529   -2.8831113    866.27836  0.092314403   0.09426051            1 
  783000     1.121383   -2.9058515    865.48487  0.092112055  0.094243497            1 
  784000    1.1008439   -2.9090879    866.97494  0.092152948   0.09422649            1 
  785000    1.1297007   -2.9184414    871.94277  0.092562927   0.09421037            2 
  786000    1.1178534   -2.8711882    869.64758  0.092201821   0.09419308            1 
  787000    1.1380254   -2.8962114    868.11668  0.091922562  0.094175599            2 
  788000    1.1173936   -2.8931614    873.44259  0.092369141  0.094157952            1 
  789000    1.1279357   -2.9030274    870.02859  0.091891486  0.094139668            1 
  790000    1.1217253   -2.8819008    872.57884  0.092044182  0.094121801            1 
  791000    1.1604959   -2.9114325    871.58566  0.091823184  0.094104948            1 
  792000    1.1158084   -2.9248665    872.44806  0.091797986  0.094088003            2 
  793000    1.1174377   -2.9119572    874.11549  0.091857449   0.09407114            2 
  794000    1.1282724   -2.8940546    877.61547  0.092109096   0.09405334            1 
  795000    1.1341833   -2.8949228    881.00315  0.092348338  0.094036969            3 
  796000    1.1374822   -2.9248006    879.77429  0.092103673  0.094021832            1 
  797000    1.1267811   -2.9028395    882.06596  0.092227725  0.094005319            2 
  798000    1.1432881   -2.9040842    882.71986  0.092180436  0.093988879            1 
  799000    1.1343802   -2.9207484    882.57992  0.092050471  0.093972412            1 
  800000    1.1125579   -2.9148415     882.7227  0.091950281  0.093956182            2 
  801000    1.1130996   -2.9271517    880.99206  0.091655437  0.093939234            3 
  802000    1.1387139   -2.8963572    886.47294  0.092110654  0.093923039            1 
  803000    1.1124369   -2.9067636    885.41808  0.091886476  0.093906126            2 
  804000    1.1217612   -2.9194949    885.52671  0.091783449  0.093889375            2 
  805000    1.1125547   -2.9077209    884.03133   0.09151463  0.093872676            3 
  806000    1.1161012   -2.8750737    894.32123  0.092464974  0.093856277            3 
  807000     1.112476   -2.8907496    893.65398  0.092281493  0.093840533            4 
  808000    1.1074228   -2.9260671     894.9845  0.092304507  0.093824696            1 
  809000    1.1118639   -2.8825701    890.43226  0.091721494   0.09380887            3 
  810000    1.1057781   -2.8897808    896.79134  0.092262483  0.093792902            3 
  811000    1.1093209    -2.926849    897.97155  0.092269991  0.093778252            1 
  812000    1.1195269   -2.8881371    901.96319  0.092566008  0.093763152            2 
  813000    1.1098989   -2.9175115    899.16172  0.092164998  0.093748195            1 
  814000    1.1384953   -2.8929017    900.26563  0.092164786  0.093732482            2 
  815000    1.1270771   -2.9124013    898.02207  0.091822298  0.093716849            2 
  816000     1.120175   -2.9126322    901.38937  0.092053652  0.093700916            5 
  817000    1.1421038   -2.9269432     902.2531   0.09202908  0.093686337            3 
  818000    1.1329964   -2.8911837    903.96331  0.092090802  0.093670628            2 
  819000     1.128819   -2.9213288      903.301  0.091910969  0.093655017            2 
  820000    1.1180922   -2.9080931    902.27779  0.091694898  0.093639814            1 
  821000     1.124036   -2.9108658    909.72955  0.092339581  0.093624615            1 
  822000    1.1028947     -2.92712    906.34881   0.09188451  0.093609163            3 
  823000    1.1529426   -2.8870134    910.30268  0.092173216  0.093594045            2 
  824000    1.1142889   -2.9020636    910.79598  0.092111244  0.093579815            1 
  825000     1.128061   -2.9311882    909.31766  0.091850269  0.093564561            4 
  826000    1.1196976   -2.9024126    910.47563  0.091855895   0.09354831            2 
  827000    1.0943922   -2.9224105    913.81829   0.09208165   0.09353265            3 
  828000    1.1094547   -2.8992851    912.03461  0.091790923  0.093516114            1 
  829000    1.1386628   -2.9295025    912.79848  0.091756984  0.093500078            2 
  830000    1.1151468   -2.9140991    914.09535  0.091776641  0.093484872            1 
  831000    1.1110076   -2.8810403    918.47386  0.092105281  0.093468827            4 
  832000    1.1211424   -2.9090725    914.22584  0.091569094  0.093453414            8 
  833000    1.1143633   -2.9128285    915.60957  0.091597596  0.093438014            3 
  834000    1.1295554   -2.8764311    918.35289   0.09176188  0.093422005            1 
  835000    1.1025892   -2.8587443    923.42622  0.092158305  0.093407429            2 
  836000    1.1354665   -2.8880835      917.253  0.091432715   0.09339158            5 
  837000    1.1092225   -2.9084153    920.90377  0.091686954  0.093374709            1 
  838000    1.1240912   -2.9050836    920.70723  0.091557998  0.093358677            1 
  839000    1.1219114    -2.927999    923.04324  0.091680894  0.093341368            2 
  840000    1.1230796   -2.8997297    923.64239  0.091631189  0.093325328            1 
  841000    1.1033218   -2.8847863    924.73622   0.09163062  0.093308847            2 
  842000    1.1170326   -2.9233548    927.43482  0.091788877  0.093292383            5 
  843000    1.1013627   -2.9099179    920.54474  0.090998887  0.093275675            1 
  844000    1.1300347   -2.8948953    926.51524  0.091480573  0.093260046            2 
  845000    1.1157033   -2.9098059     928.9538    0.0916128  0.093244291            3 
  846000    1.1233953    -2.892679    931.47524   0.09175288  0.093229938            3 
  847000    1.1231078   -2.8988406     932.4588  0.091741322  0.093215496            2 
  848000    1.1241213   -2.9084864    932.73539  0.091660318  0.093201951            1 
  849000    1.1024633    -2.919305     935.4594  0.091819729  0.093187838            1 
  850000    1.1202656   -2.8746362    935.87746  0.091752692  0.093174183            2 
  851000    1.1309619   -2.9102523    937.45159   0.09179902  0.093159132            2 
  852000    1.0961994   -2.9221978    936.20438  0.091569286  0.093143959            3 
  853000    1.1051331   -2.8901202    936.36343  0.091477475   0.09312816            2 
  854000    1.1139785   -2.9236246    936.04867  0.091339643  0.093112756            2 
  855000    1.1280144   -2.9067608    941.39154  0.091753561  0.093097453            1 
  856000    1.1172676   -2.9119344    939.70561  0.091482243  0.093082935            1 
  857000    1.1259017   -2.9106177    945.05416  0.091895582  0.093069532            1 
  858000    1.1004721   -2.8844528    945.90719  0.091871328  0.093055765            6 
  859000    1.1419414   -2.9216591     943.5672  0.091537369  0.093042228            2 
  860000    1.1088446   -2.9022855    945.53799  0.091621899  0.093028537            2 
  861000    1.1014221   -2.8689915    949.43614  0.091892774  0.093014775            5 
  862000    1.1266543   -2.9278929     947.0758  0.091557985  0.093001519            2 
  863000    1.1232679   -2.8717495    949.86412  0.091721139  0.092987475            1 
  864000    1.1102846   -2.9343867    952.25958  0.091846025  0.092975131            1 
  865000    1.1150924   -2.9160696    948.71502  0.091398364  0.092962825            2 
  866000    1.0900902   -2.9229076    954.26795   0.09182717  0.092950207            1 
  867000    1.1149894   -2.8681457    952.22361  0.091524761  0.092937169            2 
  868000     1.123986   -2.8958301    958.28611  0.092001355  0.092924612            1 
  869000    1.1045055   -2.8822136    955.45252  0.091623755  0.092911835            1 
  870000    1.1104229   -2.9114161    955.60403  0.091532953  0.092899281            2 
  871000    1.1080109   -2.9275273    958.71544  0.091725549  0.092886598            1 
  872000    1.1081868   -2.9215655    958.30813  0.091581435  0.092874126            3 
  873000     1.115157    -2.915625     964.0023  0.092020074  0.092862473            2 
  874000    1.1120158   -2.8811238    966.54419   0.09215715  0.092850617            1 
  875000    1.1407285   -2.9153211    961.48638  0.091570131  0.092838873            2 
  876000    1.1337221   -2.9265321    967.89238  0.092074998  0.092827502            1 
  877000    1.0995044   -2.9201689    965.14292  0.091708753  0.092816037            3 
  878000     1.114951   -2.8731879    971.05868  0.092165782  0.092804872            3 
  879000    1.1195416   -2.9271341    969.02109  0.091867756  0.092793545            3 
  880000    1.1075438   -2.9025244    970.32339  0.091886685  0.092783126            2 
  881000    1.1211885   -2.9236729     970.6451  0.091812817  0.092771603            2 
  882000    1.0967053   -2.9158423    973.58556  0.091986542  0.092760235            3 
  883000    1.1050574   -2.9081212    971.43597  0.091679498  0.092748022            1 
  884000    1.1188477   -2.9349106    971.19318  0.091552902  0.092735105            1 
  885000    1.1132651   -2.9376211    970.49298   0.09138352   0.09272409            2 
  886000    1.1253995   -2.9442027    972.30112  0.091450444  0.092712487            1 
  887000    1.0761787   -2.9125762    977.61433  0.091846517   0.09270021            1 
  888000    1.1197736   -2.8855654     978.4088  0.091817643  0.092689132            2 
  889000    1.1155295   -2.9375006    974.92807  0.091388083  0.092677942            3 
  890000    1.1069282    -2.931652    979.63986  0.091726579   0.09266745            3 
  891000    1.1196774   -2.9247986     979.1668  0.091579386  0.092656641            3 
  892000    1.0942595    -2.922217    986.63022  0.092173974   0.09264556            1 
  893000    1.0927551   -2.9178311    982.54621  0.091689643  0.092634742            2 
  894000    1.1006486   -2.9148542     983.6905  0.091693745  0.092625064            3 
  895000    1.1217468   -2.9371036    987.63926  0.091958963  0.092613358            1 
  896000    1.1134346   -2.9329728    988.98293    0.0919813  0.092601548            1 
  897000    1.1044926   -2.9277346    989.86003   0.09196024  0.092591343            3 
  898000    1.1033055   -2.9064102    989.97934  0.091868907  0.092580865            2 
  899000     1.112919   -2.8889257    993.09013  0.092055073  0.092570437            2 
  900000    1.0850919   -2.9134132    987.69969  0.091453675  0.092560037            3 
  901000    1.1268424   -2.9131004    990.24629  0.091587708  0.092550159            1 
  902000     1.083139   -2.9410965    991.43037  0.091595563  0.092539766            2 
  903000    1.1072382   -2.9449877    992.28502  0.091572999  0.092529299            1 
  904000    1.1239038   -2.9405515    996.25756  0.091837902  0.092519501            2 
  905000    1.1000751   -2.9259477    995.38249  0.091655846  0.092509111            1 
  906000    1.0995811   -2.9424308    994.22993  0.091448669   0.09249875            3 
  907000    1.1197255   -2.9302346    998.14198  0.091707275  0.092488909            1 
  908000    1.0900645   -2.9311513    1000.8916  0.091858626  0.092480556            2 
  909000     1.107348   -2.9059886    1004.1192  0.092053467   0.09247228            1 
  910000    1.1123562   -2.9174237    1004.1676  0.091956739  0.092464775            1 
  911000    1.0983713   -2.9331383    1002.8534  0.091735582  0.092455907            2 
  912000    1.1018738   -2.9273354    1007.7165  0.092079356  0.092447899            2 
  913000    1.0815162   -2.9118825    1002.8904  0.091538005  0.092440116            2 
  914000    1.1095301   -2.9023045    1008.9088  0.091986583  0.092433058            3 
  915000    1.1025147   -2.9381336    1009.8385  0.091970724  0.092424863            3 
  916000    1.1257603   -2.9526625    1010.9129  0.091968055  0.092416349            3 
  917000     1.121621   -2.9215626    1010.6882  0.091847346  0.092407995            1 
  918000    1.0930097   -2.9089634    1012.4808  0.091910018  0.092399385            2 
  919000    1.1051869     -2.92217    1016.7714  0.092199076  0.092390717            1 
  920000    1.0916765   -2.9215763    1015.0956  0.091947062  0.092383074            3 
  921000    1.1272689   -2.9363495     1017.641  0.092077543  0.092375023            2 
  922000    1.0976785   -2.9137607    1013.0007  0.091558272  0.092366789            2 
  923000    1.1139951   -2.9144366    1014.0411  0.091553004  0.092358159            2 
  924000    1.0703058   -2.9128234    1018.9241  0.091894313  0.092348543            3 
  925000    1.0977996   -2.9265037    1018.2446  0.091733746  0.092338963            1 
  926000    1.1223134    -2.891931    1017.5237  0.091569811  0.092328551            2 
  927000    1.1170898   -2.9537941    1016.7533  0.091401774  0.092320054            2 
  928000    1.1173738    -2.923091    1020.9894  0.091683676  0.092310722            1 
  929000    1.1000505    -2.910661    1023.1574  0.091779457  0.092301738            2 
  930000    1.1142856    -2.892256    1024.9642  0.091842674  0.092292059            1 
  931000    1.1075382   -2.9370066    1028.4116  0.092052595  0.092282618            1 
  932000    1.1082808   -2.9387401    1026.5876  0.091790738  0.092273978            2 
  933000    1.0936933   -2.9256165    1021.8656  0.091270598  0.092264383            3 
  934000    1.0978443   -2.9128784    1033.1838  0.092182705  0.092254148            1 
  935000    1.0915379   -2.9114097    1024.4405  0.091304854  0.092243822            2 
  936000    1.0881779   -2.9378178    1027.9049  0.091515753  0.092234338            2 
  937000    1.1044091   -2.9204651     1029.495    0.0915595  0.092224642            2 
  938000     1.098244   -2.9236388    1030.2523  0.091529167  0.092214929            2 
  939000    1.1103383   -2.9306664    1034.3494  0.091795293  0.092205176            1 
  940000     1.098997   -2.9179809    1027.2826  0.091071152  0.092194659            3 
  941000    1.1121913   -2.9403579    1028.1481  0.091051015  0.092184304            4 
  942000    1.0786822   -2.9194925    1033.5915  0.091435911  0.092173933            3 
  943000    1.1131713   -2.9240852    1036.9438  0.091635185  0.092164067            1 
  944000     1.100366   -2.9281857    1039.4258   0.09175722  0.092155056            3 
  945000    1.0860695   -2.9235102    1040.1922  0.091727711  0.092146098            1 
  946000    1.1066667   -2.9442287    1037.4276  0.091387205  0.092137736            2 
  947000    1.1023424   -2.9248379    1038.2826  0.091365948  0.092127441            3 
  948000    1.1140296    -2.917679    1039.8363  0.091406147  0.092116388            2 
  949000    1.1087271   -2.9405935    1037.3666  0.091092955  0.092106228            7 
  950000    1.1002164   -2.9102528    1041.6882  0.091376156  0.092096225            2 
  951000    1.1011045   -2.9279831    1042.1322  0.091318977  0.092085614            2 
  952000    1.0917266   -2.9449082    1040.6874  0.091096582  0.092074995            2 
  953000    1.0767342   -2.9194206    1039.4157  0.090889797  0.092064093            3 
  954000    1.0831225   -2.9393425    1044.2727  0.091218792  0.092053551            4 
  955000    1.0854491   -2.9250449    1044.2615  0.091122296   0.09204299            1 
  956000    1.0774006   -2.9261229    1046.3367  0.091207874  0.092033162            2 
  957000    1.0955799   -2.9206367    1048.0884  0.091265096  0.092023408            1 
  958000    1.1045139   -2.9403753    1043.6527  0.090783983  0.092013419            1 
  959000    1.0966953   -2.9601518     1046.849  0.090967062  0.092001778            5 
  960000    1.1170774   -2.9092171    1051.9467  0.091314817  0.091990432            2 
  961000    1.1161618   -2.9204551    1049.4228  0.091000941  0.091979539            2 
  962000    1.0881132   -2.9158779    1053.1497  0.091229186  0.091968627            1 
  963000    1.1100929   -2.9373761    1048.7072  0.090750019  0.091957048            1 
  964000    1.0888164    -2.954657    1052.4531  0.090979695  0.091946626            2 
  965000    1.1064882   -2.9389654    1052.4894  0.090888547  0.091934519            2 
  966000    1.1009742   -2.9365228    1049.8257  0.090564678  0.091921057            4 
  967000    1.0861337   -2.9327939    1053.7412  0.090808447  0.091909495            3 
  968000    1.1060694   -2.8941851    1058.2448  0.091102342  0.091897688            2 
  969000    1.0950344   -2.9283074    1052.1944  0.090487997  0.091886194            2 
  970000    1.0858484   -2.9351486    1061.3665   0.09118269   0.09187505            1 
  971000    1.0985607   -2.9566584    1057.7552  0.090778855  0.091864572            2 
  972000     1.110823   -2.9347491    1063.1512  0.091148081  0.091852898            2 
  973000    1.1116899   -2.9566723    1059.9826  0.090783024  0.091841937            2 
  974000    1.0805985   -2.9349992    1059.9575  0.090687667  0.091830137            2 
  975000    1.1077753   -2.9560451    1061.1765  0.090698847  0.091818905            2 
  976000    1.0908286   -2.9483905    1064.0339  0.090849888  0.091806955            3 
  977000    1.1031318   -2.9510987    1063.0552  0.090673421   0.09179424            2 
  978000    1.1147408   -2.9477282    1068.6723  0.091059332  0.091783053            2 
  979000    1.1024281   -2.9463965    1065.9446  0.090734134  0.091771908            2 
  980000    1.1138869    -2.934909    1068.4551  0.090855025  0.091761078            1 
  981000    1.0980628   -2.9587806    1067.1914  0.090655059  0.091749835            3 
  982000    1.1153552   -2.9041526    1068.6148  0.090683534  0.091739116            2 
  983000    1.1085104   -2.9472459    1072.1907  0.090894434  0.091728709            2 
  984000    1.0972422   -2.9255168    1071.7259  0.090762693  0.091718169            1 
  985000    1.0898572   -2.9384487    1075.1691  0.090961855  0.091707924            1 
  986000    1.0778057    -2.954205    1072.9635  0.090683191  0.091697003            2 
  987000     1.090016   -2.9026207    1076.8099  0.090916065   0.09168701            4 
  988000    1.1207794   -2.9073849    1080.9732  0.091175203  0.091677584            1 
  989000    1.0862749    -2.944886     1080.074  0.091007249  0.091667569            1 
  990000    1.0897877   -2.9359268    1081.1718  0.091007724  0.091657253            2 
  991000    1.0865198   -2.9598322    1080.4594  0.090855984  0.091647314            3 
  992000     1.095017   -2.9450635    1085.6146  0.091197464  0.091636427            3 
  993000    1.1056441   -2.9690676    1077.8334  0.090452616  0.091626326            1 
  994000    1.0897466   -2.9577451    1078.7942  0.090442168  0.091615576            2 
  995000    1.0815147   -2.9490923    1083.1115  0.090712858  0.091605519            2 
  996000     1.102979    -2.943554    1084.6922   0.09075403  0.091594837            3 
  997000    1.0748813   -2.9775298    1083.4645  0.090560391   0.09158391            6 
  998000    1.1027297   -2.9439716    1083.6488  0.090485033   0.09157274            2 
  999000     1.095108   -2.9720944    1085.6758  0.090563548  0.091561988            3 
 1000000    1.1066945   -2.9296893    1092.6308  0.091052563   0.09155157            2 
 1001000     1.085725   -2.9527966    1091.3723  0.090856833  0.091541748            1 
 1002000    1.1019372   -2.9330364    1093.0342  0.090904377  0.091531222            2 
 1003000    1.1030148   -2.9399317    1095.3728  0.091008039  0.091521338            2 
 1004000    1.0813848   -2.9426719    1094.9516  0.090882437  0.091511374            4 
 1005000    1.0878471   -2.9207369    1097.1966  0.090978159  0.091501379            2 
 1006000    1.1026297   -2.9434795    1093.8886  0.090613697   0.09149083            3 
 1007000    1.0896996   -2.9597948     1095.975  0.090696375  0.091479686            1 
 1008000    1.0933175   -2.9314084    1097.1202  0.090701079  0.091469465            1 
 1009000     1.060001   -2.9150339    1097.7156  0.090660353  0.091458433            3 
 1010000    1.1016567   -2.9655314    1098.5541  0.090639773  0.091447245            3 
 1011000    1.0660055   -2.9260116    1103.0153  0.090917847  0.091436631            2 
 1012000    1.1001417   -2.9389392    1101.9798  0.090742733   0.09142562            2 
 1013000    1.1021367   -2.8997553    1099.5492  0.090453204   0.09141441            3 
 1014000    1.0982739   -2.9288947    1104.5543   0.09077534  0.091403921            3 
 1015000    1.1022651   -2.9402593       1104.3  0.090665024  0.091393057            3 
 1016000    1.0806756   -2.9382588    1102.7913  0.090452041  0.091381783            2 
 1017000    1.0881667   -2.9280379    1107.0794   0.09071447  0.091370631            2 
 1018000    1.0981245   -2.9126061    1107.5201  0.090661436  0.091360376            2 
 1019000    1.0817292   -2.9317246    1104.8734  0.090356021  0.091349037            3 
 1020000    1.0582977   -2.9270158    1113.9371  0.091007935  0.091337327            2 
 1021000    1.0721387   -2.9467202    1107.3708  0.090382864  0.091327636            1 
 1022000    1.0876626   -2.9478225     1107.716  0.090322568  0.091317022            1 
 1023000     1.061857   -2.9584439    1113.9907  0.090745416  0.091306231            3 
 1024000    1.1031482   -2.9342036    1111.8275  0.090480757  0.091294519            2 
 1025000    1.0873851   -2.9394838    1108.8811  0.090152934  0.091282562            1 
 1026000    1.0974177   -2.9286215    1114.1633  0.090494092  0.091270828            3 
 1027000     1.066814   -2.9431801     1115.389  0.090505441  0.091258535            1 
 1028000    1.1182853   -2.9483266    1112.3618     0.090172  0.091245904            2 
 1029000     1.086417   -2.9534758    1109.7306  0.089871279  0.091234057            3 
 1030000    1.0987569   -2.9462238    1112.4697  0.090005638  0.091221114            2 
 1031000    1.0729296   -2.9252063    1114.1286  0.090052421  0.091208137            2 
 1032000    1.0694015   -2.9436596    1115.6281  0.090086244  0.091195077            3 
 1033000    1.0772158    -2.958468    1106.7507  0.089282887  0.091180913            2 
 1034000    1.0727416    -2.948279    1115.8902  0.089933121  0.091167106            2 
 1035000    1.1038543   -2.9423034    1114.7667  0.089755775   0.09115341            2 
 1036000    1.1094443    -2.939401    1115.8203  0.089753883  0.091139502            2 
 1037000     1.080881    -2.948316    1117.5023  0.089802495  0.091125158            4 
 1038000    1.0790993   -2.9232117    1117.9039  0.089748225  0.091111072            1 
 1039000    1.0855113   -2.9525564    1118.4001  0.089701643  0.091096872            4 
 1040000    1.0860542   -2.9632344    1118.4562  0.089619889  0.091082231            2 
 1041000    1.0804839   -2.9245231    1123.1405  0.089908778  0.091068113            1 
 1042000    1.0898483    -2.938567    1121.0826   0.08965792  0.091054135            1 
 1043000    1.0844844   -2.9219132    1120.3855  0.089516262  0.091039889            1 
 1044000    1.0868043   -2.9251005    1129.3212  0.090143775  0.091025579            1 
 1045000    1.0691769    -2.943481    1121.9384  0.089468772  0.091011335            3 
 1046000    1.0877083   -2.9533786    1123.8018   0.08953169   0.09099736            1 
 1047000    1.0931928   -2.9504832    1121.3734  0.089252896  0.090982692            1 
 1048000    1.0692486   -2.9431716    1129.1027  0.089782343  0.090968189            1 
 1049000    1.1021158   -2.9345736    1129.9428  0.089763486   0.09095397            4 
 1050000    1.0800972   -2.9754335    1132.5011   0.08988104  0.090940291            2 
 1051000    1.1098725   -2.9401053    1132.0109  0.089756649  0.090926077            3 
 1052000    1.1102236   -2.9390704    1133.5753  0.089795252  0.090911969            2 
 1053000    1.0876416   -2.9373336    1131.2035  0.089522278  0.090897957            2 
 1054000    1.0688982    -2.969667    1132.9834  0.089578066  0.090883919            2 
 1055000    1.1018725   -2.9699356     1130.566  0.089302208  0.090869713            1 
 1056000     1.073021   -2.9515413    1133.4667  0.089446554  0.090855876            2 
 1057000     1.107069   -2.9306564    1134.1418  0.089415156  0.090843113            1 
 1058000    1.0642309   -2.9569672    1135.8407  0.089464457  0.090829379            4 
 1059000    1.1002998   -2.9456307    1137.1895  0.089486109  0.090815233            2 
 1060000    1.0932088    -2.960442    1136.9379  0.089381911  0.090800714            4 
 1061000     1.063213    -2.918679    1142.5104  0.089735345  0.090786113            2 
 1062000    1.1089725   -2.9382001    1136.0467  0.089143654  0.090771868            4 
 1063000    1.0561318   -2.9666267    1140.5571  0.089413383  0.090756988            1 
 1064000    1.0754343    -2.923549    1143.7694  0.089580939  0.090742402            1 
 1065000    1.0919988   -2.9497434    1141.5414   0.08932249  0.090728523            1 
 1066000    1.0936451    -2.948312    1139.2775  0.089061717  0.090713127            2 
 1067000    1.0739032    -2.954192    1145.8354  0.089490424  0.090698287            2 
 1068000    1.0805176   -2.9332042    1146.2842  0.089441651  0.090683381            1 
 1069000    1.0907614    -2.950329    1152.7213  0.089859782  0.090669549            3 
 1070000     1.100803    -2.956914      1146.61  0.089299845    0.0906551            2 
 1071000    1.1006106   -2.9746371    1142.3298  0.088883429  0.090640128            2 
 1072000    1.0560986   -2.9630026    1145.1212  0.089017506  0.090625724            2 
 1073000    1.0844613   -2.9582938    1150.5787  0.089358399  0.090611361            4 
 1074000    1.0738932   -2.9458208    1151.8353  0.089372692  0.090597456            7 
 1075000    1.0740304    -2.950268    1154.0093  0.089458089  0.090583093            1 
 1076000    1.0820445   -2.9198422    1150.2866   0.08908663  0.090569008            6 
 1077000    1.0756116   -2.9482989    1156.8251  0.089509835  0.090554766            3 
 1078000    1.0569291   -2.9522493    1150.8842  0.088967551  0.090540709            3 
 1079000    1.0613183   -2.9451986    1155.0069  0.089203496  0.090526655            2 
 1080000    1.1073495   -2.9212639    1157.1624  0.089287219  0.090513108            2 
 1081000     1.090471   -2.9181504    1155.0593  0.089042501  0.090499451            1 
 1082000    1.0742203   -2.9638035    1159.3808   0.08929304  0.090484835            2 
 1083000    1.0474387   -2.9282486    1163.9064   0.08955882  0.090470508            3 
 1084000    1.0906637   -2.9448135    1162.6988  0.089383366  0.090456285            6 
 1085000    1.0855122    -2.955241    1164.8158  0.089463579  0.090442397            1 
 1086000     1.072207    -2.961641    1161.3177  0.089112774  0.090427745            1 
 1087000    1.0799765   -2.9998443    1159.4851  0.088890299  0.090414168            3 
 1088000    1.0638232   -2.9591793    1161.6896  0.088977453  0.090399843            1 
 1089000    1.0995248   -2.9585334    1162.9575  0.088992772  0.090385478            1 
 1090000    1.0773355   -2.9380886    1168.7208  0.089351746  0.090371761            2 
 1091000    1.0752611   -2.9815591    1166.0084  0.089062662  0.090357778            3 
 1092000    1.0622662   -2.9512567    1165.5269  0.088944363  0.090343852            2 
 1093000    1.0913291   -2.9621967    1168.7988  0.089112441  0.090329482            1 
 1094000    1.0522562   -2.9478116    1167.2133  0.088910213  0.090315137            5 
 1095000    1.0988549   -2.9540611    1168.1872  0.088903137  0.090300726            2 
 1096000    1.0877727   -2.9312674    1172.3439  0.089138069  0.090287391            6 
 1097000    1.0680697   -2.9517475    1171.0905  0.088961599  0.090272677            1 
 1098000    1.0922654   -2.9649571    1171.7085  0.088927485  0.090259121            2 
 1099000    1.0625285   -2.9547192    1173.1496  0.088955841  0.090244914            3 
 1100000    1.0720562    -2.942663    1174.4776  0.088975573  0.090231387            1 
 1101000    1.0919843   -2.9659739     1175.891  0.089001737   0.09021821            1 
 1102000    1.0874646   -2.9368394    1177.1309  0.089014738  0.090204548            1 
 1103000     1.092421   -2.9551787    1177.3362  0.088949548  0.090190387            3 
 1104000     1.102974   -2.9430765    1180.8041  0.089130744  0.090176738            2 
 1105000    1.0583976   -2.9472593    1180.6979  0.089042074  0.090164494            1 
 1106000    1.0700157   -2.9480496    1181.0492  0.088988033  0.090150827            1 
 1107000    1.0876176   -2.9756156    1182.7451  0.089035316  0.090136896            3 
 1108000    1.0882475   -2.9378921    1181.0933   0.08883072  0.090123028            3 
 1109000    1.0802423   -2.9739968    1185.7523  0.089100712  0.090109295            3 
 1110000    1.0562302   -2.9662067     1185.386  0.088992944  0.090095678            1 
 1111000    1.0811332   -2.9413937      1185.52  0.088922889  0.090081818            2 
 1112000    1.0784273   -2.9856929    1181.6608  0.088553716  0.090068201            3 
 1113000    1.0756492    -2.967254    1188.0915  0.088955637   0.09005396            5 
 1114000     1.087306    -2.966743     1186.073  0.088724794  0.090040129            2 
 1115000    1.0810222   -2.9521786    1190.8018  0.088998636  0.090026741            1 
 1116000    1.0802471   -2.9402457    1192.7579  0.089064954   0.09001324            4 
 1117000    1.0712988   -2.9553524    1193.3955  0.089032789  0.089999868            7 
 1118000    1.0876343   -2.9546106    1196.9442  0.089217667  0.089986196            3 
 1119000    1.0599452   -2.9401177    1195.2728  0.089013465  0.089972822            2 
 1120000    1.0623207    -2.986978    1196.5309  0.089027598  0.089959255            1 
 1121000    1.0729735   -2.9550535    1196.5204  0.088947398   0.08994547            2 
 1122000    1.0887048    -2.974787    1195.8588  0.088818981  0.089931793            3 
 1123000    1.0865862   -2.9600826    1192.0971  0.088460752  0.089917858            2 
 1124000    1.0688792   -2.9767386    1191.5034  0.088338036  0.089903764            2 
 1125000    1.0418329   -2.9659773    1202.8449  0.089099625    0.0898899            3 
 1126000    1.0892309   -2.9814901    1200.2323  0.088827137  0.089875797            1 
 1127000    1.0852175   -2.9823284    1195.4363  0.088393692  0.089861526            4 
 1128000    1.0667351   -2.9680153    1199.4836  0.088614336  0.089847961            2 
 1129000     1.076857   -2.9523456    1191.5041  0.087946863  0.089834145            2 
 1130000    1.0857939   -2.9832819    1199.6708  0.088471299  0.089820462            4 
 1131000    1.0497876   -2.9701012    1203.9145  0.088705753  0.089806602            2 
 1132000    1.0827196   -2.9636138    1207.1074  0.088862443  0.089792558            3 
 1133000     1.083723   -2.9638199    1210.8461  0.089058997   0.08977925            2 
 1134000     1.078785   -3.0142434    1206.3423  0.088649492  0.089765648            3 
 1135000    1.0497628   -2.9423469    1211.2523  0.088931886  0.089752838            3 
 1136000    1.0466263   -2.9662695    1214.5233  0.089093553  0.089739977            4 
 1137000     1.060298   -2.9676728    1211.7883  0.088814738  0.089726757            2 
 1138000    1.0644853   -2.9674561    1206.4819   0.08834812  0.089713622            4 
 1139000     1.076518   -2.9744338    1213.3201  0.088770862  0.089699451            2 
 1140000    1.0679483   -2.9905742    1209.6722  0.088426333  0.089686129            4 
 1141000    1.0673414   -2.9843517    1212.6677  0.088567606  0.089671747            2 
 1142000    1.0797692   -2.9480524    1213.9228  0.088581643  0.089657296            2 
 1143000    1.0906208   -2.9778875    1213.3473   0.08846218  0.089643189            3 
 1144000    1.0514634   -2.9549646    1214.9334  0.088500394  0.089628745            4 
 1145000    1.0498869   -2.9557074    1214.4447  0.088387531   0.08961419            3 
 1146000    1.0652138    -2.976048    1214.5873  0.088320776  0.089599326            4 
 1147000    1.0437788   -2.9848451     1213.525  0.088166597  0.089584628            2 
 1148000     1.053821   -2.9545572    1218.2798  0.088434947  0.089569945            1 
 1149000    1.0994154   -2.9908194    1214.8354  0.088108168  0.089554908            2 
 1150000    1.0491428   -2.9619677    1215.6732   0.08809226  0.089540651            2 
 1151000      1.05686   -2.9626956    1216.1583   0.08805085  0.089525594            4 
 1152000    1.0879102   -2.9817869    1221.0395  0.088327513  0.089511128            3 
 1153000    1.0601023   -2.9715679    1217.2027  0.087973597  0.089497116            1 
 1154000    1.0675283    -2.964265    1217.1313   0.08789221   0.08948255            4 
 1155000    1.0839233   -2.9732924    1223.5216  0.088277172  0.089467531            2 
 1156000    1.0540465   -2.9697584    1229.1887  0.088609337  0.089453147            3 
 1157000     1.073186   -2.9576167    1223.1001  0.088094217  0.089438395            4 
 1158000    1.0605891   -2.9761914    1223.8748   0.08807389  0.089423343            2 
 1159000    1.0749943   -2.9457944    1228.8267   0.08835395  0.089408859            4 
 1160000    1.0638823   -2.9783372    1222.5594  0.087827546  0.089394841            2 
 1161000    1.0564999   -2.9739505    1223.7937  0.087840493  0.089380404            2 
 1162000     1.097978   -2.9849206    1223.8593  0.087769602  0.089365836            2 
 1163000    1.0564015   -2.9618652    1231.7741  0.088261257  0.089351685            1 
 1164000    1.0458244   -2.9567608    1228.1716  0.087927517  0.089337377            2 
 1165000    1.0656055   -2.9657598    1230.9961  0.088054085  0.089323054            3 
 1166000    1.0607977   -2.9447819    1236.1618  0.088347758  0.089309733            3 
 1167000    1.0643461   -2.9595627    1233.6265  0.088091013   0.08929538            1 
 1168000    1.0703948   -2.9717147    1234.0663   0.08804697  0.089280524            2 
 1169000     1.073242   -2.9956944    1235.3266  0.088061493  0.089265821            2 
 1170000    1.0674596   -2.9724009    1234.5495  0.087930878  0.089251356            4 
 1171000    1.0678183   -3.0012606    1239.4786  0.088206562  0.089237554            1 
 1172000    1.0900953   -2.9684523    1239.9784   0.08816684  0.089223209            2 
 1173000    1.0731988   -2.9488036    1239.9025  0.088086279  0.089209282            3 
 1174000    1.0514012   -2.9712691    1239.4726  0.087980738  0.089195395            4 
 1175000    1.0505978   -2.9758808    1241.9425  0.088081026  0.089180577            3 
 1176000    1.0681358   -2.9916897     1242.587  0.088051802  0.089165975            8 
 1177000    1.0420883   -2.9909635    1238.9236  0.087717615  0.089151837            7 
 1178000    1.0792442   -2.9925075    1249.1265  0.088364918  0.089138175            2 
 1179000    1.0586283    -2.980502    1243.6973  0.087906226  0.089124346            2 
 1180000    1.0733382   -2.9474914    1248.9378  0.088201824   0.08911055            2 
 1181000    1.0651696    -2.960312    1248.4204  0.088090626  0.089097395            4 
 1182000    1.0404242   -2.9737328    1242.4344  0.087594076  0.089083834            3 
 1183000    1.0925187   -2.9745161     1250.214   0.08806805  0.089070968            2 
 1184000    1.0827444   -2.9632999    1254.0013   0.08826023  0.089057694            4 
 1185000    1.0605888   -3.0081862    1250.4937   0.08793908  0.089044183            1 
 1186000    1.0601014    -2.976512    1251.5479  0.087939004  0.089030456            4 
 1187000    1.0634722   -2.9770822    1252.6019  0.087938918  0.089016645            4 
 1188000    1.0470286    -2.971619    1255.5323  0.088070446  0.089003008            2 
 1189000    1.0586495   -2.9471077    1255.5557  0.087998014  0.088989559            1 
 1190000     1.060446    -2.977046    1252.0726  0.087680153  0.088975531            2 
 1191000    1.0740691   -2.9701833    1254.1679  0.087753143  0.088960407            1 
 1192000    1.0821582    -2.983178    1260.0856  0.088093234  0.088945616            6 
 1193000    1.0537331   -2.9549623    1254.9898  0.087663443  0.088931237            4 
 1194000    1.0452553   -2.9839337    1259.9209   0.08793418  0.088917087            2 
 1195000    1.0776804    -2.948745    1256.4233  0.087616688  0.088902207            3 
 1196000    1.0510669   -2.9653636    1260.6385   0.08783713  0.088887882            1 
 1197000    1.0641639   -2.9741586    1257.8239  0.087567805  0.088874158            3 
 1198000    1.0389729   -2.9848663    1262.0321  0.087787427  0.088859673            3 
 1199000    1.0783414   -2.9574195    1254.4482  0.087187116  0.088844886            4 
 1200000    1.0701118   -2.9893496    1258.9013  0.087423705  0.088830118            2 
 1201000    1.0552086    -2.959117    1263.6874     0.087683  0.088815236            1 
 1202000    1.0393831   -2.9847691    1258.8949  0.087277797  0.088800489            1 
 1203000    1.0506247   -2.9817873    1260.4215   0.08731099   0.08878564            3 
 1204000    1.0544066   -2.9761925    1265.0622  0.087559674  0.088771168            1 
 1205000    1.0459379   -2.9588542    1270.7508  0.087880417  0.088756352            2 
 1206000    1.0508972   -3.0052135    1265.6049  0.087451968   0.08874154            2 
 1207000    1.0432468   -2.9843559    1266.0653  0.087411299  0.088726835            2 
 1208000    1.0608026   -2.9472868    1273.6577  0.087862701  0.088712415            4 
 1209000    1.0704112   -2.9753732    1261.6696  0.086963716  0.088697419            1 
 1210000    1.0698058   -2.9539722    1274.9369   0.08780557  0.088681785            3 
 1211000    1.0533818   -2.9801126    1272.2685  0.087549444  0.088666619            3 
 1212000    1.0570334   -2.9901916    1270.4913  0.087355011  0.088650413            2 
 1213000    1.0414737   -2.9762044    1269.6554  0.087225574  0.088634973            2 
 1214000    1.0641907   -2.9904698    1265.2419  0.086850763  0.088619453            1 
 1215000    1.0606004   -2.9977033     1271.301  0.087194855  0.088603584            3 
 1216000    1.0677479   -2.9788102    1276.2802  0.087464376  0.088587755            3 
 1217000     1.065168   -2.9920568    1271.7654   0.08708336  0.088572195            2 
 1218000    1.0358335   -2.9709308    1275.7908  0.087287276  0.088556047            2 
 1219000    1.0688479    -2.960137    1280.9905  0.087571128  0.088540372            2 
 1220000    1.0392513    -2.990434    1275.4059  0.087117891  0.088525518            3 
 1221000    1.0854437   -2.9979054    1273.7705  0.086934926  0.088509336            2 
 1222000    1.0497952    -2.981548    1278.9486  0.087216896  0.088493978            1 
 1223000    1.0282688   -2.9870626    1281.5333  0.087321705  0.088477915            2 
 1224000    1.0597815   -2.9722496    1275.8045   0.08686033  0.088462209            5 
 1225000    1.0517409    -2.984296    1282.4141  0.087239053  0.088446074            1 
 1226000    1.0625084   -2.9791015    1278.6824  0.086914247  0.088429895            3 
 1227000    1.0483414   -3.0171922    1276.7748  0.086713853  0.088414076            3 
 1228000    1.0682799   -3.0080597    1280.5258  0.086897785   0.08839829            3 
 1229000    1.0510021   -2.9625858    1284.1879  0.087075394  0.088383404            3 
 1230000    1.0379916   -2.9970087    1282.6881  0.086902985   0.08836801            3 
 1231000    1.0445238   -2.9650505    1287.9623  0.087189434  0.088352885            5 
 1232000    1.0325158   -2.9691072    1287.7829  0.087106529  0.088337789            1 
 1233000    1.0575749   -2.9900687    1286.6704  0.086960694  0.088323044            2 
 1234000    1.0478794   -2.9930691    1286.3301  0.086867242  0.088308037            2 
 1235000     1.075328   -2.9624966    1290.1489  0.087054584  0.088293319            2 
 1236000    1.0318807   -2.9633698    1289.9908  0.086973489  0.088278914            2 
 1237000    1.0685068   -2.9953957     1294.256  0.087190512  0.088263356            1 
 1238000    1.0602139   -2.9878669     1292.159  0.086978931  0.088248407            1 
 1239000    1.0427417   -2.9894014    1295.7048  0.087147219  0.088233075            2 
 1240000    1.0726125    -3.010595    1296.6209    0.0871385  0.088217486            3 
 1241000    1.0531685    -2.969833    1297.9263  0.087155945  0.088202103            1 
 1242000    1.0740996   -2.9730767    1296.1974  0.086969767  0.088187208            2 
 1243000     1.041794    -2.997125    1294.4717  0.086784105  0.088172478            1 
 1244000    1.0597662   -2.9699312    1294.8032  0.086736546  0.088157707            3 
 1245000    1.0799325   -2.9979358     1299.462  0.086978714  0.088142746            2 
 1246000    1.0434518   -3.0097688    1301.8947  0.087071609  0.088127729            2 
 1247000    1.0649363   -2.9678064    1293.1264  0.086415825  0.088113026            1 
 1248000    1.0362883    -2.958519    1303.9878  0.087071834  0.088098509            2 
 1249000    1.0526898   -2.9977301    1299.9359  0.086731777  0.088083315            5 
 1250000    1.0593575   -2.9750954    1307.3694  0.087157963  0.088068474            2 
 1251000     1.061737    -2.974471    1303.2767  0.086815664   0.08805416            3 
 1252000    1.0236216   -2.9969513    1309.8122  0.087181321   0.08803969            4 
 1253000    1.0344947   -3.0052726    1303.0206  0.086660058  0.088025203            2 
 1254000     1.062281   -3.0080258    1306.1513  0.086798996   0.08801064            2 
 1255000    1.0439373   -2.9966433    1307.0911  0.086792239   0.08799613            1 
 1256000    1.0620219   -2.9798906    1313.4566  0.087145477  0.087980942            2 
 1257000    1.0608913   -2.9859755    1308.3593   0.08673822  0.087966463            3 
 1258000     1.048445   -2.9696921     1314.866  0.087100289  0.087951422            2 
 1259000    1.0522004   -2.9959072    1310.0753  0.086714013  0.087936785            2 
 1260000    1.0483351    -2.988938      1310.34    0.0866627  0.087922492            2 
 1261000    1.0602695   -2.9963233    1313.5456  0.086805815  0.087907385            4 
 1262000    1.0529322   -2.9611978    1310.2722  0.086520878  0.087892409            2 
 1263000    1.0653776   -2.9593589    1312.2688   0.08658411  0.087877159            3 
 1264000    1.0553764   -3.0031087    1316.4121  0.086788775  0.087862487            2 
 1265000     1.035415   -3.0002403    1310.8573  0.086354238  0.087847554            3 
 1266000    1.0521174    -2.945633    1320.9647  0.086951337  0.087832535            3 
 1267000    1.0670469   -2.9953049    1316.4554  0.086586123  0.087817654            2 
 1268000    1.0551055   -2.9796549    1320.5044  0.086783938  0.087802882            3 
 1269000     1.053786   -2.9662743    1319.0192  0.086618018  0.087788193            3 
 1270000    1.0592416   -2.9754741    1322.1187  0.086753198  0.087773189            1 
 1271000    1.0335347   -2.9865581    1318.0916  0.086420905  0.087758317            3 
 1272000    1.0343412   -2.9819197    1321.4175  0.086570856  0.087743478            4 
 1273000    1.0494194    -2.994831    1315.9065  0.086142085  0.087728568            3 
 1274000    1.0280234   -2.9963714     1326.054  0.086738226  0.087713385            1 
 1275000    1.0068588   -2.9966913    1322.8832  0.086462957  0.087697861            2 
 1276000    1.0436142   -2.9903995    1325.2475  0.086549603  0.087683042            3 
 1277000    1.0366901   -2.9880987     1326.228  0.086545808   0.08766743            3 
 1278000     1.055067   -2.9697893    1323.0615  0.086271613  0.087651605            1 
 1279000    1.0392084   -3.0203192    1320.2922   0.08602373  0.087635946            2 
 1280000    1.0401293   -2.9914882    1328.0772  0.086463361  0.087620029            1 
 1281000    1.0544561   -3.0073263    1326.1914  0.086273185  0.087605375            3 
 1282000    1.0875286   -2.9722889    1330.3489  0.086476135  0.087590554            1 
 1283000    1.0575587   -3.0149239    1328.7192  0.086302884  0.087575545            1 
 1284000     1.059736   -2.9888286    1335.1166  0.086650869  0.087560269            1 
 1285000    1.0367689    -2.998391    1326.9076  0.086051076  0.087545174            3 
 1286000     1.062645   -3.0055167    1329.2269  0.086134457  0.087529554            7 
 1287000    1.0378105   -2.9950744     1328.123  0.085996051  0.087513969            3 
 1288000    1.0565208   -3.0023544    1329.1654  0.085996728  0.087497757            2 
 1289000    1.0336629   -2.9724122    1334.1575  0.086252747  0.087481733            2 
 1290000    1.0513418   -3.0156622    1333.0948  0.086117238  0.087466255            3 
 1291000    1.0308877   -2.9884829    1334.2067    0.0861223  0.087450344            2 
 1292000    1.0489652   -3.0077914    1336.1811  0.086182991  0.087434745            1 
 1293000    1.0762325   -2.9977989    1338.1409  0.086242649  0.087419384            2 
 1294000    1.0401761   -2.9885778    1336.4831  0.086069239  0.087404161            1 
 1295000    1.0475939   -3.0027871    1339.0331  0.086166868  0.087388929            2 
 1296000    1.0388575   -3.0029921    1341.3786  0.086251197  0.087373565            2 
 1297000    1.0418505    -2.985519    1340.0406   0.08609873  0.087357965            1 
 1298000    1.0440529   -3.0212799    1337.3208  0.085857784  0.087342285            2 
 1299000    1.0642621   -2.9922166    1343.9864  0.086219296  0.087326596            3 
 1300000    1.0470531   -3.0361951    1342.8747  0.086081711  0.087311437            2 
 1301000    1.0414951   -2.9705969    1341.7184  0.085941482  0.087296431            2 
 1302000    1.0483315   -2.9814308     1344.493  0.086053059  0.087281216            3 
 1303000    1.0429452   -2.9928438    1345.4131   0.08604586  0.087265699            2 
 1304000    1.0489524   -3.0168582    1344.4918  0.085920997  0.087250165            1 
 1305000    1.0719379   -2.9679566    1349.4116  0.086169322  0.087234766            6 
 1306000     1.053749   -3.0240868    1349.8258  0.086129771  0.087219672            2 
 1307000    1.0350639   -2.9942076    1341.5161  0.085534051  0.087204401            1 
 1308000    1.0642067   -2.9648718    1350.3995  0.086034627  0.087189181            1 
 1309000    1.0455879   -3.0345423      1345.35  0.085647444  0.087173428            3 
 1310000    1.0184776   -2.9994769    1346.3109  0.085643188   0.08715745            3 
 1311000    1.0502454   -2.9766252    1347.2167  0.085635436  0.087141986            3 
 1312000    1.0390985   -2.9835459    1353.4703  0.085967369   0.08712679            2 
 1313000    1.0461046   -3.0037388    1356.3533  0.086084878  0.087111422            5 
 1314000    1.0281187   -2.9981671    1352.9442  0.085803157  0.087096285            1 
 1315000    1.0651625   -2.9956359    1358.6355  0.086098572  0.087080836            2 
 1316000    1.0486302   -2.9841248    1352.1103  0.085619951  0.087065353            2 
 1317000    1.0594823   -2.9842382    1353.2828  0.085629133    0.0870495            4 
 1318000    1.0520192   -2.9948322    1352.5834  0.085519942  0.087033155            2 
 1319000    1.0438357   -2.9927643    1352.5183   0.08545099  0.087016587            2 
 1320000    1.0509677   -3.0306555    1352.6873  0.085396928  0.086999565            2 
 1321000    1.0344415   -3.0003423    1351.7603  0.085273803  0.086983861            2 
 1322000    1.0253177   -3.0286554    1355.2619  0.085430025  0.086967504            4 
 1323000    1.0528841   -3.0419743    1355.4475  0.085377144  0.086951049            4 
 1324000    1.0393189   -2.9938142    1358.6163  0.085512102  0.086934829            3 
 1325000    1.0370148   -3.0146951    1362.7443  0.085707186  0.086918744            2 
 1326000    1.0458776   -3.0205573    1359.7489  0.085454308   0.08690272            4 
 1327000    1.0675507   -3.0070788    1361.3555  0.085490801  0.086886454            2 
 1328000    1.0240668   -3.0008706    1364.0352  0.085594577  0.086870773            1 
 1329000    1.0381012   -2.9474349    1364.4399   0.08555555   0.08685481            4 
 1330000    1.0392673   -3.0248509    1361.3145  0.085295394  0.086838743            2 
 1331000    1.0520175   -3.0103975    1358.2308  0.085038244  0.086822596            2 
 1332000    1.0415738   -3.0331468    1364.6692  0.085377204  0.086806873            2 
 1333000    1.0395041   -3.0020026    1376.4711  0.086050954  0.086791807            4 
 1334000    1.0573686   -3.0306959    1365.4469   0.08529778  0.086776756            3 
 1335000    1.0269949   -3.0457672    1364.2284  0.085157828  0.086761007            2 
 1336000    1.0248505   -2.9931484    1371.3861  0.085540549  0.086745385            3 
 1337000    1.0280057   -3.0162125    1378.7421   0.08593506  0.086729899            2 
 1338000    1.0266432   -3.0091817     1375.573  0.085673455  0.086714427            2 
 1339000     1.060459   -3.0081982    1379.3075  0.085841893   0.08669923            5 
 1340000    1.0215192    -2.985226    1380.1814  0.085832178  0.086684521            2 
 1341000    1.0252544   -2.9742446    1380.4382   0.08578413  0.086669701            3 
 1342000    1.0698483   -2.9720587    1387.2226  0.086141495  0.086655094            3 
 1343000    1.0321752   -3.0168074    1374.7858  0.085305646  0.086640086            3 
 1344000    1.0238098    -3.004281    1378.2469  0.085456777  0.086625088            2 
 1345000      1.04136   -2.9912656    1382.7699  0.085673478  0.086610245            3 
 1346000    1.0425689   -3.0038968    1382.2553  0.085577968  0.086595531            3 
 1347000    1.0750998   -2.9913222    1381.7555  0.085483512  0.086581469            3 
 1348000    1.0543723   -3.0126146     1385.828  0.085671862  0.086566371            5 
 1349000    1.0368917   -3.0421642    1383.6468  0.085473611  0.086551973            3 
 1350000    1.0440907   -2.9757569    1388.2013   0.08569144   0.08653761            2 
 1351000    1.0303204   -2.9914647    1385.1575  0.085440263  0.086522812            1 
 1352000    1.0619117   -2.9895192    1392.4765  0.085828184  0.086508824            3 
 1353000    1.0462581   -3.0152157    1391.3117  0.085693008   0.08649421            2 
 1354000    1.0275917   -3.0099731    1387.0156  0.085365311  0.086480136            5 
 1355000     1.050359   -3.0087021    1384.8016  0.085166153  0.086465297            1 
 1356000    1.0449908     -2.97173    1392.2129  0.085558806  0.086450516            2 
 1357000    1.0398928   -3.0537129    1388.4229  0.085263013  0.086435733            2 
 1358000    1.0531749   -2.9856162    1392.7654  0.085466705  0.086420912            4 
 1359000    1.0317342   -3.0001334    1393.4343  0.085444832  0.086406023            4 
 1360000    1.0371221   -2.9913097    1393.5799  0.085390927  0.086391184            1 
 1361000    1.0418674   -2.9916683    1392.7591  0.085277929  0.086376479            3 
 1362000    1.0205048   -2.9965285    1398.1768  0.085546792  0.086361625            3 
 1363000    1.0264024   -2.9812365    1399.5543   0.08556825   0.08634742            2 
 1364000    1.0236722   -3.0114356    1400.7316  0.085577444  0.086332804            2 
 1365000    1.0388947   -3.0221721    1398.0038  0.085348216  0.086318587            1 
 1366000    1.0168567   -3.0113152    1404.5333  0.085684069   0.08630402            2 
 1367000    1.0507037   -3.0071544    1399.4227  0.085309846  0.086289599            1 
 1368000    1.0260171   -3.0207087     1406.219  0.085661486  0.086275502            1 
 1369000    1.0405358   -3.0183249    1395.5103  0.084947062  0.086261122            2 
 1370000    1.0285519   -3.0210734    1397.5243  0.085007559  0.086246319            3 
 1371000    1.0333695        -3.02     1402.825  0.085267746  0.086231937            1 
 1372000     1.033548   -3.0034666    1401.9669  0.085153478  0.086217219            1 
 1373000    1.0275866   -3.0166128    1400.0682   0.08497622  0.086203142            3 
 1374000    1.0496669   -2.9910263    1409.7701  0.085502798  0.086189028            1 
 1375000    1.0212057   -3.0065501    1407.6853  0.085314259   0.08617551            4 
 1376000    1.0192563   -3.0078122    1407.6993  0.085253108   0.08616133            2 
 1377000    1.0081399   -2.9995063    1412.7799  0.085498663  0.086146879            2 
 1378000    1.0377306   -3.0270945    1406.5623  0.085060612  0.086132556            2 
 1379000    1.0407247   -3.0025346    1407.8803  0.085078579  0.086118187            2 
 1380000    1.0028766   -3.0278924    1406.2133   0.08491626   0.08610352            4 
 1381000    1.0299693   -2.9897009    1410.6763  0.085124081  0.086088676            3 
 1382000    1.0277703   -3.0017595    1408.2341  0.084915226  0.086074628            3 
 1383000    1.0343617   -3.0333976    1410.4632  0.084988139  0.086060352            1 
 1384000     1.039411   -3.0138382    1411.8106  0.085007862  0.086045633            1 
 1385000    1.0320793   -3.0248224     1413.607  0.085054576  0.086031464            2 
 1386000    1.0325469   -3.0188951    1413.1483  0.084965626   0.08601661            2 
 1387000    1.0222417   -3.0113066    1416.6643  0.085115613  0.086001614            2 
 1388000    1.0301124   -3.0392139    1415.0101  0.084954978  0.085986898            4 
 1389000    1.0154762   -3.0115608    1413.9484  0.084830116   0.08597253            3 
 1390000    1.0196177   -2.9988969    1417.7906  0.084999435  0.085958248            3 
 1391000    1.0194873   -3.0241922     1414.898  0.084765039  0.085943734            4 
 1392000    1.0149853   -2.9908743    1417.7019  0.084871999  0.085929332            2 
 1393000    1.0175955   -3.0323337    1423.5963  0.085163695  0.085915433            1 
 1394000    1.0297101   -3.0288842    1419.0143   0.08482869   0.08590083            5 
 1395000     1.043002   -3.0055012    1431.1311  0.085491703   0.08588639            2 
 1396000    1.0252339   -2.9948798    1427.5611  0.085217351  0.085871553            3 
 1397000    1.0334028   -3.0045334    1417.9692  0.084584179  0.085856948            2 
 1398000    1.0323229   -3.0082875    1421.8536   0.08475522  0.085842049            1 
 1399000    1.0284254   -3.0178077     1427.372  0.085023353  0.085827369            2 
 1400000    1.0054962   -3.0006294    1428.2919  0.085017374  0.085812572            2 
 1401000    1.0552472   -3.0020597     1423.736  0.084685701  0.085797996            1 
 1402000   0.99883653   -3.0109237     1425.279   0.08471701  0.085783523            2 
 1403000    1.0115792   -3.0149209    1427.4442  0.084785236   0.08576908            4 
 1404000   0.99148914   -3.0146737    1429.4196  0.084842096  0.085755303            1 
 1405000    1.0368518   -3.0409071    1432.7395   0.08497862  0.085741129            2 
 1406000    1.0216054   -3.0310436    1433.1489  0.084942441  0.085727304            5 
 1407000    1.0328848    -3.029236    1434.4648  0.084960007  0.085713204            2 
 1408000    1.0386807   -3.0010066    1434.8153  0.084920411  0.085698636            2 
 1409000    1.0294643   -3.0429427    1426.0786  0.084343423  0.085684019            2 
 1410000    1.0406862    -3.012992      1429.74  0.084500001  0.085669947            4 
 1411000    1.0125275   -3.0156007    1437.8534  0.084919288  0.085655301            1 
 1412000    1.0180123    -2.995182    1435.0044  0.084691005  0.085640959            2 
 1413000    1.0251754   -3.0011083    1440.9638  0.084982532  0.085627033            1 
 1414000    1.0283089   -3.0294681     1431.497  0.084364507   0.08561251            1 
 1415000    1.0298319   -3.0218786    1434.7512  0.084496535    0.0855979            3 
 1416000    1.0061348   -3.0206881    1434.1145  0.084399393  0.085583876            2 
 1417000    1.0339592   -3.0320905    1441.7198  0.084787097  0.085569686            2 
 1418000    1.0325724   -3.0023327    1442.5969  0.084778847  0.085555744            2 
 1419000    1.0382596   -3.0347845    1439.2919   0.08452501  0.085541912            4 
 1420000    0.9957523   -3.0341285    1447.6798  0.084957732   0.08552808            3 
 1421000    1.0597388   -3.0089469     1447.595  0.084892974  0.085514621            3 
 1422000    1.0184316   -2.9979743    1444.4743  0.084650393  0.085501141            2 
 1423000    1.0343432   -3.0098656     1449.208  0.084868117  0.085487385            4 
 1424000    1.0450807   -3.0086009    1452.1492   0.08498064  0.085473938            3 
 1425000    1.0290513    -3.036303    1444.9291   0.08449878  0.085460257            2 
 1426000    1.0050129   -3.0177635    1448.2291  0.084632371  0.085446724            7 
 1427000    1.0351565   -3.0171882    1450.5986  0.084711434  0.085433383            3 
 1428000    1.0078998   -3.0272871    1448.0922  0.084505845  0.085420066            3 
 1429000    1.0210939   -3.0361936    1456.1546  0.084916877  0.085406128            3 
 1430000    1.0221752   -3.0311607    1447.4596   0.08435079  0.085391933            1 
 1431000    1.0228527   -3.0382414    1452.3371  0.084575888  0.085377967            2 
 1432000    1.0267837   -3.0245388    1454.6018  0.084648614  0.085363967            1 
 1433000     1.015893   -3.0089843    1457.5248  0.084759524  0.085350577            1 
 1434000    1.0305466    -3.052449     1454.469   0.08452284  0.085337346            1 
 1435000    1.0305688   -3.0044193     1454.574  0.084470035  0.085324119            2 
 1436000    1.0423114   -3.0462898    1451.7001  0.084244434  0.085310569            4 
 1437000    1.0309538   -3.0215777    1461.1607  0.084734438  0.085297587            3 
 1438000   0.98745759   -3.0360714     1458.523   0.08452266  0.085284134            4 
 1439000    1.0226825   -3.0106011    1463.8546   0.08477268  0.085271148            3 
 1440000    1.0334683   -3.0343607    1464.0122  0.084722926   0.08525779            2 
 1441000    1.0161446   -3.0505585    1467.0575  0.084840242  0.085244462            4 
 1442000    1.0260214   -3.0274445    1461.6983    0.0844717  0.085230859            1 
 1443000     1.014566    -2.995498    1464.9333  0.084599986  0.085217172            6 
 1444000    1.0218001   -3.0351037    1464.4896  0.084515792  0.085203774            1 
 1445000    1.0035341    -3.036252    1463.8474  0.084420267  0.085189743            3 
 1446000   0.99977682   -2.9944179    1467.7235  0.084585263  0.085175945            2 
 1447000   0.99667319   -3.0091871    1466.3119  0.084445514  0.085162468            3 
 1448000    1.0075178   -3.0198245    1467.2223  0.084439591  0.085148347            2 
 1449000    1.0394541   -3.0384666    1465.5819  0.084286975  0.085134661            3 
 1450000    1.0206444   -3.0283321    1468.3642  0.084388748  0.085120578            2 
 1451000    1.0157058   -3.0348529    1468.4555  0.084335833  0.085107058            2 
 1452000      1.01249    -3.003696    1469.1903  0.084319923  0.085093586            1 
 1453000    1.0187946   -3.0415344    1469.3386  0.084270397  0.085080269            3 
 1454000    1.0232622   -3.0080105    1476.1727  0.084604122  0.085066915            1 
 1455000    1.0164336   -3.0148382    1472.4127  0.084330625  0.085054044            2 
 1456000    1.0256143   -3.0061811      1485.21  0.085005153  0.085040777            1 
 1457000    1.0106707   -3.0020906    1479.3549  0.084611925  0.085027632            2 
 1458000    1.0294311   -3.0187887    1476.7453  0.084404738  0.085014628            2 
 1459000    1.0245677   -3.0281768    1479.6033  0.084510128  0.085001104            2 
 1460000    1.0062314   -3.0398027    1480.0811  0.084479513  0.084988104            4 
 1461000    1.0288229   -3.0380636    1476.5865  0.084222364  0.084975139            3 
 1462000    1.0092178   -3.0311367    1475.4217  0.084098365  0.084962027            2 
 1463000    1.0128265   -3.0258938    1486.9411  0.084697032    0.0849491            2 
 1464000   0.99472673   -3.0083787    1481.9407  0.084354547  0.084935926            2 
 1465000    1.0253279   -3.0410241    1480.2904  0.084203096  0.084922797            2 
 1466000    1.0031516   -3.0428364    1479.8984  0.084123374  0.084909587            2 
 1467000    1.0175088   -3.0277946    1484.4392  0.084323971  0.084896437            2 
 1468000    1.0199356   -3.0421374    1490.0306  0.084583934  0.084883629            1 
 1469000    1.0157646   -3.0293691    1488.3359  0.084430217  0.084871033            3 
 1470000     1.023001   -3.0213048    1486.5997  0.084274358  0.084857998            5 
 1471000    1.0251488   -3.0308051    1487.5889   0.08427311  0.084844815            1 
 1472000    1.0089964   -3.0270886    1490.0708  0.084356363  0.084831754            3 
 1473000    1.0372227   -3.0261632    1489.5864   0.08427169  0.084819082            1 
 1474000    1.0426319    -3.040014    1491.6799  0.084332876  0.084806546            2 
 1475000    1.0228331   -3.0747779    1486.4038  0.083977616  0.084794252            5 
 1476000    1.0126905   -3.0444503    1494.4756  0.084376445  0.084781347            2 
 1477000    1.0256502   -3.0101333    1498.7029  0.084557826  0.084768432            4 
 1478000    1.0105917   -3.0147042    1494.7219  0.084276156  0.084755638            3 
 1479000    1.0371727   -3.0316925      1500.12  0.084523325  0.084742961            3 
 1480000    1.0251352   -3.0166308    1494.4846  0.084148906   0.08473033            2 
 1481000   0.98614622   -3.0035598    1499.4758  0.084372937  0.084717663            3 
 1482000    1.0115092   -3.0128446    1493.3351  0.083970712  0.084704583            3 
 1483000    1.0141502   -2.9959979    1496.3621   0.08408418  0.084691275            2 
 1484000   0.99860192   -3.0342193    1502.0591  0.084347433  0.084678373            2 
 1485000    1.0282932    -3.067053    1486.2605  0.083404068  0.084664834            2 
 1486000    1.0109533   -3.0074963     1497.757  0.083992656  0.084651678            1 
 1487000    1.0083067   -3.0204354    1500.4425  0.084086665  0.084638095            2 
 1488000   0.98998734   -3.0426479    1499.2248   0.08396196  0.084624346            2 
 1489000    1.0247124   -3.0062683    1498.8776  0.083886144  0.084610884            4 
 1490000    1.0030004   -3.0231939    1505.9035   0.08422279  0.084597689            3 
 1491000    1.0189049   -3.0566361    1502.0068  0.083948514  0.084584426            2 
 1492000   0.98699364    -3.039531    1501.8348  0.083882639  0.084571559            2 
 1493000     1.023025   -3.0134207    1509.6776  0.084264212  0.084558283            3 
 1494000    0.9957603   -3.0342763    1504.4179  0.083914431  0.084545511            1 
 1495000    1.0015616   -3.0537661    1506.5406  0.083976624   0.08453237            2 
 1496000    1.0140864   -3.0441359    1507.3625  0.083966272  0.084519334            3 
 1497000    1.0126089   -3.0477645    1512.5962  0.084201526  0.084506607            3 
 1498000    1.0142445   -3.0670347    1504.4735  0.083693455  0.084494027            2 
 1499000    0.9962574   -3.0439658     1505.729  0.083707415  0.084480942            3 
 1500000   0.96942481   -3.0292187    1518.8566  0.084380923  0.084467467            4 
 1501000    1.0380152   -3.0229939    1512.7879  0.083987779   0.08445465            2 
 1502000    1.0224074   -3.0129331    1509.1871  0.083732085  0.084441778            2 
 1503000    1.0392612   -3.0282184    1515.1874   0.08400906  0.084429212            2 
 1504000    1.0102912   -3.0156827    1511.2537  0.083735244  0.084416529            2 
 1505000    1.0082937   -3.0390644    1515.0388  0.083889192  0.084403516            2 
 1506000    1.0180079   -3.0275905    1516.0032  0.083886854  0.084390636            2 
 1507000    1.0203324   -3.0399926    1515.9571  0.083828637  0.084377987            2 
 1508000    1.0228031   -3.0082461     1518.555  0.083916609  0.084365435            4 
 1509000    1.0150077   -3.0452451     1519.809  0.083930253   0.08435317            2 
 1510000    1.0155934   -3.0639892    1519.3438  0.083848996  0.084340108            2 
 1511000   0.99974631   -3.0588767    1515.7688   0.08359634    0.0843275            2 
 1512000    0.9872946    -3.045347    1518.0153  0.083664865  0.084314559            7 
 1513000     1.002084   -3.0375083    1529.3953  0.084236355  0.084302226            1 
 1514000    1.0064812   -3.0405247    1519.9306  0.083659763   0.08428947            2 
 1515000    1.0112798   -3.0308156    1520.7121  0.083647528  0.084277058            1 
 1516000    1.0373687   -3.0070758    1529.2118  0.084059578  0.084264274            2 
 1517000   0.99860689   -3.0424753    1527.4549  0.083907652  0.084251553            1 
 1518000     1.012734   -3.0378539     1529.117  0.083943619  0.084238969            3 
 1519000    1.0105424    -3.033093    1529.6032   0.08391503  0.084226806            5 
 1520000   0.98157724   -3.0431224    1528.0005   0.08377196  0.084214042            3 
 1521000    1.0229312   -3.0351623    1523.4704  0.083468682  0.084201137            2 
 1522000    1.0365221   -3.0491073    1534.3296  0.084008411  0.084188529            2 
 1523000    1.0105257   -3.0344841    1529.0831  0.083666182  0.084175972            6 
 1524000    1.0202513   -3.0259915    1531.9231  0.083766574  0.084163423            3 
 1525000    1.0045219   -3.0384903    1527.0892  0.083447499  0.084150843            6 
 1526000    1.0149067   -3.0737244    1535.1739  0.083834309  0.084138303            2 
 1527000      1.02359   -3.0411296    1537.5115   0.08390698  0.084125848            2 
 1528000    1.0108302   -3.0089417    1536.6863  0.083807065  0.084113498            2 
 1529000     1.028611   -3.0218526    1525.6305   0.08314969  0.084101251            3 
 1530000   0.98991318   -3.0321296    1537.5837  0.083746391  0.084088487            1 
 1531000    1.0061211   -3.0617348    1531.8188  0.083377903  0.084075194            3 
 1532000    1.0004687    -3.034226    1536.4895  0.083577542  0.084062336            3 
 1533000   0.99189573   -3.0160722    1538.6025  0.083637883  0.084049675            4 
 1534000   0.99075879   -3.0351213    1538.1439  0.083558448   0.08403687            2 
 1535000   0.99508029    -3.066755    1538.5538  0.083526266  0.084024022            4 
 1536000   0.97998122   -3.0405347     1532.421  0.083139158  0.084011131            4 
 1537000    1.0114343   -3.0443359    1529.3315  0.082917559  0.083997475            3 
 1538000   0.99996448   -3.0246671     1543.028  0.083605763  0.083984007            2 
 1539000   0.99938827   -3.0199211    1545.9688  0.083710679  0.083970839            2 
 1540000    0.9959881   -3.0507715    1536.9112  0.083166193  0.083957865            2 
 1541000    1.0038805   -3.0461221    1538.4296  0.083194335  0.083944964            1 
 1542000    1.0066597    -3.047033    1545.9171  0.083545023  0.083932089            2 
 1543000   0.98763373   -3.0391454    1540.9744  0.083223935   0.08391913            2 
 1544000      1.01428   -3.0481709    1547.3782  0.083515663   0.08390573            3 
 1545000    1.0166204   -3.0443002    1546.5094  0.083414745  0.083892249            3 
 1546000    1.0021794   -3.0453109    1539.8061  0.082999465  0.083878981            2 
 1547000    1.0040604   -3.0218415    1554.4449  0.083734373  0.083865803            3 
 1548000   0.99941122   -3.0430953    1541.8854  0.083004168  0.083852976            4 
 1549000    1.0049757   -3.0459412     1544.861  0.083110663  0.083839601            1 
 1550000   0.99580943   -3.0317476    1555.7967  0.083644984  0.083826658            4 
 1551000    1.0027967   -3.0435781    1547.1771  0.083127931   0.08381357            2 
 1552000   0.99092253   -3.0134765    1547.2899  0.083080428  0.083800164            3 
 1553000   0.99294615   -3.0225513    1548.5223   0.08309306  0.083786402            2 
 1554000    1.0208569   -3.0431965    1546.7356   0.08294378  0.083772929            2 
 1555000   0.98791804   -3.0410924     1550.852   0.08311104  0.083759479            3 
 1556000    1.0059869   -3.0334118    1546.5616  0.082827847  0.083746169            2 
 1557000   0.98720589   -3.0627571    1549.6594   0.08294045  0.083732264            3 
 1558000    1.0040835   -3.0710327    1553.3967  0.083087116  0.083718389            2 
 1559000      1.00219   -3.0379117    1546.8416  0.082683427  0.083704568            1 
 1560000    1.0089082    -3.061106    1554.9886  0.083065631  0.083690769            3 
 1561000    1.0055676   -3.0302396    1556.3293  0.083083989  0.083676871            1 
 1562000    1.0102625    -3.051133     1555.956  0.083010882  0.083663033            2 
 1563000     1.010236   -3.0407551     1558.658  0.083101836  0.083649178            3 
 1564000   0.97881045   -3.0360007    1552.6557  0.082728882  0.083635208            3 
 1565000    1.0164113    -3.055262    1558.3711  0.082980354  0.083621775            1 
 1566000    1.0032482   -3.0769805    1560.6565  0.083048982  0.083608005            4 
 1567000    1.0042054   -3.0386718    1552.5187  0.082563216    0.0835938            2 
 1568000    1.0151405   -3.0579192    1557.8901   0.08279603  0.083579512            4 
 1569000    1.0018556   -3.0624491    1560.8945  0.082902832  0.083565439            3 
 1570000    1.0107869    -3.044012    1553.5203  0.082458614  0.083551176            3 
 1571000    1.0065059    -3.057301    1552.8242    0.0823692  0.083537362            7 
 1572000   0.98685713   -3.0638596    1560.5139  0.082724445  0.083523324            2 
 1573000   0.98174961   -3.0705401    1567.0403  0.083017604  0.083509421            1 
 1574000    1.0033133   -3.0580335    1560.6164  0.082624757  0.083495627            1 
 1575000    0.9972583   -3.0384679    1569.0732  0.083019744  0.083481919            3 
 1576000    1.0102088   -3.0385778    1562.2717   0.08260743  0.083468566            2 
 1577000    1.0045435   -3.0851878    1564.4286  0.082669024   0.08345469            2 
 1578000    1.0261651   -3.0226702     1564.611  0.082626265  0.083440913            4 
 1579000   0.99757393   -3.0740858    1568.1991  0.082763305  0.083426881            2 
 1580000    1.0118226   -3.0503298    1568.2559  0.082713917  0.083413245            2 
 1581000   0.98152988   -3.0813724    1562.3039  0.082347878  0.083399303            1 
 1582000   0.98293394   -3.0597492    1570.8115  0.082743966  0.083385218            5 
 1583000   0.99234564   -3.0454079    1573.0748  0.082810843  0.083371425            2 
 1584000     1.005749   -3.0645958     1567.994  0.082491265  0.083357873            2 
 1585000    0.9961475   -3.0830066    1569.9454  0.082541817   0.08334371            2 
 1586000    1.0138094   -3.0561551    1569.6441  0.082473944  0.083329773            3 
 1587000    1.0112114   -3.0496608    1570.8901  0.082487404  0.083315474            1 
 1588000   0.99973233   -3.0723015    1569.4981   0.08236241  0.083301353            3 
 1589000    1.0191432   -3.0623043    1572.1383   0.08244904   0.08328676            2 
 1590000   0.97246318   -3.0584946     1573.606   0.08247411  0.083272466            4 
 1591000    1.0240768   -3.0442269    1576.4749  0.082572538  0.083258218            4 
 1592000   0.98452854    -3.074469    1571.3735  0.082253639  0.083243923            4 
 1593000    1.0046308   -3.0424162    1571.6743   0.08221774  0.083229401            2 
 1594000   0.99388208   -3.0378271    1572.3907  0.082203615  0.083214918            5 
 1595000    0.9745621   -3.0481994    1573.2198  0.082195393  0.083199928            2 
 1596000    1.0117345   -3.0654352    1574.9669  0.082235113  0.083184933            4 
 1597000    0.9976553   -3.0359751    1574.4918  0.082158831  0.083169845            2 
 1598000     1.010806   -3.0615424    1574.4105  0.082103177  0.083154949            2 
 1599000   0.99243468     -3.05758    1578.3286  0.082256026  0.083140382            4 
 1600000   0.98149432   -3.0636362    1581.4178  0.082365509  0.083125789            2 
 1601000    1.0019004   -3.0252854    1577.2597  0.082097633  0.083111545            3 
 1602000   0.99417544   -3.0965297    1581.2684  0.082254912  0.083096815            2 
 1603000   0.98865256   -3.0517697    1580.6094  0.082169337  0.083082133            3 
 1604000    1.0008042   -3.0403276    1580.9816  0.082137449  0.083067597            2 
 1605000   0.98393361   -3.0630915    1580.4878  0.082060634   0.08305323            2 
 1606000   0.98842377   -3.0288513    1579.0084  0.081932771  0.083038816            1 
 1607000    0.9835604   -3.0592901     1585.222  0.082204001  0.083024602            1 
 1608000    1.0182755   -3.0657293    1589.6422  0.082381956  0.083010573            2 
 1609000   0.98490561   -3.0678497    1585.0089  0.082090784  0.082996344            2 
 1610000   0.98619855   -3.0555306    1589.8632  0.082291054  0.082981749            2 
 1611000   0.98627675   -3.0396482    1590.3893  0.082267187  0.082966997            2 
 1612000   0.99086358   -3.0527686    1586.2378   0.08200154  0.082952614            2 
 1613000   0.99561048   -3.0603304    1590.3888   0.08216516  0.082938055            6 
 1614000   0.97731964   -3.0811048    1580.8243   0.08162042  0.082922923            3 
 1615000    0.9888906   -3.0530422    1585.3104  0.081801364  0.082908033            2 
 1616000    1.0115935   -3.0686338    1584.2528  0.081696203  0.082892777            5 
 1617000    1.0056174   -3.0756205    1585.6384  0.081717091  0.082877447            2 
 1618000   0.99933419   -3.0984144     1587.856  0.081780799  0.082861978            4 
 1619000   0.98259387   -3.0581619    1585.9328  0.081631294  0.082847033            3 
 1620000   0.98097981    -3.051152    1590.1443  0.081797544  0.082832015            5 
 1621000    1.0067454   -3.0669975    1593.5235  0.081920807  0.082816961            3 
 1622000   0.98465716   -3.0773234    1589.1918  0.081647751  0.082801694            2 
 1623000   0.99202461    -3.065678    1593.5913  0.081823336  0.082786623            4 
 1624000    1.0046392   -3.0387001    1597.1519  0.081955657  0.082771527            5 
 1625000   0.97567294   -3.0686898    1592.7745  0.081680744  0.082756083            1 
 1626000   0.98576766   -3.0579231    1589.9046  0.081483423  0.082740565            3 
 1627000   0.98789344    -3.076882    1588.9486  0.081384376    0.0827249            1 
 1628000   0.97459702   -3.0465622    1598.0338  0.081799434  0.082708843            2 
 1629000   0.99683004   -3.0451284    1587.6432  0.081217681  0.082693005            1 
 1630000   0.97652305   -3.0616144    1590.5279  0.081315334  0.082676805            3 
 1631000   0.99315186   -3.0553308    1600.0446  0.081751717  0.082661177            1 
 1632000    1.0137706   -3.1044277    1592.8686  0.081335202  0.082645712            1 
 1633000    1.0056784   -3.0612505    1594.9194  0.081390051  0.082630235            3 
 1634000   0.99532587   -3.0333592    1603.8983  0.081798157  0.082614727            2 
 1635000    1.0035527   -3.0666554    1602.5279  0.081678284  0.082599441            1 
 1636000   0.99294488   -3.0662661    1597.1202  0.081352905  0.082583812            4 
 1637000   0.98813926   -3.0743643    1599.6332  0.081431133  0.082568189            2 
 1638000   0.98722978   -3.0652632    1600.5182  0.081426445  0.082552806            2 
 1639000    0.9889815   -3.0565557    1602.8165  0.081493621  0.082537677            2 
 1640000    1.0085514    -3.061318    1605.9265  0.081601956  0.082522353            3 
 1641000     1.014331   -3.0753082    1602.4545  0.081375914  0.082507605            5 
 1642000   0.97522296   -3.0516544    1603.9191  0.081400687  0.082492367            3 
 1643000   0.97296373    -3.063028    1597.6288  0.081032096  0.082477085            2 
 1644000    1.0025071   -3.0622794     1605.419  0.081377684  0.082461597            3 
 1645000   0.99237321   -3.0443871    1608.4079  0.081479633  0.082446242            4 
 1646000    1.0176304   -3.0875753    1603.2732  0.081170172  0.082431092            3 
 1647000   0.98504588   -3.0693393    1607.4465  0.081332046  0.082415654            2 
 1648000   0.98538892   -3.0599987    1609.3949  0.081381215  0.082400333            3 
 1649000   0.99927031   -3.0845883    1602.4469   0.08098074  0.082384636            3 
 1650000   0.98888992   -3.0631496    1607.8395  0.081204017  0.082368939            2 
 1651000    0.9947283   -3.0404192    1609.8524   0.08125643  0.082353233            3 
 1652000    0.9872686   -3.0752167    1610.9535  0.081262786  0.082337838            3 
 1653000   0.98408304   -3.0743699    1606.5756  0.080992921  0.082321961            2 
 1654000   0.98004637   -3.1102726    1606.3269  0.080931424  0.082305745            2 
 1655000    1.0028695   -3.0814895    1608.0365  0.080968607  0.082289978            1 
 1656000   0.98770179   -3.0524243    1614.8078  0.081260458  0.082274302            4 
 1657000   0.99930528   -3.0163118    1619.6505  0.081454962  0.082258911            2 
 1658000   0.96883847   -3.0659375     1613.032  0.081073181  0.082243311            4 
 1659000   0.98173946   -3.0948615    1608.2132   0.08078226  0.082227193            3 
 1660000   0.98067274   -3.0831965    1613.6156  0.081004801  0.082211129            2 
 1661000    1.0171159    -3.070462    1614.9055  0.081020748  0.082195068            3 
 1662000   0.99797463   -3.0535377    1613.4914  0.080901094  0.082179391            2 
 1663000   0.98545349     -3.07383    1615.3726  0.080946711  0.082163788            1 
 1664000   0.98756707   -3.0662219    1609.7664  0.080617309  0.082147672            3 
 1665000   0.98216983   -3.0790635    1620.4976  0.081105984  0.082131745            2 
 1666000   0.98364573   -3.0368213    1620.5062  0.081057735  0.082115671            3 
 1667000   0.98312976   -3.0678815    1617.1018  0.080838924  0.082099645            2 
 1668000   0.97070714   -3.0720252    1620.3709  0.080953783  0.082083415            2 
 1669000   0.98422602   -3.0483637    1621.8544  0.080979351  0.082067753            3 
 1670000   0.96977398   -3.0718872     1618.558  0.080766369  0.082051754            5 
 1671000   0.97755152    -3.084595    1614.2629  0.080503833   0.08203565            3 
 1672000    0.9732436   -3.0732928    1621.1764   0.08080026  0.082019522            1 
 1673000   0.98022955   -3.0721183    1620.9407  0.080740223  0.082003693            1 
 1674000   0.97277844   -3.0796892    1623.9136  0.080839982  0.081987734            2 
 1675000   0.97363258   -3.0832606    1621.7875  0.080685946   0.08197157            3 
 1676000    1.0019933   -3.0933582    1625.2523  0.080810081  0.081955984            2 
 1677000   0.98832126   -3.0680858    1629.0467  0.080950443  0.081939954            3 
 1678000   0.98972839   -3.0677046    1624.7772  0.080690167  0.081924083            2 
 1679000   0.99303279   -3.0649235    1629.1162  0.080857466  0.081908448            1 
 1680000   0.99494063   -3.0716619     1626.754  0.080692163  0.081892729            2 
 1681000   0.96784235   -3.0830722    1622.1749  0.080417156  0.081877174            2 
 1682000    1.0034499   -3.0755895    1624.9867  0.080508657  0.081861014            3 
 1683000    0.9845688   -3.0845755    1631.1953  0.080768237  0.081845292            2 
 1684000   0.98326303   -3.0599906    1642.0206  0.081255969  0.081829395            3 
 1685000   0.98967603   -3.0597902     1628.995  0.080563553  0.081813993            2 
 1686000    1.0023696   -3.0894309    1626.8506  0.080409775  0.081798302            2 
 1687000   0.98800508   -3.0668378    1630.0888  0.080522072  0.081782179            5 
 1688000   0.98582544   -3.0762665    1630.0713  0.080473505  0.081766347            3 
 1689000     0.986654   -3.0582482    1630.2158  0.080432987  0.081750401            2 
 1690000   0.97506975   -3.0730852    1635.0082  0.080621706  0.081734964            4 
 1691000   0.98271446   -3.0422931    1636.1878   0.08063216  0.081719829            2 
 1692000   0.97756973   -3.0691438    1638.6347  0.080705019  0.081704156            3 
 1693000   0.96259635   -3.0672757    1641.2108  0.080784151  0.081688335            3 
 1694000   0.96840108   -3.0589931    1638.7173  0.080613797  0.081672721            2 
 1695000   0.97571158    -3.087446    1644.7561  0.080863133  0.081657169            2 
 1696000    1.0009082   -3.0692969    1635.4121  0.080356332  0.081641753            2 
 1697000   0.98233641   -3.0805851    1641.4477   0.08060537  0.081626081            3 
 1698000   0.98191705   -3.0968244    1638.2794  0.080402403  0.081610304            1 
 1699000   0.98217027   -3.0711906    1646.6667  0.080766464  0.081594326            2 
 1700000   0.98211366   -3.0664911    1637.5822  0.080273636  0.081578664            2 
 1701000   0.98513487   -3.0712688    1637.6545  0.080229988  0.081562441            2 
 1702000     1.002911   -3.0832813    1637.4302  0.080171866  0.081546517            2 
 1703000   0.96952763   -3.0719226    1641.5154  0.080324693  0.081531116            2 
 1704000   0.98562766    -3.076334    1643.2818  0.080363938  0.081515536            3 
 1705000   0.98599219   -3.0818721    1645.0274  0.080402123  0.081499553            2 
 1706000   0.99375402   -3.0647192    1649.7338  0.080584888   0.08148393            5 
 1707000   0.99025563   -3.0815672    1638.6086  0.079994561  0.081467822            2 
 1708000    0.9935056   -3.0965876    1646.2531  0.080320699  0.081452178            3 
 1709000   0.97890893   -3.0740319    1647.0926  0.080314638  0.081436357            2 
 1710000   0.99916615   -3.1018552    1655.3196  0.080668597  0.081420693            3 
 1711000   0.95598763    -3.049653    1656.1887  0.080663777  0.081405383            2 
 1712000   0.99217213   -3.0971538    1644.1422  0.080030286  0.081389783            2 
 1713000   0.97265332   -3.1000975    1645.0173  0.080026136  0.081373889            3 
 1714000   0.97982328   -3.0658882    1655.5992   0.08049393  0.081358257            1 
 1715000   0.96157591     -3.05518    1647.8884  0.080072323  0.081342389            2 
 1716000   0.97953268   -3.0761966    1650.9335   0.08017354  0.081327039            2 
 1717000   0.97887838   -3.1036375    1650.5752  0.080109455  0.081311071            2 
 1718000   0.95293877   -3.0857154    1651.2693  0.080096495  0.081294941            3 
 1719000    1.0019033     -3.08038    1654.2709  0.080195409    0.0812792            6 
 1720000   0.96309911   -3.0799689    1658.0942  0.080334023   0.08126327            3 
 1721000   0.95621937   -3.0699856    1655.2389  0.080149083   0.08124767            4 
 1722000   0.98393572   -3.0961018     1655.126  0.080097075  0.081232003            3 
 1723000   0.97171073   -3.0963839    1658.8723  0.080231783  0.081215945            2 
 1724000   0.98534113   -3.0693409    1660.3385  0.080256114  0.081199962            3 
 1725000   0.94992209   -3.0467953    1660.8521  0.080234401  0.081184044            6 
 1726000   0.98370425   -3.0800124    1647.6069  0.079548421  0.081168173            6 
 1727000   0.98530925   -3.0888375    1660.0033  0.080100526  0.081152162            2 
 1728000   0.97951872   -3.1023964    1654.9248  0.079809261  0.081136518            5 
 1729000   0.97363622   -3.0850606    1658.7891  0.079949347  0.081120713            2 
 1730000    0.9735717    -3.052747    1658.9612  0.079911426  0.081105206            2 
 1731000   0.96748956   -3.0917616    1665.1531  0.080163349  0.081089691            4 
 1732000   0.96666272   -3.0708612    1661.8995   0.07996052  0.081074127            4 
 1733000   0.98134124   -3.0701014    1662.6285  0.079949436  0.081059041            3 
 1734000   0.95836028   -3.0820703    1668.2261  0.080172343  0.081043828            3 
 1735000   0.97895341   -3.0699492    1663.8585  0.079916356  0.081028451            3 
 1736000   0.97169715   -3.0801423    1662.7105  0.079815211  0.081013088            3 
 1737000   0.99316648    -3.086134    1664.8548  0.079872137  0.080997947            2 
 1738000   0.97795755   -3.0878508    1668.8748  0.080018931   0.08098274            4 
 1739000   0.97842613   -3.0897341    1669.9781  0.080025786  0.080967681            3 
 1740000   0.98799635   -3.1004485    1665.4762  0.079764184  0.080952708            3 
 1741000   0.98217241    -3.122665    1666.5026    0.0797675  0.080937328            3 
 1742000   0.95449554    -3.068287    1677.1318  0.080230184  0.080921898            2 
 1743000   0.96250466   -3.0784275      1670.26  0.079855614  0.080906444            4 
 1744000   0.98046965   -3.0632306    1675.0151  0.080037038  0.080891046            2 
 1745000   0.94991385   -3.0551507    1674.7639  0.079979173  0.080875606            3 
 1746000   0.97606762    -3.103368    1672.3928  0.079820199  0.080860219            2 
 1747000   0.98385836   -3.0987359    1677.0601  0.079997143  0.080844613            2 
 1748000   0.96602245   -3.0937571    1671.9661  0.079708531  0.080828892            4 
 1749000   0.93782238    -3.097506    1674.4008  0.079778961  0.080813071            3 
 1750000   0.96515591   -3.1092075    1672.4793  0.079641872  0.080797086            4 
 1751000   0.96455399   -3.0876104    1671.4095  0.079545475  0.080781148            3 
 1752000   0.97616464   -3.1224722    1671.4001  0.079499625  0.080765275            2 
 1753000    0.9619991   -3.1095735    1676.3351   0.07968887  0.080749468            3 
 1754000   0.95971673   -3.1017411    1673.4968   0.07950859  0.080733734            2 
 1755000   0.97900406   -3.0786501    1677.4546  0.079651215  0.080718017            1 
 1756000   0.95921981    -3.038473    1680.2285  0.079737496  0.080702125            1 
 1757000   0.97049852   -3.0961261    1677.8875  0.079581078  0.080686426            5 
 1758000   0.96673064   -3.1107199    1670.6334  0.079191952  0.080670535            2 
 1759000   0.96841812   -3.0795411    1683.3173  0.079747837  0.080654503            3 
 1760000   0.98744974   -3.0862318    1675.8986  0.079351261  0.080638256            2 
 1761000   0.96822731   -3.0868819    1679.0498   0.07945532  0.080622294            3 
 1762000   0.95100425   -3.0831671    1673.6667  0.079155631  0.080606562            3 
 1763000   0.97482011   -3.0531871    1674.1419  0.079133197  0.080590432            4 
 1764000   0.96284406   -3.0761489    1681.6559  0.079443305  0.080574458            4 
 1765000   0.95870123   -3.0744036    1686.2047  0.079613063  0.080558204            2 
 1766000   0.98369848   -3.0977833    1681.7334  0.079356992   0.08054211            2 
 1767000   0.95142213   -3.0948277    1673.2749  0.078913173  0.080526069            3 
 1768000   0.97195441   -3.0816054    1676.5385  0.079022365  0.080509914            6 
 1769000   0.98323028   -3.0638701    1687.6661  0.079501887  0.080493402            1 
 1770000   0.96684123   -3.1020246    1684.0846   0.07928835  0.080477068            1 
 1771000    0.9698028   -3.0964051    1679.4612  0.079026033  0.080460414            3 
 1772000   0.95835657   -3.0880962      1676.37  0.078836061  0.080443799            4 
 1773000   0.95814042   -3.0983241    1678.8422  0.078907794  0.080427447            1 
 1774000   0.97014396    -3.082135    1689.2967  0.079354413  0.080411044            2 
 1775000   0.95299803   -3.0791477    1686.9177  0.079198016  0.080394887            2 
 1776000   0.98263725   -3.0939065    1682.5249  0.078947304  0.080378889            3 
 1777000   0.96081714   -3.0848155    1688.9473  0.079204058  0.080363019            2 
 1778000   0.98613592   -3.0754525    1692.5788  0.079329715  0.080347346            3 
 1779000   0.95631312   -3.1081068    1687.5237  0.079048328  0.080331722            3 
 1780000   0.97574074   -3.0887455    1694.7936  0.079344268  0.080315813            2 
 1781000   0.97543146   -3.0948988     1698.155  0.079456998  0.080300392            2 
 1782000   0.97239529   -3.1044688    1697.3741  0.079375895  0.080284623            2 
 1783000   0.94069802   -3.1307306    1686.4778  0.078822109  0.080268991            3 
 1784000   0.96230501   -3.0637201     1700.369  0.079426802   0.08025301            3 
 1785000   0.97375556   -3.0900264     1689.894  0.078893279  0.080237629            3 
 1786000   0.97904947   -3.0846847    1700.0803   0.07932439  0.080221838            4 
 1787000   0.96893149   -3.1119327    1689.5376   0.07878836  0.080206127            5 
 1788000   0.94507049   -3.1018168    1698.3859  0.079156687  0.080190153            2 
 1789000   0.94814917   -3.0806714    1699.7707  0.079176948  0.080174229            5 
 1790000   0.97797973   -3.0708772    1703.6524  0.079313427  0.080158236            1 
 1791000   0.97105273   -3.1168705    1702.5869  0.079219567  0.080142426            4 
 1792000   0.97689758   -3.0856101    1703.1058  0.079199489  0.080126847            2 
 1793000   0.95150162    -3.109033    1701.8092  0.079095053  0.080111286            2 
 1794000    0.9688588   -3.1251947    1700.7247  0.079000588  0.080095347            1 
 1795000   0.95423747   -3.1377584    1697.3929  0.078801899  0.080079483            3 
 1796000   0.95428795   -3.1091745    1700.8679  0.078919262   0.08006395            3 
 1797000   0.95365434   -3.1001481    1704.3713  0.079037809  0.080048093            4 
 1798000   0.97456216   -3.0858096    1707.2862  0.079128949  0.080032675            3 
 1799000   0.97518453   -3.0917882    1708.0205  0.079118978  0.080017309            2 
 1800000   0.94717696   -3.0946624    1716.0155  0.079445163  0.080001854            2 
 1801000   0.94333646   -3.1096947    1702.4986  0.078775615  0.079986246            5 
 1802000   0.96146666   -3.0663587    1702.0945  0.078713214  0.079970548            2 
 1803000   0.94774795   -3.1002243    1712.0308  0.079128805  0.079955126            7 
 1804000   0.97267885    -3.089841     1713.116   0.07913507  0.079939797            3 
 1805000   0.96524677   -3.0904407    1710.4724  0.078969179  0.079924346            2 
 1806000   0.97476802   -3.0959597    1708.3648  0.078828203  0.079908768            1 
 1807000   0.95450215   -3.0958206    1707.8349   0.07876014  0.079893371            2 
 1808000   0.97266508   -3.1251537    1706.7671  0.078667364  0.079877651            4 
 1809000   0.95134658   -3.1186073     1707.241  0.078645708  0.079861805            3 
 1810000   0.94107456   -3.1151637    1706.9903  0.078590712  0.079846141            2 
 1811000   0.96091044   -3.1065574     1712.684  0.078809315  0.079830149            2 
 1812000   0.92643519   -3.1053153    1711.0382   0.07869013  0.079814269            3 
 1813000   0.96503267   -3.1191084    1719.8921  0.079053692  0.079798443            5 
 1814000    0.9567417   -3.1130108    1710.1643  0.078563227  0.079782555            3 
 1815000   0.95019562   -3.1138262    1713.1424  0.078656676  0.079766747            3 
 1816000   0.95643743   -3.1040219    1714.6377  0.078681978  0.079751089            2 
 1817000    0.9578644   -3.0882254    1719.0812   0.07884247  0.079735464            2 
 1818000   0.96592986   -3.1023813    1719.0909  0.078799546  0.079719922            2 
 1819000   0.96250867   -3.0944703    1719.3124  0.078766375  0.079704326            4 
 1820000    0.9531085   -3.0927171    1724.1101  0.078942769  0.079688782            4 
 1821000   0.95563077   -3.0972194    1720.6182   0.07873962   0.07967315            2 
 1822000   0.95983403    -3.142725    1710.7729   0.07824611  0.079657379            6 
 1823000   0.94092426   -3.1402959    1715.2672  0.078408629  0.079641725            5 
 1824000   0.96605356   -3.1065177    1721.0977  0.078632023  0.079626134            2 
 1825000    0.9576489   -3.1061243    1722.2169  0.078640042  0.079610228            5 
 1826000   0.95898147    -3.082264    1718.2887  0.078417702  0.079594498            3 
 1827000   0.95203164   -3.1035284    1718.0275  0.078362869  0.079578903            3 
 1828000   0.96960819   -3.0992545     1721.731   0.07848883  0.079563012            1 
 1829000   0.94600924   -3.0967155    1718.9802  0.078320584  0.079546452            4 
 1830000   0.98550878    -3.112867    1716.1805  0.078150297  0.079530301            4 
 1831000   0.94190169   -3.1070076    1721.9538  0.078370373  0.079514365            1 
 1832000   0.95345559   -3.0996022      1723.21  0.078384735  0.079498043            5 
 1833000    0.9798728   -3.1314477    1718.0034  0.078105265  0.079481765            3 
 1834000   0.94963762   -3.1052813    1719.4246  0.078127253  0.079465718            6 
 1835000   0.95601435    -3.113789    1721.9327  0.078198579   0.07944952            3 
 1836000   0.96012272   -3.1247208     1716.864  0.077925924   0.07943334            6 
 1837000   0.94554004   -3.1305672    1720.1253  0.078031453  0.079416968            3 
 1838000   0.93606903   -3.1438941    1724.5864  0.078191259  0.079400473            2 
 1839000   0.96192979   -3.1343399    1727.4988  0.078280715  0.079384415            3 
 1840000   0.95161723   -3.0948764    1725.9886  0.078169775  0.079368644            4 
 1841000   0.94645744   -3.1141033     1726.822  0.078165038  0.079352625            2 
 1842000    0.9594214   -3.1225226    1733.5003  0.078424734  0.079337052            2 
 1843000   0.93388986   -3.1377781    1731.3541  0.078285136  0.079321201            1 
 1844000   0.97666741   -3.0993217    1738.2478  0.078554221  0.079305724            5 
 1845000   0.96106038   -3.1415277     1728.665  0.078078815  0.079290081            5 
 1846000   0.94973281   -3.1260711    1728.0293  0.078007821  0.079274638            3 
 1847000   0.94286496   -3.1015686    1741.8071  0.078587219   0.07925901            3 
 1848000   0.96063134   -3.1373888    1732.4353  0.078122082  0.079243943            3 
 1849000    0.9587797   -3.1224428     1739.342  0.078391113  0.079228875            3 
 1850000   0.96589488   -3.0941226    1742.8861  0.078508381  0.079213535            3 
 1851000   0.96655254   -3.1147086    1738.2591  0.078257656  0.079198392            3 
 1852000   0.96894038   -3.1243598    1744.9566  0.078516764  0.079183155            2 
 1853000   0.97275703    -3.101525    1741.4707  0.078317622  0.079167903            2 
 1854000   0.95250479   -3.1194291    1737.7564  0.078108432  0.079152756            2 
 1855000   0.97860946   -3.1090538    1740.1485  0.078173789  0.079137483            8 
 1856000   0.96043562   -3.1033492    1746.4833  0.078416097  0.079122441            1 
 1857000   0.96322331   -3.0935773    1749.7514  0.078520524  0.079107264            4 
 1858000   0.96195724   -3.1224502    1752.3345  0.078594121   0.07909212            3 
 1859000   0.97144895   -3.0998828    1747.1175  0.078317979  0.079076785            2 
 1860000   0.96055396   -3.1233681    1746.1203  0.078231195  0.079061504            2 
 1861000   0.93857585    -3.063427    1751.5855  0.078433884  0.079046749            2 
 1862000   0.95347347   -3.1190875    1745.4309  0.078116313  0.079031391            2 
 1863000   0.94559978   -3.1126116    1747.2587  0.078156142     0.079016            2 
 1864000   0.95454155   -3.1210273    1746.3552   0.07807382  0.079000493            1 
 1865000   0.97121893   -3.1139555    1749.1211  0.078155547   0.07898473            2 
 1866000   0.94042643   -3.1014764    1747.9794  0.078062673  0.078969366            2 
 1867000   0.93674817   -3.0965597    1745.8618  0.077926344  0.078953879            6 
 1868000    0.9747892   -3.0976644    1742.7965   0.07774788  0.078938224            3 
 1869000   0.95084181   -3.1243491    1741.5735  0.077651751  0.078922492            1 
 1870000   0.96688981   -3.0861349    1749.4366  0.077960633  0.078907002            3 
 1871000   0.94009707   -3.1290866    1748.5281  0.077878499  0.078891306            4 
 1872000   0.98181241   -3.0799072    1745.9419  0.077721771  0.078875507            3 
 1873000   0.95920578   -3.1284105    1747.0094  0.077727773  0.078859396            1 
 1874000    0.9439579   -3.1054585    1752.6129  0.077935473  0.078843821            3 
 1875000   0.96165355   -3.1048236    1749.2059  0.077742485    0.0788287            2 
 1876000   0.95089864   -3.1270363    1756.7534  0.078036309  0.078812872            4 
 1877000   0.95519435   -3.1215122    1751.2292  0.077749478  0.078796814            3 
 1878000   0.95179212    -3.103416     1754.378  0.077847799   0.07878068            3 
 1879000   0.96930415   -3.1324978    1752.1495  0.077707536  0.078764536            5 
 1880000   0.96545534   -3.0893045    1755.6411   0.07782097  0.078748264            3 
 1881000   0.95244268   -3.1098805    1751.2154  0.077583528  0.078732165            3 
 1882000   0.95194959   -3.1168441    1746.3532   0.07732701  0.078715729            3 
 1883000   0.96439838   -3.1290126    1748.7012  0.077389856   0.07869899            2 
 1884000   0.96051065   -3.1160786    1754.9063  0.077623244  0.078682617            5 
 1885000   0.94974109   -3.1322656     1754.959  0.077584395  0.078666572            2 
 1886000   0.93412897   -3.1251419    1751.5568  0.077392932  0.078650276            5 
 1887000   0.95432682   -3.1148271    1752.3762  0.077388103  0.078633947            5 
 1888000   0.95738674   -3.1276622    1749.6503  0.077226797  0.078617763            6 
 1889000   0.94216584    -3.114781    1756.4718  0.077486843    0.0786015            2 
 1890000   0.94516101   -3.1144564    1749.1515  0.077123083  0.078585115            2 
 1891000   0.94972665    -3.120405    1761.3467   0.07761972  0.078568639            2 
 1892000   0.93010855   -3.1211359    1757.0161  0.077387953   0.07855244            6 
 1893000   0.95855897   -3.1211644    1754.0444  0.077216251  0.078536282            2 
 1894000   0.96307121   -3.1002705    1760.7831  0.077471976  0.078519989            3 
 1895000   0.94850785   -3.1387283    1757.9609  0.077306989  0.078503719            2 
 1896000   0.95688353   -3.1271213    1756.6412  0.077208212  0.078487388            3 
 1897000   0.93589932   -3.1473384     1760.373  0.077331446   0.07847109            2 
 1898000    0.9388701   -3.1325825    1756.4104  0.077116718  0.078454665            4 
 1899000   0.97058976   -3.1247863    1756.9066  0.077097886  0.078438303            1 
 1900000   0.96249987   -3.1171067    1760.2428  0.077203632  0.078421771            4 
 1901000   0.95014333   -3.1197749    1756.7373   0.07700935  0.078405377            5 
 1902000   0.93943387   -3.1222984    1754.3863  0.076865855  0.078388736            3 
 1903000   0.94424085   -3.1428465    1761.2488  0.077125975  0.078372287            4 
 1904000   0.94229038   -3.1020716    1757.8227  0.076935518  0.078355752            1 
 1905000   0.96646017   -3.1333445    1762.6768  0.077107473  0.078339309            5 
 1906000   0.95847831   -3.1319199    1768.1489  0.077306266  0.078322786            4 
 1907000   0.95153145   -3.1456419     1768.976  0.077301871  0.078306209            2 
 1908000   0.96465056   -3.1209185    1762.8276  0.076992819  0.078289902            6 
 1909000   0.95249042   -3.1173279    1762.8564  0.076953747  0.078273632            3 
 1910000   0.93408944   -3.1365039    1765.8277  0.077043094  0.078257173            4 
 1911000    0.9566674   -3.1249391    1775.3596  0.077418439  0.078240627            3 
 1912000   0.91681585   -3.1151353    1761.7485  0.076784715  0.078224029            5 
 1913000   0.95028672   -3.1309718    1771.7371  0.077179697  0.078207982            7 
 1914000    0.9593646   -3.1421504    1775.0444  0.077283367  0.078191917            1 
 1915000   0.93818107   -3.1206971    1768.6507  0.076964783  0.078175587            3 
 1916000    0.9292873   -3.1188071    1768.5286  0.076919304  0.078159202            2 
 1917000   0.93255272   -3.1301578    1772.8382  0.077066518  0.078142531            3 
 1918000   0.93970281   -3.1441968    1766.6028  0.076755424  0.078126219            2 
 1919000   0.94037588   -3.1384067     1767.011  0.076733149  0.078109798            2 
 1920000   0.94465785   -3.1283397    1772.6747  0.076939006  0.078093331            2 
 1921000   0.93648395   -3.1247656    1770.5181  0.076805403  0.078076594            2 
 1922000   0.95039443   -3.1345983    1775.1289  0.076965352  0.078060387            2 
 1923000   0.93412262   -3.1248846    1776.4351  0.076981934  0.078044092            2 
 1924000   0.94010475    -3.119725     1773.174  0.076800674  0.078027814            5 
 1925000   0.93778653   -3.1485041    1774.0174  0.076797289  0.078011545            1 
 1926000   0.94365424   -3.1312055    1781.5057  0.077081416  0.077995193            1 
 1927000   0.94673585   -3.1314332    1773.3918  0.076690531  0.077978812            1 
 1928000   0.94732539   -3.1225771    1770.4965  0.076525609  0.077962308            2 
 1929000   0.94360452   -3.1349116    1774.8086  0.076672221   0.07794594            3 
 1930000   0.95635707   -3.1360799    1769.5376  0.076404907  0.077929104            7 
 1931000    0.9630265   -3.1520202    1775.6342  0.076628441  0.077912411            2 
 1932000   0.93854557   -3.1324655    1776.3952    0.0766216  0.077896099            3 
 1933000    0.9405855   -3.1177057    1779.2782  0.076706253  0.077879598            2 
 1934000   0.93549482   -3.1325658    1783.8034  0.076861576  0.077862964            3 
 1935000   0.93594313   -3.1492503    1777.0778  0.076532203   0.07784645            2 
 1936000   0.94894186   -3.0863558     1775.712  0.076433882  0.077830476            3 
 1937000   0.93599433   -3.1155751    1782.2252  0.076674636  0.077814011            2 
 1938000   0.94540738   -3.1309509    1787.9386  0.076880744  0.077797848            3 
 1939000   0.95966471   -3.1415741    1780.3296  0.076514078  0.077781493            5 
 1940000   0.92505263   -3.1387372    1787.7542  0.076793564   0.07776525            4 
 1941000    0.9579405   -3.1483518    1784.6166  0.076619295  0.077749167            3 
 1942000   0.92577125   -3.1235948     1783.302  0.076523429  0.077733236            2 
 1943000   0.94036883   -3.1305012    1786.5248   0.07662227  0.077716783            3 
 1944000   0.92404326   -3.1327433    1783.5951  0.076457264  0.077700827            3 
 1945000   0.94967268   -3.0960592     1784.969  0.076476821  0.077684929            2 
 1946000   0.94391599   -3.1314295    1787.3347  0.076538829  0.077668593            1 
 1947000   0.92944638   -3.1396423    1791.3314   0.07667058  0.077652362            2 
 1948000   0.93264535   -3.1429503    1784.1463   0.07632385  0.077635999            4 
 1949000   0.94045975   -3.1348558    1783.0975  0.076239844  0.077619966            4 
 1950000   0.94595735   -3.1087102    1790.0384  0.076497367  0.077603648            3 
 1951000   0.94339674   -3.0939785    1791.4017  0.076516391  0.077587135            2 
 1952000   0.93134456   -3.1130791      1789.01  0.076375084  0.077570747            5 
 1953000   0.95688558   -3.1154267    1780.6381  0.075978756  0.077554164            2 
 1954000   0.94280527   -3.1621298    1785.7226  0.076156714   0.07753793            3 
 1955000   0.92131837   -3.1469813    1789.9621  0.076298469  0.077521749            3 
 1956000   0.94277758   -3.1251838    1791.2229  0.076313176  0.077505573            6 
 1957000   0.95242069   -3.1354402     1792.601  0.076332866  0.077489105            5 
 1958000   0.94232174   -3.1638154    1789.6954  0.076170214  0.077472671            1 
 1959000   0.94414189     -3.14535    1793.1277   0.07627734  0.077456072            4 
 1960000   0.94730628   -3.1575739    1790.7556  0.076137568  0.077439638            3 
 1961000   0.95338047   -3.1319487    1791.0747  0.076112304  0.077423336            3 
 1962000   0.94016385   -3.1340436    1793.5366  0.076178076  0.077406753            2 
 1963000   0.94083596   -3.1409966    1791.5021    0.0760529  0.077390419            2 
 1964000   0.95337737   -3.1240491    1789.1871   0.07591595  0.077373908            2 
 1965000   0.93951763    -3.139703    1801.9446  0.076418345   0.07735768            2 
 1966000   0.95603974   -3.1345287    1798.3329  0.076226385  0.077341269            9 
 1967000   0.95326927   -3.1292216    1802.4337  0.076361366  0.077325228            1 
 1968000   0.91220077   -3.1617685    1794.3205   0.07597902   0.07730905            3 
 1969000   0.92725092   -3.1231005    1799.5613  0.076162235  0.077292698            3 
 1970000   0.91260797   -3.1438956    1799.6974   0.07612933  0.077276495            3 
 1971000   0.92129516   -3.1697861    1797.2466  0.075987088  0.077259971            6 
 1972000   0.93093791   -3.1534067    1796.0264  0.075896992  0.077243501            3 
 1973000   0.93218342   -3.1545648    1803.8308  0.076188158  0.077227003            2 
 1974000   0.95326968   -3.1438857    1798.0631  0.075906074  0.077210761            3 
 1975000    0.9181287   -3.1421534    1805.9977  0.076202436  0.077194395            3 
 1976000   0.94000547   -3.1240103    1809.5448  0.076313462  0.077177906            4 
 1977000   0.91168797   -3.1452747    1799.0981  0.075834517  0.077161172            6 
 1978000   0.92236444   -3.1673579    1799.3023  0.075804784   0.07714452            3 
 1979000   0.95136918   -3.1502199    1803.4585   0.07594149  0.077128118            3 
 1980000   0.92904703    -3.109502    1801.9327  0.075838918  0.077111709            3 
 1981000   0.92974348   -3.1462527    1806.5395  0.075994426  0.077095244            2 
 1982000   0.94371596    -3.143328    1801.4009  0.075740032    0.0770784            6 
 1983000   0.91551368   -3.1481299    1813.2841  0.076201213  0.077062038            5 
 1984000   0.96318568   -3.1392226    1809.7947  0.076016241  0.077045849            2 
 1985000   0.92438749   -3.1595407    1807.9651  0.075901137  0.077029725            3 
 1986000   0.91641494   -3.1489719    1811.5679  0.076014093  0.077013357            2 
 1987000    0.9374417   -3.1390338    1809.6068  0.075893592  0.076997104            8 
 1988000   0.94848143   -3.1387627    1818.7755  0.076239751  0.076980634            3 
 1989000   0.95031446   -3.1451809    1811.0985  0.075879776  0.076964505            6 
 1990000   0.91631499   -3.1198699    1817.4811  0.076108923  0.076948555            6 
 1991000   0.94504732   -3.1404968    1816.8866  0.076045813  0.076932658            2 
 1992000   0.93658264   -3.1377101    1810.4995  0.075740443  0.076916483            4 
 1993000   0.93194476   -3.1414038    1809.4558  0.075658797   0.07690046            5 
 1994000   0.90451854   -3.1416384    1819.1582  0.076026338  0.076884299            1 
 1995000   0.95434991   -3.1525237    1814.1085  0.075777298  0.076868524            4 
 1996000   0.93289719   -3.1253915    1810.0297   0.07556904  0.076852371            2 
 1997000   0.91266677    -3.135208    1816.2417  0.075790421  0.076836505            2 
 1998000   0.92330455     -3.13649    1819.0323  0.075868882  0.076820737            3 
 1999000   0.94216685   -3.1255427    1822.6697  0.075982562  0.076804992            5 
 2000000   0.94401297   -3.1374702    1821.5406  0.075897525  0.076789007            3 
 2001000   0.91176669   -3.1533061    1825.6282  0.076029829  0.076773088            3 
 2002000   0.92320476   -3.1426401    1822.8794  0.075877431  0.076757299            2 
 2003000   0.90694194   -3.1301714    1826.1108  0.075973988  0.076741365            3 
 2004000   0.92339552   -3.1493875    1815.5077  0.075495163   0.07672558            3 
 2005000   0.94445462   -3.1342387     1824.208  0.075819119   0.07670975            3 
 2006000   0.93285778   -3.1330067    1820.1898  0.075614397  0.076694006            2 
 2007000   0.94540838   -3.1546638    1828.5655  0.075924495  0.076678123            2 
 2008000   0.91944884   -3.1257139    1826.0324  0.075781556  0.076662636            3 
 2009000   0.91650923   -3.1355054    1830.6662  0.075936045  0.076647045            2 
 2010000   0.92991205   -3.1521163    1823.2981  0.075592789  0.076631377            5 
 2011000   0.92370438   -3.1455521    1818.3072  0.075348383  0.076615318            8 
 2012000    0.9140696   -3.1574007    1828.2413  0.075722387  0.076599172            2 
 2013000    0.9465055   -3.1520117    1827.4061  0.075650196  0.076583136            4 
 2014000    0.9257022   -3.1572051    1833.3724  0.075859499  0.076566995            3 
 2015000   0.91475901    -3.152621    1827.6918  0.075586924  0.076551043            2 
 2016000   0.93201573   -3.1397412    1828.8066  0.075595511  0.076535176            3 
 2017000   0.91337887   -3.1632865    1822.6241  0.075302598  0.076519322            3 
 2018000   0.89858531   -3.1533085    1830.8076   0.07560322  0.076503605            2 
 2019000   0.92261758   -3.1337938    1831.5889  0.075598023  0.076487894            4 
 2020000   0.91918132   -3.1627201    1832.6396  0.075603944  0.076472237            2 
 2021000   0.89688045   -3.1635827    1827.0434  0.075335782  0.076456582            3 
 2022000   0.92770841   -3.1516102    1832.0232  0.075503759  0.076441001            2 
 2023000   0.93120504   -3.1535471      1839.33  0.075767423  0.076425395            1 
 2024000   0.92227192   -3.1494194    1833.1684  0.075476303  0.076409991            3 
 2025000   0.92789234   -3.1424206    1832.0297  0.075392168  0.076394684            2 
 2026000   0.93712172   -3.1490552     1839.499  0.075662183  0.076379222            3 
 2027000   0.92185548   -3.1417758    1840.2108  0.075654121  0.076363905            2 
 2028000    0.9441242   -3.1780422    1835.0896  0.075406377  0.076348458            3 
 2029000   0.91856639   -3.1642543    1843.0542   0.07569633  0.076332956            2 
 2030000   0.90735195   -3.1522072    1836.9138   0.07540697  0.076317688            2 
 2031000   0.93852758   -3.1413601    1841.4551  0.075556177  0.076302383            4 
 2032000   0.94128153    -3.148868    1841.5757  0.075523936  0.076287244            3 
 2033000   0.89983285   -3.1618523    1839.0032  0.075381342  0.076272151            3 
 2034000   0.92260709   -3.1579479    1842.0768  0.075470205  0.076256572            4 
 2035000   0.92889793   -3.1437033    1842.3675  0.075445025  0.076241369            2 
 2036000   0.92414774   -3.1221695    1846.6045  0.075581389  0.076225764            2 
 2037000   0.93637461   -3.1406188    1840.9871  0.075314477  0.076210363            3 
 2038000   0.92437879    -3.155676    1845.0623  0.075444156  0.076194961            2 
 2039000   0.92985365   -3.1522368    1840.2655  0.075211112  0.076179698            2 
 2040000   0.92390281   -3.1461736    1847.4249  0.075466703  0.076164367            3 
 2041000   0.91376767   -3.1592099    1839.7405  0.075115976   0.07614891            2 
 2042000   0.92777446   -3.1594744    1844.7716   0.07528451  0.076133726            3 
 2043000   0.92221514   -3.1340956    1842.6088   0.07515944  0.076118306            3 
 2044000   0.92030468   -3.1533887    1846.7409  0.075291133  0.076102754            2 
 2045000   0.94832433   -3.1457142    1841.9278  0.075058181  0.076087208            3 
 2046000   0.93563446   -3.1561734     1852.032  0.075433042  0.076071733            5 
 2047000   0.91723933   -3.1717291    1845.3253  0.075123162  0.076056177            3 
 2048000   0.92666058   -3.1472038    1845.7113  0.075102185  0.076040524            3 
 2049000   0.93555179   -3.1638104     1846.348  0.075091425  0.076025186            3 
 2050000    0.9010772   -3.1574997    1852.6096  0.075309334   0.07600959            3 
 2051000   0.92446414   -3.1532883    1857.3657  0.075465857  0.075994316            3 
 2052000   0.93146476   -3.1696699    1838.7266  0.074672132  0.075978986            5 
 2053000   0.90623116   -3.1686871    1852.6935  0.075202693  0.075963765            2 
 2054000   0.93668736   -3.1574204    1848.5733  0.074998915  0.075948473            2 
 2055000    0.9481562   -3.1605326    1849.3649   0.07499452  0.075933162            3 
 2056000   0.93986197   -3.1707454    1860.5421  0.075411076  0.075918317            3 
 2057000   0.91198339   -3.1678611    1854.8328   0.07514312  0.075903079            2 
 2058000   0.92930923   -3.1685059    1858.8396  0.075268855   0.07588803            2 
 2059000   0.91159752   -3.1504799    1859.7639  0.075269704  0.075872667            2 
 2060000   0.92106351   -3.1337567    1852.0858  0.074922563  0.075857408            4 
 2061000   0.92843194   -3.1616728    1855.7051  0.075032554  0.075842296            2 
 2062000   0.92980429   -3.1495367    1859.1307  0.075134608  0.075826952            3 
 2063000   0.92540636   -3.1646984    1862.3227  0.075227124  0.075811726            4 
 2064000   0.91592801    -3.146989    1855.9906   0.07493502  0.075796324            4 
 2065000   0.91081016   -3.1457844    1858.7522  0.075010178  0.075781336            2 
 2066000   0.91198593   -3.1442783    1865.3448  0.075239786  0.075766187            5 
 2067000   0.92820128   -3.1358945    1864.3959  0.075165132  0.075751143            4 
 2068000   0.93033752   -3.1640965    1862.8115  0.075064939  0.075736153            4 
 2069000   0.89541559   -3.1579632       1858.9  0.074871114  0.075721193            3 
 2070000   0.92862798   -3.1528057    1867.0013  0.075161083   0.07570613            4 
 2071000   0.92098461   -3.1490267    1867.8431  0.075158662  0.075691273            4 
 2072000   0.95287428   -3.1735721    1857.5099  0.074706801  0.075676035            3 
 2073000   0.91897337   -3.1384018    1871.0069  0.075213336  0.075661064            7 
 2074000   0.90972804   -3.1753608    1871.8975  0.075212855  0.075645995            2 
 2075000   0.91512204   -3.1494439    1869.7023  0.075088445  0.075631005            3 
 2076000   0.90364734   -3.1565596    1866.7815  0.074935032  0.075615855            2 
 2077000   0.89494469   -3.1850305     1857.607  0.074530856  0.075600783            2 
 2078000   0.91268859   -3.1533413    1861.7377  0.074660638  0.075585681            5 
 2079000   0.92351571   -3.1464955      1870.17  0.074962723   0.07557077            5 
 2080000   0.93012657   -3.1517082    1869.7993  0.074911831  0.075555963            4 
 2081000   0.90510401   -3.1676669    1874.1146   0.07504864  0.075540923            5 
 2082000   0.90626919   -3.1454834    1869.1152  0.074812487  0.075526017            4 
 2083000   0.90950809   -3.1572077    1879.9797  0.075211223  0.075511234            2 
 2084000   0.92100013   -3.1607066    1874.0555   0.07493824   0.07549631            2 
 2085000   0.92163308    -3.162124    1870.3807  0.074755422  0.075481852            2 
 2086000    0.9048477   -3.1597654    1878.9756  0.075062942  0.075467368            3 
 2087000    0.9236536   -3.1654823    1878.0274  0.074989113  0.075452658            3 
 2088000   0.92066318   -3.1727642    1868.5558  0.074575182  0.075438024            3 
 2089000   0.89340727    -3.190261    1881.3776  0.075050965   0.07542381            5 
 2090000   0.90823148   -3.1644056    1883.8478   0.07511355  0.075409467            5 
 2091000   0.92228318   -3.1750776    1883.3494  0.075057762  0.075395008            3 
 2092000   0.91256556   -3.1393665     1887.006  0.075167542  0.075380755            1 
 2093000   0.93796962   -3.1653504      1880.76  0.074882941  0.075366413            1 
 2094000   0.91130371   -3.1637992    1876.4321  0.074674946  0.075351884            4 
 2095000   0.90675288   -3.1741689    1881.0228   0.07482191  0.075337633            1 
 2096000   0.89461528   -3.1371493    1881.1638  0.074791817  0.075323261            3 
 2097000    0.9133124   -3.1525824    1885.7183  0.074937146   0.07530874            2 
 2098000    0.9154618    -3.135065    1889.7237  0.075060522  0.075294316            1 
 2099000   0.89721238   -3.1448847    1883.4846   0.07477706  0.075280047            2 
 2100000   0.89710969   -3.1256279    1879.7244  0.074592237  0.075265683            4 
 2101000   0.90727319   -3.1669608    1891.8737   0.07503862  0.075251259            6 
 2102000   0.92786159   -3.1333825    1882.8627  0.074645683  0.075236968            3 
 2103000   0.89323053   -3.1704788     1881.432  0.074553493  0.075222161            4 
 2104000    0.9316971   -3.1669628    1886.2244  0.074707874  0.075207353            3 
 2105000   0.91454372   -3.1476953    1883.7466   0.07457429    0.0751925            4 
 2106000   0.90730236   -3.1822436    1881.4559   0.07444824  0.075177656            2 
 2107000    0.9188324   -3.1634445    1890.2991   0.07476266  0.075162852            3 
 2108000   0.93738057   -3.1605782      1890.14  0.074720903  0.075148312            4 
 2109000   0.90824939   -3.1519842    1887.0315   0.07456265  0.075133684            2 
 2110000   0.91512631   -3.1739752     1891.393  0.074699567   0.07511923            2 
 2111000   0.91931828   -3.1633716     1891.104   0.07465277   0.07510466            2 
 2112000   0.92138846    -3.156491     1891.773  0.074643822  0.075089893            4 
 2113000   0.92272149   -3.1527595     1897.952  0.074852185  0.075075233            2 
 2114000   0.92724341   -3.1866211    1894.2516  0.074670909  0.075060537            3 
 2115000   0.92074564   -3.1725651    1892.5072  0.074566873   0.07504574            6 
 2116000   0.93299343   -3.1773182    1895.7907  0.074660944  0.075031033            3 
 2117000   0.90355366    -3.155916     1897.091  0.074676863  0.075016659            3 
 2118000   0.92946825   -3.1694692    1890.1975  0.074370378  0.075002193            2 
 2119000   0.91151518   -3.1830689    1895.2101  0.074532408  0.074987565            4 
 2120000   0.89886397   -3.1616828    1903.0122   0.07480394  0.074972868            2 
 2121000   0.90459152   -3.1433153    1897.9128  0.074568318  0.074958108            4 
 2122000   0.89059272   -3.1444729    1896.4071  0.074474044  0.074943629            2 
 2123000   0.90737099   -3.1642301    1899.8632  0.074574626  0.074929094            4 
 2124000   0.89893432   -3.1679939    1894.6536  0.074335122   0.07491449            4 
 2125000   0.91362797   -3.1557438    1898.0337  0.074432693  0.074899809            4 
 2126000   0.89827103    -3.175858    1903.7231  0.074620692  0.074885066            4 
 2127000   0.92767793   -3.1795403    1902.3947  0.074533563  0.074870514            2 
 2128000   0.90489632   -3.1582924    1900.9591  0.074442319    0.0748558            3 
 2129000   0.90159622   -3.2073062    1893.4313    0.0741127  0.074841017            5 
 2130000   0.89986839   -3.1821951    1902.3312  0.074426102  0.074826173            3 
 2131000   0.90946848   -3.1901986    1897.8899  0.074217501  0.074811234            2 
 2132000   0.89772235   -3.1733182    1900.1824  0.074272293  0.074796382            2 
 2133000   0.91042419   -3.1864124    1901.8567  0.074302885  0.074782103            3 
 2134000   0.92948323   -3.1415105    1905.4276  0.074407515  0.074767482            3 
 2135000   0.92118939   -3.1692832    1905.5233  0.074376398  0.074752895            5 
 2136000   0.89523918     -3.17437       1904.9  0.074317258  0.074738371            4 
 2137000   0.89555252   -3.1891231    1897.4957  0.073993748   0.07472377            5 
 2138000    0.9029686   -3.1834573    1910.8969  0.074481481  0.074709366            3 
 2139000   0.93290167   -3.1984161    1904.6684  0.074204003  0.074694882            3 
 2140000   0.91251708   -3.1631209    1900.9775  0.074025603  0.074680447            2 
 2141000   0.91022867   -3.1430883    1908.7027  0.074291712   0.07466613            3 
 2142000   0.90945786   -3.1684268      1901.67  0.073983426  0.074651622            2 
 2143000   0.90308386   -3.1628264    1909.7328  0.074262436  0.074637227            5 
 2144000   0.90358166   -3.1868497    1916.4833  0.074490179  0.074623237            4 
 2145000   0.90025744   -3.1746156    1909.8095  0.074196175  0.074609069            3 
 2146000   0.91515009   -3.1477477    1912.9388  0.074283118   0.07459479            4 
 2147000   0.90483153   -3.1767288    1906.3807  0.073993972  0.074580643            2 
 2148000   0.91335979   -3.1648824    1922.2214  0.074574075  0.074566558            5 
 2149000   0.92201203   -3.1907037    1910.3718  0.074079876  0.074552308            9 
 2150000   0.89483697   -3.1850068    1914.7053  0.074213382  0.074537963            2 
 2151000   0.91094658   -3.1607389    1916.3008  0.074240693  0.074523918            3 
 2152000    0.8968318     -3.16751    1919.8224  0.074342566  0.074510042            2 
 2153000   0.90910515   -3.1692183    1914.9105  0.074117915  0.074496076            6 
 2154000   0.89663617   -3.1671512    1921.3108   0.07433112  0.074481828            4 
 2155000   0.90743349   -3.1790442    1913.3946   0.07399051   0.07446771            1 
 2156000   0.92530326   -3.1914469     1917.317    0.0741078  0.074453516            2 
 2157000    0.8943817   -3.1734532    1914.6595  0.073970775   0.07443935            3 
 2158000   0.89185075   -3.2111299    1910.8855   0.07379076  0.074425137            4 
 2159000   0.92080613   -3.1757826    1920.6922    0.0741351  0.074410898            4 
 2160000   0.91969398   -3.1812651    1920.4019   0.07408958  0.074396751            4 
 2161000   0.89941785   -3.1896676    1918.6899  0.073989277  0.074382779            2 
 2162000   0.89897254   -3.1615404    1924.8649  0.074193064  0.074368833            1 
 2163000   0.91068838   -3.1959185    1922.5985  0.074071447  0.074354672            3 
 2164000   0.89418623   -3.1832531    1928.5635  0.074266923  0.074340741            2 
 2165000   0.88360227   -3.1598397    1925.0451  0.074097192  0.074326979            2 
 2166000    0.8973883   -3.1888127     1930.597  0.074276586  0.074312991            1 
 2167000   0.91574191   -3.1686588    1926.2832  0.074076418   0.07429896            3 
 2168000   0.91233956   -3.1672649    1928.8052  0.074139192  0.074284984            4 
 2169000   0.89296452   -3.1826964    1928.0192  0.074074812  0.074271196            5 
 2170000   0.88202067   -3.1871422    1922.0594  0.073811806  0.074257505            3 
 2171000   0.90644205   -3.1678039       1920.8  0.073729465  0.074243457            3 
 2172000   0.90532827   -3.1975425    1927.0988  0.073937186  0.074229558            2 
 2173000    0.9248671    -3.163232    1935.6915  0.074232686  0.074215691            2 
 2174000    0.8951185   -3.1866219    1925.5437  0.073809556  0.074201972            2 
 2175000    0.8980413   -3.1875391    1932.7585   0.07405205  0.074188239            3 
 2176000   0.90268473   -3.1590737    1934.5551  0.074086821  0.074174426            5 
 2177000    0.8938676   -3.1713224    1935.5434  0.074090621  0.074160735            2 
 2178000   0.90598232   -3.1983445     1935.734  0.074063898  0.074146952            3 
 2179000   0.92077125   -3.1903437    1932.3389  0.073900066  0.074133156            3 
 2180000   0.89496064   -3.2038185    1931.0317  0.073816196  0.074119394            4 
 2181000   0.90370268   -3.1616876     1932.159  0.073825424  0.074105507            3 
 2182000   0.91509962   -3.1834151      1935.84  0.073932171  0.074091633            2 
 2183000   0.89345156    -3.182045    1934.4374  0.073844762  0.074077623            4 
 2184000   0.91584673    -3.180039     1932.336  0.073730768  0.074063634            3 
 2185000   0.90650142   -3.1873972    1936.9536  0.073873133  0.074049602            4 
 2186000   0.92492787   -3.2072012    1943.6822  0.074095846  0.074035787            3 
 2187000   0.91033119   -3.1755157    1933.5681  0.073676577  0.074021746            2 
 2188000    0.9003828   -3.2019441    1932.2513  0.073592753  0.074007613            4 
 2189000   0.90552164   -3.1744492    1931.1257  0.073516282  0.073993445            9 
 2190000   0.89097663   -3.1811074    1939.8794  0.073815806  0.073979389            3 
 2191000   0.88280894     -3.17483    1940.6397  0.073811035    0.0739652            4 
 2192000   0.89447352   -3.1735966    1938.4797  0.073695245  0.073950915            3 
 2193000   0.88562505   -3.1702498    1936.9199  0.073602366  0.073936534            2 
 2194000   0.89108687   -3.1860452    1938.7585  0.073638656  0.073922333            3 
 2195000   0.90716853    -3.172805    1937.6782  0.073564092  0.073908438            2 
 2196000    0.9081431   -3.1904041    1940.1091  0.073622843     0.073894            7 
 2197000    0.8999614   -3.1808958    1943.0418   0.07370057  0.073879967            3 
 2198000   0.90191258   -3.1724577    1938.3479  0.073489077  0.073865653            4 
 2199000   0.89096988   -3.1995064    1940.3651    0.0735321  0.073851452            3 
 2200000   0.91158486   -3.1784859    1936.2568  0.073343062  0.073837298            4 
 2201000   0.90982256   -3.1793548    1934.0819  0.073227394  0.073823053            5 
 2202000   0.90951143   -3.1977818     1946.359  0.073658757  0.073808661            2 
 2203000   0.90984552   -3.2129648    1937.1903  0.073278497  0.073794177            4 
 2204000   0.91502206   -3.1872285    1945.8302  0.073571924  0.073779904            5 
 2205000   0.91530923   -3.2017348    1943.6665  0.073456782  0.073765399            3 
 2206000   0.90873249    -3.185757    1938.8815  0.073242728  0.073751163            2 
 2207000   0.92845163   -3.2123515    1939.2386  0.073223025  0.073736814            2 
 2208000   0.88958649   -3.1701823    1945.9137  0.073441792  0.073722781            3 
 2209000   0.90354776   -3.2011585    1946.5636  0.073433062  0.073708349            2 
 2210000   0.88785916   -3.2087912    1941.6745   0.07321548  0.073693954            4 
 2211000   0.90924825   -3.1920843    1950.2311  0.073504865   0.07367947            3 
 2212000   0.87969459    -3.186524    1947.8636  0.073382445  0.073665481            7 
 2213000   0.90984252   -3.1893919    1947.7902  0.073346522  0.073651205            3 
 2214000   0.90103646   -3.1892248    1942.1434  0.073100851   0.07363683            3 
 2215000   0.89952782   -3.1896728    1944.3041   0.07314914  0.073622242            4 
 2216000   0.90417155   -3.1726366    1949.5648  0.073313959  0.073607807            5 
 2217000   0.91546494   -3.1630271     1952.615  0.073395543  0.073593566            5 
 2218000   0.89193832   -3.2177606    1948.0994  0.073192795  0.073579465            4 
 2219000   0.91337974   -3.2068176    1941.4423  0.072909804  0.073564763            5 
 2220000    0.8975785   -3.1689675    1950.4114  0.073213641  0.073550112            2 
 2221000    0.8812674   -3.2039669    1942.4089  0.072880418  0.073535512            5 
 2222000   0.87803766   -3.1721056    1950.8496  0.073164177   0.07352094            5 
 2223000   0.90268087   -3.1891109    1950.3435   0.07311229  0.073506619            5 
 2224000   0.90707733   -3.1996473    1952.9957  0.073178795  0.073492187            2 
 2225000   0.89110426   -3.2072869    1948.3568  0.072972163   0.07347776            5 
 2226000   0.89197084   -3.2077953    1955.6257  0.073211505  0.073463259            3 
 2227000   0.90519071   -3.1649964    1951.4848   0.07302368  0.073448801            4 
 2228000   0.90009025   -3.1778353    1949.0369  0.072899346    0.0734343            4 
 2229000    0.8921572   -3.1841221    1950.4935  0.072921098  0.073419862            2 
 2230000   0.91262925   -3.2008694    1953.4141  0.072997536  0.073405597            3 
 2231000   0.89793633   -3.2195744     1947.938  0.072760273  0.073391142            3 
 2232000   0.89705777   -3.2066461    1955.0547   0.07299338  0.073376867            3 
 2233000   0.88851173   -3.1883282    1958.4523  0.073087487   0.07336271            2 
 2234000   0.89327927    -3.201033    1956.5144  0.072982482  0.073348387            3 
 2235000   0.89572668   -3.1881057    1956.8884  0.072963774  0.073334166            2 
 2236000   0.90130089   -3.1871604    1963.9335  0.073193704  0.073319785            3 
 2237000   0.87445836   -3.1913925    1959.2955   0.07298821  0.073305403            5 
 2238000   0.88190489   -3.1987271    1955.6635  0.072820357  0.073290951            3 
 2239000   0.87504671   -3.1976056    1958.6818   0.07290017    0.0732765            3 
 2240000   0.87370965   -3.1754385     1961.951  0.072989249  0.073262224            1 
 2241000   0.89033745   -3.1972305    1964.3847  0.073047176  0.073247836            3 
 2242000   0.88615454   -3.1750938    1956.0351  0.072704249  0.073233691            7 
 2243000   0.88572297   -3.2025107    1964.7155  0.072994332  0.073219432            2 
 2244000   0.89042022   -3.2086067    1960.1259  0.072791365  0.073205158            3 
 2245000   0.90569568   -3.1730275    1966.0609  0.072979248  0.073190885            3 
 2246000    0.8968751   -3.2034225     1965.645  0.072931321  0.073176732            5 
 2247000   0.89326802   -3.2019987    1963.3029  0.072812006  0.073162415            3 
 2248000   0.90271951   -3.1835985    1964.2885  0.072816153  0.073148157            6 
 2249000   0.88362741    -3.196777    1961.3659  0.072675481  0.073133707            4 
 2250000   0.88238465    -3.191364    1965.2354  0.072786496  0.073119408            3 
 2251000   0.90269305   -3.1950627    1960.2195   0.07256847   0.07310503            4 
 2252000   0.89978764   -3.1863372    1966.6023  0.072772436  0.073090543            3 
 2253000   0.88506412   -3.2096416    1965.0651  0.072683279  0.073076181            3 
 2254000   0.89299474   -3.1852628    1969.2133  0.072804397  0.073061529            3 
 2255000   0.87761846   -3.2011566    1967.1895  0.072697322  0.073047154            2 
 2256000   0.89923863   -3.2073003    1964.0822  0.072550319  0.073032729            2 
 2257000   0.89595866   -3.2020938    1969.6556  0.072723955   0.07301833            6 
 2258000   0.90667531   -3.1953172    1969.3428  0.072680204   0.07300389            3 
 2259000   0.90841332   -3.2153306    1971.8857  0.072741838  0.072989511            2 
 2260000    0.8787482   -3.2056011     1961.157  0.072314047   0.07297507            2 
 2261000   0.88172824   -3.2037493    1964.5217  0.072406079  0.072960302            4 
 2262000   0.89856177   -3.2015262     1972.102  0.072653329  0.072945703            7 
 2263000    0.8880323   -3.1538468    1973.2864  0.072664841  0.072931069            4 
 2264000   0.90393823   -3.2057269    1964.0159  0.072291515  0.072916451            4 
 2265000   0.90544319   -3.2119299    1967.3858  0.072383582  0.072901942            4 
 2266000   0.90346638   -3.1810657    1970.5819   0.07246918  0.072887339            4 
 2267000   0.88182109   -3.1835886    1974.2927   0.07257362  0.072872973            3 
 2268000   0.89858552    -3.204919    1980.7201  0.072777782  0.072858567            2 
 2269000   0.87718905   -3.2060776    1971.5969  0.072410641  0.072844185            6 
 2270000   0.86319844   -3.1888115    1975.4456   0.07252003  0.072829703            3 
 2271000   0.89986068   -3.2044085     1971.446  0.072341333  0.072815145            4 
 2272000   0.89024326   -3.2071049    1980.6497  0.072647069  0.072800526            2 
 2273000   0.89466658   -3.2136532    1967.4336  0.072130577   0.07278594            2 
 2274000   0.88462247    -3.219982    1964.3168  0.071984636  0.072770947            3 
 2275000   0.88351166   -3.1996688    1975.4956  0.072362475  0.072756123            3 
 2276000   0.88202218   -3.2065479    1966.2878  0.071993547  0.072741401            3 
 2277000   0.88671946   -3.1884344    1978.6387  0.072413946  0.072726534            3 
 2278000   0.89887937   -3.1933923    1981.4841   0.07248625  0.072711824            1 
 2279000   0.89032469   -3.2239014    1973.6288  0.072167207  0.072697321            4 
 2280000   0.88956916   -3.1805635    1974.2075  0.072156708  0.072682675            3 
 2281000   0.90044622   -3.2125742    1972.4352  0.072060324  0.072667929            2 
 2282000   0.88881159   -3.2079191    1976.8686  0.072190645  0.072653233            4 
 2283000   0.88663845   -3.1974247    1976.9456  0.072161834  0.072638643            2 
 2284000   0.86821468   -3.2187103    1978.2011  0.072176046  0.072624088            2 
 2285000   0.88189445   -3.2100923    1978.6315  0.072160157  0.072609318            4 
 2286000   0.87721572   -3.1941087    1983.2426  0.072296681  0.072594702            3 
 2287000   0.88306616   -3.2181989    1974.7949  0.071957254  0.072579852            2 
 2288000   0.87810778   -3.2142446    1975.5256  0.071952419   0.07256489            4 
 2289000   0.89523799   -3.2312688    1974.2052  0.071872914   0.07254991            3 
 2290000   0.89008524    -3.206524    1972.0927  0.071764654  0.072534832            2 
 2291000   0.88401584   -3.1993102    1979.9184  0.072017982  0.072519521            2 
 2292000   0.89556067    -3.190768    1972.5242  0.071717721  0.072504672            3 
 2293000   0.87394701   -3.2153329    1975.6451  0.071799866  0.072489637            3 
 2294000   0.90781202   -3.1919701    1977.0056  0.071817991  0.072474722            1 
 2295000   0.87609377   -3.2222808    1978.6636    0.0718469  0.072459838            7 
 2296000   0.88180524   -3.2172885    1976.0448  0.071720556  0.072445028            4 
 2297000   0.89303469   -3.2048066    1985.1915   0.07202117  0.072430058            3 
 2298000   0.89751209   -3.1896213     1979.478  0.071782637  0.072415169            3 
 2299000   0.89323674   -3.2321182    1982.3799  0.071856599  0.072400254            2 
 2300000   0.88890627   -3.1719306    1984.0727  0.071886692  0.072385197            3 
 2301000   0.88009905   -3.2339355    1977.3011  0.071610211   0.07237035            3 
 2302000   0.89570687   -3.2262979    1984.9659   0.07185657  0.072355409            2 
 2303000   0.87784246    -3.238224    1974.2861  0.071438925  0.072340338            4 
 2304000   0.90128024   -3.2159177    1985.0759  0.071798174  0.072325341            2 
 2305000   0.88864358   -3.1987359     1986.256   0.07180969  0.072310242            2 
 2306000   0.87044548   -3.2247445    1982.7311  0.071651166  0.072295163            4 
 2307000   0.88365042    -3.205721     1979.207  0.071492811  0.072280134            2 
 2308000   0.89587488   -3.2194265    1987.3821   0.07175701  0.072265242            5 
 2309000   0.89828498   -3.2266524    1985.8079  0.071669116  0.072250205            3 
 2310000   0.87625525   -3.1835316    1987.5609   0.07170133  0.072235306            4 
 2311000   0.89002014   -3.2301212    1983.8171  0.071535306  0.072220378            5 
 2312000   0.89252517   -3.2265701    1978.4807  0.071312021  0.072205377            5 
 2313000   0.87700447   -3.2233161    1980.8297   0.07136582  0.072190263            7 
 2314000   0.88283585   -3.2091994    1987.6831  0.071581787  0.072175012            5 
 2315000   0.87823629   -3.2220871    1983.2417   0.07139099  0.072159962            2 
 2316000   0.88182401   -3.2068351    1987.8541  0.071526126  0.072144883            2 
 2317000   0.86579359    -3.225709    1983.5045  0.071338818  0.072129676            3 
 2318000   0.88542417    -3.204939    1989.3157  0.071516958  0.072114591            2 
 2319000   0.87221585   -3.2100839    1990.0756  0.071513425  0.072099345            7 
 2320000   0.88167129   -3.2216311     1986.072  0.071338792  0.072084103            3 
 2321000   0.89228916   -3.2103719    1990.1366  0.071453991  0.072069028            2 
 2322000   0.86241185   -3.2207521    1992.7592   0.07151734  0.072053709            8 
 2323000    0.8846285   -3.2140829    1987.4382  0.071295674  0.072038559            3 
 2324000   0.87123642   -3.2081887    1989.9791  0.071356105  0.072023131            3 
 2325000    0.8769215   -3.2438668    1983.4341  0.071090828  0.072007854            3 
 2326000   0.88286892   -3.1956994    1986.6808  0.071176584  0.071992459            2 
 2327000   0.88647325   -3.2044534    1987.2977  0.071168087  0.071977077            3 
 2328000   0.86118158   -3.2401865    1985.8078  0.071084185  0.071961645            2 
 2329000    0.8850321   -3.2229229    1991.9664  0.071274022  0.071946093            3 
 2330000   0.88644532   -3.1837972    1980.1661  0.070821393  0.071930703            5 
 2331000   0.86186276   -3.1942923    1990.7549  0.071169558  0.071915365            4 
 2332000   0.86644731   -3.2201051    1988.5411   0.07105993  0.071899966            2 
 2333000   0.86155402   -3.2150506    1989.7393  0.071072271  0.071884275            3 
 2334000   0.87211478   -3.1986898    1993.2211  0.071166135  0.071868903            4 
 2335000   0.87585968   -3.2153788    1998.8889  0.071337932  0.071853522            3 
 2336000   0.85994105   -3.2172039    1990.8716   0.07102139  0.071838275            2 
 2337000   0.86532471   -3.2147682    1991.1605    0.0710013  0.071822887            3 
 2338000   0.89684581   -3.2094941    1984.9267  0.070748741  0.071807579            5 
 2339000   0.88072532   -3.2118438    1998.8251  0.071213664  0.071792329            3 
 2340000    0.8622547   -3.2362677    2000.7397  0.071251414  0.071777001            3 
 2341000   0.88955843   -3.2505735    1993.4483  0.070961425  0.071761833            4 
 2342000   0.86153703   -3.2105749    2001.3041   0.07121065  0.071746523            1 
 2343000   0.88171374    -3.207089    2004.4093  0.071290698  0.071731332            6 
 2344000   0.86832913   -3.2004948     2000.805  0.071132147  0.071716357            4 
 2345000   0.88143267    -3.244015    1987.1028  0.070614884  0.071701205            3 
 2346000   0.89653601   -3.2230732    1998.2573  0.070981008  0.071685998            4 
 2347000   0.87712502   -3.2214378    1999.8336  0.071006733  0.071670586            2 
 2348000   0.87814297   -3.2058738    1999.8603   0.07097744  0.071655279            9 
 2349000   0.88267389   -3.2014649    1997.2445  0.070854425  0.071640167            2 
 2350000   0.86490619   -3.2062385    2007.1278  0.071174745  0.071624919            5 
 2351000   0.85336292   -3.2252038    2002.5743  0.070983068  0.071609697            5 
 2352000   0.87256448    -3.214223     1998.964  0.070824971  0.071594366            4 
 2353000   0.87075938   -3.2183829    2005.2318  0.071016852  0.071579134            3 
 2354000   0.89279296   -3.2415506    2005.7542  0.071005176  0.071564051            2 
 2355000   0.88642272   -3.2486272    1993.5133  0.070541872  0.071548713            3 
 2356000   0.87342327   -3.2291231    2004.2115  0.070890333  0.071533376            7 
 2357000   0.88656819    -3.233918    2000.8342  0.070740851  0.071518197            4 
 2358000   0.86912073   -3.2210366    2002.7796  0.070779601  0.071502971            2 
 2359000   0.87445103   -3.2269803    2000.2947  0.070661816  0.071487588            5 
 2360000   0.86986199   -3.2342556    2003.6779  0.070751339  0.071472276            2 
 2361000   0.89871905   -3.2322179    1999.7494  0.070582712  0.071456865            1 
 2362000   0.87935444   -3.2204525    2012.5095  0.071003017   0.07144168            3 
 2363000   0.86133866   -3.2360349    2000.4861  0.070548954   0.07142635            3 
 2364000   0.86136062   -3.2092832     2010.849  0.070884412  0.071411094            4 
 2365000   0.86706358   -3.2416891    2008.6633  0.070777423  0.071395882            3 
 2366000   0.87677197   -3.2159801    2008.3726   0.07073727  0.071380647           14 
 2367000   0.87026054   -3.2507332    2005.9404  0.070621759  0.071365245            3 
 2368000   0.88262527   -3.2251407    2010.9343  0.070767676  0.071350002            2 
 2369000   0.89894154   -3.2270871    2008.5174  0.070652785   0.07133485            2 
 2370000   0.86931392   -3.2155197    2009.4617  0.070656177  0.071319615            9 
 2371000   0.87093124   -3.2124996    2006.6475  0.070527468  0.071304398            3 
 2372000   0.87750903   -3.2314583    2015.8177  0.070819902  0.071289175            5 
 2373000   0.88173843   -3.2437904    1999.9621  0.070233254  0.071274228            3 
 2374000   0.90154261   -3.2202248    2012.0443  0.070627784  0.071258984            2 
 2375000   0.87427342   -3.2317018    2008.4285  0.070471176  0.071243706            2 
 2376000   0.88157036   -3.2193638    2005.8857  0.070352331  0.071228386            5 
 2377000   0.87983089   -3.2215456    2012.5749  0.070557247  0.071213177            5 
 2378000   0.85968752   -3.2206702    2014.2391  0.070585894   0.07119794            4 
 2379000   0.88152695   -3.2220787    2012.2756  0.070487446  0.071182602            8 
 2380000   0.86881969   -3.2486715    2007.2494  0.070281843  0.071167212            4 
 2381000   0.86431318   -3.2388494    2011.3544  0.070395996  0.071151659            6 
 2382000   0.87061077   -3.2058444    2012.7544  0.070415422   0.07113628            3 
 2383000   0.88006792   -3.2358535    2008.3623  0.070232279  0.071120671            3 
 2384000   0.84968399   -3.2097315     2017.503  0.070522338  0.071105129            6 
 2385000   0.86763805   -3.2344093    2013.0345  0.070336634   0.07108975            2 
 2386000   0.86329693    -3.245825    2009.0707  0.070168715  0.071074231            1 
 2387000    0.8822217   -3.2181042    2013.7819  0.070303794  0.071058872            5 
 2388000    0.8658708    -3.201474    2021.4635  0.070542416  0.071043544            2 
 2389000   0.87717862   -3.2309335    2012.0725  0.070185312  0.071028333            6 
 2390000   0.87209122    -3.215541     2026.662  0.070664645  0.071012928            5 
 2391000   0.85977125   -3.2492124    2023.1021  0.070511019  0.070997544            2 
 2392000   0.87863176    -3.237607    2014.9504  0.070197548  0.070982094            3 
 2393000   0.87168561   -3.2309156    2017.3131  0.070250489  0.070966565            3 
 2394000   0.86059732   -3.2279016    2015.2739  0.070150165  0.070951058            5 
 2395000   0.84442831   -3.2270164    2014.0278  0.070077516  0.070935563            3 
 2396000    0.8639609   -3.2080391    2028.1788  0.070540441  0.070920204            4 
 2397000   0.88169311   -3.2401157     2016.091  0.070090774  0.070904568            1 
 2398000   0.86042035   -3.2599766    2015.8628  0.070053612   0.07088919            3 
 2399000   0.86476438   -3.2223053    2016.5148  0.070047062   0.07087351            3 
 2400000   0.85163602   -3.2177581    2025.8751  0.070342887  0.070858025            2 
 2401000   0.86610861   -3.2344351    2019.4875  0.070091889  0.070842577            5 
 2402000   0.86485419   -3.2299897    2011.4803  0.069784913  0.070827148            6 
 2403000   0.87977924   -3.2076324    2025.9906   0.07025907  0.070811621            2 
 2404000   0.86728621   -3.2190968    2024.2327   0.07016891  0.070796199            3 
 2405000   0.88350051    -3.223669    2025.4813  0.070182998  0.070780933            4 
 2406000   0.87240792   -3.2278443    2023.7122  0.070092555  0.070765693            1 
 2407000   0.85768297   -3.2515109    2023.6985   0.07006296  0.070750281            3 
 2408000   0.85965282   -3.2453823    2030.6106  0.070273069  0.070734936            4 
 2409000   0.85891921   -3.2302145    2018.9121  0.069839218  0.070719621            5 
 2410000   0.86289592   -3.2435602    2025.7755  0.070047562  0.070704175            4 
 2411000   0.86382491   -3.2301033    2024.1291  0.069961604   0.07068882            3 
 2412000   0.87197498   -3.2336011    2027.1925  0.070038435  0.070673459            2 
 2413000   0.85691265   -3.2507692    2026.6731  0.069991473  0.070657849            3 
 2414000   0.85507677   -3.2439643    2021.5453  0.069785463  0.070642225            3 
 2415000   0.86995312   -3.2616982    2020.2128  0.069710587  0.070626619            7 
 2416000    0.8540353   -3.2343603    2021.4398  0.069724054   0.07061125            5 
 2417000   0.85525878    -3.212528    2027.0432  0.069888402   0.07059589            2 
 2418000   0.86375946   -3.2366779    2024.2551  0.069763411  0.070580192            4 
 2419000   0.87099412   -3.2421048    2022.2994  0.069667196  0.070564735            3 
 2420000   0.86455452   -3.2353749    2034.0851  0.070044252  0.070549153            3 
 2421000   0.87275914   -3.2272551     2025.445   0.06971792  0.070533733            5 
 2422000   0.88731699   -3.2180044    2031.4514  0.069895796  0.070518332            4 
 2423000   0.85947864   -3.2382352    2031.2128  0.069858743   0.07050326            3 
 2424000   0.87027065   -3.2440504    2033.1172  0.069895393  0.070488003            3 
 2425000    0.8699257   -3.2227739    2035.7769   0.06995797  0.070472878            5 
 2426000   0.88026588   -3.2400114    2026.7305  0.069618388  0.070457783            4 
 2427000   0.85698267   -3.2566063    2033.2743   0.06981439  0.070442487            5 
 2428000   0.85399949   -3.2683914    2030.1701  0.069679096  0.070427107            3 
 2429000    0.8626976   -3.2233376    2046.3234  0.070204592  0.070411945            2 
 2430000   0.87133199   -3.2132242    2034.6254  0.069774534  0.070396877            9 
 2431000   0.85623583   -3.2291822    2040.6149  0.069951148  0.070381575            3 
 2432000   0.86929864   -3.2296084    2032.5569  0.069646274  0.070366508            1 
 2433000   0.86260821   -3.2481222    2034.8703  0.069696886   0.07035129            4 
 2434000   0.87738924   -3.2402021    2040.2181  0.069851346  0.070336137            2 
 2435000   0.86221248   -3.2802803    2032.5978  0.069561868  0.070321098            4 
 2436000   0.87076287    -3.231549      2042.31  0.069865559  0.070306122            4 
 2437000   0.86026542   -3.2508147    2036.7116  0.069645451  0.070291289            4 
 2438000   0.87841133   -3.2670986      2042.23  0.069805509  0.070276426            2 
 2439000   0.85694943    -3.236185    2045.0697  0.069873915  0.070261574            9 
 2440000   0.86859642    -3.244613    2048.9067  0.069976322  0.070246957            3 
 2441000   0.87707506   -3.2258609    2043.6307  0.069767538   0.07023224            3 
 2442000   0.87373736   -3.2346564    2041.0035  0.069649315  0.070217679            4 
 2443000   0.86084267   -3.2493881    2047.0235  0.069826152   0.07020288            4 
 2444000   0.86449025   -3.2286898    2052.5174  0.069984909   0.07018826            7 
 2445000   0.85253889   -3.2532284    2044.6906  0.069689522  0.070173581            2 
 2446000   0.86694093    -3.256502    2045.1891  0.069678015  0.070158702            3 
 2447000   0.84947313   -3.2600161    2047.6159  0.069732186  0.070143967            8 
 2448000   0.86750068   -3.2582477    2049.8058  0.069778247  0.070129241            4 
 2449000   0.87583552    -3.244533    2045.6833  0.069609475  0.070114696            2 
 2450000   0.87226855   -3.2515691    2053.0496   0.06983162  0.070099961            3 
 2451000    0.8561207   -3.2244657    2051.0697  0.069735811  0.070085231            3 
 2452000   0.84646744   -3.2366861    2049.0112   0.06963741  0.070070547            2 
 2453000   0.85591713    -3.230217    2050.8477  0.069671412  0.070055992            2 
 2454000   0.85910941   -3.2552242    2051.6118  0.069668968    0.0700415            4 
 2455000   0.86981676   -3.2438349     2052.758  0.069679497  0.070027016            7 
 2456000   0.85829776   -3.2474457    2052.6681  0.069648078  0.070012545            3 
 2457000   0.85699657   -3.2524268     2053.832  0.069659203  0.069997913            2 
 2458000   0.85442673   -3.2544806    2058.5576  0.069791076  0.069983577           12 
 2459000   0.83377506   -3.2196829    2057.7999  0.069737016  0.069969059            2 
 2460000   0.86225967   -3.2766643    2056.9017  0.069678243  0.069954582            3 
 2461000   0.86109383   -3.2389401    2059.2316  0.069728822  0.069940088            3 
 2462000   0.84511536   -3.2635747    2062.3984  0.069807691  0.069926053            5 
 2463000   0.83999975   -3.2361204     2065.364  0.069879685  0.069911742            4 
 2464000   0.88456842   -3.2353464     2057.515  0.069585869  0.069897455           10 
 2465000   0.85528735   -3.2247813    2062.1696  0.069714996  0.069883033            2 
 2466000    0.8545007    -3.248418    2060.5999  0.069633681   0.06986863            2 
 2467000    0.8616613   -3.2377233    2065.4151  0.069768109  0.069854403            3 
 2468000   0.84883434   -3.2337976    2055.7436  0.069413276  0.069839976            2 
 2469000   0.83587422   -3.2430658    2056.5127  0.069411121  0.069825339            2 
 2470000   0.86238495   -3.2195096    2061.1207  0.069538486  0.069810742            2 
 2471000   0.84298553   -3.2319698     2059.419  0.069452953  0.069796243            2 
 2472000   0.84274098   -3.2700748    2059.7824  0.069437108  0.069781818            3 
 2473000   0.85418083   -3.2675585    2058.1618  0.069354422  0.069767387            3 
 2474000    0.8667413    -3.255608    2058.4594   0.06933641  0.069752936            6 
 2475000   0.83880792   -3.2626873    2061.8253  0.069421727  0.069738702            4 
 2476000   0.83462914   -3.2239373    2065.5255  0.069518225  0.069724477            4 
 2477000   0.85593569   -3.2485949    2064.5381  0.069456939  0.069710474            5 
 2478000   0.85473063   -3.2386701    2068.3422  0.069556841  0.069696206            3 
 2479000   0.86301058   -3.2406106    2064.5885    0.0694026  0.069682063            2 
 2480000   0.87434791    -3.261843    2071.9439   0.06962177  0.069667845            3 
 2481000   0.85592262   -3.2557231    2071.8739  0.069591357  0.069653732            2 
 2482000   0.86962686   -3.2398783    2066.0486  0.069367734  0.069639639            4 
 2483000   0.86011243   -3.2224871    2072.2343  0.069547399  0.069625585            3 
 2484000   0.86152793   -3.2353892    2072.1102  0.069515237  0.069611262            4 
 2485000   0.84682017   -3.2530541     2074.229  0.069558316   0.06959707            6 
 2486000   0.86366394   -3.2667956    2064.4393  0.069202175  0.069582824            4 
 2487000   0.85446034   -3.2609047    2075.8249  0.069555854  0.069568528            5 
 2488000    0.8584673   -3.2719509    2070.5202  0.069350222  0.069554055            6 
 2489000   0.84424777   -3.2759934    2067.9165  0.069235185  0.069539583            3 
 2490000   0.83915284   -3.2489815    2071.3498  0.069322282   0.06952515            4 
 2491000    0.8540764   -3.2414054    2073.1908  0.069356043    0.0695108            5 
 2492000   0.83815104   -3.2552505    2071.1924  0.069261382  0.069496436            4 
 2493000   0.85970486   -3.2475116    2070.3573  0.069205686  0.069482061            4 
 2494000   0.83575888   -3.2596771    2071.9079  0.069229746  0.069467929            2 
 2495000   0.83539169   -3.2532554    2074.5609  0.069290612  0.069453608            7 
 2496000   0.84815224   -3.2532955    2077.4006   0.06935766  0.069439397            3 
 2497000   0.85797869   -3.2551744    2075.8118  0.069276858  0.069425275            2 
 2498000   0.84293165   -3.2563703    2079.3287   0.06936645  0.069411219            3 
 2499000   0.85816813   -3.2422582    2082.0419  0.069429169  0.069397233            3 
 2500000   0.85872297   -3.2913253     2078.967    0.0692989  0.069383197            6 
 2501000   0.85301163   -3.2253866     2081.252  0.069347329  0.069369218            2 
 2502000   0.84536294   -3.2522599    2077.6805  0.069200655  0.069355248            4 
 2503000    0.8439419   -3.2667345    2079.4156  0.069230778  0.069341187            3 
 2504000   0.85925114   -3.2650501    2076.2631  0.069098211  0.069327312            1 
 2505000   0.83512327   -3.2407022    2087.1879  0.069434062  0.069313336            3 
 2506000   0.85082337   -3.2704219    2082.1996  0.069240477   0.06929961            2 
 2507000   0.83739687   -3.2491349    2084.1504  0.069277703   0.06928567            3 
 2508000   0.84172178   -3.2451272    2083.7026  0.069235201  0.069271758            3 
 2509000   0.85285196   -3.2645492    2080.7376  0.069109126   0.06925791            2 
 2510000    0.8694148   -3.2695386    2075.4672  0.068906614  0.069243913            3 
 2511000   0.83317276    -3.256732    2089.1461  0.069333138   0.06922997            3 
 2512000   0.84981715   -3.2577183    2076.7351  0.068893813  0.069215882            5 
 2513000   0.83730681   -3.2762151    2079.2352  0.068949304  0.069201762            7 
 2514000   0.83186609   -3.2636881    2084.0803  0.069082483   0.06918765            3 
 2515000   0.82530075   -3.2782782    2084.2937  0.069062084  0.069173639            3 
 2516000   0.84198401   -3.2530256    2082.4483  0.068973514  0.069159648            4 
 2517000   0.85731905   -3.2852259    2080.9515  0.068896554  0.069145452            4 
 2518000   0.85445037    -3.236294    2076.9892   0.06873806  0.069131284            2 
 2519000    0.8506401   -3.2812911    2078.4067  0.068757665  0.069117123            5 
 2520000    0.8537887    -3.252453    2083.1754  0.068888075  0.069103133            4 
 2521000   0.83727173   -3.2580424    2089.5485  0.069071418  0.069089023            2 
 2522000   0.85453866   -3.2678294    2084.8377  0.068888371  0.069074936            6 
 2523000   0.86201051   -3.2449506    2083.0686  0.068802637  0.069060856            4 
 2524000   0.84730117   -3.2728689    2090.1459  0.069009044  0.069046866            3 
 2525000   0.84176825   -3.2573235    2086.0097  0.068845204  0.069032688            7 
 2526000   0.84375705   -3.2761268    2089.4535  0.068931562  0.069018427            5 
 2527000   0.83392216   -3.2434311    2088.5538  0.068874615  0.069004369            4 
 2528000   0.85130954   -3.2638764    2089.1381   0.06886663  0.068990454            3 
 2529000   0.84897131   -3.2514399    2091.8443  0.068928571   0.06897633            5 
 2530000   0.85073038   -3.2750894    2086.6848  0.068731384  0.068962291            3 
 2531000   0.84374445   -3.2691694    2088.6005  0.068767301  0.068948241            4 
 2532000   0.84007033   -3.2601472     2086.115  0.068658341  0.068934286            2 
 2533000   0.85127512   -3.2576466    2090.3921  0.068771948  0.068920007            7 
 2534000   0.83029865   -3.2615617    2093.8434  0.068858307  0.068905925            4 
 2535000    0.8645662   -3.2598068    2087.5171  0.068623177  0.068891802            5 
 2536000   0.85821629   -3.2875218    2095.9071  0.068871816  0.068877743            3 
 2537000   0.84382363   -3.2298367    2095.4707  0.068830335  0.068863948            2 
 2538000   0.86276331   -3.2492601    2096.9971  0.068853332  0.068850152            2 
 2539000   0.85309009   -3.2802396    2099.6697  0.068913932  0.068836317            5 
 2540000   0.84097721    -3.267956    2093.2631  0.068676609  0.068822278            5 
 2541000   0.84180362   -3.2675098    2099.2263   0.06884515  0.068808239            9 
 2542000   0.83413307   -3.2928258    2096.1698  0.068717868  0.068794352            3 
 2543000   0.84583881   -3.2620045    2096.7129   0.06870864  0.068780431            5 
 2544000    0.8427697   -3.2557916     2099.357  0.068768245  0.068766589            5 
 2545000   0.84181128   -3.2419946      2097.77   0.06868926  0.068752802            4 
 2546000   0.85007807   -3.2596765    2095.1814  0.068577552  0.068738903            2 
 2547000   0.82816724   -3.2665602    2100.8362  0.068735644  0.068724985            2 
 2548000   0.82594756   -3.2591287     2097.503  0.068599652  0.068711017            2 
 2549000   0.83620623   -3.2679308    2101.8387  0.068714486  0.068697334            3 
 2550000   0.84177312   -3.2547646    2104.2634  0.068766778  0.068683567            5 
 2551000   0.84254623   -3.2753706    2093.6147  0.068391959   0.06866973            3 
 2552000   0.86239666   -3.2744029    2103.0626  0.068673675  0.068655988            4 
 2553000    0.8523419   -3.2598079    2095.2905  0.068393084   0.06864215            6 
 2554000   0.82832878   -3.2914889    2097.3874  0.068434724  0.068628345            3 
 2555000   0.84667476   -3.2664339    2109.8377  0.068814015  0.068614668            1 
 2556000   0.85555807   -3.2939996    2104.0334  0.068597855  0.068600984           10 
 2557000   0.85177595   -3.3021291    2101.4083  0.068485475  0.068587154            3 
 2558000   0.84562818   -3.2768209    2105.7796  0.068601107  0.068573519            6 
 2559000   0.83356885   -3.2622153    2107.9613  0.068645348  0.068560177            4 
 2560000   0.84862696   -3.2683427    2102.0188   0.06842509  0.068546533            5 
 2561000   0.85603272   -3.2420709    2110.2234  0.068665345  0.068533056            2 
 2562000   0.85605586   -3.2754205     2110.982  0.068663218  0.068519688            6 
 2563000   0.84738977    -3.272042    2105.8889  0.068470833   0.06850626            2 
 2564000   0.82539026   -3.2651197    2114.9164  0.068737532  0.068492873            5 
 2565000   0.83654227   -3.2818685    2111.9151  0.068613226  0.068479583            2 
 2566000   0.83568064   -3.2870859    2110.8041  0.068550406  0.068466042            3 
 2567000   0.83733125   -3.2860984    2114.7217   0.06865088  0.068452741            2 
 2568000   0.84626058   -3.2891942    2111.0571  0.068505229   0.06843921            5 
 2569000   0.81240881   -3.2492735    2112.9452  0.068539808   0.06842581            3 
 2570000   0.83580889   -3.2615448    2116.8749  0.068640563  0.068412526            3 
 2571000   0.85503964   -3.2960677    2105.0585  0.068230862  0.068399251            5 
 2572000    0.8480685   -3.2587833    2115.6084  0.068546151  0.068385808            4 
 2573000   0.84756566   -3.2784188    2114.5354  0.068484757  0.068372548            3 
 2574000   0.83879906   -3.2641746    2125.3828  0.068809338  0.068359308            2 
 2575000   0.83460372    -3.270276    2118.5537  0.068561608   0.06834615            3 
 2576000   0.84259235   -3.2735683    2121.6008  0.068633568  0.068332923            3 
 2577000   0.84210866   -3.2768716    2121.8753  0.068615808   0.06831974            3 
 2578000   0.83745439    -3.268985     2119.693  0.068518652  0.068306386            8 
 2579000   0.83949705   -3.2492214    2122.8746  0.068594889  0.068293259            3 
 2580000   0.83600572   -3.2482285      2123.77  0.068597221  0.068280238            6 
 2581000   0.82678042   -3.2757286    2118.1391   0.06838884  0.068266942           10 
 2582000   0.83982599   -3.2885752    2120.6588  0.068443674  0.068253824            3 
 2583000   0.84861004   -3.2923709    2121.4083  0.068441358  0.068240902            2 
 2584000    0.8098894   -3.2645814    2127.7276  0.068618668  0.068227713            2 
 2585000   0.85248414   -3.2766858    2124.2955   0.06848148  0.068214667            4 
 2586000   0.83323512    -3.264024    2121.6086  0.068368412  0.068201273            4 
 2587000   0.85870703   -3.2951523     2131.374   0.06865655  0.068188093            7 
 2588000   0.83424346    -3.279025    2118.5654  0.068217587  0.068174963            4 
 2589000   0.83452735   -3.2767229    2125.1613  0.068403545  0.068161874            3 
 2590000   0.83341799   -3.2754124    2129.2584  0.068508959  0.068148729            8 
 2591000   0.85265505   -3.2954161    2127.8002  0.068435617  0.068135483            4 
 2592000   0.84238247   -3.2707466    2128.3765  0.068427743  0.068122403            4 
 2593000   0.83828114   -3.2627122    2130.8077  0.068479485   0.06810915            5 
 2594000   0.82454344   -3.2547362    2129.5874  0.068413886  0.068095967            3 
 2595000   0.83520524   -3.3083045    2121.0372  0.068112949  0.068082869            4 
 2596000   0.83093732   -3.2863993     2128.284  0.068319339  0.068069449            3 
 2597000   0.84712523   -3.2675188    2125.5039  0.068203821  0.068056237            4 
 2598000   0.82960268   -3.2742605     2134.009  0.068450379  0.068043112            6 
 2599000   0.83147819   -3.2887776    2129.9495  0.068293878   0.06803012            2 
 2600000   0.84859512   -3.2880079    2121.7525  0.068004889  0.068016945            2 
 2601000   0.83009104   -3.2686791    2133.3053   0.06834888  0.068003884            4 
 2602000   0.83386838   -3.2779621    2127.7801  0.068145662  0.067990848            3 
 2603000    0.8410762   -3.2791553    2121.8343   0.06792913  0.067977699            3 
 2604000   0.83022627   -3.2791015    2132.2453  0.068236218  0.067964585            4 
 2605000    0.8220844    -3.302371    2132.6661  0.068223484   0.06795149            3 
 2606000   0.82559997    -3.264475    2136.5693   0.06832212  0.067938461            5 
 2607000   0.85181484   -3.2766489    2136.7806  0.068302665   0.06792548            3 
 2608000   0.83679047   -3.2924413    2132.2353  0.068131242  0.067912575            4 
 2609000   0.83182588   -3.2778761    2138.4331   0.06830309  0.067899781            2 
 2610000   0.82403112   -3.2759364    2138.9113  0.068292187  0.067886772            4 
 2611000   0.84304854   -3.2693874    2135.7886  0.068166367  0.067873778            2 
 2612000   0.83699387    -3.267538    2138.8599  0.068238257  0.067860939            2 
 2613000   0.83596848   -3.2882812    2136.5162  0.068137396  0.067848076            3 
 2614000   0.82880602   -3.2967195    2136.9758  0.068125983  0.067835336            1 
 2615000   0.83542582   -3.2977556    2135.0023  0.068037039  0.067822483            4 
 2616000   0.84331833    -3.280944    2139.4179  0.068151691  0.067809585            9 
 2617000   0.82133071   -3.3072086    2140.3236   0.06815449  0.067796801            2 
 2618000   0.83103352   -3.2678138    2146.7747  0.068333801  0.067783878            4 
 2619000   0.82045817   -3.2662754     2142.191  0.068161863  0.067771175            4 
 2620000   0.83361469   -3.3007873    2138.0228  0.068003269  0.067758402            4 
 2621000   0.83414342   -3.2957965    2145.6745  0.068220607  0.067745535            6 
 2622000   0.81127629   -3.2791737    2137.8583  0.067946172  0.067732757            2 
 2623000   0.84157068   -3.3037353    2141.8272  0.068046361  0.067719974            3 
 2624000   0.82980462   -3.2885496    2140.2797  0.067971282  0.067707114            9 
 2625000   0.84237256   -3.2943836    2145.7155  0.068117952  0.067694091            3 
 2626000   0.82793833   -3.2692677     2146.556  0.068118684  0.067681446            2 
 2627000   0.84240345   -3.2797503    2147.1737   0.06811235   0.06766885            2 
 2628000   0.85312354   -3.2961143    2136.6488   0.06775269  0.067655845            2 
 2629000   0.82682192   -3.3042682    2144.5553  0.067977537  0.067642997            3 
 2630000   0.82921243   -3.3046518    2144.7152  0.067956755  0.067630073            3 
 2631000   0.82172773   -3.2907335    2150.9223  0.068127526  0.067617145            2 
 2632000   0.81345945   -3.2698374    2149.0587   0.06804264  0.067604388            5 
 2633000   0.83035345   -3.2766903     2140.608  0.067749336  0.067591543            3 
 2634000   0.80985521   -3.2644896    2143.1515  0.067804085  0.067578697            4 
 2635000   0.83534969   -3.2907565    2142.3058  0.067751607  0.067565779            7 
 2636000   0.82388852   -3.2660391    2148.6719  0.067927161  0.067552889            2 
 2637000   0.82160236   -3.2698271    2141.8135  0.067684665   0.06753988            2 
 2638000   0.83319902    -3.284712    2148.0665  0.067856537  0.067527255            4 
 2639000   0.81708059    -3.276568    2142.7285   0.06766226   0.06751452            3 
 2640000   0.86003346   -3.2894599    2152.7402  0.067952657  0.067501756            3 
 2641000   0.84477436   -3.2714182    2157.8348  0.068087683  0.067489089            1 
 2642000   0.82079749   -3.3032284    2147.7898  0.067745074  0.067476295            4 
 2643000   0.83637748   -3.2601733    2153.5649  0.067901529  0.067463651            3 
 2644000    0.8339173   -3.2946802    2147.2667  0.067677342  0.067450742            3 
 2645000   0.82437214   -3.2734059    2161.3207  0.068094539  0.067438086            1 
 2646000   0.80584646   -3.2925291    2144.3968  0.067535801  0.067425291            3 
 2647000   0.81721892   -3.2950126     2152.443    0.0677636  0.067412365            7 
 2648000   0.84451546    -3.279048    2152.7045  0.067746239  0.067399499            3 
 2649000   0.83955812   -3.2738808    2155.6824  0.067814344  0.067386796            2 
 2650000   0.83281573   -3.2771648    2156.4306  0.067812282  0.067373965            4 
 2651000   0.84137878   -3.2992616     2154.749  0.067733841  0.067361304            6 
 2652000   0.81189006   -3.2954031    2156.6006  0.067766484  0.067348321            5 
 2653000   0.82097975   -3.2971825    2149.0727  0.067504481   0.06733558            4 
 2654000    0.8322386   -3.2840131    2160.4797  0.067837218  0.067322629            4 
 2655000   0.82618212   -3.2917444    2151.3029  0.067523632  0.067309731            5 
 2656000   0.82879016   -3.2944421    2157.4947   0.06769248   0.06729689            3 
 2657000   0.80910079   -3.2723656    2162.9112  0.067836882   0.06728431            5 
 2658000   0.83515311   -3.2807702    2159.5027  0.067704498  0.067271728            6 
 2659000   0.82686336   -3.3096694    2163.6722  0.067809709  0.067259041            4 
 2660000   0.82302734   -3.3078407    2161.0921  0.067703386  0.067246149            4 
 2661000   0.82781769   -3.2952658    2162.5809  0.067724567   0.06723344            3 
 2662000   0.81721013   -3.2925866    2161.6787  0.067670882  0.067220744            4 
 2663000   0.82837588   -3.2940162    2153.9972  0.067405095  0.067207987            3 
 2664000   0.83042049   -3.2711827    2168.4108  0.067830669  0.067195314            5 
 2665000   0.82216633   -3.2972206    2161.8045  0.067598641  0.067182462            2 
 2666000   0.83374283   -3.2870686    2163.8743  0.067637982  0.067169588            2 
 2667000   0.82042957   -3.2767053    2166.0945  0.067681993  0.067157041            5 
 2668000   0.84113831     -3.29639     2157.746  0.067395866  0.067144385            3 
 2669000   0.83912778   -3.2990723    2167.1841  0.067665295  0.067131809            4 
 2670000   0.82443696   -3.2934997     2168.299  0.067674751  0.067119219            3 
 2671000   0.80782167   -3.2895234    2167.4776  0.067623787  0.067106549            3 
 2672000   0.84024163   -3.3071766    2164.0693  0.067492181  0.067093887            5 
 2673000   0.82559672   -3.3118538    2162.4005  0.067414906  0.067081016            4 
 2674000   0.82689726   -3.3108617    2163.7168  0.067430714  0.067068232            6 
 2675000   0.82201951   -3.2994812    2167.0955  0.067510763  0.067055443            2 
 2676000   0.81243001    -3.288016     2168.925  0.067542508  0.067042757            4 
 2677000   0.82287523   -3.2929771    2171.5407  0.067598701  0.067030002            5 
 2678000    0.8213807   -3.3086991    2169.6696  0.067515237  0.067017369            6 
 2679000    0.8175609   -3.2701557     2165.366  0.067356164  0.067004675            4 
 2680000   0.82624169   -3.3137412    2172.8368  0.067563333  0.066991945            2 
 2681000   0.84668533   -3.2794665    2176.3352  0.067646873  0.066979342            5 
 2682000   0.83126275    -3.296776    2166.1911   0.06730646  0.066966731            2 
 2683000    0.8217896   -3.3044126    2170.2628  0.067407841  0.066954093            4 
 2684000    0.8228275   -3.2942786    2178.1903  0.067628859  0.066941516            3 
 2685000   0.81227172   -3.3084949    2172.9619    0.0674414  0.066929001            3 
 2686000   0.82505591   -3.3091705    2178.4622  0.067586937  0.066916523            2 
 2687000      0.82241    -3.293264    2174.6024  0.067442079  0.066904071            4 
 2688000   0.81244472    -3.306112     2173.754  0.067390686  0.066891625            7 
 2689000   0.83672467   -3.2983081    2178.1007  0.067500331  0.066879033            2 
 2690000   0.82376287   -3.2958969    2175.6256  0.067398561  0.066866631            3 
 2691000   0.82457942   -3.3000023     2175.851  0.067380495  0.066854178            6 
 2692000   0.81285479   -3.3164819    2180.6635  0.067504443  0.066841742            2 
 2693000   0.82762718    -3.288071    2180.0308  0.067459798  0.066829451            3 
 2694000    0.8213633   -3.2858303    2175.8505  0.067305447  0.066817178            8 
 2695000   0.82149922   -3.2702799    2177.2858  0.067324853  0.066804788            7 
 2696000   0.81962843   -3.3062069    2177.7126  0.067313074  0.066792449            6 
 2697000   0.81449571   -3.3124244    2179.2552  0.067335779  0.066780038            3 
 2698000   0.81615414   -3.2956026    2181.2692  0.067373029  0.066767637            5 
 2699000   0.81055692   -3.2860761    2180.4806  0.067323718  0.066755324            8 
 2700000   0.80418069    -3.294658    2186.9014  0.067496958  0.066743099            5 
 2701000   0.81869026    -3.329481    2181.7214  0.067312149  0.066730734            4 
 2702000   0.81120912   -3.2933428    2182.8606  0.067322373  0.066718503            4 
 2703000   0.80086624   -3.3185965    2191.2538  0.067556227  0.066706254            2 
 2704000   0.80581529   -3.2983704    2190.3428   0.06750317  0.066693903            6 
 2705000   0.83563713   -3.2946219    2183.4146  0.067264774  0.066681687            3 
 2706000   0.82323492   -3.2900853    2189.0757  0.067414256  0.066669334            4 
 2707000   0.83004886   -3.3123072     2185.135   0.06726804    0.0666569            4 
 2708000   0.80574925   -3.3214611    2180.3369  0.067095547  0.066644357            3 
 2709000   0.83274377   -3.3376545     2180.047  0.067061861  0.066631765            5 
 2710000   0.79792574   -3.2966644    2191.8971  0.067401511  0.066619264            2 
 2711000    0.8159946   -3.3271435    2189.1649  0.067292663  0.066606785            3 
 2712000   0.82848392   -3.3473621    2175.5681  0.066850051  0.066594261            3 
 2713000   0.81243757   -3.3051366    2184.0711  0.067086592  0.066581741            2 
 2714000   0.80454565   -3.3005407    2194.9905  0.067397154  0.066569274            6 
 2715000   0.81134693   -3.3081433      2187.74  0.067149785  0.066556857            3 
 2716000   0.82016148   -3.2730233    2190.7946  0.067218785  0.066544424            4 
 2717000   0.82181176   -3.3235361    2188.4359  0.067121701   0.06653201            5 
 2718000   0.81443058   -3.3167043    2184.9366  0.066989716  0.066519446            5 
 2719000   0.80897063    -3.328246      2180.62  0.066832781  0.066506815            4 
 2720000   0.81367174   -3.3046995    2180.8298  0.066814639  0.066494383            2 
 2721000   0.82193566   -3.2992642    2190.9412  0.067099754  0.066481919            4 
 2722000   0.80643475   -3.3424872    2182.3492  0.066812062  0.066469389            4 
 2723000    0.8129791   -3.3089311    2184.7112  0.066859812  0.066457006            3 
 2724000   0.81199244   -3.3050301    2194.2494  0.067127062  0.066444506            6 
 2725000   0.80541769   -3.3032449    2190.8876  0.066999621  0.066432093            5 
 2726000   0.79843479   -3.3208912    2190.3763  0.066959411  0.066419493            4 
 2727000   0.82560686    -3.294554    2190.1959  0.066929345  0.066406835            5 
 2728000   0.80405855   -3.2963447    2188.2869  0.066846497  0.066394129            5 
 2729000   0.81714462   -3.3016004    2189.1174  0.066847363  0.066381557            3 
 2730000   0.82109595   -3.2859803    2194.0318  0.066972889  0.066369048            4 
 2731000   0.79027196   -3.3091766    2190.0104  0.066825656  0.066356621            7 
 2732000   0.82124548   -3.3148005    2188.3031  0.066749117  0.066343963            5 
 2733000   0.80629567   -3.3077106    2193.5265  0.066883965  0.066331341            2 
 2734000   0.81094553    -3.287261    2194.0788  0.066876334  0.066318722            3 
 2735000   0.81501583   -3.3170301    2188.4796  0.066681278  0.066306145            4 
 2736000   0.80564229   -3.3121598    2192.6951  0.066785305  0.066293532            6 
 2737000   0.81864167    -3.284255    2186.1952  0.066563002  0.066281038            5 
 2738000   0.80294849   -3.3387078      2188.11   0.06659697  0.066268342            7 
 2739000   0.79749534   -3.3003317    2193.0165  0.066721933   0.06625579            4 
 2740000   0.81794225   -3.3188196    2196.7031  0.066809704  0.066243349            7 
 2741000   0.80093728   -3.3374154     2186.173  0.066465189  0.066230837            4 
 2742000   0.81729008   -3.3261853    2193.1048  0.066651617  0.066218152            4 
 2743000    0.8123409    -3.323725    2186.8956  0.066438679  0.066205751            3 
 2744000   0.81553976   -3.3226645    2200.9822  0.066842267  0.066193203            2 
 2745000   0.80577361   -3.3029714    2192.7076  0.066566715  0.066180632            5 
 2746000   0.82916239   -3.2977392    2195.2687  0.066620197  0.066168157            7 
 2747000   0.80695598   -3.3115308    2191.3407  0.066476783  0.066155573            3 
 2748000   0.80131355   -3.3056509    2204.5815  0.066854122  0.066142998            3 
 2749000   0.81496852   -3.3070671    2190.7162  0.066409489  0.066130436            4 
 2750000   0.82202077   -3.3292304    2192.0222  0.066424915  0.066117706            4 
 2751000   0.80861763   -3.3207837     2199.319  0.066621803    0.0661053            4 
 2752000   0.82175738   -3.2902438     2205.527   0.06678558  0.066092883            4 
 2753000   0.81334312   -3.3296084    2195.6684    0.0664629  0.066080243            5 
 2754000   0.83174436   -3.3409617    2200.2779  0.066578247  0.066067684            3 
 2755000   0.79699414   -3.3133611    2200.5505  0.066562325  0.066055142            3 
 2756000   0.82066136   -3.3054737    2199.4001   0.06650339  0.066042689            3 
 2757000   0.80405184   -3.3150231    2197.7353  0.066428947  0.066030247           10 
 2758000   0.81366519   -3.3214589    2197.1467  0.066387077  0.066017715            4 
 2759000   0.79468961   -3.3280571    2195.4153   0.06631072  0.066005152            7 
 2760000   0.83097562   -3.3182756     2198.011  0.066365065  0.065992401            2 
 2761000   0.80426291   -3.3056898    2200.1008  0.066404105  0.065979639            5 
 2762000   0.81058975   -3.3151716    2202.2515  0.066444954  0.065966934            5 
 2763000   0.82480478   -3.3214004    2198.1444  0.066297031  0.065954252            5 
 2764000   0.80759658   -3.2901608    2212.9786  0.066720291  0.065941581            3 
 2765000   0.81242808   -3.3198147    2198.8665  0.066270841  0.065929139            8 
 2766000   0.80605083   -3.3339221    2205.0134  0.066432073  0.065916345            5 
 2767000   0.80795651   -3.3116852    2205.7904  0.066431465  0.065903774            5 
 2768000   0.81903183   -3.3026544    2203.3822  0.066334964  0.065891213            4 
 2769000   0.81951788   -3.3182603    2202.6326   0.06628845  0.065878496            2 
 2770000   0.81285133   -3.3105044    2206.1952  0.066371696  0.065865861            4 
 2771000   0.81545801   -3.2997423    2206.3669  0.066352909   0.06585322            4 
 2772000   0.82129824   -3.3078722     2206.462   0.06633183  0.065840581            5 
 2773000   0.81343962   -3.3256557    2201.0758  0.066146045  0.065827857            2 
 2774000   0.80268624    -3.318663    2199.9217  0.066087529  0.065815241            6 
 2775000   0.77535328   -3.3138725    2212.1845  0.066431968  0.065802634            2 
 2776000   0.81690313   -3.3402895    2198.7169  0.066003748  0.065789907            6 
 2777000   0.81268864   -3.3403046    2199.4947  0.066003322  0.065777281            3 
 2778000   0.80237469   -3.3032721    2215.3605    0.0664555  0.065764687            4 
 2779000   0.79929664   -3.3120063    2211.5595  0.066317607  0.065752105            4 
 2780000    0.8028399   -3.3226556    2205.8116  0.066121452  0.065739522            3 
 2781000    0.7933806   -3.3394523    2205.7371  0.066095443  0.065726886            4 
 2782000   0.83154507   -3.3297295    2206.0123  0.066079929  0.065714299            3 
 2783000   0.79977923   -3.3279429    2211.8225  0.066230163  0.065701849            6 
 2784000   0.81682448   -3.3438818    2200.9606  0.065881245  0.065689172            6 
 2785000   0.81013973   -3.3151956    2213.6193  0.066236365  0.065676391            3 
 2786000   0.80511652    -3.311946    2212.4565  0.066177808  0.065663747            6 
 2787000   0.80736232    -3.324342    2212.8901  0.066167029  0.065651091            7 
 2788000   0.80164757   -3.3040998    2212.9429  0.066144875  0.065638427            2 
 2789000    0.7952336   -3.3549483    2209.2724  0.066011485  0.065625703            4 
 2790000   0.80717651   -3.3132192    2208.0577  0.065951546  0.065613133            3 
 2791000    0.7970601   -3.3298745    2217.5438  0.066211149  0.065600628            5 
 2792000   0.80670265   -3.3054365     2212.477  0.066036204  0.065587766            4 
 2793000   0.80445553   -3.2983497    2216.7989  0.066141512   0.06557519            2 
 2794000   0.80675571   -3.3078014      2218.36  0.066164399  0.065562551            4 
 2795000   0.81729076    -3.324391    2216.0319  0.066071316  0.065549927            2 
 2796000   0.79545636    -3.313289    2212.7507  0.065949889  0.065537187            3 
 2797000     0.805276   -3.3309476    2214.0444  0.065964855  0.065524474            2 
 2798000   0.80475935   -3.3257154    2210.3222  0.065830421  0.065511739            3 
 2799000   0.79264233   -3.3406158     2214.224  0.065923069  0.065498802            4 
 2800000   0.80479452   -3.3113759    2214.3232  0.065902475  0.065485832            3 
 2801000   0.79322394   -3.3137726    2216.0526  0.065930401  0.065473104            2 
 2802000   0.80194449   -3.3400891    2219.4543  0.066008038  0.065460205            5 
 2803000   0.79830461   -3.3360102    2200.2394  0.065413229  0.065447339            5 
 2804000   0.81972571   -3.3664177    2213.3114  0.065778394  0.065434506            6 
 2805000   0.80650909   -3.3341779    2212.1238  0.065719661  0.065421727            4 
 2806000   0.81088084   -3.3261213    2217.5415  0.065857137  0.065408898            5 
 2807000   0.79444187   -3.3252062    2214.0295  0.065729411  0.065396013            3 
 2808000    0.7966802   -3.3119935    2203.0537  0.065380273   0.06538326            5 
 2809000   0.80662266   -3.3427483    2213.4505  0.065665434  0.065370296            3 
 2810000   0.78735464   -3.3264045    2212.6192  0.065617414  0.065357377            4 
 2811000    0.7987757   -3.3392331    2208.9624  0.065485663  0.065344582            3 
 2812000   0.79213285   -3.3386836     2212.831   0.06557702  0.065331605            3 
 2813000   0.81493544   -3.3355497    2218.7341  0.065728586  0.065318708            6 
 2814000   0.80121538   -3.3524319     2209.348  0.065427268  0.065305752            5 
 2815000   0.79816991   -3.3124178    2207.5489  0.065350766  0.065292827            5 
 2816000   0.79409347   -3.3287422    2214.8264  0.065542921  0.065279844            3 
 2817000   0.80255894   -3.3422477    2204.5555  0.065215818  0.065266814            3 
 2818000    0.7999049   -3.3450537    2217.5518     0.065577  0.065253869            3 
 2819000    0.8078736   -3.3210755    2213.8518  0.065444361  0.065240929            4 
 2820000   0.78653733   -3.3234888    2216.7903  0.065507987  0.065227922            2 
 2821000   0.81438405    -3.304657    2212.3459  0.065353476  0.065215069            3 
 2822000    0.7894896   -3.3317428    2216.9655  0.065466736  0.065202166            3 
 2823000   0.79977791   -3.3400956    2215.4466  0.065398706  0.065189196            2 
 2824000   0.79325729   -3.3417542    2216.3771  0.065403008  0.065176317            6 
 2825000   0.79403563   -3.3522748    2219.7369  0.065478963  0.065163463            2 
 2826000   0.79492421   -3.3080739    2223.4807  0.065566192  0.065150544            2 
 2827000   0.81004705   -3.3179443    2218.2684  0.065389353  0.065137729           10 
 2828000   0.80410008   -3.3292775    2220.7697  0.065439938  0.065124909            5 
 2829000   0.79960271    -3.329527    2223.0453  0.065483838  0.065112161            4 
 2830000   0.78899769   -3.3429285    2222.7578  0.065452233  0.065099441            5 
 2831000   0.80943616   -3.3367836    2227.0719  0.065556101  0.065086572            3 
 2832000   0.79179718   -3.3382693    2220.3028  0.065333768  0.065073761            5 
 2833000   0.79450339   -3.3138977    2231.0591  0.065627106  0.065061031            3 
 2834000   0.79606883   -3.3247811    2231.2743  0.065610276  0.065048254            7 
 2835000    0.7886569   -3.3265206    2227.4542  0.065474846    0.0650355           12 
 2836000   0.78421448   -3.3396562    2219.6368   0.06522205  0.065022527            4 
 2837000   0.79758727   -3.3229081    2226.0577  0.065387666  0.065009765            7 
 2838000   0.80147762   -3.3344164    2214.4376  0.065023421  0.064996793            2 
 2839000   0.80751555   -3.3568102    2223.4304  0.065264483   0.06498375            4 
 2840000    0.7833167   -3.3545235    2216.9746  0.065052072  0.064970728            7 
 2841000   0.80425351   -3.3213517    2225.1448  0.065268824   0.06495776            4 
 2842000   0.78711859   -3.3261278    2225.9822  0.065270415  0.064944935            3 
 2843000   0.80483939   -3.3040282    2227.6303  0.065295765  0.064932087            6 
 2844000   0.78661394   -3.3487839    2227.0446  0.065255642  0.064919277            4 
 2845000   0.81014562   -3.3353173    2221.5733  0.065072445  0.064906266            5 
 2846000   0.80551691   -3.3331968     2227.096  0.065211292  0.064893315            4 
 2847000   0.79165529   -3.3546195    2232.9855  0.065360775  0.064880326            4 
 2848000   0.79947051   -3.3452738    2227.1048  0.065165754  0.064867408            5 
 2849000   0.80349125   -3.3379713    2225.6742  0.065101035  0.064854481            6 
 2850000   0.79452343   -3.3477612    2230.3745  0.065215629  0.064841642            5 
 2851000    0.8040637   -3.3306392    2235.3267  0.065337505  0.064828804            2 
 2852000   0.78420821   -3.3262198    2218.3916  0.064819764  0.064815868            3 
 2853000   0.78140736   -3.3334484     2229.552  0.065123029  0.064802801            4 
 2854000   0.79293356   -3.3420788    2231.1191  0.065145968  0.064790051            4 
 2855000   0.79087448   -3.3530059    2229.4432  0.065074234  0.064777201            3 
 2856000   0.80296531   -3.3606694    2230.5604  0.065084045  0.064764316            4 
 2857000   0.78515206   -3.3427795    2228.4238  0.064998944  0.064751451            4 
 2858000    0.7877444   -3.3448593    2233.6367    0.0651282   0.06473857            4 
 2859000   0.78874561   -3.3407331    2230.5286  0.065014826  0.064725756            7 
 2860000   0.77975037   -3.3518481    2231.9145  0.065032475  0.064712975            5 
 2861000   0.78686331   -3.3322675    2236.2326  0.065135517   0.06470026            4 
 2862000   0.79878886   -3.3587498    2231.8058  0.064983862  0.064687439            5 
 2863000   0.79426693   -3.3493527    2240.7959  0.065222839  0.064674814            6 
 2864000   0.79187496   -3.3520782    2233.5646   0.06498966  0.064662083            4 
 2865000   0.79978643   -3.3239985    2231.2966  0.064901007  0.064649391            5 
 2866000   0.80148431   -3.3266281    2233.4558  0.064941143  0.064636687            3 
 2867000   0.78946304    -3.362902    2228.8019  0.064783221  0.064623848            4 
 2868000   0.79119808   -3.3459107    2236.1839  0.064975124  0.064611127            4 
 2869000   0.79031947   -3.3346819    2241.0667  0.065094303  0.064598276            5 
 2870000   0.79894506   -3.3216689    2238.9253  0.065009445  0.064585685            4 
 2871000   0.79359172   -3.3386324    2241.2668  0.065054767  0.064573023            2 
 2872000   0.79367798   -3.3494246    2234.6835  0.064841096  0.064560436            4 
 2873000   0.79259185   -3.3466125    2245.2229   0.06512423  0.064547896            3 
 2874000   0.79375699   -3.3328393    2244.7913  0.065089055  0.064535181            4 
 2875000   0.79777726   -3.3370672    2239.1993  0.064904327  0.064522504            2 
 2876000   0.78142077   -3.3268527    2248.4937   0.06515107  0.064509896            5 
 2877000   0.77764086   -3.3326311    2250.8501  0.065196676  0.064497336            3 
 2878000    0.7882505   -3.3553475    2239.8963  0.064856854  0.064484761            6 
 2879000   0.79314072   -3.3569124    2239.8699  0.064833561  0.064472072            3 
 2880000   0.81331141   -3.3466493    2235.7412  0.064691587  0.064459239            8 
 2881000   0.77868298    -3.341086    2243.2769  0.064887101  0.064446576            5 
 2882000   0.80771863   -3.3484871    2236.6688  0.064673514  0.064433931            5 
 2883000   0.78814627   -3.3319407    2242.0339  0.064806161  0.064421258            4 
 2884000   0.79412257   -3.3546592    2245.1849  0.064874737  0.064408649            7 
 2885000   0.79894433   -3.3354319    2243.1022   0.06479209  0.064395948            7 
 2886000   0.79609579   -3.3468761    2245.8389  0.064848662  0.064383192            4 
 2887000   0.78345599   -3.3623051    2248.2388  0.064895474  0.064370592            7 
 2888000   0.80164494   -3.3715954    2246.9118  0.064834712  0.064358011            3 
 2889000   0.77344442   -3.3253079    2251.9468  0.064957504  0.064345466            2 
 2890000   0.78799903   -3.3328924    2257.6159  0.065098497  0.064332932            3 
 2891000   0.77266902   -3.3643291     2253.285  0.064951142  0.064320326            3 
 2892000    0.8124584   -3.3631003    2238.0033  0.064488338  0.064307521            3 
 2893000   0.77848538   -3.3634104    2247.0289  0.064726031  0.064294886            4 
 2894000   0.80819673   -3.3443307     2255.112  0.064936421  0.064282073            2 
 2895000   0.79409431   -3.3204231    2248.6755  0.064728714  0.064269525            3 
 2896000   0.77720736    -3.336413    2250.8614  0.064769264  0.064256934            3 
 2897000   0.77681944   -3.3460915    2251.8241  0.064774599  0.064244341            6 
 2898000   0.78412765   -3.3436011    2247.5817  0.064630254  0.064231705            4 
 2899000   0.79862171   -3.3415496    2258.1441   0.06491158  0.064219079            7 
 2900000   0.81375327   -3.3542814    2249.0363  0.064627479  0.064206343            5 
 2901000   0.78799987    -3.368199    2252.6313  0.064708472   0.06419377            5 
 2902000   0.78831962   -3.3472312    2248.2336  0.064559888  0.064181115            5 
 2903000   0.80221719   -3.3301298    2255.5822  0.064748598  0.064168607            3 
 2904000   0.78663891   -3.3406829    2249.8626  0.064562174  0.064156042            4 
 2905000   0.77976162   -3.3624559    2245.9335  0.064427239  0.064143418            4 
 2906000   0.79596218   -3.3445018    2259.1822  0.064784989  0.064130911            4 
 2907000   0.79221232    -3.334213    2255.2657  0.064650432  0.064118359            4 
 2908000   0.77970772   -3.3484694    2254.6202  0.064609704  0.064105891            5 
 2909000   0.76889852   -3.3230285    2253.0396  0.064542215  0.064093434            5 
 2910000   0.78998367   -3.3310879    2257.7442  0.064654758  0.064081126            7 
 2911000   0.79561027   -3.3492294    2255.7832  0.064576411  0.064068723            3 
 2912000   0.79064489    -3.355305    2245.0955  0.064248382  0.064055999            4 
 2913000   0.78188077   -3.3748315    2250.1295  0.064370338  0.064043347            9 
 2914000   0.77046644   -3.3494144      2254.34  0.064468658  0.064030613            4 
 2915000   0.76671171   -3.3366423    2254.3108  0.064445706  0.064018009            5 
 2916000   0.76285423   -3.3489684    2257.4736  0.064513992  0.064005547            2 
 2917000   0.79426937   -3.3542508     2255.598  0.064438292  0.063993055            3 
 2918000   0.80285162   -3.3604417    2258.2438  0.064491771  0.063980457            5 
 2919000   0.78618864   -3.3523143    2260.0076   0.06452003  0.063967933            4 
 2920000   0.78318324   -3.3602712    2251.0489  0.064242264  0.063955297            4 
 2921000   0.80705046   -3.3385495    2265.5569  0.064634171  0.063942787            5 
 2922000   0.79030072   -3.3553784    2261.8326  0.064505835  0.063930238            5 
 2923000   0.78397515   -3.3716025    2266.3196  0.064611689  0.063917735            2 
 2924000   0.77693462   -3.3415473    2256.4838  0.064309273  0.063905208            5 
 2925000   0.77951355    -3.337187    2264.6759   0.06452068   0.06389283            3 
 2926000   0.77582752   -3.3590023    2267.6152  0.064582341  0.063880505            5 
 2927000   0.78820678   -3.3469516    2264.0306  0.064458223  0.063867994            5 
 2928000   0.77399721   -3.3660839    2263.4361  0.064419289  0.063855549            6 
 2929000   0.79111646    -3.374052    2254.2816  0.064136839  0.063842937            3 
 2930000   0.77916633   -3.3531538    2264.2652  0.064398895  0.063830231            5 
 2931000   0.78047811   -3.3525357    2256.1805  0.064147062  0.063817564            6 
 2932000   0.78341078   -3.3552643    2268.8471  0.064485195  0.063805065            3 
 2933000   0.76073528    -3.350606     2256.315  0.064107142  0.063792485            8 
 2934000   0.77314383   -3.3465032     2263.706  0.064295218  0.063780046            3 
 2935000   0.78074959   -3.3374284     2262.954  0.064251959  0.063767465            4 
 2936000   0.78368425   -3.3768865    2262.0788  0.064205233  0.063754923            2 
 2937000   0.77351315   -3.3676702    2259.3381   0.06410561  0.063742185            9 
 2938000   0.77324044   -3.3374122    2269.8506  0.064381967  0.063729477            2 
 2939000   0.80661577   -3.3756826    2262.7146  0.064157725  0.063716789            6 
 2940000   0.79373908   -3.3705102    2256.6287  0.063963399  0.063703991            5 
 2941000   0.76987855   -3.3760263    2256.8811  0.063948801  0.063691161            2 
 2942000   0.78402167   -3.3638497    2265.3079  0.064165757  0.063678402            4 
 2943000   0.79022906   -3.3623435    2258.6842  0.063956399  0.063665728            4 
 2944000   0.77806562   -3.3572559     2256.327  0.063867951  0.063652885            6 
 2945000   0.78211037    -3.376164    2257.5422  0.063880652  0.063639978            6 
 2946000   0.78645224   -3.3619975    2262.2495  0.063992123  0.063627129            5 
 2947000   0.78165641    -3.359472    2261.1317    0.0639388  0.063614399            4 
 2948000   0.75916781   -3.3522058    2263.8149  0.063992959  0.063601587            5 
 2949000   0.76777809   -3.3521638    2265.4038  0.064016157  0.063588788            4 
 2950000   0.78438867   -3.3745985    2261.3351  0.063879524  0.063576041           10 
 2951000   0.77321748   -3.3607713    2259.7098  0.063811979  0.063563306            5 
 2952000   0.78976577   -3.3595451    2267.1061  0.063999155  0.063550664            4 
 2953000   0.76554756   -3.3523878    2261.3935  0.063816273  0.063537936            6 
 2954000   0.77664791    -3.363977    2261.4798  0.063797105    0.0635251            5 
 2955000   0.76551268   -3.3586942    2261.0205  0.063762563  0.063512284            6 
 2956000   0.77722576   -3.3723631    2257.2975  0.063636036  0.063499472            3 
 2957000    0.7803021   -3.3760692    2257.3621  0.063616338  0.063486566            4 
 2958000   0.78119203   -3.3551896    2267.6579  0.063884885  0.063473667            6 
 2959000    0.7705841   -3.3276331     2266.548  0.063832037  0.063460805            5 
 2960000   0.77527361   -3.3476044    2268.0557  0.063852919  0.063447958            4 
 2961000     0.773317   -3.3383257    2262.2358  0.063667562   0.06343521            4 
 2962000   0.77113212   -3.3663217    2270.1918  0.063869902  0.063422378            3 
 2963000   0.77517793   -3.3579868    2273.9435   0.06395386  0.063409658            4 
 2964000   0.78855957   -3.3768668    2262.8153  0.063619413  0.063396815            5 
 2965000   0.78974669   -3.3541564    2265.5438  0.063674643  0.063383976            4 
 2966000   0.76759114   -3.3641935    2266.0382  0.063667065  0.063371033            5 
 2967000    0.7769562    -3.368611      2267.94  0.063699024  0.063358273            3 
 2968000   0.78867524   -3.3452875    2267.1987  0.063656746  0.063345543            5 
 2969000   0.77437895   -3.3822594    2266.6395  0.063619612    0.0633327            4 
 2970000   0.79542146   -3.3599643    2272.0957  0.063751282  0.063319816            5 
 2971000   0.76136258   -3.3793572    2265.7368  0.063551464   0.06330695            4 
 2972000   0.76529267   -3.3791457    2267.9964   0.06359344  0.063294119            9 
 2973000   0.76600688   -3.3522653    2268.4698  0.063585319  0.063281367            8 
 2974000   0.78013849   -3.3588003    2266.9832  0.063522282  0.063268583            4 
 2975000   0.77272092   -3.3788991    2270.8911  0.063610394  0.063255751            4 
 2976000   0.76897141    -3.370577    2271.7589  0.063613321  0.063243023            3 
 2977000   0.77157147   -3.3573202    2272.7701  0.063620258  0.063230148           10 
 2978000   0.77632765   -3.3839314    2268.4349  0.063477582  0.063217287            5 
 2979000    0.7827405   -3.3331551    2272.8998  0.063581173  0.063204444            2 
 2980000   0.78183232   -3.3521148    2273.6385  0.063580495  0.063191623            8 
 2981000   0.78534862   -3.3776165    2265.7534  0.063338741  0.063178682            6 
 2982000   0.75212819   -3.3724754    2268.7383  0.063400914  0.063165701            4 
 2983000   0.78233694   -3.3523062    2277.9725  0.063637628  0.063152818            6 
 2984000   0.77331228   -3.3415818    2274.6778  0.063524289  0.063139953            3 
 2985000    0.7806591   -3.3663562    2266.4297  0.063272744  0.063126957            4 
 2986000   0.78465186   -3.3582514     2266.695  0.063258959  0.063113879            5 
 2987000   0.78165469    -3.402818    2261.8856  0.063103606  0.063100708            6 
 2988000   0.77472885   -3.3843638    2275.3954  0.063459265  0.063087727            5 
 2989000   0.76622842   -3.3647466    2275.3754  0.063437476   0.06307459            3 
 2990000   0.77291412   -3.3822957    2270.7642  0.063287742  0.063061279            3 
 2991000   0.77414315   -3.4043319    2266.7638  0.063155127  0.063048165            4 
 2992000   0.76842327    -3.361209    2274.1716  0.063340341  0.063035105            2 
 2993000   0.75884594   -3.3844619    2277.5086  0.063412089  0.063022086            4 
 2994000   0.76995792   -3.3641562    2269.8581  0.063177969  0.063008906            3 
 2995000   0.76147949   -3.3842557    2272.1107  0.063219552  0.062995916            5 
 2996000   0.79903635   -3.3571283    2272.1303  0.063198996  0.062982798            3 
 2997000   0.77870733   -3.3589497    2275.1935  0.063263083  0.062969786            7 
 2998000   0.77790564   -3.3723589    2275.1277  0.063240153  0.062956782            8 
 2999000   0.75936775   -3.3584938    2278.1349  0.063302627  0.062943856            5 
 3000000    0.7699597   -3.3788624    2279.9443  0.063331786  0.062930948            8 
 3001000    0.7669724   -3.3756763     2282.301  0.063376126  0.062917797            7 
 3002000   0.79568602   -3.3640116     2273.588  0.063113148  0.062904812            3 
 3003000   0.75776286   -3.3762248    2269.6841  0.062983797  0.062891658            6 
 3004000   0.77417626   -3.3724941    2273.4281  0.063066692  0.062878444            5 
 3005000   0.76614544   -3.3618916    2279.8751  0.063224488  0.062865431            3 
 3006000   0.75661755   -3.3782956     2276.739  0.063116518   0.06285227            7 
 3007000     0.767911   -3.3568427    2280.1503  0.063190064  0.062839363            4 
 3008000   0.75883113      -3.3575    2284.1472  0.063279786  0.062826446            6 
 3009000   0.77811045   -3.3845948    2279.1222  0.063119591  0.062813524            2 
 3010000   0.77844906   -3.3880628    2278.5931  0.063083972  0.062800538            5 
 3011000   0.76368518   -3.3920123    2275.4962   0.06297731  0.062787544            5 
 3012000   0.77891613   -3.3856374    2272.1043  0.062862557  0.062774329            7 
 3013000   0.77174305   -3.4087761    2275.3626  0.062931813  0.062761246            6 
 3014000   0.76446143   -3.4005766    2279.3036  0.063019896  0.062748163            4 
 3015000   0.76205225   -3.4000826    2276.2188  0.062913731   0.06273516            3 
 3016000   0.79474888    -3.387781    2278.4671  0.062954993  0.062722154            3 
 3017000   0.76331561   -3.3560894     2273.881  0.062807451  0.062709153            3 
 3018000   0.78942401   -3.3938745    2277.6277  0.062890095  0.062696073            5 
 3019000   0.76966663   -3.3823808     2277.816  0.062874463  0.062683072            5 
 3020000   0.76523159   -3.3798394    2281.4448  0.062953775  0.062670067            5 
 3021000   0.76542792    -3.376578    2284.5466  0.063018498  0.062657133            4 
 3022000   0.77119529   -3.3573051    2285.3004   0.06301843  0.062644231            5 
 3023000   0.76837772   -3.3695905    2285.2641  0.062996584  0.062631392            5 
 3024000   0.76685271   -3.3844132    2281.8689  0.062882189  0.062618475            4 
 3025000   0.77411712   -3.3420377    2277.7946  0.062749163  0.062605643           10 
 3026000    0.7785279   -3.3930857    2283.2826   0.06287956  0.062592754            6 
 3027000    0.7589166   -3.3714921    2285.7858  0.062927702  0.062579827            5 
 3028000   0.75124586   -3.3803815    2281.9284   0.06280076  0.062566762            5 
 3029000   0.76272206    -3.380197     2280.417  0.062738445  0.062553809            5 
 3030000   0.75658732   -3.3967393    2277.0979  0.062626454   0.06254077            9 
 3031000   0.75702807   -3.3840833    2293.8063  0.063065168  0.062527743            5 
 3032000   0.75803533    -3.393855    2282.7863  0.062741488  0.062514724            3 
 3033000   0.76678891   -3.3969258    2277.2754  0.062569387  0.062501864            7 
 3034000   0.76728254   -3.3728493    2279.9929  0.062623404  0.062489087            4 
 3035000    0.7589737   -3.3830419    2289.8496  0.062873411  0.062476253            4 
 3036000   0.75857306   -3.3874469    2284.7866  0.062713729  0.062463322            4 
 3037000   0.76239797   -3.3843938    2287.7825  0.062775286  0.062450411            4 
 3038000   0.77047395   -3.3806241    2281.1188  0.062571833  0.062437496            6 
 3039000    0.7689422    -3.386998    2292.2339  0.062856036  0.062424659            2 
 3040000    0.7566374   -3.4122913    2285.9407  0.062662847  0.062411752            3 
 3041000   0.76132568   -3.3935773    2286.4518  0.062656247  0.062398813            6 
 3042000    0.7650179   -3.3907692    2286.1728  0.062628008  0.062385866            6 
 3043000   0.76616292   -3.3947901    2287.3845   0.06264061  0.062373033            4 
 3044000   0.77065091   -3.3942756    2286.8362  0.062605021  0.062360175            4 
 3045000   0.75257711   -3.3874176    2287.4263  0.062600612  0.062347346            4 
 3046000   0.74952906   -3.3840029    2294.5023  0.062773647  0.062334579            5 
 3047000   0.76448559   -3.3855924    2293.7592   0.06273272  0.062321748            5 
 3048000   0.77558848   -3.3550795    2296.1286  0.062776918     0.062309            6 
 3049000   0.76472568   -3.3805092    2293.0375  0.062671845   0.06229617            9 
 3050000   0.76651122   -3.3674208    2296.8071  0.062754292   0.06228336            5 
 3051000   0.77484157   -3.4001527    2284.7688  0.062404916  0.062270452            5 
 3052000   0.77279575   -3.3980253    2291.3032  0.062562887  0.062257439            6 
 3053000   0.76282287   -3.3755993    2297.0593   0.06269951  0.062244547            5 
 3054000   0.76685133   -3.3980029    2284.5065  0.062336458  0.062231672            6 
 3055000   0.75516142   -3.3933952    2289.0804  0.062440818   0.06221881            7 
 3056000   0.75726988   -3.3795197    2284.3422   0.06229118  0.062206021           10 
 3057000   0.75826464   -3.3671975    2294.3962  0.062544876  0.062193146            2 
 3058000    0.7666697   -3.3853735    2297.1468  0.062599379  0.062180281            3 
 3059000    0.7645816   -3.3614878    2302.4576  0.062723593  0.062167422            3 
 3060000   0.76753704   -3.3793109    2293.5136   0.06245952  0.062154597            3 
 3061000   0.75799703   -3.3573916    2301.0931  0.062645462  0.062141817            1 
 3062000   0.77015445   -3.4001973    2291.9711  0.062376743  0.062128987            5 
 3063000   0.74604192   -3.3648698    2300.0673  0.062576648  0.062116034            2 
 3064000   0.76718996   -3.3937123    2289.4071  0.062266293  0.062103121            7 
 3065000   0.76361891   -3.4028115    2295.1809  0.062402961   0.06209018            3 
 3066000   0.75467459    -3.380653    2298.2269  0.062465396   0.06207727            4 
 3067000   0.76552986   -3.4017688    2295.6075  0.062373859   0.06206423            7 
 3068000   0.76699281   -3.3759264    2291.2227  0.062234427  0.062051346            4 
 3069000   0.75861859   -3.4030873    2296.3306  0.062352846  0.062038522            2 
 3070000   0.75137994   -3.3974762    2288.2872  0.062114203  0.062025502            7 
 3071000   0.75994636   -3.3755503    2295.6055  0.062292561   0.06201264            3 
 3072000   0.75709689   -3.4027013    2296.1383  0.062286738  0.061999647            5 
 3073000   0.77129632    -3.391128    2299.4921  0.062357416  0.061986559            7 
 3074000   0.75746124   -3.3928577     2304.166  0.062463836  0.061973605            5 
 3075000   0.74849247   -3.4131315    2290.8638  0.062083029  0.061960515            5 
 3076000    0.7581779   -3.3982428    2289.3531   0.06202192  0.061947232            8 
 3077000   0.74606271   -3.4017507    2286.1291   0.06191445  0.061934116            9 
 3078000   0.76847355   -3.3821185    2283.5802  0.061825325  0.061920889            5 
 3079000   0.75758826   -3.3873973    2291.3871  0.062016539  0.061907723            5 
 3080000   0.75591822   -3.4259649    2288.3321  0.061913748  0.061894466            5 
 3081000    0.7599092   -3.3951165    2291.5955  0.061981919  0.061881222            2 
 3082000   0.77386281   -3.4122939      2291.87   0.06196923  0.061867817            5 
 3083000   0.76963917   -3.3915136    2287.8833  0.061841369   0.06185441            2 
 3084000   0.76871837   -3.3905575    2289.6551  0.061869193  0.061841119            7 
 3085000   0.75325044   -3.3921552    2291.4489  0.061897594  0.061827941            7 
 3086000   0.74082011     -3.38093    2293.5508  0.061934296  0.061814693            4 
 3087000   0.75163002    -3.392504    2297.4322  0.062019009  0.061801277            3 
 3088000   0.74420185    -3.390518    2289.0879  0.061773745  0.061788059            3 
 3089000   0.76195577   -3.3920688    2292.0475  0.061833589  0.061774698            5 
 3090000   0.74707315   -3.4000482    2294.5108  0.061880011  0.061761439            6 
 3091000   0.75910606   -3.3699939    2295.9914  0.061899908  0.061748115            5 
 3092000   0.75262916   -3.3876107    2300.8849  0.062011774  0.061734811            9 
 3093000   0.75998391   -3.3927411    2287.3944  0.061628257  0.061721376            6 
 3094000   0.75514708   -3.4027518    2286.8269  0.061593053  0.061707989           10 
 3095000   0.74295346   -3.3808278    2287.8709  0.061601263  0.061694658            3 
 3096000   0.74859155   -3.3969643    2293.2089  0.061725046  0.061681319            3 
 3097000   0.75646875   -3.4055906    2298.8031  0.061855643   0.06166808            6 
 3098000   0.74003704   -3.4151618    2287.2204  0.061524111   0.06165475            6 
 3099000   0.76641446   -3.3969908    2295.8881  0.061737337  0.061641638            5 
 3100000   0.76191702   -3.3906194    2303.3823  0.061918879  0.061628387            3 
 3101000   0.75471086   -3.4092843    2294.5892  0.061662615  0.061615127            5 
 3102000   0.73573567   -3.3845828     2299.357   0.06177082   0.06160183            8 
 3103000   0.75937136    -3.398229    2300.1288   0.06177164  0.061588617            3 
 3104000   0.75750352   -3.4124488    2294.5574  0.061602163  0.061575311            4 
 3105000   0.75408589   -3.3929145     2300.631  0.061745329  0.061561979            3 
 3106000   0.76052287   -3.4102565    2294.1689  0.061552073  0.061548637            5 
 3107000   0.75307436    -3.394133    2298.6965  0.061653698  0.061535365            4 
 3108000   0.74071152   -3.4252101    2295.8731  0.061558158  0.061522005            4 
 3109000   0.75375468   -3.4250478    2291.1422  0.061411553  0.061508614            4 
 3110000   0.77587436   -3.4316895    2291.3946  0.061398569  0.061495282            7 
 3111000   0.75185302   -3.4003774    2296.5734  0.061517555  0.061481739            5 
 3112000   0.75197085   -3.4089601    2296.9046  0.061506658  0.061468337            2 
 3113000   0.74850757   -3.3970135    2294.8201  0.061431098  0.061454825            7 
 3114000   0.75105998   -3.4085622    2294.5118  0.061403121  0.061441572            2 
 3115000   0.76412012   -3.4039716    2312.2894     0.061859  0.061428156            3 
 3116000   0.75144364   -3.4048074    2302.3827  0.061574204  0.061414827            2 
 3117000   0.75599468   -3.4024143     2301.888  0.061541224  0.061401532            4 
 3118000   0.76507018   -3.3913485    2302.4555  0.061536655  0.061388358            2 
 3119000   0.75780888   -3.4110889    2307.6634  0.061656071  0.061375092            6 
 3120000   0.74464954   -3.4176452    2299.7189  0.061424116  0.061361894            4 
 3121000   0.76729588   -3.4076027    2300.7365  0.061431606  0.061348529            4 
 3122000   0.75550672   -3.4179866    2304.4511   0.06151108  0.061335096            3 
 3123000   0.74535105   -3.4076837    2300.3858  0.061382908  0.061321593            4 
 3124000   0.72782215   -3.3938203    2304.8149  0.061481406  0.061308346            2 
 3125000   0.75655677    -3.421249    2303.2797  0.061420793  0.061295026            2 
 3126000   0.73469155   -3.4009748     2306.862  0.061496642  0.061281795            4 
 3127000    0.7515296    -3.426239    2303.6313  0.061390877  0.061268556            7 
 3128000   0.74167463   -3.3974674    2301.3779  0.061311219  0.061255361           12 
 3129000   0.74524944    -3.411327    2304.2071  0.061366974  0.061242087            4 
 3130000   0.74818398   -3.3948223    2301.1421  0.061265763  0.061228905            7 
 3131000   0.73655711    -3.406175    2311.1475  0.061512497  0.061215775            5 
 3132000   0.75728229   -3.3987361    2307.4523  0.061394537  0.061202609            4 
 3133000   0.76339425   -3.4059433    2305.0804  0.061311851  0.061189462            3 
 3134000   0.75947368     -3.39595    2313.1898  0.061507917  0.061176351            4 
 3135000   0.74963393   -3.4057739    2317.6359  0.061606483  0.061163348            5 
 3136000   0.76984823    -3.417416    2301.8119  0.061166344  0.061150323            7 
 3137000   0.74912491   -3.4278907     2307.314  0.061293009  0.061137204            5 
 3138000   0.74589026   -3.4264298    2310.6611  0.061362361  0.061124048            8 
 3139000   0.73087682   -3.4151083    2313.9336   0.06142969  0.061111074            6 
 3140000   0.74412264   -3.4330683    2315.8304  0.061460467  0.061097978            3 
 3141000   0.73354587   -3.4029903    2303.0807   0.06110264  0.061084858           12 
 3142000   0.75517235   -3.4209751    2305.7613  0.061154288  0.061071811            5 
 3143000   0.74300409   -3.4029245    2320.1385  0.061516026  0.061058902            3 
 3144000   0.75482789   -3.4098458    2308.8245  0.061196579  0.061045883            4 
 3145000   0.73510398   -3.4297711    2311.1139  0.061237783  0.061032839            2 
 3146000   0.73501064    -3.406857    2312.8339  0.061263878  0.061019852            4 
 3147000   0.76715106   -3.3987701    2317.8573  0.061377431  0.061007076            3 
 3148000   0.74489152   -3.3989811     2316.691   0.06132706  0.060994252            8 
 3149000     0.760892   -3.4299487    2307.8907  0.061074698  0.060981402            4 
 3150000   0.75665566   -3.4127236     2315.371    0.0612532  0.060968481            4 
 3151000   0.75470536   -3.4082187    2317.3415  0.061285876  0.060955536            8 
 3152000   0.74999025   -3.4327971     2315.871  0.061227554  0.060942688            6 
 3153000   0.74590536   -3.4078975    2318.7547   0.06128435  0.060929898            3 
 3154000   0.74563642   -3.4079617    2322.9213  0.061375008  0.060917025            5 
 3155000   0.74736709   -3.4186774    2323.3585  0.061367103  0.060904161            6 
 3156000   0.75238945   -3.4309665    2312.4621  0.061059942  0.060891349            4 
 3157000   0.73337847   -3.3902842    2319.4608   0.06122534  0.060878529            4 
 3158000   0.72117364   -3.4273112    2316.2796  0.061122007  0.060865702            5 
 3159000   0.72630427   -3.4202035    2324.1756  0.061310952  0.060852862            2 
 3160000   0.73752501   -3.4187181    2320.3206   0.06118989  0.060840098            4 
 3161000   0.74240705   -3.4101973    2331.8586  0.061474707  0.060827494            5 
 3162000   0.74536966   -3.4120855    2320.9218  0.061167031  0.060814862            2 
 3163000   0.74043849   -3.4216074    2323.9013  0.061226192  0.060802195            5 
 3164000   0.71840466   -3.3991572    2333.1328  0.061449979  0.060789499            7 
 3165000   0.73004924   -3.4031037     2319.093  0.061060901  0.060776826            4 
 3166000   0.72998824   -3.4230733    2320.8074   0.06108674  0.060764195            4 
 3167000   0.74941368   -3.4187192    2323.1289  0.061128537  0.060751462            5 
 3168000    0.7392913   -3.4049648    2326.6403  0.061201608  0.060738773            4 
 3169000   0.73875034   -3.4351728    2328.1626  0.061222325  0.060726132            5 
 3170000   0.73106556   -3.4360688    2327.5571  0.061187095  0.060713488            4 
 3171000   0.75533415   -3.4185165    2332.5608  0.061299295  0.060700753            2 
 3172000   0.74103545   -3.4317587    2324.3861  0.061065208  0.060687999            6 
 3173000   0.74137091    -3.415529    2326.9086  0.061112212  0.060675328            3 
 3174000   0.75817398   -3.4329968     2328.736  0.061140936   0.06066265            4 
 3175000   0.75886552   -3.4065575    2326.0673  0.061051634  0.060650019            9 
 3176000   0.74720386   -3.4035001    2324.6631  0.060995569  0.060637294            4 
 3177000   0.75091902   -3.4139546    2332.0699   0.06117065  0.060624792            6 
 3178000   0.75679707    -3.397032    2337.1461   0.06128451  0.060612135            3 
 3179000   0.73871736   -3.4108141      2332.09  0.061132692  0.060599463            4 
 3180000    0.7539828   -3.4004102    2325.5237  0.060941397  0.060586812            6 
 3181000   0.75048703   -3.4109821    2321.9766  0.060829314  0.060574141            3 
 3182000   0.73585062   -3.4323162    2328.3081  0.060976014   0.06056141            9 
 3183000   0.75087777   -3.4006259    2329.4054  0.060985584  0.060548777            3 
 3184000   0.74579516   -3.3977115    2334.6799  0.061104477  0.060536176            4 
 3185000   0.73071586   -3.4288284     2331.854  0.061011355  0.060523442            6 
 3186000   0.75224195   -3.4317456    2329.0148  0.060917944  0.060510706            3 
 3187000   0.74812837   -3.4191232    2326.9755  0.060845504  0.060498108            6 
 3188000   0.74290071    -3.406068    2334.7728  0.061030239  0.060485505            7 
 3189000   0.75647108   -3.4321392    2333.3698  0.060974437  0.060472956           14 
 3190000   0.73571451   -3.4211881    2334.0744   0.06097373  0.060460389            6 
 3191000   0.73726344   -3.4123367    2335.2065  0.060984187  0.060447789            5 
 3192000    0.7448411   -3.4382708    2333.5669  0.060922278  0.060435195            5 
 3193000   0.73416782    -3.429239    2331.2664  0.060843158  0.060422576            5 
 3194000   0.74480425   -3.4062018    2331.0904  0.060819516  0.060410021            4 
 3195000   0.74358423   -3.4073823    2333.3131  0.060858454  0.060397366            6 
 3196000   0.73385399   -3.4298054    2330.3579  0.060762356  0.060384723            6 
 3197000   0.74613304    -3.413816    2336.9608  0.060915462  0.060372161            7 
 3198000   0.74471292   -3.4274555    2340.5836  0.060990817  0.060359634            5 
 3199000   0.74887098   -3.4451537    2341.0771  0.060984608  0.060347212            8 
 3200000   0.74756723    -3.419884    2341.5063  0.060976727  0.060334798            9 
 3201000   0.72935977    -3.429927    2338.3383  0.060875203  0.060322314            9 
 3202000   0.74199376   -3.3977622    2340.4064  0.060910014  0.060309871            2 
 3203000   0.73299921   -3.4429535    2334.5594  0.060738874  0.060297373           10 
 3204000   0.73642935   -3.4272434     2334.179  0.060710024  0.060284928            5 
 3205000   0.73501871   -3.4322732    2332.0827  0.060636576  0.060272479            4 
 3206000   0.73992425   -3.4338841    2349.3903  0.061067536  0.060260074            4 
 3207000   0.73630517   -3.4340254    2344.2469  0.060914846  0.060247577            4 
 3208000   0.74200254   -3.4187689    2341.0073  0.060811702  0.060235075            8 
 3209000   0.73578668   -3.4449018    2343.6348  0.060860984  0.060222694           11 
 3210000   0.75502507   -3.4196684    2336.5401  0.060657843   0.06021024            3 
 3211000   0.74446027   -3.4221835    2341.4182  0.060765552  0.060197787            5 
 3212000   0.73754532   -3.4356465    2337.0081  0.060632214  0.060185357            3 
 3213000   0.74168847   -3.4234464    2346.5292  0.060860287  0.060172953            4 
 3214000   0.73176802   -3.4239838    2342.0235  0.060724526   0.06016055            6 
 3215000   0.74514028   -3.4396055    2333.1228  0.060474931  0.060148118            5 
 3216000   0.74019438   -3.4296922    2340.5368  0.060648237  0.060135801            6 
 3217000   0.73798767   -3.4393639    2343.3743  0.060702888  0.060123522            5 
 3218000   0.73541822    -3.411143    2341.3756  0.060632265  0.060111327            5 
 3219000   0.74367383   -3.4295786    2352.5535  0.060902804  0.060099082            7 
 3220000   0.73264876   -3.4492809     2342.852  0.060632817  0.060086778            2 
 3221000   0.73157995   -3.4523315    2346.6514  0.060712289  0.060074457           11 
 3222000   0.75866216   -3.4085033    2349.3138  0.060762306  0.060062192            3 
 3223000   0.74673637   -3.4268384    2346.7151  0.060676262  0.060049836            7 
 3224000   0.73684714   -3.4261769    2350.0363  0.060743287  0.060037472            5 
 3225000   0.73920499   -3.4145953    2349.5358  0.060711519  0.060025326            9 
 3226000   0.73191197   -3.4559996    2344.1053  0.060552419  0.060012915            2 
 3227000   0.72257967   -3.4282926     2351.334  0.060720328  0.060000684            3 
 3228000    0.7347729   -3.4302298    2349.4848   0.06065378  0.059988412            5 
 3229000   0.71918115   -3.4286498    2348.7195  0.060615245  0.059976243            6 
 3230000   0.72637059   -3.4225211    2351.6994  0.060673359  0.059964079            3 
 3231000   0.72779818   -3.4488637    2346.0883  0.060509859  0.059951727            4 
 3232000   0.75666943   -3.4368255    2338.8102  0.060303482  0.059939438            6 
 3233000   0.74145604   -3.4096056    2354.1347  0.060679831  0.059927174            3 
 3234000    0.7436645   -3.4382819     2348.049  0.060504252  0.059914889            5 
 3235000   0.73231599   -3.4389271    2348.9112  0.060507759  0.059902626            5 
 3236000   0.73570872   -3.4228427    2353.4205  0.060605184  0.059890386            3 
 3237000   0.74149509   -3.4173782    2346.2595  0.060402109  0.059878105            4 
 3238000   0.72672388   -3.4149946     2350.523   0.06049318  0.059865853            5 
 3239000   0.73028126    -3.410106    2350.1484  0.060464867  0.059853534            6 
 3240000    0.7278663   -3.4524964    2353.2206  0.060525222   0.05984129            4 
 3241000    0.7394913   -3.4143762    2360.2992  0.060688553  0.059828993           14 
 3242000   0.73182019   -3.4308577    2347.6439  0.060344539  0.059816751            5 
 3243000   0.73913293    -3.425542    2353.1403  0.060467169   0.05980438            3 
 3244000    0.7552371   -3.4363999    2351.2644   0.06040034  0.059792025            3 
 3245000   0.72637258   -3.4087254    2353.4065  0.060436735  0.059779853            7 
 3246000   0.72944398   -3.4288511    2355.5821  0.060473971  0.059767609            7 
 3247000   0.73349163   -3.4268547    2356.4757  0.060478279  0.059755389            4 
 3248000   0.73403839   -3.4247481    2348.8606   0.06026428  0.059743024           10 
 3249000   0.72185584   -3.4432569    2353.7645  0.060371512  0.059730709            5 
 3250000   0.73509756   -3.4378941    2350.4018  0.060266712  0.059718393            6 
 3251000   0.73169779   -3.4367819    2350.7876  0.060258065  0.059706119            5 
 3252000   0.73476447   -3.4530733    2346.3669  0.060126254   0.05969364            3 
 3253000   0.74014182   -3.4284877    2350.2761  0.060207914  0.059681365            6 
 3254000   0.73536651   -3.4423122    2345.0777  0.060056282  0.059668955            5 
 3255000   0.74113735   -3.4403012    2357.9276   0.06036681  0.059656572            5 
 3256000   0.72966267   -3.4515003    2352.1937  0.060201518  0.059644252            4 
 3257000   0.72821004   -3.4465737     2352.345  0.060186905  0.059631971            6 
 3258000   0.72922167   -3.4445335    2358.4913  0.060325641  0.059619599            7 
 3259000   0.73046728   -3.3883655    2363.4902  0.060434954  0.059607372            4 
 3260000   0.72830351   -3.4404058    2350.8646  0.060093677  0.059595006            3 
 3261000   0.72631011   -3.4226674    2365.3492  0.060445395  0.059582724            4 
 3262000   0.73115801   -3.4279643    2360.7253   0.06030874  0.059570401            4 
 3263000   0.72029005   -3.4118176    2357.3597  0.060204304  0.059558017            6 
 3264000   0.72575752    -3.434628    2356.4615  0.060162928  0.059545815            6 
 3265000   0.73131413   -3.4494502    2353.9188  0.060079601  0.059533535            6 
 3266000   0.73303254   -3.4463374    2360.3501  0.060225305  0.059521209            5 
 3267000   0.72369829   -3.4132537    2367.6379  0.060392763   0.05950892            6 
 3268000   0.74093758   -3.4476047    2361.5451  0.060218918  0.059496722            3 
 3269000   0.71654914   -3.4207082    2354.6615  0.060025022  0.059484504            7 
 3270000   0.72742501    -3.418858    2353.3151  0.059972353  0.059472163            3 
 3271000    0.7369504   -3.4402582    2358.7807   0.06009326  0.059459817            4 
 3272000   0.73156262   -3.4682035    2350.8184  0.059872106  0.059447427            6 
 3273000   0.73442004   -3.4476138    2367.3838  0.060275583   0.05943508           10 
 3274000    0.7271283   -3.4528458    2362.0102  0.060120399   0.05942274            6 
 3275000   0.71612204   -3.4605658    2350.1102  0.059799241  0.059410287            7 
 3276000   0.73791465   -3.4511965    2362.9231  0.060106917   0.05939796            6 
 3277000   0.71999971   -3.4432498    2353.6695  0.059853257  0.059385577            4 
 3278000   0.75051872   -3.4326814    2363.7921  0.060092335  0.059373259           11 
 3279000   0.70630078   -3.4386761    2364.6657   0.06009621  0.059360944            7 
 3280000   0.74835203   -3.4480921     2359.155  0.059937881   0.05934872            4 
 3281000   0.72012073   -3.4408303     2354.421  0.059799376  0.059336405            9 
 3282000   0.71611663   -3.4370301    2354.4172  0.059781059  0.059324133            3 
 3283000    0.7320596   -3.4428905    2362.4884  0.059967723  0.059311868            3 
 3284000   0.74085893   -3.4377556     2365.751  0.060032253  0.059299439            6 
 3285000   0.72523561   -3.4320022    2358.6731  0.059834427   0.05928717            4 
 3286000   0.73419111   -3.4198734    2363.6405  0.059942192  0.059274893            9 
 3287000   0.71980996   -3.4459832    2364.2612  0.059939691  0.059262652            8 
 3288000   0.73019082   -3.4361607    2359.1024  0.059790713  0.059250394            3 
 3289000   0.72847224   -3.4537472    2363.5893   0.05988622  0.059238147            7 
 3290000   0.70874541   -3.4574153    2361.3131  0.059810361  0.059225907            5 
 3291000   0.71410598   -3.4538798    2357.2526  0.059689369  0.059213537            2 
 3292000   0.72088564   -3.4257753    2371.2966  0.060026747  0.059201356            6 
 3293000   0.73355402   -3.4492068    2366.4081   0.05988481  0.059189098            8 
 3294000   0.72085942   -3.4566172    2368.2761  0.059913887  0.059176843            4 
 3295000   0.72807605   -3.4373841    2360.1771  0.059690873  0.059164684            4 
 3296000   0.70816875    -3.448376    2352.4079  0.059476333  0.059152379           12 
 3297000   0.74085287   -3.4583173    2359.8689  0.059646874  0.059140125            4 
 3298000   0.72580218   -3.4454903    2364.8415  0.059754434  0.059127871            4 
 3299000   0.72249102   -3.4457219    2367.0104  0.059791108  0.059115601            8 
 3300000   0.71730141   -3.4590203    2367.3396  0.059781303  0.059103446            3 
 3301000   0.72450492   -3.4836744    2355.2125  0.059457045  0.059091267            6 
 3302000   0.73047356   -3.4453813    2361.8651  0.059606934  0.059079049           10 
 3303000   0.72507235   -3.4604569     2366.802  0.059713441  0.059066777            5 
 3304000   0.73821532    -3.449884    2369.7205  0.059768979  0.059054481            9 
 3305000   0.72757336   -3.4439924    2371.4783  0.059795217  0.059042351            4 
 3306000   0.71815282   -3.4651082    2362.8679  0.059560091  0.059030152            9 
 3307000   0.71726853   -3.4749553    2355.0188  0.059344289  0.059017856            4 
 3308000   0.72098834   -3.4708364    2366.3537  0.059611892  0.059005499            4 
 3309000   0.71916012   -3.4459819    2369.2814  0.059667608  0.058993355            6 
 3310000   0.71065267   -3.4559843    2377.8617  0.059865602   0.05898122            5 
 3311000   0.74051468    -3.448546    2369.7178   0.05964255  0.058969152            5 
 3312000   0.71975847   -3.4531692    2373.1006  0.059709656  0.058956985            6 
 3313000   0.73034514   -3.4411239    2381.6569  0.059906855  0.058944856            6 
 3314000    0.7034946      -3.4572    2369.0209  0.059571034  0.058932666            5 
 3315000   0.70191058   -3.4511265    2369.8573   0.05957409  0.058920504            4 
 3316000    0.7140643   -3.4567448    2368.3299  0.059517739  0.058908279            5 
 3317000   0.73475961   -3.4271536    2382.0211  0.059843762  0.058896136            7 
 3318000    0.7097688   -3.4408368    2381.6849  0.059817283  0.058883987           10 
 3319000   0.71548761   -3.4761541    2374.8677  0.059628093  0.058871793            7 
 3320000   0.70651531   -3.4339066    2368.6961  0.059455224  0.058859641            4 
 3321000   0.72725584   -3.4723106    2373.1006  0.059547841  0.058847463           10 
 3322000   0.73134861   -3.4556145    2381.5578  0.059742067  0.058835262            3 
 3323000    0.7162601   -3.4612831    2368.7866  0.059403817  0.058823123            5 
 3324000   0.70571743   -3.4427682    2367.6888  0.059358424  0.058811015            7 
 3325000   0.72113815   -3.4569284    2365.3816  0.059282747   0.05879881            2 
 3326000   0.72393416   -3.4596238    2370.9307  0.059403956  0.058786646            7 
 3327000   0.71174834   -3.4242511    2373.6898   0.05945521  0.058774528            6 
 3328000   0.71369321   -3.4541052     2371.307  0.059377678  0.058762413            5 
 3329000   0.71117033   -3.4522128     2380.642  0.059593522  0.058750193            4 
 3330000   0.70854176   -3.4475405    2371.8846  0.059356472  0.058738139            7 
 3331000   0.71852601   -3.4615029    2380.4593  0.059553171  0.058726004            4 
 3332000   0.72027871   -3.4566029    2379.9005  0.059521322  0.058713926            9 
 3333000   0.71311423   -3.4551741    2379.1721  0.059485251  0.058701785            6 
 3334000   0.71761083   -3.4529649    2373.4518   0.05932443  0.058689547            3 
 3335000   0.71196909   -3.4740209    2382.3148  0.059528105  0.058677457            4 
 3336000   0.71073428   -3.4539009    2377.8873  0.059399662  0.058665283            3 
 3337000   0.71917639   -3.4595188    2377.2991  0.059367174   0.05865317            8 
 3338000   0.72079777   -3.4719794    2373.6524  0.059258349  0.058641006            6 
 3339000   0.71711684   -3.4691185     2368.855   0.05912087  0.058628865            8 
 3340000   0.73390233    -3.444799    2374.0094  0.059231772  0.058616751            3 
 3341000   0.70696568   -3.4604017    2371.7125  0.059156752  0.058604591            5 
 3342000   0.72783608   -3.4428797    2382.9195  0.059418498   0.05859242            7 
 3343000   0.70670734   -3.4480266    2377.5414  0.059266662  0.058580405            6 
 3344000   0.70219998   -3.4777997    2376.1872  0.059215192  0.058568202            6 
 3345000   0.71620582   -3.4648377     2378.077   0.05924457  0.058556065            7 
 3346000    0.7200771   -3.4483037    2377.6051  0.059215111  0.058543984            5 
 3347000   0.70775544   -3.4639308    2377.4084  0.059192522   0.05853198            9 
 3348000   0.72858042   -3.4615569    2384.1394   0.05934238  0.058519863            5 
 3349000   0.70357012   -3.4504432    2383.5905  0.059311002  0.058507789            2 
 3350000   0.72023976   -3.4645961    2374.0273  0.059055406  0.058495675            7 
 3351000   0.71114881   -3.4566238    2377.4419  0.059122698  0.058483488            5 
 3352000   0.71119762   -3.4674688    2381.7055  0.059211055  0.058471425            8 
 3353000    0.7182868   -3.4596385    2385.2254  0.059280879  0.058459289            7 
 3354000   0.70951692   -3.4615447     2379.179  0.059112974  0.058447142            3 
 3355000   0.71447753   -3.4594437    2377.0278  0.059041922  0.058434937            7 
 3356000   0.72066823   -3.4927954     2373.648  0.058940405  0.058422759            5 
 3357000   0.70194641   -3.4724288    2379.7229  0.059073649  0.058410574            7 
 3358000   0.73487457   -3.4661817    2377.7308  0.059006621  0.058398405            8 
 3359000   0.71748169   -3.4695593    2383.2789  0.059126698  0.058386293            6 
 3360000   0.72271024   -3.4666921      2381.09  0.059054811  0.058374055            7 
 3361000   0.72254163   -3.4516915    2378.2784  0.058967529  0.058361905            4 
 3362000   0.70822545   -3.4637259    2381.4414  0.059028392  0.058349712            4 
 3363000   0.72282792    -3.468832    2381.0817  0.059001924  0.058337475            2 
 3364000   0.71135399   -3.4307759    2383.4802  0.059043803  0.058325339            7 
 3365000   0.72212836   -3.4738673    2370.6913  0.058709541  0.058313128            5 
 3366000     0.724376   -3.4688483    2381.7985  0.058967086  0.058300843            5 
 3367000   0.71564669   -3.4618899    2387.1754  0.059082651    0.0582886            4 
 3368000   0.72196371   -3.4672455    2394.4116  0.059244152  0.058276323            6 
 3369000   0.69546974   -3.4753421    2380.0793  0.058872051  0.058264083            6 
 3370000    0.7085302   -3.4611224    2385.3025  0.058983742  0.058251793            5 
 3371000   0.71481121   -3.4707545    2372.8122  0.058657477  0.058239432            5 
 3372000   0.71569316   -3.4749997     2381.116  0.058845295  0.058227005            6 
 3373000   0.70591831   -3.4649524    2378.3824  0.058760313  0.058214752            5 
 3374000   0.71009538   -3.4415054    2384.3176  0.058889487  0.058202537           11 
 3375000    0.7048996   -3.4661951     2382.424  0.058825283  0.058190342            4 
 3376000   0.71595752   -3.4833163    2381.1847  0.058777268  0.058178092            8 
 3377000    0.7009733   -3.4633249    2380.2918  0.058737831  0.058165758            3 
 3378000   0.70537327   -3.4783082    2383.1836  0.058791779  0.058153498            6 
 3379000   0.71640407   -3.4845515    2376.0666   0.05859886   0.05814127            6 
 3380000   0.71151642   -3.4687538    2380.9345   0.05870154  0.058129044            5 
 3381000   0.71365223   -3.4852787    2379.6988  0.058653722  0.058116774            7 
 3382000   0.70624033    -3.465566    2380.2541  0.058650063  0.058104461           10 
 3383000   0.69481928   -3.4856837     2379.329  0.058609937  0.058092184            4 
 3384000   0.71738409   -3.4617206    2383.5952  0.058697674  0.058079947            3 
 3385000   0.67743429   -3.4863421    2386.9731  0.058763494  0.058067629            4 
 3386000   0.71918659   -3.4563031     2385.286  0.058704618  0.058055346           11 
 3387000   0.71763845   -3.4630027    2389.4723  0.058790285  0.058043079            7 
 3388000   0.71132563   -3.4607452    2381.7963  0.058584127  0.058030848           11 
 3389000   0.69806149   -3.4863615    2387.9643  0.058718508  0.058018414            6 
 3390000   0.71173399   -3.4775231    2384.3049  0.058611231  0.058006027            6 
 3391000   0.72743817   -3.4817678    2389.0479  0.058710505  0.057993609            3 
 3392000   0.70930401   -3.4619172    2387.8575  0.058663952  0.057981265            5 
 3393000   0.71113881    -3.472521    2384.4737  0.058563555   0.05796886            4 
 3394000   0.72332502    -3.483432    2374.1036  0.058291681  0.057956337            4 
 3395000    0.7136126    -3.456783    2386.7069   0.05858387  0.057943914            3 
 3396000   0.70355025   -3.4772846    2387.0547  0.058575155  0.057931624            6 
 3397000   0.70127715   -3.4667093    2384.0814  0.058484973  0.057919236            6 
 3398000   0.72288768   -3.4662087    2386.5277  0.058527754  0.057906887           10 
 3399000     0.706542   -3.4766813    2382.9497  0.058422812  0.057894564            3 
 3400000   0.70377571   -3.4898141    2384.4584  0.058442609  0.057882196            4 
 3401000   0.71569651    -3.479831    2390.3587  0.058569996  0.057869857            3 
 3402000    0.7089144     -3.49811    2388.2476  0.058501068  0.057857426            4 
 3403000   0.69111169   -3.4807423    2382.7011  0.058348053  0.057845003            6 
 3404000   0.71027383   -3.4722442    2392.3095  0.058566134  0.057832675            4 
 3405000    0.7011377   -3.4937031    2386.5872  0.058408888  0.057820282            4 
 3406000   0.70303079    -3.479805    2389.8092  0.058470573  0.057807785           15 
 3407000   0.70168127   -3.4584367     2386.801  0.058379831  0.057795371            5 
 3408000   0.71095089   -3.4853963    2384.4582  0.058305415  0.057782927            5 
 3409000    0.7032759   -3.4787292    2386.6365  0.058341559  0.057770479            4 
 3410000   0.71535344    -3.470491    2385.3103   0.05829204  0.057758011            5 
 3411000   0.68110599   -3.4903573    2377.3037  0.058079345  0.057745529            4 
 3412000   0.71664922   -3.4950924    2380.3638  0.058137059  0.057733079            4 
 3413000   0.71053113     -3.50562     2386.579   0.05827178  0.057720699            5 
 3414000   0.70211796   -3.4621006    2387.1561  0.058268799  0.057708324            5 
 3415000   0.70526263   -3.4664813    2384.4442   0.05818556  0.057695858            9 
 3416000   0.71036688   -3.4744293    2383.9397  0.058156219  0.057683416            3 
 3417000   0.70241767    -3.458218    2395.0718  0.058410686  0.057671045            5 
 3418000   0.70570517   -3.4723058    2390.2042  0.058274921  0.057658706            6 
 3419000   0.69543977   -3.4791199    2386.9925  0.058179596  0.057646299            4 
 3420000   0.71661872   -3.4882482     2387.709  0.058180044  0.057633819            9 
 3421000   0.71214696   -3.4869903    2377.2994  0.057909465   0.05762141           10 
 3422000    0.7106067    -3.478097    2386.2099  0.058109534  0.057608997            6 
 3423000   0.71384987   -3.4956612    2380.4226  0.057951665  0.057596593            9 
 3424000   0.71379614   -3.4786019    2390.9427  0.058190779  0.057584136            4 
 3425000   0.69463469    -3.470332    2388.7992  0.058121634   0.05757175            5 
 3426000   0.71720568   -3.4808461    2385.1531  0.058015983  0.057559302            3 
 3427000   0.68964889   -3.4856408    2388.0249  0.058068886    0.0575468            9 
 3428000   0.70267134   -3.4591508    2394.4094  0.058207151  0.057534377            4 
 3429000   0.70989921   -3.4911387    2381.6334  0.057879688  0.057521821            3 
 3430000   0.72357054   -3.5023839    2383.2697  0.057902568  0.057509287            6 
 3431000   0.71114569   -3.4869718    2388.7642  0.058019143  0.057496762            5 
 3432000   0.71140152   -3.4761829    2390.7737  0.058051032  0.057484323           10 
 3433000   0.71231822   -3.4608481    2390.1699  0.058019466  0.057471828            6 
 3434000   0.68932168   -3.4675414    2395.4135  0.058129818  0.057459379            8 
 3435000    0.7128105   -3.4592394    2384.3604  0.057844745  0.057446958            6 
 3436000   0.71299652   -3.4855742    2389.7879  0.057959544  0.057434487            9 
 3437000   0.69733371    -3.489589    2383.1974  0.057782886   0.05742201            4 
 3438000   0.70163227    -3.503301    2394.8936  0.058049584  0.057409609            4 
 3439000   0.70334749    -3.472046    2396.2722  0.058066109    0.0573972            6 
 3440000   0.70593008   -3.4889148    2389.9692  0.057896542  0.057384767            3 
 3441000   0.71800824    -3.489903    2389.8287  0.057876313  0.057372396           14 
 3442000   0.70039855   -3.4910259    2393.1047  0.057938812  0.057359969            4 
 3443000   0.68626565   -3.4947107      2387.84  0.057794559  0.057347417            7 
 3444000   0.69154276   -3.4966446    2394.5619  0.057940425  0.057334984            3 
 3445000   0.67807109    -3.462049    2393.3277  0.057893751  0.057322477            5 
 3446000   0.70300013   -3.4910165    2388.0352  0.057748966  0.057310115            3 
 3447000   0.69875521   -3.4942963    2387.3771  0.057716301  0.057297629            4 
 3448000   0.67974372     -3.48707    2391.1577  0.057790933  0.057285134            8 
 3449000   0.70474668   -3.5081438    2386.2922   0.05765662  0.057272683            3 
 3450000    0.7163538   -3.5015771    2390.1459  0.057732992  0.057260301            5 
 3451000   0.71824422   -3.4968745    2391.0264  0.057737526  0.057247926            6 
 3452000    0.6921193   -3.5090754    2386.5985  0.057613909  0.057235448           18 
 3453000   0.70180361    -3.474296    2393.5564  0.057765142  0.057222965           11 
 3454000   0.70130094   -3.4594727    2387.9144  0.057612295  0.057210513            5 
 3455000   0.69329871   -3.4904186    2380.7341  0.057422433  0.057198034            4 
 3456000   0.70039755   -3.4996038    2385.2592  0.057514931  0.057185496            4 
 3457000   0.70701632   -3.4830347    2387.7068  0.057557295  0.057173104            3 
 3458000   0.70179502   -3.5005859    2393.7992  0.057687469   0.05716072            7 
 3459000   0.70099996   -3.4846842    2396.3033  0.057731118   0.05714836            8 
 3460000   0.68244186   -3.5144047    2391.4156  0.057596714  0.057135873            3 
 3461000   0.70502435   -3.4836032    2399.0584  0.057764095  0.057123461           11 
 3462000   0.71424311   -3.4983757    2389.3904  0.057514694  0.057111027            4 
 3463000   0.69767944   -3.4761722    2402.8257  0.057821391  0.057098711            4 
 3464000   0.68553195   -3.4934215    2392.0467  0.057545388  0.057086318           17 
 3465000   0.70249975   -3.5204595    2389.8221   0.05747528  0.057073866            5 
 3466000   0.70719146   -3.4862618    2396.8041  0.057626564  0.057061397            4 
 3467000   0.68121968   -3.4839415    2395.5708    0.0575803  0.057049033            8 
 3468000   0.68218369   -3.4803056    2393.1513  0.057505557  0.057036624            6 
 3469000   0.69626321   -3.4915439    2395.8514  0.057553844  0.057024224            6 
 3470000   0.71472527   -3.5021993     2391.112  0.057423439  0.057011925           11 
 3471000   0.69522791   -3.5027556    2395.1885  0.057504765  0.056999487           10 
 3472000   0.69162638   -3.4957563    2402.8218  0.057671414   0.05698714            6 
 3473000    0.7031841   -3.4959713    2397.6721  0.057531243  0.056974918            7 
 3474000   0.70696068   -3.5079644    2400.6197  0.057585388  0.056962579            5 
 3475000   0.70055555   -3.4935549     2397.429  0.057492302   0.05695029           10 
 3476000   0.70331428   -3.4874695    2399.5289  0.057526104  0.056938139            5 
 3477000   0.71286665   -3.4904434    2405.3781  0.057649749  0.056925935            5 
 3478000   0.69927948   -3.4925827    2400.5573  0.057517666  0.056913676            3 
 3479000   0.68752163   -3.4742176    2407.9063  0.057677166  0.056901495            4 
 3480000   0.68587048   -3.4866365    2407.1594  0.057642705  0.056889286            9 
 3481000   0.70134445   -3.4679049    2411.4899  0.057729816  0.056877121            8 
 3482000   0.69859483   -3.4828351    2399.1592  0.057418131  0.056864941            9 
 3483000   0.71308251    -3.488705    2398.1739  0.057378072  0.056852769            9 
 3484000   0.70301647   -3.5100392    2406.1854  0.057553228  0.056840456            7 
 3485000   0.67747655   -3.4807929    2402.1076  0.057439206  0.056828157           12 
 3486000   0.68442104   -3.4918232    2399.7156  0.057365547  0.056815958            4 
 3487000   0.69385436   -3.5097725     2403.023  0.057428138  0.056803664            3 
 3488000    0.6987475   -3.5243755    2400.8519  0.057359803  0.056791468            6 
 3489000   0.70064696   -3.5244093    2405.8585  0.057462942  0.056779246            8 
 3490000   0.67872669   -3.4779983     2405.066  0.057427556  0.056767041            5 
 3491000   0.68881148   -3.5046013    2402.8999  0.057359399  0.056754837            4 
 3492000   0.69615892   -3.5143461    2402.7619   0.05733968  0.056742523            9 
 3493000    0.6968072   -3.4955675    2403.7363   0.05734651  0.056730395           10 
 3494000    0.6855514   -3.5281621    2401.3921  0.057274186  0.056718098            5 
 3495000   0.69041724    -3.489362    2400.5379  0.057237432  0.056705942            6 
 3496000   0.69654688   -3.5078797    2401.3529  0.057240487  0.056693775            4 
 3497000   0.68112275   -3.4985666    2404.0668  0.057288791  0.056681532            4 
 3498000   0.69106583   -3.5170935    2406.7304  0.057335867  0.056669304            4 
 3499000   0.70401271    -3.505631    2401.2683  0.057189394  0.056657137            8 
 3500000   0.67993365   -3.4748511     2401.527  0.057179215  0.056644943            4 
 3501000   0.67447859   -3.5017564    2408.9102  0.057338622  0.056632765           14 
 3502000    0.6969804   -3.4795164    2411.5635  0.057385388  0.056620742            5 
 3503000   0.68422212   -3.5001838    2405.6183  0.057227573  0.056608634           10 
 3504000   0.68656653   -3.4923849    2401.8156  0.057120804  0.056596459            5 
 3505000   0.68341802   -3.5012324    2412.5172  0.057358945  0.056584309            5 
 3506000   0.67118136   -3.5000446    2413.6905  0.057370472  0.056572204            3 
 3507000   0.68427556   -3.4991844    2411.9519    0.0573128  0.056560111            7 
 3508000    0.6828655   -3.4910073    2411.3294  0.057281676  0.056547986            7 
 3509000   0.69333298   -3.5055052      2410.75  0.057251592  0.056535861           10 
 3510000   0.69903784   -3.5023516    2413.3376  0.057296715   0.05652371           22 
 3511000   0.69275555   -3.5019968    2412.7045  0.057265368  0.056511564            6 
 3512000   0.70000394   -3.5201757    2405.1942  0.057070856  0.056499524            5 
 3513000   0.68647258   -3.4819715     2405.248  0.057055887  0.056487407            9 
 3514000   0.69220969   -3.4877121    2413.0231  0.057224034  0.056475304            2 
 3515000    0.6926845   -3.5100586     2407.906   0.05708644  0.056463043            8 
 3516000   0.70716286   -3.5114931    2405.7235  0.057018475  0.056450834            5 
 3517000   0.68833939   -3.5034718    2407.6393  0.057047656   0.05643877            5 
 3518000     0.699563   -3.5034053    2416.7973  0.057248373  0.056426598            2 
 3519000   0.69230825   -3.5044296     2406.078  0.056978262  0.056414401            6 
 3520000    0.6920402   -3.5179737    2406.7269  0.056977436  0.056402129            4 
 3521000   0.69930382   -3.5025058    2408.4434   0.05700188  0.056389957            5 
 3522000   0.67048676   -3.5115583    2412.6428  0.057085055  0.056377716            5 
 3523000   0.70238374   -3.5155747    2412.8021  0.057072621  0.056365626            8 
 3524000   0.69392788   -3.5050033    2410.0908  0.056992309  0.056353616            3 
 3525000   0.68713436   -3.5061871    2410.3506  0.056982284  0.056341524            4 
 3526000   0.70605602   -3.4932199    2412.3286  0.057012872  0.056329408            2 
 3527000   0.68019443   -3.5002154     2408.763  0.056912461  0.056317259            6 
 3528000   0.69133118   -3.4941175    2408.6625  0.056893955  0.056305133            4 
 3529000    0.6802331   -3.4861691    2410.2367  0.056915006  0.056293069            6 
 3530000   0.70530183   -3.5132649    2408.4611  0.056856965  0.056280927            7 
 3531000   0.69286758   -3.5144522    2415.0954  0.056997436  0.056268744            6 
 3532000   0.69178703   -3.5139108    2409.6403  0.056852593  0.056256561            8 
 3533000   0.69486145   -3.5126446    2407.7636  0.056792235  0.056244372            6 
 3534000   0.68303433   -3.4972372    2415.2805  0.056953416  0.056232257            3 
 3535000   0.69467401   -3.5185389    2416.5544  0.056967336  0.056220014            8 
 3536000   0.67753685   -3.4999115    2411.0223  0.056820851  0.056207855            4 
 3537000    0.7069145    -3.521082    2415.5117  0.056910557  0.056195637            3 
 3538000   0.68521645   -3.5312217     2404.787  0.056641865  0.056183349            3 
 3539000   0.70332717   -3.5214626    2411.8715  0.056792679  0.056171152            6 
 3540000   0.67760074      -3.5174    2412.8218  0.056799007  0.056159024            6 
 3541000   0.69091313    -3.508188    2419.7337  0.056945629  0.056146847            6 
 3542000   0.68129789   -3.5084549    2411.4233  0.056734032  0.056134666            7 
 3543000   0.69661726   -3.4931639     2413.034  0.056755904  0.056122471            6 
 3544000   0.68045665   -3.5121082    2416.2292  0.056815021  0.056110213            8 
 3545000   0.68361709   -3.5094666    2416.8375  0.056813292  0.056098041            6 
 3546000   0.67635504   -3.5188851    2420.8148  0.056890741  0.056085846            6 
 3547000   0.67721393   -3.5024622    2409.3189  0.056604617  0.056073619           14 
 3548000   0.68981753   -3.5173136     2416.953  0.056767969  0.056061282           11 
 3549000   0.68254158   -3.5297977    2407.7095  0.056534927  0.056049054            9 
 3550000   0.67447209   -3.5226293     2411.754  0.056613943  0.056036843            7 
 3551000   0.67778617   -3.4968915     2416.744  0.056715103  0.056024537            4 
 3552000   0.66626553   -3.5431437    2411.7253  0.056581393  0.056012309            3 
 3553000   0.68995755    -3.501061    2411.9813  0.056571472  0.055999995            4 
 3554000   0.67717527   -3.5201088     2410.874   0.05652959  0.055987617            7 
 3555000   0.68010716   -3.5095394    2418.8969  0.056701756  0.055975325            7 
 3556000   0.68995763   -3.5217642    2410.1789  0.056481509  0.055963022            5 
 3557000   0.68683542   -3.5065721    2408.2532  0.056420514   0.05595077            3 
 3558000   0.69090553   -3.5301374    2415.3666  0.056571261   0.05593853            3 
 3559000   0.68098532    -3.515112    2408.0701   0.05638452  0.055926194           10 
 3560000   0.69871611   -3.5249377    2412.2042  0.056465454  0.055913841            6 
 3561000    0.6740844   -3.5420754    2411.5018   0.05643316  0.055901533            4 
 3562000   0.69470717   -3.5097731    2417.3642  0.056554469  0.055889204            5 
 3563000   0.67595266    -3.526611    2411.3466  0.056397853  0.055876942           12 
 3564000    0.6705068   -3.5373957    2414.8612  0.056464207  0.055864659            8 
 3565000   0.67759886   -3.5292098     2413.122  0.056407713  0.055852272            6 
 3566000   0.68431455   -3.5230575    2417.8838  0.056503174  0.055839963            4 
 3567000   0.66970793   -3.5262642     2415.644  0.056435006  0.055827671            4 
 3568000   0.67866567    -3.522606    2415.1079  0.056406668  0.055815457            7 
 3569000    0.6950191   -3.5152356    2418.2633   0.05646454  0.055803194            8 
 3570000   0.67730294   -3.5126424    2406.1722  0.056166485  0.055790872            9 
 3571000   0.67887156   -3.4958901    2421.3274  0.056504419  0.055778587            5 
 3572000   0.69149258   -3.5244596    2411.1135  0.056250315  0.055766269            5 
 3573000   0.69349386   -3.4924102    2410.8058  0.056227395  0.055754054            4 
 3574000    0.6789031   -3.5167891    2418.9398  0.056401319   0.05574182            6 
 3575000   0.68619836   -3.5102062    2415.1411  0.056296995    0.0557296           11 
 3576000   0.68609142   -3.4953835     2414.629  0.056269319  0.055717511            8 
 3577000   0.67136959   -3.5352837    2425.6854  0.056511169  0.055705247            6 
 3578000   0.67708225   -3.5200417     2415.927  0.056268097  0.055692935            7 
 3579000   0.67679431   -3.5246514     2423.734  0.056434153  0.055680672            5 
 3580000   0.68534857   -3.5216881    2415.2604  0.056221144  0.055668342            6 
 3581000   0.67065973   -3.5490998    2415.2071  0.056204206  0.055655998            7 
 3582000   0.67199706   -3.4918734    2420.2875  0.056306706   0.05564362            6 
 3583000    0.6775089   -3.5106943    2421.3108  0.056314791  0.055631344            6 
 3584000   0.67153037   -3.5263817    2421.2554   0.05629779  0.055619015            5 
 3585000   0.66803354   -3.5263164    2411.9214  0.056065118  0.055606649            5 
 3586000   0.68429648   -3.5342177     2414.832  0.056117123  0.055594158            9 
 3587000   0.68969734    -3.514784    2411.4895  0.056023825  0.055581782            4 
 3588000   0.66534241   -3.5229692    2423.0142  0.056275879  0.055569447            3 
 3589000   0.66790346   -3.5279192    2407.3523  0.055896542  0.055557083            4 
 3590000   0.68206321    -3.524515    2421.7961  0.056216251  0.055544767            4 
 3591000   0.66649361   -3.5299902     2415.598  0.056056763  0.055532514            4 
 3592000   0.66632415   -3.5249277    2417.2353   0.05607914  0.055520181            6 
 3593000   0.68648101   -3.5404126    2414.2388  0.055994035   0.05550788            8 
 3594000   0.67488803    -3.536116    2418.7297  0.056082585  0.055495569            4 
 3595000   0.66210255   -3.5268109    2418.3738  0.056058733  0.055483315            9 
 3596000   0.66910936   -3.5249512    2410.8029  0.055867699  0.055470975           10 
 3597000   0.66807077   -3.5175764    2424.4153  0.056167531  0.055458809            3 
 3598000   0.66421226    -3.528485    2421.5815  0.056086287  0.055446527            6 
 3599000   0.67174182   -3.5366711    2414.1395  0.055898387   0.05543428            6 
 3600000   0.66563661   -3.5436911    2422.0934  0.056066977  0.055421995            8 
 3601000   0.69481083   -3.5146384    2422.1654  0.056053073  0.055409729           10 
 3602000   0.67572738     -3.52701    2413.1272  0.055828411  0.055397598            7 
 3603000   0.66417564    -3.527694    2420.2939  0.055978673  0.055385329            9 
 3604000   0.68122908   -3.5362774    2425.2658  0.056078102  0.055372975           12 
 3605000   0.67697283   -3.5537923     2419.169  0.055921613  0.055360694           12 
 3606000   0.67062346   -3.5268733    2426.2959  0.056070806    0.0553484            5 
 3607000   0.68405275   -3.5246248    2426.4044  0.056057768  0.055336143            8 
 3608000   0.67382761   -3.5216807     2419.226  0.055876433  0.055323992            5 
 3609000   0.67161766   -3.5259062    2422.1535  0.055928547  0.055311825            5 
 3610000   0.67087427   -3.5151524    2416.8025  0.055789531  0.055299613            4 
 3611000   0.66187341   -3.5249148    2427.3819   0.05601823  0.055287431           17 
 3612000   0.67283766   -3.5478288    2421.9897  0.055878316  0.055275311            5 
 3613000   0.68251555   -3.5296332    2425.4571  0.055942824  0.055263144            5 
 3614000   0.66230272   -3.5330245    2417.5705  0.055745491  0.055250931            3 
 3615000   0.67575178   -3.5272377    2426.0154  0.055924745  0.055238637            5 
 3616000   0.67006946   -3.5382534     2427.326  0.055939482  0.055226399            5 
 3617000   0.68437857   -3.5240663    2425.1275  0.055873363  0.055214152           11 
 3618000   0.67603513   -3.5302968    2419.9749  0.055739242  0.055201946            8 
 3619000   0.67286457   -3.5341201    2424.0743  0.055818234  0.055189747            7 
 3620000   0.66567156   -3.5405432    2425.6358  0.055838761  0.055177573            6 
 3621000   0.65775686   -3.5609356    2417.5048  0.055636214  0.055165299            4 
 3622000   0.67945513   -3.5476994    2427.2716  0.055845563  0.055153039            7 
 3623000   0.68600316   -3.5180899    2430.6378  0.055907576  0.055140805            7 
 3624000   0.66105123    -3.547296    2425.7442  0.055779621  0.055128625            3 
 3625000   0.67056356   -3.5285004    2428.4524  0.055826493  0.055116502            5 
 3626000   0.68358117   -3.5513042    2423.7459  0.055702931  0.055104281            8 
 3627000   0.65127832   -3.5289142    2418.9214  0.055576725  0.055092075           10 
 3628000   0.67092668   -3.5064101    2428.5021  0.055781471  0.055079891            9 
 3629000   0.68291644   -3.5235999     2433.144  0.055872693  0.055067683            6 
 3630000   0.66427504   -3.5440351    2425.0691  0.055671925  0.055055567            8 
 3631000   0.67180046    -3.550987    2426.2143  0.055682877  0.055043377           13 
 3632000   0.66418241   -3.5435253    2424.5067  0.055628367  0.055031156            8 
 3633000   0.66592856   -3.5318715    2420.4153  0.055519206  0.055018953            8 
 3634000   0.67210065   -3.5344337    2421.6027  0.055531157  0.055006682            5 
 3635000   0.66698102   -3.5323337    2433.5938  0.055790779  0.054994422            7 
 3636000   0.66793654   -3.5564594     2418.447  0.055428287  0.054982176            7 
 3637000   0.66671578   -3.5461077    2423.4173   0.05552693  0.054970004            5 
 3638000   0.67683008   -3.5392702     2426.041  0.055571766  0.054957787            4 
 3639000   0.67066029   -3.5371925     2422.899  0.055484543  0.054945525            4 
 3640000   0.66393162   -3.5336992    2420.0106  0.055403174  0.054933301            9 
 3641000   0.66164553   -3.5491309    2421.2592  0.055416533  0.054921121            7 
 3642000   0.66724626   -3.5497674    2421.7179  0.055411814   0.05490883            6 
 3643000    0.6930406   -3.5167514    2424.4489  0.055459075  0.054896725            9 
 3644000   0.66698235    -3.524128    2430.4811  0.055581803  0.054884623           17 
 3645000   0.67234832   -3.5403324    2424.1529  0.055421878  0.054872491            8 
 3646000   0.67424043   -3.5513632    2422.3027  0.055364389  0.054860368           10 
 3647000   0.67405546   -3.5360225    2434.8187  0.055635196  0.054848243            3 
 3648000   0.66237782   -3.5358676    2430.3973  0.055518944  0.054836175           15 
 3649000    0.6507283     -3.54294    2426.2746  0.055409578  0.054823989            5 
 3650000   0.67607316   -3.5307966    2430.4084  0.055488777  0.054811825           12 
 3651000   0.66659424   -3.5153851    2439.1473  0.055673041  0.054799824            7 
 3652000   0.66693577    -3.548732    2426.6791  0.055373292  0.054787721            7 
 3653000   0.67199563   -3.5238755    2436.0585  0.055572099  0.054775571            5 
 3654000   0.65710535   -3.5404212    2422.9328  0.055257544  0.054763472            9 
 3655000   0.65824428   -3.5342859    2427.3474  0.055343078   0.05475129            8 
 3656000   0.65565313   -3.5601088    2435.6364  0.055516877  0.054739146            9 
 3657000   0.66312242   -3.5404417    2426.5281   0.05529414  0.054726931           18 
 3658000    0.6781062   -3.5286994    2430.1255  0.055360979  0.054714785            5 
 3659000   0.67127558   -3.5458891    2427.3654  0.055282986  0.054702699            5 
 3660000   0.66426302   -3.5280681    2440.5458  0.055567984  0.054690677            4 
 3661000    0.6727194   -3.5032607    2424.9607  0.055198048  0.054678603           22 
 3662000   0.66389961   -3.5400403     2432.075   0.05534487  0.054666518            6 
 3663000   0.67890464   -3.5309714    2436.0955  0.055421228  0.054654472           11 
 3664000   0.65232048    -3.565145     2431.867  0.055309929   0.05464234            9 
 3665000   0.66889488   -3.5395675     2431.063  0.055276558  0.054630248            4 
 3666000   0.66534151   -3.5292739    2434.8227  0.055346943  0.054618064            5 
 3667000    0.6727931   -3.5390879    2432.2926  0.055274353  0.054605946            8 
 3668000   0.66575795   -3.5439612     2428.436  0.055171666  0.054593877           10 
 3669000   0.65877919   -3.5444868    2434.0356  0.055283811  0.054581853            5 
 3670000   0.66015685   -3.5391717     2431.246  0.055205403  0.054569794            7 
 3671000   0.66340537     -3.53791    2429.4068  0.055148616  0.054557757            9 
 3672000    0.6721594   -3.5516001    2437.1077  0.055308362  0.054545746           15 
 3673000   0.66448991   -3.5394239    2434.9001   0.05524322  0.054533733            4 
 3674000   0.64814894    -3.520843    2443.6854   0.05542745  0.054521713            7 
 3675000   0.65642769    -3.527879    2439.5076  0.055317633  0.054509802            6 
 3676000   0.64417964   -3.5438669    2429.5195  0.055076159  0.054497824            4 
 3677000   0.65702612   -3.5565629    2444.7775  0.055406978  0.054485784            5 
 3678000   0.64605226    -3.557591    2432.4453    0.0551125  0.054473776            7 
 3679000   0.65666119   -3.5732444    2436.9649  0.055199893  0.054461789            7 
 3680000    0.6728914   -3.5554231    2437.0592  0.055187029  0.054449759            3 
 3681000   0.65906778   -3.5550231     2440.331  0.055246105  0.054437767            6 
 3682000   0.66512735    -3.556724    2440.6213  0.055237673  0.054425738            4 
 3683000   0.64801082   -3.5376482    2442.5778  0.055266942  0.054413785            3 
 3684000   0.65983435   -3.5284477    2435.4237  0.055090113  0.054401858           19 
 3685000   0.67479849    -3.531946    2437.5754  0.055123821  0.054389998            6 
 3686000   0.66329319   -3.5290857    2436.0884  0.055075248  0.054378072            6 
 3687000   0.66187368   -3.5623077    2437.3709  0.055089299  0.054366093           13 
 3688000    0.6580812   -3.5578206    2443.2488  0.055207177  0.054354125            7 
 3689000   0.65980963   -3.5563343    2437.9113  0.055071639  0.054342057            7 
 3690000   0.65150467   -3.5559525     2435.468  0.055001535  0.054330099           12 
 3691000   0.65615176      -3.5398    2441.0758  0.055113243  0.054318135            5 
 3692000   0.66546391   -3.5588497    2432.9682  0.054915318  0.054306112            4 
 3693000   0.67192319   -3.5429061    2437.7355  0.055008021   0.05429409            4 
 3694000   0.66216071   -3.5411416    2443.4515  0.055122079  0.054282141            8 
 3695000   0.66308419    -3.561969    2438.3885  0.054992975  0.054270116            8 
 3696000   0.65913121   -3.5760838    2437.6066  0.054960467  0.054258154           11 
 3697000   0.65858407   -3.5656849    2434.2634  0.054870242  0.054246014           10 
 3698000   0.65493637   -3.5529194    2441.5657  0.055019959   0.05423404            5 
 3699000   0.66257752   -3.5407145    2442.9506  0.055036285  0.054222145           10 
 3700000   0.66190933   -3.5514045    2443.8421  0.055041488  0.054210052            7 
 3701000    0.6631416    -3.543175    2432.3248  0.054767288  0.054198053            5 
 3702000   0.66479414   -3.5557763    2433.7554  0.054784697  0.054185868            9 
 3703000   0.66056605   -3.5732665    2437.0404  0.054843829   0.05417378            5 
 3704000   0.66326328    -3.555987    2437.8721  0.054847734  0.054161665            4 
 3705000   0.65356652   -3.5397359    2447.3403   0.05504589  0.054149606           17 
 3706000     0.638019   -3.5646204     2436.019  0.054776467   0.05413756           10 
 3707000   0.66125261   -3.5415368    2439.8243  0.054847232  0.054125518           13 
 3708000   0.66419397    -3.556714    2434.0237  0.054702079  0.054113487            3 
 3709000   0.66571558   -3.5425062    2433.0855  0.054666251  0.054101381            6 
 3710000    0.6489696   -3.5445359    2441.4181  0.054838682  0.054089335           13 
 3711000   0.65597439   -3.5517076    2433.3489  0.054642703  0.054077299           12 
 3712000   0.65255747   -3.5532477    2437.3047   0.05471679  0.054065179            7 
 3713000   0.67216948   -3.5453824    2442.7465  0.054824187  0.054053086            7 
 3714000   0.64615023    -3.574134    2441.9172  0.054790819  0.054041011            7 
 3715000   0.64526031   -3.5605862    2442.0724  0.054779551  0.054028821            5 
 3716000   0.64115237    -3.555567    2439.5878  0.054709091  0.054016773            3 
 3717000    0.6737237   -3.5564467    2435.8703  0.054611029  0.054004682           12 
 3718000   0.65470994   -3.5717921    2432.3049  0.054516426  0.053992491           10 
 3719000   0.66959304   -3.5583689     2433.664  0.054532222  0.053980335           11 
 3720000   0.66040681   -3.5718426    2437.1216  0.054595018  0.053968112            8 
 3721000   0.65082176   -3.5609698    2435.3787  0.054541312  0.053955896            7 
 3722000   0.66308522   -3.5561059    2437.2018  0.054567477  0.053943753           13 
 3723000   0.65911522   -3.5590869    2440.3143  0.054622489  0.053931577            8 
 3724000   0.66100985    -3.566062    2436.9185  0.054531833  0.053919516            4 
 3725000   0.64755647   -3.5656821    2434.4001  0.054460853  0.053907298            6 
 3726000   0.65944383   -3.5642501    2436.9333  0.054502892  0.053895269            6 
 3727000   0.63978168   -3.5569345    2438.0431  0.054513083  0.053883125            4 
 3728000   0.66040356   -3.5646006    2445.6003  0.054667389  0.053871071            4 
 3729000   0.65970864   -3.5515767    2444.9973  0.054639253  0.053859035            4 
 3730000   0.64825655   -3.5807798    2445.4411  0.054634519  0.053847025            5 
 3731000   0.66308055   -3.5734242    2440.4188  0.054507701  0.053834938            3 
 3732000   0.65818847   -3.5670677    2443.9586  0.054572137  0.053822882            9 
 3733000   0.66586383   -3.5581903    2439.4704  0.054457327  0.053810791            6 
 3734000   0.65748155   -3.5761493    2441.0581  0.054478175  0.053798648            7 
 3735000   0.66645412   -3.5562658    2431.3992  0.054248086  0.053786536            5 
 3736000   0.64928848   -3.5697548      2438.58  0.054393735  0.053774501           11 
 3737000   0.65496627   -3.5424525    2446.8328  0.054563214  0.053762477            8 
 3738000    0.6626798   -3.5809703    2438.0064  0.054351846  0.053750369            6 
 3739000   0.64552317   -3.5615093    2444.6942  0.054486365  0.053738188            6 
 3740000   0.66947121   -3.5709529    2438.9655   0.05434415  0.053726081           13 
 3741000   0.65264546   -3.5803859    2440.0375  0.054353503  0.053713931            7 
 3742000   0.65254434     -3.57318    2442.6951  0.054398163  0.053701785           19 
 3743000   0.66066023   -3.5832191    2444.0471  0.054413731  0.053689631            7 
 3744000   0.65162949   -3.5655225    2437.2066  0.054246943  0.053677471            7 
 3745000   0.65371782    -3.571552    2433.3841  0.054147399  0.053665418            5 
 3746000   0.66370256   -3.5518508    2447.7655  0.054452871    0.0536533            4 
 3747000   0.65773956   -3.5562166    2445.6399  0.054391067   0.05364125            5 
 3748000   0.66682618   -3.5653779    2442.6096  0.054309178  0.053629287            8 
 3749000   0.65297919   -3.5590984    2440.8984  0.054256655  0.053617235            8 
 3750000   0.65499654   -3.5701487    2445.3521  0.054341159  0.053605198           12 
 3751000   0.64710851   -3.5693541    2437.5654  0.054153678  0.053593128            3 
 3752000   0.65088423   -3.5512997    2443.8946   0.05427982  0.053581128           19 
 3753000   0.65255757   -3.5603163    2442.8007  0.054241066  0.053569143            4 
 3754000   0.65335143   -3.5747996    2442.1559  0.054212306  0.053557087            3 
 3755000   0.63101228   -3.5565912    2443.1852  0.054220709  0.053545075           12 
 3756000   0.64884369   -3.5623731    2445.6169  0.054260226  0.053533095           17 
 3757000   0.65014362   -3.5655508    2451.5126  0.054376555  0.053520965            9 
 3758000   0.64577363   -3.5828215    2448.6613  0.054298858  0.053508894            6 
 3759000   0.65740748   -3.5893104    2447.2339  0.054252769  0.053496849            9 
 3760000   0.63201674   -3.5792453     2453.882  0.054385683  0.053484796            6 
 3761000   0.64386112    -3.582598    2448.8024  0.054258673  0.053472813           10 
 3762000   0.66422901   -3.5523176    2445.1278  0.054162853  0.053460773            6 
 3763000    0.6480726   -3.5425213    2444.1954   0.05412781  0.053448785            7 
 3764000   0.65810769   -3.5677974    2454.6893  0.054345761  0.053436789            7 
 3765000   0.65859171   -3.5855839    2436.8642  0.053936791  0.053424734            3 
 3766000   0.64028723   -3.5820435    2435.5422  0.053893216  0.053412548            9 
 3767000   0.66565164   -3.5789482    2443.4282  0.054053362   0.05340046           12 
 3768000   0.65639407   -3.5730424    2443.0367   0.05403036    0.0533884            8 
 3769000   0.63437958   -3.5564328    2450.0018  0.054170024  0.053376343            5 
 3770000   0.63499733   -3.5554413    2447.9947  0.054111288  0.053364244            9 
 3771000   0.66018839    -3.550204    2446.2917  0.054059306  0.053352243            8 
 3772000    0.6397396   -3.5604543    2448.9426   0.05410354  0.053340217            6 
 3773000   0.64755442    -3.590401    2448.1052  0.054070704  0.053328177           11 
 3774000    0.6567505   -3.5979162    2444.5348  0.053977538  0.053316092           16 
 3775000   0.65003057   -3.5687006      2453.76  0.054166888  0.053304006           11 
 3776000    0.6448859   -3.5647786    2450.6957  0.054084915  0.053291975            7 
 3777000   0.63486362   -3.5842052    2445.7921  0.053962406  0.053279877           16 
 3778000   0.65540374   -3.5706738    2445.7908  0.053948095  0.053267814           11 
 3779000   0.65889622   -3.5543006    2455.1504  0.054140213  0.053255793            6 
 3780000   0.64191333   -3.5819027    2445.6104  0.053915573  0.053243762            6 
 3781000   0.63710591   -3.5549116    2442.7323   0.05383788   0.05323175           11 
 3782000   0.66062265   -3.5827378    2447.3741  0.053925923    0.0532197           12 
 3783000   0.64230241   -3.5786888    2451.7604  0.054008292  0.053207692            6 
 3784000   0.64552377   -3.5703654    2439.9522  0.053733972  0.053195693            5 
 3785000    0.6492373    -3.558309    2439.6251  0.053712574  0.053183752            7 
 3786000   0.66175225   -3.5844352    2444.5281  0.053806306  0.053171672            6 
 3787000   0.64995884   -3.5758608    2448.7174  0.053884285  0.053159615            6 
 3788000   0.63059543   -3.5847919    2447.0711  0.053833841  0.053147527            6 
 3789000   0.64698577   -3.5781568    2454.4945  0.053982899  0.053135399            4 
 3790000    0.6472151    -3.586357    2441.8484  0.053690599  0.053123372            4 
 3791000   0.65110092   -3.6029396    2447.5321  0.053801375  0.053111344            7 
 3792000   0.64987786   -3.5879564    2447.7575  0.053792139   0.05309928            9 
 3793000   0.64777104   -3.5689383    2448.8181  0.053801258   0.05308728            5 
 3794000   0.63538061   -3.5762087     2454.137  0.053903906  0.053075326            8 
 3795000   0.66739141   -3.5875542    2452.4583   0.05385284  0.053063307            5 
 3796000   0.63924463   -3.5770668     2452.611  0.053842005  0.053051341           11 
 3797000   0.63959805   -3.5872598    2450.5287  0.053782123  0.053039439            5 
 3798000   0.64729337   -3.5865481    2456.0727  0.053889607  0.053027462            8 
 3799000    0.6445195   -3.5595305    2453.6096  0.053821392  0.053015521            6 
 3800000   0.65065979   -3.5723783    2454.6087  0.053829139  0.053003704            5 
 3801000   0.65084554   -3.5905092    2452.8948    0.0537774  0.052991818            7 
 3802000   0.64365834   -3.5987608    2448.1574  0.053659421  0.052979845            9 
 3803000   0.63388438   -3.5675812     2450.298  0.053692216  0.052967915            4 
 3804000   0.63569713   -3.5820997     2450.734  0.053687654  0.052955967            7 
 3805000   0.63347401   -3.5744083    2461.1143  0.053900882  0.052944117           11 
 3806000   0.63148491   -3.6020146    2456.7962  0.053792176  0.052932275           11 
 3807000   0.62727159   -3.6001665    2451.2528  0.053656703  0.052920348            4 
 3808000   0.63829886   -3.5638996    2452.6307  0.053672765  0.052908405            4 
 3809000   0.65318369   -3.5982164    2452.3556  0.053652655  0.052896641            8 
 3810000   0.64425339   -3.5708868    2460.9103  0.053825685  0.052884781            7 
 3811000   0.64680724   -3.5725507    2460.4829  0.053802215  0.052872987           15 
 3812000   0.64123289   -3.5966601    2459.3876  0.053764156  0.052861134           13 
 3813000   0.65361214   -3.5759694    2454.2662  0.053638129  0.052849362            4 
 3814000   0.63193157   -3.5722745    2456.7596  0.053678543  0.052837543           10 
 3815000   0.62336162   -3.5986716    2458.4184  0.053700707  0.052825721            5 
 3816000   0.64446818   -3.5827966    2457.7142  0.053671257  0.052813982            9 
 3817000   0.64145363   -3.5908512    2465.3642  0.053824212  0.052802283            9 
 3818000   0.63741149   -3.5871358    2450.7241  0.053490574  0.052790535            6 
 3819000   0.65122046   -3.5834037    2460.7994  0.053696418  0.052778793            8 
 3820000   0.64759439    -3.599036    2456.4395  0.053587248  0.052766989           12 
 3821000   0.65082153   -3.5841105    2462.0346  0.053695251  0.052755229            6 
 3822000   0.64402529   -3.6016815    2459.0175  0.053615418  0.052743487            5 
 3823000   0.64485727   -3.5880326    2458.7315  0.053595158  0.052731656            4 
 3824000   0.64108695   -3.5920856    2458.4722  0.053575492  0.052719816            7 
 3825000   0.64314469   -3.5873155    2457.6052  0.053542598  0.052707969            6 
 3826000   0.64253046   -3.6095542    2451.5193  0.053396047  0.052696127           15 
 3827000   0.63983396   -3.6048927    2456.9671   0.05350072  0.052684284            7 
 3828000   0.63201862   -3.5942779    2457.3786  0.053495703  0.052672511            7 
 3829000   0.63931633   -3.5932536    2462.9612  0.053603229  0.052660724           14 
 3830000   0.64256474   -3.6229277    2461.3408  0.053553976   0.05264899           10 
 3831000   0.64594115   -3.5985514    2457.1759  0.053449402  0.052637225            7 
 3832000   0.64567125   -3.5952444    2456.0217  0.053410354  0.052625511            7 
 3833000   0.64215035   -3.5949166    2458.8933  0.053458851  0.052613775            7 
 3834000   0.63500266   -3.5906672    2463.7213  0.053549846  0.052601999            8 
 3835000   0.61844545   -3.5928041    2461.3964  0.053485364  0.052590305            9 
 3836000   0.63878114   -3.5709202    2461.5401  0.053474542    0.0525786           10 
 3837000   0.63716345   -3.5723675    2462.7824  0.053487586  0.052566865            4 
 3838000   0.63410253   -3.5887645     2461.958  0.053455749  0.052555114            5 
 3839000   0.64320011   -3.6037038    2459.8344  0.053395727  0.052543314            7 
 3840000   0.63972535   -3.5878857    2469.4319  0.053590102  0.052531507            8 
 3841000    0.6395768   -3.5701688    2464.1171   0.05346084  0.052519807            7 
 3842000   0.62028674   -3.5957786    2459.7222    0.0533516  0.052508105           10 
 3843000   0.64350468   -3.6081537    2461.2552   0.05337096  0.052496281           15 
 3844000   0.63235549   -3.5904982    2458.9656  0.053307441  0.052484502            7 
 3845000   0.63673949   -3.6089518     2463.886  0.053400217  0.052472738            7 
 3846000   0.63674914    -3.601245    2456.5681   0.05322777  0.052460862           13 
 3847000   0.64559347   -3.5943439     2464.315  0.053381748  0.052449053            5 
 3848000   0.63248935   -3.6050931    2462.4994  0.053328556  0.052437243           15 
 3849000   0.63525014   -3.5981178    2460.5399  0.053272277  0.052425454           22 
 3850000   0.64140697   -3.5875954    2461.8452  0.053286692   0.05241368            8 
 3851000   0.63421218   -3.5918298    2459.2106  0.053215845  0.052401912           11 
 3852000   0.63171455   -3.6037997    2457.1877  0.053158266  0.052390129            6 
 3853000   0.63148719   -3.6110147    2458.3525  0.053169663   0.05237839            8 
 3854000   0.63171653   -3.5998732    2464.6906  0.053292912  0.052366656           12 
 3855000   0.63412524   -3.6038772    2458.2146  0.053139097  0.052354941            7 
 3856000   0.64377086   -3.6024961    2462.2935  0.053213466  0.052343222            9 
 3857000   0.64305324   -3.5705394    2464.3494  0.053244089  0.052331524            7 
 3858000   0.63503673   -3.5978296    2468.2354  0.053314225  0.052319813           13 
 3859000   0.63398872   -3.5888425    2465.4836  0.053240985    0.0523081            8 
 3860000   0.65012734   -3.5964934    2465.7862  0.053233727  0.052296441            5 
 3861000   0.62897728   -3.5941937    2469.2372  0.053294423  0.052284744           10 
 3862000   0.64341717   -3.5920488    2463.2869  0.053152228  0.052273046            4 
 3863000   0.63200844   -3.5994315    2469.1385  0.053264702  0.052261312            6 
 3864000   0.65876497   -3.5976299    2463.7859  0.053135479  0.052249643            6 
 3865000    0.6405663   -3.6174142    2467.2811  0.053197091  0.052237925           13 
 3866000   0.64099478   -3.6148197    2467.8365  0.053195304  0.052226169           10 
 3867000   0.63514901   -3.6082141    2469.6282  0.053220158  0.052214434            7 
 3868000    0.6405482   -3.5766812    2463.5714  0.053075909   0.05220272            4 
 3869000   0.62201772   -3.6127159    2469.9023   0.05319855  0.052190955            8 
 3870000   0.62180706   -3.6087355    2466.0212  0.053101231   0.05217928            5 
 3871000   0.62687582   -3.6047191    2465.8306   0.05308341  0.052167653            8 
 3872000   0.62486752   -3.6120282     2464.894  0.053049544  0.052155915            5 
 3873000    0.6455025   -3.6026903    2466.9724  0.053080566  0.052144158            9 
 3874000   0.63577395   -3.5980796     2464.427  0.053012111  0.052132399            6 
 3875000   0.63118903   -3.6227153    2467.2519  0.053059181   0.05212083            8 
 3876000   0.63246378   -3.6064021    2472.3718  0.053155569  0.052109259            8 
 3877000   0.61966343   -3.6099501    2468.8294  0.053065716  0.052097638            6 
 3878000   0.62445422   -3.6161578    2462.4583  0.052915127  0.052086035            7 
 3879000   0.62928135   -3.6077454    2467.0493  0.053000114  0.052074375           13 
 3880000   0.63394154   -3.6216594    2464.0835  0.052922756  0.052062673           19 
 3881000   0.64069037   -3.6131328    2462.8853  0.052883392   0.05205103           17 
 3882000   0.63132667   -3.6036431    2470.6656  0.053036785   0.05203934           11 
 3883000   0.63110022   -3.5932918    2464.2594  0.052885643  0.052027729            4 
 3884000   0.61604349   -3.5840342    2471.0919  0.053018621  0.052016103            6 
 3885000   0.63269554   -3.6036029    2462.9324  0.052829952  0.052004486           10 
 3886000   0.62012692   -3.5775928    2474.1677  0.053057293  0.051992899            6 
 3887000    0.6318379   -3.6084824    2470.7604  0.052970595  0.051981276            5 
 3888000   0.64495029   -3.6035413    2476.1446  0.053072373  0.051969667            9 
 3889000   0.63620414    -3.593254    2473.1288  0.052994103  0.051958164            7 
 3890000   0.62531408   -3.5992652    2460.6634  0.052713441  0.051946624            6 
 3891000   0.63948975   -3.5853918    2471.2111  0.052925792  0.051935015            8 
 3892000   0.63377514   -3.6077895    2461.6265  0.052706974   0.05192338           10 
 3893000   0.62091952   -3.6114805    2472.4763  0.052925685  0.051911853            9 
 3894000   0.62631138   -3.6112115    2466.6862  0.052788183  0.051900331            7 
 3895000   0.62445144   -3.6003185    2478.4686  0.053026714  0.051888853            8 
 3896000   0.63515159   -3.6003776    2473.4524   0.05290581  0.051877353            5 
 3897000   0.61754858   -3.6061262    2472.7919   0.05287811   0.05186585            5 
 3898000   0.62311223   -3.6089138    2472.9265  0.052867421  0.051854315            8 
 3899000     0.621956   -3.6204496    2467.7295  0.052742787  0.051842758           10 
 3900000    0.6332423   -3.6181302    2473.6868  0.052856555  0.051831193            8 
 3901000   0.62698102   -3.5654551    2477.1677  0.052917365  0.051819653            9 
 3902000   0.63130645   -3.5981465     2469.545  0.052741009  0.051808091            5 
 3903000   0.62043781    -3.593968    2475.6467  0.052857775   0.05179651            6 
 3904000    0.6223984   -3.6173072      2467.91  0.052679089  0.051784959           11 
 3905000   0.61617474   -3.6109095    2469.0224  0.052689338  0.051773355            7 
 3906000   0.63345872   -3.6251742    2466.9254  0.052631111  0.051761675            5 
 3907000   0.62972852   -3.6171352    2468.8669   0.05265905  0.051750039           10 
 3908000   0.63957906   -3.6097644    2477.5123  0.052829928  0.051738515           17 
 3909000   0.62711842   -3.6084711    2470.3546  0.052663824  0.051727001           10 
 3910000   0.63122384   -3.6141263    2472.7536  0.052701484  0.051715391           12 
 3911000    0.6338734   -3.5964207    2471.1392  0.052653609  0.051703839           12 
 3912000   0.62058672   -3.6068843    2476.6576  0.052757702  0.051692231            5 
 3913000   0.63140864   -3.6201724    2469.2808   0.05258712   0.05168064            8 
 3914000   0.62974154   -3.6045342    2477.6732  0.052752368  0.051669184            4 
 3915000   0.63475513   -3.6212402    2475.0858  0.052683819  0.051657711            5 
 3916000   0.63582134   -3.6165853    2476.4394   0.05269917  0.051646166            2 
 3917000   0.62673393   -3.6145353    2475.0938   0.05265709  0.051634641            6 
 3918000   0.61855164   -3.6177271    2477.3215   0.05269103  0.051623185            7 
 3919000   0.62388866   -3.6363444    2470.0742   0.05252348  0.051611568            8 
 3920000   0.62723479   -3.6100815    2473.7843  0.052588952  0.051599991            5 
 3921000   0.62815746   -3.6230654    2475.0423  0.052602276  0.051588428            7 
 3922000   0.62806444   -3.6095261    2479.8488  0.052690991   0.05157688            4 
 3923000   0.61316604   -3.6342978    2481.4909  0.052712442  0.051565329            4 
 3924000    0.6364766     -3.62213    2470.3104  0.052461569  0.051553748            7 
 3925000   0.62257636   -3.6160012    2472.5166  0.052495045  0.051542244           11 
 3926000   0.63048787   -3.6140607    2480.1503  0.052643707  0.051530721            9 
 3927000   0.63703748   -3.5989734    2478.5851  0.052597087   0.05151929           14 
 3928000   0.63681415   -3.6192704     2475.459  0.052517375  0.051507734            7 
 3929000   0.60978578   -3.6118792    2468.9972  0.052366956    0.0514961           10 
 3930000   0.61296355   -3.6248484    2478.3804  0.052552596  0.051484486            5 
 3931000   0.62061913   -3.6261507    2476.8955  0.052507749  0.051472848           10 
 3932000   0.62418326   -3.6197758    2472.4331   0.05239982  0.051461214            8 
 3933000   0.63146088   -3.6220105    2468.9207  0.052312075  0.051449568            6 
 3934000   0.62220934   -3.6026185    2473.5266  0.052396344  0.051437933           10 
 3935000   0.62558173   -3.6332757    2473.5079  0.052382633  0.051426271            9 
 3936000   0.62951147   -3.6283666    2476.8801  0.052440721  0.051414582            7 
 3937000   0.62038402   -3.6051853    2480.3391  0.052500615  0.051402996           10 
 3938000   0.59877911   -3.6107926    2475.5953    0.0523869  0.051391442            7 
 3939000   0.62269618   -3.6516254    2471.6734  0.052290628  0.051379862            8 
 3940000    0.6209439   -3.6107622    2477.7533  0.052405949  0.051368348           15 
 3941000   0.61871061    -3.613881    2478.9622  0.052418214  0.051356881            4 
 3942000   0.61277781   -3.6136068    2473.0713  0.052280385  0.051345299            7 
 3943000   0.61002716   -3.6398642    2468.4535   0.05216953   0.05133372           19 
 3944000   0.61876362   -3.6149308    2478.6792  0.052372363   0.05132213            7 
 3945000   0.62540742   -3.6029739     2478.416  0.052353527  0.051310575            5 
 3946000   0.62107021    -3.607879    2472.1996   0.05220898  0.051299036            8 
 3947000   0.60955582   -3.6474069    2469.7717  0.052144493  0.051287376            4 
 3948000   0.61215628   -3.6116236    2476.9491  0.052282783  0.051275791            8 
 3949000   0.62131692   -3.6374404    2481.0141  0.052355324  0.051264198           12 
 3950000   0.61391868   -3.6315634    2472.9073   0.05217104  0.051252587            8 
 3951000   0.62951117    -3.625657    2469.5661  0.052087364  0.051240979            6 
 3952000    0.6338678   -3.6324252    2470.9405  0.052103166  0.051229433            9 
 3953000   0.60786978   -3.6086004    2474.1347  0.052157322  0.051217804            8 
 3954000   0.60710988   -3.6247188    2474.8817  0.052159874  0.051206218            8 
 3955000   0.62009064   -3.6069971    2487.2345  0.052406963  0.051194722            6 
 3956000   0.61421096   -3.6200528     2472.857  0.052090853  0.051183252            5 
 3957000   0.62012291   -3.6303289    2474.9146  0.052121023  0.051171742           11 
 3958000   0.62702163   -3.6304919    2476.0411  0.052131571  0.051160201            6 
 3959000   0.62937502   -3.6289898    2476.0458  0.052118503  0.051148717           10 
 3960000   0.62057435   -3.6469027    2476.4345   0.05211352  0.051137296           16 
 3961000   0.62680767    -3.614022    2473.2887  0.052034182  0.051125768            5 
 3962000   0.61673762   -3.6020778    2482.5062   0.05221492  0.051114312            5 
 3963000   0.61117594   -3.6256416    2483.4598  0.052221797  0.051102921            6 
 3964000   0.59820825    -3.636594    2479.6846  0.052129259  0.051091482            7 
 3965000   0.61701178   -3.6202463    2479.0384  0.052102531  0.051080014            6 
 3966000   0.61539141    -3.608672    2480.5976  0.052122155  0.051068646            9 
 3967000   0.61350336   -3.6122569    2476.0404  0.052013285  0.051057212           21 
 3968000   0.61909732   -3.6255204     2481.712  0.052119289  0.051045718            8 
 3969000   0.62656718   -3.6069695    2476.5683  0.051998159  0.051034237            5 
 3970000   0.62976276   -3.6449547    2478.2896  0.052021193  0.051022744           11 
 3971000    0.6168682    -3.601848    2482.4732  0.052095886  0.051011208           14 
 3972000   0.62756878    -3.620893    2477.7414  0.051983498  0.050999795            8 
 3973000   0.61817664   -3.6265518    2482.8573  0.052077719  0.050988299            8 
 3974000   0.61675797   -3.6321705    2478.6986  0.051977408  0.050976791            6 
 3975000   0.61759389   -3.6320317    2480.4557  0.052001167  0.050965319            6 
 3976000   0.62351998   -3.6282318    2477.2983  0.051921914  0.050953782           21 
 3977000   0.62338155   -3.6266473    2474.1147  0.051842148  0.050942233            9 
 3978000   0.62322888   -3.6471337    2477.5124  0.051900294   0.05093071           21 
 3979000   0.63089841   -3.6378688    2482.4727  0.051991134  0.050919242           10 
 3980000   0.62051943   -3.6513572    2479.4602  0.051914995  0.050907719            6 
 3981000    0.6107048   -3.6321983    2474.1984  0.051791811  0.050896181            3 
 3982000   0.61171232   -3.6314545    2489.7132   0.05210349  0.050884724            5 
 3983000   0.62036359   -3.6266086    2482.8089  0.051945956  0.050873188            9 
 3984000   0.62323759   -3.6344829    2479.0937  0.051855207  0.050861656           24 
 3985000   0.61299231   -3.6298728    2478.9951  0.051840132  0.050850168            6 
 3986000   0.60850712    -3.631529    2481.9049  0.051887959  0.050838616            6 
 3987000   0.61437704   -3.6473139     2483.507  0.051908432  0.050827118            8 
 3988000   0.61069131   -3.6512915    2483.5315  0.051895927  0.050815642            4 
 3989000   0.60931708   -3.6419822    2487.8081  0.051972259  0.050804138           14 
 3990000   0.61998914   -3.6121265    2480.8666  0.051814256  0.050792682           10 
 3991000   0.62440017   -3.6592989    2481.3399  0.051811155  0.050781192            5 
 3992000   0.62644047   -3.6285701    2475.3519  0.051673177  0.050769708            5 
 3993000   0.62322846   -3.6588154    2484.8725   0.05185893  0.050758253           12 
 3994000   0.59852151   -3.6399968    2480.2198  0.051748868  0.050746836            4 
 3995000   0.61347511    -3.638577     2482.977   0.05179343  0.050735474            4 
 3996000   0.61509497   -3.6516391    2483.0637  0.051782277  0.050724086            6 
 3997000   0.62418493   -3.6381026     2482.926  0.051766451  0.050712704           13 
 3998000   0.61245762   -3.6173215    2484.3546   0.05178328  0.050701314           10 
 3999000   0.61667189   -3.6161128    2487.1665  0.051828926  0.050689899            4 
 4000000   0.61187626   -3.6355809    2485.7908  0.051787308   0.05067849            7 
 4001000   0.61440121   -3.6421496    2483.3611  0.051723759  0.050667067            4 
 4002000   0.60560012   -3.6558054    2476.6425  0.051570933  0.050655578           11 
 4003000   0.59608426   -3.6292659    2476.8591  0.051562559  0.050644067           25 
 4004000   0.60183446   -3.6587338    2481.9849  0.051656363  0.050632534           14 
 4005000   0.62016065   -3.6377169     2485.086   0.05170799  0.050621051           11 
 4006000   0.61067306   -3.6300156    2477.7263  0.051541986  0.050609552            5 
 4007000   0.61221535   -3.6247726    2476.3726   0.05150097  0.050598005           12 
 4008000    0.6017524   -3.6154743    2486.9613  0.051708278  0.050586515            5 
 4009000    0.6006324   -3.6587188    2478.0328  0.051509786  0.050574983            9 
 4010000   0.59050046    -3.601316    2484.5854  0.051633112  0.050563545           13 
 4011000    0.6191372   -3.6302722    2487.2898  0.051676426  0.050552124            5 
 4012000   0.60493377   -3.6344323    2484.5409  0.051606449   0.05054069            7 
 4013000   0.61951856   -3.6474292    2486.3319  0.051630781  0.050529276            9 
 4014000   0.60646385   -3.6311375    2475.1543  0.051385863  0.050517855           10 
 4015000   0.60017026   -3.6302018    2481.4247   0.05150321  0.050506469            9 
 4016000   0.61000943   -3.6171822    2485.2429  0.051569616  0.050495074            9 
 4017000   0.61834046   -3.6468396    2477.1914  0.051389748  0.050483608            6 
 4018000   0.61020316   -3.6473309    2483.5911  0.051509688  0.050472131           15 
 4019000   0.61506607   -3.6500124    2487.9797  0.051587868  0.050460704            6 
 4020000   0.59991241   -3.6396922    2482.8441  0.051468575  0.050449293            6 
 4021000   0.61964826   -3.6565653     2480.013  0.051397103  0.050437813           10 
 4022000    0.6090181   -3.6420999    2482.0676  0.051426894  0.050426342            6 
 4023000   0.60767148   -3.6459274    2481.6345  0.051405139  0.050414909            3 
 4024000   0.59822867   -3.6418902    2484.5567  0.051452881  0.050403482            7 
 4025000   0.60397079   -3.6531723    2487.6419  0.051503973  0.050392049           11 
 4026000   0.61546744   -3.6545325    2487.2361  0.051482781  0.050380653           11 
 4027000   0.59314795   -3.6577264    2484.0492  0.051404048  0.050369216            6 
 4028000   0.61879149   -3.6450544    2488.4791  0.051482935   0.05035782            7 
 4029000   0.60534375   -3.6209862     2484.833  0.051394743  0.050346498           12 
 4030000   0.62485602   -3.6528119    2485.0717  0.051386925  0.050335116            8 
 4031000   0.60814849   -3.6372664    2489.5147  0.051466027  0.050323767            8 
 4032000   0.61764482   -3.6375151    2486.3876  0.051388633  0.050312455           12 
 4033000   0.60301977   -3.6389656    2488.7091   0.05142386  0.050300986           27 
 4034000   0.60426943   -3.6533039    2490.8949  0.051456265  0.050289531            5 
 4035000   0.59416504   -3.6224042    2487.7477  0.051378515  0.050278138            5 
 4036000   0.62143151   -3.6473852    2487.8274   0.05136743   0.05026681           15 
 4037000   0.60959292   -3.6536279    2482.7861  0.051250642  0.050255381            5 
 4038000   0.60106169    -3.663062    2484.8357  0.051280249   0.05024401           11 
 4039000   0.59654181   -3.6560347     2484.052  0.051251383  0.050232578            4 
 4040000   0.61192576   -3.6649702    2479.3731  0.051142185  0.050221147            9 
 4041000    0.6070222   -3.6578192    2484.5993  0.051237304   0.05020975           13 
 4042000   0.60278746   -3.6500206    2486.2971   0.05125963  0.050198296            7 
 4043000    0.5982395   -3.6518913     2484.887  0.051217887  0.050186856            4 
 4044000   0.60793145   -3.6352119    2481.8859   0.05114338  0.050175421            7 
 4045000   0.60162726   -3.6450764    2488.1276  0.051259325  0.050164032            9 
 4046000   0.60617099    -3.658831    2489.8699  0.051282541  0.050152654            5 
 4047000    0.6077872   -3.6400158    2488.7829  0.051247485  0.050141276           12 
 4048000   0.60554063   -3.6415008    2490.8768  0.051277932  0.050129867            3 
 4049000   0.60022107   -3.6424203    2485.1499    0.0511474  0.050118476            7 
 4050000   0.61579655   -3.6502049    2478.0502  0.050988687  0.050107072            5 
 4051000   0.59090533   -3.6279708    2490.8845  0.051240116  0.050095722            9 
 4052000   0.60108274   -3.6436532    2482.3675   0.05105231  0.050084386            6 
 4053000    0.6139596   -3.6542574    2493.2727  0.051263934  0.050072988            8 
 4054000   0.61032594   -3.6533662    2494.4834  0.051276176  0.050061638            9 
 4055000   0.60231647   -3.6708725    2484.6815  0.051062094  0.050050267           13 
 4056000   0.60579081   -3.6492244    2492.5714  0.051211609  0.050038838           17 
 4057000   0.59150139   -3.6549159    2493.0044   0.05120788  0.050027468            7 
 4058000   0.60280632   -3.6508992    2493.2421  0.051200141   0.05001618           12 
 4059000   0.61709459    -3.667917    2478.9786   0.05089469  0.050004811            9 
 4060000   0.59872872   -3.6414133    2488.0744  0.051068852  0.049993476            5 
 4061000    0.5910562   -3.6588371    2493.7546  0.051172836  0.049982177            4 
 4062000   0.60248866   -3.6490349    2484.8589  0.050977739  0.049970802            6 
 4063000   0.61857568   -3.6395291    2488.6868  0.051043704  0.049959476           11 
 4064000   0.59722637   -3.6538442    2489.9182  0.051056393  0.049948111           17 
 4065000   0.59506588   -3.6595367    2488.0896  0.051006347  0.049936745           12 
 4066000   0.60064537    -3.663266    2496.2472  0.051160994  0.049925451            7 
 4067000   0.61020412    -3.650064    2491.2448  0.051045914  0.049914124            7 
 4068000   0.59678212    -3.666039    2496.3462  0.051137869  0.049902785            7 
 4069000   0.59881939   -3.6756904     2487.049  0.050934893  0.049891413           12 
 4070000   0.59037306   -3.6731393    2486.4977  0.050911092  0.049879937            6 
 4071000   0.61006229   -3.6516337    2491.4708  0.051000385  0.049868495            9 
 4072000   0.59228839   -3.6716136    2482.1922  0.050797974  0.049857145            9 
 4073000   0.60399845   -3.6691072    2482.6034  0.050793916  0.049845792            7 
 4074000    0.6046138   -3.6703706    2481.6992  0.050762951   0.04983437           10 
 4075000   0.60705109   -3.6500525    2492.8596  0.050978724  0.049822954           11 
 4076000   0.59546094   -3.6435043    2488.6383  0.050879912  0.049811668            4 
 4077000   0.59111033   -3.6515585    2485.9745  0.050812985  0.049800384            5 
 4078000   0.61113476   -3.6426987    2488.1997  0.050845997  0.049789069            7 
 4079000    0.6019465   -3.6504861    2491.9698  0.050910555  0.049777751           10 
 4080000   0.59889516   -3.6565188    2483.9564  0.050734404  0.049766343            5 
 4081000    0.5843682   -3.6491483    2487.1955  0.050788113  0.049754998            7 
 4082000    0.6016123   -3.6531842    2487.2672  0.050777135  0.049743582           12 
 4083000   0.60867419   -3.6632092    2484.4766  0.050707744  0.049732198            8 
 4084000   0.60432752   -3.6562095    2494.3814  0.050897433  0.049720867           10 
 4085000   0.58989966   -3.6657629     2496.427  0.050926704  0.049709521            8 
 4086000   0.60271794   -3.6395422    2493.7787  0.050860228   0.04969822            4 
 4087000    0.6062435   -3.6614125    2487.6745  0.050723319  0.049686893           11 
 4088000   0.60008994   -3.6479566    2489.8413  0.050755082  0.049675597            8 
 4089000   0.58651601   -3.6738077    2489.1785  0.050729161  0.049664266            9 
 4090000   0.59878956    -3.654858    2484.4976  0.050621386  0.049652992           11 
 4091000   0.59098534   -3.6534493    2496.6621  0.050856801  0.049641727            4 
 4092000   0.59361509   -3.6711581    2490.0347  0.050709406  0.049630423            7 
 4093000   0.57959103   -3.6664811    2492.7465  0.050752229   0.04961908            9 
 4094000   0.58821838   -3.6511287    2485.4526  0.050591365  0.049607697            7 
 4095000   0.59378944   -3.6695739    2483.6921  0.050543186  0.049596283           10 
 4096000   0.59867487   -3.6525507    2491.5841  0.050691409  0.049584907           10 
 4097000   0.58524311   -3.6634968    2493.3473    0.0507149  0.049573567            7 
 4098000   0.60212731   -3.6531005    2491.0892  0.050656606  0.049562229            5 
 4099000   0.59788484   -3.6671698    2489.2172  0.050606188  0.049550883            6 
 4100000   0.59142706   -3.6681962    2486.9483  0.050547729  0.049539428           12 
 4101000    0.5978378   -3.6531632    2491.8972  0.050635967  0.049528038           12 
 4102000   0.59645934   -3.6652615    2490.8441  0.050602229  0.049516666            6 
 4103000   0.59848926   -3.6485403    2489.2988  0.050558509  0.049505279            3 
 4104000   0.59816649   -3.6507464    2490.1194  0.050562853   0.04949387            6 
 4105000   0.59633521   -3.6776682    2489.3886  0.050535701  0.049482428           12 
 4106000   0.59443281    -3.679558    2485.2434  0.050439264     0.049471            5 
 4107000   0.59093183   -3.6717585    2487.5579  0.050473944  0.049459561            7 
 4108000   0.60806523   -3.6510205    2490.1666  0.050514578  0.049448176            7 
 4109000   0.59556425   -3.6786564    2499.3133  0.050687785  0.049436771           11 
 4110000   0.58460504   -3.6579006    2489.0748  0.050467858  0.049425447            8 
 4111000   0.60609148   -3.6676509    2490.9896  0.050494397  0.049414117            7 
 4112000   0.59222657   -3.6814265    2484.1143  0.050342783   0.04940275           18 
 4113000   0.60700117   -3.6669649    2495.8869  0.050569068  0.049391447           13 
 4114000   0.58266468   -3.6866627    2491.8083  0.050474159  0.049380162           19 
 4115000   0.59939188   -3.6664803    2489.7688  0.050420592  0.049368848           15 
 4116000   0.59065584   -3.6692258     2493.199  0.050477789  0.049357467           12 
 4117000   0.58287846   -3.6463463    2493.8243  0.050478187  0.049346211           18 
 4118000   0.60233681   -3.6689713    2490.9983  0.050408739  0.049334999            6 
 4119000   0.59387664   -3.6729444    2494.4888   0.05046712  0.049323767            6 
 4120000   0.59566171   -3.6578653    2494.6685  0.050458506  0.049312511            4 
 4121000   0.59195843   -3.6618647     2490.117  0.050354222  0.049301244           12 
 4122000   0.57852048   -3.6729546    2493.9701  0.050419903  0.049289906           11 
 4123000   0.59254745   -3.6590435    2496.4723  0.050458248  0.049278598            8 
 4124000   0.58708809   -3.6525261    2488.2912  0.050280699  0.049267245           26 
 4125000   0.60800082   -3.6693007    2491.8498  0.050340401  0.049255913           10 
 4126000   0.58150055   -3.6759076    2494.8811  0.050389423  0.049244651            8 
 4127000   0.58462983   -3.6677482    2497.9876  0.050439939  0.049233405            9 
 4128000   0.58462481   -3.6707033    2493.8731  0.050344661  0.049222216           13 
 4129000   0.58705025   -3.6747432    2492.5864  0.050306499  0.049210896           11 
 4130000   0.61572505    -3.674389    2495.5423   0.05035396  0.049199589           13 
 4131000    0.5924921   -3.6689741    2495.9608  0.050350213  0.049188312            7 
 4132000   0.60029635   -3.7006392    2490.8332  0.050234615  0.049177047            8 
 4133000   0.58863983   -3.6819263    2489.7031  0.050199676  0.049165737            8 
 4134000   0.60121258    -3.688621    2491.4216  0.050222174  0.049154436           16 
 4135000   0.58960305   -3.6818863     2494.163  0.050265276  0.049143102           32 
 4136000   0.57180268   -3.6825332    2494.8196  0.050266353  0.049131853            9 
 4137000   0.58661114   -3.6704604    2492.1632  0.050200692  0.049120568           13 
 4138000   0.59857374   -3.6650797    2492.0101  0.050185479  0.049109262           29 
 4139000   0.59137924   -3.6740289    2498.0419  0.050294795  0.049097985           13 
 4140000    0.6002361    -3.669965    2501.9255   0.05036082  0.049086696            8 
 4141000   0.58200323   -3.6641877    2493.6458  0.050182037   0.04907547            9 
 4142000   0.58138741   -3.6495833    2500.7048  0.050311942  0.049064247            8 
 4143000   0.59603906   -3.6849779    2495.7871  0.050200884  0.049053021            7 
 4144000   0.60547653   -3.6735555    2491.4201  0.050100951  0.049041766           18 
 4145000   0.59808022     -3.65491    2489.7196  0.050054676  0.049030501           13 
 4146000    0.5817885   -3.6789131    2490.4977  0.050058243  0.049019243            7 
 4147000   0.58080441   -3.6700106    2500.1403  0.050239939  0.049008007            8 
 4148000   0.59451554   -3.6686317    2494.1159  0.050106796  0.048996792           11 
 4149000   0.58623313   -3.6849719    2496.5918  0.050144448  0.048985514           11 
 4150000    0.5821918   -3.6823723     2487.207  0.049943916  0.048974257           10 
 4151000   0.58529834   -3.6806271    2492.8034  0.050044234  0.048962965           11 
 4152000   0.58841713   -3.6726678    2490.9236  0.049994452  0.048951648           15 
 4153000   0.59171584   -3.7040533    2488.4671  0.049933122  0.048940338           14 
 4154000   0.58697379   -3.6820127    2494.4912  0.050041952  0.048929009           23 
 4155000   0.58200645   -3.6722421    2491.8403  0.049976741  0.048917698           12 
 4156000   0.59975493   -3.6935894    2496.2927  0.050053993   0.04890644           12 
 4157000   0.58480584    -3.666421    2487.1972  0.049859619  0.048895192           12 
 4158000   0.57260305   -3.6799143    2492.3407  0.049950712  0.048883961           15 
 4159000   0.57711733   -3.6822916    2499.1556  0.050075251  0.048872706           11 
 4160000   0.59295363   -3.6962352    2496.6485  0.050012991  0.048861434            7 
 4161000   0.58575034    -3.677201    2489.3554   0.04985491  0.048850129            8 
 4162000   0.57545313   -3.6972351    2494.2177  0.049940287  0.048838792            4 
 4163000   0.59543464   -3.6966294    2495.3857  0.049951671  0.048827448           15 
 4164000   0.58297544   -3.6929643    2493.8181  0.049908303  0.048816076            6 
 4165000   0.59516087   -3.6821917    2490.9634  0.049839204  0.048804719            6 
 4166000   0.57625942   -3.6830289    2493.5162  0.049878304  0.048793402           22 
 4167000   0.58883909   -3.6703165    2498.5488  0.049966978  0.048782152            7 
 4168000   0.59726738    -3.673032    2496.9972  0.049923968  0.048770907            8 
 4169000    0.5844799   -3.6747857    2497.0199  0.049912447  0.048759595            8 
 4170000   0.59771333   -3.6756143    2495.3416  0.049866938  0.048748276            5 
 4171000   0.59717696   -3.6728021    2495.4558  0.049857264  0.048736988            8 
 4172000   0.58376013   -3.6764501    2489.6921  0.049730188  0.048725657           23 
 4173000   0.58715006   -3.6840622    2489.0154  0.049704756  0.048714308            8 
 4174000   0.56719036   -3.7030955    2491.8541  0.049749523  0.048702939            9 
 4175000   0.57278849   -3.6859778    2488.0573  0.049661823  0.048691547            6 
 4176000   0.59857521   -3.6833282    2485.7616  0.049604119  0.048680183            8 
 4177000   0.58308232   -3.6809763    2489.2372  0.049661584  0.048668846            7 
 4178000   0.58531505   -3.6877901    2489.2556  0.049650063  0.048657517            9 
 4179000   0.58332919    -3.675347    2492.7739  0.049708342  0.048646242           13 
 4180000   0.59368329   -3.6746714    2486.5678  0.049572723   0.04863489           20 
 4181000   0.57043401   -3.6958807    2494.4665  0.049718299  0.048623549           13 
 4182000   0.59096892   -3.6844817    2502.4428  0.049865351  0.048612274            6 
 4183000   0.58063608    -3.677991    2498.9381   0.04978361  0.048600956            7 
 4184000   0.57842474   -3.6918632    2497.6541  0.049746138  0.048589754            6 
 4185000   0.57386079   -3.7023827    2493.5561   0.04965265  0.048578436           12 
 4186000   0.57300675   -3.6735044    2494.8461  0.049666469   0.04856711            6 
 4187000   0.58513855   -3.6993152    2497.4803  0.049707035   0.04855583            8 
 4188000   0.58178193   -3.7055193    2492.1396  0.049588897  0.048544541           15 
 4189000   0.58348149   -3.7016193    2491.8871  0.049572036  0.048533245           12 
 4190000   0.58173518    -3.686894    2502.1781  0.049764879  0.048521982            8 
 4191000   0.59538914   -3.6848581    2500.7259  0.049724129  0.048510749           15 
 4192000   0.58159647   -3.7004149     2499.073  0.049679409  0.048499426           12 
 4193000   0.59275549   -3.6913713    2492.9339  0.049545551  0.048488198           11 
 4194000   0.58987303   -3.7085695    2496.5917  0.049606416  0.048476937            8 
 4195000   0.58716435   -3.7160893    2498.2743  0.049628016  0.048465701           10 
 4196000   0.57607751   -3.6939157    2496.7263  0.049585444  0.048454479            9 
 4197000   0.57317024   -3.6694966    2490.4032  0.049448082   0.04844329            7 
 4198000   0.58434179   -3.6836323    2498.2532   0.04959213  0.048432074            6 
 4199000   0.57282035   -3.7055544    2490.7537  0.049431486   0.04842081            8 
 4200000   0.59690452   -3.6850049    2495.4828  0.049513548  0.048409569           16 
 4201000   0.57603115   -3.6882148    2497.1102  0.049534043  0.048398341           10 
 4202000   0.57445283   -3.7077432    2501.4611  0.049608542  0.048387101           12 
 4203000   0.57389584   -3.6865818    2502.6759  0.049620825  0.048375867           19 
 4204000   0.58268936   -3.7046909    2497.4765  0.049505957    0.0483646            6 
 4205000   0.57333722   -3.7040108    2498.0088  0.049504733  0.048353362           11 
 4206000   0.58193064    -3.683751    2506.5928  0.049663037   0.04834215            9 
 4207000   0.59488163   -3.6941751    2496.7709  0.049456678  0.048330903            6 
 4208000    0.5876646   -3.6705084    2499.7217   0.04950336  0.048319687            9 
 4209000   0.58626388   -3.6826756    2494.3733  0.049385707  0.048308547           25 
 4210000   0.58595324   -3.6747518     2490.804  0.049303326  0.048297392            4 
 4211000   0.57852144   -3.7049501    2496.7426  0.049409139   0.04828625           14 
 4212000   0.57882918   -3.7020723    2495.2771  0.049368413   0.04827502           11 
 4213000   0.57797436   -3.6896826    2497.0668  0.049392096  0.048263794           11 
 4214000   0.56959603   -3.7015511    2494.7953  0.049335456  0.048252521            6 
 4215000   0.56874751   -3.6969511    2503.2021  0.049489958  0.048241308            5 
 4216000   0.56119569    -3.678808    2500.8654  0.049432033  0.048230088            7 
 4217000   0.57717074   -3.6928164    2501.9249  0.049441247  0.048218879           11 
 4218000   0.57142313   -3.6907197    2496.8257  0.049328784  0.048207654            9 
 4219000   0.58414105   -3.7164365    2503.2476  0.049443937  0.048196511           10 
 4220000   0.57480278   -3.7133231    2495.1587  0.049272486  0.048185309           14 
 4221000   0.56593273   -3.7038514    2498.4149  0.049325098    0.0481741           10 
 4222000   0.57650397   -3.7089595    2500.8254  0.049360994  0.048162961            8 
 4223000   0.57346175   -3.6846883    2498.9003  0.049311317  0.048151738            9 
 4224000   0.58391733   -3.6852012     2496.878  0.049259745   0.04814051           11 
 4225000   0.57499753    -3.669908    2499.8292  0.049306296  0.048129324            8 
 4226000   0.56172839   -3.7054681    2496.0363  0.049219836  0.048118143            9 
 4227000   0.56864163   -3.7139922    2504.1888  0.049368914  0.048106937           15 
 4228000   0.57138417    -3.731967    2495.8702  0.049193279  0.048095681           24 
 4229000    0.5665976   -3.7150497    2492.3041  0.049111376  0.048084372            5 
 4230000   0.57275274   -3.6885192    2498.8198  0.049228128  0.048073152            7 
 4231000   0.57803811   -3.7215878    2494.5225  0.049131855  0.048061948            7 
 4232000    0.5768984   -3.7071808    2496.2186  0.049153644  0.048050639            9 
 4233000   0.58564359   -3.7018323    2500.7956  0.049232136  0.048039416           12 
 4234000   0.57277021   -3.7040247    2500.3746  0.049212223  0.048028206           12 
 4235000   0.57791278   -3.6984199    2497.3793  0.049141662  0.048016962            4 
 4236000   0.56695406   -3.6634997    2499.8361  0.049178393   0.04800575            8 
 4237000   0.58017804   -3.7012886     2497.245  0.049115825   0.04799459            9 
 4238000   0.57154026   -3.7051291    2493.1213   0.04902315  0.047983427            8 
 4239000   0.56528047   -3.6873698     2500.456  0.049155776  0.047972272           10 
 4240000   0.56934891   -3.6864348    2497.8098  0.049092174  0.047961095           19 
 4241000   0.57300969   -3.7034768    2496.0625  0.049046265  0.047949909           16 
 4242000   0.56949987   -3.6876233    2499.8965  0.049110021  0.047938715           13 
 4243000   0.56006618   -3.6885963    2507.2125  0.049242134  0.047927606            7 
 4244000    0.5747658   -3.7111296    2496.1638  0.049013584   0.04791647            9 
 4245000   0.57027702   -3.7055008    2500.7478  0.049092027  0.047905291            8 
 4246000   0.57763004   -3.7145679    2500.9316  0.049084071  0.047894081           10 
 4247000   0.56968669    -3.721215    2499.0912  0.049036403  0.047882902            7 
 4248000   0.56825301   -3.6987352    2503.6397  0.049114088  0.047871739            6 
 4249000   0.56734413   -3.7037122    2499.0778  0.049013059  0.047860581           15 
 4250000   0.56797774   -3.6953881    2503.1573  0.049081516  0.047849421           10 
 4251000   0.57479648   -3.7000613    2502.6125   0.04905929  0.047838322            5 
 4252000   0.57365263   -3.7006641     2501.342  0.049022852   0.04782719            7 
 4253000   0.58064385   -3.7074755    2497.3549  0.048933203  0.047816034           10 
 4254000    0.5732077   -3.7220934    2497.2206  0.048919069   0.04780483            8 
 4255000   0.56404786   -3.7031396    2498.5838   0.04893427  0.047793736            5 
 4256000   0.56142845   -3.6959557    2494.8914  0.048850474  0.047782647            6 
 4257000   0.57211154   -3.7021685    2504.6734  0.049030487  0.047771483            8 
 4258000   0.57278054   -3.7129746    2502.9347  0.048984943  0.047760261            7 
 4259000   0.56135692   -3.6882644    2505.9742  0.049032915  0.047749157            9 
 4260000   0.56968863    -3.710082    2498.5037  0.048875268   0.04773803            9 
 4261000   0.56749562   -3.7147606    2503.6946  0.048965317  0.047726855            6 
 4262000   0.56781367   -3.7133124    2501.6537  0.048913923  0.047715656           16 
 4263000   0.56691219   -3.7103759    2502.1291  0.048911742  0.047704477            7 
 4264000    0.5805874   -3.7185975    2498.1533  0.048822571  0.047693298           17 
 4265000    0.5724865   -3.7157013    2496.4638  0.048778112    0.0476821            7 
 4266000   0.58787549   -3.7155642    2498.0132  0.048796945  0.047670953            7 
 4267000   0.56938621   -3.7045063    2495.0717  0.048728063  0.047659761           12 
 4268000   0.55799034   -3.7151893    2496.2732  0.048740105  0.047648527           11 
 4269000   0.56531904   -3.7294157    2497.2733   0.04874821  0.047637298            8 
 4270000   0.56849665   -3.7177077    2501.1308  0.048812076  0.047626132           10 
 4271000   0.55959619   -3.7216039    2505.5744  0.048887349  0.047614932           28 
 4272000   0.55989971   -3.7116504    2499.3045  0.048753598  0.047603728           11 
 4273000   0.57365906   -3.7264762    2496.1631  0.048680925  0.047592516            7 
 4274000   0.57806557   -3.7157559    2503.4647  0.048811899  0.047581335            9 
 4275000   0.56627953   -3.6993231    2497.7156  0.048688414  0.047570202            7 
 4276000   0.56994413    -3.703206    2498.9063  0.048700233  0.047559011            6 
 4277000   0.56360715     -3.70141     2500.446  0.048718845  0.047547866           16 
 4278000    0.5672354   -3.7036624    2501.4159   0.04872635  0.047536736            7 
 4279000   0.58195506   -3.7294194    2499.0839  0.048669547  0.047525666           33 
 4280000    0.5716298   -3.7080153    2507.9618  0.048831031  0.047514553           11 
 4281000   0.56259321   -3.7085464    2506.6407  0.048793909  0.047503424           13 
 4282000   0.55991423    -3.701605    2497.6743  0.048608017  0.047492276            5 
 4283000   0.56253168   -3.7110226     2495.921  0.048562554  0.047481116           27 
 4284000   0.56203771   -3.7273227     2490.801  0.048451622  0.047469931            5 
 4285000   0.57289198   -3.7057936    2499.7753  0.048614845  0.047458704            6 
 4286000   0.56036703   -3.7182246    2499.6673  0.048601401  0.047447529            5 
 4287000   0.57395516   -3.6936746    2498.4231  0.048565879   0.04743638           17 
 4288000   0.57165225   -3.7144957    2497.9334  0.048545037  0.047425241            6 
 4289000      0.55136   -3.7314772    2497.5213  0.048525711  0.047414044           22 
 4290000   0.57121288    -3.705356    2502.1451  0.048604218  0.047402866           19 
 4291000   0.57779379   -3.7117077    2497.3791  0.048500332  0.047391724           11 
 4292000   0.57427295   -3.7233259    2498.9911  0.048520331  0.047380558            9 
 4293000    0.5603131   -3.7123216    2502.9566  0.048586005  0.047369461           10 
 4294000   0.56725142   -3.7235426    2506.9208  0.048651623  0.047358377            9 
 4295000   0.57364838   -3.7157102    2501.9199  0.048543266  0.047347272           11 
 4296000   0.57354311   -3.7207666    2504.2848  0.048577841  0.047336174            8 
 4297000   0.56398185   -3.7211785      2500.59  0.048494881  0.047325009           12 
 4298000   0.56863498   -3.7209766    2497.9254  0.048431933  0.047313859            6 
 4299000   0.57098203   -3.7190197    2501.6339  0.048492555  0.047302667           14 
 4300000   0.55858889   -3.7364373    2502.5918  0.048499841  0.047291522            5 
 4301000    0.5572962   -3.7393506    2500.8502   0.04845482  0.047280354            8 
 4302000   0.56330819   -3.7434345    2503.2117  0.048489301  0.047269229            8 
 4303000   0.56551658    -3.727225    2502.4368  0.048463026  0.047258092           13 
 4304000    0.5492955   -3.7292714    2497.7582   0.04836118  0.047246975            7 
 4305000     0.565244   -3.7174436    2504.2529  0.048475666  0.047235932           16 
 4306000   0.56672282   -3.7162152    2504.2773  0.048464881  0.047224869            9 
 4307000   0.55875773   -3.7261455    2503.3534  0.048435752  0.047213832           12 
 4308000   0.56021736   -3.7002785    2508.6327   0.04852663  0.047202819            5 
 4309000   0.56931014   -3.7387067    2504.9236  0.048443638  0.047191793           10 
 4310000   0.54865929    -3.719661    2502.0064  0.048375993  0.047180787            9 
 4311000   0.56716387   -3.7317737    2509.0682  0.048501279  0.047169741           12 
 4312000    0.5803616    -3.715787    2513.0704  0.048567378  0.047158736            5 
 4313000   0.56252191   -3.7231547     2504.753  0.048395414  0.047147699            5 
 4314000   0.54535297   -3.7400179    2511.2051  0.048508831  0.047136688            6 
 4315000   0.55656558   -3.7266667    2504.0068   0.04835857  0.047125733           17 
 4316000   0.57048807   -3.7245176    2513.8839  0.048538074  0.047114706           10 
 4317000   0.55921829   -3.7328766    2505.5853  0.048366638  0.047103653            9 
 4318000   0.56907822   -3.7393424    2507.9594  0.048401255  0.047092682            7 
 4319000   0.57064916   -3.7244855    2504.6838  0.048326847  0.047081725           10 
 4320000   0.56933434   -3.7308424     2499.153  0.048208971  0.047070735           17 
 4321000   0.56424546   -3.7194914    2499.7613  0.048209545  0.047059677           15 
 4322000   0.54812683   -3.7288252    2499.1822  0.048187225  0.047048604            7 
 4323000   0.56754633   -3.7298276    2493.2063  0.048060881   0.04703753           11 
 4324000   0.55839743   -3.7155175    2506.1713  0.048299631  0.047026473           14 
 4325000   0.56689819   -3.7400591    2505.1483  0.048268754  0.047015436           10 
 4326000    0.5590361   -3.7381015     2509.445  0.048340364  0.047004388           14 
 4327000   0.55852801   -3.7375471    2495.1481   0.04805385  0.046993278           28 
 4328000   0.56459841   -3.7444715    2505.1034  0.048234431  0.046982173            9 
 4329000   0.56062574   -3.7213496    2497.6752  0.048080296  0.046971117            9 
 4330000   0.56150348    -3.721407    2497.8678  0.048072898  0.046960026            7 
 4331000   0.56947838    -3.731344    2500.2877  0.048108361  0.046948971           13 
 4332000   0.56366768   -3.7346661    2503.7228  0.048163334  0.046937931            9 
 4333000   0.54896015   -3.7291282    2503.4169  0.048146336   0.04692687           14 
 4334000   0.55693068   -3.7353724    2499.3954  0.048057903  0.046915824           23 
 4335000   0.56703205   -3.7420914     2497.329  0.048007094  0.046904659            7 
 4336000   0.56061754   -3.7250465    2496.2365  0.047975026  0.046893598           14 
 4337000   0.55491059   -3.7319044    2502.4199  0.048082775  0.046882567           10 
 4338000   0.56356097   -3.7428952    2503.1724  0.048086146  0.046871521            8 
 4339000   0.56401031   -3.7171202    2507.4432  0.048157086  0.046860524           14 
 4340000   0.56344381   -3.7266328    2510.0456  0.048195961  0.046849576            8 
 4341000   0.56713176    -3.746015    2504.8209  0.048084561  0.046838627           11 
 4342000   0.54067444   -3.7614845    2498.3727  0.047949729  0.046827563            6 
 4343000    0.5665778   -3.7439675     2498.441  0.047939998  0.046816501            7 
 4344000   0.55283125   -3.7526127     2502.546  0.048007711  0.046805439           13 
 4345000   0.54760085   -3.7460741    2500.5691  0.047958747  0.046794331           15 
 4346000   0.55375895   -3.7662605    2504.9516  0.048031746  0.046783243           14 
 4347000    0.5620892   -3.7418984    2502.4589   0.04797291  0.046772141           30 
 4348000   0.55989896   -3.7383192    2504.5846  0.048002618  0.046761107           10 
 4349000   0.55514813   -3.7384481    2501.8979  0.047940099  0.046750004           11 
 4350000   0.55526331   -3.7323168    2505.1543  0.047991461  0.046738922           24 
 4351000   0.54942241    -3.765534    2498.8165  0.047859046  0.046727827            9 
 4352000   0.54608866   -3.7444405    2506.0599  0.047986748  0.046716712           10 
 4353000   0.55380308   -3.7333009    2499.1088  0.047842652  0.046705643           16 
 4354000   0.56168639    -3.742035     2496.865  0.047788719  0.046694584            8 
 4355000   0.55588244   -3.7224255    2509.8266  0.048025766  0.046683535           11 
 4356000   0.55688608   -3.7462515    2509.8648  0.048015472  0.046672557            7 
 4357000    0.5446894   -3.7267471    2502.2108   0.04785806   0.04666154            8 
 4358000   0.55518212   -3.7392608    2507.7361  0.047952733  0.046650503            8 
 4359000   0.54262516    -3.742334    2504.9439  0.047888352  0.046639443            6 
 4360000   0.54708737   -3.7216395    2503.5263  0.047850273  0.046628436           13 
 4361000   0.54513795   -3.7256212    2507.3787  0.047912915  0.046617422            8 
 4362000   0.56303757    -3.733736    2505.9457  0.047874554  0.046606457           14 
 4363000    0.5505173   -3.7355132    2501.1488  0.047771961  0.046595409           13 
 4364000   0.54068667   -3.7513564    2498.2363  0.047705399  0.046584301           10 
 4365000   0.54418494   -3.7502167     2507.683  0.047874819  0.046573213           21 
 4366000   0.53793184   -3.7438303    2507.7577   0.04786528  0.046562164           12 
 4367000   0.55406204   -3.7421762    2503.9551  0.047781754   0.04655114           25 
 4368000   0.54833616   -3.7397653    2508.1961  0.047851726  0.046540029           10 
 4369000   0.56221813   -3.7434296    2506.2819  0.047804262  0.046528973           10 
 4370000   0.55103633   -3.7396166    2502.0816  0.047713226  0.046517931            7 
 4371000   0.55379246   -3.7223272      2502.05  0.047701709  0.046506863            7 
 4372000   0.55451588   -3.7570943    2498.2887  0.047619104  0.046495795            9 
 4373000   0.56525158    -3.727346    2500.7319  0.047654774  0.046484706           20 
 4374000   0.54877993   -3.7399764    2507.9362  0.047781135  0.046473724            8 
 4375000   0.55396549   -3.7466669    2496.8757  0.047559537  0.046462653            8 
 4376000   0.54312229   -3.7428171    2509.0687  0.047780864  0.046451614           14 
 4377000   0.55411929   -3.7342628    2503.4047  0.047662111  0.046440594           15 
 4378000   0.55275669   -3.7283467    2503.7594  0.047657976  0.046429544           19 
 4379000   0.54928508    -3.753935    2504.7946  0.047666793  0.046418499           11 
 4380000   0.55768582   -3.7356579    2500.6259  0.047576596  0.046407392           14 
 4381000   0.53523692   -3.7702566    2500.1572  0.047556821  0.046396324           14 
 4382000   0.54313234   -3.7614506    2501.9309  0.047579699  0.046385193           19 
 4383000   0.54856593   -3.7390648    2510.5658  0.047733019  0.046374171           16 
 4384000   0.54836777   -3.7304259    2504.8413  0.047613316  0.046363167            8 
 4385000   0.54165908   -3.7377868    2509.5891  0.047692686   0.04635215           20 
 4386000   0.55572101   -3.7481885    2507.3299  0.047638887  0.046341094           21 
 4387000   0.53743587   -3.7529299    2500.0677  0.047490079  0.046329988            7 
 4388000   0.55822849   -3.7499868    2504.9282  0.047571563  0.046318911           16 
 4389000   0.54360294   -3.7422038     2503.264  0.047529126  0.046307848            5 
 4390000   0.53829929   -3.7537895    2496.0055  0.047380515  0.046296787           10 
 4391000    0.5555986   -3.7356738    2503.0568  0.047503544  0.046285745           14 
 4392000   0.55418205   -3.7612753    2497.8763  0.047394435  0.046274662            7 
 4393000   0.54521847   -3.7633204    2501.8164  0.047458388   0.04626358           15 
 4394000   0.53133075   -3.7645675     2495.372  0.047325369  0.046252415           10 
 4395000    0.5460072   -3.7429846    2492.5213  0.047260548   0.04624129           19 
 4396000   0.55335365   -3.7404497    2498.8854  0.047370439  0.046230199           16 
 4397000   0.55441033    -3.746792    2501.0645  0.047400964  0.046219177           12 
 4398000   0.55879196   -3.7385339    2501.8659  0.047405372  0.046208176           18 
 4399000      0.54188   -3.7369784    2504.4399  0.047443356   0.04619715            5 
 4400000    0.5551163   -3.7476741    2500.1694  0.047351693  0.046186138            9 
 4401000   0.55238735   -3.7524759    2499.6513  0.047331123  0.046175126           16 
 4402000   0.55031673   -3.7530003    2506.3352  0.047446903  0.046164089            8 
 4403000   0.54883272   -3.7538813    2507.7284  0.047462495  0.046153019           30 
 4404000   0.54622026   -3.7454345     2502.191  0.047346938  0.046141998           10 
 4405000   0.55156006   -3.7630133    2497.1139  0.047240142  0.046130946            7 
 4406000   0.53706078   -3.7585094    2500.4753  0.047292996  0.046119902            9 
 4407000   0.54082393   -3.7655534    2503.2745  0.047335195   0.04610887           31 
 4408000   0.54522645   -3.7619312    2508.7036  0.047427094   0.04609779           13 
 4409000   0.54048399   -3.7760639    2506.6742   0.04737798  0.046086761            8 
 4410000    0.5423349   -3.7745644    2497.6958  0.047197578  0.046075727           13 
 4411000   0.54568794   -3.7522438    2500.4694  0.047239276  0.046064746           16 
 4412000   0.53822965   -3.7514038    2504.3349  0.047301581  0.046053754           18 
 4413000    0.5598265   -3.7661077    2499.4076  0.047197818  0.046042729           10 
 4414000   0.53135986   -3.7500825    2505.8163  0.047308116  0.046031732            8 
 4415000   0.54126871   -3.7589962    2510.2084  0.047380302  0.046020706           15 
 4416000   0.54417093   -3.7579585    2502.2497  0.047219386  0.046009676            5 
 4417000   0.54805902   -3.7491473    2500.3176  0.047172244  0.045998628           11 
 4418000   0.54709169   -3.7508229    2506.7355  0.047282623  0.045987646           23 
 4419000   0.53795281   -3.7217316    2508.5638  0.047306401  0.045976722            7 
 4420000   0.55220425   -3.7731109    2507.7978  0.047281256  0.045965775           19 
 4421000   0.53909622   -3.7739953    2502.3507  0.047167886  0.045954792           10 
 4422000   0.53925825   -3.7803141    2506.3581   0.04723274  0.045943819           14 
 4423000   0.52829338   -3.7324588    2513.2294  0.047351522  0.045932884            8 
 4424000   0.53653546   -3.7436871    2508.7071  0.047255633   0.04592199           13 
 4425000   0.54865964   -3.7442006    2510.8865  0.047285999  0.045911085           57 
 4426000   0.54555105   -3.7511131    2504.3475  0.047152197  0.045900192            4 
 4427000   0.53578994   -3.7443676    2508.0745  0.047211702  0.045889298            7 
 4428000   0.53877706   -3.7674381    2506.0157  0.047162295  0.045878348           21 
 4429000   0.54114471   -3.7839083    2503.5644  0.047105524  0.045867422           16 
 4430000   0.54019247   -3.7670542    2502.9577  0.047083478  0.045856483           12 
 4431000   0.53506714   -3.7532075    2512.9677  0.047261108  0.045845558           14 
 4432000   0.54098637   -3.7629499    2502.1895  0.047047788  0.045834652            9 
 4433000    0.5522765   -3.7751515    2500.2627  0.047000952   0.04582371           13 
 4434000   0.54525787   -3.7859425     2493.753  0.046868008  0.045812692           11 
 4435000   0.53255381   -3.7818569    2504.2442   0.04705457  0.045801666           10 
 4436000   0.53311517   -3.7656717    2505.2519  0.047062893  0.045790688           49 
 4437000   0.54181558   -3.7642731    2506.6114   0.04707782  0.045779729           37 
 4438000   0.55168657   -3.7638025     2506.317  0.047061683  0.045768787           14 
 4439000   0.52569815   -3.7586091     2510.914  0.047137381  0.045757893           16 
 4440000   0.55387232   -3.7677242      2512.81   0.04716235  0.045746984           11 
 4441000   0.54282437   -3.7624447    2504.7291  0.047000095  0.045736114           25 
 4442000   0.53955601   -3.7667601    2510.9195  0.047105648  0.045725254           14 
 4443000   0.53393366   -3.7484302    2506.0085  0.047002934    0.0457144           14 
 4444000   0.56206721   -3.7840331    2501.5618  0.046908975  0.045703492           11 
 4445000   0.55318665   -3.7494507    2503.8786  0.046941856   0.04569258           14 
 4446000   0.55013643   -3.7507607    2515.4771  0.047148693  0.045681753            8 
 4447000   0.54575929   -3.7410167     2502.005  0.046885635  0.045670916           13 
 4448000   0.54236931   -3.7571483    2504.6046  0.046923797  0.045660046           10 
 4449000   0.53469094   -3.7723162    2508.9711  0.046995039  0.045649173           22 
 4450000   0.53473116   -3.7829224    2513.4399  0.047068163   0.04563826           11 
 4451000   0.52787737   -3.7828158    2503.2111  0.046866081  0.045627275           15 
 4452000     0.531811   -3.7480096    2505.0348  0.046889689  0.045616363           10 
 4453000   0.53990109   -3.7701652    2505.5985  0.046889709  0.045605445           21 
 4454000    0.5393437   -3.7734155     2504.431  0.046857338  0.045594535           23 
 4455000    0.5461037   -3.7813435    2508.4437  0.046921881  0.045583629            9 
 4456000   0.53989631   -3.7778491    2503.8519  0.046825477  0.045572766            5 
 4457000   0.54328906   -3.7618626    2503.9172  0.046816192  0.045561877           14 
 4458000   0.54849946   -3.7682929    2504.9858  0.046825665  0.045550996            6 
 4459000   0.54134529   -3.7563764    2505.5118  0.046824995  0.045540137            7 
 4460000   0.53554558   -3.7542974    2507.9301  0.046859681  0.045529301           25 
 4461000   0.54008666   -3.7619809    2510.8543  0.046903802  0.045518522           13 
 4462000   0.53318039   -3.7547436    2510.4373  0.046885501  0.045507695           16 
 4463000   0.53417158   -3.7668534    2507.8964  0.046827553  0.045496842           16 
 4464000   0.54754187   -3.7703009    2512.0455  0.046894517  0.045486007            7 
 4465000    0.5314265   -3.7694662    2511.8999  0.046881298  0.045475155            7 
 4466000    0.5296873   -3.7490127    2511.1611  0.046857014  0.045464285            9 
 4467000   0.54785104   -3.7479523      2511.08  0.046845012  0.045453447           24 
 4468000   0.52914948   -3.7689989    2502.4471  0.046673513  0.045442605           14 
 4469000   0.54021821   -3.7785055    2504.2887   0.04669741   0.04543171           10 
 4470000   0.53489809   -3.7789531    2504.8163  0.046696799  0.045420854           12 
 4471000   0.53677101   -3.7621429    2511.0723  0.046802959  0.045409968           21 
 4472000   0.54007589   -3.7730789    2510.1682  0.046775645  0.045399132           13 
 4473000   0.53081268   -3.7626027    2505.3988  0.046676332    0.0453883            9 
 4474000   0.53960107   -3.7707583    2504.2015  0.046643598  0.045377495            7 
 4475000   0.53449056   -3.7606895    2513.2128  0.046800983  0.045366721           10 
 4476000   0.54170845   -3.7905392    2505.5134  0.046647182  0.045355911            7 
 4477000   0.53032398   -3.7972498     2505.942  0.046644739  0.045345057           11 
 4478000   0.53832753   -3.7854417     2509.683  0.046703941   0.04533425           13 
 4479000   0.53719154   -3.7700371    2510.2402   0.04670388  0.045323465           15 
 4480000   0.53101584   -3.7549931    2513.6133  0.046756199  0.045312702           18 
 4481000   0.53216929   -3.7801982    2506.0729  0.046605537  0.045301951           12 
 4482000   0.54498798   -3.7571833    2508.2039   0.04663476  0.045291219            9 
 4483000   0.53118271   -3.7667408    2508.1774  0.046623864  0.045280486           29 
 4484000    0.5295143   -3.7624583    2510.7219  0.046660755  0.045269721            9 
 4485000   0.52689954   -3.7785832    2516.3607  0.046755122  0.045258952            8 
 4486000   0.52901409   -3.7895446    2513.3526   0.04668882  0.045248209           19 
 4487000   0.53938794   -3.7898745    2513.6673   0.04668426  0.045237404           18 
 4488000   0.53735527   -3.7682094    2509.0909  0.046588884  0.045226594           17 
 4489000   0.51788772   -3.7680129    2512.9594  0.046650319   0.04521585           10 
 4490000   0.53216313   -3.7768686    2511.2984  0.046609101  0.045205077           16 
 4491000   0.53433163   -3.7691995    2512.1645  0.046614794  0.045194322           11 
 4492000   0.52600279   -3.7761619    2505.4454  0.046479768  0.045183554            7 
 4493000   0.53558129   -3.7807074    2518.2741  0.046707362  0.045172818            8 
 4494000   0.52961262   -3.7955043    2513.0244  0.046599621  0.045162063           23 
 4495000   0.53250122   -3.7765335    2514.0261  0.046607826  0.045151311           21 
 4496000   0.52266978   -3.7844931    2513.8405  0.046594018  0.045140563           11 
 4497000   0.52916333    -3.787028    2515.4509  0.046613499  0.045129803           12 
 4498000   0.52558878   -3.7818569    2512.9344  0.046556514  0.045119084            9 
 4499000   0.52305089   -3.7768075    2511.7389  0.046524021  0.045108406           20 
 4500000   0.52818147   -3.7872753    2516.1259  0.046594924  0.045097722           18 
 4501000   0.54788859   -3.7798625     2514.266  0.046550137   0.04508699           18 
 4502000   0.52950057   -3.7690003    2513.2798  0.046521542  0.045076268           10 
 4503000   0.53253931   -3.7746323    2506.3117  0.046382259  0.045065564            6 
 4504000   0.54148846   -3.7666992    2516.7028  0.046564217  0.045054871           20 
 4505000   0.53825186   -3.7649845    2511.3572  0.046454998  0.045044188            9 
 4506000   0.52312227   -3.7702935    2513.5931  0.046486039  0.045033527           30 
 4507000   0.53566905    -3.775414    2513.2528  0.046469432  0.045022826           25 
 4508000   0.53786272   -3.7983887    2513.0603  0.046455566  0.045012117           19 
 4509000    0.5330557   -3.7983722     2515.366  0.046487876  0.045001397           19 
 4510000   0.54261556   -3.7887801    2508.8179  0.046356575  0.044990628           11 
 4511000   0.53903337   -3.7890266    2511.0467  0.046387473  0.044979921           16 
 4512000   0.51962374   -3.7760314    2505.2741  0.046270577  0.044969213            7 
 4513000   0.51884719    -3.775655    2513.0637   0.04640416  0.044958508           16 
 4514000   0.52060132   -3.7686633    2518.5242  0.046494687  0.044947793           17 
 4515000   0.51902751   -3.7960426     2515.195  0.046422942  0.044937136           22 
 4516000   0.53384779   -3.7855826    2510.6256  0.046328343  0.044926439           13 
 4517000   0.53867931   -3.7842872    2513.1831  0.046365269  0.044915733            7 
 4518000   0.53182376   -3.7801455    2517.4654  0.046433993  0.044905074           12 
 4519000   0.53288725   -3.7885631    2518.0531  0.046434556  0.044894429           20 
 4520000   0.51587582   -3.7767641    2516.3333  0.046392576  0.044883756           10 
 4521000     0.537511   -3.7747129    2515.8692  0.046373759  0.044873068           12 
 4522000   0.52135482   -3.7942659    2507.9515  0.046217593  0.044862391           12 
 4523000   0.54859567   -3.7883249    2511.0268  0.046264036  0.044851684           20 
 4524000   0.52478489   -3.7984756    2510.8297  0.046250178  0.044840966           18 
 4525000   0.53281595   -3.7764736    2513.4559  0.046288323  0.044830274           18 
 4526000   0.53044228   -3.7740471    2509.2496  0.046200649  0.044819602           14 
 4527000   0.52720446   -3.7789112    2514.9545  0.046295458  0.044808968           15 
 4528000   0.51927598   -3.7749273    2514.1073  0.046269643  0.044798374           18 
 4529000   0.52725999   -3.7878933     2511.646  0.046214139  0.044787785           12 
 4530000   0.53342659   -3.7957801    2512.0782  0.046211888   0.04477717           19 
 4531000   0.52057175   -3.7792877    2518.4571  0.046319009   0.04476653           24 
 4532000   0.51858642   -3.7730868    2514.7009   0.04623972  0.044755892           23 
 4533000   0.52654763   -3.7796395    2515.7179  0.046248216  0.044745254           13 
 4534000   0.51577869   -3.7757501    2519.7929  0.046312912  0.044734636           13 
 4535000   0.53344039   -3.7899951    2510.6788  0.046135223  0.044723973           15 
 4536000   0.52221635   -3.7911013    2513.4194    0.0461754  0.044713339           17 
 4537000   0.52314249   -3.7914917    2514.7008  0.046188759  0.044702695           13 
 4538000   0.52962389   -3.7812927    2514.2407  0.046170132  0.044692036           19 
 4539000   0.52797976   -3.7979747    2505.1199  0.045992508  0.044681378            7 
 4540000   0.52576231    -3.803068    2513.3118  0.046132743  0.044670748           14 
 4541000   0.52428147   -3.7818267    2517.6304  0.046201834  0.044660082           22 
 4542000   0.51441223   -3.7790919    2516.2715  0.046166731  0.044649424            8 
 4543000   0.52153662    -3.804524    2508.1905  0.046008337  0.044638777            9 
 4544000    0.5268834   -3.7751976    2507.3645  0.045983063  0.044628162           31 
 4545000   0.51658366   -3.7928615    2514.9646  0.046112296  0.044617555           16 
 4546000   0.53452959   -3.8043194    2509.4161  0.046000442  0.044606865           17 
 4547000   0.52446876   -3.8198693     2507.304  0.045951616  0.044596189           11 
 4548000   0.52551128   -3.8170564    2510.8732  0.046006912  0.044585458           13 
 4549000   0.52879019    -3.785688    2515.5834  0.046083085  0.044574773           19 
 4550000   0.52193816   -3.7912432    2517.3932  0.046106103  0.044564119            7 
 4551000   0.52804091   -3.7934371    2510.0918  0.045962275  0.044553417            8 
 4552000   0.52575384   -3.8011422     2511.434   0.04597675  0.044542765           15 
 4553000   0.52367291   -3.7967617    2511.0519  0.045959659  0.044532092           11 
 4554000   0.50954389   -3.7758547    2515.5289   0.04603149  0.044521459           28 
 4555000   0.51511097   -3.7971636    2517.3216  0.046054181  0.044510846           15 
 4556000   0.52573578   -3.8192291    2511.5558  0.045938612  0.044500222           25 
 4557000   0.52235741   -3.7987292     2520.094  0.046084669  0.044489575           28 
 4558000   0.51325711   -3.7890081    2519.0699  0.046055835  0.044478926            9 
 4559000   0.52237809   -3.8018785    2511.2417   0.04590264  0.044468262           23 
 4560000   0.50457442   -3.7873584    2513.6597  0.045936764  0.044457623           20 
 4561000   0.51830155   -3.7933857    2516.1361  0.045971938  0.044446993           21 
 4562000   0.51943484   -3.7981784    2508.2698  0.045818169  0.044436329           21 
 4563000   0.52948024   -3.7929792    2512.0475  0.045877118  0.044425649           19 
 4564000   0.51652655   -3.7762584     2512.831  0.045881372  0.044415014           20 
 4565000   0.51420745   -3.8101068    2508.2072  0.045786915  0.044404347           24 
 4566000   0.51580659   -3.7965007    2510.3928  0.045816776  0.044393713            7 
 4567000   0.52847912   -3.8060951    2514.3519  0.045878986   0.04438303            7 
 4568000    0.5318913   -3.8231574    2515.3816  0.045887726  0.044372355            7 
 4569000    0.5218322   -3.8062868    2512.6934  0.045828653  0.044361689            5 
 4570000   0.51121106   -3.8062191    2516.4638  0.045887377  0.044351015            9 
 4571000   0.50665991    -3.792847    2515.5048  0.045859855  0.044340389            8 
 4572000   0.53106175   -3.7998532    2515.0905  0.045842273  0.044329752           12 
 4573000   0.51249054   -3.7991948    2508.3536  0.045709482  0.044319128           37 
 4574000   0.51582918   -3.8035566    2508.9068  0.045709568  0.044308503           13 
 4575000   0.51271011   -3.8091745     2510.559  0.045729672  0.044297859            9 
 4576000   0.51092856   -3.8119687    2512.0727  0.045747244  0.044287175           26 
 4577000   0.52760306   -3.8051464    2511.9698  0.045735376  0.044276512           20 
 4578000   0.51060987   -3.8000732    2519.3412  0.045859568  0.044265863           10 
 4579000   0.50943563   -3.7941539    2514.1316  0.045754742  0.044255247           10 
 4580000   0.53001345   -3.7817709    2511.2071  0.045691541  0.044244648           10 
 4581000    0.5189218   -3.7986567    2514.1865  0.045735766  0.044234084           17 
 4582000   0.52454817   -3.8056012    2519.9333  0.045830301  0.044223551           35 
 4583000   0.51354648   -3.7863428    2515.8835  0.045746664  0.044212923            9 
 4584000   0.52317332   -3.8165529    2511.8636  0.045663606  0.044202308           10 
 4585000   0.51741276   -3.7875226    2519.4804  0.045792083  0.044191666           15 
 4586000   0.51238104   -3.8087972    2512.2561  0.045650824  0.044181093            9 
 4587000   0.51902224   -3.8247345    2509.2194  0.045585703  0.044170473           11 
 4588000   0.52113216   -3.8108065    2508.5789  0.045564132   0.04415982           30 
 4589000   0.52294981   -3.8058859    2506.9954  0.045525449  0.044149182           15 
 4590000   0.52350682   -3.7930304    2509.0618  0.045553046  0.044138535            9 
 4591000    0.5076982   -3.8019813     2512.957  0.045613827  0.044127871           16 
 4592000   0.50967415   -3.8272009    2517.5442   0.04568714   0.04411722           27 
 4593000   0.51865471   -3.7972627    2509.6014  0.045533083  0.044106594           16 
 4594000   0.51480803   -3.8016382    2508.6557  0.045506017  0.044095978           12 
 4595000   0.51474343   -3.8001442    2505.4902  0.045438704  0.044085334           15 
 4596000   0.50846681   -3.8251077    2506.4569  0.045446346  0.044074628           16 
 4597000   0.51829378   -3.8256566    2512.5796  0.045547451  0.044063937           15 
 4598000   0.51451665   -3.8178512    2512.4139  0.045534542   0.04405326           33 
 4599000   0.51166194   -3.8081071     2511.084  0.045500544  0.044042651           13 
 4600000   0.52349738   -3.8021998    2514.0268  0.045543964  0.044032063           11 
 4601000   0.52475273   -3.8006839     2515.039  0.045552398  0.044021485            9 
 4602000   0.52317775   -3.7968701    2518.3434  0.045602336  0.044010896           16 
 4603000   0.52558513    -3.812442    2512.7773   0.04549166   0.04400029            6 
 4604000      0.50993   -3.8216386    2508.7517  0.045408915  0.043989682           10 
 4605000   0.51349719   -3.8163358    2520.1043  0.045604494  0.043979068            9 
 4606000   0.52079186   -3.8070218    2510.9445   0.04542887  0.043968453           20 
 4607000   0.51760553   -3.8215129    2500.7612  0.045234809  0.043957816           18 
 4608000    0.5057669   -3.8182808    2511.6557  0.045422013  0.043947174           14 
 4609000   0.51996238   -3.8122473    2510.3481  0.045388516   0.04393655           16 
 4610000   0.52087432   -3.8170665    2508.8756  0.045352053  0.043925932           11 
 4611000   0.51466444   -3.8212912    2504.4389  0.045262035  0.043915313           13 
 4612000    0.5111256   -3.8109352    2512.3727  0.045395574  0.043904714           15 
 4613000   0.51630233   -3.8151737    2518.6286  0.045498747  0.043894155           10 
 4614000   0.51068851   -3.8134908    2515.0702  0.045424618  0.043883603           12 
 4615000   0.51531662   -3.7932762    2511.5083  0.045350457   0.04387305            9 
 4616000   0.51273411   -3.8051218    2511.1897   0.04533488  0.043862514           10 
 4617000   0.51268975   -3.7918451    2517.9831  0.045447677  0.043851999           23 
 4618000   0.50803675   -3.7938729    2511.3708  0.045318515  0.043841502           31 
 4619000   0.50797662   -3.8296633    2516.2444   0.04539663  0.043830919           26 
 4620000   0.50981059   -3.8140524     2514.972  0.045363853  0.043820365           18 
 4621000   0.50887542   -3.8316944    2513.9935  0.045336391  0.043809782           33 
 4622000   0.52078126   -3.8136092    2514.0991  0.045328485  0.043799217           21 
 4623000   0.50804626   -3.8065046    2503.3368  0.045124681  0.043788643           28 
 4624000    0.5059049   -3.8167009    2508.9547  0.045216168  0.043778054           21 
 4625000   0.51584159   -3.8139021    2512.4388  0.045269168  0.043767483           12 
 4626000   0.51724666   -3.8195416    2511.0066  0.045233582  0.043756916           12 
 4627000      0.51942   -3.8330553    2514.3725  0.045284426  0.043746341           10 
 4628000   0.51968159   -3.8115461    2513.6531  0.045261688  0.043735743           11 
 4629000   0.51800648   -3.8127465    2512.3602  0.045228635  0.043725189           27 
 4630000   0.50581733   -3.8017947    2507.0615  0.045123498   0.04371466           19 
 4631000   0.51190743   -3.8214016    2511.6759  0.045196788  0.043704144           23 
 4632000   0.50628778   -3.8160746    2509.0581  0.045139935  0.043693582           11 
 4633000   0.51554822   -3.8248376     2507.512  0.045102382  0.043683009           17 
 4634000   0.51012183   -3.8175714    2511.3713  0.045162051  0.043672431           18 
 4635000   0.50370997   -3.8236983    2509.6272   0.04512095  0.043661852           33 
 4636000   0.51235863   -3.8075861    2506.9114    0.0450624  0.043651276           26 
 4637000   0.50494758   -3.8364995    2507.4457  0.045062283  0.043640727           16 
 4638000   0.50752498    -3.826921    2512.4708  0.045142855  0.043630154           15 
 4639000   0.50985215   -3.8095825    2514.6562  0.045172382  0.043619593           19 
 4640000   0.51323533   -3.8101943    2514.3545  0.045157229  0.043609081           14 
 4641000    0.5035085   -3.8372568    2511.1352  0.045089693  0.043598539           22 
 4642000   0.50970152   -3.8142322    2509.4137  0.045049075  0.043588021           34 
 4643000   0.51931982   -3.8302533    2507.2703  0.045000903  0.043577476           28 
 4644000   0.50877635   -3.8512699    2505.0783   0.04495188  0.043566884           11 
 4645000   0.51104959   -3.8279486    2512.8757  0.045082089  0.043556274           14 
 4646000   0.51431314   -3.8047641    2510.3893  0.045027788  0.043545721           17 
 4647000   0.49956004   -3.8337599    2513.2318  0.045069074  0.043535111           11 
 4648000   0.50976155   -3.8220746    2508.8654  0.044981093  0.043524507           15 
 4649000   0.50398683   -3.8360435    2511.1654  0.045012644  0.043513939           11 
 4650000   0.50542189   -3.8050425    2511.8463  0.045015167  0.043503396           12 
 4651000   0.50264113   -3.8375507    2507.2678  0.044923454  0.043492859           22 
 4652000   0.51097277   -3.8145105    2516.1998    0.0450738  0.043482338           18 
 4653000   0.50867006   -3.8435551    2504.8602  0.044861025  0.043471765           16 
 4654000   0.51502722   -3.8322571    2512.5238  0.044988609   0.04346122           19 
 4655000   0.49496439   -3.8198878    2510.9287  0.044950388  0.043450696           21 
 4656000   0.50861172   -3.8164181     2509.601  0.044916972  0.043440179           42 
 4657000   0.51397063   -3.8367818     2510.239  0.044918742  0.043429675           10 
 4658000   0.51217534   -3.8233951    2514.4071  0.044983668  0.043419184           18 
 4659000   0.49665679   -3.8337477    2514.5359  0.044976316  0.043408686           19 
 4660000   0.50531872   -3.8112115    2515.1208  0.044977125  0.043398188           36 
 4661000   0.51375693   -3.8307855    2514.7151  0.044960221  0.043387704           17 
 4662000   0.50133778   -3.8247856    2511.0279  0.044884668  0.043377188           10 
 4663000   0.51858001   -3.8288732    2511.9704  0.044891886  0.043366687           17 
 4664000   0.51914659   -3.8271206    2510.9376  0.044863807   0.04335621           13 
 4665000   0.50692131   -3.8255227    2508.7472  0.044815062  0.043345707           66 
 4666000   0.51183632   -3.8276745    2519.7382  0.045001753  0.043335219           18 
 4667000   0.50867878   -3.8401296    2511.8276   0.04485086  0.043324749           35 
 4668000    0.5038208   -3.8383602    2511.4474  0.044834466  0.043314293           13 
 4669000   0.51168827   -3.8263115    2512.0197  0.044835077  0.043303796           41 
 4670000   0.50753388   -3.8448424    2516.0123  0.044896722  0.043293273           33 
 4671000   0.51098164   -3.8346454    2514.7821  0.044865162  0.043282738           33 
 4672000   0.49860654   -3.8313769    2512.9661  0.044823167  0.043272216           45 
 4673000   0.50339711   -3.8308726    2510.8344  0.044775561  0.043261699           16 
 4674000   0.50634622   -3.8261699    2519.1667  0.044914539  0.043251191           14 
 4675000   0.50018828   -3.8350699    2516.9449  0.044865327  0.043240708           14 
 4676000   0.49148586   -3.8293663    2515.8271  0.044835813  0.043230229           17 
 4677000   0.50332798   -3.8288118    2515.1959  0.044814979  0.043219779           11 
 4678000   0.50944095   -3.8198825    2512.4532   0.04475654  0.043209324           20 
 4679000   0.50945038    -3.834988     2517.084   0.04482945  0.043198832           11 
 4680000   0.50463515   -3.8298867    2512.4145  0.044736726  0.043188339           14 
 4681000   0.50863891   -3.8443282      2519.76  0.044857936  0.043177922           18 
 4682000   0.49706978   -3.8246432    2516.5946  0.044792016  0.043167415           17 
 4683000   0.50902664   -3.8189057    2513.1161  0.044720551  0.043156936           11 
 4684000   0.51270876   -3.8274855    2512.8517  0.044706299  0.043146474           20 
 4685000   0.51255452   -3.8097904    2515.5358  0.044744501  0.043136031           10 
 4686000   0.51608616   -3.8517305    2517.2072  0.044764675  0.043125601           12 
 4687000   0.50453235   -3.8353453    2518.0436  0.044769995  0.043115169           14 
 4688000   0.50370991   -3.8252731    2513.6332  0.044682046  0.043104716           24 
 4689000   0.50406334   -3.8330493    2510.7325  0.044620966  0.043094223           30 
 4690000   0.49342035   -3.8346058    2518.0831   0.04474206  0.043083766           14 
 4691000   0.50070589   -3.8450334    2511.4883  0.044615368  0.043073332           15 
 4692000   0.50971765   -3.8436974    2509.8609  0.044576955  0.043062863           16 
 4693000    0.5013414   -3.8483548    2511.9772  0.044605036  0.043052386           13 
 4694000   0.50513596   -3.8247018    2515.9892  0.044666759  0.043041946            7 
 4695000   0.51298928    -3.829541    2509.9115   0.04454937  0.043031506           11 
 4696000   0.48935045   -3.8424108    2512.1958  0.044580419   0.04302109           11 
 4697000   0.50104975   -3.8417498    2514.9421  0.044619653  0.043010659           15 
 4698000     0.501578    -3.823515    2510.5814  0.044532806  0.043000211           18 
 4699000   0.50238896   -3.8424744    2514.8103  0.044598324  0.042989775           15 
 4700000   0.50006683   -3.8489361    2517.6958  0.044639996   0.04297933           39 
 4701000   0.49190158   -3.8425767    2514.7971  0.044579116  0.042968833           49 
 4702000   0.50113002   -3.8250639    2517.3329  0.044614577  0.042958389           14 
 4703000   0.48537456   -3.8394362    2515.6473  0.044575223   0.04294794           13 
 4704000   0.49096195   -3.8200689    2514.0609  0.044537643  0.042937495           45 
 4705000   0.49360822   -3.8217785    2514.7488  0.044540362  0.042927107           11 
 4706000   0.49487067   -3.8440951    2509.9806  0.044446462  0.042916709           20 
 4707000   0.49122979   -3.8512289    2514.0975  0.044509905  0.042906321           41 
 4708000   0.49708401   -3.8296994    2511.8296  0.044460309   0.04289594           22 
 4709000   0.51001959   -3.8204965    2515.7816  0.044520804  0.042885533           24 
 4710000   0.50414761   -3.8380799    2509.5124  0.044400431  0.042875139           11 
 4711000     0.499144   -3.8399495    2515.8623  0.044503331  0.042864702           18 
 4712000   0.50489798   -3.8462163     2514.103  0.044462773  0.042854276           11 
 4713000    0.5008939   -3.8438352    2518.3307  0.044528091  0.042843914           14 
 4714000   0.48911357   -3.8476725    2514.0818  0.044443534  0.042833526           12 
 4715000   0.50400034   -3.8404584    2517.0537  0.044486632  0.042823137           16 
 4716000   0.50161769   -3.8417602    2509.9243   0.04435122  0.042812738           37 
 4717000   0.50220308   -3.8448984    2516.0974  0.044450877  0.042802348           13 
 4718000   0.49838779    -3.840269    2515.9012  0.044437989  0.042791949           20 
 4719000    0.4930354   -3.8389848    2512.6822  0.044371728  0.042781542           21 
 4720000    0.5023282   -3.8457613     2516.255  0.044425406  0.042771181            8 
 4721000   0.48802468   -3.8219668    2516.1694  0.044414484  0.042760808            6 
 4722000   0.49029787   -3.8499067    2510.7851  0.044310057  0.042750453            8 
 4723000   0.48816615   -3.8404421    2511.4188  0.044311857  0.042740121           12 
 4724000   0.50059416   -3.8486713    2513.2032  0.044333953  0.042729759           12 
 4725000   0.49069419   -3.8594913    2508.5794  0.044243023  0.042719422           17 
 4726000   0.50232031    -3.838665     2517.899  0.044397994  0.042709083           17 
 4727000   0.48104064   -3.8464559    2511.5867   0.04427732   0.04269874           19 
 4728000   0.50194579   -3.8448933    2515.0336  0.044328709  0.042688397           19 
 4729000   0.50166153   -3.8398871    2515.1722  0.044321777  0.042678065           12 
 4730000    0.4964606   -3.8406322    2515.6916  0.044321557   0.04266772           12 
 4731000   0.50350547   -3.8396072     2515.346  0.044306102  0.042657382           17 
 4732000   0.49527081   -3.8356076    2514.6631  0.044284712  0.042647066           11 
 4733000   0.50247181   -3.8355721    2517.6975  0.044328782  0.042636734           15 
 4734000   0.49579074   -3.8415074    2518.7996  0.044338818  0.042626436           17 
 4735000   0.49553016   -3.8366775    2514.4515  0.044252931  0.042616096            6 
 4736000   0.48448407   -3.8737949     2515.794  0.044267209  0.042605713           14 
 4737000   0.49103662   -3.8540166    2513.6995  0.044221018  0.042595385           11 
 4738000   0.50045428   -3.8539537    2511.3782  0.044170856  0.042585043           22 
 4739000   0.49596081   -3.8672798    2512.8455  0.044187338  0.042574696           16 
 4740000   0.49145589   -3.8430649     2512.793  0.044177093  0.042564355           17 
 4741000   0.49754036   -3.8463195    2513.1764  0.044174513  0.042554022           10 
 4742000   0.49192423   -3.8507109    2516.1092  0.044216736  0.042543661           14 
 4743000   0.48506024   -3.8520167    2518.7705  0.044254172  0.042533302           18 
 4744000   0.49065038   -3.8577888    2514.5112  0.044170025  0.042522957           18 
 4745000   0.48882492   -3.8412962    2512.7795  0.044130303  0.042512632           18 
 4746000   0.48409312   -3.8475659    2515.9786  0.044177177  0.042502313           20 
 4747000   0.48430774   -3.8404091    2511.6169  0.044091301  0.042492007           38 
 4748000   0.49430332   -3.8430943    2518.0731   0.04419533  0.042481686           15 
 4749000   0.48636578   -3.8594596    2510.8232  0.044058806  0.042471323           10 
 4750000   0.49482419   -3.8676415    2517.8069   0.04417205  0.042460996           15 
 4751000   0.49228218   -3.8543749    2515.2905  0.044118615  0.042450672           48 
 4752000   0.49440194   -3.8442427    2512.9497  0.044068281  0.042440356           15 
 4753000   0.49506956   -3.8485424    2511.6935  0.044036986  0.042430056           12 
 4754000   0.49434954   -3.8496829    2517.6482  0.044132103  0.042419739           26 
 4755000   0.49105045   -3.8450475    2513.1219  0.044043497  0.042409409           43 
 4756000   0.48637935   -3.8393594    2518.1827  0.044122909  0.042399086           14 
 4757000   0.50419843   -3.8520292    2514.7916  0.044054229  0.042388777           59 
 4758000   0.50164051   -3.8369234     2510.281  0.043965969  0.042378485           14 
 4759000   0.49985942   -3.8650832    2512.9973  0.044004296  0.042368149           20 
 4760000   0.50104491   -3.8671992    2513.6125  0.044005821  0.042357821           31 
 4761000   0.49661142   -3.8591602    2521.5239  0.044135055  0.042347476           40 
 4762000   0.49748241   -3.8439161     2522.017  0.044134414  0.042337185           27 
 4763000   0.49110823   -3.8640059    2510.2986  0.043920124  0.042326857           23 
 4764000   0.47412598   -3.8760279    2512.7215  0.043953286  0.042316492           43 
 4765000   0.49063162   -3.8662156    2510.0274  0.043896946  0.042306149           25 
 4766000   0.48522591   -3.8827366    2513.3792  0.043946342  0.042295814           21 
 4767000   0.49165008    -3.866615     2510.202  0.043881581   0.04228546           43 
 4768000   0.48310317   -3.8558038    2517.2481  0.043995527   0.04227516           39 
 4769000   0.48788252   -3.8674903    2506.8835  0.043805191  0.042264855           37 
 4770000    0.4952267   -3.8413792    2515.3386  0.043943721  0.042254558           22 
 4771000   0.49920389   -3.8577525    2516.6918  0.043958146  0.042244302           20 
 4772000   0.47849579   -3.8565404    2516.7526  0.043949997  0.042234053           21 
 4773000   0.47213983   -3.8580358    2515.9618  0.043926981  0.042223774           12 
 4774000   0.47915181    -3.838144     2512.547  0.043858173  0.042213484           35 
 4775000   0.48789528   -3.8569765    2513.0572  0.043857891  0.042203217           11 
 4776000   0.49001762   -3.8634148    2509.2489  0.043782261  0.042192946           19 
 4777000   0.49543239   -3.8587286    2513.8745  0.043853787  0.042182678           33 
 4778000    0.4911045   -3.8612781    2516.4353  0.043889272  0.042172438           11 
 4779000   0.49145896   -3.8500379    2519.3062  0.043930149  0.042162185           14 
 4780000   0.48685044   -3.8346514    2519.0648   0.04391675  0.042151995           14 
 4781000   0.48391777   -3.8505084    2514.1759   0.04382235  0.042141769           20 
 4782000   0.48424094    -3.853442    2507.7822  0.043701768   0.04213149           26 
 4783000   0.49139795    -3.846478    2513.8144  0.043797729  0.042121205           20 
 4784000   0.48353646   -3.8615802    2510.9053  0.043737899  0.042110933           15 
 4785000   0.49066415   -3.8608774     2513.948  0.043781749   0.04210061           25 
 4786000   0.49696815   -3.8701017    2508.4755  0.043677313  0.042090291           37 
 4787000    0.4953097   -3.8612245     2507.216  0.043646265  0.042080004           40 
 4788000    0.4849781   -3.8448594    2513.2107  0.043741484  0.042069714           16 
 4789000   0.48760687   -3.8652177    2513.4316  0.043736195  0.042059412           16 
 4790000   0.48977446   -3.8602289    2516.3168  0.043777259  0.042049152           24 
 4791000   0.48710462   -3.8844389     2509.775  0.043654335  0.042038842           28 
 4792000   0.49076327   -3.8736879    2509.5727  0.043641707  0.042028532           33 
 4793000   0.48587675   -3.8767108    2513.5548  0.043701836   0.04201823           15 
 4794000   0.48367552   -3.8736924    2510.8554  0.043645798  0.042007926           25 
 4795000   0.48698883   -3.8793196    2508.9181  0.043603026  0.041997566           23 
 4796000   0.49356338   -3.8814114    2513.0741  0.043666147  0.041987208           18 
 4797000   0.49151118   -3.8670489    2515.2689  0.043695173  0.041976886           18 
 4798000   0.49560898   -3.8787115    2504.1189  0.043492409  0.041966577           58 
 4799000   0.49214514   -3.8497087    2508.2233  0.043554617  0.041956259           35 
 4800000   0.48616035   -3.8771565    2513.5755  0.043638464   0.04194596           33 
 4801000   0.47011443   -3.8543201     2508.001  0.043532615  0.041935676           17 
 4802000   0.47826681    -3.873228    2511.0332   0.04357617  0.041925379           14 
 4803000   0.47539781   -3.8611073    2513.1719  0.043604204  0.041915067           24 
 4804000   0.48662232   -3.8729604    2508.8042  0.043519362  0.041904762           13 
 4805000   0.48760235   -3.8625343     2508.277  0.043501162  0.041894477           15 
 4806000   0.48888278   -3.8567328    2517.2554  0.043647791  0.041884196           21 
 4807000   0.47927247   -3.8740776    2512.8098  0.043561643  0.041873955           29 
 4808000   0.47421595   -3.8710935    2517.2282  0.043629164  0.041863668           59 
 4809000   0.48102234   -3.8678276    2510.2072  0.043498426   0.04185338           20 
 4810000    0.4863485   -3.8708993    2510.7336  0.043498502  0.041843115           46 
 4811000   0.47084898   -3.8890317    2513.8362  0.043543203  0.041832847           36 
 4812000   0.48425842   -3.8811894    2511.7584  0.043498171  0.041822607           19 
 4813000   0.49398591   -3.8675976    2513.3627  0.043516911  0.041812394           13 
 4814000   0.48523994   -3.8804899    2517.4596  0.043578791  0.041802157           26 
 4815000   0.47543541   -3.8725145    2514.1711  0.043512826  0.041791974           10 
 4816000   0.47279033   -3.8661705    2514.7774  0.043514282  0.041781775           19 
 4817000   0.47355486   -3.8928381    2511.9072  0.043455595  0.041771573           14 
 4818000   0.47872094   -3.8785544    2511.2708  0.043435568  0.041761324           31 
 4819000   0.47312921   -3.8950433    2508.8739  0.043385106  0.041751033           29 
 4820000   0.47193383   -3.8781835    2512.4335  0.043437647  0.041740759           28 
 4821000   0.48125884   -3.8761682    2509.7259  0.043381834  0.041730511           19 
 4822000   0.48521464   -3.8741348    2517.0243  0.043498968  0.041720297           31 
 4823000   0.48239109   -3.8636719    2516.9058  0.043487901  0.041710088           26 
 4824000   0.48246979   -3.8555782    2517.2863   0.04348546  0.041699864           17 
 4825000    0.4810945   -3.8594767    2510.8538  0.043365351  0.041689654           27 
 4826000   0.47947214   -3.8827338    2510.6464  0.043352783  0.041679418           13 
 4827000   0.47869618   -3.8724423    2505.5593  0.043255978  0.041669173           22 
 4828000   0.48017888    -3.870577    2510.5625  0.043333376  0.041658939           31 
 4829000   0.47453097   -3.8705318    2505.0022  0.043228449  0.041648698           26 
 4830000   0.47772017   -3.8840413    2510.4329  0.043313197  0.041638404           25 
 4831000   0.46457227    -3.890982    2512.8205  0.043345417  0.041628088           30 
 4832000   0.46923182    -3.890415    2513.2288  0.043343488  0.041617821           27 
 4833000   0.48185318      -3.8817    2513.7278  0.043343123  0.041607634           14 
 4834000   0.47358103   -3.8722985    2513.2273   0.04332553  0.041597401           12 
 4835000   0.46281866   -3.8906686    2511.9895  0.043295234  0.041587173           28 
 4836000    0.4786816   -3.8826414    2508.8905   0.04323288  0.041576921           22 
 4837000   0.47066327   -3.8762741    2515.2842  0.043334095  0.041566679           17 
 4838000   0.47444953   -3.8690372     2513.901  0.043301313  0.041556446           12 
 4839000   0.47889726    -3.875323    2511.4376  0.043249942  0.041546207           32 
 4840000   0.47596887   -3.8843829     2507.309   0.04316992  0.041535976           11 
 4841000   0.47424784   -3.8769079    2513.5179  0.043267883  0.041525777           13 
 4842000   0.48233349   -3.8748863    2506.7255  0.043142048  0.041515573           17 
 4843000   0.48417289   -3.8734207    2506.1748  0.043123664  0.041505356           18 
 4844000   0.47545545   -3.8745861    2511.6451  0.043208868  0.041495123           25 
 4845000   0.48378667   -3.8721727    2511.8848  0.043204073  0.041484911           22 
 4846000   0.47187058   -3.8776285    2505.6271  0.043087549  0.041474691           36 
 4847000   0.47666186   -3.8810437    2512.2801  0.043193043   0.04146445           16 
 4848000   0.47133644   -3.8994091     2514.091   0.04321526  0.041454219           38 
 4849000   0.47737093   -3.8917188     2511.036  0.043153847  0.041443984           33 
 4850000   0.46711354   -3.8893225    2511.1219  0.043146424  0.041433736           10 
 4851000   0.47380492   -3.8802868    2514.8786  0.043202064  0.041423513           19 
 4852000   0.47229511   -3.8873128    2510.7612  0.043122444  0.041413319           33 
 4853000   0.46256099   -3.8767649    2513.8465  0.043166538  0.041403148           36 
 4854000   0.47460363   -3.8884831     2513.991  0.043160125  0.041393004           18 
 4855000   0.47727052   -3.8723976    2512.7543  0.043130009  0.041382841            7 
 4856000    0.4724719   -3.8790375    2517.0896  0.043195525  0.041372661           32 
 4857000   0.47781406   -3.8867868    2514.0645  0.043134728  0.041362493           11 
 4858000    0.4818697   -3.8917985    2509.3868  0.043045608  0.041352306           17 
 4859000   0.47411314   -3.8865229    2514.4281   0.04312321    0.0413421           31 
 4860000    0.4835732   -3.8802149      2514.31  0.043112311  0.041331911           19 
 4861000   0.47165753   -3.8754708    2509.4998   0.04302098   0.04132174           21 
 4862000   0.47669483   -3.8990526    2509.0426  0.043004295   0.04131152           43 
 4863000    0.4775966   -3.8825298    2509.9922  0.043011725   0.04130131           19 
 4864000   0.48027695   -3.8895318     2513.835  0.043068719  0.041291113           15 
 4865000   0.47910419   -3.8729677    2508.6087  0.042970344   0.04128093           11 
 4866000   0.47463415    -3.871138    2513.8763  0.043051725  0.041270743           13 
 4867000   0.47602473   -3.8923525     2511.974  0.043010307  0.041260577           23 
 4868000   0.47505708   -3.8832451    2512.9135  0.043017556  0.041250406           36 
 4869000   0.47801345   -3.8856928    2514.7118  0.043039497  0.041240237           23 
 4870000   0.46582252   -3.9038087    2511.2794  0.042971927  0.041230046           37 
 4871000   0.47375062   -3.8840253    2514.5745  0.043019477  0.041219886           21 
 4872000   0.46622585   -3.8887468    2512.7821  0.042979989   0.04120975           51 
 4873000   0.46597353   -3.8932896     2510.803  0.042937324  0.041199582            8 
 4874000   0.46252663   -3.8788606    2507.8767  0.042878482  0.041189448           17 
 4875000   0.47543298   -3.8806514    2515.0787  0.042992798  0.041179311           17 
 4876000   0.47173565   -3.8886799     2519.802  0.043064704  0.041169229           17 
 4877000   0.48658117   -3.8912564    2515.1634  0.042976615  0.041159113           22 
 4878000   0.46634622   -3.8895786    2510.0768  0.042880907  0.041149006           36 
 4879000   0.46992279   -3.8742053    2509.7769  0.042866997  0.041138891           14 
 4880000   0.46996065   -3.8969589    2510.7739  0.042875237  0.041128756           18 
 4881000   0.47145616   -3.8998907    2511.5719  0.042880078  0.041118586           18 
 4882000   0.46660594   -3.8968749     2512.615    0.0428891  0.041108418           23 
 4883000   0.47365486   -3.9015099    2501.1095  0.042683964  0.041098239           14 
 4884000   0.46273157   -3.9113317    2507.7443  0.042788429  0.041088107           20 
 4885000   0.48002475   -3.9098079    2510.4195  0.042825307  0.041077954           41 
 4886000   0.45971569   -3.8842161    2511.6929   0.04283826    0.0410678           18 
 4887000   0.46774018   -3.8830739    2514.8072    0.0428826   0.04105767           34 
 4888000   0.46557073   -3.8868854    2507.4205  0.042747895  0.041047514           14 
 4889000   0.46686958   -3.8896812    2508.2471  0.042753241  0.041037367           36 
 4890000   0.46634921   -3.8979626    2506.5807    0.0427161  0.041027216           37 
 4891000   0.46656486   -3.9055511    2506.9731  0.042714051  0.041017081           19 
 4892000   0.47306531   -3.8938247    2506.2115  0.042692347   0.04100692           43 
 4893000   0.47761282   -3.8967877    2513.5221  0.042808129  0.040996776           19 
 4894000   0.46923702   -3.9056708    2510.7744  0.042752595  0.040986648           49 
 4895000   0.47320862   -3.9072311    2511.5796  0.042757569   0.04097649           64 
 4896000   0.47204373   -3.8833558    2508.9723  0.042704457  0.040966349           81 
 4897000   0.46911974   -3.8885958    2514.6949   0.04279312  0.040956217           32 
 4898000   0.46296423   -3.9033812    2506.0749  0.042637725  0.040946074           23 
 4899000   0.47451034   -3.9068192    2513.6486  0.042757852  0.040935959           15 
 4900000   0.46665331   -3.8997487    2513.6955  0.042749924   0.04092585           51 
 4901000   0.45727496     -3.89684    2511.9273  0.042711135  0.040915771           35 
 4902000   0.47717301   -3.9141851    2516.4966    0.0427801  0.040905708           26 
 4903000   0.46572786   -3.8908711    2513.2798    0.0427167  0.040895653            9 
 4904000   0.46707445   -3.8997778    2510.7884  0.042665653  0.040885575           26 
 4905000   0.47351421   -3.8928021    2511.8055  0.042674235    0.0408755           29 
 4906000   0.46818137   -3.9102185    2511.7714  0.042664958   0.04086544           12 
 4907000   0.46460163   -3.9095618    2516.6041  0.042738335  0.040855402           30 
 4908000   0.47302416   -3.9178788     2511.649  0.042645493  0.040845301           15 
 4909000   0.46459796   -3.8897459    2515.5064  0.042702289   0.04083526            9 
 4910000   0.47924642   -3.8972819     2513.621  0.042661591  0.040825198           16 
 4911000   0.46739486   -3.9027266    2512.0292  0.042625894   0.04081515           15 
 4912000   0.46642211   -3.8895792    2507.8591   0.04254647  0.040805119           38 
 4913000   0.47640899   -3.8958693    2507.1012  0.042524954  0.040795081           50 
 4914000   0.47548082   -3.8937442    2511.8929   0.04259756  0.040785033           29 
 4915000   0.46020055   -3.8955882    2506.3928   0.04249564  0.040774978           32 
 4916000   0.47905631   -3.9123641    2508.4126  0.042521234  0.040764908           41 
 4917000   0.46212904   -3.9047536    2506.5704  0.042481364  0.040754803           28 
 4918000   0.46807082   -3.8971554    2510.5537  0.042540222  0.040744734           53 
 4919000   0.46316348   -3.8850485    2513.1438  0.042575453  0.040734673           19 
 4920000   0.47026989    -3.895538    2511.3381  0.042536215  0.040724637           20 
 4921000   0.47199497   -3.9055549    2509.7855  0.042501279  0.040714586           31 
 4922000   0.47545119   -3.8990374    2514.3712  0.042570283  0.040704573           18 
 4923000   0.47163915   -3.9031575    2507.8016  0.042450429  0.040694558           38 
 4924000   0.47063424   -3.9134809    2505.5932  0.042404434   0.04068449           59 
 4925000     0.468418   -3.9129388     2510.046  0.042471168  0.040674426           24 
 4926000   0.45607817   -3.9039343     2515.659  0.042557501  0.040664393           22 
 4927000    0.4706823   -3.9122838    2510.2688  0.042457696  0.040654365           39 
 4928000   0.46747637   -3.8982014    2512.5664  0.042487933  0.040644349           13 
 4929000   0.47028539   -3.9115556    2515.7414  0.042532992  0.040634338           29 
 4930000   0.45645195   -3.8971045      2512.04  0.042461798  0.040624322           42 
 4931000   0.46316862   -3.9197292    2516.4984  0.042528534  0.040614301           28 
 4932000   0.46857269    -3.901201     2513.155  0.042463419  0.040604289           24 
 4933000   0.47202139   -3.8995492    2509.6968  0.042396391  0.040594268           29 
 4934000   0.46594196   -3.9113911    2505.1664  0.042311283  0.040584212           39 
 4935000   0.45994571   -3.9038311    2512.8241  0.042432018  0.040574167           66 
 4936000   0.45815776   -3.9145972    2509.0111  0.042359048  0.040564124           57 
 4937000   0.45678537      -3.8954    2506.7115  0.042311652  0.040554091           48 
 4938000   0.45740451   -3.9140634      2504.04  0.042257999  0.040544041           60 
 4939000   0.44782827   -3.9115459    2510.2512  0.042354242  0.040533985          114 
 4940000   0.46007137   -3.9009002    2510.4279  0.042348648  0.040523942           98 
 4941000    0.4622308   -3.8948383    2506.5387  0.042274484  0.040513891           48 
 4942000   0.45824159   -3.9077799    2513.8195    0.0423887  0.040503881           26 
 4943000   0.47174223   -3.9157578    2510.4775  0.042323782  0.040493861           26 
 4944000   0.46394682   -3.8931394    2509.5654  0.042299849  0.040483833           21 
 4945000    0.4580963   -3.9038539    2513.4599  0.042356924  0.040473837            8 
 4946000   0.45080751   -3.8956136    2510.9844  0.042306651  0.040463844           12 
 4947000   0.45671635   -3.9314695    2512.1476  0.042317694  0.040453835           16 
 4948000     0.455726   -3.9156322    2510.3991  0.042279694  0.040443816           20 
 4949000   0.45438129   -3.9290033    2510.8677   0.04227904  0.040433763           35 
 4950000    0.4540145    -3.905347    2511.3169  0.042278062  0.040423739           23 
 4951000   0.46784544    -3.909571    2514.8943  0.042329737   0.04041376           13 
 4952000   0.46157852   -3.9207684    2513.1571  0.042291954  0.040403777           22 
 4953000   0.45800545   -3.9150219    2509.8797  0.042228274  0.040393741           35 
 4954000   0.45785641   -3.9145828    2507.6987  0.042183063  0.040383695           33 
 4955000   0.46692759   -3.9072297    2507.6949  0.042174485  0.040373672           23 
 4956000   0.45507128   -3.9205657    2513.2825  0.042259929  0.040363654           15 
 4957000   0.45947286   -3.9261811    2511.1755  0.042215983  0.040353623           20 
 4958000   0.46014706   -3.9092297    2513.1448  0.042240568  0.040343635           14 
 4959000   0.45552633   -3.9099031    2515.8006  0.042276679  0.040333642           17 
 4960000   0.44952779   -3.9021299    2509.3684  0.042160087   0.04032367           12 
 4961000   0.45796151   -3.9191685    2507.8725  0.042126461  0.040313686           16 
 4962000   0.46084738   -3.9178084    2515.2682  0.042242178  0.040303679           23 
 4963000   0.46189707   -3.9023597    2509.1195  0.042130424  0.040293683           37 
 4964000     0.452755   -3.9290031    2507.3261  0.042091829  0.040283686           16 
 4965000   0.45652041   -3.9122576    2513.8753  0.042193275  0.040273656           18 
 4966000   0.45212381   -3.9116043    2512.2309  0.042157183  0.040263659           35 
 4967000   0.46112384   -3.9161943    2511.5413  0.042137127  0.040253661           28 
 4968000   0.45750089   -3.9146165    2509.5127  0.042094618   0.04024365           36 
 4969000   0.46250038   -3.9155902     2506.922  0.042042697  0.040233605           53 
 4970000   0.45558065   -3.9030922    2513.6155   0.04214647  0.040223581           54 
 4971000   0.44875485   -3.9309798    2506.0708  0.042011514  0.040213568           54 
 4972000   0.45227875   -3.9289151    2508.9359  0.042051084  0.040203563           60 
 4973000   0.45598817   -3.9096949    2507.5187  0.042018881  0.040193539           32 
 4974000   0.45668805   -3.9196571    2506.2194  0.041988665  0.040183518           42 
 4975000   0.46673433   -3.9206671    2511.1426   0.04206269  0.040173529           48 
 4976000   0.46097635   -3.9161937    2510.6067  0.042045262  0.040163543           44 
 4977000   0.45182598   -3.9049308    2505.7574  0.041955618  0.040153559           25 
 4978000   0.46727959   -3.9344173     2510.955  0.042034201   0.04014359           16 
 4979000   0.46187161   -3.9360726    2514.7689  0.042089591   0.04013362           26 
 4980000   0.44829636   -3.9197966    2508.4788  0.041975884   0.04012365           27 
 4981000   0.45260628   -3.9100004    2509.1407  0.041978529  0.040113686           34 
 4982000   0.45580801    -3.910685    2509.6458  0.041978554  0.040103716           30 
 4983000   0.45964654   -3.9207835    2508.9763  0.041958932  0.040093771           14 
 4984000   0.45387788   -3.9174476    2508.8837  0.041948964  0.040083795           22 
 4985000   0.45015571   -3.9282021     2505.905  0.041890756  0.040073815           30 
 4986000    0.4501272   -3.9257436    2508.7938  0.041930636  0.040063852           18 
 4987000   0.44439635   -3.9185276    2511.0155  0.041959352   0.04005389           31 
 4988000   0.44930503   -3.9244054    2511.1237  0.041952748  0.040043952           15 
 4989000   0.44705545   -3.9296096    2506.3136  0.041863995  0.040033984           26 
 4990000   0.45082993   -3.9220826    2505.0961  0.041835273  0.040024019           43 
 4991000     0.447218   -3.9367577    2508.0783  0.041876682  0.040014076           27 
 4992000   0.44702054   -3.9314235    2510.6322  0.041910928  0.040004126           33 
 4993000   0.45180598   -3.9187792    2510.2137   0.04189555  0.039994198           25 
 4994000   0.46066034     -3.90976    2512.0132  0.041917187  0.039984259           39 
 4995000   0.44982474   -3.9323849    2508.4701  0.041849685  0.039974329           40 
 4996000    0.4492057   -3.9233441     2512.076  0.041901454  0.039964399          112 
 4997000   0.45780867   -3.9331505    2506.2605  0.041796087  0.039954432           59 
 4998000   0.44259307    -3.927282    2507.2751   0.04180464  0.039944477           70 
 4999000   0.46060146    -3.919869    2510.2987   0.04184668  0.039934528           93 
 5000000   0.46308306   -3.9350565    2507.3999  0.041789998  0.039924573           81 
 5001000   0.45718531   -3.9451699    2513.0172  0.041875245  0.039914624          106 
 5002000   0.45286079   -3.9419144    2505.2095  0.041736797  0.039904639           54 
 5003000   0.44353592   -3.9332469    2506.0072  0.041741741  0.039894646          133 
 5004000   0.44395285   -3.9239777    2510.0441  0.041800628  0.039884712           79 
 5005000   0.44198758   -3.9336829    2507.6061  0.041751683  0.039874776           54 
 5006000   0.44717629   -3.9298927    2505.6682  0.041711083  0.039864813           76 
 5007000   0.45752655   -3.9296167     2506.359   0.04171425  0.039854883           75 
 5008000   0.45251372   -3.9338415    2504.3711  0.041672842  0.039844945           73 
 5009000   0.44658506   -3.9347256    2508.9312  0.041740387     0.039835           94 
 5010000    0.4422506   -3.9270057    2510.5281  0.041758618   0.03982504           60 
 5011000   0.43927097    -3.932814    2508.7231  0.041720267  0.039815095           61 
 5012000    0.4493952   -3.9374002    2509.8891   0.04173133  0.039805174           95 
Loop time of 12221.8 on 48 procs for 5000000 steps with 4000 atoms

Performance: 70693.364 tau/day, 409.105 timesteps/s
99.4% CPU use with 48 MPI tasks x no OpenMP threads

MPI task timing breakdown:
Section |  min time  |  avg time  |  max time  |%varavg| %total
---------------------------------------------------------------
Pair    | 826.06     | 878.46     | 945.04     |  96.4 |  7.19
Neigh   | 81.412     | 85.05      | 88.291     |  21.0 |  0.70
Comm    | 774.05     | 834.06     | 894.09     |  99.1 |  6.82
Output  | 14.199     | 14.202     | 14.278     |   0.3 |  0.12
Modify  | 10261      | 10298      | 10329      |  19.4 | 84.26
Other   |            | 112.3      |            |       |  0.92

Nlocal:        83.3333 ave          92 max          78 min
Histogram: 5 2 12 7 8 10 0 3 0 1
Nghost:        2207.79 ave        2229 max        2190 min
Histogram: 3 4 9 6 6 8 4 1 2 5
Neighs:        14656.8 ave       16206 max       13030 min
Histogram: 1 2 5 8 9 9 2 5 5 2
FullNghs:      29314.1 ave       32277 max       27157 min
Histogram: 4 3 6 8 12 8 3 1 1 2

Total # of neighbors = 1407078
Ave neighs/atom = 351.76950
Neighbor list builds = 271012
Dangerous builds = 0

#clear
#
#next RN
#
#jump SELF
Total wall time: 3:23:45
