
units lj                  # Use reduced LJ style units
atom_style atomic         # Uncharged point particles
atom_modify map hash      # Needed for indexing of clusters etc
                          # Used to be able to find where atoms are in relation to each other.

lattice fcc 1.0 spacing 1 1 1
Lattice spacing in x,y,z = 1.5874011 1.5874011 1.5874011
region box block 0 10 0 10 0 10 units lattice
create_box 2 box
Created orthogonal box = (0.0000000 0.0000000 0.0000000) to (15.874011 15.874011 15.874011)
  3 by 4 by 4 MPI processor grid
create_atoms 1 box
Created 4000 atoms
  using lattice units in orthogonal box = (0.0000000 0.0000000 0.0000000) to (15.874011 15.874011 15.874011)
  create_atoms CPU = 0.003 seconds
set type 1 type/fraction 2 0.4 78393
Setting atom values ...
  1612 settings made for type/fraction
mass 1 1.0
mass 2 1.0
pair_style lj/cut  3.5
pair_modify tail  yes
pair_coeff 1  1  1.0  1.0   # Intearaction between 1 and 1 set with epsilon = 1 and sigma = 1
pair_coeff 1  2  1.5  0.8
pair_coeff 2  2  0.5  0.88

write_data data.0
System init for write_data ...
Neighbor list info ...
  update every 1 steps, delay 10 steps, check yes
  max neighbors/atom: 2000, page size: 100000
  master list distance cutoff = 3.8
  ghost atom cutoff = 3.8
  binsize = 1.9, bins = 9 9 9
  1 neighbor lists, perpetual/occasional/extra = 1 0 0
  (1) pair lj/cut, perpetual
      attributes: half, newton on
      pair build: half/bin/atomonly/newton
      stencil: half/bin/3d
      bin: standard
WARNING: Not all mixed pair coeffs generated from mixing. Use write_data with 'pair ij' option to store all pair coeffs. (../write_data.cpp:312)


#############################
#   M E L T   S Y S T E M   #
#############################

velocity all create 2.4 9622624 mom yes dist gaussian # Assign velocities
                                                    # Temperature 2.4, random number seed, zero linear momentum
                                                                                # Gaussian distribution

timestep 0.002   # simulation timestep
thermo 1000       # output thermodynamic data every 1000 steps bf 100

# Define a fix  in this case with index 1 applied to all
# particles in the simulation. This fix is for simulations
# in the anisotropic NPT ensemble. Note that we use the MTK
# correction.
fix 1 all npt temp 2.4 2.4 0.1 iso 5.68 5.68 0.5 mtk yes tchain 5 pchain 5 # Use NPT ensemble
                                                                         # Set temperature and pressure and damping
                                                                         # Numbers of thermostats in chain and in barostat
run 10000          # run for 10000 steps
Per MPI rank memory allocation (min/avg/max) = 3.642 | 3.644 | 3.648 Mbytes
Step Temp E_pair E_mol TotEng Press Volume 
       0          2.4    -5.861415            0    -2.262315   -4.1716513         4000 
    1000    2.4287233    -5.034336            0   -1.3921618    5.6020411    3903.2604 
    2000    2.3950132   -5.0637083            0   -1.4720867    5.6274732    3880.7082 
    3000    2.4080255   -5.0606438            0   -1.4495086    5.7070885    3865.7653 
    4000    2.4163317   -4.9970898            0   -1.3734984    5.8579582    3892.5033 
    5000    2.3854876   -5.0924561            0   -1.5151193    5.3656769    3894.8203 
    6000    2.4960143   -5.0545667            0   -1.3114813    5.8995258    3870.2221 
    7000    2.3633004   -5.0467389            0   -1.5026745    5.8885794    3867.8234 
    8000    2.4434305   -5.0495808            0   -1.3853514    5.8869434    3870.4623 
    9000    2.3817168   -5.0543311            0    -1.482649     5.559987    3886.3671 
   10000    2.3657061   -5.0517382            0   -1.5040662    5.0638453    3927.0121 
Loop time of 2.51603 on 48 procs for 10000 steps with 4000 atoms

Performance: 686795.996 tau/day, 3974.514 timesteps/s
99.6% CPU use with 48 MPI tasks x no OpenMP threads

MPI task timing breakdown:
Section |  min time  |  avg time  |  max time  |%varavg| %total
---------------------------------------------------------------
Pair    | 1.124      | 1.1846     | 1.2645     |   3.3 | 47.08
Neigh   | 0.2088     | 0.21726    | 0.22749    |   0.9 |  8.64
Comm    | 0.76975    | 0.85382    | 0.90077    |   3.5 | 33.94
Output  | 0.00024447 | 0.00025015 | 0.00031335 |   0.0 |  0.01
Modify  | 0.20346    | 0.24366    | 0.28701    |   4.6 |  9.68
Other   |            | 0.01642    |            |       |  0.65

Nlocal:        83.3333 ave          94 max          71 min
Histogram: 1 2 3 2 10 15 6 5 3 1
Nghost:        1660.35 ave        1683 max        1642 min
Histogram: 5 3 4 9 10 5 3 3 4 2
Neighs:        9721.60 ave       11069 max        8170 min
Histogram: 2 3 0 6 10 8 8 6 3 2

Total # of neighbors = 466637
Ave neighs/atom = 116.65925
Neighbor list builds = 910
Dangerous builds = 235

# Equilibrate just above the melting temperature to avoid step fn in T

fix 1 all npt temp 1.25 1.25 0.1 iso 5.68 5.68 0.5 mtk yes tchain 5 pchain 5
run 2000
Per MPI rank memory allocation (min/avg/max) = 3.643 | 3.645 | 3.649 Mbytes
Step Temp E_pair E_mol TotEng Press Volume 
   10000    2.3657061   -5.0517382            0   -1.5040662    5.0638453    3927.0121 
   11000    1.2591295   -7.0289109            0   -5.1406887    5.6487682    3086.9387 
   12000      1.26189    -7.071516            0   -5.1791542    5.5081123     3083.218 
Loop time of 0.598799 on 48 procs for 2000 steps with 4000 atoms

Performance: 577155.189 tau/day, 3340.018 timesteps/s
99.6% CPU use with 48 MPI tasks x no OpenMP threads

MPI task timing breakdown:
Section |  min time  |  avg time  |  max time  |%varavg| %total
---------------------------------------------------------------
Pair    | 0.27026    | 0.29291    | 0.31974    |   1.9 | 48.92
Neigh   | 0.038974   | 0.041561   | 0.043696   |   0.5 |  6.94
Comm    | 0.18941    | 0.21591    | 0.24022    |   2.6 | 36.06
Output  | 5.0427e-05 | 5.1828e-05 | 6.6852e-05 |   0.0 |  0.01
Modify  | 0.04085    | 0.043671   | 0.0463     |   0.8 |  7.29
Other   |            | 0.004696   |            |       |  0.78

Nlocal:        83.3333 ave          92 max          77 min
Histogram: 5 4 6 5 12 2 7 2 4 1
Nghost:        1952.81 ave        1977 max        1939 min
Histogram: 3 12 5 9 6 4 6 2 0 1
Neighs:        12404.1 ave       14295 max       11149 min
Histogram: 6 1 7 9 9 9 4 2 0 1

Total # of neighbors = 595398
Ave neighs/atom = 148.84950
Neighbor list builds = 144
Dangerous builds = 12

#############################
# L I N E A R  Q U E N C H  #
#############################

# Define solid atoms. This closely follows ten Wolde  Ruiz-Montero and Frenkel  Faraday Discuss  1996  104  93-110
# Compute components of the per-atom q6 vector
compute q6 all orientorder/atom degrees 1 6 components 6 nnn NULL cutoff 1.3 # compute the Q6 parameter.
                                                                             # Use all neighbours within 1.3 unit cell.

# get number of connections
compute coord_number all coord/atom orientorder q6 0.5

# An atom is solid if it has 8 or more connections (of a possible 14)
variable is_solid atom c_coord_number>=8
group solid dynamic all var is_solid    # Must be dynamic to update
dynamic group solid defined

# do clustering
compute cluster solid cluster/atom 1.3 # Create a cluster where all atoms within are solid and max 1.3 units from another member

# define chunks one chunk per cluster
compute clus_chunks solid chunk/atom c_cluster nchunk every compress yes  # Says which atoms are in which chunk

# count the size of each chunk
compute size_chunks solid property/chunk clus_chunks count


# Find the maximum entry in the vector of chunk sizes
variable max_n equal max(c_size_chunks)


# Thermo style which includes this variable
# thermo_style custom step temp pe vol v_max_n

thermo ${N}  # Print the thermo information every 100 steps
thermo 1000  

# Reset the npt fix at a lower temperature (below freezing)
fix 1  all npt temp  ${temp} ${temp}  0.1  iso  5.68  5.68  0.5  mtk yes tchain  5  pchain  5
fix 1  all npt temp  0.45 ${temp}  0.1  iso  5.68  5.68  0.5  mtk yes tchain  5  pchain  5
fix 1  all npt temp  0.45 0.45  0.1  iso  5.68  5.68  0.5  mtk yes tchain  5  pchain  5

dump dmp2 all dcd ${N} traj.dcd
dump dmp2 all dcd 1000 traj.dcd


compute msd all msd com yes
variable twopoint equal c_msd[4]/6/(step*dt+1.0e-6)
fix 9 all vector 10 c_msd[4]
variable fit equal slope(f_9)/6/(10*dt)
thermo_style custom step temp pe c_msd[4] v_twopoint v_fit v_max_n

fix 1 all npt temp 1.25 ${temp} 0.1 iso 5.68 5.68 0.5 mtk yes tchain 5 pchain 5
fix 1 all npt temp 1.25 0.45 0.1 iso 5.68 5.68 0.5 mtk yes tchain 5 pchain 5
run 500000 # 5000000  # Run for this many steps
Neighbor list info ...
  update every 1 steps, delay 10 steps, check yes
  max neighbors/atom: 2000, page size: 100000
  master list distance cutoff = 3.8
  ghost atom cutoff = 3.8
  binsize = 1.9, bins = 8 8 8
  4 neighbor lists, perpetual/occasional/extra = 1 3 0
  (1) pair lj/cut, perpetual
      attributes: half, newton on
      pair build: half/bin/atomonly/newton
      stencil: half/bin/3d
      bin: standard
  (2) compute orientorder/atom, occasional
      attributes: full, newton on
      pair build: full/bin/atomonly
      stencil: full/bin/3d
      bin: standard
  (3) compute coord/atom, occasional
      attributes: full, newton on
      pair build: full/bin/atomonly
      stencil: full/bin/3d
      bin: standard
  (4) compute cluster/atom, occasional
      attributes: full, newton on
      pair build: full/bin/atomonly
      stencil: full/bin/3d
      bin: standard
Per MPI rank memory allocation (min/avg/max) = 9.822 | 9.829 | 9.835 Mbytes
Step Temp PotEng c_msd[4] v_twopoint v_fit v_max_n 
   12000      1.26189    -7.071516 1.0639761e-30 7.3887229e-33 8.3333333e+20            1 
   13000    1.2348311   -7.1136499   0.47495931 0.0030446109  0.038780682            2 
   14000    1.2437627   -7.0993355    0.9005053 0.0053601504  0.037312666            1 
   15000    1.2866513    -7.129944    1.3149964 0.0073055354  0.036041823            1 
   16000     1.252631   -7.1435353    1.7309633 0.0090154338  0.035637658            1 
   17000    1.2908684   -7.0817947    2.1297174  0.010439791  0.034955471            2 
   18000    1.2401479   -7.1437607    2.5147344  0.011642289  0.034459671            2 
   19000    1.2376321   -7.1542107    2.9844413  0.013089655  0.034471907            5 
   20000    1.2142521   -7.1171673     3.413289  0.014222037  0.034684382            1 
   21000    1.2153519   -7.1515771     3.788508  0.015033762  0.034652026            1 
   22000    1.2127147   -7.1602696    4.2577175  0.016127717  0.034728207            1 
   23000    1.2155652   -7.1922707    4.6394444  0.016809581  0.034816815            1 
   24000    1.2417958   -7.1124536    5.0822073  0.017646553  0.034729725            1 
   25000    1.2257753   -7.1229414    5.5099712   0.01836657  0.034819111            1 
   26000     1.252987   -7.1796212    5.9100775  0.018942556  0.034802113            2 
   27000    1.2299047   -7.1652435    6.2594593  0.019319319  0.034776809            2 
   28000    1.2327907   -7.1452303    6.6104852  0.019674063  0.034588485            2 
   29000    1.2164784   -7.1610263    7.0267313  0.020191756  0.034406517            1 
   30000    1.2368824   -7.1684142    7.3395174  0.020387548  0.034237052            1 
   31000    1.2450069   -7.1617873    7.7514251  0.020837164   0.03403008            2 
   32000    1.2096943   -7.1621957    8.0382349  0.020932903  0.033822311            1 
   33000    1.2076793   -7.1688696     8.447829  0.021332901  0.033618126            1 
   34000    1.2380832   -7.1220223    8.7885756  0.021540626  0.033391366            2 
   35000    1.1952982   -7.1986284    9.2448043  0.022011438  0.033241838            1 
   36000    1.2220083   -7.2007598    9.6111007  0.022247918  0.033151846            2 
   37000    1.2018999   -7.1926656    10.004906  0.022533571  0.033051378            1 
   38000    1.2316054   -7.2508976       10.379  0.022760966  0.032981952            3 
   39000     1.208895   -7.1924671    10.817849  0.023115063  0.032947235            1 
   40000    1.1735141   -7.1343477    11.265456    0.0234697  0.032930794            3 
   41000    1.2097504   -7.2317067    11.572379  0.023521094  0.032911879            2 
   42000    1.1802974   -7.2820164    11.821254  0.023454868  0.032834934            2 
   43000     1.210358   -7.2034013    12.187462  0.023619113  0.032715728            1 
   44000    1.1738312   -7.2046643    12.523123  0.023718036  0.032598657            2 
   45000    1.2058885   -7.2170076    12.951587  0.023984419  0.032513937            1 
   46000    1.1999544   -7.2012964    13.368732  0.024218718  0.032453398            2 
   47000    1.2004826   -7.2357813    13.768534  0.024412295   0.03240615            2 
   48000    1.2393293   -7.2454404    14.158964  0.024581535  0.032374367            2 
   49000    1.2125591   -7.2570084    14.461683  0.024594698  0.032311384            1 
   50000    1.2322192   -7.2328714    14.803712  0.024672854  0.032245169            1 
   51000    1.1876112   -7.2269532     15.18414  0.024810687  0.032184083            1 
   52000    1.1996097   -7.2472142    15.768679  0.025270318  0.032152385            1 
   53000    1.2128154   -7.2219488    15.981266  0.025127777  0.032125726            4 
   54000    1.1938735   -7.2813485    16.268849  0.025106248   0.03208683            1 
   55000    1.1651919   -7.2747511    16.657079  0.025237999  0.032032492            1 
   56000    1.1841597   -7.2065586    17.037676  0.025353684  0.031971681            2 
   57000    1.1986692   -7.3046697    17.329781  0.025335936  0.031920284            1 
   58000    1.1877969   -7.2971857    17.844981   0.02563934  0.031879423            1 
   59000    1.1679732   -7.3000138    18.049144  0.025493141  0.031843503            1 
   60000    1.1570643   -7.2910531    18.374115  0.025519604  0.031783175            2 
   61000    1.1758974   -7.2843431    18.707199  0.025556282  0.031732039            1 
   62000    1.1662201   -7.2792142    19.111433   0.02568741  0.031682909            1 
   63000    1.1795635   -7.2838023    19.470486   0.02575461  0.031629113            2 
   64000    1.1740964   -7.3513288    19.693339  0.025642368  0.031569282            1 
   65000     1.163733   -7.2981565    20.043953  0.025697375  0.031495868            1 
   66000    1.1757483   -7.2776067    20.348733  0.025692844  0.031419875            1 
   67000    1.1323159   -7.2843573    20.787575  0.025855192  0.031353302            1 
   68000    1.1580906   -7.3098483    21.123272  0.025886362  0.031287471            2 
   69000    1.1607298   -7.2961871     21.42223  0.025872258  0.031218887            1 
   70000    1.1533214   -7.3105823    21.909305  0.026082506  0.031162028            2 
   71000    1.1543859   -7.3241432    22.397722  0.026288406  0.031123273            1 
   72000    1.1361129   -7.3038683    22.638743  0.026202249  0.031083614            2 
   73000    1.1553838    -7.327238    22.938523  0.026185529  0.031043859            1 
   74000    1.1464517   -7.3296898    23.313089  0.026253478  0.031005428            2 
   75000    1.1778154   -7.3514909     23.61853   0.02624281  0.030971753            1 
   76000    1.1349237    -7.349994    23.992579  0.026307653  0.030935196            2 
   77000    1.1428498   -7.3084128    24.387198  0.026393072  0.030900117            1 
   78000     1.141946   -7.3200539    24.489274  0.026163754   0.03085103            2 
   79000    1.1282121   -7.3580138    24.752469  0.026110199  0.030785675            1 
   80000    1.1293644   -7.3658183    25.032016  0.026075016  0.030717783            5 
   81000    1.1197911   -7.3578542    25.306205   0.02603519  0.030640556            2 
   82000    1.1265433   -7.4268231    25.376231  0.025788852  0.030550467            2 
   83000    1.1178971   -7.3543328    25.532615  0.025635155  0.030450547            1 
   84000     1.110707   -7.3569514    25.839603  0.025634526  0.030340873            2 
   85000    1.0948697   -7.3979652    26.087352  0.025575835  0.030236115            1 
   86000    1.1359769   -7.4075572      26.3796  0.025561628  0.030131527            4 
   87000    1.1507255   -7.3819414    26.700398  0.025575094  0.030026416            2 
   88000    1.1312479   -7.3773275     26.82799  0.025405293  0.029913954            2 
   89000    1.1362213   -7.3848385    27.094984  0.025369836  0.029803475            1 
   90000    1.1219792   -7.3806189    27.293765  0.025272004   0.02969277            1 
   91000    1.1093188   -7.3768428     27.68375   0.02535142  0.029587146            1 
   92000    1.1073747   -7.3897908    27.934568   0.02530305  0.029484061            1 
   93000    1.1333437   -7.3749789    28.251449  0.025314918  0.029381908            1 
   94000     1.096697   -7.3967214    28.496616  0.025262958  0.029276308            2 
   95000    1.1233194   -7.4319846    28.725029  0.025197394  0.029173202            2 
   96000    1.0883123   -7.4241643    29.001877   0.02517524  0.029067874            4 
   97000    1.1278793   -7.3978667     29.25583  0.025133874  0.028968882            2 
   98000    1.1204631   -7.3679698    29.594542  0.025165427  0.028871074            1 
   99000    1.1077657   -7.4244432    29.899374  0.025167823  0.028778675            2 
  100000    1.1221598   -7.4441937    30.200629  0.025167191  0.028688915            1 
  101000    1.1122868   -7.4487521    30.489147  0.025156062   0.02860896            3 
  102000    1.0950575   -7.3897256    30.804519  0.025167091  0.028525787            3 
  103000    1.1113046   -7.3782477    31.108676  0.025168831  0.028450254            2 
  104000    1.0908869   -7.4637551    31.409044  0.025167503  0.028374911            2 
  105000    1.0787976    -7.471797    31.586666  0.025068782  0.028299476            2 
  106000    1.0970315   -7.4500361    31.827524  0.025021639  0.028223797            1 
  107000    1.1087268   -7.4945127    32.088199  0.024990809   0.02814735            5 
  108000    1.1184644   -7.4430552    32.229461  0.024868412  0.028066322            1 
  109000     1.084206   -7.4576288    32.567825  0.024898949  0.027979758            2 
  110000    1.0850527   -7.4615185     32.71382  0.024783197  0.027892988            1 
  111000    1.1248163   -7.4571411    32.918244  0.024713396  0.027804531            2 
  112000    1.0958845   -7.4654337    33.232861  0.024726831  0.027714815            2 
  113000    1.1060261   -7.4407575    33.610135  0.024786235  0.027634529            4 
  114000     1.095187   -7.4583046    33.787923  0.024698774  0.027558738            4 
  115000    1.0901811   -7.4775519    33.986413  0.024627836  0.027480526            4 
  116000    1.0489194   -7.5003524    34.267685   0.02461759  0.027402149            3 
  117000    1.0835529   -7.4916611    34.497945  0.024571186  0.027326666            1 
  118000    1.0777257    -7.481267    34.729841  0.024526723  0.027251795            2 
  119000     1.081357   -7.5017108    34.823587  0.024386265   0.02717048            3 
  120000    1.0890995   -7.5154089    34.929957  0.024256915  0.027086482            4 
  121000    1.0480215   -7.5161732    35.261505  0.024284783  0.027002597            3 
  122000     1.057119   -7.5044441    35.702251  0.024386784  0.026925968            3 
  123000    1.0548249   -7.5000655    35.850415  0.024288899   0.02684997            1 
  124000    1.0444403   -7.5184336    35.804761  0.024062339  0.026772179            1 
  125000    1.0595256   -7.5009867     36.09392  0.024062613  0.026685818            5 
  126000    1.0695568   -7.5612193    36.211453  0.023949373  0.026597428            1 
  127000    1.0621331   -7.5208209    36.540551  0.023976739  0.026510649            1 
  128000    1.0824224   -7.5361203     36.80747  0.023963196  0.026429383            1 
  129000    1.0647278   -7.5437094    37.030757  0.023921678  0.026350453            3 
  130000    1.0542814   -7.5858256    37.264893  0.023887752  0.026273924            3 
  131000    1.0622957   -7.5552662    37.459353  0.023829105  0.026194707            1 
  132000     1.073207   -7.5948796     37.69973  0.023800335  0.026120464            1 
  133000    1.0588792   -7.6113342    37.922085  0.023760705  0.026042054            2 
  134000    1.0503783   -7.5748824    38.150525  0.023725451  0.025968164            1 
  135000    1.0657719    -7.580998    38.390111  0.023697599  0.025895156            3 
  136000    1.0287536   -7.5699117    38.676687   0.02369895  0.025818939            3 
  137000    1.0665811   -7.6282465    38.635094  0.023500666  0.025742707            3 
  138000    1.0519823   -7.5749223    38.895808  0.023487806   0.02566436            5 
  139000     1.022867   -7.5761323    39.120623  0.023453611  0.025588658            1 
  140000    1.0350659    -7.558111    39.307308  0.023397207  0.025514357            1 
  141000    1.0315022   -7.5853284    39.610559  0.023410496  0.025439649            3 
  142000    1.0433361   -7.5716726     39.89179  0.023410675  0.025365506            2 
  143000    1.0576381    -7.561993    40.121983  0.023381109  0.025294331            3 
  144000    1.0484042   -7.5804046    40.341478  0.023345762  0.025223781            1 
  145000    1.0337574   -7.6287947    40.396388  0.023216315  0.025153445            2 
  146000    1.0284272   -7.5895954    40.622025  0.023186087  0.025079845            1 
  147000    1.0400874   -7.6645623     40.59935  0.023015504  0.025007193            1 
  148000    1.0132767    -7.599667     41.18398  0.023189178  0.024936725            2 
  149000    1.0298571   -7.6327889    41.121188  0.022998427  0.024867309            1 
  150000    1.0083055   -7.6311925     41.15404  0.022863355  0.024794295            3 
  151000    1.0505443   -7.6490195    41.389157  0.022841698   0.02472179            2 
  152000    1.0257854   -7.6934736    41.505926  0.022755442  0.024648143            2 
  153000    1.0459776   -7.6900269    41.725998  0.022726579  0.024574602            1 
  154000    1.0135458   -7.6629776    42.054289   0.02275665  0.024503396            4 
  155000    1.0191089   -7.6414774    42.298322  0.022741033  0.024436214            1 
  156000   0.99234207   -7.6637089    42.480493  0.022692571  0.024368518            3 
  157000    1.0171934   -7.6408826    42.607729  0.022615567  0.024299017            2 
  158000    1.0169309   -7.6733239    42.773916  0.022560082  0.024230401            2 
  159000   0.99964227   -7.6602571     42.88423  0.022476011  0.024159501            2 
  160000    1.0061458   -7.6913988    42.854324   0.02231996  0.024087302            2 
  161000    1.0302635   -7.6574467    43.057214  0.022286343  0.024010728            2 
  162000    1.0128087    -7.729637    42.993433  0.022115964  0.023934633            1 
  163000    1.0239447   -7.6352284    43.457248  0.022217407  0.023859721            3 
  164000   0.99773939   -7.6970165    43.467495  0.022087142  0.023786262            1 
  165000    1.0119088   -7.6892266    43.683377  0.022062312  0.023710869            1 
  166000    1.0025187   -7.7342895    43.823488  0.021999743  0.023636053            4 
  167000    1.0112124   -7.6480882    44.323774  0.022117651  0.023563396            2 
  168000    0.9976041   -7.7149953    44.194396  0.021921823  0.023492707            2 
  169000   0.97677931   -7.6956499    44.544617  0.021964801  0.023422531            3 
  170000    1.0014203   -7.6901381    44.713625  0.021918444  0.023352725            2 
  171000   0.98507664   -7.6900484    44.789012  0.021827004  0.023282759            2 
  172000    1.0164905   -7.7000429    44.726962  0.021670039  0.023211076            2 
  173000   0.99423621   -7.7260528    44.811992  0.021585738  0.023137845            2 
  174000   0.98396505   -7.7114074    45.093301  0.021596408  0.023063708            2 
  175000   0.96669848   -7.7003385    45.127422  0.021489248  0.022989794            2 
  176000   0.99111069   -7.7539367    45.073058   0.02134141  0.022914582            1 
  177000   0.96150903     -7.74386    45.276288   0.02131652  0.022838783            1 
  178000    0.9718607   -7.7421713    45.593519   0.02134528  0.022763439            2 
  179000   0.99166601   -7.7225819    45.596002  0.021227189  0.022689794            1 
  180000   0.96280031   -7.7542869    45.820564  0.021213224    0.0226157            4 
  181000   0.98716694   -7.7620663    45.819314  0.021095448  0.022541584            3 
  182000   0.97823554   -7.7699237      46.2194  0.021162729  0.022468089            3 
  183000   0.96493099   -7.7374763    46.412541  0.021135037  0.022397706            2 
  184000   0.95958791    -7.760741    46.425019  0.021025824  0.022327599            2 
  185000   0.96564316   -7.7973769    46.798464  0.021080389  0.022257977            3 
  186000   0.97721736   -7.7958335    46.966371  0.021042281  0.022189658            2 
  187000   0.95063943   -7.8140844    46.961312  0.020927501   0.02212269            2 
  188000   0.95239548   -7.7990862    47.107476  0.020880973  0.022055113            2 
  189000   0.98231871   -7.8045858    47.396569  0.020897958  0.021988555            4 
  190000   0.97917956   -7.7930046    47.673731  0.020909531  0.021924668            3 
  191000   0.95654118   -7.8100105    47.628402   0.02078028    0.0218596            1 
  192000     0.956256   -7.8018197    47.966705  0.020818882  0.021796219            3 
  193000   0.97690719   -7.7727244    48.013263  0.020731115  0.021733139            3 
  194000   0.94421011   -7.7926678    48.079453  0.020652686  0.021670582            1 
  195000   0.92880604   -7.8135623    48.077314  0.020545861   0.02160726            1 
  196000   0.94094292   -7.8224052    48.424554  0.020588671  0.021543956            2 
  197000    0.9715514   -7.8041267    48.644798  0.020577326  0.021481349            2 
  198000   0.94350714    -7.789435    48.778923   0.02052985  0.021417674            2 
  199000   0.95209612   -7.8361857    48.773164  0.020424273  0.021355026            5 
  200000   0.94664261   -7.8655336    48.773194  0.020322164  0.021291012            2 
  201000   0.95384207   -7.8914706     48.85089  0.020253271  0.021227272            1 
  202000   0.94422928    -7.838778    48.899333  0.020172992  0.021162302            2 
  203000   0.93967287   -7.8738669    48.834897  0.020047166  0.021097389            4 
  204000    0.9556107   -7.8832561    49.187725  0.020093025  0.021033378            1 
  205000   0.95174473   -7.8159015    49.579098  0.020154105  0.020970969            2 
  206000   0.94522818   -7.8309771    49.539363  0.020040195  0.020909155            8 
  207000   0.94675531   -7.8792058    49.638282  0.019983205  0.020846461            5 
  208000   0.92975783   -7.8528361    49.879108  0.019983617  0.020784084            2 
  209000   0.93826329   -7.8530179    49.926868  0.019907045  0.020722319            4 
  210000   0.92779359   -7.8642689    49.998929  0.019840845  0.020660651            2 
  211000   0.94139836    -7.904556    49.967885  0.019734552  0.020598953            2 
  212000   0.92974018   -7.8594705    50.284018   0.01976573  0.020536862            2 
  213000   0.94055297   -7.8747705    50.415832  0.019724504  0.020475299            2 
  214000   0.92510975   -7.8365487    50.444898  0.019643652  0.020413411            1 
  215000   0.94732983   -7.8729031    50.450557   0.01955448  0.020351723            3 
  216000   0.91917216   -7.9145233    50.516285  0.019489307  0.020289738            1 
  217000   0.94070078   -7.8945334    50.968252  0.019573061  0.020228844            2 
  218000   0.92250723   -7.9378922    50.928169  0.019467954  0.020169181            3 
  219000   0.89220041   -7.9409743     50.87723  0.019359677   0.02010871            2 
  220000   0.91247545   -7.8984524    51.184871  0.019388209  0.020048592            2 
  221000   0.91025574   -7.8504139    51.289868  0.019340071  0.019988543            2 
  222000   0.91366421   -7.9123807    51.292454  0.019253924  0.019928999            3 
  223000   0.92631793   -7.9538549    51.362291  0.019193681  0.019869588            2 
  224000   0.91343761   -7.9125726    51.579488  0.019188797  0.019810335            1 
  225000    0.8983279   -7.9390906    51.765488  0.019172403  0.019751802            5 
  226000   0.89984516   -7.9686937    51.942467  0.019152827  0.019694185            2 
  227000   0.90978853   -7.9521912    52.046755  0.019106738  0.019637125            1 
  228000   0.90702057    -7.989325    52.089774   0.01903866  0.019580047            2 
  229000   0.90824387   -7.9547859    52.277055  0.019023674  0.019523308            3 
  230000   0.89109859   -7.9675496    52.334593  0.018961809  0.019466736            6 
  231000   0.88695728   -7.9656053    52.420678  0.018910779  0.019410772            3 
  232000   0.89796036   -7.9854692    52.510978  0.018861702  0.019354407            2 
  233000   0.87930836    -7.960727    52.602469  0.018813472  0.019298043            9 
  234000   0.89857372   -7.9628101    52.575437  0.018723446  0.019241159            1 
  235000   0.86955364   -7.9631208    52.675534  0.018679267  0.019184558            2 
  236000   0.89444983   -8.0256746    52.899687  0.018679268  0.019128299            3 
  237000   0.88798411   -7.9895142    52.922349  0.018608421  0.019072035            4 
  238000   0.90633757   -7.9553907    53.272573  0.018652862  0.019016774            6 
  239000   0.89725223   -7.9666872      53.3048  0.018586053  0.018962525            3 
  240000   0.89264078   -7.9986867    53.418163  0.018547973  0.018907864            2 
  241000    0.8914334    -8.018227    53.289741  0.018426605  0.018852919            3 
  242000   0.86913186   -7.9747826    53.578445  0.018449878  0.018798096            1 
  243000   0.89314297   -8.0227164    53.495824  0.018345619  0.018743249            2 
  244000   0.89066952   -8.0049435    53.527469  0.018281239  0.018688125            1 
  245000   0.89251614   -8.0150244    53.533578    0.0182087  0.018632808            2 
  246000   0.87679484   -8.0407181    53.638948  0.018170375   0.01857686            3 
  247000   0.88460651   -8.0593423    53.543842  0.018064724  0.018520809            7 
  248000   0.87356494   -8.0381795    53.689606  0.018040862  0.018464646            3 
  249000   0.86929022   -8.0508553    53.816455  0.018010862  0.018408417            1 
  250000   0.85560353   -8.0683781    53.931415  0.017977138   0.01835254            4 
  251000   0.85804397   -8.0873039    53.894441  0.017893241  0.018296737            2 
  252000   0.86778244   -8.0510528    53.948872  0.017840236  0.018241026            5 
  253000   0.87101388   -8.0845023    54.210736  0.017855974  0.018185744            3 
  254000   0.85137257    -8.072486    54.369929  0.017837903  0.018131358            3 
  255000   0.84071626   -8.0326159    54.185318   0.01770762  0.018076827            4 
  256000    0.8694445   -8.0539539    54.331054   0.01768589  0.018022094            3 
  257000    0.8229993   -8.0631023     54.19897  0.017574244  0.017966153            1 
  258000   0.87704023   -8.0710311    54.249091  0.017522316  0.017909811            4 
  259000   0.85431129   -8.0776589    54.177943   0.01743177  0.017853309            3 
  260000   0.87044893   -8.0687105    54.443153  0.017449729  0.017796425            1 
  261000   0.83728677   -8.0944388    54.268908  0.017327238  0.017739443            2 
  262000   0.84070008   -8.0576191    54.316868  0.017276358  0.017682411            3 
  263000   0.85635693    -8.087631    54.507592    0.0172711  0.017626206            1 
  264000   0.85062905   -8.1080902    54.585409  0.017230243  0.017570114            4 
  265000   0.85268491     -8.13339    54.676069  0.017193732  0.017513901            3 
  266000   0.83083278   -8.0744464     54.71255  0.017140523  0.017458411            2 
  267000   0.83015626   -8.0690061    54.914058  0.017139219   0.01740395            1 
  268000   0.83280959   -8.1149589     54.82753  0.017048361   0.01734889            2 
  269000    0.8410932    -8.130319     54.83088  0.016986022  0.017293374            1 
  270000   0.82418267   -8.1092543    54.904739  0.016945907  0.017238323            1 
  271000   0.83398419   -8.1428209    54.878708  0.016875372  0.017182809            3 
  272000   0.83209656   -8.1542247    54.946341  0.016834051  0.017128049            3 
  273000   0.83483401   -8.1183348    55.229494   0.01685882  0.017073645            2 
  274000   0.84408901   -8.1289482     55.12928  0.016766813  0.017019029            6 
  275000   0.81278721   -8.1503886    55.000765  0.016666898  0.016964692            2 
  276000   0.81444729   -8.1288342    55.353069  0.016712883  0.016910704            2 
  277000    0.8162894   -8.1463948    55.405087  0.016668197  0.016857115            2 
  278000    0.8120428   -8.1388901    55.526458  0.016644622  0.016804201            1 
  279000   0.81463005   -8.1710248    55.408921  0.016549857  0.016751416            1 
  280000   0.80564561   -8.1515906    55.712522  0.016581108  0.016698962            3 
  281000   0.83427156   -8.1815789    55.756484  0.016535138  0.016646984            2 
  282000   0.83429088   -8.1704486    55.656065  0.016446828  0.016594851            3 
  283000   0.81235432   -8.1887832    55.852315    0.0164465  0.016543139            4 
  284000    0.8164694   -8.1810792    56.015867  0.016436581  0.016491528            2 
  285000   0.82306942   -8.1849362    56.009824  0.016377142  0.016440089            2 
  286000   0.81094445   -8.1780353    56.069366  0.016337228  0.016389052            2 
  287000   0.80222336   -8.2320334    56.080418  0.016283513  0.016338051            2 
  288000   0.81792677   -8.1860628    56.029337  0.016212192  0.016286811            4 
  289000   0.81158853    -8.249705    55.907053  0.016120834  0.016235556            2 
  290000   0.80636431   -8.2316154    56.161649  0.016138405  0.016184639            2 
  291000   0.78608102    -8.246345    56.203096  0.016094815  0.016133954            3 
  292000   0.82332181   -8.2637156     56.03564  0.015991906  0.016083038            3 
  293000   0.83266455   -8.2584382    56.234887  0.015993995  0.016032386            2 
  294000   0.80869179   -8.2372499    56.237581  0.015940357  0.015981492            2 
  295000   0.79357328    -8.242668     56.28534  0.015899813  0.015930905            4 
  296000   0.80183116   -8.2812918    56.264131  0.015840127  0.015880176            4 
  297000   0.80981307   -8.2574462    56.427833  0.015832725  0.015829814            1 
  298000   0.78826629   -8.2370287    56.478144  0.015793664  0.015779687            2 
  299000   0.80489036   -8.2500602    56.379808  0.015713436  0.015729396            5 
  300000   0.78112812   -8.2450228    56.470103   0.01568614  0.015678609            2 
  301000   0.79574253   -8.2946227    56.286293  0.015583138  0.015628121            2 
  302000   0.79492742   -8.2681202    56.330209  0.015543656  0.015577376            3 
  303000   0.78088238   -8.2463565    56.366317  0.015502287  0.015526598            3 
  304000   0.77526799   -8.2692097    56.451759  0.015474715  0.015476121            2 
  305000   0.78305655   -8.2666331     56.46978  0.015428902  0.015425779            2 
  306000   0.77025912   -8.3014174    56.470783  0.015378754  0.015375087            7 
  307000   0.80507423   -8.2727329    56.602037  0.015364288  0.015325212            4 
  308000   0.77912775   -8.2966709    56.518516  0.015291806  0.015275038            1 
  309000   0.77301388   -8.3070316    56.504305  0.015238486  0.015225239            3 
  310000   0.78832143    -8.292223    56.593409  0.015213282  0.015175264            3 
  311000   0.77541948   -8.2917559    56.754067  0.015207413  0.015125512            3 
  312000   0.77282868   -8.3202953    56.556137  0.015105806  0.015075664            4 
  313000   0.76907277   -8.3215677    56.783403  0.015118052  0.015026089            4 
  314000   0.77048309   -8.3409398    56.526271  0.015001664  0.014976625            6 
  315000   0.77301337   -8.3544534    56.526419  0.014954079  0.014927181            4 
  316000   0.75478135   -8.3108669    56.697913  0.014951981  0.014877509            2 
  317000   0.76875259   -8.3627746     56.57065  0.014871359  0.014828155            4 
  318000   0.75921906   -8.3610742    56.622555  0.014838196  0.014778756            2 
  319000   0.76262762   -8.3507506    56.564031  0.014776393  0.014729384            2 
  320000   0.76640602   -8.3443073    56.796184  0.014790673   0.01468023            3 
  321000   0.75175267   -8.3526686    56.756324  0.014734248  0.014631494            4 
  322000   0.75750582   -8.3423059    56.775604  0.014693479  0.014582891            2 
  323000   0.74931482   -8.3634607    56.945562  0.014691838  0.014534464            3 
  324000    0.7484944    -8.344057    56.969867  0.014652744  0.014486162            4 
  325000    0.7326606   -8.3710706    56.764139  0.014554907  0.014437918            2 
  326000   0.75540517   -8.3988475    56.880717   0.01454006  0.014389846            4 
  327000   0.73422216   -8.3923908    56.862639  0.014490988    0.0143417            2 
  328000   0.76056034   -8.4022814     56.80617  0.014432462  0.014293511            4 
  329000   0.71994436   -8.4118051    56.987687  0.014434571  0.014245743            2 
  330000   0.73689251   -8.3967977    56.933471  0.014377139  0.014197822            4 
  331000   0.76074258   -8.4197945    56.829675  0.014307572  0.014150262            3 
  332000   0.74068916   -8.3712888    57.003578  0.014308127  0.014102685            4 
  333000   0.72935448    -8.387287    57.097122  0.014288569  0.014055304            1 
  334000   0.73926147   -8.4154508    57.063819   0.01423748  0.014008302            2 
  335000   0.72022423   -8.4238259    57.091054  0.014201755  0.013961315            1 
  336000     0.733831    -8.427121    56.872788  0.014105354  0.013914342            2 
  337000   0.73599333   -8.4033291    57.033745    0.0141033  0.013867497            4 
  338000   0.72844113   -8.4083363    57.043538  0.014063989  0.013820887            2 
  339000   0.71263248   -8.3960972    57.070668  0.014029171  0.013774351            8 
  340000   0.72897558   -8.4205575    56.981189  0.013965978  0.013728119            1 
  341000   0.72474226   -8.4214661    57.066037  0.013945757  0.013682307            2 
  342000   0.71810444   -8.4184968     57.28037  0.013957205  0.013636851            2 
  343000   0.72716662   -8.4409075     57.06609  0.013864453  0.013591302            2 
  344000   0.72269406   -8.4379225    57.070013    0.0138251  0.013545927            3 
  345000   0.71388198   -8.4506635    57.188157  0.013813565  0.013500711            2 
  346000    0.7075006   -8.4504337    57.189476  0.013773959  0.013455675           11 
  347000   0.71143102   -8.4662943    57.167664  0.013729026  0.013410602            2 
  348000   0.71657065   -8.4527067    57.219013  0.013701871  0.013365571            2 
  349000   0.69293198   -8.4643843    57.248037  0.013669541  0.013320875            3 
  350000   0.70225022   -8.4602709    57.140113  0.013604789  0.013275952            5 
  351000     0.693769   -8.4771878    57.175209  0.013574361  0.013230938            3 
  352000   0.68984733   -8.4789122    57.258821  0.013555592  0.013186192            6 
  353000   0.70821276    -8.511729    57.244278  0.013513758  0.013141525            4 
  354000   0.71737429   -8.5286481    57.157264    0.0134551  0.013096999            4 
  355000   0.69756952   -8.4953604    57.283498  0.013446831  0.013052461            1 
  356000   0.70196086   -8.4910746    57.256235  0.013402677  0.013008116            2 
  357000   0.70571684   -8.5054554    57.149479  0.013340214  0.012963859            5 
  358000   0.70284835   -8.4992127    57.156377  0.013304557  0.012919739            3 
  359000   0.69877687   -8.5193493    57.135147  0.013262569  0.012875564            3 
  360000   0.68681425   -8.5086346    57.217093  0.013244698  0.012831734            3 
  361000   0.69122653   -8.5211031    56.979467  0.013153155  0.012787961            2 
  362000   0.70388975   -8.5326268    57.084772  0.013141062  0.012744268            6 
  363000   0.67752653   -8.5448478    57.170941  0.013124642  0.012700793            2 
  364000   0.68066726   -8.5561821    57.156135  0.013085196  0.012657452            3 
  365000   0.69085776   -8.5467736    57.293445  0.013080695  0.012614322            2 
  366000   0.67460937   -8.5324564    57.330754   0.01305345  0.012571396            8 
  367000   0.68253547   -8.5605529    57.175826  0.012982704  0.012528387            2 
  368000   0.68247512   -8.5331044    57.196342   0.01295207  0.012485574            9 
  369000   0.67237976    -8.553419    57.109761  0.012897417  0.012442823            7 
  370000   0.67301257   -8.5751725    57.122613  0.012865453  0.012400302            9 
  371000   0.68669767   -8.5425735     57.25601  0.012860739  0.012357823            6 
  372000   0.67364342   -8.5697307    57.292675  0.012834381  0.012315591            4 
  373000   0.66847366    -8.564981    57.200359  0.012779347  0.012273451            6 
  374000   0.66133321   -8.5617826    57.055563  0.012712915  0.012231453            2 
  375000   0.67687623    -8.575548    57.197968   0.01271066  0.012189501            4 
  376000   0.66380268    -8.556182    57.360583  0.012712895  0.012147793            1 
  377000   0.66447751   -8.5769202    57.094383  0.012620332  0.012106087            4 
  378000   0.66730129   -8.5967771    57.244374  0.012620012  0.012064637            2 
  379000   0.65745577   -8.5894423    57.198219  0.012576565  0.012023266            3 
  380000   0.64190445   -8.6065303    57.110652  0.012524266  0.011981982            2 
  381000   0.65976104   -8.5923379    57.053225  0.012478833  0.011940525            6 
  382000   0.64236499   -8.6042793    57.104494   0.01245735   0.01189928            3 
  383000   0.64737801   -8.6271878    57.105714   0.01242509  0.011858056            3 
  384000   0.64256256   -8.6239184    57.084948  0.012388227  0.011817144            4 
  385000   0.65248093   -8.5976431    57.233522  0.012388208  0.011776535            3 
  386000   0.65613823   -8.6043764    57.153506   0.01233884  0.011736092            5 
  387000    0.6426991   -8.6312367    57.160704  0.012308506   0.01169582            4 
  388000   0.65806101   -8.6171178     57.11534   0.01226704  0.011655553            4 
  389000   0.65035986   -8.6081824    57.081546  0.012228266  0.011615408            2 
  390000   0.64610984    -8.621844    57.120445  0.012205223  0.011575347            5 
  391000    0.6459619   -8.6321106    57.126496  0.012175298  0.011535543            2 
  392000    0.6431691   -8.6085435    57.042072  0.012126291  0.011495788            4 
  393000   0.64237456   -8.6227179    57.150341  0.012118393  0.011456264            3 
  394000   0.64028653   -8.6510745    57.052726  0.012066989  0.011416843            2 
  395000   0.63801335   -8.6541305    57.043638  0.012034523  0.011377317            2 
  396000   0.63031699   -8.6445307    57.120118  0.012020227  0.011338026            4 
  397000   0.62710734    -8.632687    57.084604  0.011982495  0.011298934            3 
  398000   0.62153826   -8.6587153    57.077971  0.011950999   0.01125994            3 
  399000   0.61653491    -8.673142    57.008805  0.011906601  0.011221023            2 
  400000   0.62500518   -8.6531323    57.056419  0.011886754  0.011182319            4 
  401000   0.61839115   -8.6288042    57.020704  0.011849689  0.011143737            2 
  402000   0.63103816   -8.6602312    57.017619  0.011819573  0.011105223            3 
  403000   0.63151692   -8.6779026    57.120213  0.011811458  0.011067001            3 
  404000   0.63992434   -8.6650485    57.030214  0.011763658  0.011028959            2 
  405000   0.62401914   -8.6448119    57.127863  0.011754704  0.010991202            2 
  406000   0.62179748   -8.6637888    57.065828  0.011713019   0.01095345            4 
  407000   0.61835714   -8.6554815    57.096536  0.011690527  0.010915693            6 
  408000   0.61969315   -8.6668317    57.049587  0.011652285  0.010878124            8 
  409000   0.61539861   -8.6622573    56.973083  0.011608208  0.010840702            2 
  410000   0.61565942   -8.7006222    56.981099  0.011581524  0.010803399            4 
  411000   0.61048025   -8.6991375    56.997271  0.011556624  0.010766226            5 
  412000   0.59483449   -8.7000654    57.038635  0.011536941  0.010729172            3 
  413000   0.60917564   -8.6890794    57.028986  0.011507059  0.010692288            1 
  414000   0.61207702   -8.7045973    56.957444  0.011464864  0.010655698            3 
  415000   0.60794248     -8.70685    57.064378   0.01145871  0.010619267            2 
  416000   0.59237394   -8.7055546    56.914632  0.011401168  0.010582885            7 
  417000   0.60333287   -8.7161644    56.915856  0.011374072  0.010546604            3 
  418000   0.59787588   -8.7296929    56.847829  0.011333299  0.010510368            5 
  419000   0.59468926   -8.7406602    57.001015  0.011336717  0.010474279            5 
  420000    0.6054504   -8.7154086    56.963482  0.011302278   0.01043837            3 
  421000   0.58896483   -8.7279791    57.065556  0.011295636  0.010402608            6 
  422000   0.59543127   -8.7428036    56.985282  0.011253018  0.010367037            3 
  423000   0.59262938    -8.732582    56.881924  0.011206053  0.010331627            5 
  424000   0.59013866   -8.7379758    56.991664  0.011201192  0.010296274           13 
  425000   0.59062092   -8.7599981    56.927958  0.011162345  0.010261076           12 
  426000   0.58703604   -8.7486467    56.898838  0.011130446  0.010226082            2 
  427000   0.58811611   -8.7630418    56.901174  0.011104835  0.010191213            4 
  428000   0.58661006   -8.7672515    56.888361  0.011076394  0.010156468            2 
  429000   0.56963469   -8.7667231    56.818889   0.01103708  0.010121829            6 
  430000   0.56840524   -8.7473367     56.91713  0.011030451  0.010087246            3 
  431000   0.57803349   -8.7791748     56.85564   0.01099297  0.010052885            3 
  432000   0.58212009   -8.7837898     56.91848  0.010979645  0.010018601            2 
  433000   0.57620589   -8.7561891    56.982755  0.010966658 0.0099845029            1 
  434000     0.580729   -8.7712574     56.97037  0.010939011 0.0099505166            6 
  435000   0.57082495   -8.7829531    56.892462  0.010898939 0.0099165792            2 
  436000   0.57213794   -8.7761408    56.875744  0.010870746 0.0098828043            5 
  437000   0.57752428   -8.7962599    56.856659  0.010842231 0.0098491707            4 
  438000   0.56034239   -8.7549718     56.99721  0.010844218 0.0098155888            6 
  439000   0.55246519   -8.7839998    56.906744  0.010802343 0.0097822328            3 
  440000   0.55751098   -8.7680805    56.819616  0.010761291 0.0097488895            4 
  441000   0.56801453   -8.7747602    56.898334  0.010751764 0.0097157117            5 
  442000   0.56417186    -8.806348    56.867553  0.010721635  0.009682643            4 
  443000   0.55455781   -8.8116183    56.787411  0.010682357 0.0096496808            3 
  444000   0.55659992   -8.8033645    56.740987  0.010649585 0.0096168182           14 
  445000   0.56039904   -8.7941155    56.785093  0.010633912 0.0095841545            4 
  446000   0.55446417   -8.8054836    56.817512  0.010616127 0.0095516093            3 
  447000   0.55837321    -8.786345    56.864241  0.010601089 0.0095192318            3 
  448000   0.54430469   -8.7931558     56.79436  0.010564427   0.00948701            6 
  449000   0.55683965   -8.7998594     56.80981  0.010543766  0.009454879            3 
  450000   0.55230668   -8.8204758    56.842743  0.010526434 0.0094228413            3 
  451000   0.55207509   -8.8139488    56.791311   0.01049359 0.0093909144           12 
  452000     0.545652   -8.8345465    56.852343  0.010481627 0.0093591215            7 
  453000   0.54402807   -8.8426012    56.816729  0.010451937 0.0093274739            4 
  454000   0.53705887   -8.8413229    56.674996  0.010402899 0.0092960088            5 
  455000   0.54048212   -8.8314169    56.679773  0.010380911 0.0092646047            6 
  456000    0.5449052   -8.8236324    56.749055  0.010370807 0.0092333313            4 
  457000   0.53272701   -8.8549312    56.654739  0.010330915 0.0092022522            9 
  458000   0.53669678   -8.8514566    56.710918   0.01031858 0.0091712575           10 
  459000   0.53715029   -8.8630996    56.762893  0.010305536 0.0091403297            6 
  460000   0.54083087   -8.8462656    56.745611  0.010280002   0.00910946            3 
  461000    0.5290829   -8.8726235    56.678931  0.010245649   0.00907885            3 
  462000   0.52866274   -8.8543329    56.697668  0.010226852 0.0090483557            6 
  463000   0.52685568   -8.8602964    56.740698  0.010212509 0.0090179867           15 
  464000    0.5351354   -8.8669221    56.618396  0.010168534 0.0089876968            4 
  465000   0.52494898   -8.8544568    56.712149  0.010163468 0.0089575395           12 
  466000   0.53258599   -8.8564791    56.668767    0.0101339 0.0089275111            4 
  467000    0.5329252   -8.8651031    56.719614  0.010121273 0.0088975823            4 
  468000   0.52096373   -8.8726436    56.720777  0.010099853 0.0088677926            5 
  469000   0.51414658   -8.8853323    56.588302   0.01005478 0.0088381135            7 
  470000   0.51782707    -8.862136    56.723785  0.010057409 0.0088085879           11 
  471000    0.5167846   -8.8846321    56.542722   0.01000402 0.0087791401            4 
  472000   0.51131064   -8.8898636    56.708386  0.010012074 0.0087497873            3 
  473000   0.50892919   -8.8648546    56.603447 0.0099724185 0.0087205325            6 
  474000   0.50212078   -8.8813243    56.666785 0.0099625149 0.0086914857            3 
  475000   0.50654091   -8.8813059    56.647722 0.0099381969 0.0086625287            3 
  476000   0.50574544   -8.8938019    56.601705 0.0099092621 0.0086337165            6 
  477000   0.51111413   -8.8831367    56.661634 0.0098989577 0.0086049932            4 
  478000   0.51888693   -8.9053373    56.527706 0.0098548999 0.0085763231            4 
  479000    0.4985555   -8.9227814     56.65904 0.0098571746 0.0085477393            9 
  480000    0.5033647   -8.9045846    56.581285 0.0098231397 0.0085193384            4 
  481000   0.49400967   -8.8948827    56.605719 0.0098069507 0.0084910423            2 
  482000   0.49654777   -8.8980217    56.621984 0.0097894163 0.0084628903            4 
  483000   0.49280249   -8.9071345    56.619009  0.009768635 0.0084348689            3 
  484000   0.50457207   -8.9168293    56.575707 0.0097409963 0.0084069025            4 
  485000   0.49601145   -8.9042835    56.494428 0.0097069464  0.008379025            3 
  486000   0.48685143   -8.9117493    56.520587 0.0096914586 0.0083512595            2 
  487000   0.48537284   -8.9236789    56.482779 0.0096650889 0.0083236093            5 
  488000    0.4768149   -8.9182482    56.477594 0.0096443978 0.0082960438            9 
  489000   0.49952422   -8.9330913    56.512982 0.0096307059 0.0082686446            3 
  490000   0.49012074    -8.912455    56.510597 0.0096106457 0.0082413507            7 
  491000   0.48257648   -8.9411159    56.521043  0.009592845 0.0082141768            3 
  492000   0.47490392   -8.9232479    56.492854 0.0095685729 0.0081871418            4 
  493000   0.47099448   -8.9415796    56.601439 0.0095675184 0.0081602323            5 
  494000   0.47331486   -8.9380694    56.525988 0.0095354231 0.0081334379            3 
  495000   0.47816552   -8.9252232    56.544985 0.0095193577 0.0081067356            2 
  496000   0.48951109   -8.9451923     56.52715  0.009497169 0.0080801326            3 
  497000   0.48130891   -8.9404511    56.381875 0.0094537014 0.0080535655            3 
  498000   0.46727818   -8.9397086    56.580174 0.0094679007 0.0080272028            3 
  499000   0.47071609   -8.9485042    56.359504 0.0094120747 0.0080008958            3 
  500000    0.4704571   -8.9434351    56.376068 0.0093960113  0.007974688            5 
  501000   0.47563334   -8.9445199    56.457819 0.0093908548 0.0079486071            2 
  502000   0.46757106   -8.9558451    56.403707 0.0093631651 0.0079226176            3 
  503000   0.46334855   -8.9602649    56.448412 0.0093519569 0.0078967167            2 
  504000   0.46401302   -8.9714361    56.372706 0.0093208839 0.0078709134            3 
  505000   0.44790444   -8.9486966    56.458892 0.0093166488 0.0078452535            4 
  506000   0.45672942   -8.9567884    56.369191 0.0092834635 0.0078196601            2 
  507000    0.4688099   -8.9745786     56.39868 0.0092700001 0.0077942058            4 
  508000   0.44938041    -8.975793    56.415982 0.0092545902 0.0077688626            4 
  509000   0.44409667   -8.9782343    56.355254 0.0092264659  0.007743616            3 
  510000   0.44524048   -8.9587674    56.388586 0.0092138212 0.0077184361            4 
  511000   0.45252358   -8.9810083    56.302924 0.0091818206 0.0076933508            4 
  512000   0.44758637   -8.9970379    56.318468 0.0091664172 0.0076684295            2 
Loop time of 1231.67 on 48 procs for 500000 steps with 4000 atoms

Performance: 70148.661 tau/day, 405.953 timesteps/s
99.4% CPU use with 48 MPI tasks x no OpenMP threads

MPI task timing breakdown:
Section |  min time  |  avg time  |  max time  |%varavg| %total
---------------------------------------------------------------
Pair    | 79.098     | 86.959     | 92.101     |  32.4 |  7.06
Neigh   | 8.1764     | 8.5483     | 8.9634     |   6.9 |  0.69
Comm    | 77.919     | 82.862     | 90.513     |  36.3 |  6.73
Output  | 0.85641    | 0.85695    | 0.86554    |   0.1 |  0.07
Modify  | 1036.8     | 1041       | 1044.4     |   5.0 | 84.52
Other   |            | 11.48      |            |       |  0.93

Nlocal:        83.3333 ave          92 max          75 min
Histogram: 1 1 8 8 8 10 2 7 2 1
Nghost:        2189.35 ave        2204 max        2167 min
Histogram: 1 1 1 3 5 16 7 5 5 4
Neighs:        14583.2 ave       15990 max       12840 min
Histogram: 2 4 3 4 7 6 5 6 7 4
FullNghs:      29165.5 ave       32429 max       25844 min
Histogram: 1 0 5 10 10 8 6 5 2 1

Total # of neighbors = 1399946
Ave neighs/atom = 349.98650
Neighbor list builds = 26701
Dangerous builds = 1

#clear
#
#next RN
#
#jump SELF
Total wall time: 0:20:35
