
units lj                  # Use reduced LJ style units
atom_style atomic         # Uncharged point particles
atom_modify map hash      # Needed for indexing of clusters etc
                          # Used to be able to find where atoms are in relation to each other.

lattice fcc 1.0 spacing 1 1 1
Lattice spacing in x,y,z = 1.5874011 1.5874011 1.5874011
region box block 0 10 0 10 0 10 units lattice
create_box 2 box
Created orthogonal box = (0.0000000 0.0000000 0.0000000) to (15.874011 15.874011 15.874011)
  3 by 4 by 4 MPI processor grid
create_atoms 1 box
Created 4000 atoms
  using lattice units in orthogonal box = (0.0000000 0.0000000 0.0000000) to (15.874011 15.874011 15.874011)
  create_atoms CPU = 0.002 seconds
set type 1 type/fraction 2 0.1 78393
Setting atom values ...
  435 settings made for type/fraction
mass 1 1.0
mass 2 1.0
pair_style lj/cut  3.5
pair_modify tail  yes
pair_coeff 1  1  1.0  1.0   # Intearaction between 1 and 1 set with epsilon = 1 and sigma = 1
pair_coeff 1  2  1.5  0.8
pair_coeff 2  2  0.5  0.88

write_data data.0
System init for write_data ...
Neighbor list info ...
  update every 1 steps, delay 10 steps, check yes
  max neighbors/atom: 2000, page size: 100000
  master list distance cutoff = 3.8
  ghost atom cutoff = 3.8
  binsize = 1.9, bins = 9 9 9
  1 neighbor lists, perpetual/occasional/extra = 1 0 0
  (1) pair lj/cut, perpetual
      attributes: half, newton on
      pair build: half/bin/atomonly/newton
      stencil: half/bin/3d
      bin: standard
WARNING: Not all mixed pair coeffs generated from mixing. Use write_data with 'pair ij' option to store all pair coeffs. (../write_data.cpp:312)


#############################
#   M E L T   S Y S T E M   #
#############################

velocity all create 2.4 5300450 mom yes dist gaussian # Assign velocities
                                                    # Temperature 2.4, random number seed, zero linear momentum
                                                                                # Gaussian distribution

timestep 0.002   # simulation timestep
thermo 1000       # output thermodynamic data every 1000 steps bf 100

# Define a fix  in this case with index 1 applied to all
# particles in the simulation. This fix is for simulations
# in the anisotropic NPT ensemble. Note that we use the MTK
# correction.
fix 1 all npt temp 2.4 2.4 0.1 iso 5.68 5.68 0.5 mtk yes tchain 5 pchain 5 # Use NPT ensemble
                                                                         # Set temperature and pressure and damping
                                                                         # Numbers of thermostats in chain and in barostat
run 10000          # run for 10000 steps
Per MPI rank memory allocation (min/avg/max) = 3.642 | 3.644 | 3.648 Mbytes
Step Temp E_pair E_mol TotEng Press Volume 
       0          2.4   -7.6732445            0   -4.0741445   -3.0506691         4000 
    1000    2.3778723   -4.5864025            0   -1.0204857    5.8028236    4829.1861 
    2000    2.4076197   -4.6257828            0   -1.0152561    5.6304714    4833.0604 
    3000    2.3730424   -4.6409796            0   -1.0823059    5.6155024    4818.6259 
    4000    2.3888069   -4.6016051            0   -1.0192906    5.6293922    4833.4656 
    5000    2.3716382   -4.5735802            0   -1.0170122     5.800845    4833.4099 
    6000    2.3928892    -4.635048            0   -1.0466115    5.6708897    4819.8426 
    7000    2.3624928   -4.6329067            0   -1.0900535    5.5324935    4835.7611 
    8000    2.4216421   -4.6441459            0   -1.0125907    5.3824824    4848.8404 
    9000     2.368055   -4.5850176            0    -1.033823    6.0444422    4797.3187 
   10000    2.4346457   -4.5825722            0  -0.93151671    6.1156775    4789.9999 
Loop time of 2.22692 on 48 procs for 10000 steps with 4000 atoms

Performance: 775960.466 tau/day, 4490.512 timesteps/s
99.6% CPU use with 48 MPI tasks x no OpenMP threads

MPI task timing breakdown:
Section |  min time  |  avg time  |  max time  |%varavg| %total
---------------------------------------------------------------
Pair    | 0.90801    | 0.97475    | 1.1479     |   4.4 | 43.77
Neigh   | 0.18925    | 0.20018    | 0.23083    |   1.7 |  8.99
Comm    | 0.58985    | 0.78324    | 0.87382    |   6.6 | 35.17
Output  | 0.00024845 | 0.00025443 | 0.00031879 |   0.0 |  0.01
Modify  | 0.21761    | 0.25383    | 0.30711    |   5.0 | 11.40
Other   |            | 0.01466    |            |       |  0.66

Nlocal:        83.3333 ave          92 max          73 min
Histogram: 2 2 1 5 12 8 6 5 3 4
Nghost:        1458.94 ave        1485 max        1434 min
Histogram: 3 1 3 6 15 6 6 5 2 1
Neighs:        7961.21 ave        9116 max        6389 min
Histogram: 1 2 0 5 7 13 9 4 2 5

Total # of neighbors = 382138
Ave neighs/atom = 95.534500
Neighbor list builds = 907
Dangerous builds = 208

# Equilibrate just above the melting temperature to avoid step fn in T

fix 1 all npt temp 1.25 1.25 0.1 iso 5.68 5.68 0.5 mtk yes tchain 5 pchain 5
run 2000
Per MPI rank memory allocation (min/avg/max) = 3.642 | 3.644 | 3.648 Mbytes
Step Temp E_pair E_mol TotEng Press Volume 
   10000    2.4346457   -4.5825722            0  -0.93151671    6.1156775    4789.9999 
   11000     1.239562   -6.1812933            0   -4.3224151    5.9402001    3969.7928 
   12000    1.2543269   -6.2479725            0   -4.3669524    5.6430166     3960.929 
Loop time of 0.478488 on 48 procs for 2000 steps with 4000 atoms

Performance: 722275.247 tau/day, 4179.834 timesteps/s
99.7% CPU use with 48 MPI tasks x no OpenMP threads

MPI task timing breakdown:
Section |  min time  |  avg time  |  max time  |%varavg| %total
---------------------------------------------------------------
Pair    | 0.20795    | 0.22876    | 0.24599    |   1.9 | 47.81
Neigh   | 0.03146    | 0.033792   | 0.037392   |   0.6 |  7.06
Comm    | 0.14378    | 0.16286    | 0.18595    |   2.4 | 34.04
Output  | 5.0372e-05 | 5.2042e-05 | 6.7379e-05 |   0.0 |  0.01
Modify  | 0.043574   | 0.04843    | 0.054      |   1.2 | 10.12
Other   |            | 0.004596   |            |       |  0.96

Nlocal:        83.3333 ave          90 max          75 min
Histogram: 2 1 3 2 9 7 13 3 6 2
Nghost:        1658.00 ave        1676 max        1635 min
Histogram: 1 3 3 6 6 7 8 5 5 4
Neighs:        9632.98 ave       10284 max        8560 min
Histogram: 2 1 2 3 6 9 6 5 6 8

Total # of neighbors = 462383
Ave neighs/atom = 115.59575
Neighbor list builds = 143
Dangerous builds = 9

#############################
# L I N E A R  Q U E N C H  #
#############################

# Define solid atoms. This closely follows ten Wolde  Ruiz-Montero and Frenkel  Faraday Discuss  1996  104  93-110
# Compute components of the per-atom q6 vector
compute q6 all orientorder/atom degrees 1 6 components 6 nnn NULL cutoff 1.3 # compute the Q6 parameter.
                                                                             # Use all neighbours within 1.3 unit cell.

# get number of connections
compute coord_number all coord/atom orientorder q6 0.5

# An atom is solid if it has 8 or more connections (of a possible 14)
variable is_solid atom c_coord_number>=8
group solid dynamic all var is_solid    # Must be dynamic to update
dynamic group solid defined

# do clustering
compute cluster solid cluster/atom 1.3 # Create a cluster where all atoms within are solid and max 1.3 units from another member

# define chunks one chunk per cluster
compute clus_chunks solid chunk/atom c_cluster nchunk every compress yes  # Says which atoms are in which chunk

# count the size of each chunk
compute size_chunks solid property/chunk clus_chunks count


# Find the maximum entry in the vector of chunk sizes
variable max_n equal max(c_size_chunks)


# Thermo style which includes this variable
# thermo_style custom step temp pe vol v_max_n

thermo ${N}  # Print the thermo information every 100 steps
thermo 1000  

# Reset the npt fix at a lower temperature (below freezing)
fix 1  all npt temp  ${temp} ${temp}  0.1  iso  5.68  5.68  0.5  mtk yes tchain  5  pchain  5
fix 1  all npt temp  0.45 ${temp}  0.1  iso  5.68  5.68  0.5  mtk yes tchain  5  pchain  5
fix 1  all npt temp  0.45 0.45  0.1  iso  5.68  5.68  0.5  mtk yes tchain  5  pchain  5

dump dmp2 all dcd ${N} traj.dcd
dump dmp2 all dcd 1000 traj.dcd


compute msd all msd com yes
variable twopoint equal c_msd[4]/6/(step*dt+1.0e-6)
fix 9 all vector 10 c_msd[4]
variable fit equal slope(f_9)/6/(10*dt)
thermo_style custom step temp pe c_msd[4] v_twopoint v_fit v_max_n

fix 1 all npt temp 1.25 ${temp} 0.1 iso 5.68 5.68 0.5 mtk yes tchain 5 pchain 5
fix 1 all npt temp 1.25 0.45 0.1 iso 5.68 5.68 0.5 mtk yes tchain 5 pchain 5
run 500000 # 5000000  # Run for this many steps
Neighbor list info ...
  update every 1 steps, delay 10 steps, check yes
  max neighbors/atom: 2000, page size: 100000
  master list distance cutoff = 3.8
  ghost atom cutoff = 3.8
  binsize = 1.9, bins = 9 9 9
  4 neighbor lists, perpetual/occasional/extra = 1 3 0
  (1) pair lj/cut, perpetual
      attributes: half, newton on
      pair build: half/bin/atomonly/newton
      stencil: half/bin/3d
      bin: standard
  (2) compute orientorder/atom, occasional
      attributes: full, newton on
      pair build: full/bin/atomonly
      stencil: full/bin/3d
      bin: standard
  (3) compute coord/atom, occasional
      attributes: full, newton on
      pair build: full/bin/atomonly
      stencil: full/bin/3d
      bin: standard
  (4) compute cluster/atom, occasional
      attributes: full, newton on
      pair build: full/bin/atomonly
      stencil: full/bin/3d
      bin: standard
Per MPI rank memory allocation (min/avg/max) = 9.752 | 9.757 | 9.764 Mbytes
Step Temp PotEng c_msd[4] v_twopoint v_fit v_max_n 
   12000    1.2543269   -6.2479725 3.887901e-30 2.6999311e-32 8.3333333e+20            7 
   13000    1.2744229   -6.2067478   0.55730303 0.0035724552  0.045259246            1 
   14000    1.2735562   -6.2284264    1.0954204  0.006520359   0.04546438            1 
   15000    1.2449842   -6.2040844    1.6669735 0.0092609638  0.045858006            1 
   16000     1.257455   -6.2567109    2.2285217  0.011606884  0.046438494            2 
   17000    1.2605079   -6.2511463    2.7393367  0.013428121  0.046368055            1 
   18000    1.2461186   -6.2345368    3.2453112  0.015024588  0.045548643            1 
   19000    1.2118183   -6.2519123    3.7768183  0.016564992  0.045081709            2 
   20000    1.2200757   -6.2207718    4.2346855  0.017644523  0.044458123            2 
   21000    1.2467757   -6.2536128    4.7053734  0.018672116  0.043955791            5 
   22000    1.2463077   -6.2648845    5.1941679  0.019674878  0.043326996            5 
   23000    1.2476698    -6.221752    5.7280156  0.020753679  0.042984951            2 
   24000     1.218194   -6.2399693    6.2891535  0.021837338  0.042782557            2 
   25000    1.2398796   -6.2373122    6.7954159  0.022651386  0.042826307            2 
   26000    1.2211539   -6.2534963    7.3586779  0.023585505  0.042844711            3 
   27000    1.2217432   -6.2453343    8.0190915  0.024750282  0.043100413            2 
   28000    1.2285256   -6.2319737    8.4730908  0.025217532  0.043321623            4 
   29000     1.215172   -6.2574485    9.0320491  0.025954164  0.043437969            3 
   30000    1.2077696    -6.320108    9.5158483  0.026432911  0.043565157            2 
   31000    1.2358067   -6.2879644    9.9146418  0.026652263  0.043499912            3 
   32000    1.2127243   -6.2435022    10.454566  0.027225431  0.043467163            2 
   33000    1.1891206   -6.2395505    11.025288  0.027841635  0.043441188            2 
   34000    1.2136303   -6.2893849      11.5181  0.028230638  0.043458934            4 
   35000    1.1951297   -6.2656751    11.988092  0.028543076  0.043398899            2 
   36000    1.2158837    -6.276537    12.440386  0.028797189  0.043306528            4 
   37000    1.1936891   -6.3299414      12.9424   0.02914955  0.043235845            4 
   38000     1.224777   -6.2740277    13.279747  0.029122251  0.043092745            1 
   39000    1.2017499   -6.3077846    13.777296  0.029438666  0.042912716            2 
   40000    1.2300816   -6.3058756    14.387211  0.029973357  0.042810247            2 
   41000    1.1954945   -6.2978076    14.901811  0.030288232  0.042708282            2 
   42000    1.1710435   -6.3010971      15.2335  0.030225198   0.04260351            2 
   43000    1.1891926   -6.3033283    15.739325  0.030502567  0.042486307            3 
   44000    1.2024851    -6.297686    16.166403  0.030618187  0.042356164            5 
   45000    1.1784078   -6.3359379    16.743516  0.031006511  0.042225503            2 
   46000    1.2010534    -6.352437    17.162494  0.031091475     0.042128            2 
   47000    1.1953912   -6.3399453    17.710319  0.031401274  0.042064746            4 
   48000    1.1709471   -6.3073704    18.129367  0.031474595  0.041970075            3 
   49000    1.1734717   -6.3267049    18.538864   0.03152868  0.041860069            1 
   50000    1.1858703   -6.3395176    19.017691  0.031696151  0.041743539            2 
   51000    1.1774414   -6.3029822    19.469074  0.031812213  0.041643608            3 
   52000    1.1675791    -6.373869    19.818167  0.031759883   0.04150658            2 
   53000    1.1795077   -6.3070722    20.451072  0.032155774  0.041387089            6 
   54000    1.1692239   -6.3230065    20.856538  0.032186015  0.041298894            5 
   55000    1.1624212   -6.3182202     21.27343   0.03223247   0.04119814            3 
   56000    1.1984301   -6.3355371    21.622738  0.032176694  0.041088886            3 
   57000    1.1805612   -6.3285706    22.065195  0.032259057  0.040963805            2 
   58000    1.1722218   -6.3125243    22.543752  0.032390448  0.040847892            3 
   59000    1.1831699   -6.3726717    22.791325  0.032191137  0.040718216            2 
   60000    1.1704135   -6.3572768    23.232135  0.032266854  0.040596405            4 
   61000    1.1553772   -6.3539594    23.603328  0.032244984  0.040456375            3 
   62000    1.1639364   -6.3340134    23.959654  0.032203836   0.04030882            2 
   63000    1.1554285   -6.3663908    24.472216  0.032370656  0.040178506            2 
   64000    1.1465622   -6.3579366     25.00054  0.032552786  0.040059075            2 
   65000    1.1683888   -6.3673363    25.382428  0.032541574  0.039960252            1 
   66000     1.154794   -6.3600827    25.885053  0.032683148  0.039871911            2 
   67000    1.1627398   -6.3715158    26.346395  0.032769147  0.039769876            2 
   68000    1.1710944   -6.3805436    26.629084  0.032633681  0.039670389            2 
   69000     1.170035   -6.3762668    27.214283  0.032867492  0.039580271            4 
   70000     1.148551   -6.3489767    27.514648  0.032755533  0.039489336            2 
   71000    1.1694304   -6.3832114     27.96645  0.032824471  0.039397654            3 
   72000    1.1673657   -6.4017652    28.292901  0.032746413  0.039284523            4 
   73000    1.1675375   -6.3961078    28.779713  0.032853553  0.039180256            4 
   74000    1.1674598   -6.3901005     29.17247  0.032851881  0.039076631            2 
   75000    1.1309301    -6.385586    29.376017  0.032640019  0.038967782            2 
   76000    1.1571791   -6.4179214    29.727349  0.032595777  0.038851705            2 
   77000    1.1469518    -6.397483    30.398106  0.032898382  0.038754008            2 
   78000    1.1363974   -6.4036062    30.695225  0.032794043   0.03865639            9 
   79000    1.1385677   -6.4032318    31.043559   0.03274637  0.038555422            3 
   80000    1.1565102   -6.4120696    31.476777  0.032788309  0.038458739            2 
   81000    1.1088541    -6.415663    32.022986  0.032945459  0.038374472            3 
   82000     1.147635   -6.3978666    32.497258  0.033025669  0.038297932            2 
   83000    1.1293957   -6.4234565    33.091467  0.033224364  0.038234336            2 
   84000     1.135914   -6.4551004    33.455518  0.033189998   0.03817478            3 
   85000    1.1329112   -6.4036504     33.86311  0.033199127  0.038113685            4 
   86000     1.135513   -6.4287828    34.408025  0.033341109   0.03806039            3 
   87000     1.105203   -6.4351454    34.551303  0.033095118   0.03800609            3 
   88000     1.118744   -6.4452354    35.089332  0.033228534  0.037945711            1 
   89000    1.1459617   -6.4284308    35.386926  0.033133826  0.037886125            2 
   90000    1.0907409   -6.4876632    35.643376  0.033003126  0.037824052            3 
   91000    1.1263458   -6.4431763    36.166377  0.033119393  0.037756662            2 
   92000    1.1264811   -6.4509814    36.540114  0.033097929  0.037684852            4 
   93000    1.0919454   -6.4162241    36.752486  0.032932335  0.037613492            3 
   94000    1.1112452   -6.4833474    37.198874  0.032977725  0.037543692            5 
   95000    1.1019508   -6.4747222    37.700676  0.033070768  0.037478487            3 
   96000    1.0900699   -6.4640931    37.807392  0.032818916   0.03740432            2 
   97000    1.1429635   -6.4808297    38.217584  0.032832976  0.037323835            4 
   98000    1.1278273   -6.5004678    38.599533  0.032822732  0.037243274            3 
   99000    1.1159438   -6.4914197    38.878013    0.0327256  0.037160319            4 
  100000    1.1193544   -6.4831041    39.299739  0.032749783  0.037084351            3 
  101000    1.1157516   -6.4758368    39.607793  0.032679697  0.037001304            3 
  102000    1.0997738   -6.4655727    39.970853  0.032655926  0.036922058            5 
  103000    1.0818471   -6.4711764    40.419182  0.032701603   0.03684381            2 
  104000    1.1083404   -6.4907239    40.617156  0.032545798  0.036758706            3 
  105000    1.1096281   -6.4876159    41.058001  0.032585715  0.036672994            4 
  106000    1.0854044   -6.4780072    41.385019  0.032535392  0.036586419            7 
  107000    1.1156831   -6.5097611     41.60265  0.032400818  0.036501065            3 
  108000     1.085236   -6.5123343    42.261997  0.032609566  0.036422298            2 
  109000    1.0977626   -6.5425627     42.45983  0.032461644   0.03634393            3 
  110000    1.1035897   -6.4734361     42.80257  0.032426189  0.036266893            5 
  111000    1.0917658   -6.4892839     43.04222  0.032313979  0.036184045            2 
  112000    1.0745761   -6.4738083    43.406523   0.03229652   0.03610058            2 
  113000    1.0751173   -6.5010551    43.780558  0.032286547   0.03601889            6 
  114000     1.110898   -6.5547977    44.236882  0.032336902   0.03594318            2 
  115000    1.0747575   -6.5300043     44.64959  0.032354775  0.035871569            5 
  116000    1.1138636   -6.5240746    44.760144  0.032155276  0.035796433            2 
  117000    1.0769943   -6.5316655    45.199879  0.032193646  0.035716611            3 
  118000    1.0863907    -6.526649    45.651219  0.032239562  0.035638623            4 
  119000    1.0677085    -6.518501    45.865852  0.032118944  0.035561275            4 
  120000    1.1109513   -6.5482824     46.06897   0.03199234  0.035481589            8 
  121000    1.1081169   -6.5539704    46.282737  0.031875163  0.035398982            3 
  122000    1.0765845   -6.5372125    46.824372  0.031983861   0.03531718            4 
  123000    1.0563359    -6.522814    47.174723  0.031961194  0.035239699            3 
  124000     1.089466   -6.5743555    47.173466  0.031702598  0.035155156            7 
  125000    1.0690881   -6.5505916    47.326188  0.031550792  0.035068914            2 
  126000    1.0676415   -6.5468608    47.763323    0.0315895  0.034980752            2 
  127000    1.0779391   -6.5732221     47.89538  0.031427415  0.034890144            6 
  128000    1.0598078   -6.5600362    48.381883  0.031498622  0.034801684            3 
  129000    1.0512283   -6.5696382    48.800427  0.031524823  0.034715681            2 
  130000    1.0466391   -6.5429615    49.155178  0.031509729  0.034630032            2 
  131000    1.0750679   -6.5951807     49.31122   0.03136846  0.034546475            2 
  132000    1.0218069   -6.5424908    49.872781  0.031485341  0.034463413            4 
  133000    1.0767781   -6.5727537     50.11426  0.031399912   0.03438099            3 
  134000    1.0527708   -6.5593839     50.48032  0.031393234  0.034301792            2 
  135000    1.0410645   -6.5864912    50.490953  0.031167255  0.034221641            2 
  136000    1.0617465   -6.5875175    50.867211  0.031168634  0.034141126            3 
  137000    1.0424842    -6.585102    51.497508  0.031324518  0.034064046            5 
  138000    1.0487413   -6.6073405    51.719394  0.031231518  0.033990551            4 
  139000    1.0420354   -6.5693779    52.052413  0.031206482  0.033915956            8 
  140000    1.0423304   -6.5813475    52.293249  0.031126934  0.033843791            2 
  141000    1.0717221   -6.6042789    52.862099  0.031242375   0.03377377            2 
  142000    1.0425426   -6.6169848    53.061284  0.031139251  0.033705042            5 
  143000    1.0248599   -6.5677403    53.376619  0.031105256  0.033633778            4 
  144000    1.0520756   -6.5799489    53.342075  0.030869256   0.03355855            3 
  145000    1.0338569   -6.6016783    53.570466  0.030787624  0.033482424            3 
  146000    1.0420535   -6.6232608    53.917391  0.030774767  0.033407105            3 
  147000    1.0154599   -6.6464557    54.289911  0.030776593  0.033330301            3 
  148000    1.0360203   -6.6211225    54.676673  0.030786415  0.033255316            4 
  149000    1.0227048   -6.6039084    55.104261  0.030818938   0.03318197            3 
  150000     1.050476   -6.5934592    55.169914  0.030649952  0.033109985            4 
  151000    1.0464798   -6.6309328    55.663209   0.03071921  0.033039232            5 
  152000    1.0011891     -6.61789    56.061193  0.030735303  0.032969606            2 
  153000    1.0212123   -6.6305199    56.248923  0.030636668  0.032898202           12 
  154000    1.0277726   -6.6325012    56.383478   0.03051054  0.032825407            6 
  155000    1.0143185   -6.6353396    56.628367  0.030445358  0.032753377            3 
  156000    1.0255161   -6.6402608    56.719036   0.03029863  0.032679734            3 
  157000    1.0074022   -6.6282196    57.163502  0.030341562  0.032604675            3 
  158000    1.0210372   -6.6857543    57.549695  0.030353215  0.032532512            6 
  159000    1.0239894    -6.633151    57.903591  0.030347794  0.032463558            6 
  160000    1.0153558   -6.6287475    58.233296  0.030329841  0.032395963            5 
  161000   0.97510984   -6.6640437    58.525851  0.030292884  0.032330524            8 
  162000    1.0260163   -6.6415217    58.870232  0.030283041  0.032266076            5 
  163000    1.0289823   -6.6497105    58.754832  0.030038258  0.032199806            4 
  164000    1.0071316   -6.6827099    59.023584  0.029991659  0.032128921            4 
  165000     1.006309   -6.6963903    59.110967  0.029854024  0.032054466            3 
  166000    1.0048787   -6.6946272    59.712696  0.029976253  0.031980783            2 
  167000   0.98448825   -6.6482331    59.995421  0.029937835  0.031909012            2 
  168000    1.0182378   -6.6842859    60.064659  0.029793977  0.031838572            3 
  169000   0.98967411   -6.7219466    60.219284  0.029693927  0.031767017            4 
  170000    1.0098971   -6.6800945    60.507733  0.029660653  0.031694948            6 
  171000    1.0286431   -6.7422312    60.620234  0.029542024  0.031622783            9 
  172000    1.0043531   -6.6752949    61.000152  0.029554337  0.031549592            5 
  173000   0.97478843   -6.7266765    61.111931  0.029437346  0.031474493            5 
  174000    1.0071089   -6.6981333    61.354091  0.029384143  0.031399267            4 
  175000   0.99794786   -6.6990712    61.710474   0.02938594  0.031325397            3 
  176000    0.9497835   -6.7037197    62.051402  0.029380399  0.031252844            2 
  177000   0.95990423   -6.7063702    62.311221  0.029336733   0.03118226            4 
  178000   0.97717528   -6.7189503    62.496979  0.029258885  0.031111214            6 
  179000   0.97364234   -6.7227336    62.537501  0.029114293  0.031040449            6 
  180000    0.9707729   -6.7129451    62.928494  0.029133562  0.030969235            4 
  181000   0.97119009   -6.6707119    62.975218  0.028994115  0.030895835            2 
  182000    0.9656168   -6.7485782    63.110547  0.028896771  0.030821836            4 
  183000   0.98253759   -6.7453056     63.31979  0.028834148  0.030748837            5 
  184000   0.96667937   -6.7065902    63.825941  0.028906676  0.030675509            4 
  185000   0.96853822   -6.7381661    64.067637  0.028859296  0.030604401            2 
  186000   0.95484634   -6.7258692    64.467257   0.02888318   0.03053429            4 
  187000   0.97155318   -6.7244877     64.73847  0.028849586  0.030465934            4 
  188000   0.97933353   -6.7618017     64.95587  0.028792495   0.03039861            3 
  189000   0.97874547   -6.7459522    65.280996  0.028783508  0.030332401            8 
  190000   0.97994709   -6.7811772    65.465451  0.028712917  0.030266217            7 
  191000   0.94635837   -6.7646145    65.386641  0.028528203  0.030198452            2 
  192000   0.96527648   -6.7658761    65.916122  0.028609428  0.030132362            3 
  193000     0.968905   -6.7318536    66.100768  0.028540919   0.03006717            5 
  194000   0.94276613   -6.7555535    66.445498  0.028541881  0.030001188            5 
  195000   0.94557534   -6.7677695    66.586614  0.028455818  0.029933296            6 
  196000   0.99274556   -6.7573663    66.502823   0.02827501  0.029865538            7 
  197000   0.96559748   -6.7588349    66.965241   0.02832709  0.029798755            5 
  198000   0.95071232    -6.768194    67.123872  0.028250788  0.029731343            6 
  199000   0.94809099   -6.7374218    67.516128  0.028273086  0.029664865            3 
  200000   0.95539753   -6.8100709    67.543045  0.028142935  0.029598493            3 
  201000   0.94493923   -6.8067853    67.486627   0.02797953  0.029529518            4 
  202000   0.94256816   -6.7589945    67.863661   0.02799656  0.029462028            4 
  203000    0.9551091   -6.7643116    67.978138  0.027905639  0.029393681            3 
  204000   0.96562572   -6.7604702    68.140516  0.027835178  0.029325867            4 
  205000   0.93966026   -6.7947318    68.416308  0.027811507  0.029258157            2 
  206000   0.93962794   -6.7978981    68.756714  0.027814204  0.029192035            7 
  207000   0.93423941   -6.7939686    69.324326  0.027908344  0.029127467            4 
  208000   0.93602806   -6.8276147    69.293458  0.027761802  0.029063107            4 
  209000   0.95516797   -6.7814124    69.408489  0.027674836  0.028998243            5 
  210000     0.925248   -6.7957319    69.652097  0.027639721  0.028932154            3 
  211000   0.92931855   -6.8021369    69.720198  0.027535623   0.02886505            9 
  212000   0.92842222   -6.7719316    69.977489  0.027506875  0.028798277            5 
  213000   0.93623937   -6.8135661    70.058573  0.027409457  0.028730339            5 
  214000   0.93376476   -6.8000686    70.098795  0.027297038  0.028661547            5 
  215000   0.93882185   -6.8423875    70.126837  0.027180944  0.028592718            4 
  216000   0.93692403   -6.8262731    70.213325  0.027088474  0.028524055            5 
  217000   0.91773604   -6.8437941    70.393198  0.027032718  0.028451804            7 
  218000   0.91554113   -6.8218631    70.542834  0.026965915  0.028379566            4 
  219000   0.92554829   -6.8418386    70.556345  0.026847924  0.028306091            5 
  220000   0.91475396   -6.8428138    70.472403  0.026694092  0.028232049            5 
  221000   0.90961248   -6.8355474    70.871288  0.026723713  0.028158104            4 
  222000   0.91904947   -6.8771795    70.904987  0.026615986  0.028083634            9 
  223000   0.89724825   -6.8712231    70.988032  0.026527665  0.028008122            5 
  224000   0.91737094   -6.8494301    71.046121  0.026430849  0.027933195            4 
  225000    0.9188958   -6.8412926    71.325386   0.02641681  0.027859246            7 
  226000   0.90009525   -6.8502119    71.577949  0.026393049  0.027785745            6 
  227000   0.90133164   -6.8584078    71.752123  0.026340721  0.027712248            6 
  228000    0.9111815   -6.8769791    71.833142  0.026254803   0.02763805            4 
  229000   0.88510529   -6.8730033    72.026241  0.026210423  0.027563687            3 
  230000   0.90683603   -6.8645724    71.833824  0.026026748  0.027489519            5 
  231000    0.8837961   -6.8837149    72.198692  0.026045704  0.027414998            5 
  232000   0.89781165   -6.8659374     72.12776   0.02590796  0.027340983            5 
  233000   0.89318882   -6.8930395    72.293016  0.025855871   0.02726718            5 
  234000   0.88893353   -6.8669698    72.627996  0.025864671  0.027192699            4 
  235000   0.89142664   -6.8999213    72.680514  0.025773232  0.027118062            6 
  236000   0.88903698    -6.903286    72.768618  0.025695133  0.027042748           10 
  237000   0.90217772   -6.8813211    73.015422  0.025673496  0.026968355            5 
  238000   0.87707065   -6.8696836    73.070616   0.02558495  0.026893936            8 
  239000    0.8907825   -6.8656895    73.075239  0.025479512  0.026819161            8 
  240000   0.88112048    -6.882764    73.208524  0.025419626   0.02674351            9 
  241000   0.87694496   -6.8923546    73.239108  0.025324726  0.026667028            5 
  242000   0.87889555   -6.9314686    73.093785  0.025170036  0.026589994            9 
  243000   0.88953775   -6.9240842    73.599858  0.025240006   0.02651397            4 
  244000   0.87715147   -6.9432403     73.50715  0.025104901   0.02643759            6 
  245000   0.89323234   -6.9174585    73.633127  0.025045281  0.026361473            6 
  246000   0.87652217   -6.9234795    73.716779  0.024971809   0.02628528            7 
  247000   0.86533836   -6.9269936    73.924968  0.024940947  0.026209478            9 
  248000   0.84882508   -6.9100867    74.013365  0.024870082  0.026133498            3 
  249000   0.86803216   -6.9237744    74.156166  0.024817994   0.02605778            5 
  250000   0.86972962   -6.9498203    74.445925  0.024815308  0.025982326            4 
  251000   0.87086052    -6.949366    74.189392  0.024631272  0.025906819            4 
  252000    0.8576678   -6.9508791    74.531721  0.024646733  0.025831897            4 
  253000   0.85930855   -6.9582466     74.78426  0.024632497  0.025758327            8 
  254000   0.86094981   -6.9587452    75.151722  0.024656077  0.025685805            5 
  255000   0.85700566   -6.9440127     75.06868  0.024532248  0.025614806            5 
  256000   0.84297701   -6.9428813     75.37827  0.024537197  0.025543992           13 
  257000    0.8435692    -6.967374    75.617481  0.024519287  0.025472669            4 
  258000   0.85679197   -6.9782901    75.550364  0.024402572  0.025401721            6 
  259000   0.86707606     -6.94398    75.574233  0.024316034  0.025330311            5 
  260000    0.8516639   -6.9399898    75.614248  0.024235336  0.025258287            8 
  261000   0.85248845    -6.961722    75.633438  0.024148607  0.025186706            6 
  262000   0.86227203   -6.9717269    75.864796  0.024130024   0.02511469            7 
  263000   0.85461481   -6.9939461    75.763713  0.024006246  0.025042421            3 
  264000   0.84630887   -7.0035186     75.88457  0.023953463   0.02497034            3 
  265000    0.8511582   -6.9755409    76.014287  0.023903864  0.024899258           11 
  266000   0.84482747    -6.993235    76.380279  0.023928659  0.024828438            6 
  267000   0.82888377   -7.0020137    76.101747  0.023752106  0.024757595            4 
  268000   0.84468083   -7.0173706    76.414886  0.023760848  0.024686245           12 
  269000    0.8306592   -7.0032647      76.5752  0.023722181   0.02461593           11 
  270000   0.85134442   -6.9731649    76.618057  0.023647548  0.024545492           12 
  271000   0.84504106   -6.9992742    77.049532  0.023692968  0.024476468            9 
  272000   0.84787235   -6.9975689    76.898684  0.023559646  0.024407232            9 
  273000    0.8420604   -7.0079949    76.889072  0.023470413   0.02433797            7 
  274000   0.83365015   -7.0118372    76.999607  0.023418372   0.02426799           11 
  275000   0.82412636   -7.0099434    76.987926  0.023329675  0.024197629            4 
  276000   0.82744418   -7.0130182    77.165722  0.023298829   0.02412707            6 
  277000   0.84256576   -7.0247478    77.294058  0.023253327  0.024057172            6 
  278000   0.82339258   -7.0532836    77.288046   0.02316788  0.023987183            8 
  279000    0.8170748   -7.0333374    77.214542  0.023062886  0.023916947            3 
  280000   0.83640437   -7.0512544    77.463185  0.023054519  0.023847493            8 
  281000   0.82913728   -7.0505428    77.439998  0.022965598  0.023778395           11 
  282000   0.80904666   -7.0451881     77.64607  0.022945056  0.023709557           21 
  283000   0.80405776   -7.0569011    77.856056  0.022925812  0.023641363            9 
  284000   0.81115689   -7.0328344    77.924241  0.022865094  0.023573751           11 
  285000     0.821889     -7.04064     78.19326  0.022863526  0.023507031           13 
  286000   0.82525975   -7.0911992     78.24784  0.022799487  0.023440756            6 
  287000   0.80377535   -7.0802827    78.313738   0.02273918  0.023374636           11 
  288000   0.81403565   -7.0386252    78.194114  0.022625612  0.023308548            3 
  289000    0.7886052   -7.0464981    78.310515  0.022580887  0.023241919            4 
  290000   0.82043959   -7.0670385     78.58868  0.022582954  0.023175595           20 
  291000   0.80035553   -7.0937804    78.588348  0.022505254  0.023109236            7 
  292000   0.79087653   -7.0690278    78.848879  0.022502534  0.023043166            4 
  293000   0.79484926   -7.0775059    78.910021  0.022443123  0.022977959           11 
  294000   0.79138075   -7.1091741    78.880843  0.022358515  0.022912991            9 
  295000   0.80314804   -7.1035651    78.967159  0.022307107  0.022848314            9 
  296000   0.79182711   -7.0825695    79.155674  0.022284818   0.02278363            6 
  297000   0.80407093   -7.0615996    79.283283   0.02224559  0.022719254            5 
  298000   0.79444665   -7.0843557    79.249741  0.022161561  0.022655015           17 
  299000   0.79745595   -7.0926515    79.282019  0.022096438  0.022590297           11 
  300000   0.80437779   -7.1077162    79.156617  0.021987949  0.022524928            7 
  301000   0.78478869   -7.1226021     79.30193   0.02195513  0.022458931           14 
  302000   0.78514146    -7.122103    79.187366  0.021850819  0.022393161            5 
  303000   0.78671596   -7.1041585    79.345153  0.021822099  0.022327484            8 
  304000   0.77533993   -7.1320715    79.223824  0.021717057  0.022262129            4 
  305000   0.80741605    -7.129739    79.390602  0.021691421  0.022197137            7 
  306000   0.78818723   -7.1266446    79.511915  0.021653572  0.022132256           12 
  307000   0.77084687    -7.133145    79.524651  0.021586496  0.022067039            7 
  308000   0.77682842   -7.0998515    79.605307  0.021538232   0.02200171            9 
  309000   0.77628065   -7.1240325    79.796756  0.021520161   0.02193778           14 
  310000   0.77469332   -7.1343444    79.875161  0.021471818  0.021874048            8 
  311000   0.77891982   -7.1401167    79.949275  0.021422635  0.021810769            6 
  312000   0.75719563   -7.1330716    80.000585  0.021367678  0.021747769            7 
  313000   0.77930405   -7.1455732      80.3076   0.02138115  0.021685477            9 
  314000   0.75730007   -7.1322009    80.394843  0.021336211  0.021624004            6 
  315000   0.75738151   -7.1540756    80.448658  0.021282714  0.021562395            5 
  316000   0.76689911   -7.1401041     80.38239  0.021197888  0.021500781           16 
  317000   0.74125691   -7.1417042    80.578203  0.021182493  0.021439586            7 
  318000   0.76406247   -7.1752551    80.662649  0.021138011  0.021378776           11 
  319000   0.76582091   -7.1749119      80.7112  0.021084431   0.02131801            8 
  320000   0.77792491   -7.1829343    80.867749   0.02105931   0.02125755           28 
  321000   0.75559628   -7.1998422    80.763666  0.020966684   0.02119714            5 
  322000   0.72771738   -7.1924732    80.842973  0.020922094  0.021136511           18 
  323000   0.76033213   -7.1774152    80.809507  0.020848686  0.021076049            6 
  324000   0.74724256   -7.1626089    80.972452  0.020826248  0.021015933            5 
  325000   0.74730995   -7.1684017    80.822207  0.020723643  0.020955871           17 
  326000   0.74527746   -7.1939541    80.901501  0.020680343  0.020895364           11 
  327000   0.74826139   -7.1792884    80.974457  0.020635692  0.020835036           14 
  328000   0.74651986    -7.220471     80.97053  0.020571781  0.020774912           13 
  329000   0.74214167   -7.1991147    81.132039  0.020550162  0.020714873           10 
  330000   0.74122389   -7.2140667    81.172784  0.020498178  0.020655034           13 
  331000   0.75056514   -7.2199611    81.251018  0.020455946  0.020595454            7 
  332000   0.74550844   -7.2233928    81.379315  0.020426535  0.020535796            9 
  333000    0.7320625   -7.2154865    81.160069  0.020310328  0.020475954            5 
  334000   0.73940322    -7.208502    81.102103  0.020235056  0.020416056           13 
  335000   0.74141986   -7.2118438    81.357732  0.020238242  0.020356101           23 
  336000   0.74112361   -7.2207217     81.24299  0.020149551  0.020296694           14 
  337000   0.72006236   -7.2019102    81.359022  0.020118452  0.020237531           16 
  338000   0.71435277   -7.1945803    81.314135  0.020047864  0.020178504           16 
  339000   0.71419621   -7.2511398    81.469198  0.020026843  0.020119431           12 
  340000   0.72209331   -7.2276327    81.509371  0.019977787   0.02006064            5 
  341000   0.70806154   -7.2402383    81.560927    0.0199318  0.020001803            6 
  342000   0.71393445   -7.2790485    81.553954  0.019871821  0.019943243            9 
  343000   0.70624783    -7.289536    81.430495  0.019783891  0.019884714            7 
  344000   0.72478566   -7.2536645    81.799358  0.019815736  0.019826502           17 
  345000   0.70989664   -7.2447668    81.735005  0.019742755   0.01976836            5 
  346000   0.71810359   -7.2384736    81.957763  0.019739345  0.019710774           26 
  347000   0.70232264   -7.2422554    82.203099  0.019741378  0.019653748            7 
  348000   0.71081977   -7.2630438    81.808476  0.019590152  0.019596961           15 
  349000   0.71903006   -7.2772483    82.083233  0.019599626  0.019540412            9 
  350000   0.71832235   -7.2777123    82.143075  0.019557875  0.019484312           10 
  351000   0.70267008   -7.2770797    82.078486   0.01948682  0.019427835            8 
  352000   0.70839202   -7.2681836      82.2635   0.01947526  0.019371357           11 
  353000   0.71409754   -7.2807143    82.250392  0.019416995  0.019314919           12 
  354000   0.69416122   -7.2831218    82.308784  0.019375891  0.019258449           17 
  355000   0.69415032   -7.2894469    82.310473  0.019321707  0.019202549           15 
  356000   0.70390245   -7.2730049    82.445851  0.019299123  0.019147095           14 
  357000   0.70040492   -7.2924206    82.474572  0.019251768  0.019091885           13 
  358000   0.69238341   -7.2859009    82.431579  0.019187984  0.019036957            6 
  359000   0.71118455   -7.3016071    82.535314  0.019158615   0.01898219            8 
  360000   0.68460803   -7.3104031    82.463059  0.019088671  0.018927357            9 
  361000   0.71425953   -7.3033851    82.575041  0.019061644  0.018872785           14 
  362000    0.6771487   -7.2909809    82.812105   0.01906356    0.0188183           12 
  363000   0.67659956   -7.3321867    82.568425  0.018955102  0.018763887           26 
  364000   0.70337957   -7.2973503     82.81722  0.018959986  0.018709486           33 
  365000   0.68177105    -7.316388    82.550414  0.018847126  0.018655224           22 
  366000   0.67879829   -7.3149364    82.647498  0.018817736  0.018601125           25 
  367000   0.67502645   -7.3134815    82.546418   0.01874351  0.018547123           27 
  368000   0.67563798    -7.349084    82.744573  0.018737449  0.018492948            8 
  369000   0.68752773    -7.343657    82.681771  0.018672487  0.018438791            9 
  370000   0.68485251   -7.3453882    82.646641  0.018614108  0.018384443            9 
  371000   0.68137384   -7.3634942    82.604214  0.018554406  0.018330258           13 
  372000    0.6621918   -7.3760815    82.773452   0.01854244  0.018276138           28 
  373000   0.65950397   -7.3423042    82.577671  0.018448988  0.018222097           19 
  374000    0.6559401   -7.3369883    82.804248  0.018450144  0.018168286           15 
  375000   0.67218261   -7.3639015    82.693429  0.018376317  0.018114284            7 
  376000   0.66984521   -7.3407631    82.603026  0.018307408  0.018060572           20 
  377000   0.67029266   -7.3462082    82.726691  0.018286183  0.018007159           14 
  378000   0.67406494   -7.3626314    82.630461  0.018216592  0.017953823           22 
  379000   0.66083437   -7.3442752     82.90277  0.018228401  0.017900961           12 
  380000   0.63877135    -7.370359    83.039387  0.018210392  0.017848386           16 
  381000   0.64618595   -7.3673572    82.916708  0.018135763  0.017795601           20 
  382000    0.6587021   -7.3744049    82.911148  0.018087074     0.017743           18 
  383000   0.66584697   -7.3615765    82.888351  0.018034889   0.01769065           25 
  384000   0.63845583   -7.3841931    83.013692  0.018015124  0.017638375           44 
  385000   0.65987839   -7.4052514    82.837012  0.017930089  0.017585987           30 
  386000   0.64925513   -7.3814592    82.771622  0.017869521   0.01753356           25 
  387000   0.65596666   -7.3940516    82.969973  0.017866058  0.017481394           32 
  388000    0.6487093   -7.3914129     82.74677  0.017772073  0.017429466           25 
  389000   0.66187663   -7.4042562    82.900948  0.017759415    0.0173777           44 
  390000   0.64392843   -7.3981198    82.920405  0.017718035  0.017325917           29 
  391000   0.64228993   -7.4195289    82.896119  0.017667545  0.017274465           31 
  392000   0.64265253    -7.400728    82.970886  0.017638369  0.017223104           15 
  393000   0.63538368   -7.4192838    82.855972   0.01756912  0.017171822           23 
  394000   0.64192463   -7.4153912    82.902418  0.017534352  0.017120538           12 
  395000   0.65611694   -7.4468513    82.855804  0.017480127  0.017069202           17 
  396000   0.64817464   -7.4350671    82.870094  0.017438993  0.017018182           16 
  397000   0.63607036   -7.4399483    83.058689  0.017434653  0.016967393           20 
  398000   0.63520567   -7.4327738    82.984603  0.017375336  0.016916844           13 
  399000   0.63063165   -7.4379999    82.920404   0.01731838  0.016866429           14 
  400000   0.61892457   -7.4458096    83.075051  0.017307302  0.016816174           23 
  401000   0.62112838    -7.440552    83.138997  0.017277431  0.016766266           22 
  402000   0.62482416   -7.4601169    83.207409  0.017248634  0.016716591           43 
  403000   0.61861166    -7.460634    83.084389  0.017180395  0.016667074           45 
  404000   0.61833495   -7.4707474    83.242807  0.017170546   0.01661754           24 
  405000   0.61445761   -7.4523542     83.10009  0.017098784  0.016568185           26 
  406000   0.63405882   -7.4577087    83.197458  0.017076654  0.016518908           28 
  407000   0.61803992   -7.4547711    83.183905  0.017031922  0.016469701           33 
  408000     0.627204   -7.4673557     83.10994  0.016975069  0.016420497           36 
  409000   0.58990749   -7.4876067    82.998322  0.016910824  0.016371333           45 
  410000    0.6153319   -7.4823489    83.225777  0.016915808  0.016322381           67 
  411000   0.60995887   -7.4878206    83.074535  0.016843985  0.016273437           44 
  412000   0.62024843   -7.5184266     83.18259  0.016824957  0.016224605           36 
  413000   0.60910526   -7.5084533    82.916284  0.016730485   0.01617571           48 
  414000   0.59884749   -7.5045998    83.044804  0.016715943  0.016126995           37 
  415000   0.61307208   -7.4991072    83.123001  0.016691366  0.016078392           57 
  416000   0.59187824   -7.4983023    83.012093  0.016629025  0.016029776           30 
  417000   0.59379399   -7.5068263    82.955488  0.016577835  0.015981167           44 
  418000   0.60652505   -7.5233901    82.945157  0.016536116  0.015932679           35 
  419000   0.60345129   -7.5231292    82.971725  0.016501934  0.015884359           41 
  420000   0.59231018   -7.5332748    83.115541  0.016491179  0.015836249           61 
  421000    0.5837419   -7.5354812    82.704666  0.016370678  0.015788167           38 
  422000    0.5850469    -7.538652     82.80176  0.016351058  0.015740098           47 
  423000   0.59053292   -7.5294734    82.988222  0.016349138   0.01569219           48 
  424000   0.59491737   -7.5386407    83.185651  0.016349381  0.015644543           79 
  425000   0.58914615   -7.5410895    83.071215  0.016288474  0.015597202           46 
  426000   0.59080817   -7.5144184    82.848345   0.01620664  0.015549816           55 
  427000   0.58001994   -7.5397382    82.906334  0.016180003   0.01550272           61 
  428000    0.5761689   -7.5670698    82.975364  0.016155639  0.015455787           63 
  429000   0.58531982   -7.5408025    82.944771  0.016112038  0.015408794           58 
  430000   0.58223215   -7.5475965     82.80341  0.016047172  0.015361953           72 
  431000   0.58341385   -7.5504149    82.945062  0.016037328   0.01531527           71 
  432000   0.57762397   -7.5467256    82.795724  0.015971397  0.015268709           81 
  433000   0.56314398   -7.5482208    82.708347  0.015917696  0.015222225           71 
  434000   0.57259868   -7.5534942    82.987081  0.015934539  0.015175987          146 
  435000   0.56886766   -7.5510575    82.888752  0.015879071  0.015129791          104 
  436000   0.56405693   -7.5688722    82.928697  0.015850286  0.015083672           81 
  437000   0.56850502   -7.5460953    82.844305  0.015797922  0.015037734           67 
  438000   0.55665562   -7.5585754    82.990981   0.01578976  0.014992093          149 
  439000   0.57874209   -7.5559714    82.902098  0.015736921   0.01494657           66 
  440000   0.57432152   -7.5660379     82.87182   0.01569542  0.014901229          105 
  441000   0.56639309    -7.570463    82.935213  0.015671809  0.014855899          144 
  442000   0.56309311   -7.5711908    82.805026  0.015611807  0.014810736           98 
  443000   0.54896975   -7.5622861     82.81427  0.015578305  0.014765813          185 
  444000   0.55945207   -7.5750007    83.020635  0.015581951  0.014720935          101 
  445000    0.5646209   -7.5759549    82.896818  0.015523749  0.014676172          159 
  446000   0.55606254   -7.5711326    83.015162  0.015511054  0.014631561          102 
  447000   0.56811612   -7.5798578    82.719175  0.015421174  0.014587069          163 
  448000   0.54387095   -7.5977681    82.802425  0.015402237    0.0145427          115 
  449000   0.55331173   -7.6083359    82.895384  0.015385186  0.014498376          159 
  450000   0.55274717   -7.6136363    82.755645  0.015325119  0.014454185          146 
  451000   0.54172849   -7.5810835    82.729313  0.015286274  0.014410271          133 
  452000   0.53510545   -7.6046983    83.046958  0.015311017  0.014366498          136 
  453000   0.54611953   -7.6219716    82.838929  0.015238949   0.01432292          119 
  454000   0.53870252   -7.6227723    82.766808  0.015192145  0.014279491          185 
  455000    0.5354395   -7.6258852    82.953216  0.015192897  0.014236103          165 
  456000   0.53854172   -7.6101045    82.840609     0.015139  0.014192819          114 
  457000   0.53589836   -7.6383702    82.684609  0.015077427  0.014149604          147 
  458000   0.54124841   -7.6152626    82.863739    0.0150771  0.014106575          155 
  459000   0.51762252   -7.6220345    82.632398  0.015002251  0.014063813          130 
  460000    0.5298385   -7.6185885    82.844391  0.015008042   0.01402123          114 
  461000   0.53519889   -7.6306411    82.978407  0.014999712  0.013978738          132 
  462000   0.53099016    -7.651438    82.874898  0.014948575  0.013936387          139 
  463000   0.51379044   -7.6390569    82.687237  0.014882512  0.013894136          130 
  464000   0.52174912   -7.6326263    82.764557  0.014864324  0.013852008          135 
  465000    0.5325239   -7.6516348    82.788996  0.014836738  0.013810095          118 
  466000   0.52621501   -7.6443698    82.850852  0.014815961  0.013768303           89 
  467000    0.5150226    -7.634919    82.818478  0.014778458  0.013726716          111 
  468000   0.51948887   -7.6474709    82.822296   0.01474756  0.013685173           97 
  469000   0.53288896   -7.6626389    82.901215  0.014730138  0.013643722           94 
  470000   0.52461129   -7.6609829    82.718768  0.014666448  0.013602352           98 
  471000   0.50749255   -7.6554405    82.848056  0.014658184  0.013561147          113 
  472000   0.51999497   -7.6702098    82.907794  0.014637675   0.01352017          154 
  473000   0.51688539   -7.6740997     82.72002  0.014573647  0.013479282           99 
  474000   0.50998222   -7.6652482    82.857922  0.014567145   0.01343852          115 
  475000   0.51060554   -7.6684172    82.662963  0.014502274  0.013397832           98 
  476000   0.50868778   -7.6824176    82.693461  0.014477147  0.013357344          109 
  477000   0.50810889   -7.6664716    82.635684  0.014436702  0.013316964          106 
  478000   0.50234747   -7.6902864    82.636401  0.014406625  0.013276749           95 
  479000    0.4985696   -7.6712052    82.753037   0.01439684  0.013236662          148 
  480000   0.50407112   -7.6716555     82.74349  0.014365189  0.013196732           89 
  481000   0.48372114   -7.6655088    82.789991   0.01434338  0.013157008           96 
  482000   0.50400018   -7.7001958    82.682905  0.014295108  0.013117358          108 
  483000   0.50588065   -7.7093435    82.676897  0.014264475  0.013077807          155 
  484000   0.49666817   -7.7105409    82.675308  0.014234729  0.013038388          109 
  485000   0.48727808   -7.6916932    82.611884  0.014194482   0.01299903          111 
  486000   0.48517357    -7.686355    82.661061  0.014173707   0.01295988          109 
  487000   0.48050128   -7.6879832    82.504219  0.014117765   0.01292083          127 
  488000   0.48604924   -7.7175387    82.612857  0.014107387  0.012881884          105 
  489000   0.48435049   -7.7046789    82.497936  0.014058953  0.012842993          109 
  490000   0.48418979   -7.7145976    82.608958  0.014049142  0.012804371          105 
  491000   0.47781478   -7.7334479    82.534262  0.014007852  0.012765807          129 
  492000   0.48611112   -7.7169551    82.566198   0.01398479  0.012727416          136 
  493000   0.47801911   -7.7144199    82.354333  0.013920611  0.012689095          132 
  494000   0.47584336   -7.7360113    82.630633  0.013939041  0.012650927          134 
  495000   0.47815232   -7.7194601    82.517628  0.013891857  0.012612882          159 
  496000   0.47822631   -7.7346306    82.308709  0.013828748  0.012574922          154 
  497000   0.47581107   -7.7181077    82.485868  0.013830628  0.012537171          115 
  498000   0.47625854   -7.7312349     82.56081  0.013815397  0.012499495          129 
  499000   0.46171656   -7.7304659    82.386832  0.013758656  0.012461923          104 
  500000   0.46461933   -7.7466661    82.626572  0.013771095  0.012424561          130 
  501000   0.47821625   -7.7300841     82.54122  0.013729411  0.012387339          107 
  502000    0.4643167   -7.7341102    82.475367   0.01369113   0.01235026          101 
  503000   0.45960645   -7.7494812    82.487277  0.013665884  0.012313243          129 
  504000   0.47404287   -7.7304143    82.448669  0.013632386  0.012276401          113 
  505000   0.45797688   -7.7558699    82.472102  0.013609258  0.012239682          158 
  506000   0.46440315   -7.7480275    82.500955  0.013587114  0.012203089          137 
  507000   0.45578932   -7.7521985    82.320417  0.013530641  0.012166623          120 
  508000    0.4640527   -7.7531112    82.439237  0.013523497  0.012130291          128 
  509000   0.45288109   -7.7388511    82.546369  0.013514468  0.012094063          136 
  510000   0.46455457   -7.7627128    82.510289  0.013482073   0.01205802          127 
  511000   0.45827309    -7.757564    82.331385  0.013426514  0.012022066          250 
  512000   0.45830515   -7.7545825    82.431457  0.013416578  0.011986237          121 
Loop time of 1094.98 on 48 procs for 500000 steps with 4000 atoms

Performance: 78905.325 tau/day, 456.628 timesteps/s
99.4% CPU use with 48 MPI tasks x no OpenMP threads

MPI task timing breakdown:
Section |  min time  |  avg time  |  max time  |%varavg| %total
---------------------------------------------------------------
Pair    | 67.523     | 71.606     | 74.972     |  20.1 |  6.54
Neigh   | 6.6524     | 6.9672     | 7.2539     |   3.8 |  0.64
Comm    | 61.641     | 65.723     | 70.694     |  26.0 |  6.00
Output  | 0.91077    | 0.91139    | 0.92084    |   0.1 |  0.08
Modify  | 929.1      | 936.5      | 940.4      |   8.5 | 85.53
Other   |            | 13.27      |            |       |  1.21

Nlocal:        83.3333 ave          91 max          76 min
Histogram: 3 3 4 4 10 4 11 7 1 1
Nghost:        1812.04 ave        1833 max        1793 min
Histogram: 2 2 6 3 9 13 6 5 1 1
Neighs:        11143.8 ave       12407 max        9521 min
Histogram: 2 1 1 5 11 7 9 6 2 4
FullNghs:      22288.2 ave       24176 max       20059 min
Histogram: 2 3 3 4 8 8 5 12 1 2

Total # of neighbors = 1069835
Ave neighs/atom = 267.45875
Neighbor list builds = 26980
Dangerous builds = 0

#clear
#
#next RN
#
#jump SELF
Total wall time: 0:18:18
