
units lj                  # Use reduced LJ style units
atom_style atomic         # Uncharged point particles
atom_modify map hash      # Needed for indexing of clusters etc
                          # Used to be able to find where atoms are in relation to each other.

lattice fcc 1.0 spacing 1 1 1
Lattice spacing in x,y,z = 1.5874011 1.5874011 1.5874011
region box block 0 10 0 10 0 10 units lattice
create_box 2 box
Created orthogonal box = (0.0000000 0.0000000 0.0000000) to (15.874011 15.874011 15.874011)
  3 by 4 by 4 MPI processor grid
create_atoms 1 box
Created 4000 atoms
  using lattice units in orthogonal box = (0.0000000 0.0000000 0.0000000) to (15.874011 15.874011 15.874011)
  create_atoms CPU = 0.002 seconds
set type 1 type/fraction 2 0.19 78393
Setting atom values ...
  784 settings made for type/fraction
mass 1 1.0
mass 2 1.0
pair_style lj/cut  3.5
pair_modify tail  yes
pair_coeff 1  1  1.0  1.0   # Intearaction between 1 and 1 set with epsilon = 1 and sigma = 1
pair_coeff 1  2  1.5  0.8
pair_coeff 2  2  0.5  0.88

write_data data.0
System init for write_data ...
Neighbor list info ...
  update every 1 steps, delay 10 steps, check yes
  max neighbors/atom: 2000, page size: 100000
  master list distance cutoff = 3.8
  ghost atom cutoff = 3.8
  binsize = 1.9, bins = 9 9 9
  1 neighbor lists, perpetual/occasional/extra = 1 0 0
  (1) pair lj/cut, perpetual
      attributes: half, newton on
      pair build: half/bin/atomonly/newton
      stencil: half/bin/3d
      bin: standard
WARNING: Not all mixed pair coeffs generated from mixing. Use write_data with 'pair ij' option to store all pair coeffs. (../write_data.cpp:312)


#############################
#   M E L T   S Y S T E M   #
#############################

velocity all create 2.4 6229865 mom yes dist gaussian # Assign velocities
                                                    # Temperature 2.4, random number seed, zero linear momentum
                                                                                # Gaussian distribution

timestep 0.002   # simulation timestep
thermo 1000       # output thermodynamic data every 1000 steps bf 100

# Define a fix  in this case with index 1 applied to all
# particles in the simulation. This fix is for simulations
# in the anisotropic NPT ensemble. Note that we use the MTK
# correction.
fix 1 all npt temp 2.4 2.4 0.1 iso 5.68 5.68 0.5 mtk yes tchain 5 pchain 5 # Use NPT ensemble
                                                                         # Set temperature and pressure and damping
                                                                         # Numbers of thermostats in chain and in barostat
run 10000          # run for 10000 steps
Per MPI rank memory allocation (min/avg/max) = 3.642 | 3.644 | 3.648 Mbytes
Step Temp E_pair E_mol TotEng Press Volume 
       0          2.4   -7.1181064            0   -3.5190064   -3.5570023         4000 
    1000    2.4119892   -4.7757686            0   -1.1586893    5.5588329    4547.0093 
    2000    2.3946132   -4.7789385            0   -1.1879166    5.5973435    4545.2248 
    3000     2.411019   -4.8050908            0   -1.1894665    5.8127401    4509.0414 
    4000     2.430762   -4.7822151            0   -1.1369837    5.9271761    4508.6619 
    5000    2.4515934   -4.8048605            0   -1.1283897    5.5871992    4533.4577 
    6000    2.4062837   -4.8071747            0   -1.1986515    5.5987368    4519.6738 
    7000    2.3962376   -4.8129468            0    -1.219489    5.7403262    4499.0436 
    8000    2.3904278    -4.806948            0   -1.2222027     5.781706    4502.5876 
    9000    2.3770867   -4.8069911            0   -1.2422524    5.7234142    4504.1703 
   10000    2.4058285   -4.7827547            0   -1.1749142    5.5332734      4550.47 
Loop time of 2.32049 on 48 procs for 10000 steps with 4000 atoms

Performance: 744671.886 tau/day, 4309.444 timesteps/s
99.6% CPU use with 48 MPI tasks x no OpenMP threads

MPI task timing breakdown:
Section |  min time  |  avg time  |  max time  |%varavg| %total
---------------------------------------------------------------
Pair    | 0.94767    | 1.029      | 1.1106     |   3.3 | 44.35
Neigh   | 0.19372    | 0.20521    | 0.22378    |   1.4 |  8.84
Comm    | 0.72822    | 0.82405    | 0.92747    |   4.8 | 35.51
Output  | 0.00024119 | 0.00024627 | 0.00031218 |   0.0 |  0.01
Modify  | 0.20191    | 0.24733    | 0.28968    |   4.9 | 10.66
Other   |            | 0.01462    |            |       |  0.63

Nlocal:        83.3333 ave          93 max          74 min
Histogram: 2 4 5 5 7 9 9 3 1 3
Nghost:        1505.75 ave        1544 max        1475 min
Histogram: 4 4 5 7 8 8 6 1 3 2
Neighs:        8389.40 ave        9813 max        7261 min
Histogram: 4 4 4 9 9 5 6 3 3 1

Total # of neighbors = 402691
Ave neighs/atom = 100.67275
Neighbor list builds = 908
Dangerous builds = 228

# Equilibrate just above the melting temperature to avoid step fn in T

fix 1 all npt temp 1.25 1.25 0.1 iso 5.68 5.68 0.5 mtk yes tchain 5 pchain 5
run 2000
Per MPI rank memory allocation (min/avg/max) = 3.642 | 3.645 | 3.649 Mbytes
Step Temp E_pair E_mol TotEng Press Volume 
   10000    2.4058285   -4.7827547            0   -1.1749142    5.5332734      4550.47 
   11000     1.252673   -6.4906013            0   -4.6120615    5.8577836    3686.2133 
   12000    1.2406661   -6.5308244            0   -4.6702904     5.694616    3679.5308 
Loop time of 0.504361 on 48 procs for 2000 steps with 4000 atoms

Performance: 685224.020 tau/day, 3965.417 timesteps/s
99.6% CPU use with 48 MPI tasks x no OpenMP threads

MPI task timing breakdown:
Section |  min time  |  avg time  |  max time  |%varavg| %total
---------------------------------------------------------------
Pair    | 0.21939    | 0.2421     | 0.27678    |   2.3 | 48.00
Neigh   | 0.031961   | 0.034458   | 0.03983    |   0.8 |  6.83
Comm    | 0.13473    | 0.17435    | 0.2002     |   3.3 | 34.57
Output  | 5.035e-05  | 5.2064e-05 | 6.7863e-05 |   0.0 |  0.01
Modify  | 0.043133   | 0.04883    | 0.057252   |   1.6 |  9.68
Other   |            | 0.004568   |            |       |  0.91

Nlocal:        83.3333 ave          92 max          76 min
Histogram: 1 7 2 10 6 10 7 1 3 1
Nghost:        1735.38 ave        1764 max        1710 min
Histogram: 3 2 8 2 9 10 8 3 2 1
Neighs:        10359.8 ave       11428 max        9213 min
Histogram: 3 6 2 4 6 7 7 7 5 1

Total # of neighbors = 497270
Ave neighs/atom = 124.31750
Neighbor list builds = 143
Dangerous builds = 10

#############################
# L I N E A R  Q U E N C H  #
#############################

# Define solid atoms. This closely follows ten Wolde  Ruiz-Montero and Frenkel  Faraday Discuss  1996  104  93-110
# Compute components of the per-atom q6 vector
compute q6 all orientorder/atom degrees 1 6 components 6 nnn NULL cutoff 1.3 # compute the Q6 parameter.
                                                                             # Use all neighbours within 1.3 unit cell.

# get number of connections
compute coord_number all coord/atom orientorder q6 0.5

# An atom is solid if it has 8 or more connections (of a possible 14)
variable is_solid atom c_coord_number>=8
group solid dynamic all var is_solid    # Must be dynamic to update
dynamic group solid defined

# do clustering
compute cluster solid cluster/atom 1.3 # Create a cluster where all atoms within are solid and max 1.3 units from another member

# define chunks one chunk per cluster
compute clus_chunks solid chunk/atom c_cluster nchunk every compress yes  # Says which atoms are in which chunk

# count the size of each chunk
compute size_chunks solid property/chunk clus_chunks count


# Find the maximum entry in the vector of chunk sizes
variable max_n equal max(c_size_chunks)


# Thermo style which includes this variable
# thermo_style custom step temp pe vol v_max_n

thermo ${N}  # Print the thermo information every 100 steps
thermo 1000  

# Reset the npt fix at a lower temperature (below freezing)
fix 1  all npt temp  ${temp} ${temp}  0.1  iso  5.68  5.68  0.5  mtk yes tchain  5  pchain  5
fix 1  all npt temp  0.45 ${temp}  0.1  iso  5.68  5.68  0.5  mtk yes tchain  5  pchain  5
fix 1  all npt temp  0.45 0.45  0.1  iso  5.68  5.68  0.5  mtk yes tchain  5  pchain  5

dump dmp2 all dcd ${N} traj.dcd
dump dmp2 all dcd 1000 traj.dcd


compute msd all msd com yes
variable twopoint equal c_msd[4]/6/(step*dt+1.0e-6)
fix 9 all vector 10 c_msd[4]
variable fit equal slope(f_9)/6/(10*dt)
thermo_style custom step temp pe c_msd[4] v_twopoint v_fit v_max_n

fix 1 all npt temp 1.25 ${temp} 0.1 iso 5.68 5.68 0.5 mtk yes tchain 5 pchain 5
fix 1 all npt temp 1.25 0.45 0.1 iso 5.68 5.68 0.5 mtk yes tchain 5 pchain 5
run 500000 # 5000000  # Run for this many steps
Neighbor list info ...
  update every 1 steps, delay 10 steps, check yes
  max neighbors/atom: 2000, page size: 100000
  master list distance cutoff = 3.8
  ghost atom cutoff = 3.8
  binsize = 1.9, bins = 9 9 9
  4 neighbor lists, perpetual/occasional/extra = 1 3 0
  (1) pair lj/cut, perpetual
      attributes: half, newton on
      pair build: half/bin/atomonly/newton
      stencil: half/bin/3d
      bin: standard
  (2) compute orientorder/atom, occasional
      attributes: full, newton on
      pair build: full/bin/atomonly
      stencil: full/bin/3d
      bin: standard
  (3) compute coord/atom, occasional
      attributes: full, newton on
      pair build: full/bin/atomonly
      stencil: full/bin/3d
      bin: standard
  (4) compute cluster/atom, occasional
      attributes: full, newton on
      pair build: full/bin/atomonly
      stencil: full/bin/3d
      bin: standard
Per MPI rank memory allocation (min/avg/max) = 9.772 | 9.778 | 9.784 Mbytes
Step Temp PotEng c_msd[4] v_twopoint v_fit v_max_n 
   12000    1.2406661   -6.5308244 7.1664069e-30 4.9766712e-32 8.3333333e+20            2 
   13000    1.2712349   -6.4900098   0.53753383 0.0034457295   0.04419695            4 
   14000    1.2322414   -6.5414365    1.1077985 0.0065940386  0.046284245            2 
   15000     1.241296   -6.5131236    1.6023446 0.0089019144  0.044578086            2 
   16000    1.2390007   -6.5497695    2.1116484  0.010998168  0.043724797            1 
   17000    1.2217404   -6.5119282    2.6027458  0.012758557  0.042897364            1 
   18000    1.2398412   -6.5322184    3.1907556  0.014772016  0.043346814            2 
   19000      1.25769    -6.541547    3.7377234  0.016393523  0.043543153            2 
   20000    1.2394809    -6.577544    4.3464013  0.018110005  0.044197595            2 
   21000    1.2524189   -6.5616892    4.8864101  0.019390516  0.044657011            2 
   22000    1.2289503   -6.5525565    5.4204168  0.020531881  0.045016337            3 
   23000    1.2374878   -6.5514362    5.8645207  0.021248263  0.044948348            4 
   24000     1.245613   -6.5284526    6.4274088  0.022317391  0.044763035            2 
   25000    1.2255609   -6.5618916    6.8355568  0.022785189  0.044569525            1 
   26000    1.2223664   -6.5256899    7.3366427   0.02351488  0.044271044            1 
   27000    1.2010053    -6.577757    7.8084545  0.024100168  0.043981502            1 
   28000    1.2360139   -6.5733871    8.3199681  0.024761809  0.043723352            1 
   29000     1.211876   -6.5833701    8.9355742  0.025676937  0.043642291            4 
   30000    1.2125055   -6.6141072    9.5036244  0.026398956  0.043651208            1 
   31000    1.2240188   -6.5498097    9.8898574  0.026585638  0.043618671            3 
   32000    1.2032089    -6.575833    10.313987   0.02685934   0.04344946            3 
   33000    1.2246861   -6.5923942    10.802177  0.027278224  0.043235861            1 
   34000    1.1923575   -6.5923272    11.236459  0.027540341  0.042984299            1 
   35000    1.2225756   -6.5257468    11.827033  0.028159601  0.042804601            2 
   36000    1.2366496   -6.5857228    12.286819   0.02844171  0.042688241            6 
   37000    1.2057293   -6.5999936    12.788634   0.02880323    0.0425701            4 
   38000    1.1941108   -6.6344071    13.447849  0.029490896  0.042531277            2 
   39000    1.1975694   -6.6346367    13.960497  0.029830121  0.042540906            1 
   40000    1.1997817   -6.6029351    14.343414  0.029882112  0.042515206            1 
   41000    1.2008221   -6.6021545    14.700296  0.029878649  0.042398257            1 
   42000    1.1946353   -6.5873416    15.291957  0.030341185  0.042277551            1 
   43000    1.2136138   -6.6127064    15.725213  0.030475218  0.042193939            2 
   44000    1.1982685   -6.6110202    16.223255  0.030725862  0.042102554            2 
   45000    1.1970394   -6.6076089    16.762993   0.03104258  0.042036021            3 
   46000    1.1888489   -6.6345641    17.145465  0.031060624  0.041956834            2 
   47000    1.2072976   -6.5853934    17.596946  0.031200258  0.041884668            4 
   48000    1.2042578   -6.6571781    18.148967  0.031508623  0.041805994            1 
   49000    1.1998444   -6.6356653    18.640676   0.03170183  0.041730109            4 
   50000     1.228972   -6.6249636    19.109567  0.031849277  0.041670682            2 
   51000    1.1679802   -6.6009305    19.726272  0.032232471  0.041642826            3 
   52000    1.1824492   -6.6383027    20.107095  0.032222908  0.041608303            2 
   53000    1.1908651   -6.6118697    20.554975  0.032319142  0.041565687            3 
   54000    1.1707755   -6.6532551    20.819436  0.032128758  0.041476128            3 
   55000    1.1994368   -6.6608545    21.319088  0.032301648  0.041377726            1 
   56000    1.1746379   -6.7090175    21.682783  0.032266045  0.041277122            1 
   57000    1.2082149   -6.6586672    22.209195  0.032469584  0.041187099            3 
   58000    1.1632419   -6.6665661    22.588022  0.032454055  0.041087011            3 
   59000    1.1583035   -6.7109314     23.08545  0.032606568  0.040981084            1 
   60000    1.2078518   -6.6995709    23.425986  0.032536091  0.040879722            2 
   61000    1.1980234   -6.6642981    23.851136  0.032583519  0.040772777            1 
   62000    1.1683499   -6.6716451     24.35766   0.03273879  0.040669649            9 
   63000    1.1472191   -6.6496218    24.773746  0.032769505   0.04055502            3 
   64000    1.1870551   -6.6290749    25.257162   0.03288693  0.040451356            2 
   65000    1.1572187   -6.6951827     25.62308  0.032850102  0.040353066            2 
   66000    1.1718525   -6.6755033    26.205879   0.03308823  0.040260231            4 
   67000    1.1762931   -6.6850617    26.522844  0.032988612   0.04017679            6 
   68000    1.1585288   -6.6834737     26.77985  0.032818444  0.040078222            6 
   69000    1.1583983   -6.6772438    27.111575  0.032743448  0.039964734            1 
   70000    1.1643926   -6.6640092    27.803178  0.033099021  0.039871153            4 
   71000    1.1403824   -6.7049858    28.152735  0.033043117  0.039779562            2 
   72000     1.162669   -6.7133915    28.399866  0.032870215  0.039681705            3 
   73000    1.1532578   -6.6801498     28.92873  0.033023664  0.039574832            2 
   74000    1.1429777   -6.7153855    29.517305  0.033240208   0.03948184            3 
   75000     1.147806   -6.6989879    29.660601  0.032956223  0.039386221            2 
   76000    1.1432163   -6.7216033     30.02766  0.032925066  0.039278008            2 
   77000    1.1424516   -6.7144341    30.305776  0.032798459  0.039168061            3 
   78000     1.117126   -6.6957447    30.698475  0.032797516  0.039045602            3 
   79000    1.1251633   -6.7132235    31.130906  0.032838508  0.038925742            2 
   80000    1.1313248   -6.7351036    31.662261  0.032981521  0.038820044            1 
   81000    1.1256019   -6.6821989    32.078531  0.033002604  0.038722584            2 
   82000    1.1501895   -6.7122282    32.411608  0.032938626  0.038622076            3 
   83000    1.1358802   -6.7268139    32.661887  0.032793059  0.038521147            2 
   84000    1.1258366   -6.7443062     33.13404  0.032871072  0.038415857            3 
   85000    1.1424668   -6.7348351    33.470866  0.032814574  0.038303338            3 
   86000    1.1339037   -6.7527327    33.735679  0.032689611  0.038191653            2 
   87000    1.1407827   -6.7710204    34.156003  0.032716477  0.038084723            1 
   88000    1.1460546   -6.7577709    34.571097  0.032737781  0.037979154            3 
   89000      1.12263   -6.7461128    34.854243  0.032635059  0.037870905            1 
   90000     1.134721   -6.7821333    35.184203  0.032577966  0.037759834            2 
   91000    1.0997104    -6.767094    35.368796  0.032389007  0.037648558            2 
   92000    1.1233408   -6.7426393    35.719701  0.032354802  0.037529931            4 
   93000    1.1239345   -6.7752631    36.166847  0.032407569  0.037408347            4 
   94000    1.0817388   -6.7774256    36.552271  0.032404496  0.037294869            1 
   95000    1.1087296   -6.7144675     36.89204  0.032361439  0.037184079            1 
   96000      1.10326   -6.7797331    37.348534  0.032420602  0.037073788            3 
   97000    1.1033604   -6.7857432    37.717175  0.032403072  0.036968769            2 
   98000    1.0963491   -6.7404201    37.909864  0.032236278  0.036861175            1 
   99000    1.1227248   -6.7619038    38.203173  0.032157553  0.036746078            1 
  100000    1.1101818   -6.7803041    38.297339  0.031914449  0.036631064            2 
  101000    1.1120671   -6.8104957    38.810521  0.032021882  0.036515049            3 
  102000    1.1214544   -6.7634279    39.130735  0.031969555  0.036403672            3 
  103000    1.1353983   -6.7982794    39.373045  0.031855215   0.03628981            3 
  104000    1.0908236   -6.7854683    39.868357  0.031945799  0.036178368            2 
  105000    1.0950443   -6.8008543    40.178863  0.031887986  0.036071798            5 
  106000    1.1203589   -6.7762451    40.371516  0.031738613  0.035963307            2 
  107000    1.1043756   -6.8305764    40.718361  0.031712119  0.035851591            2 
  108000     1.092015   -6.8281886    40.997746  0.031634063  0.035738244            5 
  109000    1.1030617   -6.8050704    41.262228  0.031546045  0.035626141            3 
  110000    1.0842334   -6.8382789    41.719461  0.031605652  0.035515511            3 
  111000    1.1077661   -6.8242019    41.941728  0.031487783  0.035408579            2 
  112000    1.1028992   -6.8149993    42.570904  0.031674779  0.035307441            2 
  113000     1.106798   -6.8403383    42.876937   0.03162016   0.03521567            4 
  114000    1.0989582    -6.863368    43.243517  0.031610758  0.035124712            2 
  115000    1.0823574    -6.831101    43.583394   0.03158217  0.035030818            3 
  116000    1.0797362   -6.8560162    43.915643  0.031548594  0.034942196            2 
  117000    1.0842139   -6.8663582    44.361701  0.031596653  0.034859212            3 
  118000    1.1099911   -6.7851395     45.10939  0.031856914  0.034785314            3 
  119000    1.0709862   -6.8575501    45.242635  0.031682517  0.034716094            1 
  120000    1.0627441   -6.8476084    45.531493  0.031619093   0.03464394            2 
  121000    1.0902093   -6.8140525    45.837826  0.031568751  0.034568232            2 
  122000    1.0396626   -6.8542327    46.233717  0.031580407  0.034494362            2 
  123000     1.064307   -6.8561161    46.486161  0.031494689  0.034419598            3 
  124000    1.0653797   -6.8878432    46.648551  0.031349833  0.034343295            3 
  125000    1.0765648   -6.8666039    47.172679  0.031448453  0.034270328            1 
  126000    1.0693137   -6.8658617     47.56264  0.031456773  0.034197609            2 
  127000    1.0441691   -6.8801957    47.775939  0.031349041  0.034126087            2 
  128000    1.0697187   -6.8982335    48.040494  0.031276363   0.03405755            4 
  129000    1.0496698   -6.8528152      48.6843  0.031449806  0.033992838            3 
  130000    1.0599259   -6.8987686    49.065374  0.031452163  0.033928101            1 
  131000    1.0574229   -6.8856459     49.36287  0.031401316  0.033868603            2 
  132000    1.0536096   -6.9186578     49.60045  0.031313415  0.033807994            4 
  133000    1.0708072   -6.8961297     49.64306  0.031104674  0.033744057            3 
  134000    1.0700916   -6.9092636    49.757313  0.030943602  0.033669339            4 
  135000    1.0371746   -6.8608126    50.202553   0.03098923  0.033593478            2 
  136000     1.031393   -6.9057882    50.420956  0.030895194   0.03351805            2 
  137000    1.0732506   -6.9447206     50.75572  0.030873309  0.033442959            6 
  138000     1.043972   -6.9177626    51.051815  0.030828391  0.033368136            3 
  139000    1.0543852   -6.9360561    51.451722  0.030846356  0.033295063            5 
  140000    1.0661269   -6.9015954    51.593505   0.03071042  0.033222264            3 
  141000    1.0344068   -6.9339607    51.707185  0.030559802  0.033148013            7 
  142000    1.0298268   -6.9434786    52.028324  0.030533054  0.033067512            1 
  143000      1.04944    -6.952484    52.226506  0.030435027  0.032985389            3 
  144000    1.0474012   -6.9439907    52.588208   0.03043299  0.032904807            4 
  145000     1.014315   -6.9213269    52.659396   0.03026402  0.032822479            3 
  146000    1.0388106   -6.9269872    52.943984  0.030219169  0.032741016            1 
  147000    1.0150703   -6.9473831    53.303556  0.030217435  0.032661972            3 
  148000    1.0439381   -6.9553191    53.605428  0.030183236  0.032584336            2 
  149000    1.0285483   -6.9646342    53.824759  0.030103333  0.032508147            3 
  150000    1.0122682   -6.9409454    54.216903  0.030120502  0.032430074            1 
  151000    1.0430475   -6.9666182    54.321319  0.029978653  0.032349138            3 
  152000    1.0268787   -6.9714773    54.588837   0.02992809  0.032265011            1 
  153000    1.0092333   -6.9639234    54.736722   0.02981303  0.032181913            3 
  154000    1.0306397   -6.9886337    54.916569  0.029716758  0.032097771            2 
  155000    1.0144797   -6.9670061    55.481769  0.029828908  0.032015401            2 
  156000    1.0357798   -6.9571941    55.514724  0.029655301  0.031935212            3 
  157000    1.0270415   -6.9739773    55.612104  0.029518102  0.031854131            2 
  158000    1.0264495   -6.9932595    56.021857  0.029547393  0.031773436            4 
  159000    1.0166559   -6.9899142    56.438507   0.02957993  0.031694715            3 
  160000    1.0232135   -6.9979221    56.436515  0.029394018  0.031616114            3 
  161000    1.0412455   -6.9710763    57.040492  0.029524064  0.031540202            1 
  162000    1.0090474   -6.9980623    57.152788  0.029399582  0.031466101            2 
  163000   0.99062941   -6.9793401    57.276064  0.029282241   0.03139057            2 
  164000   0.99396428   -7.0072624    57.644163  0.029290733  0.031313367            5 
  165000    1.0031191   -7.0070842     57.86233  0.029223399  0.031235316            8 
  166000   0.99359961   -7.0000781    57.906356  0.029069456  0.031156626            7 
  167000   0.98961842   -7.0061406    57.988773  0.028936513  0.031077377            1 
  168000   0.99630057   -7.0035407     58.36703    0.0289519  0.030994875            2 
  169000    1.0158337   -7.0131764    58.581756  0.028886467  0.030913205            2 
  170000   0.97173436   -7.0237707    58.644966  0.028747532  0.030830641            5 
  171000   0.99950978   -6.9998629    58.859931  0.028684177  0.030745542            4 
  172000   0.98282653    -6.982305    59.149171  0.028657544  0.030660217            1 
  173000   0.99871292    -7.000226    59.181466   0.02850745  0.030575077            5 
  174000    1.0042507   -7.0344217    59.603457  0.028545717  0.030491273            2 
  175000   0.99049801   -7.0216721    59.957981  0.028551419  0.030410249            2 
  176000   0.97503515   -7.0365792    60.081443  0.028447653  0.030327885            3 
  177000    1.0033018   -7.0100341     60.24178   0.02836242  0.030247106            4 
  178000   0.99478944   -7.0073419     60.54592  0.028345468  0.030169033            5 
  179000   0.99550186   -7.0572709    60.755933  0.028284885  0.030089446            3 
  180000    1.0057508   -6.9842174    61.007016  0.028243989  0.030011117            6 
  181000   0.98263821    -7.047956    61.271699  0.028209806  0.029931751            3 
  182000   0.95904385   -7.0769977    61.409512  0.028117908  0.029853136            6 
  183000   0.96252413    -7.091762    61.500552  0.028005716  0.029772749            2 
  184000    0.9814065     -7.07372    61.564789  0.027882604   0.02969257           11 
  185000   0.96714723    -7.084077    61.757674  0.027818772  0.029611371            5 
  186000   0.96092176    -7.057027    61.912107  0.027738399  0.029528986            3 
  187000   0.99200157   -7.0577036    62.245364  0.027738576  0.029448624            2 
  188000   0.97791586   -7.0549838    62.544082   0.02772344  0.029370491            3 
  189000   0.96106346   -7.0804637     62.70832  0.027649171  0.029292672            6 
  190000   0.95488615   -7.0880812    62.736284  0.027515914   0.02921359            2 
  191000   0.97270316   -7.0875204    63.026712  0.027498565   0.02913507            4 
  192000   0.94887919    -7.068473    63.336406   0.02748976  0.029056506            2 
  193000    0.9450887   -7.0732066    63.584225  0.027454328  0.028978556            3 
  194000   0.94652545   -7.1061949    63.452502  0.027256229  0.028900636            3 
  195000    0.9384536   -7.0750018    63.761058  0.027248315  0.028821517            5 
  196000    0.9526709   -7.0929234    64.073203  0.027242008  0.028742777            1 
  197000   0.96095934   -7.1027043    64.073444  0.027103826  0.028664522            1 
  198000   0.96092954    -7.106408    64.392057  0.027101034  0.028587614            3 
  199000   0.93791386   -7.1273745    64.338402  0.026942379  0.028509166            1 
  200000   0.94920395   -7.1293236     64.64511  0.026935462  0.028429761            1 
  201000   0.95412664   -7.1519019    64.729823  0.026836577   0.02835116            1 
  202000   0.94175665   -7.1286446    65.159056  0.026880798  0.028274912            4 
  203000   0.94089747   -7.1341691    65.494328  0.026886013  0.028200962            4 
  204000   0.94218066   -7.1635163    65.674044  0.026827632  0.028127621            2 
  205000   0.95126512   -7.1479776    65.824908  0.026758093  0.028053459            3 
  206000    0.9353133   -7.1348339    65.965574  0.026685103  0.027980741            4 
  207000   0.93961766   -7.1407196    66.254348  0.026672443  0.027907433            1 
  208000   0.96440049   -7.1431619    66.302739  0.026563597    0.0278345            6 
  209000    0.9345134   -7.1325356    66.442795  0.026492343  0.027761932            2 
  210000   0.91060497   -7.1794902     66.66804  0.026455572  0.027690425            4 
  211000   0.92573999   -7.1593237    66.842546   0.02639911  0.027618784            4 
  212000   0.91669036    -7.166309    67.081636  0.026368568  0.027546908            3 
  213000   0.92816614   -7.1727954    67.298774  0.026329724  0.027474697            5 
  214000   0.93028486   -7.1424631    67.561785  0.026309106  0.027404019            4 
  215000   0.93050133   -7.1798401    67.614245  0.026207072  0.027333673            2 
  216000   0.91766811   -7.1862165    67.947192  0.026214194  0.027264273            4 
  217000   0.91182942   -7.1945719    68.203078  0.026191658  0.027195953            5 
  218000   0.92890786   -7.1643343    68.229495  0.026081611  0.027126634            4 
  219000   0.89324344   -7.1796493    68.550931  0.026084829     0.027058            3 
  220000   0.92412844   -7.1869558    68.516578  0.025953249  0.026988714            4 
  221000   0.90367289   -7.1924877     68.66451  0.025891595  0.026919079            2 
  222000   0.90775839   -7.2041425    68.871252  0.025852572  0.026849054            2 
  223000   0.91054189   -7.1908297    68.988256  0.025780365   0.02677938            3 
  224000   0.90917053   -7.1815664    69.114199  0.025712127   0.02671034            2 
  225000    0.9117159   -7.1949644    69.306833  0.025669197  0.026640985            3 
  226000   0.90347353   -7.2092493    69.233122  0.025528437  0.026571331            2 
  227000   0.91044024   -7.2361989     69.46658  0.025501681  0.026501011            4 
  228000   0.89365289   -7.2371203    69.544895  0.025418456  0.026430712            2 
  229000   0.89851318   -7.2623372     69.69869  0.025363424  0.026359878            2 
  230000   0.90972495   -7.2285525    69.854731  0.025309685  0.026288104            4 
  231000   0.90816902   -7.1791412    70.087863  0.025284222  0.026218501            5 
  232000   0.89562795   -7.2452936    70.127913  0.025189624  0.026149182            4 
  233000   0.88595677   -7.2687836     70.35757  0.025163651  0.026079813            4 
  234000   0.90946696    -7.226006    70.646237  0.025158916  0.026011279            5 
  235000   0.89381453   -7.2076377    70.855071  0.025125912  0.025944068            4 
  236000    0.8867822   -7.2308417    70.889129  0.025031472   0.02587581            3 
  237000   0.86586874   -7.2393142    70.846519  0.024910872  0.025807239            3 
  238000   0.88377041   -7.2470881    70.981453   0.02485345  0.025737824            3 
  239000   0.87113747   -7.2559973    70.990171    0.0247525  0.025668841            3 
  240000   0.89393197   -7.2326165    71.487076  0.024821901  0.025600911            2 
  241000   0.88575951   -7.2407645     71.47854  0.024715954  0.025533003            4 
  242000   0.87163533   -7.2694186    71.566014  0.024643944  0.025464617            4 
  243000   0.86315846   -7.2771788     71.84937  0.024639701  0.025397064            4 
  244000   0.88649405   -7.3069121     71.77932  0.024514795  0.025329396            6 
  245000   0.85888375   -7.2751944     72.18785   0.02455369  0.025262342            6 
  246000   0.88674498   -7.2862013    72.236122  0.024470231  0.025194688            2 
  247000   0.86984826   -7.2707864    72.189918  0.024355573  0.025126838            3 
  248000   0.86708482   -7.2995114    72.078872  0.024220051  0.025058676            6 
  249000   0.88681344   -7.3158871    72.359029  0.024216543   0.02499103            4 
  250000   0.85436802   -7.2948961    72.542501  0.024180834  0.024924054            4 
  251000   0.88861048   -7.2543606    72.600818  0.024103857  0.024857023            3 
  252000   0.84211855   -7.2887767    72.909557  0.024110303  0.024789902            5 
  253000   0.85792424   -7.3017587    72.868662  0.024001535  0.024723053            6 
  254000    0.8613139   -7.3070131     72.92152  0.023924383  0.024655029            6 
  255000   0.87917933   -7.3071427    73.151643  0.023905766  0.024588096            2 
  256000   0.85461162   -7.3094799    73.209299  0.023831152  0.024521391            6 
  257000   0.84674429   -7.3061718    73.503425  0.023833795  0.024454542            9 
  258000   0.86121093   -7.3369655    73.448774  0.023723764  0.024388812            5 
  259000   0.87615678    -7.306916    73.485152  0.023643871  0.024322753            4 
  260000   0.86154281   -7.3242327    73.694923  0.023620168  0.024256087            5 
  261000   0.86052821   -7.3265886    73.866873   0.02358457  0.024189316            4 
  262000    0.8377548   -7.3503397    73.938781  0.023517424  0.024123205            4 
  263000   0.84006894   -7.3389551    73.910317  0.023418985  0.024057181            5 
  264000   0.84989966   -7.3578836    74.093501    0.0233881  0.023991303            2 
  265000   0.83588733   -7.2943313     74.17567  0.023325682  0.023925619            5 
  266000   0.84220356   -7.3013847     74.33746  0.023288678   0.02385954            3 
  267000   0.84334313   -7.3515818    74.188836  0.023155067  0.023793291            2 
  268000   0.83422498   -7.3671177    74.462164  0.023153658  0.023726851            4 
  269000   0.85706423   -7.3493815     74.42316  0.023055502  0.023659967            2 
  270000   0.83302588   -7.3629236    74.387483    0.0229591  0.023593093            5 
  271000   0.83028732   -7.4041501    74.679205  0.022964085  0.023527118            3 
  272000   0.82775578   -7.3606961    74.840269  0.022929004  0.023460669            3 
  273000   0.84643823   -7.3708538    74.931016  0.022872716  0.023394834            7 
  274000   0.82619013   -7.3898637    74.985282  0.022805743   0.02332974            4 
  275000    0.8269182   -7.3646593    75.169813  0.022778731  0.023265253            3 
  276000   0.82686674   -7.3913793    75.452122  0.022781438  0.023201351            4 
  277000   0.82292244   -7.3982295    75.369989  0.022674485   0.02313793            7 
  278000   0.82508626   -7.3912313    75.518848  0.022637544  0.023074419            5 
  279000   0.81124192   -7.3947781    75.623545  0.022587678  0.023011635            4 
  280000   0.82913007   -7.3742898      75.8642  0.022578631  0.022948644            3 
  281000   0.81033214   -7.4050308    75.913435  0.022512881  0.022886056            6 
  282000   0.84319224   -7.3983781    76.083775  0.022483385  0.022824246            4 
  283000   0.82240427   -7.3910105    76.076629  0.022401834   0.02276192            7 
  284000   0.81595118   -7.4022148    76.453034  0.022433402  0.022699973            2 
  285000   0.79730051    -7.427656     76.32775  0.022318056  0.022638366            7 
  286000    0.7931649    -7.389329    76.177013  0.022196099  0.022576363            3 
  287000   0.79546128   -7.4440026    76.117005  0.022101337  0.022513444            4 
  288000   0.80181058   -7.4371525    76.251634  0.022063551  0.022450024            3 
  289000   0.80264656   -7.4550014    76.291692  0.021998758  0.022386555            3 
  290000   0.80087914   -7.4523994    76.258301  0.021913305  0.022322425            5 
  291000   0.78830293   -7.4604628    76.487244  0.021903563  0.022258771            2 
  292000   0.80740996   -7.4628619    76.421241  0.021809715   0.02219532            3 
  293000   0.81182227   -7.4631412    76.545228  0.021770543  0.022131464            2 
  294000   0.80263083   -7.4705378    76.942119  0.021808991  0.022068735            3 
  295000   0.80516367   -7.4689949    77.038504  0.021762289  0.022007022            3 
  296000   0.79613241   -7.4741159      76.7489  0.021607235  0.021944607            5 
  297000    0.7979609   -7.4673219    76.897071  0.021576058  0.021882068            4 
  298000   0.78074182    -7.477652    76.882835  0.021499674  0.021819931            4 
  299000   0.78710074   -7.4679917    77.086529   0.02148454  0.021758057            3 
  300000   0.81419708   -7.4663406    77.253891  0.021459414  0.021696655            4 
  301000   0.78869376   -7.4519476    77.325067  0.021407826  0.021635416            7 
  302000   0.78220936   -7.4682071    77.140889  0.021286117  0.021574371            5 
  303000   0.78939223   -7.4696006    77.399491  0.021286989  0.021512857           10 
  304000   0.77453557    -7.472415    77.556644  0.021260045  0.021451876            9 
  305000   0.77972246   -7.4954968    77.555881  0.021190131    0.0213914            7 
  306000   0.77262962   -7.4698354    77.603008  0.021133717  0.021331011            5 
  307000    0.7687596   -7.4965814    77.700442  0.021091325  0.021270573            3 
  308000   0.77350682   -7.5167273     77.80306  0.021050611  0.021210435            3 
  309000   0.75214113   -7.5092044     77.70012  0.020954725  0.021149918            8 
  310000   0.75839498   -7.4957171    77.965458  0.020958456  0.021089348            4 
  311000   0.76615896   -7.4938878    77.858444  0.020862391  0.021029416            5 
  312000    0.7521839   -7.5309421    77.953667  0.020820958  0.020969405            4 
  313000   0.77189226   -7.5260264    77.881874  0.020735323  0.020909529            5 
  314000   0.76377873   -7.5206723    78.058372  0.020716128   0.02084965            3 
  315000   0.76496624   -7.5270673    78.215375  0.020691898  0.020790193           11 
  316000   0.76552102    -7.489479    78.403392     0.020676  0.020730722            4 
  317000    0.7619223   -7.5100581    78.273857  0.020576724  0.020671632            5 
  318000   0.75244106   -7.5294954    78.175268  0.020486181  0.020611945            6 
  319000   0.76009253   -7.5316566    78.271679  0.020447147  0.020552121            5 
  320000   0.75354834   -7.5306445    78.154189  0.020352653   0.02049232            3 
  321000   0.76341285   -7.5249628    78.310867  0.020329924   0.02043272            9 
  322000   0.74491944    -7.543458    78.412106  0.020292988  0.020373435            2 
  323000   0.75527558   -7.5323443    78.398342   0.02022661  0.020314199            6 
  324000   0.73513661   -7.5628881     78.34147  0.020149555  0.020254635           10 
  325000   0.72114471   -7.5680326    78.226276  0.020058019  0.020194916            4 
  326000    0.7555741   -7.5684413    78.538015   0.02007618  0.020135384            2 
  327000   0.75745071   -7.5386052    78.555079  0.020019133   0.02007604            3 
  328000   0.73677063   -7.5841621    78.645565  0.019981089  0.020016935            5 
  329000   0.73566886   -7.5951211    78.599713  0.019908742  0.019957469            5 
  330000   0.74841032   -7.5915843    78.449299  0.019810429  0.019897946           13 
  331000   0.73493288   -7.5768777    78.592998  0.019786757  0.019838664            4 
  332000   0.72768857   -7.6069282    78.656236  0.019743031  0.019779409            4 
  333000   0.73748461   -7.5856656    78.397822  0.019619075   0.01972042            4 
  334000   0.72319935   -7.5956878     78.44016  0.019570898  0.019661255            6 
  335000   0.73541276   -7.6240055    78.698518  0.019576746  0.019602287            4 
  336000   0.72373705   -7.6109327    78.558244  0.019483692  0.019543293            3 
  337000   0.71551894   -7.6026194    78.568022  0.019428294  0.019484399           13 
  338000   0.72130282   -7.6206331    78.909847   0.01945509  0.019425609            9 
  339000   0.71692577   -7.5991968     78.90015  0.019395317  0.019367411            4 
  340000   0.74067172   -7.6003839    78.942392  0.019348625  0.019309643            3 
  341000   0.71654033   -7.6015052    78.958892  0.019295917   0.01925211            6 
  342000   0.71198039   -7.6174501    79.032303  0.019257384  0.019194737            5 
  343000   0.72823985   -7.6075742    79.145174  0.019228662  0.019137301            5 
  344000   0.72560084   -7.6084299    79.090963  0.019159632  0.019080054            3 
  345000   0.71452552   -7.6266535    78.951502  0.019070411  0.019022794            5 
  346000   0.71915252   -7.6362756     79.18299  0.019071048  0.018965994            3 
  347000   0.72751161   -7.6433995    79.227144  0.019026692   0.01890918            6 
  348000   0.72199006   -7.6544574    79.337262  0.018998386  0.018853017            4 
  349000   0.71182347    -7.652163    79.235942  0.018919757  0.018796957            6 
  350000   0.71022511   -7.6287633    79.577165  0.018946944  0.018741164            5 
  351000   0.71544417   -7.6801095     79.65921  0.018912443  0.018685505            7 
  352000   0.70113042   -7.6733828    79.529104  0.018827913  0.018630027            5 
  353000   0.70718495   -7.6403397    79.587458  0.018788352  0.018574713            5 
  354000   0.70114683   -7.6661125    79.395991  0.018690205  0.018519344            3 
  355000    0.7004916   -7.6734742    79.467421  0.018654324  0.018463893            4 
  356000   0.70296137   -7.6998201    79.600484  0.018633072  0.018408454            6 
  357000   0.71214432   -7.6748194    79.480557  0.018552884  0.018353106            5 
  358000   0.69747772    -7.694069    79.437106  0.018490946   0.01829759            7 
  359000   0.70158329   -7.6677027    79.329375  0.018414433  0.018242276            6 
  360000   0.68876042   -7.6886536    79.624488  0.018431595  0.018186947            2 
  361000   0.68154841   -7.7193169    79.406964  0.018330324  0.018131776            7 
  362000   0.68380117   -7.6809301    79.488282  0.018298408  0.018076582            5 
  363000   0.69935559   -7.6812911    79.405723  0.018229046  0.018021476           18 
  364000   0.72620797   -7.6747462     79.43622  0.018185948  0.017966741            9 
  365000   0.69296879    -7.708517    79.548381  0.018161731  0.017912322            4 
  366000   0.69394277   -7.7148459     79.52261  0.018106241  0.017857973            5 
  367000   0.68276971   -7.7036638    79.557135  0.018064745  0.017803754            5 
  368000   0.68689927   -7.7401793    79.593837  0.018023967  0.017749628            5 
  369000   0.68337912   -7.6907865    79.599585  0.017976419  0.017695325            6 
  370000   0.68226578   -7.7268976     79.51024  0.017907712  0.017641366            7 
  371000   0.66426722   -7.7274634     79.62977  0.017886292  0.017587715            3 
  372000   0.68079243   -7.7379262    79.714449  0.017857179  0.017534131           13 
  373000   0.68066528   -7.7329752     79.56855  0.017776709  0.017480584            2 
  374000   0.67353679   -7.7147348    79.807056  0.017782321   0.01742729            5 
  375000   0.66983892   -7.7366808    79.623258  0.017694057  0.017374117            4 
  376000   0.65291015   -7.7238948     79.65377  0.017653761  0.017321118            5 
  377000    0.6743433   -7.7009339      79.6844  0.017613705  0.017268096            5 
  378000   0.65988309   -7.7371285    79.717531  0.017574411  0.017215284           10 
  379000    0.6655532   -7.7321612    79.825361  0.017551751   0.01716264            5 
  380000   0.67422446   -7.7511839    79.751711   0.01748941  0.017110053            7 
  381000   0.66273752   -7.7611031    79.766187  0.017446673  0.017057667            5 
  382000   0.67455878   -7.7619943    79.713995  0.017389615  0.017005297           14 
  383000   0.65158495   -7.7835516    79.708716  0.017343063  0.016953125            9 
  384000   0.66206064   -7.7743358     79.78697  0.017314881  0.016901011            3 
  385000   0.65593226    -7.782972    79.895273  0.017293349  0.016848981            8 
  386000   0.64980902   -7.7791354    79.828935  0.017234226  0.016797097            5 
  387000   0.65097821   -7.7706556    79.704229   0.01716284  0.016745397            9 
  388000   0.64961931   -7.7855068    79.809792  0.017141278  0.016693605            7 
  389000   0.64458172   -7.7921725     79.76133  0.017086832  0.016642081            4 
  390000   0.63555802   -7.7858885    79.752005  0.017041027  0.016590527            6 
  391000   0.63456844   -7.8198285    79.707853  0.016988034  0.016539097            4 
  392000   0.63622714   -7.8111489    79.743271  0.016952226  0.016487728            8 
  393000   0.64279645    -7.813593    79.719668  0.016904086  0.016436713            4 
  394000   0.65510209   -7.8122835    79.885848   0.01689633  0.016386059            6 
  395000   0.64085574   -7.8332046     79.74776  0.016824422  0.016335498            4 
  396000   0.63621032   -7.7941829     79.83502  0.016800299   0.01628506            5 
  397000   0.63918988   -7.8323582    79.865533  0.016764386  0.016234719            4 
  398000   0.63647995   -7.8191834    79.832371  0.016715321  0.016184386            5 
  399000   0.62472659   -7.8323288    79.924956  0.016692764  0.016134157            3 
  400000   0.63110628   -7.8471537    79.804855  0.016626012  0.016084254            6 
  401000   0.62768816   -7.8322091    79.731288  0.016569262  0.016034367            4 
  402000   0.61267366   -7.8409333     79.82124  0.016546692  0.015984738            5 
  403000   0.62029414    -7.859471    79.783407   0.01649781  0.015935269            5 
  404000   0.61169351   -7.8453205    79.715362  0.016442938  0.015885868            5 
  405000   0.61163987   -7.8559184    79.948205  0.016450248  0.015836687            6 
  406000    0.6156011    -7.845874    79.991972  0.016418713  0.015787745            5 
  407000    0.6266424   -7.8561734    79.818277  0.016342808  0.015739013            4 
  408000   0.60421842   -7.8457796    80.039521  0.016347941  0.015690514            7 
  409000   0.59586733    -7.852956    80.010598  0.016302078   0.01564203            4 
  410000   0.62266192   -7.8569249    79.934938  0.016246939  0.015593681            9 
  411000   0.60167463   -7.8904098     79.91989  0.016204357  0.015545247            8 
  412000   0.61715665   -7.8709642    79.724856  0.016125578  0.015496869            7 
  413000   0.60383051   -7.8568855    79.947238  0.016131404  0.015448698            7 
  414000   0.61524631   -7.8768642    79.860219  0.016074923  0.015400736            4 
  415000   0.61660719   -7.8878605    79.788029  0.016021693  0.015352726            3 
  416000   0.60648721   -7.8917038    79.903096  0.016006229  0.015304998            6 
  417000   0.59696271   -7.8716947    79.848439  0.015956922  0.015257689            9 
  418000   0.59684901   -7.8742583    79.910734  0.015931167  0.015210274            7 
  419000   0.59939024    -7.895938    79.784144  0.015867968  0.015163048            3 
  420000   0.59006443   -7.8810157     79.81548  0.015836405  0.015116006            5 
  421000   0.60022562   -7.8850574    79.826601   0.01580099   0.01506915            8 
  422000   0.59136675   -7.8876991    79.770314  0.015752432  0.015022401            8 
  423000   0.59980409   -7.8872325    79.857343  0.015732337   0.01497575            5 
  424000   0.57664447   -7.8995814    79.937262   0.01571094  0.014929222           10 
  425000   0.58266817   -7.9036606    79.916953  0.015669991  0.014882824            5 
  426000   0.57932143   -7.9163247    79.790426  0.015608456  0.014836542            7 
  427000    0.5942445   -7.9201776    79.879228  0.015589233  0.014790482            4 
  428000   0.58945042   -7.9259738    79.688588  0.015515691  0.014744414            5 
  429000   0.58889041   -7.9293265    79.688794  0.015479564  0.014698441            5 
  430000   0.58888998   -7.9281329    79.630834  0.015432332   0.01465248            8 
  431000    0.5888856   -7.9345258    79.598213  0.015390219  0.014606659            6 
  432000   0.57679948   -7.9438597    79.663848  0.015367255  0.014561031           16 
  433000   0.58747474   -7.9510461    79.702808  0.015339263   0.01451557            9 
  434000   0.57793571   -7.9402204    79.718197  0.015306873  0.014470258           13 
  435000   0.56626615   -7.9501788    79.697815  0.015267781  0.014425061            8 
  436000   0.56652102   -7.9397965    79.573348  0.015208973  0.014380021            6 
  437000   0.56478232   -7.9434213    79.725205  0.015203128  0.014335042           10 
  438000   0.55705373   -7.9655373    79.696641  0.015162983  0.014290146            8 
  439000   0.57225065   -7.9606084    79.710414  0.015131058  0.014245449           10 
  440000    0.5719579   -7.9384362    79.564255  0.015068988  0.014200922            5 
  441000   0.56314564   -7.9542191    79.704792  0.015061374    0.0141565            9 
  442000   0.55715773   -7.9644113    79.651119  0.015017179  0.014112246            7 
  443000   0.55737748   -7.9661439     79.83766  0.015018371   0.01406822           11 
  444000   0.56942715   -7.9714975    79.606006  0.014941067  0.014024321           10 
  445000    0.5524588   -7.9800556    79.677449  0.014920871  0.013980617            9 
  446000   0.55681806   -7.9736043    79.708941    0.0148933  0.013936918            9 
  447000    0.5656509   -7.9957295    79.627578  0.014844813  0.013893446            6 
  448000   0.55527837   -7.9682643    79.717809  0.014828461  0.013850096           11 
  449000   0.55125257   -8.0155189    79.823673  0.014815084  0.013806922           14 
  450000   0.54009579   -7.9722605    79.598775  0.014740514  0.013763836            7 
  451000   0.55510473   -7.9799705     79.62014  0.014711778  0.013720974           19 
  452000   0.54325174   -7.9704051    79.518644  0.014660517  0.013678112           19 
  453000   0.54872325   -7.9855021    79.617278  0.014646298  0.013635401           12 
  454000   0.53916282   -7.9943848    79.727844  0.014634333  0.013592855            9 
  455000   0.53468233   -8.0075825     79.60284  0.014579275  0.013550464            8 
  456000   0.54803254   -7.9959784    79.589367   0.01454484  0.013508174            4 
  457000    0.5307879   -7.9894676    79.568829  0.014509269  0.013466095           10 
  458000   0.52618062   -8.0008819    79.581388  0.014479874  0.013424022            7 
  459000   0.54054196   -7.9908293    79.429472  0.014420747   0.01338213            7 
  460000   0.52539216   -8.0106491    79.528073   0.01440726  0.013340322            9 
  461000   0.52595701   -8.0040397    79.586094  0.014386496  0.013298565           10 
  462000   0.52366885   -8.0183121    79.526727  0.014344648  0.013257048            7 
  463000   0.53447131   -8.0385552    79.469388  0.014303346  0.013215664            6 
  464000   0.51824708    -8.013609    79.370327  0.014254728   0.01317444            6 
  465000   0.51808716   -8.0244313    79.265598  0.014205304  0.013133262            6 
  466000   0.52081832   -8.0429754    79.409012  0.014200467  0.013092211            8 
  467000   0.51602611   -8.0353752    79.478021  0.014182373  0.013051415            9 
  468000   0.52769575   -8.0343036    79.481373  0.014152666  0.013010767            7 
  469000    0.5134104   -8.0461361    79.519246  0.014129219  0.012970152            5 
  470000   0.50932402   -8.0449169    79.331677    0.0140659  0.012929693            4 
  471000   0.51245595   -8.0577962    79.456226  0.014058072  0.012889415           13 
  472000   0.52890727    -8.058572    79.436332  0.014024776  0.012849278            7 
  473000   0.51568834   -8.0512567    79.424816  0.013993097  0.012809327            7 
  474000    0.5096502   -8.0677443    79.324235  0.013945892   0.01276945           14 
  475000   0.50600504   -8.0510552    79.477635  0.013943445  0.012729758            5 
  476000   0.51399895   -8.0654586    79.296358  0.013882416  0.012690217            7 
  477000   0.50221983   -8.0540517    79.469361  0.013883536    0.0126508           11 
  478000   0.50276612   -8.0507171    79.220699   0.01381114  0.012611447            5 
  479000   0.49425229   -8.0751206    79.350737   0.01380493  0.012572341            8 
  480000   0.49596865   -8.0755385     79.41964  0.013788132   0.01253344            8 
  481000   0.50350508   -8.0695605    79.361697  0.013749428  0.012494693            6 
  482000   0.50512787   -8.0854346    79.456517  0.013737295  0.012456064           11 
  483000   0.48811484   -8.0688104    79.393721  0.013698019  0.012417473            6 
  484000   0.49786601   -8.0722992    79.333605  0.013659367  0.012379104            6 
  485000   0.50378178   -8.0731796    79.384767  0.013639994  0.012340801            8 
  486000   0.49965828   -8.0829946    79.352723  0.013606434  0.012302632            5 
  487000   0.49176864   -8.1000334    79.361256  0.013579955  0.012264648            7 
  488000   0.48714561   -8.0971018    79.435324  0.013564775  0.012226737           14 
  489000   0.49255788   -8.0993643     79.31132  0.013515903  0.012189035            6 
  490000   0.49679009   -8.0934107    79.357802  0.013496225  0.012151441            9 
  491000   0.48451467   -8.1018209     79.36865  0.013470579  0.012113927            8 
  492000   0.49103165   -8.0954891     79.29931  0.013431455  0.012076561           10 
  493000   0.47424026   -8.1045852    79.255777  0.013396852  0.012039374            8 
  494000   0.47351825   -8.1116413    79.173668  0.013355882   0.01200224            8 
  495000   0.46903236   -8.1178587    79.240506  0.013340153  0.011965193           11 
  496000   0.47075762   -8.1044705    79.196831  0.013305919  0.011928248            8 
  497000   0.47910533    -8.115566    79.107481  0.013264165   0.01189148            8 
  498000   0.47818223   -8.1271568    79.201982  0.013253344  0.011854879            9 
  499000   0.46607591   -8.1358144    79.251724  0.013235091  0.011818412            5 
  500000    0.4719303   -8.1359332     79.09936  0.013183227  0.011782084            7 
  501000   0.46225042   -8.1221367    79.176501  0.013169744   0.01174586            4 
  502000   0.46342654   -8.1178829    79.169368  0.013142325  0.011709792            4 
  503000   0.45504977   -8.1260701    79.070848  0.013099875  0.011673858            7 
  504000   0.45671011    -8.132148    79.131852   0.01308397  0.011637996            5 
  505000   0.47076866   -8.1112251    79.104334   0.01305352  0.011602279            5 
  506000   0.45681727   -8.1212498    79.078627  0.013023489  0.011566696            5 
  507000   0.47304215   -8.1296169    79.109331  0.013002849  0.011531227            5 
  508000   0.45915762    -8.142814     79.16833  0.012986931  0.011495962           10 
  509000   0.45453747   -8.1322965    78.956236  0.012926692  0.011460821           12 
  510000   0.44908826   -8.1509632    79.053812   0.01291729  0.011425756            6 
  511000   0.44707734   -8.1283701    79.075015  0.012895469  0.011390799           11 
  512000   0.45428742   -8.1522925    79.080071  0.012871105  0.011355981            9 
Loop time of 1134.69 on 48 procs for 500000 steps with 4000 atoms

Performance: 76143.924 tau/day, 440.648 timesteps/s
99.4% CPU use with 48 MPI tasks x no OpenMP threads

MPI task timing breakdown:
Section |  min time  |  avg time  |  max time  |%varavg| %total
---------------------------------------------------------------
Pair    | 69.581     | 74.465     | 79.185     |  27.5 |  6.56
Neigh   | 7.2127     | 7.5575     | 7.851      |   5.5 |  0.67
Comm    | 67.872     | 73.097     | 79.407     |  34.0 |  6.44
Output  | 0.85787    | 0.85869    | 0.87909    |   0.3 |  0.08
Modify  | 964.03     | 967.38     | 970.33     |   5.0 | 85.25
Other   |            | 11.34      |            |       |  1.00

Nlocal:        83.3333 ave          90 max          77 min
Histogram: 2 4 2 13 4 7 7 5 3 1
Nghost:        1906.54 ave        1919 max        1888 min
Histogram: 3 1 3 4 4 6 8 6 7 6
Neighs:        12053.1 ave       13260 max       10653 min
Histogram: 2 2 4 8 5 7 7 3 5 5
FullNghs:      24106.6 ave       25926 max       22144 min
Histogram: 4 2 3 7 9 4 5 5 6 3

Total # of neighbors = 1157117
Ave neighs/atom = 289.27925
Neighbor list builds = 26865
Dangerous builds = 0

#clear
#
#next RN
#
#jump SELF
Total wall time: 0:18:57
