
units lj                  # Use reduced LJ style units
atom_style atomic         # Uncharged point particles
atom_modify map hash      # Needed for indexing of clusters etc
                          # Used to be able to find where atoms are in relation to each other.

lattice fcc 1.0 spacing 1 1 1
Lattice spacing in x,y,z = 1.5874011 1.5874011 1.5874011
region box block 0 10 0 10 0 10 units lattice
create_box 2 box
Created orthogonal box = (0.0000000 0.0000000 0.0000000) to (15.874011 15.874011 15.874011)
  3 by 4 by 4 MPI processor grid
create_atoms 1 box
Created 4000 atoms
  using lattice units in orthogonal box = (0.0000000 0.0000000 0.0000000) to (15.874011 15.874011 15.874011)
  create_atoms CPU = 0.003 seconds
set type 1 type/fraction 2 0.99 78393
Setting atom values ...
  3965 settings made for type/fraction
mass 1 1.0
mass 2 1.0
pair_style lj/cut  3.5
pair_modify tail  yes
pair_coeff 1  1  1.0  1.0   # Intearaction between 1 and 1 set with epsilon = 1 and sigma = 1
pair_coeff 1  2  1.5  0.8
pair_coeff 2  2  0.5  0.88

write_data data.0
System init for write_data ...
Neighbor list info ...
  update every 1 steps, delay 10 steps, check yes
  max neighbors/atom: 2000, page size: 100000
  master list distance cutoff = 3.8
  ghost atom cutoff = 3.8
  binsize = 1.9, bins = 9 9 9
  1 neighbor lists, perpetual/occasional/extra = 1 0 0
  (1) pair lj/cut, perpetual
      attributes: half, newton on
      pair build: half/bin/atomonly/newton
      stencil: half/bin/3d
      bin: standard
WARNING: Not all mixed pair coeffs generated from mixing. Use write_data with 'pair ij' option to store all pair coeffs. (../write_data.cpp:312)


#############################
#   M E L T   S Y S T E M   #
#############################

velocity all create 2.4 9580093 mom yes dist gaussian # Assign velocities
                                                    # Temperature 2.4, random number seed, zero linear momentum
                                                                                # Gaussian distribution

timestep 0.002   # simulation timestep
thermo 1000       # output thermodynamic data every 1000 steps bf 100

# Define a fix  in this case with index 1 applied to all
# particles in the simulation. This fix is for simulations
# in the anisotropic NPT ensemble. Note that we use the MTK
# correction.
fix 1 all npt temp 2.4 2.4 0.1 iso 5.68 5.68 0.5 mtk yes tchain 5 pchain 5 # Use NPT ensemble
                                                                         # Set temperature and pressure and damping
                                                                         # Numbers of thermostats in chain and in barostat
run 10000          # run for 10000 steps
Per MPI rank memory allocation (min/avg/max) = 3.642 | 3.644 | 3.648 Mbytes
Step Temp E_pair E_mol TotEng Press Volume 
       0          2.4   -2.7429598            0   0.85614022   -1.7792645         4000 
    1000     2.426605   -1.4640721            0    2.1749254    5.8434083    4247.3007 
    2000    2.3893905   -1.4898746            0    2.0933152     5.616128    4260.1095 
    3000    2.4322008   -1.5437255            0    2.1036636    5.7647646    4191.4639 
    4000    2.4174219   -1.5344575            0    2.0907688    5.3745781    4269.8423 
    5000    2.4169988   -1.4845016            0    2.1400901    5.7295563    4258.0003 
    6000    2.4385403   -1.5009153            0    2.1559807    5.5052167    4270.0586 
    7000    2.4589774    -1.516505            0     2.171039    5.5338376     4264.543 
    8000    2.4388202   -1.4924257            0      2.16489    5.7317238    4242.1358 
    9000    2.4082451   -1.5123698            0    2.0990947     5.653875    4242.9062 
   10000    2.3678211   -1.4906804            0    2.0601634    5.7164294     4238.422 
Loop time of 2.39241 on 48 procs for 10000 steps with 4000 atoms

Performance: 722285.682 tau/day, 4179.894 timesteps/s
99.6% CPU use with 48 MPI tasks x no OpenMP threads

MPI task timing breakdown:
Section |  min time  |  avg time  |  max time  |%varavg| %total
---------------------------------------------------------------
Pair    | 1.0413     | 1.0968     | 1.1475     |   2.5 | 45.85
Neigh   | 0.2049     | 0.21208    | 0.22657    |   0.8 |  8.86
Comm    | 0.75766    | 0.81112    | 0.87874    |   3.2 | 33.90
Output  | 0.00026976 | 0.00027411 | 0.00033919 |   0.0 |  0.01
Modify  | 0.23307    | 0.25717    | 0.28546    |   2.3 | 10.75
Other   |            | 0.01493    |            |       |  0.62

Nlocal:        83.3333 ave          92 max          75 min
Histogram: 2 5 8 3 4 8 6 8 3 1
Nghost:        1589.60 ave        1610 max        1564 min
Histogram: 1 2 3 4 5 10 12 7 3 1
Neighs:        9004.85 ave       10137 max        7789 min
Histogram: 2 2 3 12 3 8 6 8 2 2

Total # of neighbors = 432233
Ave neighs/atom = 108.05825
Neighbor list builds = 910
Dangerous builds = 231

# Equilibrate just above the melting temperature to avoid step fn in T

fix 1 all npt temp 1.25 1.25 0.1 iso 5.68 5.68 0.5 mtk yes tchain 5 pchain 5
run 2000
Per MPI rank memory allocation (min/avg/max) = 3.643 | 3.645 | 3.649 Mbytes
Step Temp E_pair E_mol TotEng Press Volume 
   10000    2.3678211   -1.4906804            0    2.0601634    5.7164294     4238.422 
   11000    1.2591941   -2.3299126            0  -0.44159365    5.5081572    3328.5536 
   12000    1.2114592   -2.3321152            0   -0.5153807    5.5834724    3317.7213 
Loop time of 0.58907 on 48 procs for 2000 steps with 4000 atoms

Performance: 586687.403 tau/day, 3395.182 timesteps/s
99.6% CPU use with 48 MPI tasks x no OpenMP threads

MPI task timing breakdown:
Section |  min time  |  avg time  |  max time  |%varavg| %total
---------------------------------------------------------------
Pair    | 0.25818    | 0.27877    | 0.32762    |   2.2 | 47.32
Neigh   | 0.038753   | 0.041207   | 0.04748    |   0.6 |  7.00
Comm    | 0.16575    | 0.21916    | 0.24257    |   2.8 | 37.21
Output  | 5.3044e-05 | 5.4029e-05 | 6.9121e-05 |   0.0 |  0.01
Modify  | 0.0399     | 0.045037   | 0.050044   |   1.4 |  7.65
Other   |            | 0.00484    |            |       |  0.82

Nlocal:        83.3333 ave          90 max          74 min
Histogram: 2 1 1 4 7 10 7 6 5 5
Nghost:        1863.02 ave        1892 max        1843 min
Histogram: 1 9 2 12 9 5 5 4 0 1
Neighs:        11513.2 ave       13065 max        9627 min
Histogram: 1 0 3 10 5 8 9 6 5 1

Total # of neighbors = 552634
Ave neighs/atom = 138.15850
Neighbor list builds = 145
Dangerous builds = 19

#############################
# L I N E A R  Q U E N C H  #
#############################

# Define solid atoms. This closely follows ten Wolde  Ruiz-Montero and Frenkel  Faraday Discuss  1996  104  93-110
# Compute components of the per-atom q6 vector
compute q6 all orientorder/atom degrees 1 6 components 6 nnn NULL cutoff 1.3 # compute the Q6 parameter.
                                                                             # Use all neighbours within 1.3 unit cell.

# get number of connections
compute coord_number all coord/atom orientorder q6 0.5

# An atom is solid if it has 8 or more connections (of a possible 14)
variable is_solid atom c_coord_number>=8
group solid dynamic all var is_solid    # Must be dynamic to update
dynamic group solid defined

# do clustering
compute cluster solid cluster/atom 1.3 # Create a cluster where all atoms within are solid and max 1.3 units from another member

# define chunks one chunk per cluster
compute clus_chunks solid chunk/atom c_cluster nchunk every compress yes  # Says which atoms are in which chunk

# count the size of each chunk
compute size_chunks solid property/chunk clus_chunks count


# Find the maximum entry in the vector of chunk sizes
variable max_n equal max(c_size_chunks)


# Thermo style which includes this variable
# thermo_style custom step temp pe vol v_max_n

thermo ${N}  # Print the thermo information every 100 steps
thermo 1000  

# Reset the npt fix at a lower temperature (below freezing)
fix 1  all npt temp  ${temp} ${temp}  0.1  iso  5.68  5.68  0.5  mtk yes tchain  5  pchain  5
fix 1  all npt temp  0.45 ${temp}  0.1  iso  5.68  5.68  0.5  mtk yes tchain  5  pchain  5
fix 1  all npt temp  0.45 0.45  0.1  iso  5.68  5.68  0.5  mtk yes tchain  5  pchain  5

dump dmp2 all dcd ${N} traj.dcd
dump dmp2 all dcd 1000 traj.dcd


compute msd all msd com yes
variable twopoint equal c_msd[4]/6/(step*dt+1.0e-6)
fix 9 all vector 10 c_msd[4]
variable fit equal slope(f_9)/6/(10*dt)
thermo_style custom step temp pe c_msd[4] v_twopoint v_fit v_max_n

fix 1 all npt temp 1.25 ${temp} 0.1 iso 5.68 5.68 0.5 mtk yes tchain 5 pchain 5
fix 1 all npt temp 1.25 0.45 0.1 iso 5.68 5.68 0.5 mtk yes tchain 5 pchain 5
run 2000000 # 5000000  # Run for this many steps
Neighbor list info ...
  update every 1 steps, delay 10 steps, check yes
  max neighbors/atom: 2000, page size: 100000
  master list distance cutoff = 3.8
  ghost atom cutoff = 3.8
  binsize = 1.9, bins = 8 8 8
  4 neighbor lists, perpetual/occasional/extra = 1 3 0
  (1) pair lj/cut, perpetual
      attributes: half, newton on
      pair build: half/bin/atomonly/newton
      stencil: half/bin/3d
      bin: standard
  (2) compute orientorder/atom, occasional
      attributes: full, newton on
      pair build: full/bin/atomonly
      stencil: full/bin/3d
      bin: standard
  (3) compute coord/atom, occasional
      attributes: full, newton on
      pair build: full/bin/atomonly
      stencil: full/bin/3d
      bin: standard
  (4) compute cluster/atom, occasional
      attributes: full, newton on
      pair build: full/bin/atomonly
      stencil: full/bin/3d
      bin: standard
Per MPI rank memory allocation (min/avg/max) = 9.810 | 9.816 | 9.820 Mbytes
Step Temp PotEng c_msd[4] v_twopoint v_fit v_max_n 
   12000    1.2114592   -2.3321152 2.3797961e-30 1.6526361e-32 8.3333333e+20            2 
   13000    1.2284023   -2.3199389    1.1616809 0.0074466723   0.09934114            2 
   14000    1.2388573    -2.295015    2.5027921  0.014897571   0.10547239            1 
   15000    1.2379907   -2.3249544    3.9086239  0.021714576   0.11024924            1 
   16000    1.2300513   -2.3319494    5.2119759  0.027145707   0.11158213            1 
   17000    1.2558009   -2.3300361    6.6974001  0.032830392   0.11312455            2 
   18000    1.2700734   -2.3436075    8.0925926  0.037465705    0.1141658            2 
   19000     1.240323   -2.3111363    9.3551258  0.041031252   0.11432717            1 
   20000    1.2690581   -2.3151183    10.789459  0.044956079   0.11422258            3 
   21000    1.2599418    -2.327328    12.093841   0.04799143    0.1142077            2 
   22000    1.2223098   -2.3290992    13.400208  0.050758362   0.11397733            1 
   23000    1.2413784   -2.3472563    14.618091  0.052964098     0.113446            1 
   24000    1.2693313   -2.3680446    15.930121  0.055312918   0.11283205            2 
   25000    1.2459704   -2.3176836    17.399443  0.057998143   0.11247947            1 
   26000    1.2494396   -2.3074215     18.90867   0.06060471   0.11252318            1 
   27000    1.2528751     -2.34619     20.15003  0.062191449   0.11268912            4 
   28000     1.262678   -2.3161726     21.60161  0.064290506   0.11275414            2 
   29000    1.2626965   -2.3111385    22.964903    0.0659911   0.11282115            1 
   30000    1.2484801    -2.306717    24.027875  0.066744095   0.11268361            2 
   31000    1.2112449    -2.341308    25.283105  0.067965335    0.1122765            2 
   32000    1.2040007   -2.3478717    26.559044  0.069164177   0.11197176            2 
   33000    1.2370359   -2.3165168    27.946729  0.070572547   0.11177081            3 
   34000    1.2477543   -2.3423587    29.243133  0.071674345   0.11160398            1 
   35000     1.229693   -2.3314161    30.599926  0.072856965   0.11142372            2 
   36000     1.232636   -2.3215757    31.925578    0.0739018   0.11130819            1 
   37000    1.2564474   -2.3192095     33.37409  0.075166869   0.11133186            1 
   38000    1.2337452   -2.3349453    34.873226  0.076476373   0.11133443            2 
   39000    1.2344443   -2.3254816     36.29064  0.077544102   0.11144616            2 
   40000    1.2603493   -2.3071466    37.536628  0.078201308   0.11149039            1 
   41000    1.2368538   -2.3178911    38.842244   0.07894765   0.11153906            1 
   42000    1.2265457   -2.3594462    40.280454  0.079921535   0.11165459            2 
   43000    1.2404518   -2.3307089    42.241672  0.081863705   0.11187991            2 
   44000    1.2306932   -2.3448485    43.758574  0.082876087   0.11224424            2 
   45000     1.222143   -2.3580029    45.292203  0.083874449   0.11256178            2 
   46000     1.228305   -2.3397536    46.496713  0.084233175   0.11292569            1 
   47000    1.2310513     -2.34485    47.396352  0.084036084   0.11309613            1 
   48000    1.2583618   -2.3223031    48.538025  0.084267403   0.11319256            2 
   49000    1.2390546   -2.3386115    49.968846   0.08498103   0.11319556            2 
   50000    1.2374111   -2.3229117    51.202687  0.085337811   0.11318471            1 
   51000    1.2347343   -2.3344633    52.776339  0.086235847   0.11315029            2 
   52000    1.2234169   -2.3149021    54.186265  0.086836963   0.11313532            1 
   53000    1.2335312   -2.3127868    55.381172  0.087077313   0.11312391            2 
   54000    1.2468559   -2.3229791    56.918331   0.08783693   0.11313251            1 
   55000    1.2296146   -2.2969157    58.757876  0.089027083   0.11324311            2 
   56000    1.2131913   -2.3608024     60.17085  0.089539955   0.11336152            1 
   57000    1.2398798   -2.3198682    61.356568  0.089702584   0.11347489            1 
   58000    1.2167625   -2.3336733    62.198293  0.089365363   0.11351984            1 
   59000     1.228939   -2.3227944    63.853782  0.090188957   0.11351008            1 
   60000    1.2091171   -2.3589013    64.675729    0.0898274   0.11344881            2 
   61000    1.2271873   -2.3556977    65.822098  0.089920898   0.11336556            1 
   62000    1.2022233   -2.3183997    67.204607  0.090328771   0.11324825            2 
   63000    1.2641753   -2.3371573    68.457212  0.090551867   0.11316294            4 
   64000     1.208156   -2.3635855    69.942642  0.091071148   0.11310533            3 
   65000    1.2353753   -2.3259514    71.531706  0.091707315   0.11305611            2 
   66000     1.225809    -2.364224    72.461444  0.091491722   0.11294823            1 
   67000    1.2117668   -2.3475112    74.108224  0.092174407   0.11290067            1 
   68000    1.2095094   -2.3385455    75.297783  0.092276694   0.11288369            1 
   69000    1.2181105   -2.3461549    77.432302  0.093517272    0.1129021            2 
   70000     1.206079   -2.3113824    78.459909  0.093404653   0.11292861            1 
   71000    1.2524617   -2.3587623    80.195701  0.094126409   0.11293748            1 
   72000    1.2434766   -2.3111707    81.384216  0.094194694   0.11297872            2 
   73000    1.2299476   -2.3601183      82.3154   0.09396735   0.11298739            2 
   74000    1.2170838   -2.3476909     84.34369  0.094981632   0.11300624            2 
   75000    1.2219141   -2.3249738    85.973949  0.095526609   0.11307439            2 
   76000    1.1966422   -2.3348975    86.878415  0.095261419   0.11311364            1 
   77000    1.2180174   -2.3362883    87.991575  0.095228977   0.11314194            1 
   78000    1.2430655   -2.3534934    88.757707  0.094826609    0.1130904            3 
   79000     1.218068    -2.346022    90.338036  0.095293287    0.1130549            1 
   80000    1.2113246   -2.3225982    92.083193  0.095919992   0.11304796            1 
   81000    1.1980975   -2.3026141    93.354048  0.096043258   0.11303121            1 
   82000    1.1873356   -2.3534728    94.270044   0.09580289   0.11301004            2 
   83000    1.2313876   -2.3431517    95.776036  0.096160678   0.11296916            1 
   84000    1.2014651   -2.3553305    96.862448  0.096093698   0.11291707            1 
   85000     1.221032   -2.3161751    98.225889   0.09629989   0.11283525            1 
   86000    1.2093291   -2.3678376    99.157626   0.09608297   0.11274691            3 
   87000    1.2361296   -2.3378868    100.20444  0.095981265   0.11265815            1 
   88000    1.1838808   -2.3603554    101.06047  0.095701201   0.11256308            2 
   89000    1.1992077   -2.3624675    103.18967  0.096619539   0.11247179            5 
   90000    1.2019218   -2.3511667    104.08251  0.096372698   0.11240548            1 
   91000    1.2208586   -2.3284923    104.82882  0.095997087   0.11231814            2 
   92000    1.2080155   -2.3554692    106.42964  0.096403655   0.11222515            1 
   93000    1.2265736   -2.3356151    108.42345  0.097153625   0.11214424            1 
   94000    1.2015822   -2.3116863    109.04605  0.096672027   0.11207717            2 
   95000    1.1929246   -2.3712663    110.41616  0.096856284   0.11199138            1 
   96000    1.2059049   -2.3375611    111.41368  0.096713266    0.1118984            1 
   97000    1.1988633   -2.3458101    112.46252  0.096617288   0.11180514            1 
   98000    1.1975726    -2.368917    114.17305  0.097085922   0.11170754            1 
   99000    1.2001953   -2.3437121     114.9633  0.096770451   0.11159514            1 
  100000    1.2405572   -2.3417726    116.16291  0.096802428   0.11149304            2 
  101000    1.2365973   -2.3637189    117.59501  0.097025584   0.11139462            1 
  102000    1.2378982   -2.3146496    119.31869  0.097482588   0.11130191            1 
  103000    1.2183473   -2.3696921    120.15739  0.097214717   0.11121243            1 
  104000    1.2038628   -2.3477347    121.79501  0.097592157   0.11111507            4 
  105000    1.1840855    -2.373711     122.1081  0.096911187   0.11101512            3 
  106000     1.227988   -2.3689235    123.66242  0.097218885   0.11090086            2 
  107000    1.1924776   -2.3403334    124.52746  0.096984004   0.11078225            1 
  108000    1.2249688   -2.3558359    126.49365  0.097603127   0.11066956            1 
  109000    1.2005414   -2.3654514    127.51338  0.097487293   0.11057368            1 
  110000    1.2187572   -2.3586656    128.17849  0.097104913   0.11046212            1 
  111000     1.209371    -2.336034    129.68949  0.097364479    0.1103703            1 
  112000    1.1797532   -2.3537831    131.48737  0.097832862   0.11028296            3 
  113000    1.1975082   -2.3690553    133.99151  0.098813795   0.11022352            2 
  114000    1.2034839   -2.3675731    134.38743  0.098236422   0.11016974            1 
  115000    1.2042151   -2.3843501    135.70785  0.098339019   0.11010737            1 
  116000    1.2237994   -2.3606687    136.53792  0.098087587   0.11005313            1 
  117000    1.2185055   -2.3443357    138.43925  0.098603452   0.11000227            2 
  118000    1.2485229   -2.3482239       139.77  0.098707624   0.10995933            1 
  119000    1.1943253    -2.354574    140.14618   0.09814158   0.10989806            2 
  120000    1.1923735    -2.377564    141.48414  0.098252878   0.10985485            1 
  121000    1.2213658   -2.3384311    143.94276   0.09913413   0.10980767            1 
  122000    1.2141844   -2.3555142    145.15034  0.099146403   0.10977696            3 
  123000    1.2079186   -2.3725657    146.73643  0.099414927   0.10974748            1 
  124000    1.1948675   -2.3908239    148.06181  0.099503907   0.10971878            1 
  125000    1.2112847   -2.3665265    149.21845  0.099478965     0.109696            2 
  126000    1.2138904    -2.364349    151.37234   0.10011398   0.10968057            2 
  127000    1.1958963   -2.3717819    151.71056  0.099547614   0.10967342            2 
  128000    1.2233323   -2.3571216     153.1102  0.099681122   0.10965264            1 
  129000    1.1804872   -2.3514745    154.04164  0.099510103   0.10963633       -1e+20 
  130000     1.221745   -2.3494756     155.4119  0.099623015   0.10961617            1 
  131000    1.2042864   -2.3553246    156.94712  0.099839134   0.10959092            1 
  132000    1.2115578   -2.3247883    157.94974  0.099715744   0.10955967            2 
  133000    1.2356835   -2.3495739    159.14069   0.09971221    0.1095197            1 
  134000    1.1902452   -2.3786627    160.43276  0.099771616   0.10947457            1 
  135000    1.2218659   -2.3558747    162.10473   0.10006465   0.10944592            3 
  136000    1.1992967   -2.3764269    163.35037   0.10009214    0.1094267            1 
  137000    1.1819708   -2.3229934    163.85202  0.099666676    0.1093916            2 
  138000    1.2150934   -2.3511109    166.56186   0.10058083   0.10936668            1 
  139000     1.193372   -2.3855602    166.70139  0.099940879   0.10934758            3 
  140000     1.189403   -2.3718598    168.15748   0.10009374   0.10932076            1 
  141000    1.2255715   -2.3635291    169.54465   0.10020369   0.10929344            1 
  142000    1.2127695   -2.3432475    170.86495   0.10027286   0.10926597            1 
  143000    1.2020691   -2.3743383    171.86016   0.10015161   0.10922105            2 
  144000    1.1786471   -2.3802522    173.30274   0.10029094   0.10917979            4 
  145000    1.1752296   -2.3648333    174.51058   0.10029344   0.10914298            1 
  146000    1.1742608   -2.3296325    175.20916   0.10000523   0.10910608            1 
  147000    1.2123087   -2.3898622    177.24448   0.10047873   0.10907193            2 
  148000    1.1854789   -2.3557271    177.58069  0.099989128   0.10902923            3 
  149000    1.1676647   -2.3976081    178.44157  0.099799534   0.10898656            3 
  150000    1.2183387   -2.3510619    180.50695   0.10028164   0.10893701            1 
  151000     1.169069   -2.3676321    181.65172   0.10024929   0.10888483            1 
  152000    1.1693148   -2.3820471    181.12055  0.099298549   0.10883193            1 
  153000    1.1948065   -2.3928552    182.72758  0.099524825   0.10877846            1 
  154000     1.212023   -2.4001627    185.24684    0.1002418   0.10873827            1 
  155000    1.1995299   -2.3821096    186.55497   0.10029837   0.10870065            3 
  156000    1.1830416   -2.3814312    188.13426   0.10049907   0.10866122            2 
  157000    1.1817236   -2.3824328    188.62342   0.10011859   0.10862249            1 
  158000    1.2118042   -2.3590627    189.81839   0.10011518   0.10858526            1 
  159000    1.1727608   -2.3870812    191.53413   0.10038477   0.10854674            3 
  160000    1.1962753   -2.3507911     192.5413   0.10028193   0.10850181            1 
  161000    1.1836915   -2.3660209    194.35404   0.10059733    0.1084575            4 
  162000    1.1762732   -2.4042825    193.85197  0.099718092   0.10841222            1 
  163000    1.1945462   -2.3889615    196.40484   0.10041147   0.10837628            2 
  164000    1.2117378   -2.3841768    197.49299   0.10035213   0.10834127            1 
  165000    1.1893633   -2.3833272    199.02287    0.1005166   0.10830787            1 
  166000    1.1885357   -2.3531468    201.13894   0.10097336     0.108279            2 
  167000    1.1964717   -2.3669129    202.48463   0.10104024   0.10825886       -1e+20 
  168000     1.197976    -2.378827    202.91202    0.1006508   0.10823881            3 
  169000    1.2337657   -2.3673984    204.54323   0.10085958   0.10820794            2 
  170000    1.1786972   -2.4163562    205.62567    0.1007969   0.10817638            2 
  171000    1.1656154   -2.3735686    206.73015   0.10074568   0.10813752       -1e+20 
  172000    1.1580862   -2.3812086    207.84222   0.10069875   0.10811032            1 
  173000    1.1965388   -2.3689917    209.50049   0.10091546   0.10809175            1 
  174000     1.171519   -2.3862068    211.49126   0.10128892   0.10806889            2 
  175000    1.1674177   -2.3598793    211.32199   0.10062952   0.10804261            1 
  176000    1.1726523   -2.3889568    211.99907   0.10037835   0.10800707            1 
  177000    1.1798646   -2.3850126    214.00212   0.10075429   0.10797524            1 
  178000    1.1565946   -2.3748156    215.48486   0.10088242    0.1079493            2 
  179000    1.1676516   -2.3746437    216.27424   0.10068633   0.10791883            3 
  180000    1.1771762   -2.4074208     218.1179   0.10098051    0.1078908            1 
  181000    1.1906168   -2.3800758    218.89997   0.10078267   0.10786605            2 
  182000    1.1691781    -2.386638    219.93059   0.10070082   0.10782977            2 
  183000    1.1975107   -2.4279869    220.07549   0.10021652   0.10778649            2 
  184000    1.1870009   -2.4109245    221.69229   0.10040412   0.10774578            1 
  185000    1.1845125   -2.3734022    223.26847   0.10057138   0.10770542            1 
  186000    1.1430991   -2.3706044    224.42756   0.10054998   0.10765932            2 
  187000    1.1595724   -2.3744053    224.80696   0.10018135   0.10761301            1 
  188000    1.1994791   -2.4131854    226.35964   0.10033672   0.10757062            2 
  189000    1.1811826   -2.3780132    228.14106    0.1005913   0.10753216            2 
  190000     1.163901   -2.3911328    229.21572   0.10053321   0.10749932            2 
  191000    1.1578188   -2.3731256    231.19086   0.10086861   0.10747429            1 
  192000    1.1701599   -2.3848181    231.70543   0.10056659   0.10744208            1 
  193000     1.149527   -2.3879375    234.06436   0.10106406   0.10740073            2 
  194000    1.1902995   -2.3685664     235.5109   0.10116448   0.10736543            2 
  195000    1.1627442   -2.3528644    234.82567   0.10035285   0.10733503            2 
  196000    1.1725404   -2.3803969    237.58832   0.10101544   0.10730246            1 
  197000    1.1683341   -2.4031067    237.87985   0.10062599   0.10726754            2 
  198000    1.1472217   -2.3794178    240.60837   0.10126615   0.10722515            1 
  199000    1.1638789   -2.3997969     239.8459   0.10043798   0.10718225            2 
  200000    1.1710854   -2.3985416    240.95821   0.10039925   0.10713526            2 
  201000    1.2097351   -2.3725235    243.39706   0.10091089   0.10709672            1 
  202000    1.1767044   -2.3652986    245.01696   0.10107961   0.10705527            1 
  203000    1.1581235   -2.3715102    243.99243   0.10016109    0.1070041            1 
  204000    1.1327811   -2.3822173    245.35485   0.10022665   0.10695168            1 
  205000    1.1742143   -2.3798744    246.67444   0.10027416   0.10689847            1 
  206000    1.1641883   -2.3732027    246.52326  0.099726237   0.10684327            2 
  207000    1.1828654   -2.3977523    247.36327  0.099582638   0.10678412            3 
  208000     1.174326   -2.3796396    249.82561   0.10009039   0.10672894            3 
  209000    1.1842584   -2.4148126    250.10004   0.09972091   0.10666555            1 
  210000    1.1675025   -2.4073274    251.88761  0.099955402   0.10661006            1 
  211000    1.1523327     -2.39836    252.25007   0.09962483   0.10655634            1 
  212000    1.1573308   -2.3825538    255.07989   0.10026725   0.10650728            3 
  213000    1.1796065    -2.422562    254.81236  0.099691847   0.10645816            2 
  214000    1.1752793   -2.4166969    257.29785   0.10019387   0.10641005            1 
  215000    1.1723387   -2.4178851    257.85986   0.09994568   0.10635978            4 
  216000    1.1734444   -2.3873176    258.35425  0.099673706   0.10630794            2 
  217000     1.152459   -2.4089819    260.64707   0.10009488   0.10625584            1 
  218000    1.1835842     -2.40251    260.89299  0.099729735   0.10619818            1 
  219000    1.1947039   -2.3883569    263.22153    0.1001604   0.10613857            2 
  220000    1.1656247   -2.4012441    263.29527  0.099733057   0.10608202            2 
  221000    1.1828191   -2.4015024     263.3563  0.099304789   0.10602126            2 
  222000    1.1615574   -2.3714623    264.94136  0.099452462   0.10596669            2 
  223000    1.1534879   -2.4484295    267.12011  0.099820669   0.10590958            2 
  224000    1.1649482    -2.430373    267.05949  0.099352489   0.10584885            3 
  225000     1.163116   -2.3948045    268.15637  0.099317172   0.10578647            1 
  226000    1.1377648   -2.4146067    268.98312  0.099182568   0.10572485            2 
  227000    1.1781412   -2.4028869    271.41825  0.099639594   0.10566516            1 
  228000    1.1513566   -2.4253751     271.4597  0.099217728   0.10560665            3 
  229000    1.1565341   -2.4016567     274.0861  0.099740211    0.1055508            2 
  230000    1.1613324   -2.4507289    275.19096  0.099706868   0.10549863            2 
  231000     1.161128   -2.4287453    275.46924  0.099375629   0.10544635            4 
  232000    1.1608266   -2.4094488    277.31858  0.099611557   0.10540198            2 
  233000    1.1511392   -2.4012605    279.56047  0.099985862   0.10535932            1 
  234000      1.14194   -2.4349916    280.06172  0.099737078   0.10531035            1 
  235000    1.1607537   -2.4371659    281.49459  0.099820775   0.10526378            1 
  236000      1.18002    -2.410521    280.98863  0.099219148   0.10521115            5 
  237000    1.1653289   -2.4061676    283.46128  0.099669931   0.10516268            2 
  238000    1.1579156     -2.39743     284.0544  0.099458824   0.10511182            1 
  239000    1.1682863   -2.4744462    283.95786  0.099009017   0.10506474            8 
  240000    1.1746129   -2.3910684     287.0541  0.099671562   0.10501754            3 
  241000     1.144164   -2.4084026    287.23723  0.099321312   0.10496749            1 
  242000    1.1502859   -2.3966277    290.07625  0.099888515   0.10492096            1 
  243000    1.1764378   -2.3994484    290.66847  0.099680544   0.10487482            1 
  244000    1.1838374   -2.4208621     290.9814  0.099378892   0.10482747            3 
  245000    1.1498598   -2.4202888    291.70868  0.099220639   0.10477544            1 
  246000    1.1761779    -2.430255      292.782  0.099180896   0.10472006            1 
  247000    1.1546942   -2.3932064    294.63743  0.099405339   0.10466375            1 
  248000    1.1382347   -2.4083397    294.75169  0.099042907   0.10460912            2 
  249000     1.154656   -2.3989675      297.012  0.099401605   0.10455947            2 
  250000    1.1493697   -2.3948933    297.49294  0.099164313   0.10451205            1 
  251000    1.1519566   -2.4189592    300.13598  0.099646741   0.10446865            1 
  252000    1.1386984   -2.4233656    298.90269  0.098843482   0.10442924            2 
  253000    1.1857302   -2.4064267    302.39939  0.099604541   0.10439027            1 
  254000    1.1392258   -2.4209489    302.47185   0.09923617   0.10435541            3 
  255000    1.1303039   -2.4059064    303.38529   0.09914552   0.10431001            1 
  256000    1.1485323   -2.4214741    306.31663  0.099712446   0.10426707            2 
  257000    1.1619257   -2.4083315    305.17349   0.09895379   0.10422425            2 
  258000    1.1605145   -2.4115964    308.23391  0.099558756   0.10418645            2 
  259000    1.1574029   -2.4139137    309.44247  0.099563214   0.10414966            1 
  260000    1.1765315   -2.4238726    309.74911  0.099278561   0.10411062            2 
  261000    1.1747999   -2.4386151    311.88765  0.099580985   0.10407792            2 
  262000    1.1674748   -2.4170154    314.57421   0.10005541   0.10405059            3 
  263000    1.1352174   -2.4411418    315.20614  0.099875202   0.10402116            3 
  264000    1.1313483   -2.4082174    315.71528  0.099657602   0.10399577            1 
  265000    1.1395038   -2.4154882    317.42609  0.099819525   0.10397158            2 
  266000    1.1501771   -2.4067781    318.14558  0.099669668   0.10395014            1 
  267000    1.1201587   -2.4037607    320.15357  0.099923088   0.10392172            3 
  268000    1.1338658   -2.4550984    320.00263  0.099503304   0.10389398            1 
  269000    1.1621266   -2.4528406    322.40369  0.099877226   0.10386814            1 
  270000    1.1555493   -2.4132262    323.62612  0.099884604    0.1038445            1 
  271000    1.1566297    -2.431323    323.58653  0.099503852   0.10381848            1 
  272000    1.1522198   -2.4374996    325.17649   0.09962515   0.10379446            1 
  273000    1.1475956   -2.4135242    328.23349   0.10019337     0.103777            3 
  274000    1.1441596   -2.4156383    329.30568   0.10015379   0.10376184            2 
  275000     1.119293   -2.4454249    331.42424   0.10043159    0.1037446            1 
  276000    1.1376006    -2.425437     332.4267   0.10037038   0.10373569            5 
  277000    1.1447068   -2.4278555    334.15497   0.10052797   0.10372471            1 
  278000    1.1403502   -2.4327164    334.19556   0.10017852   0.10371509            1 
  279000    1.1590836   -2.4268045    335.69447   0.10026716   0.10369933            3 
  280000    1.1780816   -2.4323978    337.05974    0.1003154   0.10368519            1 
  281000    1.1303392   -2.4240239    339.76017   0.10075924   0.10367594            2 
  282000    1.1405406   -2.4209761    339.93813   0.10045453   0.10366627            2 
  283000    1.1270388   -2.4689814    339.36453  0.099930661   0.10365035            1 
  284000    1.1528954   -2.3820344    341.74282   0.10027665   0.10363844            4 
  285000    1.1431874   -2.4203631     343.2001   0.10035091   0.10362441            1 
  286000    1.1360521   -2.4617213    343.43768   0.10006926   0.10360806            2 
  287000    1.1449881   -2.4308651    346.01275   0.10046828   0.10359049            2 
  288000    1.1186371   -2.4323347    346.42588   0.10023897   0.10357679            2 
  289000    1.1493419   -2.4036196    348.44087   0.10047314   0.10356001            2 
  290000    1.1732799   -2.4432276     349.9237   0.10055279   0.10354946            2 
  291000     1.107958   -2.4158601     349.9713   0.10022087   0.10353696            2 
  292000    1.1488116   -2.4219594    351.24188   0.10024026   0.10352461            1 
  293000    1.1404756   -2.4237358    351.98754   0.10011022   0.10350981            1 
  294000    1.1550822   -2.4137405     355.3603   0.10072571   0.10349198            3 
  295000    1.1204997   -2.4361254     354.2885    0.1000815    0.1034791            2 
  296000    1.1262797   -2.4298836    357.15573    0.1005506   0.10346753            1 
  297000    1.1497747   -2.4265554    359.17287   0.10077802   0.10345683            1 
  298000    1.1258428   -2.4463774    357.13025  0.099868637   0.10344502            2 
  299000     1.156709   -2.4192071    360.56341   0.10049147   0.10343498            1 
  300000    1.1389441   -2.4001031    360.92045   0.10025568   0.10342174            1 
  301000    1.1095198   -2.4248025    359.17874  0.099440403   0.10340174            3 
  302000    1.1190134   -2.4254675    361.58456  0.099774989   0.10337926            1 
  303000     1.116149   -2.4194741    363.14643  0.099875256   0.10335759            1 
  304000    1.1507882    -2.454036    363.91302  0.099756859   0.10333039            3 
  305000    1.1255837   -2.4319245    364.17271   0.09950074   0.10330037            3 
  306000    1.1298115   -2.4170156    365.81472  0.099622745   0.10327338            4 
  307000    1.1271199   -2.4792245     367.4012  0.099728882   0.10324853            1 
  308000    1.1279516   -2.4461657     369.1501  0.099878272   0.10322088            1 
  309000    1.1647616   -2.4318722    369.88849  0.099754179   0.10319248            2 
  310000    1.1446507   -2.4591871    370.71977  0.099655853   0.10316594            1 
  311000    1.1241027   -2.4219997    370.99448  0.099409025   0.10314116            4 
  312000    1.1408485    -2.429801    375.15711   0.10020222   0.10311813            1 
  313000    1.1351701   -2.4597143    373.45198   0.09942811   0.10309349            2 
  314000    1.1341036   -2.4141247    374.73485  0.099451923   0.10306299            2 
  315000    1.1435783   -2.4236598     375.8055  0.099419445   0.10303344            2 
  316000    1.1102057   -2.4254032    377.72744  0.099611666    0.1030047            2 
  317000     1.138262   -2.4667508     377.8186  0.099321398   0.10298101            2 
  318000     1.136142   -2.4128551    379.57751  0.099469996   0.10295431            1 
  319000    1.1134437   -2.4722418    378.92469  0.098987642   0.10292726            2 
  320000    1.1242261   -2.4636433    382.11261  0.099508492   0.10289689            3 
  321000    1.1499638   -2.4493693     378.9261  0.098371261   0.10286295            3 
  322000     1.108586   -2.4691191    383.14847  0.099158505   0.10283105            2 
  323000    1.1396158   -2.4397402     386.9929  0.099843369   0.10280438            2 
  324000    1.1246193   -2.4390029    387.60464  0.099692551   0.10277892            1 
  325000    1.1362396    -2.443456    388.93062  0.099725799   0.10275721            2 
  326000    1.1199919    -2.418107    391.48575   0.10007304   0.10273642            3 
  327000    1.1133637   -2.4488179    391.30078  0.099719873   0.10271855            1 
  328000    1.1173992   -2.4478339    391.94839  0.099580382   0.10269884            2 
  329000    1.1203876   -2.4681485    391.01798  0.099042042   0.10268005            1 
  330000    1.1315046   -2.4638461    395.21897  0.099802769   0.10266065            3 
  331000    1.1384578   -2.4367649    397.64749   0.10011266   0.10264418            1 
  332000    1.1256878   -2.4491035    396.26372  0.099463784   0.10262297            1 
  333000    1.1182155   -2.4841814    399.03414  0.099858393   0.10259689            2 
  334000    1.1271265   -2.4487417    397.75544  0.099240378   0.10257148            2 
  335000    1.1216381   -2.4364811    399.69803  0.099427371   0.10254675            2 
  336000    1.1459216   -2.4196121    400.65332  0.099368382   0.10252503            2 
  337000    1.0960522   -2.4428329    400.40741  0.099012712   0.10250072            4 
  338000    1.1333936    -2.431924     403.3521  0.099445783   0.10247715            1 
  339000    1.1090057   -2.4563424    402.82619  0.099023153   0.10245081            1 
  340000     1.130177    -2.467868    403.85014  0.098982877   0.10242178            2 
  341000    1.0936225   -2.4657852    405.70982  0.099147073   0.10239203            4 
  342000    1.1150219   -2.4830846    405.74663  0.098866139   0.10236566            2 
  343000    1.0907864   -2.4625505    407.47234  0.098997167   0.10233693            1 
  344000    1.1186286   -2.4367307    409.08221  0.099099373   0.10231012            2 
  345000    1.1104419   -2.4655615    407.90684  0.098528222   0.10227981            2 
  346000     1.108975   -2.4461747    410.92085  0.098969376   0.10224882            1 
  347000    1.1063456   -2.4774268    412.45524  0.099052651   0.10221753            3 
  348000    1.1333398   -2.4550133    413.12904  0.098929369   0.10218949            4 
  349000    1.1347501   -2.4967394    417.13362  0.099602106   0.10216516            3 
  350000      1.09176   -2.4734721    415.20909  0.098859306   0.10214182            1 
  351000    1.1213548   -2.4597434    417.47828    0.0991164   0.10211857            4 
  352000    1.1120715    -2.453289     419.8849   0.09940457   0.10209575            1 
  353000    1.1202636   -2.4539814    420.01827  0.099154455   0.10207367            1 
  354000    1.1093317   -2.4405976    420.55242  0.099000099   0.10205068            1 
  355000    1.1123608   -2.4724551    422.18079  0.099103471   0.10202538            1 
  356000    1.0869258    -2.448684    421.15594  0.098585191   0.10199926            3 
  357000    1.1280353   -2.4590977    424.51444  0.099093007   0.10197353            1 
  358000    1.1208369   -2.4499085    424.03978  0.098705721    0.1019474            2 
  359000    1.0987353   -2.4540329    424.09464   0.09844351   0.10192288            1 
  360000    1.0975301   -2.4455197    426.58205  0.098745845   0.10189595            1 
  361000    1.1246329   -2.4508923    427.91328  0.098779613   0.10187044            1 
  362000    1.1087491   -2.4636488    430.91912  0.099198691   0.10184543            3 
  363000    1.1095204   -2.4588805    430.80297  0.098898752   0.10182109            1 
  364000    1.1082953   -2.4589876    430.87683  0.098643964   0.10179634            2 
  365000    1.1204451   -2.4694097    430.79597  0.098355243    0.1017708            6 
  366000    1.1054538    -2.456997    432.95354  0.098577763   0.10174276            2 
  367000    1.1188867   -2.4096319    434.69858  0.098705399   0.10171415            1 
  368000    1.0797836   -2.4479673    434.93444  0.098490588   0.10168476            2 
  369000    1.0904094   -2.5080867    436.20401   0.09851039   0.10165892            1 
  370000    1.1146209   -2.4520469    441.15888  0.099360107   0.10163244            2 
  371000    1.0982233   -2.4686411    436.40398  0.098024254   0.10160686            1 
  372000    1.0919228   -2.4306193    442.05247   0.09902609   0.10158086            1 
  373000    1.0980188   -2.4703734    440.78931  0.098478399   0.10155383            1 
  374000    1.0884268    -2.475473     441.7123  0.098420744    0.1015272            2 
  375000    1.0930058   -2.4482579    442.83304  0.098407342   0.10150079            1 
  376000    1.0920202   -2.4464776     444.1259  0.098432158    0.1014744            3 
  377000    1.0948981   -2.4658738    447.93485  0.099013007   0.10144666            1 
  378000    1.1153966   -2.4676399     445.5584  0.098227161   0.10141572            1 
  379000    1.1322248   -2.4961194    445.11212   0.09786986   0.10138498            3 
  380000    1.0974604   -2.4576399     447.8655  0.098216118   0.10135166            4 
  381000    1.0902602   -2.4886199    447.29152  0.097832791   0.10131659            2 
  382000    1.0964036   -2.4675707    447.92807  0.097715547   0.10128089            2 
  383000    1.0951402   -2.4768115    449.53515  0.097810084   0.10124591            4 
  384000    1.0813546   -2.4703787    451.56013  0.097994819   0.10121086            6 
  385000    1.0925259   -2.4757141    452.02778  0.097841511   0.10117534            1 
  386000    1.1099898   -2.4971994    454.31915  0.098082718    0.1011419            2 
  387000    1.1059065   -2.4849613    455.35405   0.09805212   0.10110736            3 
  388000    1.1132246   -2.5057814    454.53582  0.097623673   0.10107236            2 
  389000    1.0858011   -2.4579002    456.85766  0.097870106   0.10104026            1 
  390000    1.0812858   -2.4600984    458.09445   0.09788343    0.1010067            2 
  391000    1.0850769   -2.4769541    457.67143   0.09754293   0.10097186            3 
  392000    1.1117114   -2.4871843     456.3567  0.097014604   0.10093175            2 
  393000    1.0693127    -2.463785    459.42654  0.097418689   0.10089449            1 
  394000    1.1079881   -2.4760598      460.771  0.097455796   0.10085713            2 
  395000    1.1031204   -2.4909327    460.54666  0.097161742   0.10082074            1 
  396000    1.0952224   -2.4735805    463.18171  0.097470898   0.10078152            1 
  397000    1.0823009   -2.4893305    464.31064  0.097462351   0.10074349            1 
  398000    1.0864484   -2.4711178    465.51965  0.097470614   0.10070714            2 
  399000     1.064912   -2.4776699    465.17781  0.097154931   0.10066941            1 
  400000    1.0928095   -2.4511561    468.12425  0.097525885   0.10062987            3 
  401000    1.0698436   -2.4826434    471.25572  0.097933442   0.10059409            1 
  402000    1.0744664   -2.4483794    472.30358  0.097907043   0.10055912            2 
  403000    1.1134608   -2.4734119    470.54903  0.097301287   0.10052033            2 
  404000    1.0855919    -2.458732    468.77458  0.096694426   0.10047769            1 
  405000    1.0856415   -2.5035385    470.17855  0.096744557   0.10043184            1 
  406000    1.0808139   -2.4885216    469.79226  0.096426983   0.10038508            2 
  407000    1.0866151   -2.4648875    470.92354  0.096421691   0.10033902            3 
  408000    1.1071246   -2.4811637    472.92247  0.096593642   0.10029269            1 
  409000    1.0967235   -2.4564971    473.63864  0.096503391   0.10024641            3 
  410000    1.0927722   -2.4859591    473.80443  0.096301713   0.10020064            2 
  411000    1.0720454   -2.4879139    476.57409  0.096628973   0.10015438            3 
  412000    1.0948914   -2.5000065    474.84151  0.096043994   0.10010892            2 
  413000    1.0963985   -2.5043807    477.12307  0.096271805   0.10006103            2 
  414000    1.0900602   -2.4953579    477.03303  0.096021142   0.10001499            1 
  415000    1.0790207   -2.4786322    477.91257  0.095966379  0.099967527            1 
  416000    1.0974854   -2.4813091    478.84757   0.09592299  0.099918719            2 
  417000    1.0923936   -2.4801077    478.65793  0.095655061  0.099869074            1 
  418000    1.1274944   -2.4500184    479.13316  0.095520966  0.099819952            2 
  419000    1.1050371   -2.4721023    483.89501  0.096240058  0.099772593            2 
  420000    1.0902896   -2.4753015    483.51072  0.095934666  0.099722894            3 
  421000    1.1007611   -2.4705187    483.23512  0.095652241  0.099671901            1 
  422000    1.0916462   -2.5107931     483.9591  0.095568542  0.099624638            7 
  423000    1.0898594   -2.4737947    487.16877  0.095974934  0.099577561            2 
  424000    1.0892911   -2.4945239    487.22123   0.09575889  0.099529451            3 
  425000    1.0844684   -2.5071431    490.72046  0.096219697  0.099484377            1 
  426000    1.0747286   -2.5043957      490.293  0.095910212  0.099440218            2 
  427000    1.1002788    -2.510555    490.33197  0.095693202  0.099395322            3 
  428000     1.072666   -2.4868792    490.85388  0.095571239  0.099347092            2 
  429000    1.1064322   -2.5231388    491.89816  0.095551314  0.099298713            3 
  430000    1.0635257   -2.4925055     492.6584  0.095476434  0.099251839            2 
  431000    1.1045716   -2.4847461    495.77253  0.095857024  0.099207375            2 
  432000    1.0634724   -2.4798423    495.27519  0.095539196  0.099162823            2 
  433000    1.0830376   -2.4948841     497.5211  0.095750789  0.099118174            1 
  434000    1.0509106   -2.4920952    498.58006  0.095733497    0.0990721            4 
  435000    1.1074055   -2.5100734    496.01035  0.095021139  0.099023673            1 
  436000    1.0935693   -2.5054114    497.28244  0.095046338  0.098975029            4 
  437000    1.0718961   -2.5040066    499.33839  0.095220898  0.098924263            1 
  438000    1.0932149   -2.4951398    501.77065  0.095466257  0.098876474            1 
  439000    1.1010581   -2.5084705    502.01742  0.095295638  0.098832172            3 
  440000    1.0692627   -2.4865456    504.81475  0.095608855  0.098788043            1 
  441000      1.10973   -2.5131369    505.13594  0.095452748  0.098744146            2 
  442000    1.0760299   -2.4654251    503.93302  0.095009995  0.098697743            1 
  443000    1.0730195   -2.4714089    506.21856  0.095225462  0.098651092            2 
  444000    1.0748178   -2.4999033    506.78982  0.095118209  0.098604193            1 
  445000    1.0972912    -2.510325    506.69996  0.094887632  0.098557392            1 
  446000    1.0634398   -2.4748188     509.7872   0.09525172  0.098513291            1 
  447000    1.0970791   -2.4798708    509.35849  0.094958705  0.098467275            1 
  448000    1.0820226   -2.4873036    511.97017  0.095232546  0.098421575            3 
  449000    1.0775051   -2.5062353    511.75935  0.094981319  0.098375051            2 
  450000    1.0867382   -2.4841985    514.51752  0.095281021  0.098328475            3 
  451000    1.0512193    -2.472895    512.59251  0.094714064   0.09828191            1 
  452000    1.0560087   -2.4796494    515.81874  0.095099324  0.098233299            1 
  453000    1.0774067   -2.4999878    517.60395  0.095217798  0.098189334            2 
  454000    1.0937693   -2.5270712     515.3087  0.094586765   0.09814694            1 
  455000    1.0757383   -2.5089626    519.42726  0.095133198  0.098103192            2 
  456000    1.0839661   -2.5117762    519.28064  0.094897778  0.098057734            2 
  457000    1.0565141   -2.5057202     519.1398  0.094664442  0.098011399            2 
  458000     1.089749    -2.502679    521.86335  0.094953302  0.097965274            2 
  459000    1.0824304   -2.5066406    519.53322  0.094323388  0.097917839            2 
  460000    1.0573259   -2.5039167    521.27427  0.094433744   0.09787227            1 
  461000    1.0541426   -2.5037455    524.75318  0.094857769  0.097829015            2 
  462000    1.0707929   -2.4785943    526.50874   0.09496911  0.097785886            2 
  463000    1.0727129   -2.5179569    521.69239  0.093897119  0.097741139            1 
  464000    1.0575582   -2.5217094    525.15918  0.094317381  0.097695755            1 
  465000     1.091387   -2.5144612    524.52421  0.094000755  0.097651056            2 
  466000     1.045841   -2.5104462    526.63492  0.094176488  0.097605374            1 
  467000    1.0975954   -2.4869435    529.37378  0.094463558  0.097560243            2 
  468000    1.0543797   -2.4889304    528.26759  0.094064742  0.097515649            1 
  469000    1.0701598   -2.5096689     530.7521  0.094305632  0.097470469            1 
  470000    1.0461253   -2.5306161    532.17825  0.094357846  0.097424021            2 
  471000    1.0583111   -2.5132511    531.20871  0.093985972  0.097379609            1 
  472000    1.0737989   -2.5090929    533.80456  0.094245155  0.097333875            3 
  473000    1.0647206   -2.5032257    534.88958  0.094237065  0.097287153            1 
  474000    1.0689547   -2.5039459      534.442  0.093959564  0.097241596            1 
  475000    1.0639721   -2.4958707    537.16066  0.094238712  0.097195081            3 
  476000    1.0727467   -2.4953624    535.80174  0.093802825  0.097148481            1 
  477000    1.0400763   -2.5068565    539.35839  0.094227531  0.097102088            2 
  478000     1.065224   -2.5035718    537.13429  0.093642659  0.097056015            2 
  479000    1.0648475   -2.5287511    536.85675  0.093398878  0.097010092            3 
  480000    1.0430954   -2.5338624    541.43678   0.09399944  0.096965097            2 
  481000    1.0657332   -2.4988667    541.22631  0.093767552  0.096919286            3 
  482000     1.085432   -2.5455553    542.19327  0.093740192  0.096872151            4 
  483000     1.046042   -2.5523802    541.53462  0.093432474  0.096824934            1 
  484000    1.0649069   -2.4839176    543.59378   0.09359397  0.096777563            1 
  485000    1.0649705   -2.5003308    544.69141  0.093589589  0.096731495            2 
  486000    1.0678104   -2.4893959    546.70357  0.093742039   0.09668547            2 
  487000    1.0411572   -2.5552054     546.3324  0.093486037  0.096638342            2 
  488000    1.0334557   -2.5311901    549.91393  0.093906068  0.096591407            3 
  489000    1.0622701   -2.5545832    548.28725  0.093436819  0.096545811            2 
  490000    1.0568476   -2.5290873    549.55941  0.093462485  0.096499372            2 
  491000    1.0766855   -2.5223193    549.56577  0.093273212  0.096454704            2 
  492000    1.0553494   -2.5361536    550.69299  0.093274558  0.096409879            2 
  493000    1.0430537   -2.5159762    553.31947  0.093529322  0.096367351            4 
  494000    1.0267384   -2.5342914    554.79555  0.093588993  0.096322075            2 
  495000    1.0488078    -2.510244    555.55775  0.093528241  0.096275148            2 
  496000    1.0605453   -2.5097743    557.55889  0.093675888  0.096228449            3 
  497000    1.0593715   -2.4992276    559.14599  0.093753519  0.096183132            1 
  498000    1.0624722   -2.5524202    557.14482  0.093230392  0.096137178            5 
  499000    1.0452948   -2.4627302    560.15069   0.09354554  0.096093173            1 
  500000    1.0397875   -2.5292236    560.55637  0.093426062  0.096048754            1 
  501000    1.0524794   -2.5102008    561.37154  0.093375173   0.09600455            3 
  502000     1.062029   -2.5025819     563.7964    0.0935917  0.095962133            3 
  503000    1.0586714   -2.5077232    562.13411  0.093130237  0.095920658            2 
  504000    1.0445698   -2.5274283    562.99172  0.093087255  0.095878205            3 
  505000    1.0703923   -2.5134673    565.11866  0.093253904  0.095837259            1 
  506000    1.0506045     -2.49597    565.02373  0.093053973  0.095794164            2 
  507000    1.0435577   -2.5400107    565.08554  0.092880594  0.095751338            2 
  508000    1.0511494   -2.5161264    569.41286  0.093407622  0.095707056            1 
  509000    1.0614865   -2.5228614    566.73969  0.092786459  0.095666368            2 
  510000    1.0486715   -2.5258877    567.99575  0.092809763  0.095623004            1 
  511000    1.0559232   -2.4807389    566.78675  0.092430976  0.095578848            3 
  512000    1.0424135   -2.5341686    571.83772  0.093072545  0.095533601            1 
  513000     1.041059    -2.514358    570.28503  0.092638894  0.095486965            2 
  514000    1.0701233   -2.5142338    571.69836  0.092687801  0.095441327            2 
  515000     1.042282   -2.5490134    570.55355  0.092322581  0.095394744            2 
  516000    1.0530328   -2.5238864    572.04298  0.092384202  0.095349673            2 
  517000    1.0435418   -2.5239166    571.64122  0.092140752  0.095304303            1 
  518000    1.0520473   -2.5261179    572.32017  0.092072099  0.095258379            3 
  519000    1.0631972   -2.5402267    575.05665  0.092334079  0.095211484            1 
  520000    1.0453078   -2.5465683    573.02304  0.091830615  0.095163728            1 
  521000    1.0311241   -2.5262441    577.01698  0.092293182  0.095115612            2 
  522000    1.0609222   -2.5195796    574.11294  0.091652768  0.095065882            1 
  523000    1.0509972   -2.5244249    575.85767  0.091755524  0.095016121            2 
  524000    1.0458866   -2.5598436    575.08928  0.091458219  0.094963751            2 
  525000     1.041181     -2.52022    576.11983  0.091447591  0.094912674            1 
  526000    1.0397075   -2.5314472    579.97549  0.091884584  0.094860704            1 
  527000    1.0563891    -2.531587    578.51123  0.091478688  0.094808735            2 
  528000    1.0489622   -2.5326305    580.22303  0.091575605  0.094757979            2 
  529000    1.0366733   -2.5304503    581.79553  0.091650209  0.094707617            2 
  530000    1.0215884   -2.5351689    581.82718  0.091482261  0.094658081            1 
  531000    1.0394522   -2.5429419    581.65276  0.091282605  0.094609048            2 
  532000    1.0372003   -2.5433037    584.81776  0.091606793  0.094560165            1 
  533000    1.0319008   -2.5366308    584.82149  0.091435505  0.094511746            2 
  534000    1.0228302    -2.533247    585.94175  0.091439099  0.094462868            5 
  535000    1.0208961   -2.5395645    589.90865  0.091886083   0.09441488            4 
  536000    1.0795712    -2.543239    588.24113  0.091455399  0.094367652            2 
  537000    1.0314987   -2.5629666    591.06335  0.091723052   0.09432168            1 
  538000    1.0371909   -2.5350432    591.39994    0.0916047  0.094275449            2 
  539000    1.0460001   -2.5468998    590.15017  0.091241523  0.094229944            4 
  540000    1.0339881   -2.5374804    594.55075  0.091751659  0.094185168            1 
  541000    1.0513372   -2.5395651    597.03863  0.091965285  0.094140668            2 
  542000    1.0278223   -2.5298306     596.1909  0.091665267  0.094098026            2 
  543000    1.0246654   -2.5399903    595.55371  0.091398667  0.094053749            5 
  544000    1.0515056   -2.5632326      601.699  0.092172028  0.094009813            1 
  545000    1.0430129   -2.5179216    600.15722  0.091767159  0.093969456            2 
  546000    1.0628099   -2.5445087     600.4995  0.091651328  0.093928057            2 
  547000    1.0099047   -2.5375218    603.06827  0.091875117  0.093886417            3 
  548000    1.0181312   -2.5440297    600.78311  0.091359962  0.093843294            4 
  549000     1.056903    -2.542811    603.46724  0.091600978   0.09379996            2 
  550000    1.0401589   -2.5578349    600.82831  0.091034592  0.093757443            1 
  551000    1.0543251   -2.5403181    605.15572  0.091523854  0.093715422            1 
  552000    1.0174128   -2.5347454     606.4816  0.091558213  0.093674764            2 
  553000    1.0505017    -2.526936    606.31574  0.091367652   0.09363398            1 
  554000    1.0144964     -2.55144    607.22535  0.091339554  0.093592801            3 
  555000    1.0232242    -2.536771    611.08813  0.091754974  0.093552038            2 
  556000    1.0613583   -2.5177118    609.98286   0.09142429  0.093511677            2 
  557000    1.0117552    -2.526521    612.33853  0.091612586  0.093471603            2 
  558000    1.0236316   -2.5421729     610.8216  0.091221864  0.093431345            1 
  559000    1.0117115    -2.541064    611.50766  0.091160951  0.093390827            3 
  560000    1.0307661   -2.5570222    609.84667  0.090750993  0.093348641            1 
  561000    1.0335211    -2.553394    614.22964  0.091240291  0.093306627            3 
  562000     1.019418   -2.5070687    611.16424  0.090623405  0.093264205            1 
  563000    1.0159953   -2.5377426    612.88919  0.090717761  0.093221374            4 
  564000    1.0186083   -2.5632201    615.38605  0.090925835  0.093178003            1 
  565000    1.0204302   -2.5226535    617.95216  0.091143387  0.093135384            2 
  566000    1.0028044   -2.5632809    616.84542  0.090819407  0.093092581            1 
  567000    1.0439225   -2.5613266    618.93169  0.090965857  0.093049905            2 
  568000    1.0335882   -2.5588024    618.47075   0.09073808  0.093006365            2 
  569000     1.026363   -2.5728424    619.06097  0.090665052  0.092962613            3 
  570000    1.0342465   -2.5720685    617.95587  0.090344426  0.092919807            3 
  571000    1.0430176   -2.5562155    620.45354  0.090550721  0.092878588            2 
  572000    1.0381396   -2.5766996    621.44715  0.090537172  0.092835895            5 
  573000    1.0336734   -2.5649346    620.66742  0.090265768  0.092794043            2 
  574000    1.0091708   -2.5581972    624.17567  0.090617838  0.092751013            3 
  575000    1.0295025   -2.5761939    623.84328  0.090412069  0.092708969            3 
  576000    1.0148806   -2.5481902     629.0083  0.091002359  0.092667895            2 
  577000    1.0205812   -2.5702496    625.54852  0.090344963  0.092627478            2 
  578000    1.0424805    -2.558311    626.33364  0.090301851  0.092586446            4 
  579000    1.0124206   -2.5505268    627.09038  0.090254804  0.092546037            1 
  580000    1.0327586   -2.5556917     628.0018  0.090230143  0.092502271            2 
  581000    1.0141145   -2.5514843    629.38668  0.090273476  0.092458169            4 
  582000    1.0212202   -2.5654321    630.16203  0.090229386  0.092414032            1 
  583000    1.0073132   -2.5517014    631.99084  0.090336026   0.09237073            2 
  584000    1.0330912   -2.5827253    635.06199  0.090619576  0.092327834            2 
  585000    1.0154937   -2.5297839     630.4551  0.089808419  0.092284704            2 
  586000    1.0008502   -2.5680538    629.47258  0.089515441  0.092239737            2 
  587000    1.0163654   -2.5421484    633.15715  0.089886023  0.092194219            2 
  588000    1.0162927   -2.5612988    632.69795  0.089668076  0.092149558            2 
  589000    1.0352478   -2.5570952    634.26742  0.089737892  0.092103597            1 
  590000    1.0397302   -2.5727627    635.28845  0.089730007  0.092057721            5 
  591000    1.0319406    -2.579651    634.44103  0.089458689  0.092010793            1 
  592000    1.0126937   -2.5564744    635.59326  0.089469772  0.091964698            1 
  593000    1.0188292   -2.5437578    636.58888  0.089458808   0.09192042            2 
  594000    1.0172911   -2.5726006    637.56164  0.089444674  0.091876391            2 
  595000   0.99315195   -2.5601147    642.55082  0.089993113  0.091833465            3 
  596000    1.0133891   -2.5883728    638.51497   0.08927782  0.091790181            2 
  597000    1.0195816    -2.558648    643.22804  0.089786158  0.091747772            2 
  598000    1.0091817   -2.5552877    642.80898  0.089577616  0.091705136            1 
  599000    1.0144095    -2.566571    641.03113  0.089180736  0.091663551            2 
  600000    1.0076292   -2.5690465    644.19176  0.089471078  0.091621171            1 
  601000    1.0293255    -2.551508    644.40164  0.089351309  0.091578205            1 
  602000    1.0204308   -2.5574903    644.23727  0.089180131  0.091536912            3 
  603000    1.0169269   -2.5586111    649.72499  0.089790628  0.091495824            2 
  604000    1.0061482   -2.5959018    650.25363  0.089714904   0.09145572            4 
  605000    1.0063498    -2.579516    649.78491  0.089502054  0.091416282            3 
  606000    1.0208399   -2.5658709    651.64999  0.089610835   0.09137763            2 
  607000    1.0171872   -2.5719269    651.47966  0.089439821  0.091338301            1 
  608000    1.0021104   -2.5760004    655.80565  0.089885643   0.09130103            2 
  609000    1.0235542   -2.5504735     657.1723  0.089925055  0.091263307            1 
  610000    1.0281354   -2.5647308    655.01649  0.089483127  0.091224437            3 
  611000     1.002034   -2.5730107    654.43733  0.089257682  0.091187441            1 
  612000   0.99738743     -2.54191    656.86034  0.089441768   0.09114966            2 
  613000   0.96927224   -2.5962705    658.07377  0.089460816  0.091111503            3 
  614000    1.0176715   -2.5422456    657.46347  0.089232284  0.091072844            2 
  615000    1.0045248   -2.5767705    657.39931  0.089078497  0.091033963            2 
  616000    1.0258327    -2.569851    660.66287  0.089375388   0.09099625            3 
  617000   0.99202019   -2.5777576     661.4583  0.089337966  0.090958073            2 
  618000    1.0172098   -2.5687898    663.95738  0.089530392  0.090920794            2 
  619000     1.025402   -2.5999681    661.89845  0.089108569  0.090881858            2 
  620000    1.0139729   -2.5662362    663.03586  0.089117723  0.090842297            3 
  621000    1.0199343   -2.5703083    659.83512  0.088544702  0.090803997            3 
  622000    1.0261972   -2.5769826    663.92143  0.088949816    0.0907645            2 
  623000    1.0172611   -2.5613963    667.12757  0.089235897  0.090726098            1 
  624000    1.0105941   -2.5525163    668.79653  0.089315776  0.090688512            3 
  625000    1.0166527   -2.5674851    668.82721  0.089176962   0.09065202            2 
  626000    1.0284901   -2.5959336    667.20813  0.088818973  0.090616404            1 
  627000    1.0072767   -2.5646109    671.43176   0.08923867  0.090579397            1 
  628000    1.0119154   -2.5645578     671.7838  0.089143286  0.090542919            3 
  629000    1.0028739   -2.5743846    670.87859  0.088881636  0.090505349            1 
  630000    0.9882435    -2.607826    669.48107  0.088555697  0.090468151            2 
  631000   0.99264055   -2.5859273    672.17204   0.08877074  0.090429668            3 
  632000    1.0216861   -2.5536475    674.08829   0.08888295  0.090391249            5 
  633000   0.98629264   -2.5607166    676.48997  0.089058712  0.090353512            2 
  634000    0.9875316   -2.5755991    675.11622  0.088737673  0.090316462            2 
  635000   0.98824959   -2.5775377    676.04752  0.088720146  0.090276973            2 
  636000   0.99229242   -2.5751093    674.95319  0.088437262  0.090238156            3 
  637000   0.99956905   -2.5787235    679.88109  0.088943104  0.090198773            2 
  638000    1.0217139   -2.5981238    679.63725  0.088771846  0.090159752            3 
  639000   0.98884792   -2.5830259    676.61898  0.088239304   0.09012138            2 
  640000   0.98211472   -2.5793812    681.17917  0.088695205  0.090083442            1 
  641000    1.0207253   -2.5731848    681.07525  0.088543324  0.090044996            2 
  642000   0.98021311    -2.586623    678.60867  0.088085237  0.090006881            2 
  643000    1.0042029   -2.6039082    683.00367  0.088517843  0.089969049            1 
  644000    1.0067993   -2.5964594    683.33913  0.088423801   0.08993018            2 
  645000    1.0187124   -2.5707481    684.07683   0.08838202  0.089891185            3 
  646000   0.98853991   -2.5877188    685.00086  0.088364404  0.089851266            3 
  647000   0.98093018   -2.5681911    685.08132  0.088238191  0.089811199            4 
  648000   0.97216878    -2.574197    684.86172  0.088073781  0.089771997            3 
  649000   0.98009982   -2.5661303    684.42832  0.087882425  0.089734087            6 
  650000    1.0023949    -2.575263    686.58786  0.088024084  0.089695466            2 
  651000    1.0144509   -2.5694622    692.05861  0.088589172  0.089658945            3 
  652000   0.99860469   -2.5881391    688.60369  0.088011719  0.089621078            3 
  653000   0.99388311   -2.5846324    691.85746  0.088292172  0.089583312            4 
  654000   0.98457566   -2.5952219    693.10766   0.08831647  0.089546241            3 
  655000   0.98038059   -2.6072943    693.87856  0.088279715  0.089509254            2 
  656000    1.0005477    -2.583289    692.63268  0.087986875  0.089472495            1 
  657000   0.97085932   -2.5648679    694.97604  0.088150183  0.089436275            2 
  658000   0.99871016    -2.606306    696.07126  0.088154922  0.089400288            2 
  659000   0.97517375   -2.5622939    696.06623  0.088020514  0.089364328            2 
  660000    1.0058896    -2.587256    698.21905  0.088158971  0.089328269            2 
  661000   0.96448717   -2.5642144    700.02017  0.088252669  0.089292862            2 
  662000   0.97360656    -2.596212    699.11202  0.088005038  0.089257202            4 
  663000   0.97767231   -2.5854571    700.73294  0.088076036  0.089222225            1 
  664000   0.99545694   -2.6138262    701.03641  0.087981477  0.089185595            2 
  665000    1.0006797   -2.6167495    700.77572  0.087816506  0.089150518            3 
  666000   0.99228879   -2.6254224    702.40682  0.087888742  0.089115246            3 
  667000    1.0049681    -2.607571    702.05877  0.087713489  0.089080878            4 
  668000   0.99249055   -2.5753911    705.37347  0.087995692  0.089045768            2 
  669000   0.98237147   -2.5959612    703.89635  0.087680163  0.089011692            4 
  670000     0.985664   -2.5908835     710.1269  0.088324242  0.088977909            5 
  671000    1.0014441   -2.6129021    705.83927  0.087660118  0.088943762            3 
  672000    1.0001827    -2.612792    705.95926   0.08754455  0.088910085            2 
  673000   0.98408517   -2.6003014    708.34516  0.087709901  0.088875053            3 
  674000   0.96111591   -2.6150193    710.88499  0.087893792  0.088840163            2 
  675000   0.98875655   -2.6006492    708.82261  0.087508964  0.088805439            3 
  676000   0.98366668   -2.5874522    712.37638  0.087817601  0.088770445            2 
  677000    1.0013195   -2.5904436     712.8856  0.087750566   0.08873529            3 
  678000   0.99077586   -2.6160165    708.39098  0.087068704  0.088700168            2 
  679000   0.94672579    -2.620431    711.05461  0.087267379  0.088664929            2 
  680000   0.98716545   -2.5869794     713.0325  0.087381434  0.088629493            2 
  681000   0.98955793   -2.6242694    711.63414  0.087082004  0.088594312            4 
  682000    1.0027461   -2.5860568    713.51106  0.087183659  0.088558292            2 
  683000   0.97092125   -2.6169869    713.69735   0.08707874  0.088521409            3 
  684000     0.978948   -2.6030001    714.46415  0.087044852  0.088483942            2 
  685000   0.97423468   -2.5789882    717.29878  0.087262625  0.088447825            3 
  686000     0.997533   -2.6162556     716.4572  0.087033188  0.088411231            2 
  687000   0.98356737   -2.5981768     719.2016  0.087239398   0.08837533            2 
  688000    1.0107988   -2.6018683    719.37154  0.087133181  0.088340053            4 
  689000    0.9571405   -2.6318154     720.0837  0.087092851  0.088305071            2 
  690000   0.97908844   -2.6238946    719.67476  0.086917242  0.088269429            1 
  691000   0.98893301   -2.6167568    720.67817  0.086912466  0.088234109            3 
  692000   0.99066164   -2.6054463    722.63682  0.087022738  0.088199547            4 
  693000   0.97036402   -2.5972097    722.32489  0.086859655  0.088163387            3 
  694000   0.96818326   -2.6237803    720.91527  0.086565234  0.088126522            3 
  695000   0.97199543   -2.6087198    724.92464  0.086921419  0.088091227            2 
  696000   0.99292098    -2.609356     723.9061  0.086674581  0.088055837            4 
  697000   0.96570533   -2.6239623    725.48122  0.086738548  0.088018229            3 
  698000    0.9456826   -2.6011155      725.806  0.086653057  0.087982406            4 
  699000   0.95944416   -2.6045892    729.22447  0.086936632  0.087946306            3 
  700000   0.98204585   -2.6281302    731.26191  0.087054989  0.087911108            3 
  701000   0.96556396   -2.6172947    728.70108  0.086626377   0.08787512            5 
  702000   0.99106765   -2.6218485    731.44897  0.086829175  0.087840265            2 
  703000   0.98245492    -2.620762    733.49839    0.0869486  0.087805054            2 
  704000   0.96479597   -2.6228601    730.46476     0.086466  0.087769983            2 
  705000   0.97264614    -2.644745    734.99109  0.086878379  0.087735122            1 
  706000    0.9695103   -2.5893165    735.06595  0.086764159  0.087699941            3 
  707000   0.95176618    -2.633814     736.9479  0.086863261  0.087664554            6 
  708000   0.97269899   -2.6159408    733.55744  0.086341506  0.087629106            2 
  709000   0.96787995   -2.6087734    735.48469   0.08644625  0.087593379            4 
  710000   0.98943557   -2.6166138    733.72771  0.086118276  0.087557301            1 
  711000   0.97977328   -2.6332356    736.17141  0.086283569  0.087520839            2 
  712000   0.97274294   -2.6195089    734.19375  0.085930916   0.08748524            4 
  713000   0.97585532   -2.6419005    740.23836  0.086516872  0.087447767            4 
  714000    0.9815935   -2.6148403    741.79535  0.086577422  0.087411706            3 
  715000   0.95545382   -2.6253363    740.76192  0.086335888  0.087376626            3 
  716000   0.95712553   -2.6211408    741.98354  0.086357488  0.087341227            3 
  717000   0.95300189    -2.608388      741.147  0.086139819     0.087305            3 
  718000   0.95753839   -2.6281078     740.9511   0.08599711  0.087269737            3 
  719000   0.94045352   -2.6072345    741.40597  0.085930223  0.087233154            2 
  720000   0.96435385   -2.5971016    743.25372  0.086024736  0.087197542            1 
  721000   0.96255072    -2.618961    746.07002  0.086230932  0.087161601            4 
  722000   0.98511247   -2.6338049    743.92058  0.085863409  0.087125584            2 
  723000   0.98044213   -2.6315534    744.61788   0.08582502  0.087088794            3 
  724000   0.95471745   -2.6415621    744.95514  0.085745297  0.087051711            2 
  725000   0.96478448   -2.6360675    746.34631  0.085786932  0.087013629            3 
  726000   0.97181272    -2.616621    747.71104  0.085825417  0.086976508            2 
  727000   0.97718567   -2.6328429    745.14562  0.085413299  0.086938371            2 
  728000   0.95785963   -2.6182214    747.57696  0.085574285  0.086901227            1 
  729000   0.97608562   -2.6485665    748.59803   0.08557362  0.086863857            3 
  730000   0.96655345   -2.6123224    747.60324  0.085342836  0.086826044            2 
  731000   0.95307848   -2.6323198    749.29949  0.085419458  0.086788779            1 
  732000   0.94377505   -2.6019686    750.60491  0.085451378  0.086750266            2 
  733000   0.95116282   -2.6370007    748.70716  0.085119049  0.086712249            3 
  734000   0.95135766   -2.6431662    750.28243  0.085181929  0.086673102            3 
  735000   0.96349515   -2.6241641    753.04951  0.085379763  0.086634491            1 
  736000   0.96212964   -2.6208989    753.37362  0.085300455  0.086596193            3 
  737000   0.96986792   -2.6191882    751.97453  0.085026518  0.086557729            1 
  738000   0.96775929   -2.6420822    753.33921  0.085065404  0.086518937            3 
  739000   0.94673653   -2.5940549    755.91467  0.085240716  0.086480113            2 
  740000   0.95373408   -2.6532867    753.59942  0.084864799  0.086440721            2 
  741000   0.96814729   -2.6345622    753.17597  0.084702651  0.086400906            2 
  742000    0.9731205    -2.615084     758.3518  0.085169789  0.086361444            3 
  743000   0.95697576    -2.640543    754.82679  0.084659801  0.086322309            6 
  744000   0.95466325   -2.6222343     756.9631  0.084785294  0.086282585            2 
  745000   0.95823556   -2.6352658    758.11799   0.08480067  0.086243825            2 
  746000   0.95552237   -2.6342551     757.2135  0.084585958  0.086204793            3 
  747000   0.92827192   -2.6442425    759.17509  0.084691554  0.086164881            2 
  748000   0.96471088   -2.6506048    760.81432  0.084760954  0.086125217            2 
  749000   0.95707829   -2.6263387    761.39982  0.084712931  0.086085687            2 
  750000   0.92900829   -2.6410483    764.53134  0.084947926  0.086047731            4 
  751000    0.9489162   -2.6497792    759.61822  0.084289639  0.086009006            2 
  752000   0.96048096   -2.6543216    764.73087  0.084744112  0.085969823            3 
  753000   0.95648749   -2.6221747    765.86775  0.084757387  0.085930428            5 
  754000   0.96175522   -2.6434601    763.96848  0.084435066   0.08589193            2 
  755000   0.92905192   -2.6284922    763.87432  0.084312839  0.085853931            5 
  756000   0.97803616   -2.6233803    769.42701  0.084813383  0.085816804            2 
  757000    0.9598868   -2.6318829    768.87634  0.084640725  0.085779468            1 
  758000   0.97996661   -2.6259792    766.58815  0.084277501  0.085740941            3 
  759000   0.94113453   -2.6491641    771.22561  0.084675627  0.085702807            3 
  760000   0.96464798   -2.6426874    772.12469  0.084662795  0.085665845            4 
  761000   0.95741135   -2.6484353    769.50556  0.084264735   0.08562898            2 
  762000   0.94323156   -2.6629198    769.84188  0.084190931  0.085591152            2 
  763000   0.92107697   -2.6369665    773.70803  0.084502843  0.085553928            3 
  764000    0.9614356   -2.6228005     772.5075   0.08426129  0.085517265            3 
  765000   0.94749915   -2.6436098    773.66303  0.084277018  0.085479864            3 
  766000   0.96089501    -2.644309    774.85898  0.084297104  0.085441939            1 
  767000   0.93938141   -2.6469382    773.51269  0.084040926  0.085403687            3 
  768000   0.95674813   -2.6659942    772.78853  0.083852922  0.085365839            1 
  769000   0.94727152   -2.6391037    775.40425  0.084027335  0.085328138            2 
  770000   0.94259322   -2.6403062     778.5508  0.084258744  0.085290327            2 
  771000   0.96347052   -2.6457809    779.46711  0.084248499  0.085252509            3 
  772000   0.94060326   -2.6423859    776.89195  0.083861393  0.085214796            2 
  773000   0.95376292   -2.6448523    780.35991  0.084126769  0.085177376            7 
  774000   0.94278897   -2.6411554    779.58699  0.083934861  0.085140383            5 
  775000   0.93812033   -2.6670478    779.47989  0.083815041  0.085104463            7 
  776000   0.94694665   -2.6137475    783.64019    0.0841538  0.085068288            3 
  777000   0.94229015   -2.6450239    781.64438  0.083831443  0.085031837            4 
  778000   0.94549902   -2.6241964    786.03846   0.08419435  0.084995331            1 
  779000   0.92982559   -2.6473994    781.52382  0.083603318  0.084958376            3 
  780000   0.92881061   -2.6405421    788.24479  0.084214187  0.084921688            4 
  781000   0.92948918   -2.6403709    785.15842   0.08377704  0.084884943            3 
  782000   0.95128119   -2.6443827    780.07526  0.083128225  0.084847111            2 
  783000   0.93566304   -2.6392811    783.41993  0.083378026  0.084808595            2 
  784000   0.92771245   -2.6308919    787.29573  0.083683644  0.084770235            2 
  785000   0.92780348    -2.652577    787.23616  0.083570717  0.084731945            2 
  786000   0.94838108   -2.6519055    790.15373   0.08377372   0.08469362            1 
  787000   0.94792279   -2.6625743    785.41306  0.083165296  0.084655048            2 
  788000   0.95403122   -2.6517168    787.62383  0.083293553  0.084616839            3 
  789000   0.92406354    -2.648587    788.49998  0.083280522  0.084578849            3 
  790000   0.93620548    -2.657223    792.21384  0.083566861  0.084540957            4 
  791000   0.92919693   -2.6478568    792.28281   0.08346848  0.084503097            2 
  792000   0.93969939    -2.642576    790.85472  0.083212828  0.084465382            2 
  793000   0.92522707   -2.6620985    791.02131  0.083125401  0.084428015            4 
  794000   0.91500186   -2.6502406    788.06861  0.082710811  0.084389872            2 
  795000   0.92659959     -2.67602    793.06798  0.083130816   0.08435171            2 
  796000   0.91959522   -2.6487962    793.97265   0.08312109  0.084313445            3 
  797000   0.95011586   -2.6650747    790.01044  0.082602514  0.084274222            1 
  798000   0.92024128   -2.6541121    790.83213  0.082584809  0.084234471            4 
  799000   0.92145762   -2.6479184    796.13796  0.083034831  0.084195309            1 
  800000   0.93608742   -2.6717045     794.6682  0.082777938  0.084156281            3 
  801000   0.94964209   -2.6540228    795.58243  0.082769707  0.084117686            3 
  802000   0.94983441   -2.6696903    797.75035  0.082891765   0.08407999            2 
  803000   0.92876041    -2.645936    800.19715  0.083042461  0.084042344            2 
  804000   0.90800684   -2.6807571    800.06784  0.082925771  0.084004231            1 
  805000   0.90815828   -2.6465774    799.51433  0.082765459  0.083966345            3 
  806000   0.95022822   -2.6650643    801.02883  0.082819358  0.083928072            3 
  807000   0.92609349   -2.6561243      802.498  0.082868443  0.083890954            1 
  808000   0.94724225   -2.6409623    801.35227  0.082647718  0.083853632            1 
  809000   0.92682859   -2.6736101    801.61658  0.082572784  0.083815443            1 
  810000    0.9413897   -2.6728159    800.44952  0.082350773  0.083777711            4 
  811000   0.95281236   -2.6237815    805.37946  0.082755802  0.083740165            1 
  812000   0.93145941   -2.6598854    804.54327  0.082568069  0.083702528            2 
  813000    0.9225317   -2.6821468    805.97779  0.082613549  0.083665187            2 
  814000    0.9142301   -2.6156039    806.85449  0.082601811  0.083627166            1 
  815000   0.92259995   -2.6844334    800.89323  0.081890923  0.083589228            3 
  816000    0.9325862   -2.6642802    806.91654  0.082405692  0.083550325            2 
  817000   0.93665216   -2.6781475    807.93837  0.082409055  0.083511493            2 
  818000   0.95464822   -2.6780251    807.98986  0.082313555  0.083472792            3 
  819000   0.91112539   -2.6677009    808.05729  0.082219911  0.083434654            1 
  820000    0.9365364   -2.6742623    809.62292  0.082278752   0.08339756            1 
  821000   0.93511643   -2.6983962    812.48586  0.082469129  0.083361263            2 
  822000   0.91545249   -2.6623049    814.67458  0.082590691  0.083324557            3 
  823000   0.91887715   -2.6592097    809.65872  0.081982455  0.083287195            6 
  824000   0.91719345   -2.6777106    814.33272  0.082355655   0.08325011            2 
  825000   0.92701533    -2.659501    814.71252  0.082294193  0.083213026            2 
  826000   0.90339379   -2.6720958     813.9146  0.082114063  0.083176386            2 
  827000   0.95082909   -2.6881386    812.92035  0.081914586  0.083138414            3 
  828000   0.91204429   -2.6537851    816.06501  0.082132146  0.083100961            4 
  829000   0.93189366   -2.6861611    814.85442  0.081911382  0.083063624            2 
  830000   0.89620011   -2.6671847    817.53411  0.082081738  0.083026363            1 
  831000   0.90938423   -2.6684221    816.38517  0.081867746  0.082989543            1 
  832000    0.9085185   -2.6640707    817.78457  0.081909512  0.082951731            3 
  833000   0.93050121   -2.6667226    819.16897  0.081949677   0.08291457            3 
  834000   0.90466506   -2.6753993    820.89012  0.082023394  0.082876767            4 
  835000   0.90606965    -2.674968    820.31762  0.081868026  0.082839214            2 
  836000   0.93534626   -2.6448255    820.01716  0.081740147  0.082802572            2 
  837000   0.91412114   -2.7029396    820.85482  0.081725888  0.082766079            7 
  838000   0.93449535    -2.669915    822.08075  0.081750274   0.08272956            4 
  839000   0.92322407   -2.6813961    820.96463  0.081541978  0.082692526            3 
  840000   0.92074289   -2.6994189    821.19154  0.081467414  0.082655366            2 
  841000   0.91441414   -2.6534441    825.23937  0.081771637  0.082618553            2 
  842000    0.9068671   -2.6810531    823.59913  0.081512186  0.082581931            3 
  843000   0.90741728   -2.6986658    824.27665  0.081482468  0.082544457            3 
  844000   0.93174014    -2.656905    825.86046  0.081542305  0.082507231            3 
  845000   0.90597385    -2.696045    825.07988  0.081368824   0.08246996            5 
  846000   0.90546819    -2.706281    826.66558   0.08142884   0.08243282            2 
  847000   0.90685086   -2.6732317    825.58138  0.081226032  0.082395035            3 
  848000   0.93724343   -2.7247336    825.76463  0.081148253  0.082356424            4 
  849000   0.93016273    -2.674767    828.20628  0.081292332  0.082319232            3 
  850000   0.91840233   -2.6502298    828.87236  0.081261996  0.082281522            7 
  851000   0.91624304   -2.6780541    828.36679  0.081116999  0.082243638            3 
  852000   0.90036416   -2.7062855    824.16195  0.080610519  0.082205426            2 
  853000   0.91723998    -2.673514    831.36634  0.081219846  0.082166901            5 
  854000   0.91271699   -2.6541332    833.71237  0.081353666  0.082128902            2 
  855000   0.91190959   -2.6713648    833.32974  0.081221222  0.082091073            3 
  856000   0.90334803   -2.6945035    830.13476    0.0808153  0.082052617            2 
  857000   0.92038092   -2.6867557    829.22525   0.08063256  0.082014054            3 
  858000   0.90851397   -2.6836076    836.63512  0.081258267  0.081975896            2 
  859000   0.90397281   -2.6848669    832.06209  0.080720032  0.081937757            3 
  860000   0.90546517   -2.6999701    834.90417  0.080901567  0.081899282            2 
  861000   0.91580491   -2.6999801    831.74993  0.080502316  0.081860251            4 
  862000   0.89983025   -2.6665903    834.91617   0.08071502   0.08182279            5 
  863000    0.9193636    -2.703618    835.87125  0.080713717   0.08178515            1 
  864000   0.89636525   -2.6784215    836.11725  0.080644025  0.081747696            3 
  865000   0.92239963    -2.687662    838.88548  0.080817483  0.081709795            2 
  866000   0.89371336   -2.6917155    834.15296  0.080268761  0.081672276            4 
  867000   0.89214776    -2.709298    838.40054  0.080584442  0.081634596            2 
  868000    0.9051941   -2.6851057    840.34475   0.08067826   0.08159678            5 
  869000   0.92145279   -2.6951278    839.36535  0.080491499  0.081559508            5 
  870000   0.91084767    -2.674467    842.31418  0.080681435  0.081522929            1 
  871000   0.88917464    -2.684386    841.83343  0.080542808  0.081485753            3 
  872000   0.89489919   -2.6801141    843.00836  0.080562726  0.081448504            3 
  873000   0.89824025   -2.6907149     847.7572   0.08092375  0.081411736            3 
  874000   0.89829542   -2.7053681    844.53385  0.080523822  0.081374957            6 
  875000   0.94444235   -2.7002384     844.4649  0.080425229  0.081338427            2 
  876000    0.8968073   -2.6794205    849.56049  0.080818159  0.081301982            2 
  877000   0.91467171   -2.6993819    843.86731  0.080185035  0.081266025            2 
  878000   0.91880635   -2.7062672    846.43233  0.080337161  0.081229283            3 
  879000   0.90948216   -2.7218108    846.16986  0.080220881  0.081191937            1 
  880000   0.92334184   -2.6767521    848.30874  0.080332267  0.081155749            2 
  881000   0.89067204   -2.6924395    846.93946  0.080111565  0.081120125            2 
  882000   0.88249341   -2.6979145    849.61265  0.080273304  0.081083702            4 
  883000    0.9118902   -2.6875672    851.70235  0.080379611  0.081046801            1 
  884000   0.92521847    -2.681215    849.07723  0.080041217  0.081010117            3 
  885000   0.88291645   -2.7002568    848.10287  0.079859028  0.080972596            5 
  886000   0.89598964    -2.703849    850.42224  0.079987043  0.080934622            3 
  887000   0.89623663   -2.7055731    850.69776  0.079922751  0.080897019            4 
  888000   0.90039225   -2.7038707    848.92542  0.079666424  0.080859104            2 
  889000   0.89467588   -2.6933928    851.60675  0.079828155  0.080821436            3 
  890000    0.9169896   -2.7144968    852.63141  0.079834402  0.080784112            5 
  891000   0.91424174   -2.7114976    856.22433  0.080080839  0.080746786            2 
  892000   0.87646043    -2.704071    851.45661  0.079545647  0.080709571            2 
  893000   0.91932634   -2.6983933    854.81678  0.079770136  0.080671969            4 
  894000   0.88952378   -2.6923823    851.85842  0.079405147  0.080633572            2 
  895000   0.90218543   -2.7174009    855.11607  0.079619746  0.080595289            2 
  896000   0.90327753   -2.6874696    854.76054  0.079497818  0.080557198            8 
  897000   0.89384202   -2.7095201     856.5005  0.079570838  0.080519262            3 
  898000    0.9035581   -2.7108091    855.09436  0.079351741  0.080481562            2 
  899000   0.89794566   -2.7027617    854.73034  0.079229731  0.080443354            2 
  900000   0.89130472   -2.6942536    860.73128  0.079697341  0.080404863            2 
  901000   0.89923299   -2.7095586    854.81267  0.079061475  0.080366384            8 
  902000   0.89946702   -2.6927614    860.32847  0.079483413  0.080327826            2 
  903000    0.8943779   -2.7145817    859.45103  0.079314418  0.080290119            1 
  904000   0.89071041   -2.7033786    857.54367  0.079050854  0.080251878            2 
  905000   0.88537905   -2.7192448    859.12629  0.079109234   0.08021326            4 
  906000   0.87498875   -2.7175575    856.01446  0.078735693   0.08017453            5 
  907000   0.87727042   -2.7103362    860.94094  0.079101519  0.080135704            3 
  908000   0.89884527   -2.7026607    860.04626  0.078932292  0.080097033            3 
  909000   0.90103937   -2.7057932    859.84129  0.078826668  0.080059429            3 
  910000   0.90960974   -2.7052006    862.96946  0.079026508  0.080020695            2 
  911000   0.89585117    -2.715227    863.99872  0.079033912  0.079981702            2 
  912000    0.8836515   -2.6996992    858.89621  0.078481013  0.079941665            3 
  913000   0.87024247   -2.6826676    865.83309  0.079028212  0.079903232            3 
  914000   0.89401062    -2.697448    863.06039  0.078688948  0.079864073            3 
  915000    0.8911877   -2.7308819    865.38653  0.078814803  0.079825265            3 
  916000   0.88765785   -2.7122257    867.46192  0.078917569  0.079786366            2 
  917000   0.89459913   -2.7179844     863.3356  0.078456525  0.079747522            3 
  918000   0.90024457   -2.6877038      867.953  0.078790214  0.079708519            3 
  919000   0.87977747   -2.7090237    868.98007  0.078797613  0.079669918            5 
  920000   0.87286369   -2.6878295    867.49821  0.078577737  0.079631213            3 
  921000   0.89412093   -2.7442411    864.22067  0.078195862  0.079592149            6 
  922000   0.90343506   -2.7131579    868.92912  0.078536616  0.079554242            2 
  923000   0.89929617   -2.7177452      868.224  0.078387866  0.079515799            3 
  924000   0.86977515   -2.7230489    866.62724  0.078159022  0.079476923            6 
  925000   0.88641072    -2.697187    873.85975  0.078726104  0.079438617            2 
  926000   0.87961872   -2.7221567    870.32808  0.078323261  0.079400212            2 
  927000   0.87035685   -2.7282319    869.75118  0.078186909  0.079361687            4 
  928000   0.86786247   -2.7149214    872.37538  0.078338306  0.079323233            2 
  929000   0.89706827   -2.7256551    868.03666  0.077864788  0.079284457            4 
  930000   0.88235662   -2.7391129    871.94583  0.078131347  0.079245854            1 
  931000   0.88722455   -2.7565942    873.95886   0.07822761  0.079207503            1 
  932000   0.88750587   -2.7273326     869.5503  0.077749491  0.079169592            3 
  933000   0.88872118   -2.7477744    878.59447  0.078473962  0.079131692            2 
  934000   0.88987414     -2.72954    878.29266  0.078363014  0.079094047            6 
  935000   0.86897716   -2.7262864    878.39834  0.078288622   0.07905716            2 
  936000   0.87647725   -2.7250572    874.10969  0.077823156  0.079018965            4 
  937000   0.87817427   -2.7015878    877.10346  0.078006355  0.078980913            1 
  938000   0.86338768   -2.7276875    875.33076  0.077765704  0.078942939            4 
  939000    0.8626678   -2.7074585    876.19071  0.077759204   0.07890458            5 
  940000   0.87104571   -2.7173584     883.6857  0.078340931  0.078866992            4 
  941000   0.86583819   -2.7201542    880.31776  0.077959419  0.078829349            3 
  942000   0.86587757   -2.7228163    878.03533  0.077674746  0.078791549            3 
  943000    0.8499953   -2.7270505    881.51425   0.07789981  0.078753841            3 
  944000   0.86750422   -2.7258789     880.1615  0.077697872  0.078716557            2 
  945000    0.8478382   -2.7380079    881.80512  0.077760592  0.078678955            4 
  946000   0.87156969   -2.7454932    884.61971  0.077926331  0.078641383            2 
  947000   0.87487709   -2.7048571     885.4184  0.077914326   0.07860398            2 
  948000   0.87811613   -2.7250291    885.26749  0.077818872  0.078566765            2 
  949000   0.88936803   -2.7301134    886.51822    0.0778467  0.078529695            8 
  950000   0.86645842   -2.7363419    888.38514  0.077928521  0.078492734            3 
  951000    0.8836375    -2.744078    884.99594  0.077549592  0.078455931            2 
  952000   0.87728647   -2.7305233    885.32759  0.077497163  0.078418817            6 
  953000   0.86056597   -2.7266919    884.16817   0.07731446   0.07838112            4 
  954000   0.88680885   -2.7281551    887.10368  0.077489839  0.078343623            2 
  955000   0.88484994    -2.736234    887.77156  0.077466977  0.078305817            2 
  956000   0.86753553   -2.7324933    888.31509  0.077433324  0.078268319            3 
  957000   0.88520182   -2.7344008    887.44243  0.077276422  0.078230454            5 
  958000   0.86491739   -2.7266371    888.44699  0.077283141  0.078193115            2 
  959000   0.86657173   -2.7313464    892.86661  0.077586601  0.078156556            4 
  960000   0.88052119   -2.7332856    890.26119  0.077279617  0.078119948            4 
  961000   0.88484503   -2.7400733    892.13765  0.077361919  0.078083559            2 
  962000    0.8591697   -2.7344668    893.02821  0.077358646  0.078047626            2 
  963000   0.87186871   -2.7330863    893.13859  0.077287867    0.0780109            3 
  964000   0.86106326   -2.7474001    893.13981  0.077207798  0.077973698            3 
  965000   0.87705996     -2.73933    895.15877  0.077302139  0.077937436            6 
  966000   0.85542945   -2.7325008    892.01322  0.076950761   0.07790065            4 
  967000   0.86562804   -2.7369544    897.94906  0.077382718  0.077863801            2 
  968000   0.85341477    -2.740827    896.02067  0.077136766  0.077827052            4 
  969000   0.85577997   -2.7395482    899.08928  0.077321059  0.077790798            4 
  970000   0.88183644    -2.767335    894.98994   0.07688917  0.077753812            4 
  971000   0.87037798   -2.7444705    898.52715  0.077113556  0.077717132            1 
  972000   0.86372157   -2.7500736    900.00977  0.077161332  0.077680793            2 
  973000   0.88557324   -2.7380431    896.87509  0.076813557  0.077644203            3 
  974000   0.85160853   -2.7465115    899.03377  0.076919385  0.077607509            1 
  975000   0.84947552   -2.7450829     897.5454  0.076713282  0.077571237            2 
  976000   0.87515458    -2.735122    899.45298  0.076797556  0.077534301            3 
  977000   0.84682782   -2.7561112    898.67677  0.076652744  0.077497473            2 
  978000   0.84939703   -2.7550769    899.26322  0.076624337  0.077460101            2 
  979000   0.86716388   -2.7635232    901.54952  0.076740681  0.077423303            2 
  980000   0.85796772   -2.7519324    904.22194   0.07688962  0.077386199            3 
  981000   0.84262915   -2.7590785    905.21129  0.076895284  0.077349774            7 
  982000   0.85471534   -2.7463925    903.04108  0.076632814  0.077313345            8 
  983000   0.84779115   -2.7317889    902.15833  0.076480021  0.077276037            1 
  984000   0.85772154   -2.7751492    902.64245  0.076443297   0.07723925            3 
  985000   0.87346576   -2.7536712    905.04775  0.076569183  0.077202162            2 
  986000   0.86198924   -2.7585834    904.21891  0.076421477  0.077165047            2 
  987000   0.85237053   -2.7520313    903.24737   0.07626202  0.077128204            3 
  988000   0.85994878    -2.769876    909.43157  0.076706441  0.077091945            4 
  989000   0.86134657   -2.7623156    904.69724  0.076229966  0.077055897            6 
  990000   0.85745277   -2.7516964    904.16953  0.076108547  0.077019391            4 
  991000   0.87390766    -2.754204    906.50238  0.076227916  0.076983516            2 
  992000   0.86304493   -2.7681874    909.23615  0.076380725  0.076947181            3 
  993000   0.84811708   -2.7628824    910.21021   0.07638555  0.076911102            2 
  994000   0.87269772   -2.7282674    912.90342  0.076534492  0.076875421            5 
  995000    0.8777325   -2.7308435    909.54103  0.076175965  0.076839922            2 
  996000   0.85349465   -2.7538671    911.15055  0.076234149  0.076804606            2 
  997000   0.83719351    -2.737101    910.74625  0.076123892  0.076768891            2 
  998000   0.85151579   -2.7594381    908.02426  0.075820329  0.076732686            2 
  999000   0.86680462   -2.7682989    913.28787  0.076183506   0.07669693            3 
 1000000   0.86491147   -2.7507589    913.08512  0.076090426  0.076662188            2 
 1001000   0.84704398   -2.7757811    920.22112  0.076608484  0.076627495            5 
 1002000   0.86379927   -2.7603154    920.00373   0.07651395   0.07659377            4 
 1003000   0.85021957   -2.7589236    918.72935  0.076331784  0.076559807            4 
 1004000   0.86235378   -2.7669893    919.88853  0.076351969  0.076525504            3 
 1005000   0.83799318   -2.7585853    919.63878  0.076255288  0.076491451            3 
 1006000    0.8542916   -2.7513976    921.66582    0.0763474  0.076457957            3 
 1007000   0.85137297   -2.7804088    920.61258  0.076184424  0.076424031            4 
 1008000   0.85112127   -2.7477019    920.62243  0.076109659    0.0763899            2 
 1009000   0.83461078   -2.7647962    922.08438   0.07615497  0.076355947            3 
 1010000   0.85039766   -2.7657328     919.8614  0.075896155   0.07632164            4 
 1011000   0.85426732   -2.7580598    921.87473  0.075987036  0.076287117            5 
 1012000   0.86967153    -2.779161    920.37285  0.075788278  0.076252115            3 
 1013000   0.85343942   -2.7607847    920.33994  0.075710755  0.076217392            3 
 1014000   0.84341362     -2.74392    923.29649  0.075879067  0.076182594            2 
 1015000   0.85556342   -2.7746126    920.04635  0.075537468  0.076148048            3 
 1016000   0.84278524   -2.7602023    925.25116  0.075890023  0.076113255            2 
 1017000   0.84661569   -2.7858804    926.53725  0.075920784  0.076078684            4 
 1018000   0.84408884   -2.7671709    927.16437  0.075897542  0.076044185            3 
 1019000   0.83873959   -2.8000699    925.21279   0.07566346  0.076009917            7 
 1020000   0.83274314    -2.772282     925.5058  0.075613219  0.075974443            2 
 1021000   0.85022057   -2.7769486    926.51911  0.075621867   0.07593946            2 
 1022000   0.84036271   -2.7599292    926.36739  0.075535502  0.075905173            5 
 1023000   0.84388007   -2.7858194    925.22348  0.075368481  0.075871018            4 
 1024000   0.85526405   -2.7769344    927.98835  0.075519885   0.07583666            2 
 1025000   0.84310578   -2.7690311    925.81919  0.075269853  0.075801972            3 
 1026000   0.83666564   -2.7615947    930.60113  0.075584887  0.075767148            2 
 1027000   0.83665698    -2.773734    925.97279  0.075135734  0.075732629            6 
 1028000   0.82401498   -2.7757356    931.76872  0.075532484  0.075697356            2 
 1029000   0.83936761   -2.7931471    928.04037  0.075157141  0.075661833            4 
 1030000   0.84664102   -2.7570507    931.66257  0.075377231  0.075626579            3 
 1031000   0.86849966   -2.7721196    929.69635  0.075145195  0.075591367            1 
 1032000   0.84807852   -2.7767299     929.4812  0.075055006  0.075556431            6 
 1033000   0.84183764   -2.7899835    931.21093  0.075121889   0.07552111            4 
 1034000   0.84448307    -2.780151    936.18929  0.075450459  0.075486259            2 
 1035000   0.82635055   -2.7853041    932.50295  0.075080753  0.075451307            4 
 1036000   0.82968609   -2.7915336    932.21449  0.074985078  0.075416717            2 
 1037000   0.83684607   -2.7795357    935.81949  0.075202466  0.075382204            2 
 1038000   0.84709615   -2.7783565    936.78732  0.075207716  0.075347578            2 
 1039000   0.83367548   -2.7633879    936.06634  0.075077506  0.075313306            7 
 1040000    0.8529922   -2.7720882     936.3727  0.075029864  0.075279022            3 
 1041000   0.84485281   -2.7855429    940.34012  0.075275386  0.075245456            3 
 1042000   0.84915673   -2.7870944    933.97414  0.074694029  0.075211508            4 
 1043000   0.84725142   -2.7651378    936.70485  0.074840592  0.075176952            3 
 1044000   0.83233925   -2.7529175    940.80398  0.075096103  0.075142328            2 
 1045000   0.82113738   -2.7602848     938.9419   0.07487575  0.075107455            8 
 1046000   0.83230633   -2.7699716    935.04745  0.074493901  0.075073141            3 
 1047000   0.83245068   -2.7823561    940.29815  0.074840667  0.075038958            2 
 1048000    0.8571635   -2.7745115    941.39698   0.07485663  0.075004635            5 
 1049000   0.82235347   -2.7775726    939.92538  0.074668365  0.074970748            3 
 1050000   0.84673517   -2.8093701    940.86468    0.0746718   0.07493691            2 
 1051000   0.82870046   -2.8042583    943.66446  0.074822745  0.074903118            4 
 1052000   0.86570563   -2.7631849    945.66721  0.074910267  0.074869875            3 
 1053000   0.83100196   -2.7761727    947.05827  0.074949214  0.074836807            4 
 1054000   0.85354949   -2.7927571    941.48798  0.074437696  0.074803234            6 
 1055000   0.82712986   -2.7881347    945.83597  0.074710582  0.074769425            5 
 1056000   0.83954089   -2.8073669    942.68576  0.074391237  0.074735932            3 
 1057000   0.82835715   -2.7784524    945.32385  0.074528844   0.07470206            2 
 1058000   0.82839993   -2.7934362    945.93869  0.074506828  0.074668086            2 
 1059000   0.82602958   -2.7927663    947.99761   0.07459849    0.0746345            2 
 1060000   0.82243442   -2.7786627    949.91041  0.074678491  0.074600791            3 
 1061000   0.84391372   -2.7877494     949.2211  0.074553967  0.074566556            3 
 1062000   0.84650916   -2.7904412    945.63656  0.074202492  0.074532383            2 
 1063000    0.8251492   -2.7636974    949.21586  0.074413285   0.07449797            4 
 1064000   0.82964104   -2.7928323    947.36778  0.074198604  0.074463796            3 
 1065000   0.82349462   -2.7915239    949.13106  0.074266906   0.07442935            3 
 1066000   0.83238095   -2.8010309    946.07155  0.073958064  0.074395098            4 
 1067000   0.82979022   -2.7933127    950.23109  0.074213612   0.07436047            3 
 1068000   0.84193701   -2.8021871    947.87309  0.073960135  0.074325617            3 
 1069000   0.83336383   -2.7952192    944.53494  0.073630725  0.074290232            7 
 1070000   0.80637546   -2.7941416    947.27199  0.073775077  0.074254594            5 
 1071000   0.82087158   -2.8057955    946.23697  0.073625659  0.074219002            4 
 1072000   0.81922769   -2.7887483    949.45211  0.073806911  0.074183422            6 
 1073000   0.82836514   -2.7913968     949.0197  0.073704543  0.074147681            2 
 1074000   0.82647936   -2.7891309    950.33654  0.073738093  0.074111968            3 
 1075000   0.81804314   -2.8005916    948.73939  0.073545689   0.07407642            2 
 1076000   0.80753849   -2.8023603    949.86536  0.073564541  0.074040426            2 
 1077000   0.82461355   -2.7854834    952.09375  0.073668659  0.074004707            2 
 1078000   0.81429555   -2.8164604    950.03951   0.07344152  0.073969171            4 
 1079000   0.83012469   -2.7984128    950.70313  0.073424709  0.073933577            4 
 1080000   0.82612289   -2.7912435    949.81675   0.07328833  0.073898042            3 
 1081000   0.83184205   -2.8079309    951.04195  0.073314982  0.073862451            3 
 1082000   0.80304224   -2.8214406     953.9885   0.07347416  0.073827047            5 
 1083000   0.81821864   -2.7858248    956.12972  0.073571077  0.073792055            6 
 1084000   0.83027281   -2.8113902    953.65758   0.07331316  0.073756576            2 
 1085000   0.81832479   -2.7680228    956.23083  0.073443228  0.073721589            3 
 1086000   0.80401497   -2.8232313    951.23452  0.072992213  0.073685923            7 
 1087000    0.8067731    -2.803281    956.07644  0.073296262  0.073650053            4 
 1088000    0.8101587   -2.8158308    955.58579  0.073191313  0.073614481            3 
 1089000   0.83605365   -2.8091285    954.07334  0.073008367  0.073578633            4 
 1090000   0.80791852   -2.8060014    954.20851  0.072951721  0.073543154            4 
 1091000   0.82356167   -2.7992562    960.25069  0.073346371  0.073507215            7 
 1092000   0.82540624   -2.8124205     957.1253  0.073040697  0.073471505            3 
 1093000   0.81312715   -2.7910297    957.47206   0.07300031  0.073435858            1 
 1094000   0.80123467   -2.8223065    959.98939  0.073125334  0.073400069            4 
 1095000   0.82353476   -2.7909277    957.83005   0.07289422  0.073364762            4 
 1096000   0.80664584   -2.8095558    957.07045  0.072769955  0.073328895            3 
 1097000   0.79905785   -2.8124043    957.82716  0.072761103  0.073292589            3 
 1098000   0.80952642   -2.7996604    957.25381  0.072651321   0.07325657            7 
 1099000   0.81329977   -2.8019135    962.11077  0.072953501  0.073220579            4 
 1100000   0.80170672   -2.7890179    960.73979  0.072783318  0.073184384            3 
 1101000   0.81563996   -2.7995096     960.6155  0.072707803  0.073148066            4 
 1102000   0.81884659   -2.8076716    960.43655  0.072628293  0.073111936            2 
 1103000   0.81069148    -2.823845    959.55613   0.07249593  0.073075379            2 
 1104000   0.82543333   -2.8114709    957.69554   0.07228982  0.073038955            4 
 1105000   0.81257587   -2.7862372    963.01762  0.072625763  0.073002644            3 
 1106000    0.8019458   -2.8058966    958.82937  0.072244527  0.072966062            7 
 1107000    0.8024832   -2.8280536    958.00195  0.072116979  0.072929068            8 
 1108000   0.82323251   -2.8260752    960.76234  0.072259502  0.072891951            3 
 1109000   0.81646974   -2.8195862    963.66999  0.072412833  0.072854938            3 
 1110000   0.81768625   -2.8110107    960.15779  0.072083918   0.07281775            4 
 1111000   0.82737527   -2.8092864    966.32666  0.072481747  0.072781194            3 
 1112000    0.8245513   -2.7993818    963.26972  0.072187479   0.07274458            2 
 1113000   0.81113885   -2.8443158    961.15622  0.071964377  0.072708026            4 
 1114000   0.82325288   -2.8156726    963.36182  0.072064768  0.072671386            5 
 1115000   0.82010384   -2.8240347    964.14827  0.072058914  0.072634936            7 
 1116000   0.81776271    -2.840742    965.41534  0.072088959  0.072598154            3 
 1117000   0.81617808   -2.8105799    965.59969  0.072038174  0.072561519            4 
 1118000   0.80861244   -2.8317582    967.34736  0.072104007  0.072525218            7 
 1119000   0.81860588   -2.8027678    964.10759  0.071798301    0.0724892            6 
 1120000   0.81177431   -2.8321517    968.81312   0.07208431  0.072453341            3 
 1121000    0.8042828    -2.827765    967.46606  0.071919868  0.072417807            5 
 1122000   0.80336794   -2.8147119    965.03806  0.071675435   0.07238156            3 
 1123000   0.78585768   -2.8246473    970.33362  0.072004573  0.072344927            3 
 1124000   0.80587899   -2.8168344    968.03734  0.071770266  0.072308635            9 
 1125000   0.79125606   -2.8012562    967.65494  0.071678143   0.07227239            1 
 1126000   0.82287868   -2.8120451    973.33714  0.072035016  0.072236881            2 
 1127000   0.78760051   -2.8338807    974.77367  0.072077319  0.072201703            3 
 1128000   0.78091013   -2.8164429    974.71227  0.072008885  0.072166775            3 
 1129000   0.77716209   -2.8261183    972.51625  0.071783012  0.072131904            5 
 1130000   0.81006903   -2.8002785    973.98229  0.071827603  0.072097063            2 
 1131000   0.79897425   -2.8171224    973.24909  0.071710072  0.072062133            2 
 1132000   0.79696289   -2.8402891    972.24069  0.071572489  0.072027462            3 
 1133000   0.79179058   -2.8235401    976.23769  0.071803301   0.07199222            4 
 1134000   0.80552007   -2.8256192    973.95844  0.071572489  0.071957361            7 
 1135000    0.7774734   -2.8352642     974.1728  0.071525169  0.071922447            2 
 1136000   0.80676931    -2.849965     973.4597  0.071409896  0.071886904            5 
 1137000   0.79792295   -2.8139328    972.92107  0.071307612  0.071851739            2 
 1138000   0.80467445   -2.8339988    976.41082    0.0715005  0.071816337            5 
 1139000   0.80045792   -2.8319178    975.27902  0.071354918  0.071780886            5 
 1140000   0.80336684   -2.8440071    975.56484  0.071313219   0.07174532            2 
 1141000   0.77693498   -2.8183541    982.45298  0.071753796  0.071709629            4 
 1142000   0.79419729   -2.8360659    976.22619  0.071236587  0.071674553            3 
 1143000   0.80995118   -2.8387541    978.75536  0.071358659  0.071639104            6 
 1144000   0.78751699   -2.8803306    976.21266  0.071111062  0.071603364            5 
 1145000   0.80753809   -2.8468155    975.31691  0.070983764  0.071567468            3 
 1146000   0.79364543   -2.8417751    981.23441  0.071352124  0.071532235            4 
 1147000   0.79895334   -2.8364808    979.17477  0.071140277  0.071497022            3 
 1148000   0.81644578   -2.8256967    978.62212  0.071038191  0.071461352            6 
 1149000    0.7913546   -2.8372356    979.25756  0.071022452  0.071426053            3 
 1150000   0.78586271    -2.851845     980.2249   0.07103079  0.071390521            3 
 1151000   0.80271607   -2.8330417    979.96513   0.07095027  0.071355213            4 
 1152000   0.80341463   -2.8148794    986.48799  0.071360532  0.071320234            2 
 1153000   0.78279112   -2.8435627    976.15625  0.070551911  0.071284912            2 
 1154000   0.79420252   -2.8543222    983.67844  0.071033972  0.071249535            4 
 1155000    0.8009073   -2.8518837    981.75487  0.070833685   0.07121449            4 
 1156000   0.79844294   -2.8095094    984.65608  0.070981552  0.071179307            3 
 1157000   0.79757472   -2.8307306    982.29011  0.070749791  0.071143862            6 
 1158000    0.7905233   -2.8625209    982.56692  0.070708615  0.071108608            4 
 1159000   0.78844092   -2.8399483     981.4312  0.070565948  0.071073239            4 
 1160000   0.78549689   -2.8395035    982.22854  0.070562395  0.071037995            9 
 1161000   0.79284205   -2.8412527    985.98384  0.070771163  0.071002749            5 
 1162000   0.79164575   -2.8324913    988.58447  0.070896763  0.070968021            6 
 1163000    0.8127936   -2.8449717    986.97302  0.070720337  0.070933064            4 
 1164000    0.8110514   -2.8537436    986.58088  0.070631506  0.070898596            3 
 1165000   0.80466231    -2.863901    985.86052   0.07051935   0.07086351            3 
 1166000   0.78321943   -2.8409506    989.70145   0.07073338  0.070828488            3 
 1167000   0.79303397   -2.8417367    990.95783  0.070762484  0.070793862            4 
 1168000    0.7715195   -2.8376947     988.9354  0.070557606  0.070759362            6 
 1169000   0.79131448   -2.8423572    990.43502   0.07060415  0.070725079            3 
 1170000   0.78623857   -2.8528737    988.47183  0.070403976  0.070690636            3 
 1171000   0.78840916   -2.8702545    987.18165  0.070252039  0.070656036            3 
 1172000   0.78649297   -2.8540354    989.74326  0.070374237  0.070621392            3 
 1173000   0.79803105   -2.8546594    990.46074  0.070365213  0.070586528            5 
 1174000    0.7990354   -2.8598611    990.07383  0.070277813  0.070551608            3 
 1175000   0.78334938    -2.841032    991.64022  0.070329094  0.070516642            5 
 1176000   0.78663813   -2.8601024    986.44413  0.069901086  0.070481609            5 
 1177000   0.77802254   -2.8260744    991.95478  0.070231859  0.070446388            3 
 1178000   0.76482687   -2.8403495    991.34262  0.070128935  0.070411291            2 
 1179000   0.79922862   -2.8562107    989.90896   0.06996812  0.070375957            5 
 1180000   0.79322913    -2.853791     992.6986  0.070105834  0.070340776            3 
 1181000   0.79790719   -2.8445634     993.4776  0.070101439  0.070305489            2 
 1182000   0.77845884   -2.8498924     993.7786  0.070063353  0.070270588            4 
 1183000   0.79395934   -2.8460542    994.23204  0.070036069  0.070235763            3 
 1184000   0.77791365   -2.8486937    994.41047  0.069989476  0.070200409            2 
 1185000   0.77619925   -2.8580645    991.23556  0.069707142  0.070165225            4 
 1186000   0.77173574   -2.8723904    994.43707  0.069873319  0.070130154            2 
 1187000   0.76464067   -2.8622438    991.24928  0.069590655  0.070094819            3 
 1188000   0.76398999   -2.8666056    995.78781  0.069850436  0.070059897            3 
 1189000   0.76883428   -2.8722276     995.3564  0.069761452  0.070024539            3 
 1190000   0.77084038   -2.8503333    994.52281  0.069644454  0.069989399            6 
 1191000   0.78872926   -2.8695453    996.78675  0.069744385  0.069954236            3 
 1192000   0.79071812   -2.8436469    997.44502  0.069731895   0.06991921            3 
 1193000   0.76849041    -2.891717    996.87555  0.069633665  0.069884322            7 
 1194000   0.79020683   -2.8732375    995.84143   0.06950317  0.069848945            4 
 1195000   0.77105462   -2.8796049    997.04054  0.069528629  0.069813987            4 
 1196000   0.77778077   -2.8578417    999.48445  0.069640778  0.069779474            3 
 1197000   0.78916027   -2.8511088    997.91494  0.069473332  0.069744483            3 
 1198000   0.78532007   -2.8531835     1001.726  0.069680439  0.069710034            2 
 1199000    0.7884716   -2.8585147    1001.6331  0.069615865  0.069675399            4 
 1200000   0.77575351   -2.8666605    999.21984  0.069390267  0.069640824            4 
 1201000    0.7812939   -2.8665779    1000.5334   0.06942363  0.069606178            4 
 1202000   0.77312431   -2.8879856    999.40457  0.069287616  0.069571541            9 
 1203000   0.76376971   -2.8887193    999.57781   0.06924202  0.069536367            9 
 1204000   0.78241354   -2.8791522    998.20311  0.069089363  0.069501591            3 
 1205000   0.77546479   -2.8706139    998.76731  0.069071045  0.069466576            5 
 1206000   0.78723649   -2.8568117    1000.8888  0.069160365  0.069431144            2 
 1207000   0.79283203   -2.8625985    1002.7699   0.06923294  0.069396048            5 
 1208000   0.76956956    -2.871108    1005.8804  0.069390205  0.069361488            3 
 1209000   0.76332241   -2.8776559     1005.003  0.069272331   0.06932665            3 
 1210000   0.75950994   -2.8689037    1003.5005  0.069111607  0.069291888            4 
 1211000   0.75112983   -2.8652621    1002.0721  0.068956243  0.069257446            2 
 1212000   0.76400183   -2.8652622    1009.6308  0.069419059  0.069223112            8 
 1213000   0.77067397   -2.8732378    1005.7892  0.069097915  0.069188907            4 
 1214000   0.75238308   -2.8646291    1002.7783  0.068834312  0.069154582            3 
 1215000   0.77486364   -2.8885058    1002.8871  0.068785124   0.06912017            4 
 1216000   0.76752607   -2.8684542    1008.0842  0.069084714  0.069086071            3 
 1217000   0.76306067   -2.8613603    1006.0811   0.06889079  0.069051507            2 
 1218000   0.75910533   -2.8559396      1007.82  0.068953199  0.069016785            2 
 1219000   0.77625197   -2.8922653    1004.9807  0.068702535  0.068982037            4 
 1220000   0.76913989   -2.8753049    1007.5023  0.068818464  0.068947385            4 
 1221000   0.76469134   -2.8844237    1005.8436  0.068648892  0.068912821            2 
 1222000   0.76393272   -2.8710431    1004.9886  0.068534411  0.068878282            2 
 1223000   0.76319052   -2.8581398    1011.5208  0.068923468  0.068844217            6 
 1224000   0.77959949   -2.8856967     1009.139  0.068704996   0.06881003            1 
 1225000    0.7585251   -2.8736068    1010.4052   0.06873505  0.068775842            3 
 1226000   0.74731342   -2.8737343    1008.9884  0.068582683  0.068742156            3 
 1227000   0.77365642   -2.8932142    1003.9573  0.068185095  0.068708399            3 
 1228000   0.75474031   -2.8667017    1010.1801  0.068551854  0.068674369            3 
 1229000   0.75146289   -2.8793537    1012.0575   0.06862337  0.068641106           10 
 1230000   0.76534713   -2.8712467    1007.2984  0.068245146  0.068607175            4 
 1231000   0.74865591   -2.9026094    1011.1412  0.068449852  0.068573361            4 
 1232000   0.77594948   -2.8944811    1013.4226  0.068548605  0.068539217            3 
 1233000   0.75429819   -2.8812139    1012.0793  0.068402222  0.068504823            3 
 1234000   0.76280658   -2.8905975     1013.666  0.068453943  0.068470598            7 
 1235000   0.76068249    -2.885349    1013.9641  0.068418629  0.068436042           10 
 1236000   0.75544082   -2.8877055    1013.8906   0.06835832  0.068402137            5 
 1237000   0.76514899   -2.8842514    1013.7365  0.068292677  0.068368297            2 
 1238000   0.75686625   -2.8965983    1019.4157  0.068619793  0.068334516            3 
 1239000   0.75529847   -2.8992498    1014.2195  0.068214925  0.068301014            4 
 1240000   0.75852516   -2.8917557    1016.9627  0.068344268   0.06826733            5 
 1241000   0.74628993   -2.8954477    1012.0099  0.067956612  0.068233592            7 
 1242000   0.76048705   -2.8907328    1016.0251  0.068171306  0.068199517           19 
 1243000      0.76304   -2.8727593    1017.2304  0.068197266  0.068165401            5 
 1244000   0.75023505   -2.8580685    1020.7543  0.068378502  0.068131842            5 
 1245000   0.74969396   -2.8925501    1021.0455  0.068343074  0.068098704            4 
 1246000   0.74208597   -2.8954208    1019.2491  0.068168076  0.068065074            3 
 1247000   0.77090286   -2.8923024    1017.7676  0.068014408   0.06803119            6 
 1248000   0.76133284   -2.9053989    1016.1568   0.06785235   0.06799713            5 
 1249000   0.74947609   -2.8940962     1021.664  0.068165464  0.067963397            4 
 1250000   0.75078838    -2.878092     1022.365  0.068157667    0.0679298            5 
 1251000    0.7537038   -2.8876902    1022.3128  0.068099706   0.06789651            3 
 1252000   0.75829543   -2.9029635     1020.093  0.067897563  0.067863293            4 
 1253000   0.74395521   -2.9078985    1022.4132  0.067997683  0.067829675            4 
 1254000   0.75982314   -2.8969035    1017.1387  0.067592952  0.067796095            7 
 1255000   0.75560428   -2.8928107    1021.8047  0.067848916  0.067762651            3 
 1256000   0.75951431    -2.886978    1020.4755  0.067706706  0.067729157            3 
 1257000   0.74573266   -2.9103343    1022.9952   0.06781989  0.067695663            4 
 1258000   0.75229421   -2.9346796    1020.7805  0.067619267  0.067662266            4 
 1259000   0.76126117   -2.9072909    1020.7741  0.067565139  0.067628952            6 
 1260000   0.77262127   -2.9173322    1023.3043  0.067678859  0.067595624            3 
 1261000    0.7502719   -2.9015586    1019.6869  0.067386131   0.06756232            7 
 1262000   0.75026975   -2.9129056    1024.2855  0.067636387  0.067528995            5 
 1263000   0.75183831   -2.9005405    1026.2093  0.067709774  0.067496004            3 
 1264000   0.76636859   -2.8949629    1025.8571  0.067632983  0.067463079            4 
 1265000    0.7315124   -2.9124535    1026.8389  0.067644199   0.06742998            4 
 1266000   0.74552122   -2.9179933    1024.9159  0.067464187  0.067396701            2 
 1267000   0.74238603   -2.8835521    1025.1282    0.0674249  0.067363661            6 
 1268000   0.73934337   -2.9080812    1028.2257  0.067575293  0.067330614            5 
 1269000   0.74997805   -2.9210706    1027.7555  0.067491169   0.06729775            6 
 1270000    0.7478053   -2.9065721    1029.5252  0.067554145  0.067265061            5 
 1271000   0.76621751   -2.8994751     1026.663  0.067313334  0.067232381            4 
 1272000   0.75353481   -2.9023755    1031.8497  0.067600217  0.067199826            2 
 1273000   0.73042923   -2.9146118    1031.1399   0.06750065   0.06716755            5 
 1274000   0.74526535   -2.9195543    1029.2194  0.067322044  0.067135243            8 
 1275000   0.72697417   -2.9081817    1034.0972  0.067588054  0.067102867            4 
 1276000   0.74352286   -2.9023751    1032.9513  0.067460244  0.067069947            5 
 1277000   0.73840759   -2.9073924    1028.4571  0.067114141  0.067037249            5 
 1278000   0.74310977   -2.9118002    1031.1696  0.067238499  0.067004758            5 
 1279000   0.74391581   -2.9054946    1034.7548   0.06741952  0.066972182            3 
 1280000   0.74452026   -2.8819021     1032.898  0.067245966  0.066939783            2 
 1281000   0.73720752   -2.8896336    1035.5878  0.067368451  0.066907541            5 
 1282000   0.74208002   -2.9089316    1035.5101  0.067310847  0.066874998            3 
 1283000   0.76066046   -2.8975182    1032.3065  0.067050303   0.06684241           12 
 1284000   0.73910151   -2.9256845    1033.7926  0.067094534  0.066810153            7 
 1285000   0.75232266   -2.9452315    1033.6768  0.067034811  0.066777776            2 
 1286000   0.73487726   -2.9280354    1032.4255  0.066901601  0.066745457            4 
 1287000   0.73202703   -2.9224125    1035.9727  0.067079301  0.066713185            4 
 1288000   0.74668361   -2.8927508    1034.8996  0.066957788  0.066680726            4 
 1289000   0.73342819   -2.9288211     1032.737  0.066766032  0.066647925            6 
 1290000   0.73291272   -2.9366613    1032.6052  0.066705761  0.066615344            3 
 1291000    0.7355472   -2.9179102    1030.9023  0.066544173  0.066582462            5 
 1292000   0.73739034   -2.9142232    1032.7662  0.066612889  0.066549521            3 
 1293000   0.75558147    -2.933945    1037.5082  0.066866988  0.066516732            5 
 1294000   0.74202364   -2.9184726    1035.6063  0.066692834   0.06648375            7 
 1295000   0.74827964   -2.9251129    1036.2593   0.06668335  0.066451057            5 
 1296000   0.73558398    -2.949076    1035.5382  0.066585535  0.066418139            2 
 1297000   0.72615544   -2.9303073    1038.5068  0.066724931  0.066385144            4 
 1298000   0.73460119   -2.9163614    1037.1066  0.066583628  0.066352687            8 
 1299000   0.74089259   -2.8948118    1038.2304  0.066604464  0.066320273            5 
 1300000   0.72875585   -2.9057414    1040.0949  0.066672749  0.066287933            3 
 1301000   0.75064053    -2.925543    1035.3847  0.066319801  0.066255234            3 
 1302000   0.74632804   -2.9330348    1038.5092  0.066468843  0.066222541            5 
 1303000   0.71988063   -2.9247476     1040.409  0.066539332  0.066189939            3 
 1304000   0.72354461   -2.9130361     1041.897  0.066583395  0.066157754            6 
 1305000   0.74343239   -2.9302032    1039.9668  0.066409119  0.066125227            7 
 1306000   0.73420911   -2.9247465    1039.9207   0.06635533  0.066092739            6 
 1307000   0.73160898   -2.9125954    1040.8753  0.066365425  0.066060249            2 
 1308000   0.74103219   -2.9130558    1041.2737  0.066340069  0.066027576            3 
 1309000   0.72662415   -2.9272719     1037.184  0.066029032  0.065995091            5 
 1310000   0.73279772    -2.926191    1040.8594  0.066212429  0.065962868            3 
 1311000   0.72574462   -2.9305769    1039.9171   0.06610203  0.065930551            4 
 1312000   0.74993667   -2.9072406    1042.9318  0.066243129  0.065898004            3 
 1313000   0.72411117   -2.9113706    1044.9145  0.066318515  0.065865813            4 
 1314000     0.726397   -2.9356175    1042.3711  0.066106741  0.065833207            3 
 1315000   0.73722025   -2.9232632     1045.045  0.066225921  0.065800958            2 
 1316000   0.71019027   -2.9210987    1043.2014  0.066058852   0.06576899            5 
 1317000    0.7269123   -2.9372514    1042.6797  0.065975683  0.065736594            5 
 1318000   0.71912718   -2.9133227    1046.2012  0.066148282  0.065704413            5 
 1319000   0.71628552   -2.9056827    1048.6341  0.066251839  0.065672168           12 
 1320000   0.73184243   -2.9457424    1042.8001  0.065833337    0.0656403            5 
 1321000   0.72843142   -2.9283916    1046.0551   0.06598884  0.065608321           12 
 1322000   0.72339816   -2.9557479    1047.1623  0.066008718  0.065576107            6 
 1323000   0.73668586   -2.9215025    1045.7002  0.065866727  0.065544051            2 
 1324000   0.73300843   -2.9244737    1052.7709  0.066262014  0.065512317            5 
 1325000   0.71665337   -2.9291861     1045.948  0.065782895  0.065480278            8 
 1326000   0.71672072   -2.9360875    1048.3283  0.065882875  0.065448264            4 
 1327000   0.72718159   -2.9428627    1050.3245  0.065958583  0.065416476            3 
 1328000   0.71191437   -2.9070254    1050.3605  0.065911178   0.06538506            3 
 1329000   0.72840132   -2.9227573    1049.7845  0.065825463  0.065354056            5 
 1330000   0.72187235   -2.9448778    1048.9763   0.06572533  0.065322763            5 
 1331000   0.72497157   -2.9486714    1051.8067   0.06585316  0.065291595            5 
 1332000   0.73060409   -2.9481529    1051.4577  0.065781886  0.065260074            3 
 1333000   0.72102183   -2.9437922    1054.3862  0.065915617  0.065229072            4 
 1334000   0.72748691   -2.9243958    1054.7449  0.065888615  0.065198529            5 
 1335000   0.72506794   -2.9493299    1055.0775  0.065860016  0.065167789            9 
 1336000   0.72821342   -2.9467178    1052.0808  0.065623799  0.065137485            3 
 1337000   0.72979077   -2.9529036    1056.7966  0.065868651  0.065107068            6 
 1338000   0.72294677    -2.936809    1061.5168  0.066113404  0.065076807            7 
 1339000   0.72600343   -2.9584904    1054.1621  0.065606306    0.0650466            4 
 1340000   0.70956689   -2.9598213    1054.5844  0.065583605  0.065016116            3 
 1341000   0.71325743   -2.9371436    1057.1539  0.065694379  0.064985407            7 
 1342000    0.7197045   -2.9442061    1060.1436  0.065831075  0.064955153            3 
 1343000   0.72182685   -2.9496206    1058.8868  0.065704071  0.064924825            8 
 1344000   0.69007747   -2.9535815    1060.4531  0.065752298  0.064894309            3 
 1345000   0.72434108    -2.955443    1062.2719  0.065816102   0.06486397            3 
 1346000   0.72023544   -2.9695773    1056.9226  0.065436021  0.064833697            5 
 1347000   0.71984739   -2.9649455     1056.031  0.065332279  0.064803471            5 
 1348000   0.70548906   -2.9518176     1060.172  0.065539811  0.064773423            3 
 1349000   0.69853367   -2.9287304    1056.6018  0.065270681  0.064743366            6 
 1350000   0.71057646   -2.9505469    1059.3668  0.065393012  0.064713105            3 
 1351000   0.73601883   -2.9568065    1062.8953  0.065562257  0.064683069            9 
 1352000   0.71450703   -2.9561627    1063.9252  0.065577246  0.064653233            5 
 1353000   0.70044626   -2.9404163    1065.6778  0.065636724  0.064623387            7 
 1354000    0.7138437   -2.9616511    1060.1337  0.065247025  0.064593458            5 
 1355000   0.71382004   -2.9532548    1063.2979  0.065393477  0.064563631            4 
 1356000   0.71344445   -2.9581616     1061.949  0.065262352  0.064533354            3 
 1357000   0.72898748   -2.9575914    1066.4142  0.065488465  0.064503038            4 
 1358000   0.72536129   -2.9271877    1059.4419  0.065012392  0.064472833           14 
 1359000   0.69431726   -2.9507836    1063.8713  0.065236161  0.064442356            5 
 1360000   0.72188881   -2.9427867    1060.5948  0.064987426  0.064412056            3 
 1361000   0.70831476   -2.9451789    1063.6313  0.065125598  0.064381898            5 
 1362000   0.69835718   -2.9428595    1066.1168   0.06522986  0.064351744            4 
 1363000   0.70555252   -2.9516809    1062.9674  0.064989449  0.064321194            2 
 1364000   0.70625188    -2.947453    1064.2521  0.065020289   0.06429089            6 
 1365000   0.70436724   -2.9430156     1062.415  0.064860498  0.064260475            8 
 1366000   0.70847954   -2.9736516     1064.419  0.064935275  0.064229919            2 
 1367000   0.69986824   -2.9504629    1065.9872  0.064983369  0.064199465            9 
 1368000   0.70300831   -2.9293651    1066.2142  0.064949697  0.064169247            3 
 1369000   0.71119804   -2.9904375    1065.9434   0.06488577  0.064138971            7 
 1370000   0.71400427   -2.9735968    1065.2363  0.064795395  0.064108629           10 
 1371000   0.71255087   -2.9622126    1063.4947  0.064642273   0.06407858            2 
 1372000   0.68675449   -2.9477178    1066.3921  0.064771146   0.06404847            6 
 1373000   0.70957702   -2.9543384    1065.9766  0.064698747  0.064018666            3 
 1374000   0.70953228   -2.9638101    1068.3814   0.06479751  0.063988519            7 
 1375000     0.701042   -2.9490833    1070.0346   0.06485058  0.063958558            4 
 1376000   0.70406062   -2.9676754    1067.8006  0.064668156  0.063928508            2 
 1377000   0.71420766   -2.9652327    1067.8254  0.064622692  0.063898313            6 
 1378000   0.70628447    -2.954745    1073.4612  0.064916618  0.063868347            5 
 1379000   0.70022501   -2.9709136    1070.9345  0.064716852  0.063838644            2 
 1380000   0.69280478   -2.9535635    1069.0733  0.064557566  0.063808934            7 
 1381000     0.704208   -2.9645829    1071.1226  0.064634482  0.063779392            4 
 1382000   0.68796767   -2.9433806    1071.4789  0.064609196  0.063749257            4 
 1383000   0.70811521   -2.9777008    1070.1259  0.064480951  0.063719418            6 
 1384000   0.69964555   -2.9608541    1072.4455  0.064574029  0.063689549           11 
 1385000   0.70222386   -2.9817993    1073.4577  0.064588311  0.063659879            8 
 1386000   0.70477477   -2.9621607    1075.5547   0.06466779  0.063630068            9 
 1387000   0.71947876   -2.9742352    1070.1189  0.064294575  0.063600269            4 
 1388000   0.70212706   -2.9731275     1075.502  0.064571446  0.063570543            5 
 1389000   0.70726608    -2.961016    1075.7335  0.064538846  0.063540833            3 
 1390000   0.70283016   -2.9707273    1073.3175  0.064347574  0.063511009            6 
 1391000   0.71218379   -2.9729396    1076.6853  0.064503075  0.063481614            6 
 1392000   0.70545329   -2.9650276    1075.4665  0.064383768   0.06345201            3 
 1393000   0.70980424   -2.9791416    1075.4902  0.064338967  0.063422369            9 
 1394000    0.7019367   -2.9829259    1075.6697  0.064303542  0.063392921            2 
 1395000   0.69422957   -2.9703274    1076.5712  0.064311302  0.063363416            3 
 1396000   0.69237682   -2.9689299    1075.2309  0.064185225  0.063333956            8 
 1397000   0.69261161   -2.9673741    1075.8405  0.064175647  0.063304345            8 
 1398000   0.69025975   -2.9756386    1076.8972  0.064192725  0.063274332            7 
 1399000   0.70783317   -2.9502342    1077.4109  0.064177443  0.063244811            5 
 1400000   0.69716746   -2.9734166    1076.2886  0.064064795  0.063214863            6 
 1401000   0.70732328    -2.981866    1078.4981  0.064150495  0.063185326            4 
 1402000    0.6927361   -3.0088452    1073.7675  0.063823556  0.063155263            3 
 1403000   0.68796867   -2.9982392    1078.2305  0.064043151  0.063125448            8 
 1404000   0.69354591   -2.9796344    1076.9477  0.063921397  0.063095515            6 
 1405000   0.69104517   -2.9886511    1079.3536  0.064018599  0.063065742            9 
 1406000     0.698118   -2.9766633    1077.4917  0.063862714  0.063036002           10 
 1407000   0.70231646   -2.9916092    1077.8152  0.063836484  0.063006343            4 
 1408000   0.69011694   -3.0056645    1074.6678  0.063604863  0.062976219            5 
 1409000   0.68696471   -2.9883554    1081.8786  0.063986195  0.062946329            3 
 1410000   0.68656364    -2.991914    1077.6858  0.063693017  0.062916589            6 
 1411000   0.70029094   -2.9860468    1081.0363  0.063845756  0.062886422            3 
 1412000   0.67124789   -2.9914064    1079.3347  0.063700114  0.062856804            5 
 1413000   0.68838112   -3.0023797    1076.5247  0.063489309  0.062826768            5 
 1414000   0.68423094   -2.9772735     1080.458  0.063676215  0.062796924            5 
 1415000   0.68708099   -2.9866106    1079.8645  0.063596258  0.062767096            7 
 1416000   0.68486872   -2.9760129    1083.2744  0.063752023  0.062737517            4 
 1417000   0.69264796   -2.9794422    1075.1662  0.063230193  0.062707951            4 
 1418000   0.68662109   -2.9914081    1079.8876  0.063463072  0.062678252            6 
 1419000   0.68493846   -3.0063314    1082.9749  0.063599652  0.062648408            6 
 1420000    0.6897419   -3.0022442    1083.3239  0.063575347  0.062618692            5 
 1421000   0.68444835   -2.9976804    1082.6063  0.063488526  0.062588656            6 
 1422000   0.68562327   -2.9894449    1079.2014  0.063244339  0.062558949            4 
 1423000   0.68359437   -2.9899009    1085.5025  0.063568899   0.06252878            6 
 1424000   0.67709466   -3.0064525    1078.8402  0.063134375  0.062499026            5 
 1425000   0.67333622   -2.9821557    1083.6609  0.063371983  0.062469028            5 
 1426000   0.67435213    -2.984727    1083.5424  0.063320615  0.062439169            5 
 1427000   0.69238996   -3.0187972    1082.6037  0.063221426  0.062409397            7 
 1428000    0.6842076   -3.0010969    1080.5316   0.06305623  0.062379265            5 
 1429000   0.68804409   -2.9979145    1083.8903   0.06320797  0.062349505           10 
 1430000   0.69527551   -3.0073299    1080.0772  0.062941559  0.062319728            5 
 1431000   0.67245038   -3.0180555    1086.0057  0.063242819  0.062290186            4 
 1432000   0.68111591   -2.9916793    1081.5561  0.062939716  0.062260569            5 
 1433000    0.6747918   -2.9960023    1083.0967  0.062985386  0.062230471            4 
 1434000   0.68578721   -3.0046373    1085.8092  0.063099092  0.062200505            5 
 1435000    0.6664848   -2.9809743    1084.5127  0.062979831  0.062170862            5 
 1436000   0.68462724   -3.0046494    1086.1848  0.063033008  0.062140974            4 
 1437000   0.67849437    -3.014504    1086.3394  0.062998109  0.062111179            4 
 1438000   0.68084509   -3.0206566    1085.2668  0.062892144  0.062081191            4 
 1439000   0.68034605    -3.000392    1084.3743  0.062796753  0.062050908            3 
 1440000   0.68565761   -3.0026615    1087.0185  0.062906162  0.062020962            3 
 1441000   0.67148907   -2.9978941    1085.4985  0.062774606   0.06199105            5 
 1442000    0.6804013    -2.990178    1084.0339  0.062646435    0.0619611            9 
 1443000   0.67500108   -3.0032942    1085.8035  0.062705212   0.06193118            8 
 1444000   0.67045344   -2.9835495    1090.6731  0.062942813  0.061901262           10 
 1445000   0.68081719   -3.0099629    1088.4085  0.062768659  0.061871257            5 
 1446000   0.67578631   -3.0250122      1086.43  0.062611227  0.061841212            7 
 1447000   0.68299039   -3.0027336    1090.2609  0.062788578  0.061811131            5 
 1448000   0.69421212   -3.0097102    1088.2391  0.062628864   0.06178114            4 
 1449000   0.66674884   -3.0034116    1089.8489  0.062678219  0.061751323            7 
 1450000    0.6595501    -3.010815    1089.2482  0.062600473  0.061721758            7 
 1451000   0.67958218   -3.0134767    1085.0239  0.062314722  0.061691892            6 
 1452000   0.68789972   -2.9945842    1088.4436  0.062468064  0.061662214           13 
 1453000   0.68483719   -3.0014176    1088.0511  0.062402562  0.061632557            7 
 1454000   0.68405616   -3.0225827    1089.9014  0.062465691  0.061602851            4 
 1455000    0.6884086   -3.0221864    1088.8158  0.062360581  0.061572889           15 
 1456000   0.67192824   -2.9959806    1089.7574  0.062371646  0.061542948            3 
 1457000    0.6868141   -2.9970862    1089.8234  0.062332614  0.061513379            4 
 1458000   0.68324386   -3.0025552    1093.0607   0.06247489  0.061483559            2 
 1459000   0.67729171   -3.0241067    1090.5104  0.062286404  0.061453666            6 
 1460000   0.65555224   -3.0151591    1089.9922  0.062214168  0.061423825            5 
 1461000   0.68246383   -2.9967323    1092.5852  0.062319486  0.061394132            6 
 1462000   0.68923954   -3.0305596    1087.8581  0.062007416  0.061364209            4 
 1463000   0.66920936   -2.9921793    1090.0963  0.062092523  0.061334408            9 
 1464000   0.66105925   -3.0051255     1092.979  0.062214193  0.061304734            8 
 1465000   0.67345694   -3.0002384    1092.2414  0.062129773  0.061274935            3 
 1466000   0.65939823    -3.020509    1092.7116  0.062114117  0.061245304            4 
 1467000   0.67476091   -3.0263818    1094.7936  0.062190049  0.061215438            4 
 1468000   0.67483234    -3.014604    1092.8156  0.062035397  0.061185463            6 
 1469000   0.67724022   -3.0085013    1095.0269  0.062118614  0.061155674            5 
 1470000   0.67819687    -3.021146    1092.1837  0.061915174  0.061125858            4 
 1471000   0.65346993   -3.0222371    1094.1498  0.061984465  0.061096067            3 
 1472000   0.65525795   -3.0224473    1090.6494  0.061744194  0.061066308            3 
 1473000   0.66206286   -3.0365045     1094.539  0.061922325  0.061036469            4 
 1474000   0.66898468   -3.0174264    1091.8594  0.061728821  0.061006549            4 
 1475000   0.66620463   -3.0229929    1090.5465  0.061612795  0.060976552            4 
 1476000    0.6653712   -3.0228524    1093.7116  0.061749753  0.060946515            6 
 1477000   0.67214533   -3.0318735    1093.9231  0.061719879  0.060916577            4 
 1478000   0.66436964   -3.0061928    1097.8186  0.061897756  0.060886868            6 
 1479000   0.65359402   -3.0264718    1093.2555  0.061598799  0.060857145            8 
 1480000   0.67353825   -3.0416851    1093.7115  0.061582853  0.060827069            9 
 1481000   0.65726418   -3.0175562    1090.1909  0.061343177  0.060797539            7 
 1482000   0.66219836   -3.0378318     1098.108  0.061746965  0.060767656            5 
 1483000   0.66580827   -3.0167175    1098.1064   0.06170524  0.060738119            6 
 1484000   0.66016275   -3.0117117    1095.1393  0.061497038  0.060708404            7 
 1485000   0.64951052   -3.0417091    1095.8444  0.061495198  0.060678848            6 
 1486000   0.66819543   -3.0296113    1099.9823   0.06168586  0.060648951           10 
 1487000   0.66817966   -3.0418769    1099.4741  0.061615896  0.060619467            5 
 1488000   0.67442218    -3.019192    1097.3725  0.061456795  0.060589886            9 
 1489000   0.65901801    -3.026669      1097.58  0.061427131  0.060560435            4 
 1490000   0.66756392   -3.0294047    1096.7841  0.061341395  0.060530641            5 
 1491000   0.65749731   -3.0516974    1094.9188  0.061195998  0.060500848            5 
 1492000   0.65960601   -3.0401105     1096.421  0.061238887  0.060470612            7 
 1493000   0.65154214   -3.0298289    1098.6895  0.061324487  0.060440855           14 
 1494000   0.64963625   -3.0356045    1095.4211  0.061101134  0.060411078            4 
 1495000   0.65762323   -3.0491338    1095.5742  0.061068794  0.060381281            6 
 1496000   0.65019669   -3.0221455    1096.7304  0.061092381  0.060351173           11 
 1497000   0.66704208   -3.0477792    1097.5104  0.061094992  0.060321339            4 
 1498000   0.65330672   -3.0476017    1097.8285  0.061071899  0.060291636            9 
 1499000   0.66522827   -3.0267336    1099.5692  0.061127927  0.060261857            9 
 1500000    0.6445572   -3.0363662    1099.0723  0.061059571  0.060232239            8 
 1501000   0.65042488   -3.0296574    1100.9793  0.061124765  0.060202403            7 
 1502000   0.66558421   -3.0628566    1099.0301  0.060975928  0.060172555           12 
 1503000   0.66220017   -3.0218295    1099.2256  0.060946195  0.060142782            6 
 1504000   0.65506709   -3.0365682    1100.4604  0.060974091  0.060113013            3 
 1505000   0.67212579   -3.0464537    1099.8212  0.060898186  0.060083183            8 
 1506000   0.64983367   -3.0308603    1099.1563  0.060820956  0.060053222            6 
 1507000   0.63782554   -3.0277576     1102.721  0.060977715  0.060023641           11 
 1508000   0.65344075   -3.0406687     1099.615   0.06076564  0.059993832            6 
 1509000   0.64880783    -3.057602    1101.4081  0.060824391  0.059964084            6 
 1510000   0.64937396   -3.0169146    1103.4822  0.060898574  0.059934455           11 
 1511000   0.64992807   -3.0457348    1098.1919  0.060566508  0.059904852            6 
 1512000   0.66030053   -3.0479101    1100.8567  0.060673316  0.059874814            3 
 1513000   0.65202864   -3.0600661    1099.6876  0.060568825   0.05984498            3 
 1514000   0.66668351   -3.0379804    1104.3218  0.060783896  0.059815317            6 
 1515000   0.65187914    -3.051057     1101.799  0.060605005  0.059785721            7 
 1516000   0.66255935   -3.0623177     1102.834   0.06062192  0.059755841            5 
 1517000     0.651971    -3.049329    1101.5071  0.060509068  0.059725983            5 
 1518000    0.6617786   -3.0535346    1101.8055  0.060485592  0.059696169            6 
 1519000    0.6476173   -3.0462121    1102.9006   0.06050585  0.059666141            6 
 1520000   0.64760225   -3.0181653    1104.6528  0.060562106  0.059636199            3 
 1521000   0.64184199   -3.0438122    1100.7712  0.060309621  0.059606414            7 
 1522000   0.64461691   -3.0261002    1099.5607  0.060203718  0.059576604            3 
 1523000   0.65168528   -3.0566904    1102.5036  0.060325211  0.059546927            5 
 1524000   0.64037101   -3.0533756    1103.1612  0.060321586  0.059517114            7 
 1525000   0.64881631   -3.0572979    1103.2183  0.060285151  0.059486788            5 
 1526000   0.66350533   -3.0481963    1101.1468  0.060132528  0.059456672            4 
 1527000   0.64221399   -3.0395774    1103.0486  0.060196931  0.059426879            9 
 1528000   0.65349893   -3.0574986    1104.0188  0.060210451  0.059396641           12 
 1529000   0.65206885   -3.0390291    1103.1472  0.060123568  0.059366617            7 
 1530000   0.63847161   -3.0467427    1104.5446   0.06016038  0.059336549            4 
 1531000   0.64751332   -3.0481391    1099.9608  0.059871588  0.059306288            6 
 1532000   0.65454578   -3.0699082    1104.6827  0.060089356  0.059276151            8 
 1533000   0.64917736   -3.0442036    1103.3367  0.059976992  0.059245914           10 
 1534000   0.62709685    -3.080915    1103.8245  0.059964392  0.059215769            9 
 1535000   0.64336635   -3.0699882    1103.2576  0.059894548  0.059185301            4 
 1536000    0.6492188   -3.0744072    1103.2465  0.059854954  0.059155121            8 
 1537000   0.63427737   -3.0438574    1100.6753  0.059676605  0.059124644            7 
 1538000   0.64369371   -3.0817312      1106.78  0.059968574  0.059094386            5 
 1539000   0.64339857   -3.0735645    1101.3436   0.05963524  0.059064109            9 
 1540000   0.64299679   -3.0520812    1103.3366  0.059704361  0.059033704            5 
 1541000   0.64203225   -3.0575135    1106.2546  0.059823413  0.059003442            9 
 1542000   0.63485012   -3.0781203    1104.9917  0.059716371  0.058973369            6 
 1543000   0.64247991   -3.0592441    1103.3054  0.059586598  0.058943205            5 
 1544000   0.62663769   -3.0743798    1104.7542  0.059626199  0.058912873            4 
 1545000   0.63191335   -3.0651917    1102.0258  0.059440444  0.058882485            5 
 1546000   0.62725754   -3.0829634    1103.6327  0.059488608  0.058852231            4 
 1547000   0.64121495   -3.0664736     1102.282  0.059377395  0.058821733            6 
 1548000   0.61231324   -3.0688719    1102.1039  0.059329454  0.058791102            5 
 1549000   0.63464913   -3.0815385    1105.8468  0.059492512  0.058760823            5 
 1550000   0.64304089   -3.0731719    1105.7527  0.059449073  0.058730586            6 
 1551000    0.6279918   -3.0727624    1103.6716  0.059298925  0.058700314            6 
 1552000   0.64093726    -3.086834    1105.4597  0.059356725  0.058670152            5 
 1553000   0.62128038    -3.076237    1107.3612   0.05942054  0.058639929           11 
 1554000   0.64637857    -3.068112    1106.2955  0.059325155  0.058610001            9 
 1555000   0.62312745   -3.0770404    1105.8591  0.059263615  0.058580031            4 
 1556000   0.64003754   -3.0751864    1105.9864   0.05923235  0.058549861            7 
 1557000   0.63553059   -3.0919306    1106.7192  0.059233525  0.058519578            9 
 1558000   0.63270141   -3.0714951    1107.5238   0.05923854  0.058489512           12 
 1559000   0.62764294   -3.0576679    1109.2008  0.059290183  0.058459674            4 
 1560000   0.64335294    -3.093823    1105.0331  0.059029548  0.058429588            8 
 1561000   0.63200076    -3.081737    1106.9881    0.0590961  0.058399553            5 
 1562000    0.6257208   -3.0579615    1104.2583  0.058912626   0.05836939            8 
 1563000   0.61753939   -3.0812532    1105.7739   0.05895574  0.058339506            7 
 1564000   0.62624168   -3.0836207    1109.0397  0.059092057   0.05830953            5 
 1565000   0.62378639   -3.0692009    1109.5002  0.059078818    0.0582794            6 
 1566000   0.63153469   -3.1026589    1107.0672  0.058911622  0.058249091            7 
 1567000   0.64786782   -3.0782957    1107.2301  0.058882688  0.058219042            8 
 1568000   0.63181193   -3.0844175    1109.3216  0.058956295  0.058189102            7 
 1569000   0.63085454   -3.0885267    1110.7382  0.058993955  0.058158936           15 
 1570000   0.62481871   -3.0619207    1111.2871  0.058985515  0.058128884            3 
 1571000   0.61667777   -3.0831775    1107.5496  0.058749714  0.058098784            9 
 1572000   0.62044388   -3.0713477    1110.0468  0.058844723  0.058068758            5 
 1573000   0.63095616   -3.1081286    1104.7217  0.058525201  0.058038561            6 
 1574000   0.64020749   -3.0844632    1109.9232  0.058763406  0.058008354            4 
 1575000    0.6355138   -3.0804933    1111.2741  0.058797574  0.057978104            4 
 1576000   0.61147889   -3.1131721    1110.0696  0.058696576  0.057948181            7 
 1577000   0.61947127   -3.0769639    1108.0501  0.058552636  0.057918212            7 
 1578000    0.6302003   -3.0791644    1109.1039  0.058571182  0.057888549            5 
 1579000   0.62244178   -3.0842414    1112.3007  0.058702802  0.057858554            6 
 1580000   0.63148796   -3.0859158    1110.8352  0.058588354  0.057828487           11 
 1581000   0.63023438   -3.0936532    1109.9073  0.058502389  0.057798505            6 
 1582000   0.61958839   -3.0810515    1111.2264  0.058534894  0.057768768            4 
 1583000   0.61931508   -3.1084043    1110.6414  0.058467122  0.057738735           10 
 1584000   0.61062051   -3.0949713    1109.3861   0.05836417   0.05770889            9 
 1585000   0.60589925   -3.0890142    1112.3509  0.058483224  0.057678949            9 
 1586000   0.62332834   -3.0974448    1110.2493  0.058335925   0.05764884            5 
 1587000   0.62263824   -3.0790794    1112.7808  0.058432096  0.057619271            8 
 1588000    0.6160023   -3.0997022    1113.0514    0.0584095  0.057589488            8 
 1589000    0.6272415   -3.1084407    1114.0321   0.05842417  0.057559633            6 
 1590000   0.62417697    -3.088352    1111.2324  0.058240693   0.05752974            6 
 1591000   0.61211316   -3.0888511    1108.6714  0.058069946   0.05749994            8 
 1592000   0.62261025   -3.0990458    1113.7522  0.058299424   0.05747005            3 
 1593000   0.61183637   -3.1133526    1111.1771  0.058128119  0.057440229           13 
 1594000   0.61162513   -3.0915473     1113.258   0.05820044  0.057410425            7 
 1595000   0.62049739   -3.1194931    1112.9689  0.058148845  0.057380634           20 
 1596000    0.6054082   -3.1174667     1111.486  0.058034985  0.057350823            8 
 1597000   0.61824424   -3.1130723    1114.2148  0.058141034  0.057321015            4 
 1598000   0.62436577    -3.101316    1114.4921  0.058119111  0.057291135            7 
 1599000   0.61579481   -3.1016197     1114.126  0.058063688  0.057261607            8 
 1600000   0.62736587   -3.1011407    1114.0554  0.058023717  0.057232171           12 
 1601000    0.6101895   -3.1059968    1115.6957  0.058072855  0.057202809            4 
 1602000   0.61340046   -3.0849396    1117.5853  0.058134897  0.057173486            4 
 1603000   0.61827142   -3.0953361    1114.1081  0.057917866  0.057144031           18 
 1604000   0.61700699   -3.0868428    1115.6431  0.057961509  0.057114678            7 
 1605000   0.60636034   -3.1075292    1117.8375  0.058039331  0.057085094            9 
 1606000    0.6136167    -3.098633    1117.2734  0.057973923  0.057055462            6 
 1607000   0.60615899    -3.108139    1114.8832  0.057813899  0.057025684            8 
 1608000   0.60892949   -3.1065168    1115.5072  0.057810284  0.056996022            4 
 1609000   0.60005184   -3.1116206    1118.2324  0.057915497  0.056966388            9 
 1610000   0.61139458   -3.1174963    1112.4086  0.057578083  0.056936577            8 
 1611000   0.61345189   -3.1141154    1117.4458  0.057802909  0.056906911           10 
 1612000   0.61900546     -3.10632    1117.9379  0.057792488  0.056877426            5 
 1613000   0.62693846    -3.100783    1118.5024  0.057785821  0.056848212            6 
 1614000   0.60588601   -3.1121276    1120.2527  0.057840393  0.056818927            8 
 1615000    0.6088798   -3.1310573     1116.846   0.05762879  0.056789487           10 
 1616000   0.61128772   -3.0979452    1118.7425  0.057690931  0.056760087            4 
 1617000   0.59305806   -3.1178718    1118.1558  0.057625015  0.056730794           10 
 1618000    0.6161684   -3.1081827    1122.3096  0.057803339  0.056701318            5 
 1619000   0.60285412   -3.1237651    1120.2772  0.057663022  0.056672047            4 
 1620000   0.60630808   -3.1232223    1117.4958  0.057484351  0.056642756            5 
 1621000   0.59814288   -3.1533273    1117.7389  0.057461385  0.056613449            3 
 1622000   0.60856465   -3.1178242    1118.7891  0.057479917  0.056584153            9 
 1623000   0.59505085   -3.1143136    1120.6859   0.05754189  0.056555061            9 
 1624000   0.60954708   -3.0923579    1120.8289  0.057513799   0.05652597            5 
 1625000   0.60760498   -3.1242144    1119.7242  0.057421755  0.056496776            6 
 1626000   0.60018209   -3.0970414    1125.7753   0.05769656  0.056467673           10 
 1627000    0.6051355   -3.1003907    1122.2505  0.057480562  0.056438738            6 
 1628000   0.60568445   -3.1083548    1123.8698  0.057528145  0.056409803           10 
 1629000   0.60858046   -3.1131407    1119.1291  0.057250313   0.05638097            9 
 1630000   0.60523405   -3.1175071    1120.9514  0.057308354  0.056351983            5 
 1631000   0.60378604   -3.0984078    1123.1643   0.05738628  0.056323101            8 
 1632000   0.59644641   -3.1364901    1123.9592  0.057391709  0.056294292           11 
 1633000   0.61352562   -3.1269487    1124.4886  0.057383576  0.056265624            8 
 1634000   0.59818432   -3.1353854    1121.9334  0.057218143  0.056236936            6 
 1635000   0.59404696   -3.1138058    1122.4357   0.05720875  0.056208286            6 
 1636000   0.60796151   -3.1550035    1121.5474  0.057128533  0.056179573            4 
 1637000   0.59843144   -3.1401729    1121.3309  0.057082616  0.056150657            8 
 1638000   0.58218193   -3.1163343     1126.077  0.057289225  0.056121768            9 
 1639000   0.59139651   -3.1093414    1123.8318  0.057140117  0.056092997            5 
 1640000   0.59664727   -3.1271372    1123.8806  0.057107752  0.056064137            4 
 1641000   0.59777773   -3.1024675    1125.0113  0.057130375  0.056035413            9 
 1642000   0.59747514   -3.1321705    1125.4574  0.057118222  0.056006594            4 
 1643000   0.60132759    -3.138598    1125.3464  0.057077825  0.055977871            7 
 1644000   0.59978147   -3.1252364    1125.4212  0.057046898  0.055948896            5 
 1645000   0.59637394   -3.1301619    1126.1847  0.057050896  0.055920139            6 
 1646000   0.60879117   -3.1079018    1125.3456  0.056973752   0.05589128            5 
 1647000   0.58974797   -3.1422704    1125.4336  0.056943616  0.055862431           12 
 1648000   0.58625315   -3.1435956    1126.4699  0.056961466  0.055833481            5 
 1649000   0.58007738   -3.1153436    1125.5594  0.056880906  0.055804638            5 
 1650000   0.59794736   -3.1315859     1125.307  0.056833685  0.055775989            7 
 1651000   0.60040627   -3.1232991    1128.7637   0.05697374  0.055747332            9 
 1652000   0.58025314   -3.1414779    1123.9965  0.056698773  0.055718749           12 
 1653000    0.6101142   -3.1415658    1126.0352   0.05676725  0.055690121           11 
 1654000   0.58536545   -3.1618262    1125.2831  0.056695037  0.055661363            7 
 1655000   0.58866108   -3.1450724    1125.4528  0.056669325  0.055632686           22 
 1656000   0.60177626   -3.1285763    1125.0062  0.056612632  0.055603973            5 
 1657000    0.5906665   -3.1551506    1126.6858  0.056662935  0.055575307            5 
 1658000   0.58733138   -3.1333308    1122.1406   0.05640031  0.055546579            7 
 1659000    0.5829564    -3.128084    1125.8698  0.056553635  0.055517897           12 
 1660000    0.5919161   -3.1488917    1123.8075  0.056416037  0.055489426            6 
 1661000   0.59705944   -3.1252512    1127.1199   0.05654826  0.055460591            6 
 1662000   0.58571303   -3.1455958    1125.4995  0.056432987  0.055431831            7 
 1663000   0.57986866   -3.1229974    1127.5964  0.056504128  0.055403199            7 
 1664000   0.60118126   -3.1226519    1126.7887  0.056429721   0.05537462            7 
 1665000   0.58044177   -3.1443574    1125.4886  0.056330763  0.055346103            9 
 1666000   0.58524205   -3.1365662    1128.4195  0.056443555  0.055317401            6 
 1667000   0.59505386    -3.151176    1126.8699   0.05633223  0.055288865            5 
 1668000   0.57172414   -3.1602912    1125.8542  0.056247711  0.055260096           13 
 1669000   0.60198417    -3.123865    1127.1483  0.056278627   0.05523124            9 
 1670000   0.59306806   -3.1418086    1124.3143  0.056103509  0.055202528            9 
 1671000   0.58733237   -3.1301526    1128.1273  0.056260089   0.05517371           13 
 1672000   0.59119171   -3.1585198    1124.3664  0.056038995  0.055145083           10 
 1673000   0.57982108   -3.1434895    1130.1004  0.056291111  0.055116294           10 
 1674000   0.58128886   -3.1492152    1127.6684  0.056136419  0.055087792            6 
 1675000   0.57321467   -3.1615231    1128.8901  0.056163687  0.055059318           12 
 1676000   0.58524767   -3.1575009    1129.4654  0.056158779  0.055030751            6 
 1677000   0.58914355   -3.1427775    1127.9464   0.05604981  0.055002114            5 
 1678000   0.57779617   -3.1707319    1128.8426  0.056060914  0.054973257            9 
 1679000   0.58451134   -3.1730326    1126.4875  0.055910638  0.054944526           10 
 1680000   0.56903964   -3.1447757    1129.7292  0.056038157  0.054915966            9 
 1681000   0.59090617   -3.1558216    1127.5878  0.055898663  0.054887463           15 
 1682000   0.58735319   -3.1387472     1128.442  0.055907749  0.054858805            5 
 1683000   0.58261889   -3.1587529    1130.5999  0.055981379  0.054830259           12 
 1684000   0.56077939   -3.1631467    1127.3197  0.055785813    0.0548015           10 
 1685000   0.58620745    -3.158228    1131.4349  0.055956227  0.054772757            8 
 1686000    0.5816322   -3.1712537    1127.5159  0.055729335  0.054744237            6 
 1687000    0.5701133   -3.1461698    1129.1201  0.055775545  0.054715643           10 
 1688000   0.58772857   -3.1650583    1131.2055  0.055845452  0.054687125           12 
 1689000   0.57778445   -3.1564143     1131.764  0.055839946  0.054658534            8 
 1690000   0.58995144   -3.1548896    1129.7008  0.055705167  0.054629831            9 
 1691000   0.57655611   -3.1775236    1130.3138  0.055702433  0.054601115            7 
 1692000   0.58160309   -3.1772471    1125.0386  0.055409703  0.054572374            9 
 1693000   0.57747691   -3.1397262    1130.0207  0.055622205  0.054543815            8 
 1694000   0.58300726   -3.1604218    1128.9937  0.055538846  0.054515356            6 
 1695000   0.58881691   -3.1739976     1125.532  0.055335891  0.054486868            8 
 1696000   0.58569466   -3.1747309    1132.5518  0.055648184  0.054458234            6 
 1697000   0.58974347   -3.1765974     1129.771  0.055478833  0.054429636            5 
 1698000    0.5654443   -3.1573278    1127.7369  0.055346332  0.054401077            7 
 1699000   0.56134079   -3.1487042      1131.41  0.055493916  0.054372549            8 
 1700000   0.57502162   -3.1714463    1130.5618  0.055419696  0.054344063            4 
 1701000   0.58190004   -3.1613929    1132.1272  0.055463807   0.05431564            8 
 1702000   0.57146293   -3.1750526     1130.199  0.055336811  0.054286856            6 
 1703000   0.58585263   -3.1757511    1128.8463  0.055238121  0.054258368           12 
 1704000   0.57336601   -3.1562731    1132.0923  0.055364454  0.054229781            8 
 1705000   0.56962546   -3.1800246    1130.4544  0.055251927  0.054201127            6 
 1706000   0.58170134   -3.1543747    1129.9393  0.055194376  0.054172615            5 
 1707000   0.56067143   -3.1603972    1133.2261    0.0553225  0.054144339            7 
 1708000   0.57960409   -3.1795376    1129.9244  0.055129019  0.054116077           10 
 1709000   0.57438097   -3.1863191    1133.4785  0.055270064  0.054087743            5 
 1710000   0.57154145   -3.1602021    1133.4995  0.055238768   0.05405936           27 
 1711000   0.56966243    -3.177242    1133.9405  0.055227963  0.054030902           18 
 1712000   0.57771609   -3.1649606    1128.5546  0.054933536  0.054002516            4 
 1713000   0.56449433   -3.1745233    1131.8015  0.055059423  0.053973972            9 
 1714000   0.57111237    -3.182008    1130.7093  0.054974199  0.053945426           10 
 1715000   0.56722071   -3.1760064    1132.1916  0.055014169  0.053916811           11 
 1716000   0.57353719   -3.1811629    1131.0603  0.054927173  0.053888204            7 
 1717000   0.56565843   -3.1727349    1132.0403  0.054942743  0.053859527            7 
 1718000   0.55730762   -3.1612646    1132.3343  0.054925027  0.053831081            4 
 1719000   0.57715703   -3.1622394    1129.2646   0.05474426  0.053802769           10 
 1720000   0.55366154   -3.1740409    1131.5467     0.054823  0.053774368           11 
 1721000    0.5659701    -3.166785    1134.1476  0.054917081  0.053746049            6 
 1722000   0.56094923   -3.1768375    1133.4597  0.054851901  0.053717756           15 
 1723000   0.55102271   -3.1813302    1132.8292  0.054789572  0.053689305           10 
 1724000   0.57251705   -3.1888276    1132.5932  0.054746385  0.053660918           10 
 1725000   0.55992534     -3.17174    1131.1162  0.054643294  0.053632591           10 
 1726000   0.56507547   -3.1809855    1133.6701  0.054734942   0.05360434            7 
 1727000   0.55673223   -3.1788313    1131.9756  0.054621484  0.053575944            8 
 1728000   0.55948604   -3.1848182    1134.2038  0.054697327  0.053547658           13 
 1729000   0.56901485   -3.1790211    1131.1094  0.054516552  0.053519341            7 
 1730000   0.56427106   -3.1983349    1134.9908  0.054672003  0.053491074            5 
 1731000    0.5605324   -3.1903845    1133.2115  0.054554759  0.053462798            6 
 1732000   0.55874528   -3.1803254    1132.4455  0.054486407   0.05343442           24 
 1733000   0.55894622   -3.1951725    1134.2925  0.054543782  0.053406212           11 
 1734000   0.56313713   -3.1998015    1131.3884  0.054372761   0.05337775           10 
 1735000   0.57727495   -3.1774711    1133.8826  0.054461221  0.053349206            5 
 1736000   0.55314427   -3.1845569    1132.3748  0.054357467  0.053320855           10 
 1737000   0.57261549   -3.1703785    1133.7127   0.05439036  0.053292527           14 
 1738000   0.56817053   -3.1902044    1135.6379  0.054451377  0.053264202            7 
 1739000   0.54938869   -3.1853024    1135.6422  0.054420272  0.053235941            9 
 1740000    0.5537647   -3.1844068    1135.8483  0.054398865  0.053207605           13 
 1741000   0.54777197   -3.2000314    1133.7462  0.054266999  0.053179291           12 
 1742000   0.54414161   -3.1783246    1133.0774  0.054203855  0.053151011            5 
 1743000   0.55784155   -3.1740851    1133.8884  0.054211533  0.053122772           18 
 1744000    0.5670303   -3.2043834    1135.3629  0.054250905  0.053094534            5 
 1745000   0.55626133   -3.1974733    1135.4788  0.054225347  0.053066203            5 
 1746000   0.54728335   -3.2083824    1133.6267  0.054105896   0.05303795            7 
 1747000     0.547029   -3.1929418    1137.7894  0.054273488   0.05300984            7 
 1748000   0.57181817    -3.209213    1134.2223  0.054072383  0.052981669           10 
 1749000    0.5524603   -3.1882115    1136.5516  0.054152448  0.052953521           30 
 1750000   0.54788584   -3.2240207    1137.0252  0.054144056  0.052925188           11 
 1751000   0.56044937   -3.2119036    1133.4007  0.053940639  0.052896791           29 
 1752000   0.56480265   -3.1911224    1137.0785  0.054084786    0.0528684            8 
 1753000   0.55871242   -3.1923177    1136.3239  0.054018061  0.052840157            4 
 1754000   0.54608248   -3.2113329    1134.4348  0.053897511  0.052811793           10 
 1755000   0.55338743   -3.1863043    1135.5487   0.05391969   0.05278341            6 
 1756000   0.56198722   -3.1849353    1134.6646   0.05384703  0.052755127           10 
 1757000   0.55660061   -3.2081563    1134.0509  0.053787276  0.052726744            9 
 1758000   0.56120228   -3.1933459    1136.9387  0.053893569  0.052698451           10 
 1759000    0.5493095   -3.2127799    1133.6114  0.053705297  0.052670027            7 
 1760000   0.54343308   -3.1899687    1134.1377  0.053699703  0.052641531            9 
 1761000   0.54899353   -3.2022274    1133.1459  0.053622274  0.052613162           13 
 1762000   0.54723202   -3.1942144     1133.828  0.053624104  0.052584693           24 
 1763000   0.55392314   -3.2254998    1134.6458  0.053632341  0.052556098            8 
 1764000   0.54480196   -3.2033211     1136.452  0.053687262  0.052527765           11 
 1765000   0.54915921   -3.2274614    1134.7776  0.053577788  0.052499382           11 
 1766000   0.54701091   -3.2011226     1134.765  0.053546859  0.052470999            9 
 1767000   0.54656626    -3.205538    1134.1289  0.053486552  0.052442634           10 
 1768000   0.55440546   -3.2034746    1134.1826  0.053458832  0.052414076           17 
 1769000   0.55258021   -3.1977914    1134.2131  0.053430051  0.052385678           16 
 1770000   0.54265664   -3.2143786    1133.8476  0.053382653  0.052357274           46 
 1771000   0.54740298   -3.2090127    1133.3514  0.053329164  0.052328711           14 
 1772000   0.55846734   -3.1973944    1135.2875  0.053390121   0.05230043            8 
 1773000    0.5501261   -3.2234977      1136.56  0.053419815  0.052271996            5 
 1774000   0.54563686   -3.2073619    1136.6331  0.053393137  0.052243697            9 
 1775000   0.53602057    -3.235614    1134.8288  0.053278346  0.052215313           22 
 1776000   0.53931291   -3.2177242     1132.274  0.053128474  0.052186815            9 
 1777000   0.55489796   -3.2239481    1134.5398  0.053204832  0.052158338           11 
 1778000   0.54786659   -3.2132052    1136.1728  0.053251442  0.052129833           15 
 1779000    0.5509164   -3.2182805    1133.4482  0.053093881  0.052101302            7 
 1780000   0.53849088   -3.1987451    1133.3866   0.05306117  0.052072709            5 
 1781000   0.55119053   -3.2089521    1133.8457  0.053052861  0.052044232            8 
 1782000   0.54335978   -3.2226967    1135.4832  0.053099661  0.052015699            9 
 1783000    0.5425372   -3.2298271    1132.5256   0.05293165  0.051986997            7 
 1784000   0.54577854   -3.2216127    1134.2019  0.052980285  0.051958317            9 
 1785000   0.55955848   -3.2223267    1132.0907  0.052852038   0.05192973            9 
 1786000   0.54471754   -3.2066297     1133.653  0.052895344  0.051901135            8 
 1787000   0.54731221   -3.2335163    1131.8093  0.052779768    0.0518725            7 
 1788000   0.53960371   -3.2268428    1133.9387  0.052849492   0.05184384           14 
 1789000   0.54217241   -3.2381064    1133.4416  0.052796797  0.051815118           12 
 1790000   0.53834098   -3.2275884    1134.9184  0.052836054  0.051786375           10 
 1791000   0.53268428   -3.2193063    1131.6545  0.052654686  0.051757661           28 
 1792000   0.53959575   -3.2163281    1136.5242  0.052851758  0.051728961           10 
 1793000   0.53149516   -3.2342143    1131.6011  0.052593471  0.051700306            8 
 1794000   0.53850616   -3.2193912    1134.8571  0.052715399  0.051671824           12 
 1795000   0.52767311    -3.230263    1137.4813  0.052807861  0.051643243           19 
 1796000   0.53798626   -3.2344956    1134.6664  0.052647848  0.051614715            8 
 1797000   0.54358108   -3.2303976    1134.6356  0.052617121  0.051586118            6 
 1798000   0.53483768   -3.2245164    1132.0182  0.052466545  0.051557344           35 
 1799000      0.54025    -3.259762    1133.6223  0.052511689  0.051528527           14 
 1800000   0.52507607    -3.223664    1134.7093   0.05253284  0.051499784            7 
 1801000   0.54025885   -3.2256845    1133.4623  0.052445971  0.051471238           10 
 1802000   0.53895469   -3.2188791    1137.2715  0.052593021  0.051442773           11 
 1803000    0.5285134   -3.2363751    1137.1852  0.052559865  0.051414278           12 
 1804000   0.52784668   -3.2180589    1133.7316  0.052371194  0.051385827           23 
 1805000   0.51866935   -3.2259381    1138.5865   0.05256632  0.051357338           23 
 1806000   0.52534715   -3.2387751    1134.5279  0.052349939   0.05132886           15 
 1807000   0.54812098   -3.2301956    1133.8268  0.052288637  0.051300441           10 
 1808000   0.53871994   -3.2336926     1135.034  0.052315358  0.051271924           11 
 1809000   0.53187073   -3.2123271    1133.7786  0.052228606  0.051243269            7 
 1810000   0.54243229    -3.231812    1134.7796  0.052245836  0.051214774            5 
 1811000    0.5353865   -3.2403328    1132.6359  0.052118344  0.051186084           32 
 1812000   0.53298559   -3.2548669    1134.2031  0.052161659  0.051157429           15 
 1813000   0.51750302   -3.2449438    1134.2063  0.052133035  0.051128784           20 
 1814000   0.52460272   -3.2471644    1137.8008  0.052269423  0.051100234           21 
 1815000   0.53782449   -3.2545874    1137.2456  0.052215134  0.051071632           19 
 1816000   0.53847965   -3.2320438    1136.0857  0.052133153  0.051043086           11 
 1817000   0.51902066   -3.2431416    1133.1653  0.051970525  0.051014494           35 
 1818000   0.53128358   -3.2482689    1135.1425  0.052032567  0.050985805            7 
 1819000    0.5236743   -3.2320134    1134.1204  0.051957137  0.050957199           15 
 1820000   0.53560787   -3.2411088    1135.0895  0.051972963  0.050928482           10 
 1821000   0.52043141   -3.2462199    1134.5463  0.051919562  0.050899945           13 
 1822000   0.52924681   -3.2522825    1135.0637  0.051914731  0.050871344           13 
 1823000   0.52750871   -3.2288627    1134.6093  0.051865483  0.050842755           10 
 1824000   0.53053623   -3.2471118    1135.6308  0.051883717  0.050814193           15 
 1825000   0.52588128   -3.2438674    1137.3882  0.051935535  0.050785557            8 
 1826000   0.52027787   -3.2485909    1133.5907  0.051733785  0.050757059           13 
 1827000   0.51169513   -3.2435959    1134.8319  0.051762083  0.050728454            7 
 1828000   0.51769502   -3.2427068    1136.4743  0.051808637   0.05070003            6 
 1829000    0.5273372   -3.2452394    1134.6942  0.051699206  0.050671565           14 
 1830000   0.51231553   -3.2463596    1135.2781  0.051697546  0.050643078           11 
 1831000   0.53320493   -3.2438516    1134.0974  0.051615575  0.050614612           22 
 1832000   0.52467963   -3.2778507    1135.0481  0.051630646  0.050586073            6 
 1833000   0.52132767   -3.2596459     1137.248  0.051702493  0.050557671           13 
 1834000   0.52430299   -3.2550134    1137.9777  0.051707456   0.05052913           16 
 1835000   0.52185167   -3.2679249    1133.9789  0.051497678   0.05050051            6 
 1836000    0.5219189   -3.2470702    1137.1419  0.051613195  0.050472121           17 
 1837000   0.52165954   -3.2574348    1136.4836  0.051555234  0.050443675           20 
 1838000   0.53661336   -3.2570529    1137.6982  0.051582256  0.050415276           12 
 1839000   0.51720628   -3.2380273    1136.4613  0.051498155  0.050386738            8 
 1840000   0.51403585   -3.2730527    1137.2003  0.051503638  0.050358286            8 
 1841000   0.52304939    -3.263663    1134.8958  0.051371348  0.050329721           17 
 1842000   0.51325674   -3.2484716    1133.5351  0.051281897  0.050301301            8 
 1843000   0.51730778   -3.2602391    1134.9816  0.051319479    0.0502728           16 
 1844000   0.50690259   -3.2670488    1137.5951  0.051409755  0.050244538           19 
 1845000   0.52237004   -3.2752701    1134.7245  0.051252237  0.050216167           11 
 1846000   0.51744911   -3.2702117    1134.9894  0.051236428  0.050187779           14 
 1847000    0.5097218   -3.2405384    1135.8939  0.051249498  0.050159389            8 
 1848000   0.51057774   -3.2567168    1135.5137  0.051204622  0.050130991           14 
 1849000   0.50819809   -3.2550729    1134.1407  0.051115048  0.050102461           22 
 1850000   0.51542137   -3.2651965    1131.9618  0.050989268  0.050074037           30 
 1851000   0.50549382   -3.2633792    1135.4619  0.051119301  0.050045655           25 
 1852000   0.51332168   -3.2591521    1134.4923  0.051048068  0.050017267            8 
 1853000    0.5075307   -3.2711246    1134.9725  0.051042118  0.049988818           52 
 1854000   0.51569944   -3.2721543    1137.0188  0.051106564  0.049960397           12 
 1855000   0.51473686   -3.2799967    1136.4031  0.051051351  0.049932035           21 
 1856000   0.51045312   -3.2702248    1133.8158  0.050907678  0.049903751           11 
 1857000   0.50086136   -3.2668258    1135.7287  0.050966107  0.049875393           10 
 1858000   0.51365635   -3.3005462    1137.8594  0.051034241  0.049847154           15 
 1859000   0.50636788   -3.2452606    1137.7669  0.051002642  0.049819112            8 
 1860000    0.5205072    -3.263853    1137.3174  0.050955079  0.049790995           17 
 1861000   0.50565378   -3.2601146    1136.1714  0.050876383  0.049762907           13 
 1862000   0.50658358   -3.2691408    1135.7956   0.05083224  0.049734906           12 
 1863000    0.5206285   -3.2598913     1137.701  0.050890188  0.049706914            7 
 1864000   0.51401887    -3.280676    1135.5229  0.050765507  0.049678856            5 
 1865000   0.50992283   -3.2621127    1137.1577  0.050811335  0.049650725           10 
 1866000    0.5081779   -3.2620466      1136.55  0.050756966  0.049622733           13 
 1867000   0.51314826   -3.2722619    1136.6679  0.050735043  0.049594615           17 
 1868000   0.51455109   -3.2700873    1135.4163  0.050652049  0.049566583           14 
 1869000    0.5142216   -3.2966959    1134.3904  0.050579204    0.0495384           13 
 1870000   0.50459817    -3.281922    1137.9885  0.050712501  0.049510254            9 
 1871000   0.49364261   -3.2752869    1136.0219  0.050597805  0.049482088           15 
 1872000   0.49641601   -3.2794336    1137.1239   0.05061983  0.049453918           17 
 1873000   0.51527999   -3.2779919    1135.3773  0.050515094  0.049425816           28 
 1874000   0.50216356   -3.2767155    1136.9719  0.050559051  0.049397672           17 
 1875000   0.51522226   -3.2869167       1134.1  0.050404446  0.049369499            9 
 1876000   0.49041384   -3.2823214    1137.7177  0.050538277  0.049341298           19 
 1877000    0.5046748   -3.2743102     1135.222   0.05040055  0.049313149           15 
 1878000   0.49136285   -3.2860529    1136.6254  0.050435986  0.049284958           23 
 1879000   0.50178747   -3.2854191     1134.058  0.050295283  0.049256744           28 
 1880000   0.51462405   -3.2818665    1137.0968  0.050403225  0.049228533           33 
 1881000    0.5025009   -3.2815551    1137.6748  0.050402037  0.049200287            9 
 1882000   0.50120995   -3.2962974    1137.2211   0.05035517  0.049172104           19 
 1883000   0.48840731   -3.2853993    1135.9566  0.050272465  0.049143932            9 
 1884000    0.4947813   -3.2858801     1136.921  0.050288436  0.049115943           24 
 1885000   0.50511879   -3.2811582    1138.1251  0.050314993  0.049088026           36 
 1886000   0.49659723   -3.2950846    1137.1451  0.050245011  0.049060109           25 
 1887000   0.51301902   -3.2857034    1135.1333  0.050129541  0.049032195           21 
 1888000   0.49086281    -3.265922     1139.419  0.050292154  0.049004227           10 
 1889000   0.49961667   -3.2950667    1137.2355  0.050169202  0.048976292           13 
 1890000   0.49507367    -3.296824    1137.1887  0.050140595  0.048948236           13 
 1891000    0.5049481   -3.2960728    1136.7157  0.050093235  0.048920105           30 
 1892000   0.50059468   -3.3074631    1138.1813  0.050131311  0.048892155           12 
 1893000   0.49428805   -3.2824384    1137.5829  0.050078488  0.048864284           11 
 1894000    0.5077988   -3.2759245    1140.0709  0.050161516  0.048836393           17 
 1895000    0.4958714   -3.2761534    1137.0974  0.050004282  0.048808631            8 
 1896000   0.48642496   -3.2946071    1136.4729   0.04995046  0.048780768           10 
 1897000   0.49737387   -3.2966245    1137.5138  0.049969856  0.048752796           12 
 1898000   0.49973569   -3.3119273    1137.0404  0.049922744  0.048724842           29 
 1899000   0.49173328   -3.2963121    1137.1341  0.049900567  0.048696817           30 
 1900000   0.48514111   -3.2902002    1133.9657  0.049735338  0.048668749            7 
 1901000   0.49089546   -3.2998313    1135.9995  0.049798329  0.048640642           12 
 1902000   0.50114005   -3.2910831    1137.7655  0.049849523  0.048612742           20 
 1903000   0.50174792   -3.2884318    1135.6329  0.049729941  0.048584744            8 
 1904000   0.50601163    -3.301151    1137.5557  0.049787975  0.048556657            9 
 1905000   0.49731544   -3.3153017    1137.1556   0.04974434  0.048528649           15 
 1906000   0.48744732   -3.2953897    1133.3537  0.049552017  0.048500702           17 
 1907000   0.49517891   -3.2811903    1134.2966  0.049567236  0.048472702           26 
 1908000   0.48857054   -3.2918042    1132.8727  0.049479068  0.048444748            9 
 1909000   0.49488317   -3.2904182    1134.9004  0.049541662  0.048416779           11 
 1910000   0.49713032    -3.317046     1134.673  0.049505803  0.048388856            9 
 1911000   0.48011704   -3.3094643    1137.0625  0.049584096  0.048360776            6 
 1912000   0.48186856    -3.314411     1133.536  0.049404464  0.048332723           12 
 1913000   0.49690752   -3.3047607    1136.0361  0.049487546  0.048304687           14 
 1914000   0.48557108   -3.3073753    1137.4359  0.049522634  0.048276641           11 
 1915000   0.47774529   -3.2988577    1136.1011  0.049438692  0.048248748           18 
 1916000   0.50296834   -3.3109418    1137.7671  0.049485349  0.048220923           18 
 1917000   0.48288632   -3.3013368    1137.0835  0.049429816  0.048193054            9 
 1918000   0.49215237   -3.3203521    1130.9217  0.049136327  0.048165166           43 
 1919000   0.49940296   -3.2940918    1135.5059  0.049309794  0.048137258           38 
 1920000   0.48235251    -3.297976    1134.6765  0.049248113  0.048109355           31 
 1921000   0.48511406   -3.3091528    1136.4245  0.049298303  0.048081377           19 
 1922000   0.49737762   -3.3033389    1135.0041  0.049211069  0.048053541           10 
 1923000   0.48451015   -3.3116614    1135.2614  0.049196626   0.04802567           17 
 1924000   0.48980609   -3.3213663    1135.5186  0.049182197  0.047997703           18 
 1925000   0.49698243   -3.3119572    1136.2813  0.049189669  0.047969954           15 
 1926000   0.48963973   -3.2964605    1136.1187  0.049157091  0.047942123           17 
 1927000   0.47588951   -3.3063173    1137.0413  0.049171481   0.04791427           25 
 1928000    0.4875744    -3.309519    1133.7423  0.049003385  0.047886452           23 
 1929000    0.4966864   -3.3126576    1136.8266  0.049111222  0.047858665           21 
 1930000   0.47871581   -3.3347909    1137.4687  0.049113502  0.047830874           21 
 1931000   0.48104557   -3.3097788     1136.309  0.049038018   0.04780309           31 
 1932000   0.48627202   -3.3090379    1137.2338  0.049052528  0.047775452           18 
 1933000   0.48774871   -3.3108255    1133.9126  0.048883971  0.047747817           17 
 1934000   0.48163699   -3.3196328    1133.6652  0.048848033  0.047720024           11 
 1935000   0.47680646   -3.3102836    1136.0131  0.048923907  0.047692292           29 
 1936000    0.4821207   -3.2979017    1137.9846  0.048983498   0.04766473           16 
 1937000   0.47663104   -3.3130663    1135.8972  0.048868405  0.047637195           11 
 1938000   0.48749024   -3.3420438    1136.5284  0.048870329  0.047609607           13 
 1939000   0.47116631   -3.3320095    1136.7738  0.048855674  0.047581851           28 
 1940000   0.48509142   -3.3380945     1136.932  0.048837285  0.047554122           11 
 1941000   0.48705364   -3.3282541    1136.1626  0.048779093  0.047526493           17 
 1942000   0.48826283   -3.3260592    1134.5051   0.04868285  0.047498756           19 
 1943000   0.47374091   -3.3273107    1137.0655  0.048767605  0.047471147           14 
 1944000   0.47635884   -3.3254846    1137.5974  0.048765323   0.04744363           23 
 1945000    0.4844931   -3.3286526     1135.715  0.048659596  0.047416142            8 
 1946000   0.48194143   -3.3323367    1136.7247   0.04867783  0.047388705           11 
 1947000   0.47616938    -3.318924    1136.1719  0.048629167  0.047361231           15 
 1948000    0.4866706   -3.3115359    1137.4447  0.048658656  0.047333776           16 
 1949000    0.4812884   -3.3159555    1136.7071  0.048602149   0.04730628           18 
 1950000   0.46936576   -3.3284601    1137.4206  0.048607716  0.047278848           12 
 1951000   0.48383011   -3.3432569    1135.2794  0.048491348  0.047251403           24 
 1952000   0.46793911   -3.3243034    1138.3133  0.048596026  0.047223959           24 
 1953000    0.4700025     -3.33846    1138.6523  0.048585609  0.047196524           16 
 1954000   0.48506081   -3.3496089    1134.8472  0.048398463  0.047169011           34 
 1955000    0.4711325   -3.3340491    1137.2417  0.048475777  0.047141507           14 
 1956000   0.46875857   -3.3539759    1133.8169  0.048305084  0.047113945           14 
 1957000   0.47383555   -3.3310714    1134.9216  0.048327438  0.047086446           17 
 1958000   0.48081726    -3.323126    1137.1016  0.048395538   0.04705908           26 
 1959000   0.47440206      -3.3495    1135.3393  0.048295868  0.047031676           33 
 1960000    0.4633845   -3.3429944    1138.2454  0.048394788    0.0470043           14 
 1961000   0.48258826   -3.3438478    1136.6779  0.048303495  0.046976912           48 
 1962000   0.47554628   -3.3268262    1137.3271  0.048306453  0.046949479           13 
 1963000    0.4654917   -3.3589082    1136.3071  0.048238544  0.046922065           22 
 1964000   0.46489934   -3.3449733    1134.5755  0.048140507  0.046894575           36 
 1965000   0.46193406   -3.3290026    1135.5435   0.04815706   0.04686718           46 
 1966000    0.4726586    -3.335141    1134.2484  0.048077669  0.046839778           31 
 1967000   0.47969606   -3.3334358     1135.554  0.048108542  0.046812436           14 
 1968000   0.47194861   -3.3389396    1134.5518  0.048041658  0.046784946           15 
 1969000   0.47387492   -3.3303245    1135.4118  0.048053656  0.046757516           20 
 1970000   0.46605364   -3.3423363    1136.0773  0.048057417  0.046730147           27 
 1971000   0.46336672   -3.3537302    1139.0681  0.048159484  0.046702758           10 
 1972000   0.46703092     -3.34914    1134.7489  0.047952539  0.046675428           21 
 1973000    0.4715734   -3.3448037    1136.4426   0.04799977  0.046648073           15 
 1974000   0.48259536   -3.3397294    1135.1563  0.047921153  0.046620791           25 
 1975000   0.47519288    -3.336142    1138.5963  0.048042037  0.046593595           23 
 1976000   0.46582333   -3.3462122    1134.6455  0.047851107  0.046566393           11 
 1977000      0.46997   -3.3379878    1135.0686  0.047844741  0.046539192           19 
 1978000   0.46793337    -3.336874     1137.861  0.047938197  0.046511994           25 
 1979000   0.45610169   -3.3378401    1135.2794  0.047805263  0.046484811           34 
 1980000   0.46355675   -3.3530983    1135.7693   0.04780174  0.046457605           31 
 1981000    0.4643904   -3.3443231    1136.8254  0.047822035  0.046430398           16 
 1982000   0.46412096   -3.3487676     1135.816  0.047755465  0.046403295           21 
 1983000   0.46976434   -3.3696997    1137.7034  0.047810698  0.046376278           40 
 1984000   0.46979089   -3.3587449    1139.2243  0.047850482  0.046349105           18 
 1985000   0.46455326   -3.3565347    1137.3638  0.047748271  0.046322119           18 
 1986000    0.4618337   -3.3450535    1136.2052  0.047675614    0.0462951           15 
 1987000   0.46135846   -3.3519895    1137.0716  0.047687954   0.04626806           38 
 1988000   0.46191305   -3.3632596    1135.5296  0.047599328  0.046241017           19 
 1989000   0.45704876   -3.3364278    1138.2925  0.047691154  0.046214091           10 
 1990000   0.47370491   -3.3497888    1138.5765  0.047679081  0.046187173           22 
 1991000   0.46205342   -3.3669926    1139.1258  0.047678125   0.04616021           41 
 1992000    0.4549632   -3.3671531    1136.4427  0.047541947   0.04613327           21 
 1993000   0.46753416   -3.3469809     1140.868  0.047703129  0.046106388           20 
 1994000   0.47158552   -3.3637055    1137.4231  0.047535236  0.046079506           12 
 1995000   0.45084467   -3.3700097    1137.5356  0.047516105   0.04605261           42 
 1996000   0.45237506    -3.368509    1138.2315  0.047521354  0.046025673           20 
 1997000   0.44374895   -3.3720941    1138.2916  0.047500065  0.045998753           21 
 1998000   0.45651792    -3.366119    1138.0222  0.047465056  0.045971902           14 
 1999000   0.44597648   -3.3704467    1138.5414  0.047462956  0.045945066            7 
 2000000   0.46056731   -3.3688955    1137.0366  0.047376525  0.045918213           23 
 2001000   0.45562397     -3.37032    1137.6961  0.047380312   0.04589137           31 
 2002000   0.45793379   -3.3719483     1138.278  0.047380871   0.04586451           14 
 2003000   0.44984167   -3.3706412    1137.9592  0.047343951  0.045837591           24 
 2004000   0.45932999   -3.3707082    1136.2583  0.047249598   0.04581068           34 
 2005000   0.46092809   -3.3797776    1137.3101  0.047269747  0.045783792           65 
 2006000   0.46044196   -3.3790752    1135.9656   0.04719033  0.045756897           25 
 2007000   0.44263923   -3.3728966    1134.4291   0.04710302  0.045730004           18 
 2008000    0.4500162   -3.3734433    1136.9834  0.047185566  0.045703225           44 
 2009000   0.43673302   -3.3838668    1136.0224  0.047122215  0.045676449           14 
 2010000   0.45183289   -3.3698407    1136.9253  0.047136205  0.045649669           12 
 2011000   0.45979482   -3.3682631    1139.4648  0.047218002  0.045622985           28 
 2012000   0.44792179   -3.3735588    1137.8575  0.047127961   0.04559637           26 
Loop time of 4785.4 on 48 procs for 2000000 steps with 4000 atoms

Performance: 72219.643 tau/day, 417.938 timesteps/s
99.4% CPU use with 48 MPI tasks x no OpenMP threads

MPI task timing breakdown:
Section |  min time  |  avg time  |  max time  |%varavg| %total
---------------------------------------------------------------
Pair    | 319.59     | 332.96     | 352.2      |  44.6 |  6.96
Neigh   | 32.39      | 33.535     | 34.755     |  11.9 |  0.70
Comm    | 310.16     | 327.67     | 344.84     |  48.7 |  6.85
Output  | 4.2051     | 4.2071     | 4.2467     |   0.3 |  0.09
Modify  | 4037.4     | 4044.6     | 4050.4     |   5.1 | 84.52
Other   |            | 42.39      |            |       |  0.89

Nlocal:        83.3333 ave          91 max          78 min
Histogram: 6 4 7 10 4 5 6 2 2 2
Nghost:        2168.77 ave        2195 max        2152 min
Histogram: 5 4 9 9 7 6 2 4 1 1
Neighs:        14302.2 ave       16277 max       12649 min
Histogram: 2 5 6 6 8 10 3 3 4 1
FullNghs:      28604.5 ave       31251 max       26837 min
Histogram: 6 6 9 5 5 5 6 2 2 2

Total # of neighbors = 1373018
Ave neighs/atom = 343.25450
Neighbor list builds = 108581
Dangerous builds = 2

#clear
#
#next RN
#
#jump SELF
Total wall time: 1:19:48
