
units lj                  # Use reduced LJ style units
atom_style atomic         # Uncharged point particles
atom_modify map hash      # Needed for indexing of clusters etc
                          # Used to be able to find where atoms are in relation to each other.

lattice fcc 1.0 spacing 1 1 1
Lattice spacing in x,y,z = 1.5874011 1.5874011 1.5874011
region box block 0 10 0 10 0 10 units lattice
create_box 2 box
Created orthogonal box = (0.0000000 0.0000000 0.0000000) to (15.874011 15.874011 15.874011)
  3 by 4 by 4 MPI processor grid
create_atoms 1 box
Created 4000 atoms
  using lattice units in orthogonal box = (0.0000000 0.0000000 0.0000000) to (15.874011 15.874011 15.874011)
  create_atoms CPU = 0.002 seconds
set type 1 type/fraction 2 0.01 78393
Setting atom values ...
  36 settings made for type/fraction
mass 1 1.0
mass 2 1.0
pair_style lj/cut  3.5
pair_modify tail  yes
pair_coeff 1  1  1.0  1.0   # Intearaction between 1 and 1 set with epsilon = 1 and sigma = 1
pair_coeff 1  2  1.5  0.8
pair_coeff 2  2  0.5  0.88

write_data data.0
System init for write_data ...
Neighbor list info ...
  update every 1 steps, delay 10 steps, check yes
  max neighbors/atom: 2000, page size: 100000
  master list distance cutoff = 3.8
  ghost atom cutoff = 3.8
  binsize = 1.9, bins = 9 9 9
  1 neighbor lists, perpetual/occasional/extra = 1 0 0
  (1) pair lj/cut, perpetual
      attributes: half, newton on
      pair build: half/bin/atomonly/newton
      stencil: half/bin/3d
      bin: standard
WARNING: Not all mixed pair coeffs generated from mixing. Use write_data with 'pair ij' option to store all pair coeffs. (../write_data.cpp:312)


#############################
#   M E L T   S Y S T E M   #
#############################

velocity all create 2.4 2750902 mom yes dist gaussian # Assign velocities
                                                    # Temperature 2.4, random number seed, zero linear momentum
                                                                                # Gaussian distribution

timestep 0.002   # simulation timestep
thermo 1000       # output thermodynamic data every 1000 steps bf 100

# Define a fix  in this case with index 1 applied to all
# particles in the simulation. This fix is for simulations
# in the anisotropic NPT ensemble. Note that we use the MTK
# correction.
fix 1 all npt temp 2.4 2.4 0.1 iso 5.68 5.68 0.5 mtk yes tchain 5 pchain 5 # Use NPT ensemble
                                                                         # Set temperature and pressure and damping
                                                                         # Numbers of thermostats in chain and in barostat
run 10000          # run for 10000 steps
Per MPI rank memory allocation (min/avg/max) = 3.642 | 3.644 | 3.648 Mbytes
Step Temp E_pair E_mol TotEng Press Volume 
       0          2.4   -8.3261558            0   -4.7270558   -2.3168672         4000 
    1000    2.3760347   -4.4615843            0  -0.89842317    5.6453334     5145.636 
    2000      2.39971   -4.3945388            0  -0.79587375    5.8284766    5159.2845 
    3000    2.4139491   -4.4523801            0  -0.83236175    5.6164093    5169.1228 
    4000    2.4193229   -4.4161446            0  -0.78806747    5.6580479    5180.6475 
    5000    2.4384592   -4.3549431            0   -0.6981688    5.7162795    5208.7635 
    6000    2.3624269    -4.383211            0  -0.84045655    5.7319328    5186.3971 
    7000    2.4155359   -4.4351108            0  -0.81271275    5.4622994    5203.7332 
    8000    2.3697396   -4.3682259            0  -0.81450509     5.819297    5183.3561 
    9000    2.4441341   -4.3378607            0  -0.67257602    5.9041554    5196.1571 
   10000    2.4667684   -4.4037996            0  -0.70457205    5.6376178    5199.1998 
Loop time of 2.03108 on 48 procs for 10000 steps with 4000 atoms

Performance: 850779.908 tau/day, 4923.495 timesteps/s
99.6% CPU use with 48 MPI tasks x no OpenMP threads

MPI task timing breakdown:
Section |  min time  |  avg time  |  max time  |%varavg| %total
---------------------------------------------------------------
Pair    | 0.83219    | 0.89938    | 0.96572    |   3.4 | 44.28
Neigh   | 0.16377    | 0.17114    | 0.18329    |   0.9 |  8.43
Comm    | 0.62512    | 0.70939    | 0.77781    |   4.6 | 34.93
Output  | 0.00024259 | 0.00024722 | 0.0003147  |   0.0 |  0.01
Modify  | 0.21551    | 0.2368     | 0.2774     |   3.4 | 11.66
Other   |            | 0.01412    |            |       |  0.70

Nlocal:        83.3333 ave          88 max          76 min
Histogram: 2 2 3 3 2 11 3 8 8 6
Nghost:        1380.85 ave        1399 max        1366 min
Histogram: 3 5 5 8 8 6 6 3 3 1
Neighs:        7322.54 ave        8211 max        6418 min
Histogram: 1 2 7 6 5 6 13 5 2 1

Total # of neighbors = 351482
Ave neighs/atom = 87.870500
Neighbor list builds = 901
Dangerous builds = 191

# Equilibrate just above the melting temperature to avoid step fn in T

fix 1 all npt temp 1.25 1.25 0.1 iso 5.68 5.68 0.5 mtk yes tchain 5 pchain 5
run 2000
Per MPI rank memory allocation (min/avg/max) = 3.642 | 3.644 | 3.648 Mbytes
Step Temp E_pair E_mol TotEng Press Volume 
   10000    2.4667684   -4.4037996            0  -0.70457205    5.6376178    5199.1998 
   11000    1.2241739   -5.8850088            0   -4.0492071     5.664895    4305.2057 
   12000    1.3008755   -5.8937019            0   -3.9428765    5.5183367    4318.5155 
Loop time of 0.443765 on 48 procs for 2000 steps with 4000 atoms

Performance: 778790.115 tau/day, 4506.887 timesteps/s
99.6% CPU use with 48 MPI tasks x no OpenMP threads

MPI task timing breakdown:
Section |  min time  |  avg time  |  max time  |%varavg| %total
---------------------------------------------------------------
Pair    | 0.19178    | 0.20573    | 0.21693    |   1.1 | 46.36
Neigh   | 0.030502   | 0.031705   | 0.033904   |   0.4 |  7.14
Comm    | 0.13398    | 0.15256    | 0.16924    |   1.8 | 34.38
Output  | 5.0355e-05 | 5.1615e-05 | 6.6063e-05 |   0.0 |  0.01
Modify  | 0.043723   | 0.04946    | 0.062641   |   2.1 | 11.15
Other   |            | 0.004253   |            |       |  0.96

Nlocal:        83.3333 ave          90 max          74 min
Histogram: 1 3 1 5 4 11 6 7 8 2
Nghost:        1563.56 ave        1588 max        1550 min
Histogram: 3 10 8 11 2 6 6 1 0 1
Neighs:        8814.56 ave        9649 max        7710 min
Histogram: 1 3 2 5 8 5 9 8 3 4

Total # of neighbors = 423099
Ave neighs/atom = 105.77475
Neighbor list builds = 143
Dangerous builds = 6

#############################
# L I N E A R  Q U E N C H  #
#############################

# Define solid atoms. This closely follows ten Wolde  Ruiz-Montero and Frenkel  Faraday Discuss  1996  104  93-110
# Compute components of the per-atom q6 vector
compute q6 all orientorder/atom degrees 1 6 components 6 nnn NULL cutoff 1.3 # compute the Q6 parameter.
                                                                             # Use all neighbours within 1.3 unit cell.

# get number of connections
compute coord_number all coord/atom orientorder q6 0.5

# An atom is solid if it has 8 or more connections (of a possible 14)
variable is_solid atom c_coord_number>=8
group solid dynamic all var is_solid    # Must be dynamic to update
dynamic group solid defined

# do clustering
compute cluster solid cluster/atom 1.3 # Create a cluster where all atoms within are solid and max 1.3 units from another member

# define chunks one chunk per cluster
compute clus_chunks solid chunk/atom c_cluster nchunk every compress yes  # Says which atoms are in which chunk

# count the size of each chunk
compute size_chunks solid property/chunk clus_chunks count


# Find the maximum entry in the vector of chunk sizes
variable max_n equal max(c_size_chunks)


# Thermo style which includes this variable
# thermo_style custom step temp pe vol v_max_n

thermo ${N}  # Print the thermo information every 100 steps
thermo 1000  

# Reset the npt fix at a lower temperature (below freezing)
fix 1  all npt temp  ${temp} ${temp}  0.1  iso  5.68  5.68  0.5  mtk yes tchain  5  pchain  5
fix 1  all npt temp  0.45 ${temp}  0.1  iso  5.68  5.68  0.5  mtk yes tchain  5  pchain  5
fix 1  all npt temp  0.45 0.45  0.1  iso  5.68  5.68  0.5  mtk yes tchain  5  pchain  5

dump dmp2 all dcd ${N} traj.dcd
dump dmp2 all dcd 1000 traj.dcd


compute msd all msd com yes
variable twopoint equal c_msd[4]/6/(step*dt+1.0e-6)
fix 9 all vector 10 c_msd[4]
variable fit equal slope(f_9)/6/(10*dt)
thermo_style custom step temp pe c_msd[4] v_twopoint v_fit v_max_n

fix 1 all npt temp 1.25 ${temp} 0.1 iso 5.68 5.68 0.5 mtk yes tchain 5 pchain 5
fix 1 all npt temp 1.25 0.45 0.1 iso 5.68 5.68 0.5 mtk yes tchain 5 pchain 5
run 500000 # 5000000  # Run for this many steps
Neighbor list info ...
  update every 1 steps, delay 10 steps, check yes
  max neighbors/atom: 2000, page size: 100000
  master list distance cutoff = 3.8
  ghost atom cutoff = 3.8
  binsize = 1.9, bins = 9 9 9
  4 neighbor lists, perpetual/occasional/extra = 1 3 0
  (1) pair lj/cut, perpetual
      attributes: half, newton on
      pair build: half/bin/atomonly/newton
      stencil: half/bin/3d
      bin: standard
  (2) compute orientorder/atom, occasional
      attributes: full, newton on
      pair build: full/bin/atomonly
      stencil: full/bin/3d
      bin: standard
  (3) compute coord/atom, occasional
      attributes: full, newton on
      pair build: full/bin/atomonly
      stencil: full/bin/3d
      bin: standard
  (4) compute cluster/atom, occasional
      attributes: full, newton on
      pair build: full/bin/atomonly
      stencil: full/bin/3d
      bin: standard
Per MPI rank memory allocation (min/avg/max) = 9.729 | 9.733 | 9.737 Mbytes
Step Temp PotEng c_msd[4] v_twopoint v_fit v_max_n 
   12000    1.3008755   -5.8937019 8.4408117e-31 5.8616745e-33 8.3333333e+20            4 
   13000    1.2427469    -5.881596   0.56465934  0.003619611  0.046341314            7 
   14000    1.2333416    -5.882578    1.1166578 0.0066467724   0.04549038            3 
   15000    1.2424868   -5.8765012    1.6547056 0.0091928086  0.045707836            4 
   16000    1.2448778   -5.8742472     2.198878  0.011452489  0.045093253            2 
   17000    1.2380786   -5.8792692    2.7805122  0.013629961  0.045644491            3 
   18000    1.2183174   -5.8500174    3.3585057  0.015548637  0.046113473            3 
   19000    1.2270504   -5.9171759    3.9179636  0.017184051  0.046464535            3 
   20000    1.2411711   -5.8942722    4.4651178  0.018604657  0.046624282            2 
   21000    1.2203256   -5.8765211    4.9410982  0.019607532  0.046240429            3 
   22000    1.2519405   -5.8886831    5.4774145  0.020747782  0.045936289            5 
   23000    1.2542286     -5.89493    6.0068362  0.021763899  0.045631095            4 
   24000    1.2217368   -5.9051699    6.5466081  0.022731278  0.045489266            3 
   25000    1.2129106   -5.8992557    7.0777949  0.023592649  0.045359091            3 
   26000    1.1915011   -5.9324188      7.59284  0.024336025  0.045221866            4 
   27000    1.2244242   -5.9108203    8.0590148  0.024873502  0.045019149            2 
   28000    1.2036325   -5.8602579     8.636947  0.025705199  0.044805234            4 
   29000    1.2215924   -5.8846518    9.1927329  0.026415899  0.044756952            4 
   30000    1.2011554   -5.9263905     9.616749  0.026713191  0.044625623            2 
   31000    1.2032559    -5.937608    10.089688  0.027122818  0.044453243            3 
   32000    1.2330858   -5.8867857    10.519756  0.027395198  0.044214307            8 
   33000    1.1958112   -5.9714675    11.045861  0.027893588  0.044006309            4 
   34000    1.2240118   -5.9357282    11.597094  0.028424249  0.043826421            3 
   35000    1.1961132   -5.9519734    12.079293  0.028760222  0.043706763            4 
   36000    1.1774507   -5.9036054    12.679794  0.029351375  0.043607131            2 
   37000    1.2130723   -5.9404648    13.117868  0.029544748  0.043514144            4 
   38000    1.2248214   -5.9563642    13.501398  0.029608329  0.043381452            3 
   39000    1.2012415   -5.9416992    13.999122  0.029912653  0.043236322            3 
   40000     1.241842   -6.0011701     14.48583  0.030178812  0.043092302            6 
   41000     1.227933   -5.9485911    14.947764  0.030381635  0.042970836            5 
   42000    1.2178097   -5.9203635    15.559535  0.030872093  0.042902462            3 
   43000    1.1898825   -5.9731548    16.112188   0.03122517  0.042870235            6 
   44000    1.1993907   -5.9542378    16.682765  0.031596146  0.042842334            7 
   45000    1.1936564   -5.9553213    17.246964  0.031938822  0.042851617            3 
   46000    1.1951155   -5.9649164    17.880511   0.03239223  0.042890638            5 
   47000    1.1827629   -5.9462275    18.401087   0.03262604  0.042920815            5 
   48000    1.2098213   -5.9259357    18.872769  0.032765224  0.042949795            5 
   49000    1.1694974   -5.9607271    19.370987  0.032943855  0.042993372            3 
   50000    1.2232827   -5.9707242    20.036596  0.033394327  0.043023977            7 
   51000    1.1849586   -5.9602203    20.678319  0.033788103  0.043097004            1 
   52000     1.179558   -5.9526732    21.045861  0.033727342  0.043156811            3 
   53000    1.2041219   -5.9997937    21.311072  0.033507974  0.043158275            5 
   54000    1.1960465   -5.9804233    21.631847   0.03338248  0.043092263            1 
   55000    1.1656417   -5.9958846    22.078551   0.03345235  0.042994766            4 
   56000    1.1705794   -6.0107184    22.533326  0.033531735  0.042911112            3 
   57000    1.1812845    -5.949727    22.989621  0.033610556    0.0428125            3 
   58000    1.1703965   -6.0309272    23.442963  0.033682417  0.042707968            5 
   59000    1.1986195   -5.9977628    23.775154  0.033580725  0.042592825            4 
   60000    1.1822248   -5.9578816    24.197102  0.033607086  0.042474534            3 
   61000    1.1755585   -5.9841241    24.578339  0.033576966  0.042337654            6 
   62000    1.1812028   -6.0037721    25.064076  0.033688275  0.042204037            3 
   63000    1.1838199   -5.9908967    25.488776  0.033715312  0.042075822            3 
   64000    1.1673354   -5.9767811    26.059615  0.033931791  0.041965371            4 
   65000    1.1673739   -6.0104566    26.547465  0.034035212  0.041868443            3 
   66000    1.1363818   -6.0741536    26.980259  0.034065984  0.041773239            8 
   67000    1.1758815   -6.0106558    27.403716  0.034084223  0.041677962            5 
   68000    1.1483545   -5.9804878    28.041133  0.034364133  0.041591029            2 
   69000    1.1774623    -6.027859    28.428896  0.034334416  0.041515088            3 
   70000    1.1776018   -6.0129425    28.905135  0.034410874   0.04142758            6 
   71000    1.1635686   -5.9941938     29.03209  0.034075223  0.041336502            7 
   72000     1.184903   -6.0323394    29.595333  0.034253857  0.041245578            4 
   73000    1.1743034   -6.0440598    30.161211  0.034430606  0.041159098            4 
   74000    1.1330045   -6.0337332    30.667116   0.03453504  0.041085316            7 
   75000    1.1518262   -6.0223377    31.221111  0.034690123  0.041015075            3 
   76000    1.1630657   -6.0509852    31.557286  0.034602287  0.040951155            4 
   77000    1.1687945    -6.060373    31.930558  0.034556881  0.040885739            3 
   78000    1.1397008   -6.0742949    32.058283  0.034250302  0.040796521            5 
   79000    1.1402915   -6.0306626    32.690251  0.034483387  0.040705946            4 
   80000    1.1386241   -6.0358101    33.089668  0.034468404  0.040606138            3 
   81000    1.1655474   -6.0545646    33.426655  0.034389563   0.04052064            3 
   82000    1.1325264   -6.0659156    33.829764  0.034379841  0.040427187            9 
   83000    1.1201457    -6.047685    34.420401  0.034558635  0.040340245            6 
   84000    1.1313329   -6.0815327    34.903399  0.034626388  0.040266318            3 
   85000    1.1300523   -6.0691658    35.231397  0.034540585  0.040189782            3 
   86000     1.121654   -6.0689041    35.568872  0.034465961  0.040106427            6 
   87000    1.1387783    -6.105047    35.968939  0.034453007  0.040024062            8 
   88000    1.1316951   -6.0679007    36.497359  0.034561892  0.039944459            4 
   89000    1.1645481   -6.0950452    36.954622  0.034601706  0.039872627            3 
   90000    1.1260857   -6.0554457    37.278166   0.03451682  0.039798632            5 
   91000    1.1295572   -6.1014875    37.675745  0.034501598  0.039718647            5 
   92000    1.1262552   -6.1062208    38.153687  0.034559499  0.039638502            2 
   93000    1.1176618   -6.1129133    38.420058  0.034426575  0.039559262            6 
   94000    1.1300086   -6.0993716    38.829356  0.034423188  0.039479331            3 
   95000    1.0990648   -6.0828497    39.428437  0.034586348  0.039400094            2 
   96000    1.1421681   -6.1053195    39.828167  0.034573062  0.039327422            2 
   97000    1.1176503   -6.1057149    40.225741  0.034558196  0.039256784            6 
   98000    1.0931085   -6.0948778    40.434715  0.034383261  0.039181729            5 
   99000     1.122433   -6.0971554    41.027858  0.034535234  0.039111264            7 
  100000    1.0954165   -6.0521316    41.285068  0.034404223  0.039038152            5 
  101000     1.105651   -6.1414878    41.841383  0.034522593   0.03896917            4 
  102000    1.1081078   -6.1363945    41.991601  0.034306863  0.038896453            4 
  103000    1.1382656   -6.1005994    42.461747  0.034354164  0.038819955            4 
  104000    1.1080828   -6.1205359    42.865415  0.034347287  0.038743738            4 
  105000    1.0920922   -6.1398383    43.075257  0.034186711  0.038664488            3 
  106000    1.1060229   -6.1006997    43.561733  0.034246645  0.038582707            4 
  107000    1.0882857   -6.1531191    43.765572  0.034085336  0.038500878            3 
  108000    1.1042591   -6.1472527    44.267344  0.034156901  0.038418079            7 
  109000    1.0870878   -6.1071999    44.379283  0.033929115  0.038338298            4 
  110000    1.0786214   -6.1557731    44.945231  0.034049417  0.038254951            6 
  111000    1.0881513   -6.1294155    45.414217  0.034094757  0.038172235            8 
  112000    1.0977228   -6.1663439    45.657532  0.033971378  0.038092146            6 
  113000    1.0838183    -6.129063    45.987076  0.033913772  0.038009511            5 
  114000     1.087394   -6.1425021    46.289251  0.033837172  0.037928872            4 
  115000    1.0981953   -6.1801732    46.687668  0.033831643  0.037841702            6 
  116000    1.0495248   -6.1662968    47.157646  0.033877619   0.03775839            9 
  117000    1.1046285   -6.1426606    47.514295   0.03384209  0.037682011            3 
  118000    1.0773306   -6.1680512    47.964576  0.033873288  0.037605616            3 
  119000    1.0824193    -6.161899    48.317433  0.033835737  0.037530953            4 
  120000    1.0895027   -6.1596806    48.682767  0.033807477  0.037457611            6 
  121000    1.0665859    -6.168404    48.818555  0.033621594  0.037378996            4 
  122000    1.0536669   -6.1612518    48.990122  0.033463198  0.037294107            3 
  123000    1.0883726   -6.1680395    49.263993  0.033376689  0.037205157            5 
  124000    1.0746803    -6.193222    49.611385  0.033340984  0.037114367            8 
  125000    1.0706751   -6.1586235    50.150718  0.033433812  0.037027763            3 
  126000     1.068909   -6.1608313    50.310924   0.03327442  0.036942228            3 
  127000      1.06249   -6.1557047    50.654114  0.033237608  0.036856375            6 
  128000    1.0652554   -6.1732545    50.848716  0.033104633  0.036765614            8 
  129000     1.087741   -6.1957677    51.322043  0.033153775  0.036677543            6 
  130000    1.0573175    -6.177801    51.637509  0.033100967  0.036592393            4 
  131000    1.0709127   -6.1506409    52.085601  0.033133334  0.036504174            3 
  132000    1.0307956   -6.2028142    52.158053  0.032928064  0.036411853            3 
  133000    1.0996287   -6.1894551    52.377362  0.032817896  0.036320057            4 
  134000    1.0770606   -6.2235263    52.829144  0.032853945   0.03622455            8 
  135000    1.0372841   -6.2275333    52.836639  0.032615209  0.036128748           13 
  136000    1.0393894   -6.1928433    52.915812  0.032423904  0.036028653            4 
  137000    1.0385989   -6.2051855    53.054909  0.032271843  0.035924899            3 
  138000    1.0471989   -6.2219703    53.638173  0.032390201  0.035826993            8 
  139000    1.0592757   -6.2168737    54.133726  0.032454272   0.03572893            3 
  140000    1.0427748    -6.212886    54.528128  0.032457219  0.035635817            5 
  141000    1.0540895   -6.2159509    54.637691  0.032291779  0.035544953            5 
  142000    1.0277753   -6.1896994    55.157275  0.032369293  0.035455048           10 
  143000    1.0568816   -6.2302561    55.310237  0.032232072   0.03536357            5 
  144000    1.0473881   -6.1910811    55.659681  0.032210463  0.035274921            4 
  145000    1.0392484   -6.2507973    55.970969  0.032167223  0.035187381            3 
  146000    1.0350335   -6.2289334    56.354586  0.032165859  0.035098718           14 
  147000    1.0377136   -6.2433804    56.642776  0.032110417   0.03501398            5 
  148000    1.0288783   -6.2399524    56.949665  0.032066252  0.034925322            5 
  149000    1.0698395   -6.2535198    57.105171  0.031938015  0.034838617            7 
  150000    1.0494797   -6.2450253    57.435641   0.03190869  0.034753601            3 
  151000    1.0332919   -6.2525269    57.665641  0.031824305  0.034665713            3 
  152000   0.99984309   -6.2663495    57.952195  0.031772037  0.034577564            4 
  153000    1.0323759   -6.2787087    58.015496  0.031598854  0.034488238           17 
  154000    1.0189604   -6.2705489    58.518868  0.031666054  0.034398732            7 
  155000    1.0156332   -6.2802325    58.412921  0.031404796   0.03430794            5 
  156000     1.036227   -6.3265552    58.641529  0.031325603  0.034214058            5 
  157000    1.0128642   -6.2727632     58.90062  0.031263599  0.034121108            6 
  158000    1.0327205   -6.2908479    59.063464  0.031151616  0.034026542            6 
  159000    1.0239744   -6.2695997    59.433563  0.031149666  0.033934599            9 
  160000    1.0131973   -6.3230451    59.802387  0.031147077     0.033842            8 
  161000    1.0027139   -6.3133425    59.975363  0.031043149  0.033749449            5 
  162000    1.0251471   -6.2814642    60.212765  0.030973644  0.033656609            7 
  163000    1.0104253   -6.3226668    60.500645    0.0309308   0.03356266            8 
  164000   0.97596977   -6.3440585    60.595406  0.030790348  0.033467297            5 
  165000    1.0037323   -6.3018872    60.930246  0.030772852   0.03337464            8 
  166000    0.9991766   -6.3124776    60.963307   0.03060407  0.033281104            5 
  167000     1.011417     -6.32657    61.260032  0.030568878  0.033188422            4 
  168000    1.0008922   -6.3050069    61.629785   0.03057033  0.033094749           16 
  169000    1.0087932   -6.3251525    61.922649   0.03053385  0.033004087           12 
  170000   0.98986789   -6.3293037    62.288486  0.030533571  0.032912969            6 
  171000   0.98389488    -6.298108    62.419667  0.030418941   0.03282213            8 
  172000    1.0048112   -6.3461453     62.73131  0.030393077  0.032732056            7 
  173000   0.99640174   -6.3218716    63.081749  0.030386199  0.032643851            6 
  174000   0.98130381   -6.3205172     63.34292  0.030336647  0.032558341            9 
  175000   0.97087208   -6.3019415    63.497905  0.030237097  0.032473359            5 
  176000   0.99404882   -6.3155173    64.142394  0.030370452  0.032389443            6 
  177000   0.95824817   -6.3526785    63.946668  0.030106718  0.032305574            5 
  178000   0.98103041   -6.3161639    64.454872  0.030175502  0.032222298            4 
  179000   0.99183459   -6.3435235     65.04541  0.030281848  0.032144011           11 
  180000   0.97148388   -6.3578828    65.027995  0.030105553   0.03206621            7 
  181000   0.97357145   -6.3648836    65.347395  0.030086278  0.031988153            7 
  182000   0.96100184   -6.3376509    65.715262  0.030089406  0.031911915            7 
  183000   0.95817764   -6.3616401    66.037928  0.030071916    0.0318374            9 
  184000   0.97296554   -6.3572464    66.366875  0.030057461  0.031766461            6 
  185000   0.96940515   -6.3663243    66.471978  0.029942332  0.031696395            4 
  186000   0.97351761   -6.3767301    66.729954  0.029896933  0.031624281            7 
  187000   0.97608068   -6.3767506    67.154148  0.029926091  0.031552463            9 
  188000   0.95747037   -6.3875121    67.346022   0.02985196    0.0314819            7 
  189000   0.97149027   -6.3770902    67.694095  0.029847484  0.031410127            6 
  190000   0.98702994   -6.3618598    67.923314  0.029790927  0.031339809            7 
  191000   0.98298315   -6.3818165    68.096944  0.029710708  0.031270792            6 
  192000   0.95563382    -6.359205    68.422576  0.029697298  0.031201714            5 
  193000   0.97078088   -6.3656038     68.56124  0.029603299  0.031133113            5 
  194000   0.95802887   -6.3921598    68.782672  0.029545821  0.031065386            6 
  195000   0.97202114   -6.3691318    69.269406   0.02960231  0.030997908            5 
  196000   0.96997195   -6.3504619    69.667744  0.029620639    0.0309319           11 
  197000   0.93186158   -6.3912625    69.833466  0.029540383  0.030866501            4 
  198000   0.95425439    -6.382099    69.946064  0.029438579  0.030802332            3 
  199000   0.94053607   -6.3825148    70.032665  0.029326912  0.030737806            5 
  200000   0.95291593   -6.3883298    70.360319  0.029316799  0.030671517            5 
  201000   0.95769803   -6.4442773    70.447496  0.029207088  0.030605447           17 
  202000   0.91897309   -6.4015588    70.781215  0.029200171  0.030539749            6 
  203000   0.93491699   -6.3901274     71.19073  0.029224438  0.030475073            9 
  204000   0.96881566   -6.4140981    71.530306  0.029219896  0.030411188            4 
  205000   0.95166185   -6.4049326    71.872673  0.029216534  0.030350503            4 
  206000   0.91014932   -6.4236239     72.15984  0.029190874  0.030290773            4 
  207000   0.94433508   -6.4032244    72.300107  0.029106323  0.030230295            6 
  208000   0.93340405   -6.4596536    72.598743  0.029086035  0.030171102            9 
  209000   0.90121083   -6.4381561    72.866636  0.029053682  0.030113158           10 
  210000   0.94859947    -6.455347    72.886998  0.028923412  0.030053647           19 
  211000   0.92834147   -6.4315839    73.261764  0.028934346  0.029993885           12 
  212000   0.95307975   -6.4308414     73.36975   0.02884031  0.029933538            7 
  213000   0.93021047   -6.4065478    73.734395  0.028847572  0.029872895            8 
  214000   0.92026363    -6.442885      73.9548  0.028798598  0.029814454           15 
  215000   0.92961903   -6.4726635    73.952594  0.028663796  0.029755294           11 
  216000   0.91754435   -6.4575066    74.236714  0.028640708  0.029695017           11 
  217000   0.91909434   -6.4554235    74.007939  0.028420867  0.029633501           11 
  218000   0.88789312   -6.4285479    74.529942  0.028490039  0.029570657           12 
  219000   0.92490908   -6.4520456    74.966307  0.028525992  0.029508507            6 
  220000   0.89603302   -6.4661471    74.943887  0.028387836  0.029447139            7 
  221000   0.92295275   -6.4724539    74.977186   0.02827194  0.029386097           13 
  222000   0.90487539   -6.4814575    75.369446  0.028291834  0.029324297           18 
  223000    0.9175526   -6.4587976    75.683819  0.028282443   0.02926299            5 
  224000   0.91581126   -6.4791416    75.519596  0.028095088  0.029201406           20 
  225000   0.90911224   -6.4767246    75.825904  0.028083668  0.029138294            8 
  226000     0.904671   -6.4806044    75.920973  0.027994459  0.029075771           23 
  227000   0.91023488    -6.462241    76.146319  0.027953862  0.029012649            5 
  228000   0.90020373   -6.4558994    76.498435  0.027959954  0.028948744           13 
  229000   0.90154253   -6.4998424     76.71605  0.027917049  0.028884926           18 
  230000   0.89779991   -6.5114913    76.608089  0.027756554  0.028820688           13 
  231000   0.90276748     -6.51004     76.70749  0.027672255  0.028755695           13 
  232000   0.88602442   -6.4698549    76.722679  0.027558433  0.028688835            9 
  233000   0.90631869   -6.5308206    76.874495  0.027494455  0.028621161           14 
  234000   0.90423868   -6.5201713    76.977598  0.027413674  0.028553354           13 
  235000   0.91424182    -6.514414     76.87662  0.027261213  0.028485258           12 
  236000   0.88758755   -6.4746545    77.509472  0.027369164  0.028418727           24 
  237000   0.87426271   -6.4801201     77.67786   0.02731289  0.028352104           17 
  238000   0.87715946   -6.5189436    77.466111  0.027123989  0.028284471            9 
  239000   0.89153999   -6.5378195    77.828236  0.027136763  0.028216713            6 
  240000   0.87525957    -6.497867    78.040728  0.027097475  0.028149701           18 
  241000    0.8547999   -6.5500836    78.104378  0.027007046  0.028082734           18 
  242000    0.8725167   -6.5140774    77.989138  0.026855764  0.028015183            9 
  243000   0.89870308   -6.5485573     78.37318  0.026876948   0.02794714           16 
  244000   0.86852785   -6.5131751    78.440375  0.026789745  0.027878545            5 
  245000   0.89632618   -6.5283501    78.493497  0.026698468  0.027809881           11 
  246000   0.85070006   -6.5353903    78.739182  0.026673165  0.027741864           18 
  247000   0.87526241   -6.5718243    78.629371  0.026528128   0.02767324           34 
  248000   0.86508645   -6.5540742    78.922788  0.026519754  0.027604397            7 
  249000   0.88048037   -6.5563643    79.023879  0.026447081  0.027535794           11 
  250000   0.85298675   -6.5251073    79.132743  0.026377581  0.027465848           14 
  251000   0.88152935   -6.5562793    79.304101  0.026329383  0.027397228            9 
  252000   0.86116642   -6.5424337    79.209456  0.026193603  0.027328188           10 
  253000   0.85373783   -6.5964367    79.230534  0.026097014  0.027257941           12 
  254000   0.86476109   -6.5525591    79.478617  0.026075662  0.027187957            8 
  255000    0.8455899   -6.5609517      79.6754  0.026037712  0.027118005           11 
  256000   0.87386664   -6.5579983    79.820258  0.025983157  0.027047088            8 
  257000   0.84238245   -6.5651125    80.115713  0.025977858  0.026976287           11 
  258000    0.8654635   -6.5781175    80.214267  0.025909001  0.026906346           11 
  259000   0.85908855   -6.5590498    80.169706  0.025794629  0.026836898           10 
  260000   0.85769366   -6.5903868    80.145322  0.025687603   0.02676709           16 
  261000    0.8575792   -6.5886577    80.090173  0.025571575  0.026696469           23 
  262000   0.86220568    -6.582792     80.30727  0.025543025  0.026625688            9 
  263000   0.83647298   -6.5868014    80.447406  0.025490306  0.026554989           11 
  264000   0.84210007   -6.5910343    80.560004  0.025429294  0.026484408           18 
  265000   0.85231514   -6.6003805    80.555543  0.025331932  0.026412756           14 
  266000   0.84640188   -6.5979115    80.640396  0.025263282   0.02634148           10 
  267000   0.82199866   -6.6276204    80.916768  0.025254921  0.026269822           11 
  268000    0.8516084   -6.6240619    81.140548   0.02523027  0.026199313            8 
  269000   0.86042482   -6.6084582    81.070855  0.025114887  0.026127717           19 
  270000   0.83568138   -6.6459972    80.968679  0.024990333  0.026055236           21 
  271000   0.85038349   -6.6273037    81.327741   0.02500853  0.025983351           35 
  272000   0.82424591   -6.6227163      81.4511  0.024954381  0.025911713           12 
  273000    0.8379444   -6.6239537    81.578629  0.024901901  0.025841066            6 
  274000   0.82106402   -6.5829515    81.660841  0.024836022  0.025769998           11 
  275000   0.84379017   -6.6303667    81.745851   0.02477147  0.025699034            9 
  276000    0.8265098   -6.6350867     81.75673  0.024685003  0.025627331            5 
  277000   0.84526929   -6.6273658    82.047496  0.024683362  0.025557179            8 
  278000   0.81432604   -6.6264958    81.856425  0.024537298  0.025487005            7 
  279000   0.82859023    -6.618104    82.070243  0.024513215  0.025416786           21 
  280000   0.82423948   -6.6410776    82.276282  0.024486989   0.02534628           14 
  281000   0.81359185    -6.656942    82.069946  0.024338655  0.025276398           14 
  282000   0.81449146   -6.6461596    82.411421  0.024353257  0.025206298           17 
  283000   0.82169561   -6.6750221    82.436692  0.024274644  0.025136552           19 
  284000   0.78992343    -6.642424    82.497623  0.024207049  0.025066802           16 
  285000   0.82088462   -6.6552109    82.708628  0.024183809  0.024997246           11 
  286000   0.79964706   -6.6652972    82.827787  0.024133971  0.024928467           34 
  287000   0.80981314   -6.6807354    82.919089  0.024076391  0.024859649           20 
  288000   0.80500319   -6.6612335    83.045813   0.02402946  0.024791469           19 
  289000    0.8224218    -6.660987    83.069252  0.023953072  0.024722756           19 
  290000   0.79821168   -6.6777294     82.89574  0.023820615  0.024654221           33 
  291000   0.79908491   -6.6900246    83.244515  0.023838635  0.024585813           26 
  292000   0.80693475   -6.6864962    83.441292  0.023813154  0.024518061           12 
  293000   0.79001025   -6.7056644    83.336069  0.023701954   0.02445026           24 
  294000    0.7931341   -6.7125108    83.463856  0.023657556  0.024381927           27 
  295000    0.7918708   -6.7141168    83.850604  0.023686611  0.024313682           16 
  296000   0.80396539   -6.7338902    83.722692  0.023570578  0.024245732           14 
  297000   0.80058225   -6.6952826    83.644455  0.023469263  0.024177439           12 
  298000    0.8053613   -6.6833606     84.04872  0.023503557  0.024109996           16 
  299000   0.78256793   -6.6711446      83.9801  0.023405825  0.024043623           18 
  300000   0.79994893   -6.6637984    84.335314  0.023426476  0.023977801           16 
  301000   0.77957833    -6.685191    84.303753  0.023339909  0.023911729           16 
  302000    0.7914656   -6.6891368    84.264045  0.023251668  0.023845642           18 
  303000   0.81217674   -6.7046306    84.214491  0.023161301  0.023779449           15 
  304000   0.78672228   -6.6969565    84.467365  0.023154431  0.023713062           22 
  305000   0.79065997    -6.708462    84.570886  0.023106799  0.023646859            9 
  306000   0.79076422   -6.7312676    84.631183  0.023047708  0.023581285           16 
  307000   0.75275187   -6.7310968    84.481073  0.022931887  0.023515538           48 
  308000    0.7745884   -6.7325611    84.822765  0.022949882  0.023450531           16 
  309000   0.78648487   -6.7090223     84.63919  0.022826103  0.023385316           10 
  310000   0.77840809   -6.7118073     84.86245  0.022812486  0.023320029           15 
  311000   0.78052706    -6.740801    84.890137  0.022746553  0.023255254           11 
  312000    0.7733232   -6.7482694    85.072921  0.022722468  0.023190453           13 
  313000   0.76493365   -6.7226959    85.098457  0.022656671   0.02312592           25 
  314000   0.77018787   -6.7588622    85.372558  0.022657261  0.023061792           23 
  315000   0.75122816   -6.7420755    85.536292  0.022628649  0.022997936           22 
  316000   0.75555876   -6.7659733     85.48888  0.022544536  0.022934844           97 
  317000   0.76633803   -6.7542674    85.744115  0.022540514  0.022871893           37 
  318000   0.76602105   -6.7716446    85.585528  0.022428073  0.022809203           98 
  319000   0.76061974   -6.7528774    85.616865  0.022365952  0.022746478           88 
  320000   0.75083919   -6.7667372    85.792926  0.022341908  0.022683677           65 
  321000   0.76783975   -6.7898223    85.780131  0.022268985   0.02262113           96 
  322000    0.7615181   -6.7803932    85.859257  0.022220305   0.02255821           42 
  323000   0.75099319   -6.7827582    85.624018   0.02209082  0.022495516          104 
  324000   0.75139265   -6.7910708    85.769338  0.022060015  0.022432783          141 
  325000   0.74634612   -6.8000574    85.943357  0.022036758   0.02237005          122 
  326000   0.75346999   -6.8085187    86.068954  0.022001266   0.02230784           45 
  327000   0.73424535   -6.7972264    86.096797   0.02194108  0.022245524           58 
  328000   0.75653243   -6.8065023    86.056051  0.021863834  0.022182858           81 
  329000   0.73521202    -6.807606    85.733716  0.021715733  0.022119643           65 
  330000   0.73838025   -6.8177308    85.935642   0.02170092  0.022057018           49 
  331000   0.74286334   -6.8054019    86.150191  0.021689373  0.021994758           46 
  332000   0.72343065   -6.8230114     86.30252  0.021662279  0.021932901           39 
  333000   0.73293076   -6.8262226    86.402902  0.021622348  0.021871154           89 
  334000    0.7196348   -6.8165247    86.278635  0.021526606  0.021809387           58 
  335000    0.7388174   -6.8273571    86.162499  0.021433457  0.021747353           50 
  336000   0.73547317   -6.8188115    86.405912  0.021430038  0.021685444           49 
  337000   0.73304367    -6.817991    86.263604  0.021331257  0.021623245           79 
  338000   0.72013777   -6.8289137    86.363261  0.021292717  0.021560994           99 
  339000   0.72473437    -6.831218    86.345902   0.02122564  0.021498965           47 
  340000   0.72010201   -6.8194952    86.253277  0.021140509   0.02143681           27 
  341000   0.72840063   -6.8486649    86.464397  0.021130107  0.021374739           60 
  342000   0.72247871   -6.8304465    86.310668  0.021030865  0.021312821          120 
  343000   0.72441902   -6.8414909    86.245041  0.020953606  0.021250415           48 
  344000   0.72121465    -6.865707    86.469658  0.020947107  0.021188281           46 
  345000    0.7158321   -6.8613568    86.584951  0.020914239  0.021126884           65 
  346000   0.70590978   -6.8433845    86.485081   0.02082974   0.02106551          118 
  347000   0.72039907   -6.8692251     86.49761  0.020772721  0.021003886           87 
  348000   0.69948172   -6.8696807    86.391192  0.020687546  0.020942323           94 
  349000   0.70556607   -6.8594706    86.706395  0.020703533  0.020880704          147 
  350000   0.69450638    -6.869024    86.609365  0.020621277  0.020819461          134 
  351000   0.70673618    -6.882803    86.485757  0.020533181  0.020758111           94 
  352000   0.68993913   -6.8803745     86.57199  0.020495263  0.020696507           96 
  353000   0.69874958   -6.8816377     86.58473   0.02044021  0.020635123          115 
  354000   0.70994593   -6.8915298    86.630678  0.020393286  0.020573832          180 
  355000   0.69720619   -6.8969156    86.572481  0.020322179  0.020512667          149 
  356000   0.71193177    -6.878107    86.608499  0.020273525  0.020451732          283 
  357000   0.71144972   -6.9074322    86.694301  0.020236765   0.02039076          261 
  358000   0.69581968   -6.8926634    86.652815  0.020170581  0.020329756          264 
  359000   0.71128135   -6.9008973    86.734944   0.02013346  0.020269625          235 
  360000   0.69855137   -6.9217884    86.692485  0.020067705  0.020209363          372 
  361000   0.70310605   -6.9352026    87.033835  0.020090913  0.020149362          373 
  362000   0.69385754   -6.9098629    86.931826   0.02001193  0.020089888          240 
  363000    0.6978101   -6.8996862    87.182338  0.020014311  0.020030744          277 
  364000   0.69391879   -6.9328575    87.114929  0.019943894  0.019971706          387 
  365000   0.68442344   -6.9227622    87.141517  0.019895323  0.019912816          384 
  366000   0.68505513   -6.9182329    87.156302  0.019844331  0.019853859          318 
  367000   0.68104469   -6.9404844    87.156467  0.019790297  0.019795247          428 
  368000   0.68915429   -6.9064144    87.132327  0.019731052  0.019736884          330 
  369000   0.67355516   -6.9347879     87.09384  0.019668889  0.019678556          437 
  370000   0.66869321   -6.9567614    87.216589  0.019643376  0.019620097          415 
  371000   0.67534354   -6.9416574    87.256873  0.019599477   0.01956193          344 
  372000   0.68658937   -6.9673783    87.025286  0.019494912  0.019503806          533 
  373000   0.68063789   -6.9544179    87.154522   0.01947152  0.019445883          574 
  374000   0.66017581   -6.9694139    86.988509  0.019382466  0.019387858          571 
  375000   0.69659398    -6.946767    87.162894  0.019369532  0.019329777          622 
  376000   0.66749263   -6.9911472    87.300623  0.019348542  0.019271981          727 
  377000   0.66989666   -6.9966692    87.282195  0.019293147  0.019214248          677 
  378000   0.65574217   -6.9988717    87.258222  0.019236821  0.019156627          696 
  379000   0.66194719   -6.9964969    87.200184  0.019173304   0.01909888          791 
  380000   0.65872504   -6.9973868    87.162693  0.019114626  0.019041377          845 
  381000   0.65256816   -6.9843446    87.350121  0.019105451  0.018983899          908 
  382000   0.64471131   -6.9949057     87.23811  0.019031001  0.018926522          845 
  383000   0.67249724   -7.0060912    87.385198  0.019013315  0.018869336          923 
  384000   0.65889424   -7.0255318    87.071924  0.018895817  0.018812156         1008 
  385000   0.65111967   -7.0513151    87.273725  0.018890417  0.018755041          947 
  386000   0.66615927    -7.070571    87.187811   0.01882293  0.018698289         1090 
  387000   0.65120908   -7.0327785    87.312709  0.018801186  0.018641653         1085 
  388000   0.63952941     -7.04657    87.319197  0.018754123  0.018584972         1163 
  389000    0.6437152   -7.0787633    87.244215  0.018689849  0.018528497         1153 
  390000   0.63915666   -7.0588665    87.155925  0.018623061  0.018471885         1260 
  391000   0.63835641   -7.0603846    87.086089  0.018560548  0.018415509         1310 
  392000   0.64082685   -7.0688824    87.191283  0.018535562  0.018359056         1331 
  393000   0.64083956    -7.071665    86.929889   0.01843297  0.018302871         1373 
  394000    0.6406424   -7.0899512     87.11084  0.018424459  0.018246823         1396 
  395000   0.64258172   -7.0778108    87.339344  0.018426022  0.018190913         1500 
  396000   0.64002017   -7.0777754    87.263296  0.018363488  0.018135279         1606 
  397000   0.63898329   -7.1061877     87.11345  0.018285779  0.018079509         1658 
  398000   0.63590903   -7.1071266    86.952356  0.018206105    0.0180237         1785 
  399000   0.63183548   -7.1128082    86.990168  0.018168373  0.017967834         1855 
  400000   0.63107485   -7.1167842    86.893598  0.018102833   0.01791199         1963 
  401000   0.61293107   -7.1530864    86.833713  0.018045244  0.017856093         2108 
  402000   0.62408374   -7.1390388    86.934818  0.018021314  0.017800345         2073 
  403000   0.62101169   -7.1623582    86.902997  0.017970016  0.017744559         2102 
  404000   0.62430849   -7.1771829     86.75142   0.01789427    0.0176888         2297 
  405000   0.62519042   -7.1683525    86.749302  0.017849651  0.017632923         2249 
  406000   0.62817513   -7.1691522    86.702358  0.017796051  0.017577352         2259 
  407000   0.62662818   -7.1731309    86.848968  0.017782344  0.017521713         2400 
  408000   0.62152808   -7.1678046    86.720909  0.017712604  0.017466345         2432 
  409000   0.61245091   -7.1901638    86.720983  0.017669312  0.017411122         2421 
  410000   0.60450257   -7.1824693    86.923421  0.017667362  0.017356112         2424 
  411000   0.61059896   -7.2094311    86.681639  0.017575353  0.017301174         2486 
  412000    0.6114721   -7.2090489    86.877409  0.017572292  0.017246302         2420 
  413000   0.59356621   -7.1909662    86.716084  0.017497192  0.017191646         2496 
  414000   0.61106185   -7.2356137    86.729495  0.017457628  0.017137336         2497 
  415000   0.61756038   -7.2002593    86.724024  0.017414463  0.017082903         2491 
  416000   0.59846474   -7.2194113    86.677332  0.017363247   0.01702856         2545 
  417000   0.60667626   -7.2332279    86.537253  0.017293616  0.016974289         2613 
  418000   0.60695188   -7.2396813    86.607795  0.017266307  0.016920196         2567 
  419000   0.60491596   -7.2423979    86.524137   0.01720846  0.016866204         2647 
  420000   0.59277564   -7.2549206    86.637716  0.017190023  0.016812192         2671 
  421000   0.60450165   -7.2342195    86.619251  0.017145537  0.016758476         2646 
  422000    0.6025997   -7.2572871    86.310463   0.01704393  0.016704816         2741 
  423000   0.59268251   -7.2546488    86.390104  0.017019327  0.016651335         2804 
  424000    0.5918815   -7.2594132    86.507453  0.017002251  0.016597932         2740 
  425000   0.58766038   -7.2718267    86.472754  0.016955442  0.016544753         2796 
  426000   0.58722234   -7.2493037    86.518924  0.016924672  0.016491773         2718 
  427000   0.58684247   -7.2685402    86.495294  0.016880424  0.016438905         2855 
  428000   0.57606856   -7.2751673    86.617513   0.01686478  0.016386348         2824 
  429000   0.57742972   -7.2736629    86.615759  0.016825128  0.016333974         2812 
  430000   0.55796524   -7.2730141    86.519312  0.016767308  0.016281795         2848 
  431000   0.58145704   -7.2997092    86.579228   0.01673999  0.016229758         2934 
  432000   0.58009071   -7.3030006    86.434972  0.016673413  0.016177797         2914 
  433000   0.57536531    -7.312137    86.467025  0.016641075  0.016126019         2922 
  434000   0.57705138   -7.3158883    86.440193  0.016597579  0.016074296         2982 
  435000   0.56988078   -7.3004448    86.466438  0.016564452  0.016022782         2879 
  436000    0.5748821   -7.3212114    86.341682  0.016502615  0.015971353         2983 
  437000   0.57278346   -7.3142618    86.374588  0.016471127   0.01592011         2927 
  438000   0.58041384   -7.3120423    86.288111  0.016417068  0.015868976         2907 
  439000   0.56799768   -7.3151432    86.437001  0.016407935  0.015818125         2995 
  440000   0.56293163   -7.3272604    86.341331  0.016352525  0.015767406         3015 
  441000   0.55869163   -7.3300712    86.364789  0.016319877  0.015717018         2957 
  442000    0.5612542   -7.3315322    86.333058  0.016276972  0.015666771         2961 
  443000   0.55470392   -7.3192794    86.231231  0.016221074  0.015616647         3036 
  444000   0.55428602   -7.3465086    86.213726  0.016181255  0.015566625         3015 
  445000   0.55524413    -7.319538    86.284514  0.016158149  0.015516748         3086 
  446000   0.55569587   -7.3373835    86.305845  0.016125905  0.015467093         3089 
  447000   0.55242955   -7.3403865    86.240609  0.016077668  0.015417533         3072 
  448000   0.55068754   -7.3342305    86.163279  0.016027396  0.015368106         3080 
  449000   0.54907116   -7.3454297    86.221884  0.016002577  0.015318799         3042 
  450000   0.55936521   -7.3503462    86.190052  0.015961121  0.015269697         3053 
  451000   0.54537388   -7.3527214    86.107492  0.015910475  0.015220845         3054 
  452000   0.54053602    -7.363488    86.351047  0.015920178  0.015172174         3136 
  453000   0.54463252   -7.3631342    86.325385  0.015880314   0.01512366         3123 
  454000   0.54127212   -7.3778915    86.198628  0.015822068  0.015075395         3101 
  455000   0.54833882    -7.380748     86.21786  0.015790817  0.015027277         3054 
  456000   0.54866035   -7.3495324    86.229769  0.015758364  0.014979303         3120 
  457000   0.53373576   -7.3685388    86.099222  0.015700077  0.014931453         3147 
  458000   0.53559968   -7.3788474    86.200897  0.015684297  0.014883761         3143 
  459000   0.52055122    -7.376067     86.01138  0.015615719  0.014836217         3099 
  460000   0.52980736   -7.3660972    86.202837  0.015616456  0.014788891         3110 
  461000   0.52058909   -7.3789288    86.166313  0.015575978   0.01474175         3112 
  462000   0.53201059   -7.3820603    86.155799  0.015540368  0.014694724         3124 
  463000   0.52971336   -7.4043918    86.154465  0.015506563  0.014647889         3136 
  464000   0.52880905   -7.3793912    86.172625  0.015476405  0.014601168         3126 
  465000   0.51511394   -7.4026985    86.180742  0.015444577  0.014554728         3134 
  466000   0.51981437    -7.405924    86.074967  0.015392519  0.014508349         3149 
  467000   0.53699285   -7.4265533    86.139754  0.015371119   0.01446218         3178 
  468000   0.52219761   -7.4032867    85.946381  0.015303843  0.014416089         3151 
  469000   0.51371201   -7.4082737    86.075215  0.015294103  0.014370174         3095 
  470000   0.52740431   -7.4124049    85.976677  0.015244092   0.01432448         3151 
  471000   0.51524062   -7.3957185    86.143804  0.015241296  0.014278884         3158 
  472000   0.51794362   -7.4263438    86.025491  0.015188116  0.014233436         3119 
  473000   0.50594648   -7.4179861    85.966528  0.015145618  0.014188128         3162 
  474000   0.50877198   -7.3969713    85.807699  0.015085742  0.014142949         3128 
  475000   0.51330867   -7.4293495     85.91902  0.015073512  0.014097931         3202 
  476000   0.50224906   -7.4294289    85.904779  0.015039352  0.014053108         3148 
  477000   0.50306253   -7.4208015    85.970073   0.01501923  0.014008394         3156 
  478000   0.50060652   -7.4325103    85.854965  0.014967742  0.013963863         3113 
  479000   0.49669443   -7.4360049    85.905527   0.01494529  0.013919507         3179 
  480000   0.51175833   -7.4348588    85.994364  0.014929577  0.013875358         3167 
  481000   0.49696606   -7.4182394    85.792209  0.014863515  0.013831418         3148 
  482000   0.49399979    -7.422504    85.887822  0.014849209  0.013787545         3120 
  483000   0.49674059   -7.4441805    85.822667  0.014807223   0.01374388         3188 
  484000   0.49178586   -7.4621716    85.844064  0.014780314  0.013700296         3179 
  485000   0.49986043   -7.4460605    85.794809  0.014741376  0.013656903         3204 
  486000   0.49117594   -7.4466829    85.799106  0.014711781   0.01361366         3181 
  487000   0.47803544   -7.4484473     85.77426   0.01467732  0.013570587         3156 
  488000   0.48555025    -7.445749    85.738678  0.014641168  0.013527688         3189 
  489000   0.48629228      -7.4433    85.846095  0.014629532  0.013484978         3159 
  490000   0.46976116   -7.4583585    85.844153  0.014599346  0.013442444         3196 
  491000   0.49076659    -7.468221    85.794317  0.014561154  0.013400098         3212 
  492000   0.48533928   -7.4675752    85.745905  0.014523358  0.013357878         3187 
  493000   0.47533218   -7.4644911    85.774232  0.014498687  0.013315813         3208 
  494000   0.47538334   -7.4685865    85.861168  0.014484003  0.013273916         3206 
  495000   0.48023578   -7.4518504    85.710477  0.014429373  0.013232175         3227 
  496000   0.47486922   -7.4528057    85.636649  0.014387878  0.013190535         3242 
  497000   0.47240591   -7.4777804    85.704434  0.014370294  0.013149106         3233 
  498000   0.48105501   -7.4620824    85.631259  0.014329193  0.013107841         3259 
  499000   0.46850663    -7.477743    85.770287  0.014323695  0.013066697         3210 
  500000   0.47168531   -7.4589548    85.717994  0.014286332  0.013025692         3273 
  501000   0.46789451   -7.4967067    85.843993  0.014278775  0.012984864         3239 
  502000    0.4579633   -7.4813136    85.594175   0.01420886  0.012944138         3216 
  503000   0.46357465   -7.4929667    85.691841  0.014196793  0.012903607         3226 
  504000   0.45776724   -7.5012358    85.651816  0.014162007  0.012863189         3257 
  505000   0.46353403   -7.4834025    85.617103  0.014128235  0.012822998         3249 
  506000   0.45991977   -7.4941901    85.602554  0.014097917  0.012782918         3217 
  507000    0.4616364   -7.5065458    85.743718  0.014093313     0.012743         3244 
  508000    0.4528754   -7.4981836     85.61345  0.014044201  0.012703246         3251 
  509000   0.45619348   -7.5043768    85.760753  0.014040726  0.012663602         3219 
  510000   0.45851703   -7.4953008     85.62514  0.013991036  0.012624156         3226 
  511000   0.45866809   -7.4919577    85.587318  0.013957488  0.012584894         3197 
  512000   0.45365463   -7.4912084    85.626495  0.013936604   0.01254579         3271 
Loop time of 1064.04 on 48 procs for 500000 steps with 4000 atoms

Performance: 81199.579 tau/day, 469.905 timesteps/s
99.4% CPU use with 48 MPI tasks x no OpenMP threads

MPI task timing breakdown:
Section |  min time  |  avg time  |  max time  |%varavg| %total
---------------------------------------------------------------
Pair    | 62.735     | 67.316     | 72.549     |  22.2 |  6.33
Neigh   | 6.5908     | 6.7184     | 7.1818     |   3.5 |  0.63
Comm    | 58.52      | 61.965     | 67.465     |  25.5 |  5.82
Output  | 0.94404    | 0.94455    | 0.9541     |   0.1 |  0.09
Modify  | 909.76     | 914.63     | 919.45     |   7.3 | 85.96
Other   |            | 12.47      |            |       |  1.17

Nlocal:        83.3333 ave          88 max          78 min
Histogram: 2 2 5 4 4 5 10 6 3 7
Nghost:        1728.67 ave        1742 max        1713 min
Histogram: 1 3 5 4 7 7 8 7 3 3
Neighs:        10391.0 ave       10984 max        9518 min
Histogram: 1 3 1 6 8 2 7 8 5 7
FullNghs:      20782.9 ave       21974 max       19412 min
Histogram: 4 2 4 6 4 8 5 6 4 5

Total # of neighbors = 997578
Ave neighs/atom = 249.39450
Neighbor list builds = 26999
Dangerous builds = 0

#clear
#
#next RN
#
#jump SELF
Total wall time: 0:17:46
