
units lj                  # Use reduced LJ style units
atom_style atomic         # Uncharged point particles
atom_modify map hash      # Needed for indexing of clusters etc
                          # Used to be able to find where atoms are in relation to each other.

lattice fcc 1.0 spacing 1 1 1
Lattice spacing in x,y,z = 1.5874011 1.5874011 1.5874011
region box block 0 10 0 10 0 10 units lattice
create_box 2 box
Created orthogonal box = (0.0000000 0.0000000 0.0000000) to (15.874011 15.874011 15.874011)
  3 by 4 by 4 MPI processor grid
create_atoms 1 box
Created 4000 atoms
  using lattice units in orthogonal box = (0.0000000 0.0000000 0.0000000) to (15.874011 15.874011 15.874011)
  create_atoms CPU = 0.002 seconds
set type 1 type/fraction 2 0.85 78393
Setting atom values ...
  3394 settings made for type/fraction
mass 1 1.0
mass 2 1.0
pair_style lj/cut  3.5
pair_modify tail  yes
pair_coeff 1  1  1.0  1.0   # Intearaction between 1 and 1 set with epsilon = 1 and sigma = 1
pair_coeff 1  2  1.5  0.8
pair_coeff 2  2  0.5  0.88

write_data data.0
System init for write_data ...
Neighbor list info ...
  update every 1 steps, delay 10 steps, check yes
  max neighbors/atom: 2000, page size: 100000
  master list distance cutoff = 3.8
  ghost atom cutoff = 3.8
  binsize = 1.9, bins = 9 9 9
  1 neighbor lists, perpetual/occasional/extra = 1 0 0
  (1) pair lj/cut, perpetual
      attributes: half, newton on
      pair build: half/bin/atomonly/newton
      stencil: half/bin/3d
      bin: standard
WARNING: Not all mixed pair coeffs generated from mixing. Use write_data with 'pair ij' option to store all pair coeffs. (../write_data.cpp:312)


#############################
#   M E L T   S Y S T E M   #
#############################

velocity all create 2.4 5300450 mom yes dist gaussian # Assign velocities
                                                    # Temperature 2.4, random number seed, zero linear momentum
                                                                                # Gaussian distribution

timestep 0.002   # simulation timestep
thermo 1000       # output thermodynamic data every 1000 steps bf 100

# Define a fix  in this case with index 1 applied to all
# particles in the simulation. This fix is for simulations
# in the anisotropic NPT ensemble. Note that we use the MTK
# correction.
fix 1 all npt temp 2.4 2.4 0.1 iso 5.68 5.68 0.5 mtk yes tchain 5 pchain 5 # Use NPT ensemble
                                                                         # Set temperature and pressure and damping
                                                                         # Numbers of thermostats in chain and in barostat
run 10000          # run for 10000 steps
Per MPI rank memory allocation (min/avg/max) = 3.642 | 3.644 | 3.648 Mbytes
Step Temp E_pair E_mol TotEng Press Volume 
       0          2.4   -3.4381692            0   0.16093083   -2.9520202         4000 
    1000    2.3634486   -2.6058452            0   0.93844134    5.8564299    3893.5282 
    2000     2.379627   -2.6790801            0   0.88946806    5.1880786    3925.3346 
    3000    2.4205385   -2.6375005            0   0.99239953    5.7271443    3898.2934 
    4000    2.4262723   -2.6647771            0   0.97372158    5.5080895      3903.55 
    5000    2.4218999    -2.598836            0    1.0331056    6.1120303    3859.5828 
    6000    2.4307475   -2.6323484            0    1.0128613     5.797356    3873.8964 
    7000    2.4077383   -2.6483511            0   0.96235353     5.967471    3844.4812 
    8000     2.440964   -2.6429303            0    1.0176003    5.9521142    3874.2991 
    9000     2.451261   -2.6743448            0    1.0016275    5.8419288    3845.0077 
   10000    2.4082591   -2.6412088            0   0.97027671    6.0626192    3834.1244 
Loop time of 2.75307 on 48 procs for 10000 steps with 4000 atoms

Performance: 627663.889 tau/day, 3632.314 timesteps/s
99.4% CPU use with 48 MPI tasks x no OpenMP threads

MPI task timing breakdown:
Section |  min time  |  avg time  |  max time  |%varavg| %total
---------------------------------------------------------------
Pair    | 1.085      | 1.1853     | 1.3089     |   4.2 | 43.05
Neigh   | 0.21038    | 0.21842    | 0.2924     |   2.5 |  7.93
Comm    | 0.80618    | 0.92577    | 1.051      |   6.3 | 33.63
Output  | 0.00024646 | 0.00025027 | 0.00031571 |   0.0 |  0.01
Modify  | 0.32887    | 0.40821    | 0.49606    |   7.9 | 14.83
Other   |            | 0.01512    |            |       |  0.55

Nlocal:        83.3333 ave          92 max          75 min
Histogram: 2 6 6 4 7 7 5 5 4 2
Nghost:        1684.83 ave        1715 max        1661 min
Histogram: 4 0 11 10 7 4 2 5 3 2
Neighs:        9967.02 ave       11569 max        8714 min
Histogram: 3 5 7 10 7 1 9 4 1 1

Total # of neighbors = 478417
Ave neighs/atom = 119.60425
Neighbor list builds = 907
Dangerous builds = 210

# Equilibrate just above the melting temperature to avoid step fn in T

fix 1 all npt temp 1.25 1.25 0.1 iso 5.68 5.68 0.5 mtk yes tchain 5 pchain 5
run 2000
Per MPI rank memory allocation (min/avg/max) = 3.643 | 3.645 | 3.649 Mbytes
Step Temp E_pair E_mol TotEng Press Volume 
   10000    2.4082591   -2.6412088            0   0.97027671    6.0626192    3834.1244 
   11000    1.2302261   -3.9258567            0   -2.0809788    5.6848616    2995.6296 
   12000    1.2521267   -3.8733476            0   -1.9956271    5.4603852    3032.8161 
Loop time of 0.622918 on 48 procs for 2000 steps with 4000 atoms

Performance: 554808.448 tau/day, 3210.697 timesteps/s
99.7% CPU use with 48 MPI tasks x no OpenMP threads

MPI task timing breakdown:
Section |  min time  |  avg time  |  max time  |%varavg| %total
---------------------------------------------------------------
Pair    | 0.27081    | 0.30162    | 0.32932    |   2.4 | 48.42
Neigh   | 0.03992    | 0.042411   | 0.047788   |   0.7 |  6.81
Comm    | 0.19711    | 0.23021    | 0.26705    |   3.1 | 36.96
Output  | 5.6774e-05 | 5.8016e-05 | 7.2808e-05 |   0.0 |  0.01
Modify  | 0.03922    | 0.043866   | 0.047235   |   1.1 |  7.04
Other   |            | 0.004753   |            |       |  0.76

Nlocal:        83.3333 ave          92 max          77 min
Histogram: 5 4 5 10 7 4 2 4 6 1
Nghost:        1989.29 ave        2013 max        1968 min
Histogram: 2 0 6 10 8 11 5 3 2 1
Neighs:        12620.7 ave       14506 max       10981 min
Histogram: 3 2 4 9 9 9 7 1 2 2

Total # of neighbors = 605794
Ave neighs/atom = 151.44850
Neighbor list builds = 144
Dangerous builds = 11

#############################
# L I N E A R  Q U E N C H  #
#############################

# Define solid atoms. This closely follows ten Wolde  Ruiz-Montero and Frenkel  Faraday Discuss  1996  104  93-110
# Compute components of the per-atom q6 vector
compute q6 all orientorder/atom degrees 1 6 components 6 nnn NULL cutoff 1.3 # compute the Q6 parameter.
                                                                             # Use all neighbours within 1.3 unit cell.

# get number of connections
compute coord_number all coord/atom orientorder q6 0.5

# An atom is solid if it has 8 or more connections (of a possible 14)
variable is_solid atom c_coord_number>=8
group solid dynamic all var is_solid    # Must be dynamic to update
dynamic group solid defined

# do clustering
compute cluster solid cluster/atom 1.3 # Create a cluster where all atoms within are solid and max 1.3 units from another member

# define chunks one chunk per cluster
compute clus_chunks solid chunk/atom c_cluster nchunk every compress yes  # Says which atoms are in which chunk

# count the size of each chunk
compute size_chunks solid property/chunk clus_chunks count


# Find the maximum entry in the vector of chunk sizes
variable max_n equal max(c_size_chunks)


# Thermo style which includes this variable
# thermo_style custom step temp pe vol v_max_n

thermo ${N}  # Print the thermo information every 100 steps
thermo 1000  

# Reset the npt fix at a lower temperature (below freezing)
fix 1  all npt temp  ${temp} ${temp}  0.1  iso  5.68  5.68  0.5  mtk yes tchain  5  pchain  5
fix 1  all npt temp  0.45 ${temp}  0.1  iso  5.68  5.68  0.5  mtk yes tchain  5  pchain  5
fix 1  all npt temp  0.45 0.45  0.1  iso  5.68  5.68  0.5  mtk yes tchain  5  pchain  5

dump dmp2 all dcd ${N} traj.dcd
dump dmp2 all dcd 1000 traj.dcd


compute msd all msd com yes
variable twopoint equal c_msd[4]/6/(step*dt+1.0e-6)
fix 9 all vector 10 c_msd[4]
variable fit equal slope(f_9)/6/(10*dt)
thermo_style custom step temp pe c_msd[4] v_twopoint v_fit v_max_n

fix 1 all npt temp 1.25 ${temp} 0.1 iso 5.68 5.68 0.5 mtk yes tchain 5 pchain 5
fix 1 all npt temp 1.25 0.45 0.1 iso 5.68 5.68 0.5 mtk yes tchain 5 pchain 5
run 500000 # 5000000  # Run for this many steps
Neighbor list info ...
  update every 1 steps, delay 10 steps, check yes
  max neighbors/atom: 2000, page size: 100000
  master list distance cutoff = 3.8
  ghost atom cutoff = 3.8
  binsize = 1.9, bins = 8 8 8
  4 neighbor lists, perpetual/occasional/extra = 1 3 0
  (1) pair lj/cut, perpetual
      attributes: half, newton on
      pair build: half/bin/atomonly/newton
      stencil: half/bin/3d
      bin: standard
  (2) compute orientorder/atom, occasional
      attributes: full, newton on
      pair build: full/bin/atomonly
      stencil: full/bin/3d
      bin: standard
  (3) compute coord/atom, occasional
      attributes: full, newton on
      pair build: full/bin/atomonly
      stencil: full/bin/3d
      bin: standard
  (4) compute cluster/atom, occasional
      attributes: full, newton on
      pair build: full/bin/atomonly
      stencil: full/bin/3d
      bin: standard
Per MPI rank memory allocation (min/avg/max) = 9.830 | 9.834 | 9.839 Mbytes
Step Temp PotEng c_msd[4] v_twopoint v_fit v_max_n 
   12000    1.2521267   -3.8733476 2.0358528e-30 1.4137866e-32 8.3333333e+20            1 
   13000    1.2448296   -3.8986457   0.90807753 0.0058210096  0.076750895            7 
   14000    1.2550496   -3.8811017    1.8869431  0.011231804  0.079240782            1 
   15000    1.2794164   -3.8999699     2.857924  0.015877355  0.079790381            2 
   16000    1.2121988   -3.9301278    3.8530056  0.020067737  0.080539373            5 
   17000    1.2187493   -3.9050684    4.9089942  0.024063696  0.081795258            1 
   18000    1.2542227   -3.9226619    5.7826711  0.026771625  0.082018986            3 
   19000    1.2500632   -3.9479219    6.7043034  0.029404839  0.081211861            3 
   20000    1.2386513    -3.913138    7.7366423  0.032236009  0.081032614            1 
   21000    1.2377285   -3.9597715    8.5739489  0.034023606  0.080745782            5 
   22000    1.2202429   -3.9584464    9.4415552  0.035763466   0.07993509            1 
   23000    1.2426792   -3.9558546     10.31191  0.037361992  0.079140599            2 
   24000    1.2429504   -3.9690479    11.220239  0.038959163  0.078573051            2 
   25000     1.238607     -3.93671    12.170919  0.040569728  0.078215198            2 
   26000    1.2367397   -3.9664173    13.033426    0.0417738  0.077945371            2 
   27000     1.197671   -3.9729874    14.003006  0.043219154  0.077667461            3 
   28000    1.2261681   -3.9419324    14.919398  0.044402969  0.077570869            2 
   29000    1.2131983   -3.9558134    15.807447  0.045423698  0.077441967            1 
   30000    1.2232623    -3.966333    16.815244  0.046709011  0.077326886            1 
   31000    1.2300835   -4.0022411    17.744115  0.047699234  0.077313626            1 
   32000    1.2146327    -3.968319    18.574947  0.048372258  0.077272525            2 
   33000    1.2121794   -3.9546356    19.335919  0.048828078  0.077132922            3 
   34000    1.2054027   -3.9799904    20.300861  0.049757012  0.076903899            2 
   35000     1.212102    -3.990618    20.884494  0.049724986  0.076680375            2 
   36000    1.1863301   -3.9820517    21.711094  0.050257161  0.076353615            1 
   37000    1.2041288   -3.9843616    22.590613  0.050879758   0.07602261            4 
   38000    1.1887628   -3.9833111    23.481396   0.05149429  0.075748884            3 
   39000    1.2084452   -3.9911393    24.150294  0.051603192  0.075398345            2 
   40000    1.2035706   -3.9920336     25.15025  0.052396353  0.075024547            1 
   41000    1.2157997   -3.9737447    26.024889  0.052896116  0.074739515            2 
   42000    1.2181901   -4.0320566    26.656167   0.05288922  0.074447588            2 
   43000     1.224394   -3.9677942    27.621955   0.05353092  0.074230075            3 
   44000    1.2229726   -3.9977936    28.410802  0.053808336   0.07404955            3 
   45000    1.1907076   -3.9603146    29.442652  0.054523428  0.073885526            1 
   46000    1.1831636   -3.9917888    30.368511  0.055015418    0.0737889            1 
   47000    1.2130839   -4.0101594    31.184228  0.055291184  0.073671651            5 
   48000     1.187885   -3.9925064    32.310012   0.05609377  0.073597128            1 
   49000    1.1811886   -4.0205458      32.9983  0.056119557  0.073551633            4 
   50000     1.190662   -4.0109816    33.911506  0.056519177  0.073513353            3 
   51000    1.1759631   -4.0234363    34.565189  0.056479066  0.073416521            2 
   52000    1.1668267    -4.018758    35.545836  0.056964481  0.073344961            2 
   53000    1.1865961   -4.0015766    36.266532  0.057022848  0.073266377            3 
   54000    1.1648106   -3.9999475    37.053031  0.057180603  0.073141255            2 
   55000    1.1741667   -4.0256497    37.700127  0.057121404   0.07301175            2 
   56000     1.169344   -4.0219522     38.51547  0.057314687  0.072857397            1 
   57000     1.177981   -4.0286169    39.296671  0.057451273  0.072690147            3 
   58000    1.1542016   -4.0607596     40.10882  0.057627614    0.0725217            5 
   59000    1.1407714   -4.0414057    41.091889  0.058039391  0.072373957            2 
   60000    1.1753228   -4.0043344    41.963157  0.058282162  0.072232954            2 
   61000    1.1799407   -4.0136853    42.964169  0.058694219  0.072123139            2 
   62000    1.1715876   -4.0424276     43.58821  0.058586304  0.072035767            2 
   63000     1.192273    -4.043365    44.638471  0.059045596  0.071974589            2 
   64000    1.1960731   -4.0213775    45.563505   0.05932748  0.071942064            1 
   65000    1.1593125   -4.0669599    46.162483   0.05918267  0.071893259            1 
   66000    1.1676669   -4.0726231    47.198028  0.059593469  0.071831711            3 
   67000    1.1554139   -4.0906124    47.950185  0.059639533  0.071801859            3 
   68000    1.1415377   -4.0396861     49.02996  0.060085735  0.071770655            2 
   69000    1.1716676   -4.0597759    49.418592  0.059684289   0.07172075            2 
   70000    1.1634553   -4.0634144    50.107121  0.059651334  0.071627022            2 
   71000    1.1496821   -4.0676922    50.615226  0.059407542  0.071520697            2 
   72000    1.1607008   -4.0411256    51.202484  0.059262134  0.071397604            3 
   73000    1.1497289   -4.0898243    51.811188  0.059145191  0.071242477            2 
   74000    1.1397048   -4.0691415    52.908298  0.059581416  0.071089353            1 
   75000    1.1584166   -4.0830514     53.81821  0.059798011  0.070948276            6 
   76000     1.137813   -4.0852181    54.464854  0.059720234  0.070819334            2 
   77000    1.1403149   -4.0946336    55.266754  0.059812504  0.070683256            2 
   78000    1.1624076   -4.0694697    56.060946  0.059894172  0.070554865            2 
   79000    1.1425963   -4.0947883    57.072914  0.060203496  0.070464186            2 
   80000    1.1540601   -4.0773653    57.957512  0.060372408  0.070379721            2 
   81000    1.1348068   -4.0836881    58.344603  0.060025312  0.070277665            2 
   82000    1.1800944   -4.0654703    59.575283  0.060543986  0.070191383            4 
   83000    1.1462966   -4.1093891    59.905708  0.060146293  0.070101171            2 
   84000     1.128742   -4.1346851    60.350273  0.059871303  0.069995463            2 
   85000    1.1362527   -4.1483616    61.172471  0.059973011  0.069872255            2 
   86000     1.116268   -4.1526338    61.641078  0.059729727  0.069736544            3 
   87000    1.1327367   -4.0854954    62.565777  0.059928905  0.069603321            3 
   88000    1.1368323   -4.1303816    63.503895  0.060136263   0.06947823            4 
   89000     1.122541   -4.1054456    64.407707  0.060306841  0.069355559            2 
   90000    1.1068343    -4.141908    65.088045  0.060266708  0.069241446            3 
   91000    1.1505918    -4.135001    65.536266  0.060014896  0.069126289            3 
   92000    1.1025255   -4.1074283    66.543674  0.060275067  0.069013889            1 
   93000    1.1281574    -4.123671    66.725661  0.059790018  0.068898863            4 
   94000    1.1229107   -4.1492717    67.649515  0.059972974  0.068772683            1 
   95000    1.1327021   -4.1081992    68.351447   0.05995741   0.06864418            3 
   96000     1.094292   -4.1563933     68.44353  0.059412786  0.068498621            2 
   97000     1.113261   -4.1116706    69.129172  0.059389323  0.068340209            2 
   98000    1.1410968   -4.1361183    69.741844  0.059304289  0.068166615            2 
   99000    1.1009183   -4.0972926    70.348657  0.059216041  0.068006336            4 
  100000    1.1010421    -4.134165    71.536688  0.059613906  0.067859232            2 
  101000    1.1290904   -4.1462467    72.038553   0.05943775  0.067715353            1 
  102000    1.1151344    -4.117103    73.232611  0.059830564  0.067583271            2 
  103000    1.1052655    -4.153997    73.590352   0.05953912  0.067462647            2 
  104000    1.0946793   -4.1400049    74.765279  0.059908075  0.067347356            2 
  105000    1.1090486   -4.1260242    75.258501  0.059728969  0.067239038            2 
  106000    1.1148366   -4.1233513    76.423963  0.060081731  0.067141929            4 
  107000    1.0979215   -4.1303736    77.187118  0.060114578  0.067048792            1 
  108000    1.0801097   -4.1778247    78.160868  0.060309311  0.066970028            3 
  109000    1.0810155   -4.1655596    78.859956  0.060290486  0.066902693            3 
  110000    1.0870335   -4.1542746    79.979276  0.060590361  0.066843278            1 
  111000    1.0948052   -4.1654567     80.36123  0.060331253  0.066787633            3 
  112000    1.1043829   -4.1413871    81.072011  0.060321437  0.066719971            2 
  113000    1.0957051   -4.1713939    81.342506  0.059987098  0.066643725            5 
  114000    1.0756119   -4.1609589    82.217557  0.060100553  0.066559305            2 
  115000     1.055394   -4.1928761     82.97828  0.060129188  0.066480257            2 
  116000    1.0882329   -4.1955635    83.593756  0.060052985  0.066395103            2 
  117000    1.0731367   -4.2016047    83.723847  0.059632369  0.066307734            5 
  118000    1.0543403   -4.1569575     85.08979  0.060091659  0.066211625            5 
  119000    1.0783386    -4.199551    85.085032  0.059583356  0.066115518            2 
  120000    1.0913059   -4.1837025    85.323969  0.059252756  0.066010252            3 
  121000    1.0915281   -4.2090937    86.295717  0.059432312  0.065894357            4 
  122000    1.0710496   -4.1844616    86.889015   0.05935042  0.065771952            3 
  123000    1.0646739   -4.1668045    86.912058  0.058883508  0.065639298            2 
  124000    1.0986585   -4.2022274    87.569384  0.058850392  0.065516783            2 
  125000    1.0664853   -4.2119764    88.273407  0.058848937  0.065390577            3 
  126000     1.086951   -4.2205948    89.566883  0.059237356  0.065271537            2 
  127000    1.0828349   -4.2100112    90.393263  0.059313164  0.065162715            2 
  128000    1.0798647   -4.2114686    90.375006  0.058837894  0.065058555            3 
  129000    1.0503218   -4.1989981    91.628811  0.059191738  0.064951861            3 
  130000    1.0631498   -4.2015483    91.969138  0.058954575  0.064847011            3 
  131000    1.0557906   -4.2056144    92.296464  0.058712763  0.064735261            2 
  132000    1.0274043     -4.23991    92.839308  0.058610674  0.064615453            2 
  133000    1.0481655    -4.241351    93.902216  0.058835974   0.06449798            2 
  134000    1.0546609    -4.239533     93.92898  0.058413545  0.064381889            2 
  135000    1.0645145   -4.2097268    95.190376  0.058759491  0.064274371            4 
  136000    1.0468907   -4.2106968    95.582865  0.058567932  0.064166333            5 
  137000    1.0276539   -4.2209697    96.236828  0.058538216  0.064056556            2 
  138000     1.058182   -4.2332975    97.088714   0.05862845   0.06395178            2 
  139000    1.0383234   -4.2652596    97.373123  0.058377172  0.063854273            4 
  140000    1.0438978   -4.2437533    98.615988  0.058699993  0.063751328            3 
  141000    1.0544201   -4.2631601    98.962765  0.058488632  0.063650114            2 
  142000    1.0400734   -4.2310062    99.400645  0.058333712  0.063551518            3 
  143000    1.0437054    -4.262011    100.05165  0.058305156  0.063447151            2 
  144000    1.0186889    -4.202855     101.2381  0.058586862  0.063346069            3 
  145000    1.0423581   -4.2638759    101.59113  0.058385709  0.063244086            2 
  146000    1.0100833   -4.2625318    101.73319   0.05806689  0.063133236            3 
  147000    1.0599979   -4.2681384    102.63488  0.058183037  0.063030806            5 
  148000    1.0336421   -4.2399377    103.28423  0.058155535  0.062928907            3 
  149000    1.0120786   -4.2477016    103.22632  0.057732841  0.062821867            4 
  150000    1.0535115   -4.2583066    104.15301  0.057862781  0.062711381            2 
  151000    1.0324668   -4.2787187     104.5697  0.057709548  0.062604726            1 
  152000    1.0124531   -4.2905185    104.93946  0.057532597  0.062492476            4 
  153000    1.0382977   -4.2586824    105.45337  0.057436477  0.062382057            2 
  154000    1.0313476   -4.2806099    106.13807  0.057434022  0.062269903            4 
  155000    1.0172907   -4.2759879    106.47754  0.057245991  0.062152718            6 
  156000    1.0328363   -4.2863661    107.40461  0.057374255  0.062037728            3 
  157000    1.0172148   -4.2870766    107.54024  0.057080804  0.061924143            2 
  158000    1.0244814    -4.270545    108.33244  0.057137363  0.061808476            3 
  159000    1.0178537   -4.2822996    108.85707  0.057052971  0.061694416            2 
  160000    1.0002107   -4.2916978    109.42764  0.056993563  0.061576668            2 
  161000    1.0035177    -4.289058    109.48147  0.056667426  0.061464381            3 
  162000   0.99106398   -4.2832243    110.42139  0.056801125  0.061347969            2 
  163000    1.0072516   -4.3432461     110.8887  0.056691565  0.061238335            2 
  164000   0.99704509   -4.3155708     110.9976  0.056401218  0.061125539            2 
  165000    1.0130576   -4.2922853    111.76482  0.056446877  0.061011363            1 
  166000    1.0095758   -4.2939705    112.74685  0.056599825  0.060895955            5 
  167000     0.995524   -4.3394776    113.08609  0.056430182  0.060780024            4 
  168000    1.0062281     -4.29038    113.76835  0.056432713   0.06066577            2 
  169000   0.99588424   -4.3025535    113.98402  0.056205137  0.060553514            2 
  170000    1.0177337   -4.3026855    114.57912  0.056166235  0.060444405            3 
  171000   0.99902232   -4.3316033    115.30942  0.056193675   0.06033564            3 
  172000    1.0010755   -4.3411009    115.51904  0.055968526  0.060225412            2 
  173000    1.0034869   -4.3043618    116.87049  0.056295999  0.060118018            4 
  174000    0.9675445   -4.3326401    117.35687  0.056205399  0.060015022            3 
  175000    1.0051997   -4.3030376     118.0524  0.056215428  0.059913519            4 
  176000   0.97787832   -4.3510239    118.16196    0.0559479  0.059808973            3 
  177000   0.96670957    -4.350427    118.94701  0.056001415  0.059707015            3 
  178000   0.99997977   -4.3528988    119.19186  0.055801432  0.059606064            3 
  179000   0.99423202   -4.3536996    120.10613  0.055915329  0.059509813            5 
  180000   0.98100081   -4.3483262     120.4615  0.055769212  0.059413534            3 
  181000   0.97970088    -4.389132    120.81147  0.055622222  0.059314613            3 
  182000   0.98170169   -4.3526885    121.70198   0.05572435   0.05921369            2 
  183000   0.95662125   -4.3466184    121.62327  0.055384001  0.059112737            4 
  184000   0.94976916   -4.3649073    122.53725  0.055496942  0.059015339            3 
  185000   0.95482069   -4.3593242    123.01673  0.055412943  0.058916829            4 
  186000   0.99749372    -4.350748    123.90207  0.055511681  0.058817624            3 
  187000   0.97631798   -4.3342187    124.73254  0.055584912  0.058722785            3 
  188000   0.99682213   -4.3602082    124.54588  0.055206508  0.058625279            6 
  189000   0.96659627   -4.3807784    125.43268  0.055305415  0.058527758            3 
  190000    0.9630132   -4.3872196    125.57193  0.055075407  0.058430353            3 
  191000   0.97420025     -4.39949    126.15458  0.055041266  0.058334718            3 
  192000   0.95629571   -4.3596504     127.0362   0.05513724  0.058240593            4 
  193000   0.94986459     -4.37253    127.24575  0.054942036  0.058147004            2 
  194000   0.96834199   -4.3674287    127.69942  0.054853702  0.058053012            5 
  195000   0.96412844   -4.3842084     128.1516  0.054765642  0.057955237            5 
  196000   0.96386954   -4.3944365    128.18865  0.054501978  0.057854026           10 
  197000   0.95301142   -4.3950347    128.87392  0.054515195  0.057750289            3 
  198000   0.94369691   -4.4129814    129.06981  0.054322311  0.057648777            4 
  199000   0.97634398   -4.4085805    129.49116  0.054225777  0.057543079            3 
  200000   0.95044776   -4.3749961    130.60187  0.054417447  0.057441482            2 
  201000   0.94092119   -4.4270019    130.36503  0.054048522  0.057339589            4 
  202000   0.95113501   -4.4143973    130.58515  0.053871762  0.057239328            4 
  203000   0.93643203   -4.4203049     131.6828  0.054056977  0.057139583            3 
  204000   0.96259412   -4.4078041    131.99944  0.053921339  0.057038747            4 
  205000    0.9370719   -4.4184958    132.40633  0.053823712  0.056937453            3 
  206000   0.94745331   -4.4040279    132.71941  0.053689081  0.056835447            7 
  207000   0.92152633   -4.4236573    133.07678  0.053573584  0.056737977            5 
  208000   0.94426598   -4.4382482    133.66501  0.053551686  0.056640236            2 
  209000   0.94806226   -4.4595137    134.24305  0.053525938   0.05654247            4 
  210000   0.93488218   -4.4259976    134.59599  0.053411107  0.056441865            4 
  211000   0.93103694   -4.4214458    135.07203  0.053345985  0.056341554            6 
  212000   0.93808694   -4.4123241     135.8803  0.053412066  0.056240889            4 
  213000   0.91848138   -4.4675195    136.09882  0.053246798  0.056141616            5 
  214000   0.92866288   -4.4400512    136.25676  0.053059486  0.056042998            7 
  215000   0.90948257   -4.4447382    136.53951   0.05292229  0.055940321            3 
  216000   0.93070661   -4.4448575    136.81716  0.052784399  0.055839335            2 
  217000    0.9196371    -4.467594    137.93264  0.052969525  0.055738515            4 
  218000   0.91647865   -4.4701828    138.54506   0.05296065   0.05563887            5 
  219000   0.89731698   -4.4495544    138.26964  0.052614017  0.055537833            4 
  220000   0.91781358   -4.4478995    139.31637  0.052771351  0.055436075            8 
  221000   0.91628635   -4.4426721     139.4064  0.052566515  0.055333908            4 
  222000   0.91397577   -4.4613808    139.68069  0.052432693  0.055232741            6 
  223000   0.92049404   -4.4763199      140.555   0.05252429  0.055133098            3 
  224000   0.92781567   -4.4637415    140.98114  0.052448339  0.055032927            6 
  225000   0.90528753   -4.4804148    141.16877  0.052284729  0.054933552            5 
  226000   0.92058156    -4.468134    141.52033  0.052183013  0.054830996            3 
  227000   0.90274023   -4.4587722    141.93255  0.052104459  0.054728225            5 
  228000   0.91782223    -4.491145    141.56279  0.051740787  0.054624902            3 
  229000   0.89937897   -4.5006141    142.16628  0.051734453  0.054522882            2 
  230000   0.91298879   -4.4484477    142.94462   0.05179153  0.054421039            2 
  231000   0.90970841   -4.5084956      143.332  0.051707069  0.054320401            3 
  232000   0.89029992   -4.4748987    143.56307  0.051567195  0.054217968            2 
  233000   0.90463399   -4.4634611    143.86654  0.051454412  0.054115014            5 
  234000   0.89910875    -4.520948    143.95792  0.051267064  0.054011648            6 
  235000    0.9077391    -4.483282    144.40671  0.051208054  0.053908832            6 
  236000   0.89314946   -4.4909977    145.02471  0.051209289  0.053807836            4 
  237000    0.8857161   -4.5013527    145.41414  0.051130149  0.053702849            4 
  238000   0.88565972   -4.4968676    145.75461  0.051034526  0.053598015            4 
  239000   0.90716544   -4.5501554    146.02212  0.050914268  0.053491961           10 
  240000   0.87623282   -4.5175167    146.59669   0.05090163   0.05338678           10 
  241000   0.89385351   -4.5610482    146.26292  0.050575007  0.053281171            5 
  242000   0.89770214    -4.540112    146.92984  0.050595675  0.053175047            3 
  243000   0.87573013    -4.513499    147.14888  0.050462579  0.053069133            8 
  244000   0.89103995   -4.5148634    148.06509  0.050568677  0.052963592            2 
  245000   0.88724381   -4.5363441    147.87101  0.050296263  0.052857935            3 
  246000   0.88104165   -4.5312048    148.39887  0.050270619  0.052751179            3 
  247000   0.86086037    -4.535824    149.05705  0.050289152   0.05264678            6 
  248000   0.88219897   -4.5328722    149.59132  0.050265901  0.052542096            2 
  249000   0.84748134   -4.5543577    149.25335   0.04995092  0.052440969            8 
  250000     0.880853   -4.5277226     149.8862  0.049962065  0.052339134            4 
  251000   0.87169708   -4.5503518    150.14737  0.049849725  0.052237653            3 
  252000    0.8543385   -4.5655016    150.53133  0.049778879  0.052136813            7 
  253000   0.86249363   -4.5670419    150.98188  0.049730528   0.05203327            4 
  254000   0.87196554   -4.5531469     151.5132  0.049709054  0.051930263           10 
  255000   0.84896838   -4.5887058    150.50288  0.049183946  0.051823258            3 
  256000   0.87376123   -4.5673362    151.25778   0.04923756  0.051716419            7 
  257000   0.85630013   -4.5498808    151.80373  0.049222998  0.051609177            3 
  258000   0.86097878    -4.587515    151.55754  0.048952693  0.051502411           10 
  259000   0.86683261   -4.5710944    151.79572  0.048840323  0.051393959            5 
  260000   0.84315589     -4.56657     152.2578  0.048800577  0.051285474            3 
  261000   0.85220113    -4.558595    152.27058  0.048617683  0.051175914            5 
  262000   0.84078761   -4.5939749     152.6592  0.048555725  0.051065415            3 
  263000    0.8447247   -4.6107779    152.43236  0.048299226  0.050954353            3 
  264000   0.85784255   -4.6045387    153.37044  0.048412387  0.050845057            4 
  265000   0.85318142   -4.6134665    154.19036  0.048487533   0.05073588            3 
  266000   0.85747202   -4.6063714     154.3924  0.048368547  0.050627888            5 
  267000   0.83778694   -4.5984477    154.71362  0.048287645  0.050520844            4 
  268000   0.83757412   -4.5848562    155.04187  0.048209535  0.050413366            6 
  269000    0.8389826   -4.5513917    155.56267  0.048191657    0.0503081            6 
  270000   0.82703087   -4.5825412     156.0726  0.048170556  0.050204602            3 
  271000   0.83629895   -4.6158944    156.38895  0.048090084  0.050101193            7 
  272000    0.8290696   -4.5973903    155.86935   0.04775409  0.049997139            4 
  273000   0.83980082    -4.617023    156.19326   0.04767804  0.049892842           10 
  274000   0.82704885   -4.5706027    156.35326  0.047552694  0.049784544            6 
  275000   0.83230093   -4.6235402    156.09108  0.047300326  0.049674489            7 
  276000   0.81841658   -4.6113947    156.67695  0.047305841  0.049564324            5 
  277000    0.8123535   -4.6382701    156.94511  0.047215737  0.049455509            9 
  278000   0.83454186   -4.5975256    157.49998  0.047212224  0.049346793            7 
  279000   0.83767017   -4.6507241    156.94614   0.04687758  0.049237868           10 
  280000   0.81057788   -4.6607331    157.74789  0.046948775   0.04912772            5 
  281000   0.79922514   -4.6287022    158.31215  0.046949038  0.049020141            5 
  282000   0.81460232   -4.6541911    157.91332  0.046664692  0.048912353            5 
  283000   0.79928946    -4.639112    159.22211  0.046885191  0.048804898           12 
  284000   0.80195893   -4.6779465    159.02029  0.046660882  0.048698024            4 
  285000   0.81393578   -4.6678789    159.88833  0.046750974  0.048593896            4 
  286000   0.83027107   -4.6683244    160.12541  0.046656589  0.048491565            4 
  287000   0.80244928   -4.6742242    159.47303  0.046304597  0.048387708            6 
  288000   0.80606451   -4.6790327    159.75013  0.046223996   0.04828233            5 
  289000   0.81269736   -4.6691445    160.17442  0.046186396  0.048175041            9 
  290000   0.80145229   -4.6615952    160.55414  0.046136247  0.048067819            4 
  291000   0.79534288   -4.6758835    160.75863  0.046036262  0.047960383            7 
  292000   0.79365781   -4.6932577    160.78522  0.045886194  0.047853751            8 
  293000   0.81011265   -4.6926904    161.11172  0.045822445   0.04774842            4 
  294000   0.80388812   -4.6812242    161.54835  0.045790347  0.047643361           10 
  295000   0.79882247   -4.6585262    161.89231  0.045732292  0.047537298            4 
  296000   0.80641507   -4.7119594    161.58562  0.045491447  0.047430284            8 
  297000   0.79338013   -4.6952342    161.33086  0.045266795  0.047323042            2 
  298000   0.78054312   -4.6896524    161.78173  0.045240975  0.047213867           11 
  299000   0.80156327   -4.6940971    162.35463  0.045249338  0.047106913            6 
  300000   0.80454667   -4.6862841    162.47314  0.045131427  0.047000976           11 
  301000   0.77916673   -4.6940175    162.80203  0.045072544  0.046893764            6 
  302000   0.77381478   -4.7129899    162.70611  0.044896828  0.046787061            3 
  303000   0.79776955    -4.714479    162.86594  0.044792613  0.046679934            7 
  304000   0.77881517    -4.711597    163.30359   0.04476524  0.046573467            5 
  305000   0.79218185   -4.6903431    163.36753  0.044635937  0.046467792            7 
  306000   0.77965515   -4.7120191    163.32404  0.044478225  0.046360674            8 
  307000   0.79963007   -4.7107031    164.07938  0.044538376  0.046253453            4 
  308000   0.79315794   -4.7086376    164.44157  0.044491766  0.046147691            7 
  309000   0.77014521   -4.7263039    164.11359  0.044259328  0.046041951            7 
  310000   0.78232968   -4.7378115    163.51683  0.043956138  0.045933663            4 
  311000   0.76854435   -4.7559607    163.92969  0.043925427  0.045825891           11 
  312000   0.76458124   -4.6949764    164.99999  0.044070509  0.045719143            7 
  313000   0.76257754   -4.7177656    164.22443  0.043723224  0.045611998            9 
  314000   0.75822963   -4.7453457    164.63071  0.043691802  0.045504211            7 
  315000   0.75449242   -4.7531705    165.14607  0.043689437  0.045397327            6 
  316000   0.76759674   -4.7349376    164.99924  0.043512458  0.045289892            4 
  317000   0.77595117   -4.7546346    165.14957  0.043414714  0.045183711           11 
  318000   0.74390258    -4.746652    166.18292  0.043548983  0.045077628           10 
  319000   0.75050893   -4.7605411    165.88886  0.043335649  0.044972047            5 
  320000   0.76078508   -4.7716451    166.28051  0.043302215  0.044866742            5 
  321000   0.75214182   -4.7535349    166.55881  0.043239567  0.044762698            6 
  322000   0.74560994    -4.774271    167.07356  0.043238498  0.044659909            5 
  323000   0.75918952   -4.7682678    166.85331  0.043047809  0.044556515            4 
  324000   0.76687128   -4.7898315    167.02304    0.0429586  0.044453332            8 
  325000   0.75452499   -4.7900906    167.32433  0.042903674  0.044350464            7 
  326000   0.74679632   -4.7829777    167.80595   0.04289518  0.044247275            4 
  327000   0.73883413   -4.7646651    168.22697  0.042871296  0.044145818            4 
  328000   0.75207151   -4.7940336    167.32417  0.042511222   0.04404464            4 
  329000   0.73630827   -4.8069421     167.5064  0.042428167  0.043942738           10 
  330000   0.75894953   -4.7798268    168.35636  0.042514232  0.043840462            4 
  331000   0.72922298   -4.7948287    168.44424  0.042407916  0.043737748            8 
  332000   0.73984446   -4.7979186    168.73408  0.042352931  0.043636664           11 
  333000   0.71397962   -4.8201706    168.47687  0.042161378  0.043534687            6 
  334000   0.73031645   -4.8099205     168.9686  0.042157835  0.043433005            5 
  335000   0.72928214   -4.8009812    168.93093   0.04202262  0.043332319            8 
  336000     0.730899   -4.7931052    169.33452  0.041997649  0.043232264            8 
  337000   0.72987441   -4.8013491    169.89509  0.042011645  0.043132561            4 
  338000    0.7390298   -4.8289263    169.26769  0.041732664   0.04303354            6 
  339000   0.73105318   -4.8392651    169.60172  0.041691671  0.042933307            4 
  340000   0.73524199   -4.8378102    170.24835  0.041727536  0.042834094            9 
  341000   0.72093966   -4.8267373    170.43526  0.041650846  0.042735159            8 
  342000   0.71559186   -4.8599616    169.98567   0.04141951  0.042636861            6 
  343000   0.73573165   -4.8270145    171.10509  0.041570721  0.042538477            4 
  344000   0.72323305   -4.8454465    171.63046  0.041577146  0.042442905           10 
  345000   0.72455727   -4.8274508    171.32133  0.041381963  0.042347333            4 
  346000   0.72492742   -4.8421303    172.12187  0.041455171   0.04225222            5 
  347000   0.71767698   -4.8789134    171.59756   0.04120979  0.042156501            8 
  348000   0.70528585   -4.8392663      172.402  0.041284004  0.042061545            8 
  349000   0.71686459   -4.8532406    172.29692   0.04114062   0.04196685            6 
  350000   0.69799487   -4.8718301    172.55153  0.041083699  0.041872604            7 
  351000   0.69820948   -4.8503954    173.03358  0.041081097  0.041778514            7 
  352000   0.69070425    -4.874305    172.30175  0.040791134  0.041684953            8 
  353000   0.70188374    -4.833168    172.34451  0.040685673  0.041589855            6 
  354000   0.71712778   -4.8577909     172.5377  0.040616219  0.041494589           10 
  355000   0.70365038   -4.8840165    172.75185  0.040552076  0.041399147            9 
  356000   0.69493254   -4.8694123    173.53744  0.040622059  0.041304923            5 
  357000   0.69961647   -4.8834109    173.32118  0.040457791   0.04121061           11 
  358000   0.68825744   -4.8901995    173.43725  0.040371799  0.041116465            7 
  359000   0.69372973   -4.8856298    173.43832  0.040259592  0.041022106           10 
  360000   0.69947565    -4.902843    173.42926  0.040145662   0.04092721            9 
  361000   0.68990284   -4.9265117    173.10071  0.039958612  0.040831816            9 
  362000   0.68454614   -4.8971434     173.1471  0.039858909  0.040737034           11 
  363000   0.69523627   -4.9104406    173.80284  0.039899641  0.040642594            5 
  364000   0.69272395   -4.9207608    173.77876  0.039784515  0.040548279            5 
  365000   0.68608511    -4.906392    174.40417  0.039818304  0.040453726            4 
  366000   0.69543034   -4.9318007    174.06388   0.03963203  0.040359142           14 
  367000   0.67449347   -4.9324903    174.02773  0.039515833  0.040264687            8 
  368000   0.67171731    -4.914132    174.34353  0.039479966  0.040170806            5 
  369000   0.68465345   -4.9198237    174.60097  0.039431113  0.040077533            6 
  370000   0.67946597   -4.9199337    174.82373  0.039374715  0.039984764            5 
  371000   0.68296094   -4.9439443    174.99653  0.039307397  0.039891389            9 
  372000   0.67624203   -4.9184372    174.82421  0.039163128  0.039798397            8 
  373000   0.67554839   -4.9390995    174.12692  0.038902349   0.03970527            9 
  374000   0.67196256   -4.9336641    175.05461  0.039005039  0.039611757           11 
  375000   0.67562873   -4.9441033    174.92387  0.038871972  0.039518677            5 
  376000     0.666989   -4.9424349    175.62109  0.038923114  0.039425749           12 
  377000   0.65801514   -4.9546978    175.14414  0.038714444  0.039333372           11 
  378000   0.65924757   -4.9315235    175.79368   0.03875522  0.039241153           10 
  379000   0.66618996   -4.9762622    175.77199  0.038648195  0.039149028           12 
  380000   0.64941957   -4.9825949    175.48828  0.038484271  0.039057061            5 
  381000   0.64890121   -4.9706489     176.1265  0.038522856  0.038965143           13 
  382000   0.65733102   -4.9628996    176.00587  0.038395695  0.038873903            7 
  383000   0.65377045   -4.9497021    176.29653  0.038358688  0.038783098            5 
  384000    0.6520856   -4.9545766     176.5332  0.038310157  0.038692271            7 
  385000   0.65019204   -4.9649918    176.44877  0.038192374  0.038601901           10 
  386000   0.65145123   -4.9730012    176.64706   0.03813624  0.038511263            9 
  387000   0.65145705   -4.9647058    176.88699   0.03808936  0.038420757            9 
  388000   0.63690271   -4.9821019    176.76712  0.037965446  0.038330645            9 
  389000   0.64492261   -5.0074905    176.48988  0.037808458  0.038240632            9 
  390000    0.6461834   -4.9927408     177.0817  0.037837969  0.038150623            5 
  391000   0.64459962   -4.9877977    177.01947  0.037727935  0.038060775           14 
  392000   0.62342638    -5.000022    176.95864  0.037618758  0.037970999           11 
  393000   0.64095563   -4.9873761    177.06706  0.037546025  0.037881096            7 
  394000   0.63386618   -5.0132277    176.80278  0.037394835  0.037791325           12 
  395000   0.64438383   -5.0083986    177.08518  0.037359743  0.037700916           20 
  396000   0.63145161   -4.9962703    177.17004  0.037283258  0.037610972            9 
  397000   0.64350641   -5.0257741    176.78624  0.037108782  0.037520383            6 
  398000    0.6431778   -5.0459665    176.77786  0.037013789  0.037429835           10 
  399000   0.62668009   -5.0385975    176.73932  0.036912974    0.0373395           10 
  400000   0.62759932   -5.0258593    177.30848  0.036939266  0.037249118            9 
  401000    0.6323807   -5.0293011    177.48604  0.036884049  0.037159596           11 
  402000   0.62449153   -5.0263862    177.59215  0.036814294  0.037070081           12 
  403000    0.6297978   -5.0484811    177.20619  0.036643132  0.036980524            6 
  404000   0.61588182   -5.0065131    177.21866  0.036555004  0.036890718            8 
  405000   0.62319286   -5.0461558    177.65144  0.036553794  0.036800929           10 
  406000   0.62309668   -5.0490561    177.47882  0.036428329  0.036711496           17 
  407000   0.62132354    -5.058962    177.33902  0.036310201  0.036621839            4 
  408000   0.61800148    -5.031864    177.97996  0.036352117  0.036532692           10 
  409000   0.60742398   -5.0514541    177.81854  0.036230346  0.036444216           18 
  410000   0.62867911   -5.0509162    177.85602  0.036149598  0.036356098           19 
  411000   0.60377077   -5.0899482    178.15879  0.036123031  0.036267592           16 
  412000   0.61389901   -5.0593706    177.70411  0.035943388  0.036179143            9 
  413000   0.59310652   -5.0639424    177.99362  0.035914775  0.036091633           11 
  414000    0.6105737   -5.0701596    178.49384  0.035928711  0.036004103            7 
  415000   0.59666934   -5.0584933    178.28877  0.035800958   0.03591695           11 
  416000   0.59053888   -5.0851168    178.27754  0.035712649  0.035830119           10 
  417000   0.59382021   -5.0827825    178.57263  0.035685977  0.035742808           27 
  418000   0.59563621   -5.0870123    178.16876  0.035520087  0.035655016            7 
  419000    0.5989471   -5.0882256    178.31923   0.03546524  0.035567636            8 
  420000   0.60324437   -5.1000759     178.0914  0.035335595  0.035480007            7 
  421000   0.59006698   -5.0964115    178.30889  0.035294713  0.035392551           11 
  422000   0.58822713   -5.0909699    178.84424  0.035316793  0.035305182            9 
  423000   0.60044903   -5.0954189    178.73988  0.035212743  0.035218598            6 
  424000   0.59091667   -5.1036032    178.57523  0.035097334  0.035132424           10 
  425000     0.581155   -5.1292205    178.73377  0.035045837  0.035045829           20 
  426000   0.58435066   -5.1303866     178.4992  0.034917685  0.034958852            9 
  427000   0.58723388   -5.1172805    178.81783  0.034898094  0.034872733           11 
  428000   0.60015439   -5.1071225    179.05242  0.034862232  0.034786646           17 
  429000    0.5760739   -5.1022238    178.61294  0.034695598  0.034701117            9 
  430000   0.57827906   -5.1097833    179.16854  0.034722584  0.034615946            6 
  431000   0.58105539   -5.1238488    178.86223  0.034582798  0.034530437           20 
  432000   0.58399991   -5.1328589    178.48986  0.034430914  0.034445196           19 
  433000   0.56647521   -5.1423811    179.03904  0.034457091  0.034359629           14 
  434000   0.57215951   -5.1304355    178.76623  0.034325312  0.034274502           35 
  435000   0.57353812    -5.133758    178.70876  0.034235394  0.034189386           17 
  436000    0.5693572   -5.1492805    178.91944  0.034197141  0.034104279           10 
  437000   0.57361856   -5.1444327     179.3048  0.034192371  0.034020053           25 
  438000   0.57385295   -5.1338608    179.43106   0.03413833  0.033936079           16 
  439000   0.56159666   -5.1441941    179.18461  0.034013784  0.033852095           16 
  440000   0.56543298   -5.1558993    179.66647  0.034027741  0.033768114           14 
  441000   0.57735531   -5.1584193    178.97231  0.033819408  0.033684239           22 
  442000   0.56543325   -5.1632657    179.53218   0.03384845   0.03360005            9 
  443000   0.55619348    -5.162336    178.99739  0.033671443  0.033515931           15 
  444000   0.54141148   -5.1656865      179.415  0.033673987  0.033431886           13 
  445000   0.55144231   -5.1609342    178.97764  0.033516411  0.033348347           32 
  446000   0.55343228   -5.1621707    179.33046  0.033507186   0.03326476           14 
  447000    0.5585673   -5.2047027    179.31733  0.033429778  0.033181007           16 
  448000   0.53913457   -5.1902868    178.99861  0.033295871  0.033097325           18 
  449000   0.55469446   -5.1785971     178.7966  0.033184225  0.033013494           15 
  450000   0.54529262   -5.2313556    178.65181  0.033083669  0.032929528           18 
  451000   0.54680393   -5.2120378    178.33998  0.032952694  0.032845285           11 
  452000   0.55098766   -5.2165385    178.57966  0.032923978  0.032761259           44 
  453000   0.53642397   -5.1925923    178.70474  0.032874309  0.032677437           19 
  454000   0.53102319   -5.2210291    178.65664   0.03279307   0.03259402           22 
  455000   0.53949255    -5.224221    178.81397  0.032749811  0.032510554           19 
  456000   0.52966034   -5.2268749    178.76127   0.03266836  0.032427275           27 
  457000   0.54178587   -5.2384826     178.6307  0.032573067  0.032344642           16 
  458000   0.52600501   -5.2132644    179.22022  0.032609211  0.032261975           22 
  459000   0.52799245   -5.2360196    179.01707  0.032501283  0.032179125           20 
  460000   0.53464645   -5.2240257    178.72489  0.032377698  0.032096725           12 
  461000    0.5225737   -5.2331104    178.93022  0.032344581  0.032014543           14 
  462000   0.52744121   -5.2556281    178.93742  0.032275869  0.031932444           20 
  463000   0.54009433   -5.2485402    179.18725  0.032251124  0.031850473           12 
  464000   0.53503318   -5.2324203    178.91655  0.032133001  0.031768829           42 
  465000   0.52869973   -5.2533264    179.29266  0.032131301  0.031687111           17 
  466000   0.52009407   -5.2526013    178.89433  0.031991118   0.03160558           24 
  467000   0.51575604   -5.2513905    179.11302  0.031961638  0.031524137           15 
  468000   0.51391711   -5.2633473     179.0763  0.031886806  0.031443108           11 
  469000   0.51599723   -5.2580499    178.88558  0.031784929  0.031362377           22 
  470000   0.51579946   -5.2650548    178.80139  0.031702373  0.031281611           18 
  471000   0.50764194   -5.2922627    179.00517   0.03167112  0.031201049           25 
  472000   0.52006077   -5.2748679    178.79507  0.031566927  0.031120347           23 
  473000   0.51544595   -5.2826409    179.07134  0.031548861  0.031039933           29 
  474000   0.50022072   -5.2764702    179.31209  0.031524628  0.030960137           32 
  475000    0.5087445   -5.2852364     179.2596  0.031449052  0.030880509           44 
  476000   0.50583013   -5.2599416    179.41454  0.031410109  0.030801139           36 
  477000   0.50478035   -5.2900731     179.2864  0.031321873  0.030721746           32 
  478000   0.50496616   -5.2814594    179.10261  0.031224304  0.030642584           19 
  479000   0.50495642   -5.2760628    179.08723  0.031156442  0.030563566           16 
  480000    0.5031981   -5.3058712    178.61098  0.031008851  0.030484458            9 
  481000   0.49791202   -5.3076537    178.92631  0.030999013  0.030405475           20 
  482000   0.49806677   -5.3022883    179.12072  0.030968313  0.030326599           31 
  483000   0.49495167   -5.2984054    178.68956  0.030829807  0.030248032           12 
  484000   0.48990948   -5.2968565    178.80844  0.030786578  0.030169274           23 
  485000   0.49633397   -5.2929251    178.42883  0.030657874  0.030090597           21 
  486000    0.4988283   -5.3247277    179.04382  0.030700243  0.030012204           14 
  487000   0.49400735    -5.330549    178.34442  0.030517525  0.029933919           29 
  488000    0.4890646   -5.3141251    178.44174  0.030471609  0.029855381           93 
  489000   0.48270928    -5.325013    178.88312  0.030484512  0.029777153           71 
  490000   0.49127072    -5.343856    178.24999  0.030314625  0.029698927          109 
  491000   0.48272636   -5.3424212    178.72056   0.03033275  0.029620949           67 
  492000   0.47874587   -5.3394063    178.40582  0.030217788  0.029543325           78 
  493000   0.47846365   -5.3399024    178.40047   0.03015559  0.029465897           62 
  494000   0.48970891   -5.3495975    178.55248  0.030120189  0.029388463           88 
  495000   0.47030367     -5.35314    178.41446  0.030036104  0.029311135          104 
  496000   0.45943423   -5.3601695    178.28721  0.029954169  0.029233861          184 
  497000   0.46842769   -5.3593535    178.19431  0.029878322  0.029156784          121 
  498000   0.46707723   -5.3485217    178.17272  0.029814712  0.029079693          148 
  499000   0.46179107    -5.367852    178.20182  0.029759824  0.029002503          108 
  500000   0.47116304    -5.394758    177.95602  0.029659337   0.02892557           96 
  501000   0.47189126   -5.3696409    178.22453  0.029644798  0.028848684           82 
  502000   0.46758439   -5.3801998    177.80163  0.029515542  0.028771917           38 
  503000   0.46501127   -5.3655594    177.88145  0.029470088  0.028695377           80 
  504000   0.46067829   -5.3820976    178.03961  0.029437766  0.028618951           92 
  505000   0.45450216   -5.3961629     178.0353  0.029378762  0.028542634           77 
  506000   0.46173965   -5.3958088    177.73963  0.029272008  0.028466579           98 
  507000   0.45206568   -5.3962638     178.1234  0.029277351  0.028390763          104 
  508000    0.4588737   -5.3937013    178.03089  0.029204543  0.028315053          111 
  509000   0.45415098   -5.4103684    177.65092  0.029084957  0.028239543           67 
  510000   0.45602371   -5.3870987    177.76316  0.029046268  0.028164056           53 
  511000    0.4478717    -5.394698     177.6857  0.028976794  0.028088819           43 
  512000   0.45678765   -5.4045494    177.66331  0.028916554  0.028013571           73 
Loop time of 1259.89 on 48 procs for 500000 steps with 4000 atoms

Performance: 68577.382 tau/day, 396.860 timesteps/s
99.4% CPU use with 48 MPI tasks x no OpenMP threads

MPI task timing breakdown:
Section |  min time  |  avg time  |  max time  |%varavg| %total
---------------------------------------------------------------
Pair    | 85.155     | 90.916     | 97.11      |  31.3 |  7.22
Neigh   | 8.512      | 8.8234     | 9.1624     |   6.2 |  0.70
Comm    | 79.237     | 85.532     | 92.551     |  33.0 |  6.79
Output  | 0.91446    | 0.9152     | 0.93763    |   0.3 |  0.07
Modify  | 1059.6     | 1062.5     | 1066       |   3.9 | 84.34
Other   |            | 11.17      |            |       |  0.89

Nlocal:        83.3333 ave          90 max          76 min
Histogram: 5 1 5 2 4 14 4 6 3 4
Nghost:        2310.96 ave        2331 max        2293 min
Histogram: 1 2 5 10 10 8 6 3 2 1
Neighs:        15656.1 ave       17478 max       14032 min
Histogram: 3 8 3 3 7 9 6 4 2 3
FullNghs:      31312.3 ave       34071 max       28488 min
Histogram: 6 0 4 5 10 4 9 3 4 3

Total # of neighbors = 1502989
Ave neighs/atom = 375.74725
Neighbor list builds = 26946
Dangerous builds = 0

#clear
#
#next RN
#
#jump SELF
Total wall time: 0:21:03
