
units lj                  # Use reduced LJ style units
atom_style atomic         # Uncharged point particles
atom_modify map hash      # Needed for indexing of clusters etc
                          # Used to be able to find where atoms are in relation to each other.

lattice fcc 1.0 spacing 1 1 1
Lattice spacing in x,y,z = 1.5874011 1.5874011 1.5874011
region box block 0 10 0 10 0 10 units lattice
create_box 2 box
Created orthogonal box = (0.0000000 0.0000000 0.0000000) to (15.874011 15.874011 15.874011)
  3 by 4 by 4 MPI processor grid
create_atoms 1 box
Created 4000 atoms
  using lattice units in orthogonal box = (0.0000000 0.0000000 0.0000000) to (15.874011 15.874011 15.874011)
  create_atoms CPU = 0.003 seconds
set type 1 type/fraction 2 0.05 78393
Setting atom values ...
  207 settings made for type/fraction
mass 1 1.0
mass 2 1.0
pair_style lj/cut  3.5
pair_modify tail  yes
pair_coeff 1  1  1.0  1.0   # Intearaction between 1 and 1 set with epsilon = 1 and sigma = 1
pair_coeff 1  2  1.5  0.8
pair_coeff 2  2  0.5  0.88

write_data data.0
System init for write_data ...
Neighbor list info ...
  update every 1 steps, delay 10 steps, check yes
  max neighbors/atom: 2000, page size: 100000
  master list distance cutoff = 3.8
  ghost atom cutoff = 3.8
  binsize = 1.9, bins = 9 9 9
  1 neighbor lists, perpetual/occasional/extra = 1 0 0
  (1) pair lj/cut, perpetual
      attributes: half, newton on
      pair build: half/bin/atomonly/newton
      stencil: half/bin/3d
      bin: standard
WARNING: Not all mixed pair coeffs generated from mixing. Use write_data with 'pair ij' option to store all pair coeffs. (../write_data.cpp:312)


#############################
#   M E L T   S Y S T E M   #
#############################

velocity all create 2.4 5300450 mom yes dist gaussian # Assign velocities
                                                    # Temperature 2.4, random number seed, zero linear momentum
                                                                                # Gaussian distribution

timestep 0.002   # simulation timestep
thermo 1000       # output thermodynamic data every 1000 steps bf 100

# Define a fix  in this case with index 1 applied to all
# particles in the simulation. This fix is for simulations
# in the anisotropic NPT ensemble. Note that we use the MTK
# correction.
fix 1 all npt temp 2.4 2.4 0.1 iso 5.68 5.68 0.5 mtk yes tchain 5 pchain 5 # Use NPT ensemble
                                                                         # Set temperature and pressure and damping
                                                                         # Numbers of thermostats in chain and in barostat
run 10000          # run for 10000 steps
Per MPI rank memory allocation (min/avg/max) = 3.642 | 3.644 | 3.648 Mbytes
Step Temp E_pair E_mol TotEng Press Volume 
       0          2.4   -8.0440018            0   -4.4449018    -2.648783         4000 
    1000    2.3790648   -4.4812623            0  -0.91355722    5.6288278     5033.312 
    2000    2.3637253   -4.5033588            0  -0.95865728    5.9429812    4982.5721 
    3000    2.4253135   -4.5432772            0  -0.90621645    5.5500324     5021.093 
    4000    2.4391245   -4.4500078            0  -0.79223574    5.9100059    5028.5203 
    5000    2.4513469   -4.4159514            0  -0.73985039    5.7624361    5071.4494 
    6000    2.3585594   -4.4578398            0  -0.92088521    5.7665081    5040.4261 
    7000    2.3980729   -4.5093618            0  -0.91315175    5.8873673    4993.7551 
    8000    2.3687087   -4.4898097            0  -0.93763491    5.6774459    5031.7218 
    9000    2.3644579   -4.5093856            0  -0.96358534     5.923704    4988.4978 
   10000    2.4229427   -4.5383564            0  -0.90485105    5.5404344    5030.5875 
Loop time of 2.11207 on 48 procs for 10000 steps with 4000 atoms

Performance: 818153.868 tau/day, 4734.687 timesteps/s
99.6% CPU use with 48 MPI tasks x no OpenMP threads

MPI task timing breakdown:
Section |  min time  |  avg time  |  max time  |%varavg| %total
---------------------------------------------------------------
Pair    | 0.89164    | 0.93756    | 1.0183     |   2.7 | 44.39
Neigh   | 0.17267    | 0.17733    | 0.1874     |   0.7 |  8.40
Comm    | 0.618      | 0.7281     | 0.78073    |   3.7 | 34.47
Output  | 0.00024661 | 0.0002526  | 0.00032017 |   0.0 |  0.01
Modify  | 0.22435    | 0.25447    | 0.28031    |   3.1 | 12.05
Other   |            | 0.01435    |            |       |  0.68

Nlocal:        83.3333 ave          94 max          71 min
Histogram: 1 2 2 9 8 8 9 3 5 1
Nghost:        1407.48 ave        1429 max        1382 min
Histogram: 3 3 7 3 4 6 4 8 4 6
Neighs:        7569.46 ave        8623 max        6225 min
Histogram: 2 3 2 4 8 9 4 6 4 6

Total # of neighbors = 363334
Ave neighs/atom = 90.833500
Neighbor list builds = 902
Dangerous builds = 186

# Equilibrate just above the melting temperature to avoid step fn in T

fix 1 all npt temp 1.25 1.25 0.1 iso 5.68 5.68 0.5 mtk yes tchain 5 pchain 5
run 2000
Per MPI rank memory allocation (min/avg/max) = 3.643 | 3.645 | 3.648 Mbytes
Step Temp E_pair E_mol TotEng Press Volume 
   10000    2.4229427   -4.5383564            0  -0.90485105    5.5404344    5030.5875 
   11000    1.2740883   -5.9962675            0   -4.0856129    5.8594161     4164.378 
   12000     1.249837   -5.9957249            0   -4.1214382    5.7931081    4166.0879 
Loop time of 0.472647 on 48 procs for 2000 steps with 4000 atoms

Performance: 731200.609 tau/day, 4231.485 timesteps/s
99.6% CPU use with 48 MPI tasks x no OpenMP threads

MPI task timing breakdown:
Section |  min time  |  avg time  |  max time  |%varavg| %total
---------------------------------------------------------------
Pair    | 0.20237    | 0.21909    | 0.24234    |   1.8 | 46.35
Neigh   | 0.031198   | 0.032934   | 0.036083   |   0.5 |  6.97
Comm    | 0.14169    | 0.16445    | 0.18111    |   2.5 | 34.79
Output  | 5.2907e-05 | 5.4558e-05 | 7.065e-05  |   0.0 |  0.01
Modify  | 0.046637   | 0.051551   | 0.057109   |   1.3 | 10.91
Other   |            | 0.004573   |            |       |  0.97

Nlocal:        83.3333 ave          93 max          74 min
Histogram: 2 3 4 8 7 11 4 5 2 2
Nghost:        1600.25 ave        1622 max        1577 min
Histogram: 2 1 3 7 12 6 6 6 3 2
Neighs:        9150.52 ave       10572 max        7958 min
Histogram: 3 3 4 8 13 7 3 4 2 1

Total # of neighbors = 439225
Ave neighs/atom = 109.80625
Neighbor list builds = 142
Dangerous builds = 9

#############################
# L I N E A R  Q U E N C H  #
#############################

# Define solid atoms. This closely follows ten Wolde  Ruiz-Montero and Frenkel  Faraday Discuss  1996  104  93-110
# Compute components of the per-atom q6 vector
compute q6 all orientorder/atom degrees 1 6 components 6 nnn NULL cutoff 1.3 # compute the Q6 parameter.
                                                                             # Use all neighbours within 1.3 unit cell.

# get number of connections
compute coord_number all coord/atom orientorder q6 0.5

# An atom is solid if it has 8 or more connections (of a possible 14)
variable is_solid atom c_coord_number>=8
group solid dynamic all var is_solid    # Must be dynamic to update
dynamic group solid defined

# do clustering
compute cluster solid cluster/atom 1.3 # Create a cluster where all atoms within are solid and max 1.3 units from another member

# define chunks one chunk per cluster
compute clus_chunks solid chunk/atom c_cluster nchunk every compress yes  # Says which atoms are in which chunk

# count the size of each chunk
compute size_chunks solid property/chunk clus_chunks count


# Find the maximum entry in the vector of chunk sizes
variable max_n equal max(c_size_chunks)


# Thermo style which includes this variable
# thermo_style custom step temp pe vol v_max_n

thermo ${N}  # Print the thermo information every 100 steps
thermo 1000  

# Reset the npt fix at a lower temperature (below freezing)
fix 1  all npt temp  ${temp} ${temp}  0.1  iso  5.68  5.68  0.5  mtk yes tchain  5  pchain  5
fix 1  all npt temp  0.45 ${temp}  0.1  iso  5.68  5.68  0.5  mtk yes tchain  5  pchain  5
fix 1  all npt temp  0.45 0.45  0.1  iso  5.68  5.68  0.5  mtk yes tchain  5  pchain  5

dump dmp2 all dcd ${N} traj.dcd
dump dmp2 all dcd 1000 traj.dcd


compute msd all msd com yes
variable twopoint equal c_msd[4]/6/(step*dt+1.0e-6)
fix 9 all vector 10 c_msd[4]
variable fit equal slope(f_9)/6/(10*dt)
thermo_style custom step temp pe c_msd[4] v_twopoint v_fit v_max_n

fix 1 all npt temp 1.25 ${temp} 0.1 iso 5.68 5.68 0.5 mtk yes tchain 5 pchain 5
fix 1 all npt temp 1.25 0.45 0.1 iso 5.68 5.68 0.5 mtk yes tchain 5 pchain 5
run 500000 # 5000000  # Run for this many steps
Neighbor list info ...
  update every 1 steps, delay 10 steps, check yes
  max neighbors/atom: 2000, page size: 100000
  master list distance cutoff = 3.8
  ghost atom cutoff = 3.8
  binsize = 1.9, bins = 9 9 9
  4 neighbor lists, perpetual/occasional/extra = 1 3 0
  (1) pair lj/cut, perpetual
      attributes: half, newton on
      pair build: half/bin/atomonly/newton
      stencil: half/bin/3d
      bin: standard
  (2) compute orientorder/atom, occasional
      attributes: full, newton on
      pair build: full/bin/atomonly
      stencil: full/bin/3d
      bin: standard
  (3) compute coord/atom, occasional
      attributes: full, newton on
      pair build: full/bin/atomonly
      stencil: full/bin/3d
      bin: standard
  (4) compute cluster/atom, occasional
      attributes: full, newton on
      pair build: full/bin/atomonly
      stencil: full/bin/3d
      bin: standard
Per MPI rank memory allocation (min/avg/max) = 9.739 | 9.744 | 9.750 Mbytes
Step Temp PotEng c_msd[4] v_twopoint v_fit v_max_n 
   12000     1.249837   -5.9957249            0            0 8.3333333e+20            5 
   13000    1.2485018   -6.0259552   0.56691105  0.003634045  0.046767236            4 
   14000    1.2282895   -5.9932588    1.0783895 0.0064189851  0.044249335            2 
   15000    1.2573609   -5.9774151    1.5517483 0.0086208234  0.042569895            8 
   16000    1.2265709   -6.0272739    2.1019514  0.010947663  0.042618253            2 
   17000    1.2260798   -6.0406401    2.6257218  0.012871185  0.043079113            2 
   18000    1.2296584   -6.0484435    3.1924746  0.014779975  0.043516882            5 
   19000    1.2322234   -6.0282141    3.6773921  0.016128912  0.043722225            4 
   20000    1.2119979   -6.0087342    4.2202551  0.017584396   0.04366032            2 
   21000    1.2317276   -6.0167474    4.8063718  0.019072903  0.043897179            3 
   22000    1.2144953   -6.0302274    5.3208694  0.020154808  0.044089543            2 
   23000    1.2295402   -6.0719236    5.8850189  0.021322532  0.044207322            4 
   24000    1.2473331   -6.0189272    6.3871825  0.022177716  0.044359601            3 
   25000    1.2447802   -6.0474078    6.9550023  0.023183341  0.044378607            7 
   26000    1.2504273   -6.0395587    7.4569034  0.023900331  0.044432978            3 
   27000    1.2191394   -6.0327758    7.9949218  0.024675684  0.044378962            3 
   28000    1.1863106    -6.077615    8.4965157  0.025287249   0.04435657            2 
   29000    1.2042396   -6.0351238    9.0268854  0.025939325  0.044327348            4 
   30000    1.2387243    -6.046127    9.5446644  0.026512956  0.044291629            3 
   31000    1.2371289   -6.0415653    10.073893  0.027080356  0.044258704            8 
   32000     1.229014   -6.0570254    10.480226  0.027292256  0.044194847            2 
   33000    1.2333662   -6.1067643    11.057397   0.02792272  0.044086837            3 
   34000    1.2343811   -6.0727338    11.522764  0.028242067  0.043977713            6 
   35000    1.2257062   -6.0854251    11.953547  0.028460825  0.043827132            3 
   36000    1.2087518   -6.0672839    12.543159  0.029035091  0.043719298            6 
   37000    1.2071872   -6.0949144    13.033379  0.029354456  0.043635453            3 
   38000    1.2045568   -6.0733182    13.618896     0.029866  0.043566502            3 
   39000    1.1933785   -6.0923957    14.004137   0.02992337  0.043456889            5 
   40000    1.2108147   -6.0787064    14.433727  0.030070265   0.04332838            2 
   41000    1.2115445   -6.1218639    14.730244  0.029939521  0.043145321            4 
   42000    1.2095274   -6.1067841    15.106836  0.029973881  0.042889988            3 
   43000    1.1886397   -6.1245799    15.666736  0.030361891  0.042674926            4 
   44000    1.1797725   -6.1222319    16.097869  0.030488387  0.042493987            4 
   45000    1.1999333   -6.0980005    16.564442  0.030674892  0.042323259            2 
   46000    1.1672963   -6.0961544    17.067544  0.030919463  0.042143411            3 
   47000    1.1962903   -6.0988627    17.590207  0.031188311  0.041992498            4 
   48000    1.1938089   -6.0947099    18.281606    0.0317389  0.041909847            5 
   49000    1.2031276   -6.1006088    18.741587  0.031873448  0.041873422            3 
   50000    1.1823362   -6.1126853    19.222567  0.032037612  0.041834541            7 
   51000    1.1657808   -6.1363547    19.673833  0.032146786  0.041785814            2 
   52000    1.1908072   -6.1113241    20.137518  0.032271663  0.041730621            6 
   53000    1.2030498   -6.1310913    20.513771  0.032254357  0.041665639           10 
   54000    1.1875514    -6.145659    20.980972  0.032378043  0.041575948            3 
   55000    1.1940108   -6.1576711    21.484293  0.032551958  0.041495089            5 
   56000    1.1747847   -6.1419298     21.92246  0.032622708  0.041418012            4 
   57000     1.159704   -6.1336231    22.303989   0.03260817  0.041331905            4 
   58000    1.1795532   -6.1340099      22.8358  0.032810058  0.041248367            3 
   59000    1.1924088   -6.1539965    23.249042  0.032837629  0.041167747            6 
   60000    1.1759156   -6.1153951    23.978686   0.03330373  0.041119374            1 
   61000    1.1863964   -6.1557476    24.276188  0.033164192  0.041072813            1 
   62000    1.1948811   -6.1699538     24.82781  0.033370712  0.041019961            7 
   63000    1.1865908   -6.1543569    25.293306  0.033456754  0.040986869            4 
   64000    1.1611662   -6.1938261     25.76517  0.033548398  0.040952928            9 
   65000    1.1662645   -6.1866645    26.264958  0.033673023  0.040909409            8 
   66000    1.1775962   -6.1643194    26.699477   0.03371146  0.040870144            3 
   67000    1.1656886   -6.1755564    27.264866  0.033911525  0.040835488            3 
   68000    1.1889086   -6.1619501    27.637963  0.033870053  0.040794206            2 
   69000    1.1552053   -6.2061856    28.129551  0.033972887  0.040758046            3 
   70000    1.1483164   -6.1953786    28.366223  0.033769313  0.040712064            2 
   71000    1.1804369   -6.1526151    28.775926  0.033774561  0.040650989            2 
   72000     1.164158   -6.2201275    29.169899  0.033761456  0.040576609            3 
   73000    1.1330926   -6.1865611    29.358085  0.033513795  0.040476973            4 
   74000     1.171908    -6.173979    29.926195   0.03370067  0.040378487            4 
   75000    1.1574618   -6.2211634    30.223574  0.033581749  0.040285271            7 
   76000    1.1611733   -6.1989253    30.572656  0.033522649    0.0401874            6 
   77000    1.1481613   -6.2068994    31.018322  0.033569612  0.040085462            3 
   78000    1.1380849     -6.22306    31.505322  0.033659531  0.039987897            4 
   79000    1.1273039   -6.1923641     31.93234  0.033683903  0.039901207            7 
   80000    1.1429409   -6.2272119    32.408243  0.033758587   0.03980928            7 
   81000    1.1557515   -6.2171073    32.874481  0.033821483  0.039718068            4 
   82000    1.1464737   -6.2158097    33.300492  0.033841963  0.039638125            5 
   83000    1.1442252   -6.2393183    33.854212  0.033990173  0.039560878            3 
   84000    1.1274118   -6.1857876    34.230696  0.033959024  0.039491568            6 
   85000    1.1348422   -6.2155362    34.724777  0.034043899  0.039431331            2 
   86000    1.1233435   -6.1688093    35.015208  0.033929465  0.039365763            2 
   87000    1.1263155   -6.2079504    35.646493  0.034144151  0.039298078            2 
   88000    1.1112385   -6.2141874    36.046946  0.034135365  0.039242167            5 
   89000     1.149809   -6.2334419    36.501286  0.034177234  0.039184595            3 
   90000     1.104282   -6.2300842    36.775476  0.034051366  0.039122535            6 
   91000    1.1234301   -6.2602248    37.100846  0.033975134   0.03905624            6 
   92000    1.1055929   -6.2410006    37.585373  0.034044722  0.038989523            7 
   93000    1.1102244   -6.2750878    37.928747  0.033986332   0.03891682            2 
   94000    1.1458873   -6.2067093     38.28875  0.033943927  0.038841436            3 
   95000    1.1453457   -6.2193725     38.71042  0.033956508  0.038772013            2 
   96000    1.1278242   -6.2718443    39.143624   0.03397884  0.038703946            5 
   97000    1.1057006   -6.2682432    39.656185  0.034068888  0.038638371            3 
   98000    1.1235918   -6.2861714    40.011932  0.034023752  0.038585288            4 
   99000    1.1107094   -6.2198915    40.343513  0.033959186    0.0385243            4 
  100000     1.093027   -6.2832717    40.624565  0.033853804  0.038459616            1 
  101000    1.1140119   -6.2777111    41.174218  0.033972127  0.038392974            6 
  102000    1.1037176   -6.2534651      41.4657  0.033877206  0.038325514            3 
  103000    1.1234216   -6.3081409    41.879714  0.033883264  0.038254034            7 
  104000    1.1149731    -6.276652     42.45542  0.034018766   0.03819297            6 
  105000    1.0939713   -6.2757622    42.914833  0.034059391  0.038142975            2 
  106000    1.0977802   -6.2706908    43.111772  0.033892902  0.038083643            5 
  107000    1.1249299   -6.3149728    43.371223  0.033778211  0.038019272            6 
  108000    1.0969781   -6.3057867    43.828567  0.033818339   0.03795315            9 
  109000    1.1132805   -6.2873263    44.210097  0.033799768  0.037888731            4 
  110000    1.0971583   -6.2431811    44.611963  0.033796941  0.037825516            3 
  111000    1.0871612   -6.2875467    45.186939  0.033924129  0.037764646            3 
  112000    1.0998521   -6.3004925    45.347588  0.033740765  0.037705684            2 
  113000    1.0965297   -6.3154825    45.819133  0.033789921  0.037644839            5 
  114000    1.0931172   -6.3227579    46.031378  0.033648668  0.037577465            4 
  115000    1.0865155   -6.3226546    46.440404  0.033652467  0.037509463            2 
  116000    1.0806869   -6.3227335    46.673905  0.033530104  0.037438353            6 
  117000    1.0921083   -6.3148764    46.912507  0.033413467  0.037364048            3 
  118000    1.0611896   -6.2986707    47.238634  0.033360617  0.037286694            5 
  119000    1.0961589   -6.3153595    47.570839  0.033312912  0.037206266            3 
  120000    1.0699409   -6.3013157    47.611607  0.033063616  0.037123004            7 
  121000    1.0630239   -6.2955646    48.116395  0.033138013  0.037036888            3 
  122000    1.0811684    -6.305652    48.741021  0.033293047  0.036951644            4 
  123000    1.0640973   -6.3521643    48.933027  0.033152458  0.036875122            7 
  124000    1.0526026   -6.3411628    49.253958  0.033100778  0.036795884            5 
  125000     1.072702   -6.3626159    49.847475   0.03323165  0.036719118           10 
  126000    1.0584884   -6.3278266    50.026368  0.033086222   0.03664646            8 
  127000    1.0595589   -6.3718539    50.604032  0.033204745  0.036577027            7 
  128000    1.0714205   -6.3260114    50.871404  0.033119403   0.03650801            5 
  129000    1.0647465   -6.3283495    51.364158   0.03318098  0.036437581            8 
  130000    1.0473491   -6.3395069    51.380616  0.032936292  0.036362891            7 
  131000    1.0655378   -6.3591097    51.544348  0.032789026  0.036284491           10 
  132000    1.0682423   -6.3415339    51.872841  0.032748006  0.036200912            3 
  133000    1.0653324   -6.3541939    51.993447  0.032577348  0.036118219            3 
  134000    1.0565366   -6.3778364    52.462327  0.032625825  0.036035744            6 
  135000    1.0719168   -6.3361948    52.866838  0.032633851  0.035951694            2 
  136000    1.0212706    -6.353988    52.752516  0.032323846  0.035862496            4 
  137000    1.0221414   -6.3821983    53.094793  0.032296103   0.03577044            7 
  138000    1.0251592   -6.3995083    53.409291  0.032251987  0.035676757            7 
  139000    1.0561264   -6.3773367    53.455375  0.032047587  0.035582852            4 
  140000    1.0321941   -6.3988506    53.823912  0.032038043  0.035486215            3 
  141000    1.0342411   -6.3967224     54.04709  0.031942724   0.03539372            3 
  142000    1.0182034   -6.3798728    54.625039  0.032056948  0.035301702            6 
  143000     1.038483   -6.3602475    55.054517  0.032083052  0.035212989            4 
  144000     1.007639   -6.4150741    55.204462  0.031947027  0.035126637            4 
  145000    1.0369911   -6.4167622     55.55558  0.031928494  0.035042335            4 
  146000    1.0076765    -6.434361     56.00553  0.031966626  0.034961676            5 
  147000    1.0464279   -6.3728336     56.39516  0.031970045   0.03487921            3 
  148000    1.0558422   -6.4044049    56.636121  0.031889707  0.034798446            8 
  149000    1.0323585    -6.402149    56.704844  0.031714119  0.034710947            5 
  150000    1.0412542   -6.3915981    56.820498  0.031566943  0.034620445            5 
  151000    1.0226883   -6.4615021    56.894734  0.031398859   0.03453027            3 
  152000    1.0286238   -6.4548061    57.050277  0.031277564  0.034438201            6 
  153000    1.0341379   -6.4437496    57.559575  0.031350531   0.03434612            6 
  154000    1.0010146   -6.4370877    57.809932  0.031282431  0.034255284            6 
  155000    1.0036194   -6.4193204    58.159068  0.031268316   0.03416526            4 
  156000    1.0210373   -6.3950409    58.714234  0.031364441  0.034079264            3 
  157000    1.0217025    -6.455701    58.883783  0.031254662  0.033995742            5 
  158000   0.98539614   -6.4482151    59.162044  0.031203609  0.033915242           12 
  159000    1.0084402   -6.4440463      59.5179  0.031193868  0.033834006            5 
  160000    0.9924915   -6.4208084    59.724823  0.031106679  0.033748642            3 
  161000     1.005216   -6.4458593    59.929356  0.031019335  0.033667379            6 
  162000    1.0180446   -6.4286465    60.471226  0.031106598   0.03358743            3 
  163000    1.0014602   -6.4201545    60.850327  0.031109574  0.033510819            4 
  164000     1.000897    -6.441291    61.089461  0.031041393  0.033433429            4 
  165000    1.0064344   -6.4467411    61.529507  0.031075508  0.033357549            5 
  166000    1.0078323   -6.4601563    61.559342  0.030903284  0.033283875            6 
  167000    0.9935287   -6.4688463    62.015115  0.030945666  0.033212131            6 
  168000    1.0035723    -6.475042    62.041277  0.030774443  0.033137178            7 
  169000    0.9965255   -6.4630771    62.196109  0.030668693  0.033059939            5 
  170000     1.013752   -6.4403861    62.481829  0.030628347  0.032979396            5 
  171000    1.0196211   -6.4603325    62.912765  0.030659242  0.032902543           13 
  172000   0.99189999   -6.4949721    63.343564  0.030689711  0.032829164            6 
  173000   0.99858946   -6.4644813    63.638204  0.030654241  0.032755087            7 
  174000   0.99965408    -6.494065     63.67703  0.030496662  0.032684146            3 
  175000   0.98027765   -6.4800089    64.137577  0.030541703  0.032611764            8 
  176000   0.96805238   -6.4622306    64.222565  0.030408412  0.032538486            8 
  177000   0.98041295   -6.4998477    64.614678  0.030421223  0.032466117            3 
  178000   0.98961997   -6.4699244    64.679526  0.030280677  0.032393706            6 
  179000   0.99613359   -6.5067864    64.992358   0.03025715  0.032318673            4 
  180000   0.97287752   -6.4880917     65.22597  0.030197208  0.032245317            8 
  181000   0.99504698   -6.5234504    65.440723  0.030129246  0.032172731            5 
  182000   0.95999914   -6.4961426    65.649148  0.030059134   0.03210012           11 
  183000   0.96178816   -6.5095028    65.750004  0.029940803  0.032026214            5 
  184000   0.98311287   -6.5017672    66.271431  0.030014235  0.031952681            6 
  185000   0.97562756   -6.4981931     66.12031  0.029783923  0.031878427            4 
  186000   0.98156719   -6.5151226    66.305047  0.029706562  0.031802187            4 
  187000   0.96272081   -6.5255609    66.450216  0.029612396  0.031724899            6 
  188000   0.98056874   -6.5300369    66.761577  0.029592897  0.031646593            8 
  189000   0.97300093    -6.512297    66.735503  0.029424825  0.031567178           15 
  190000   0.97272462   -6.5139546    66.969606  0.029372634  0.031486163            5 
  191000   0.95122903    -6.542035    67.329812  0.029376009  0.031406673            8 
  192000   0.94384272   -6.5466404    67.577746  0.029330619  0.031328506            9 
  193000   0.94388449   -6.5483844     67.80965  0.029278778  0.031252146           10 
  194000   0.96419889   -6.5857703    67.929346  0.029179272  0.031173954            4 
  195000   0.97316206   -6.5518145    68.163803   0.02912983  0.031093335            8 
  196000   0.95821226   -6.5730982    68.309445  0.029043132  0.031013374            6 
  197000   0.93627637    -6.547169    68.402538  0.028935084  0.030932866            8 
  198000   0.96306601   -6.5473018    68.487779  0.028824823  0.030851653            6 
  199000   0.95870735    -6.575745    68.492989  0.028682156   0.03076875            8 
  200000   0.93548766   -6.5767631    68.803743  0.028668226   0.03068458            4 
  201000   0.96480649   -6.5710541    69.059617  0.028631682  0.030600725            4 
  202000      0.92193   -6.5836435    68.982006  0.028457923  0.030515741           10 
  203000   0.93889983   -6.5578247     69.21563  0.028413641  0.030429025            5 
  204000   0.95140459   -6.5805679    69.300073  0.028308853  0.030342434            8 
  205000   0.93130718    -6.586962     69.59966  0.028292545  0.030256941            6 
  206000   0.93155395   -6.5556222     69.95562  0.028299199  0.030173867            8 
  207000   0.93344486   -6.5796519    69.854953  0.028121962  0.030091239            3 
  208000   0.91055832   -6.5974571    70.022201  0.028053767  0.030007505            6 
  209000   0.93104369    -6.596107    70.127295  0.027961441  0.029921591           18 
  210000   0.94505051   -6.5850944    70.268156  0.027884189  0.029834843            9 
  211000   0.91514821   -6.6256828    70.315752  0.027770834  0.029747691            7 
  212000   0.91896965   -6.5800141    70.612506  0.027756488  0.029659617            7 
  213000    0.9409161   -6.5861579     70.70179  0.027661107  0.029573755            5 
  214000   0.91921104   -6.5787785    71.133795  0.027700076  0.029487487            7 
  215000    0.9233592   -6.5860382    71.171074  0.027585688  0.029402905           10 
  216000   0.93051748   -6.6249048    71.104799  0.027432407  0.029317841            4 
  217000   0.93760478   -6.6402098    71.236954  0.027356741  0.029232048            4 
  218000     0.931117   -6.6121775    71.701234  0.027408729  0.029146823            6 
  219000   0.92889807   -6.5853322    71.807152  0.027323878  0.029063058            4 
  220000   0.92593814   -6.6028606    71.880433  0.027227437  0.028978598            5 
  221000   0.92419376   -6.6334847    72.091841  0.027183952  0.028894853            8 
  222000   0.92512261   -6.6360331    72.257433  0.027123661  0.028812667            5 
  223000   0.89703172   -6.6621593    72.056222  0.026926839  0.028729555            7 
  224000   0.91605608   -6.6236931     72.40609  0.026936789  0.028644864            6 
  225000   0.91996649   -6.6070958    72.327141   0.02678783   0.02855983           11 
  226000   0.90603365   -6.6568107    72.628571  0.026780446  0.028475885           10 
  227000   0.89613725   -6.6321306    72.826878  0.026735271  0.028392597            4 
  228000   0.90958994   -6.6299836    72.944977  0.026661176  0.028309095            7 
  229000   0.89720495   -6.6717088    73.081966  0.026594602  0.028224561            8 
  230000   0.92590232   -6.6403853     73.25533  0.026541786  0.028142435            5 
  231000   0.88016942   -6.6817778    73.389416  0.026475258   0.02806041           10 
  232000   0.91298338   -6.6836555    73.509882  0.026404412  0.027976955            5 
  233000   0.88847523   -6.6950807    73.506225   0.02628978   0.02789339           10 
  234000    0.8996448   -6.6577093    73.765567  0.026269789  0.027809327            5 
  235000   0.90093889   -6.6786011    73.646949  0.026115939  0.027725504            5 
  236000   0.90698363   -6.6695756    73.730749  0.026034869  0.027642345            4 
  237000    0.8698126    -6.664602    74.157458  0.026075056  0.027558505            5 
  238000   0.89565465   -6.7087374    73.994948  0.025908595  0.027474516            3 
  239000   0.89117892   -6.6796145    73.971524  0.025792024  0.027389416            4 
  240000   0.87156156   -6.6742711    74.199023   0.02576355  0.027305927            3 
  241000   0.87564208   -6.6535826    74.404406  0.025727665  0.027222044            5 
  242000   0.89649582   -6.6465879    74.581868  0.025682461  0.027138839           11 
  243000   0.88782393   -6.6660997    74.674614  0.025608578  0.027056048            5 
  244000   0.88725001   -6.6824067    74.781025  0.025539967   0.02697296            9 
  245000   0.88763312   -6.7148267    74.897489  0.025475336   0.02689018           10 
  246000   0.86969832   -6.6751899    75.145936   0.02545594  0.026808181            5 
  247000   0.87168243   -6.7345799    75.213897  0.025375809  0.026726001            9 
  248000    0.8758436   -6.7205108    75.086848  0.025230796  0.026643742            7 
  249000   0.86588297   -6.7151885    75.434636  0.025245862  0.026561651            3 
  250000   0.86738004   -6.7432122    75.641763  0.025213921  0.026480969            6 
  251000   0.86345657   -6.6900057    75.742616  0.025146951  0.026401228            8 
  252000    0.8605847   -6.7311223    75.820686  0.025072978  0.026321201           10 
  253000   0.85629921   -6.7164752    76.041192  0.025046506  0.026241445            4 
  254000   0.85564944   -6.7116105    75.948585  0.024917515  0.026161896            5 
  255000   0.86900765   -6.7026435    76.203775  0.024903194  0.026082734            4 
  256000   0.85658053   -6.7473104     76.20884  0.024807565  0.026004168           21 
  257000   0.85212915   -6.7328634    76.728789  0.024879633  0.025926905            6 
  258000   0.85781369   -6.7438055    76.808519  0.024808953  0.025850589           23 
  259000   0.87520362   -6.7338973    76.863988  0.024731013  0.025774362           15 
  260000   0.84696936    -6.757927    76.958185  0.024666085  0.025699082            8 
  261000   0.86578915   -6.7385183    77.096694  0.024615803   0.02562362            7 
  262000   0.85416352   -6.7702413     77.32784  0.024595369  0.025548565            8 
  263000   0.84104265   -6.7838648    77.298798  0.024492648  0.025473573           12 
  264000   0.86368551   -6.7695926    77.445493  0.024446178  0.025399154           29 
  265000   0.84426558   -6.7367936    77.780942  0.024459416  0.025325276           12 
  266000   0.83775721   -6.7676635    77.646137  0.024325231  0.025251627           16 
  267000   0.85098909   -6.7575555    77.852232  0.024298449   0.02517862           13 
  268000   0.85836586   -6.7764146    77.942797  0.024235944  0.025105354           12 
  269000   0.83482347   -6.8073962    77.845664  0.024115757  0.025031947            8 
  270000   0.85246471   -6.7922334    78.070804  0.024095927  0.024959053            7 
  271000   0.84867264   -6.7723112    78.049008   0.02400031  0.024885813           12 
  272000   0.84666897   -6.8050627    78.483942  0.024045325   0.02481246            7 
  273000   0.85061512   -6.7757849    78.579245  0.023986339  0.024740341            7 
  274000   0.82171715   -6.7785561    78.548438  0.023889428  0.024668471           10 
  275000   0.83345736   -6.7944569    78.353243  0.023743407  0.024596824           17 
  276000   0.82282668   -6.8147201    78.609109  0.023734634  0.024525588            8 
  277000   0.81526148   -6.7851906    78.868668  0.023727036  0.024454049           15 
  278000   0.81923041   -6.7944738     78.86413  0.023640327  0.024382798           20 
  279000   0.81523882   -6.7679529    79.118915  0.023631695  0.024312157           13 
  280000   0.83746738   -6.7847338    79.067825  0.023532091  0.024242396            8 
  281000   0.81858574   -6.7994476    79.569747  0.023597197   0.02417272           15 
  282000   0.81358671   -6.7943422    79.434178  0.023473457  0.024103881            7 
  283000   0.81246014   -6.8113345    79.631557  0.023448633  0.024035138            9 
  284000   0.81727839   -6.8312097    79.797948  0.023414891  0.023966852            7 
  285000   0.80327195   -6.8356316    79.740274  0.023315869  0.023898179           10 
  286000    0.8138856   -6.8275829    79.892284  0.023278637  0.023829666           12 
  287000   0.84310307   -6.8368946    80.223629  0.023293737  0.023761887            5 
  288000   0.79693155    -6.799824    80.282859  0.023229994  0.023695333           18 
  289000   0.80252471   -6.8387193    80.486008  0.023208191  0.023629683           21 
  290000   0.81283273   -6.8915159    80.569374  0.023152119  0.023565174           33 
  291000   0.81023208   -6.8365038    80.825769  0.023145982  0.023500931           17 
  292000   0.78326773   -6.8357121    80.852131  0.023074238  0.023436704           17 
  293000   0.79949787   -6.8414403    80.841729  0.022992528  0.023372559           15 
  294000   0.81547978   -6.8395564    81.163001  0.023005386  0.023309356           10 
  295000   0.80573042   -6.8579277    81.140234   0.02292097   0.02324577           10 
  296000   0.78494249   -6.8711087    81.425742  0.022923914  0.023182188            9 
  297000   0.79152444   -6.8702094    81.426686  0.022846994  0.023119222           10 
  298000   0.81443833   -6.8594598    81.509897  0.022793595  0.023056596           13 
  299000   0.77584972     -6.85716    81.518398  0.022719732  0.022994008           12 
  300000   0.80465028   -6.8696993    81.529949  0.022647208  0.022931471           16 
  301000    0.7771567   -6.8744726    81.717561   0.02262391  0.022868995            8 
  302000   0.79490655   -6.8977174    81.736579  0.022554244  0.022806673           26 
  303000   0.77391871   -6.9024971    81.671526  0.022461916  0.022744462           34 
  304000   0.78479973   -6.8971986    82.021521   0.02248397  0.022682343            7 
  305000    0.7981339   -6.8830612     82.10734    0.0224337  0.022620655           11 
  306000   0.78669687   -6.8926867    82.152811   0.02237277   0.02255937           19 
  307000   0.76400678   -6.8736824    82.422531  0.022373108   0.02249829           15 
  308000   0.77866207   -6.9178282    82.332257  0.022276043  0.022436832           22 
  309000   0.77623336    -6.892633    82.295927  0.022194155  0.022375162           22 
  310000   0.79436589   -6.9116735     82.45654  0.022165737   0.02231395           13 
  311000   0.76461015   -6.9015579    82.448395  0.022092281   0.02225268           14 
  312000   0.77383327   -6.9123658     82.52205  0.022041146   0.02219171           19 
  313000   0.75858643   -6.9618101    82.496245  0.021963856  0.022130637           32 
  314000   0.76159914   -6.9074413    82.636658  0.021931173  0.022069465           22 
  315000   0.76165768   -6.9247051    82.732788  0.021886981  0.022008517           21 
  316000   0.76083166   -6.9357243    82.730055  0.021816998  0.021948039            9 
  317000   0.75364426    -6.946705    82.890265  0.021790291  0.021887423            6 
  318000   0.75875387   -6.8945281    82.866658  0.021715581  0.021826755            9 
  319000   0.77549025   -6.9368926    82.887554  0.021652966  0.021766082           14 
  320000   0.75557244   -6.9205345    83.154201   0.02165474  0.021706006           11 
  321000   0.75164141   -6.9404228    83.042989  0.021558408  0.021645609           13 
  322000   0.75223502    -6.953187    83.059562  0.021495746  0.021584448            8 
  323000   0.77785496   -6.9595646    82.923107   0.02139399  0.021523687           13 
  324000   0.73596496   -6.9418818    83.190783  0.021396806  0.021463435           11 
  325000   0.73875216   -6.9721693    83.106677  0.021309404  0.021403245           12 
  326000   0.75494429   -6.9637353    83.266417  0.021284871  0.021342857           12 
  327000   0.75458412   -6.9754408    83.041092  0.021162358  0.021282444           12 
  328000    0.7447611   -6.9606432    82.969612  0.021079678  0.021221764           11 
  329000   0.73949577   -6.9495266    83.254905  0.021087869  0.021160593           17 
  330000   0.74011726   -6.9765835    83.108046   0.02098688  0.021099702           23 
  331000   0.73935755   -6.9752325    83.238675  0.020956363  0.021038692           25 
  332000   0.73218493   -6.9973559    83.208798  0.020885742  0.020977539           29 
  333000   0.73824692   -6.9891244    83.194923   0.02081955  0.020916352           14 
  334000   0.73657853   -6.9908879    82.951821  0.020696562  0.020855554           41 
  335000   0.73677468   -6.9601978    83.282417  0.020717019  0.020794709           16 
  336000   0.73252763   -7.0034518    83.389119  0.020681825  0.020734063           29 
  337000    0.7377037   -7.0104528    83.407864   0.02062509  0.020673864           28 
  338000   0.73377903   -6.9616172    83.642927  0.020622023  0.020614157           17 
  339000   0.72811435   -7.0184329    83.422469  0.020506998  0.020554381           26 
  340000   0.71800629   -7.0002067    83.593594  0.020488626   0.02049465           43 
  341000    0.7298495   -6.9967121    83.559582   0.02042023  0.020435141           22 
  342000   0.73403048   -6.9959674    83.719617  0.020399517  0.020375979           22 
  343000   0.72986474   -6.9969828    83.799443  0.020359437  0.020316995           21 
  344000   0.73395252   -7.0197171    83.591095  0.020249781  0.020257858           19 
  345000   0.73080831   -7.0370262    83.881534   0.02026124  0.020199169           23 
  346000   0.70595794   -7.0072235    84.077617  0.020249908   0.02014104           11 
  347000   0.70680432   -7.0171932    84.076733  0.020191338  0.020083441            9 
  348000   0.71022798   -7.0104761    83.935207  0.020099427  0.020025841           11 
  349000   0.69923286   -7.0136339    84.069934  0.020074005  0.019967979           19 
  350000   0.71451233   -7.0443539    84.071462  0.020017015  0.019910547           30 
  351000   0.72670478   -7.0505842    84.104785  0.019967898  0.019853124           30 
  352000   0.70873563   -7.0504475    84.211424  0.019936417  0.019795879           28 
  353000   0.71460359   -7.0344608    84.280416  0.019896227   0.01973847           22 
  354000   0.69160499   -7.0566331    84.371258  0.019861407  0.019681198           51 
  355000   0.70680972   -7.0751778    84.444449  0.019822641  0.019624595           51 
  356000   0.69518851   -7.0518276    84.491136  0.019777888  0.019568357           42 
  357000   0.68465492   -7.0424393    84.500811  0.019724746  0.019512211           42 
  358000   0.69780972   -7.0765756    84.446148  0.019656924  0.019456175           66 
  359000    0.6909726   -7.0709977    84.611028  0.019640443  0.019400045           65 
  360000   0.69613492   -7.0720921    84.699284  0.019606316  0.019344372           57 
  361000   0.70117923   -7.0835305    84.477288  0.019500759  0.019288592           95 
  362000   0.69561087   -7.0627751    84.666279  0.019490396  0.019233024           50 
  363000   0.67317035   -7.0843797    84.800779   0.01946758  0.019177997           71 
  364000   0.69049232   -7.0908998    84.803757   0.01941478  0.019122743          132 
  365000   0.67916135   -7.0949608    84.710406  0.019340275  0.019067934           42 
  366000   0.69368301   -7.0970912    84.724816  0.019290714    0.0190129           41 
  367000   0.68695575   -7.0966823     84.60084      0.01921  0.018958178           40 
  368000   0.68089362   -7.1117899    84.821306  0.019207723  0.018903246           44 
  369000   0.65613642   -7.0964387    84.947781  0.019184232   0.01884859           39 
  370000   0.66765974   -7.1089309    84.785773  0.019095895  0.018794035           60 
  371000    0.6738796   -7.1024448    85.009193  0.019094608  0.018739527           48 
  372000   0.65979519    -7.124939    84.895786  0.019017873  0.018685219           69 
  373000   0.67906424   -7.1102303    85.167602  0.019027614  0.018631173           52 
  374000   0.66689042    -7.112573     84.86723  0.018909811  0.018577181           41 
  375000   0.66602778   -7.1361836     84.94966  0.018877702  0.018522925           55 
  376000   0.67594191   -7.0965453    85.159505  0.018874004  0.018468778           50 
  377000   0.66651353   -7.1325439     84.96501  0.018780948  0.018415301          105 
  378000   0.67552049    -7.114038    85.161338  0.018774545  0.018362027          102 
  379000   0.65333217   -7.1336618    85.024683  0.018694961  0.018308639           45 
  380000   0.65374722    -7.156855    85.011074  0.018642779    0.0182553          114 
  381000   0.65354324   -7.1385691     85.09294  0.018611754  0.018201877          143 
  382000   0.64744862   -7.1502948    84.936827  0.018528976   0.01814861           99 
  383000   0.65878132   -7.1464034    85.125907  0.018521738  0.018095684           55 
  384000   0.65690251   -7.1564958    85.254097  0.018501323  0.018043147           38 
  385000   0.64748163   -7.1460041    85.334954  0.018470769  0.017990758           84 
  386000    0.6467699   -7.1738458     85.04604  0.018360544  0.017938292           87 
  387000   0.65619682   -7.1596548    85.091759  0.018322945  0.017885766           95 
  388000   0.65736735   -7.1728787    85.151162   0.01828848  0.017833405           91 
  389000   0.65682142   -7.1811848    85.090865  0.018228549  0.017780888           82 
  390000   0.64718593   -7.1912478    85.014606  0.018165514   0.01772839           63 
  391000   0.64010056   -7.1988775    84.897689  0.018094137  0.017675891           65 
  392000   0.63876555   -7.2135431    84.908392  0.018050253  0.017623277          129 
  393000   0.62812492   -7.1885016    85.001239  0.018024012  0.017571113           72 
  394000   0.62613271   -7.1952794    84.854098  0.017947144  0.017519003          127 
  395000   0.62425665   -7.1925801     85.04614  0.017942224  0.017466989           58 
  396000   0.64003699   -7.1883211    85.098114  0.017907852  0.017415256          158 
  397000   0.63399075   -7.1866148    85.120782  0.017867503  0.017363652          116 
  398000    0.6336012    -7.205513    85.150307  0.017828791   0.01731205           76 
  399000   0.62696121   -7.2147378    85.220224   0.01779871  0.017260551          147 
  400000   0.62194198   -7.2053424    85.081704  0.017725355  0.017209086           61 
  401000   0.63554988   -7.2075235    85.098343   0.01768461  0.017157824          104 
  402000   0.61613993   -7.2216412    84.962645  0.017612489  0.017106494           74 
  403000   0.62737731   -7.2118039    85.048684  0.017586576  0.017055487          319 
  404000   0.63310191   -7.2158821    85.163437  0.017566716  0.017004419          384 
  405000   0.62515208   -7.2553562    85.045505  0.017499075  0.016953577          420 
  406000   0.63046564   -7.2558094    84.957814  0.017437975  0.016902507          287 
  407000   0.62294139   -7.2491532    84.833459  0.017369668  0.016851633          453 
  408000   0.61533485   -7.2144195    85.055361  0.017372419  0.016800891          426 
  409000   0.60822985   -7.2397704    85.140058    0.0173472   0.01675021          373 
  410000   0.60841256   -7.2539017    84.913027  0.017258745  0.016699545          483 
  411000   0.62108796   -7.2539382    84.769631  0.017187679  0.016648889          479 
  412000   0.59977156   -7.2496082    84.949859  0.017182415  0.016598311          443 
  413000   0.60863462   -7.2604825    84.790358  0.017108628  0.016547761          497 
  414000   0.60882985     -7.26671    84.857053  0.017080727  0.016497303          490 
  415000   0.61924927   -7.2850126    84.737458  0.017015554  0.016446971          496 
  416000   0.59408331   -7.2748059    84.881054  0.017003416  0.016396833          470 
  417000   0.60271053   -7.2603898    84.867046  0.016959841  0.016346695          504 
  418000   0.59923466   -7.2604204    84.835859   0.01691305   0.01629667          438 
  419000   0.59082925    -7.278682    84.784451   0.01686246   0.01624673          485 
  420000   0.59375119    -7.302026    84.776809  0.016820795  0.016196801          544 
  421000   0.58442425   -7.2940897    84.667208  0.016759147  0.016147054          436 
  422000   0.59098393   -7.3010733    84.918069  0.016768971  0.016097496          489 
  423000   0.58930632   -7.2955894    84.927519   0.01673119    0.0160481          588 
  424000     0.604363    -7.291468    84.625547   0.01663238  0.015998753          487 
  425000    0.5836367   -7.3076135     84.73586  0.016614874  0.015949447          418 
  426000    0.5857197   -7.2930107    84.734371  0.016575581  0.015900407          588 
  427000   0.57877395   -7.3113614    84.716269   0.01653323  0.015851439          648 
  428000   0.57727288   -7.2725269    84.614401  0.016474767  0.015802455          570 
  429000   0.58035394    -7.309001    84.743161  0.016461375  0.015753602          608 
  430000   0.58185399   -7.3071847    84.767617  0.016427833  0.015705084          503 
  431000   0.58119644   -7.3255472    84.635113  0.016364098  0.015656719          557 
  432000   0.58409638   -7.3128487    84.560297  0.016311786  0.015608404          493 
  433000   0.58420999   -7.3239545    84.491024  0.016260782  0.015560075          471 
  434000   0.57622493   -7.3285738    84.508442  0.016226659  0.015511913          597 
  435000   0.57739523   -7.3255682    84.505705  0.016188832  0.015463808          526 
  436000   0.57938015   -7.3146955    84.565109  0.016163056  0.015415918          602 
  437000   0.56719563   -7.3577576    84.615769   0.01613573  0.015368226          457 
  438000   0.56720317   -7.3581202    84.513842  0.016079498  0.015320486          654 
  439000   0.56297125   -7.3409962     84.48473  0.016037344  0.015273017          593 
  440000    0.5690396   -7.3415446    84.624414  0.016027351  0.015225719          591 
  441000    0.5486752   -7.3490243    84.554086  0.015977718   0.01517857          569 
  442000   0.56584138    -7.356226    84.404333  0.015913336  0.015131477          648 
  443000   0.56886977   -7.3592829    84.700349  0.015933098  0.015084669          649 
  444000   0.55345447   -7.3721908    84.525588  0.015864412  0.015037999          616 
  445000   0.55819352   -7.3669777    84.547072  0.015832785  0.014991402          680 
  446000   0.55211865   -7.3640486    84.548476  0.015797548  0.014944885          499 
  447000   0.54697993   -7.3742456    84.390937  0.015732837  0.014898496          601 
  448000   0.55897664   -7.3725002     84.57715  0.015732357  0.014852224          541 
  449000   0.55287862   -7.3757684     84.41641  0.015667485   0.01480613          535 
  450000   0.56214516    -7.386564    84.571185  0.015661331  0.014760109          629 
  451000   0.54165718   -7.3698091    84.504869  0.015614351  0.014714305          635 
  452000   0.54696086   -7.3856967    84.395436   0.01555963  0.014668551          565 
  453000   0.54647184   -7.3980977    84.435797  0.015532707  0.014623011          672 
  454000   0.54445742   -7.3981707     84.43474    0.0154983  0.014577489          726 
  455000   0.53595529   -7.3831107    84.337245  0.015446382  0.014532133          697 
  456000   0.52265223   -7.3988874    84.448251  0.015432794  0.014487035          757 
  457000   0.53486525      -7.3803    84.360392  0.015383004  0.014441965          817 
  458000   0.52948139   -7.4085444    84.470111   0.01536938  0.014397308          754 
  459000   0.52090188   -7.3959391    84.441802  0.015330756  0.014352707          726 
  460000   0.52450174   -7.4104295    84.472444  0.015302979  0.014308266          750 
  461000   0.53672215   -7.4207019    84.329055  0.015243864  0.014263873          790 
  462000    0.5384647   -7.4156587    84.340746  0.015212977  0.014219671          751 
  463000   0.52454331   -7.4113794    84.280244   0.01516923  0.014175636          768 
  464000   0.53015839   -7.4041114    84.262059  0.015133272  0.014131599          768 
  465000   0.51582033   -7.4030176    84.230045   0.01509499  0.014087806          738 
  466000   0.51944161   -7.4298528    84.362406  0.015086267  0.014044057          789 
  467000   0.52781964   -7.4215794     84.36015   0.01505356  0.014000621          803 
  468000   0.51703098   -7.4018856    84.252076   0.01500215  0.013957288          740 
  469000   0.53180532   -7.4420902    84.223286  0.014965047  0.013914045          778 
  470000   0.52418666   -7.4231545    84.214325  0.014931618  0.013870903          754 
  471000   0.51017149    -7.430806    84.191553  0.014895887  0.013827909          801 
  472000   0.51366587   -7.4328835    84.191352  0.014864292  0.013785073          768 
  473000   0.50287672   -7.4119376    84.350859  0.014860969  0.013742425          739 
  474000    0.5135874   -7.4284628    84.345111  0.014828606  0.013700012          712 
  475000   0.51959996    -7.443626    84.221556  0.014775712  0.013657708          736 
  476000   0.50252774   -7.4413848    84.392502  0.014774598  0.013615528          794 
  477000    0.4998726   -7.4441156    84.261692  0.014720771   0.01357352          757 
  478000   0.50766515   -7.4444052    84.200333  0.014679277  0.013531471          758 
  479000   0.49493549   -7.4617452    84.237832  0.014655155  0.013489654          739 
  480000   0.49242544   -7.4477653    84.252413  0.014627155  0.013447954          731 
  481000   0.50825638   -7.4607727    84.142504  0.014577703   0.01340643          706 
  482000   0.49838759   -7.4480492    84.081244  0.014536868  0.013364992          682 
  483000   0.49667828   -7.4664769    84.188792  0.014525326  0.013323741          735 
  484000   0.49318679   -7.4544431    84.170296  0.014492131   0.01328263          743 
  485000   0.49333342   -7.4541891    83.940735  0.014422807  0.013241599          788 
  486000   0.50311547   -7.4799578    84.166039  0.014431762  0.013200754          819 
  487000   0.48812638   -7.4608256    83.982299  0.014370688  0.013160048          719 
  488000   0.48990512   -7.4524164    84.105264  0.014362238   0.01311947          687 
  489000   0.48819821   -7.4876386     83.99997  0.014314923  0.013078995          821 
  490000   0.48133151   -7.4580613    84.045397  0.014293435   0.01303862          768 
  491000   0.48624546    -7.464861    83.861508  0.014233114  0.012998387          786 
  492000   0.49274508   -7.4681342    84.066345   0.01423888  0.012958331          772 
  493000   0.47502031   -7.4550733    83.933158  0.014187484  0.012918498          730 
  494000   0.47885195   -7.4710689    83.894991  0.014152326  0.012878738          813 
  495000   0.48227503   -7.4789344    83.977671  0.014137655  0.012839095          813 
  496000   0.46975636   -7.4944605    83.982749  0.014110005  0.012799577          793 
  497000   0.49682948   -7.4839642    83.945427  0.014075357  0.012760257          793 
  498000   0.47081931   -7.4991629    84.071536  0.014068195  0.012721085          828 
  499000   0.46935657   -7.4867021    84.002734  0.014028513  0.012682146          807 
  500000   0.46480063   -7.4976515    83.885645  0.013980941  0.012643285          859 
  501000   0.45557625   -7.5073745    84.143929  0.013995996   0.01260464          746 
  502000   0.45498885   -7.4909871    84.015505  0.013946797  0.012566181          876 
  503000   0.46181038   -7.5127227    83.892351  0.013898666  0.012527785          808 
  504000   0.46974611   -7.5027433     83.87597  0.013868381  0.012489504          724 
  505000   0.45911362   -7.5079494    83.945961  0.013852469    0.0124513          827 
  506000   0.45183283   -7.5047033    83.986245  0.013831727  0.012413357          865 
  507000   0.45945749   -7.5109176    83.873526  0.013785918  0.012375516          852 
  508000    0.4529513   -7.5109598     83.90384  0.013763753   0.01233783          818 
  509000   0.46435318   -7.5238293    83.900055  0.013736093  0.012300263          887 
  510000   0.44729945   -7.5226775    83.803751  0.013693423  0.012262798          831 
  511000   0.44496607   -7.5227023    83.856774  0.013675273  0.012225405          809 
  512000   0.44704227   -7.5388254    83.755153  0.013632024  0.012188122          775 
Loop time of 1073.37 on 48 procs for 500000 steps with 4000 atoms

Performance: 80494.232 tau/day, 465.823 timesteps/s
99.4% CPU use with 48 MPI tasks x no OpenMP threads

MPI task timing breakdown:
Section |  min time  |  avg time  |  max time  |%varavg| %total
---------------------------------------------------------------
Pair    | 65.264     | 68.897     | 72.846     |  18.2 |  6.42
Neigh   | 6.649      | 6.8019     | 7.16       |   3.5 |  0.63
Comm    | 57.566     | 62.006     | 67.016     |  28.2 |  5.78
Output  | 0.85379    | 0.85429    | 0.86434    |   0.2 |  0.08
Modify  | 915.55     | 921.88     | 926.65     |   9.9 | 85.89
Other   |            | 12.93      |            |       |  1.20

Nlocal:        83.3333 ave          91 max          75 min
Histogram: 2 2 2 10 6 9 5 6 4 2
Nghost:        1753.42 ave        1772 max        1735 min
Histogram: 2 6 3 7 5 7 6 7 3 2
Neighs:        10673.6 ave       11919 max        9596 min
Histogram: 2 3 7 10 7 4 6 5 3 1
FullNghs:      21346.9 ave       23587 max       19044 min
Histogram: 2 1 4 10 9 5 7 4 5 1

Total # of neighbors = 1024649
Ave neighs/atom = 256.16225
Neighbor list builds = 27001
Dangerous builds = 0

#clear
#
#next RN
#
#jump SELF
Total wall time: 0:17:56
