
units lj                  # Use reduced LJ style units
atom_style atomic         # Uncharged point particles
atom_modify map hash      # Needed for indexing of clusters etc
                          # Used to be able to find where atoms are in relation to each other.

lattice fcc 1.0 spacing 1 1 1
Lattice spacing in x,y,z = 1.5874011 1.5874011 1.5874011
region box block 0 10 0 10 0 10 units lattice
create_box 2 box
Created orthogonal box = (0.0000000 0.0000000 0.0000000) to (15.874011 15.874011 15.874011)
  3 by 4 by 4 MPI processor grid
create_atoms 1 box
Created 4000 atoms
  using lattice units in orthogonal box = (0.0000000 0.0000000 0.0000000) to (15.874011 15.874011 15.874011)
  create_atoms CPU = 0.002 seconds
set type 1 type/fraction 2 0.08 78393
Setting atom values ...
  344 settings made for type/fraction
mass 1 1.0
mass 2 1.0
pair_style lj/cut  3.5
pair_modify tail  yes
pair_coeff 1  1  1.0  1.0   # Intearaction between 1 and 1 set with epsilon = 1 and sigma = 1
pair_coeff 1  2  1.5  0.8
pair_coeff 2  2  0.5  0.88

write_data data.0
System init for write_data ...
Neighbor list info ...
  update every 1 steps, delay 10 steps, check yes
  max neighbors/atom: 2000, page size: 100000
  master list distance cutoff = 3.8
  ghost atom cutoff = 3.8
  binsize = 1.9, bins = 9 9 9
  1 neighbor lists, perpetual/occasional/extra = 1 0 0
  (1) pair lj/cut, perpetual
      attributes: half, newton on
      pair build: half/bin/atomonly/newton
      stencil: half/bin/3d
      bin: standard
WARNING: Not all mixed pair coeffs generated from mixing. Use write_data with 'pair ij' option to store all pair coeffs. (../write_data.cpp:312)


#############################
#   M E L T   S Y S T E M   #
#############################

velocity all create 2.4 5300450 mom yes dist gaussian # Assign velocities
                                                    # Temperature 2.4, random number seed, zero linear momentum
                                                                                # Gaussian distribution

timestep 0.002   # simulation timestep
thermo 1000       # output thermodynamic data every 1000 steps bf 100

# Define a fix  in this case with index 1 applied to all
# particles in the simulation. This fix is for simulations
# in the anisotropic NPT ensemble. Note that we use the MTK
# correction.
fix 1 all npt temp 2.4 2.4 0.1 iso 5.68 5.68 0.5 mtk yes tchain 5 pchain 5 # Use NPT ensemble
                                                                         # Set temperature and pressure and damping
                                                                         # Numbers of thermostats in chain and in barostat
run 10000          # run for 10000 steps
Per MPI rank memory allocation (min/avg/max) = 3.642 | 3.644 | 3.648 Mbytes
Step Temp E_pair E_mol TotEng Press Volume 
       0          2.4   -7.8205278            0   -4.2214278   -2.8943486         4000 
    1000    2.4138912   -4.5846394            0  -0.96470783    5.7807077    4893.6821 
    2000    2.3546751   -4.5160771            0  -0.98494745    5.8081513    4920.6873 
    3000    2.4106798   -4.5703391            0  -0.95522339    5.5778532    4916.1634 
    4000    2.4224423   -4.5359802            0  -0.90322515    5.7965242    4913.6155 
    5000    2.3844731   -4.5623585            0  -0.98654311    5.8551895     4887.891 
    6000    2.3967913   -4.5442829            0  -0.94999481    5.6014564    4925.0271 
    7000    2.3269355   -4.5976814            0   -1.1081507    5.5552625    4893.2143 
    8000    2.3902194   -4.5938767            0   -1.0094439    5.5234525    4913.8206 
    9000    2.3723064   -4.5400299            0  -0.98245993    5.5631415    4940.4284 
   10000      2.42287   -4.5669618            0  -0.93356538    5.5010057    4929.4073 
Loop time of 2.18637 on 48 procs for 10000 steps with 4000 atoms

Performance: 790349.580 tau/day, 4573.782 timesteps/s
99.6% CPU use with 48 MPI tasks x no OpenMP threads

MPI task timing breakdown:
Section |  min time  |  avg time  |  max time  |%varavg| %total
---------------------------------------------------------------
Pair    | 0.9041     | 0.95077    | 1.0149     |   2.9 | 43.49
Neigh   | 0.18907    | 0.19564    | 0.21092    |   1.0 |  8.95
Comm    | 0.69881    | 0.76604    | 0.82914    |   3.8 | 35.04
Output  | 0.0002463  | 0.00025212 | 0.00040007 |   0.0 |  0.01
Modify  | 0.21391    | 0.25912    | 0.30532    |   5.2 | 11.85
Other   |            | 0.01455    |            |       |  0.67

Nlocal:        83.3333 ave          93 max          74 min
Histogram: 1 3 6 6 10 7 6 4 4 1
Nghost:        1424.73 ave        1447 max        1390 min
Histogram: 1 0 1 2 8 15 5 9 4 3
Neighs:        7730.29 ave        8853 max        6726 min
Histogram: 2 2 6 10 7 5 8 3 4 1

Total # of neighbors = 371054
Ave neighs/atom = 92.763500
Neighbor list builds = 902
Dangerous builds = 200

# Equilibrate just above the melting temperature to avoid step fn in T

fix 1 all npt temp 1.25 1.25 0.1 iso 5.68 5.68 0.5 mtk yes tchain 5 pchain 5
run 2000
Per MPI rank memory allocation (min/avg/max) = 3.642 | 3.644 | 3.648 Mbytes
Step Temp E_pair E_mol TotEng Press Volume 
   10000      2.42287   -4.5669618            0  -0.93356538    5.5010057    4929.4073 
   11000    1.2693052   -6.1699235            0   -4.2664417    5.6500349     4042.395 
   12000    1.2605747   -6.1022533            0    -4.211864    5.8556436    4050.0458 
Loop time of 0.47127 on 48 procs for 2000 steps with 4000 atoms

Performance: 733338.348 tau/day, 4243.856 timesteps/s
99.7% CPU use with 48 MPI tasks x no OpenMP threads

MPI task timing breakdown:
Section |  min time  |  avg time  |  max time  |%varavg| %total
---------------------------------------------------------------
Pair    | 0.20849    | 0.22137    | 0.24829    |   1.5 | 46.97
Neigh   | 0.031907   | 0.033342   | 0.037095   |   0.5 |  7.07
Comm    | 0.14407    | 0.16203    | 0.18081    |   2.3 | 34.38
Output  | 5.3433e-05 | 5.4634e-05 | 6.9771e-05 |   0.0 |  0.01
Modify  | 0.037481   | 0.050152   | 0.063662   |   3.4 | 10.64
Other   |            | 0.00433    |            |       |  0.92

Nlocal:        83.3333 ave          90 max          74 min
Histogram: 2 3 1 2 3 10 15 2 8 2
Nghost:        1628.38 ave        1656 max        1599 min
Histogram: 3 4 3 5 12 3 1 10 2 5
Neighs:        9421.35 ave       10316 max        8189 min
Histogram: 3 2 2 3 5 7 10 9 3 4

Total # of neighbors = 452225
Ave neighs/atom = 113.05625
Neighbor list builds = 144
Dangerous builds = 8

#############################
# L I N E A R  Q U E N C H  #
#############################

# Define solid atoms. This closely follows ten Wolde  Ruiz-Montero and Frenkel  Faraday Discuss  1996  104  93-110
# Compute components of the per-atom q6 vector
compute q6 all orientorder/atom degrees 1 6 components 6 nnn NULL cutoff 1.3 # compute the Q6 parameter.
                                                                             # Use all neighbours within 1.3 unit cell.

# get number of connections
compute coord_number all coord/atom orientorder q6 0.5

# An atom is solid if it has 8 or more connections (of a possible 14)
variable is_solid atom c_coord_number>=8
group solid dynamic all var is_solid    # Must be dynamic to update
dynamic group solid defined

# do clustering
compute cluster solid cluster/atom 1.3 # Create a cluster where all atoms within are solid and max 1.3 units from another member

# define chunks one chunk per cluster
compute clus_chunks solid chunk/atom c_cluster nchunk every compress yes  # Says which atoms are in which chunk

# count the size of each chunk
compute size_chunks solid property/chunk clus_chunks count


# Find the maximum entry in the vector of chunk sizes
variable max_n equal max(c_size_chunks)


# Thermo style which includes this variable
# thermo_style custom step temp pe vol v_max_n

thermo ${N}  # Print the thermo information every 100 steps
thermo 1000  

# Reset the npt fix at a lower temperature (below freezing)
fix 1  all npt temp  ${temp} ${temp}  0.1  iso  5.68  5.68  0.5  mtk yes tchain  5  pchain  5
fix 1  all npt temp  0.45 ${temp}  0.1  iso  5.68  5.68  0.5  mtk yes tchain  5  pchain  5
fix 1  all npt temp  0.45 0.45  0.1  iso  5.68  5.68  0.5  mtk yes tchain  5  pchain  5

dump dmp2 all dcd ${N} traj.dcd
dump dmp2 all dcd 1000 traj.dcd


compute msd all msd com yes
variable twopoint equal c_msd[4]/6/(step*dt+1.0e-6)
fix 9 all vector 10 c_msd[4]
variable fit equal slope(f_9)/6/(10*dt)
thermo_style custom step temp pe c_msd[4] v_twopoint v_fit v_max_n

fix 1 all npt temp 1.25 ${temp} 0.1 iso 5.68 5.68 0.5 mtk yes tchain 5 pchain 5
fix 1 all npt temp 1.25 0.45 0.1 iso 5.68 5.68 0.5 mtk yes tchain 5 pchain 5
run 5000000 # 5000000  # Run for this many steps
Neighbor list info ...
  update every 1 steps, delay 10 steps, check yes
  max neighbors/atom: 2000, page size: 100000
  master list distance cutoff = 3.8
  ghost atom cutoff = 3.8
  binsize = 1.9, bins = 9 9 9
  4 neighbor lists, perpetual/occasional/extra = 1 3 0
  (1) pair lj/cut, perpetual
      attributes: half, newton on
      pair build: half/bin/atomonly/newton
      stencil: half/bin/3d
      bin: standard
  (2) compute orientorder/atom, occasional
      attributes: full, newton on
      pair build: full/bin/atomonly
      stencil: full/bin/3d
      bin: standard
  (3) compute coord/atom, occasional
      attributes: full, newton on
      pair build: full/bin/atomonly
      stencil: full/bin/3d
      bin: standard
  (4) compute cluster/atom, occasional
      attributes: full, newton on
      pair build: full/bin/atomonly
      stencil: full/bin/3d
      bin: standard
Per MPI rank memory allocation (min/avg/max) = 9.745 | 9.751 | 9.757 Mbytes
Step Temp PotEng c_msd[4] v_twopoint v_fit v_max_n 
   12000    1.2605747   -6.1022533 1.1519341e-30 7.9995423e-33 8.3333333e+20            2 
   13000    1.2447126   -6.1138624   0.57722927 0.0037001875  0.047210352            3 
   14000    1.2446898   -6.1395973    1.1050425 0.0065776334  0.045979808            3 
   15000    1.2451544   -6.1715214     1.680672 0.0093370666  0.045381273            6 
   16000    1.2287099   -6.1220747     2.241812  0.011676104  0.045967771            3 
   17000    1.2429961   -6.1324429    2.7613696  0.013536125  0.046177164            3 
   18000    1.2422716   -6.1124751    3.3821596  0.015658146   0.04612512            3 
   19000    1.2764261   -6.1209979    3.8786387  0.017011573  0.046540755            2 
   20000    1.2668919   -6.1554928    4.4531712   0.01855488  0.046265827            2 
   21000    1.2408518   -6.1567109    5.0843013  0.020175798  0.046442092            1 
   22000    1.2596144   -6.1596924     5.614549  0.021267231   0.04675375            2 
   23000    1.2350643   -6.1363176    6.1563693  0.022305685  0.046820109            2 
   24000    1.2379395   -6.1845336    6.7143665  0.023313772  0.046802995            3 
   25000    1.2101273   -6.1482084    7.2280496  0.024093498  0.046727926            2 
   26000    1.2534332   -6.1387562    7.7599688  0.024871694  0.046544587            3 
   27000     1.241403   -6.1542262    8.2486232  0.025458713  0.046307463            3 
   28000    1.2449361   -6.1260853    8.8511139  0.026342601  0.046147731            2 
   29000    1.2288176   -6.1128623    9.3880811  0.026977244  0.046085333            2 
   30000    1.2703371    -6.147267    10.027947  0.027855408  0.046062547            5 
   31000    1.2379088   -6.1445476    10.567405  0.028407001  0.046076645            3 
   32000     1.238266   -6.1398415    11.302529  0.029433669   0.04622158            2 
   33000    1.2337869   -6.1291262    11.942986  0.030159056  0.046459216            2 
   34000     1.256492   -6.1366711    12.516279  0.030677154   0.04670479            1 
   35000    1.2578884    -6.155739    12.987634  0.030922938  0.046861897            3 
   36000    1.2430268   -6.1784581    13.492483  0.031232598  0.046914431            4 
   37000    1.2347007    -6.149242    14.078804  0.031709017  0.046914718            2 
   38000    1.2500177   -6.1224078    14.656536  0.032141525   0.04696942            2 
   39000    1.2567776   -6.1361928    15.080831  0.032223996  0.046928565            3 
   40000    1.2384352   -6.1349271    15.654604  0.032613758  0.046875498            2 
   41000    1.2633778   -6.1289371    16.109031  0.032741933  0.046807611            3 
   42000    1.2387273   -6.2051426    16.608556  0.032953483  0.046712514            4 
   43000    1.2374802   -6.1193285    17.230003  0.033391479  0.046625894            2 
   44000    1.2329504   -6.1305846    17.626336  0.033383212  0.046520224            2 
   45000    1.2476223    -6.120729    18.122325  0.033559861  0.046375608            1 
   46000    1.2488588   -6.1248248    18.595493  0.033687487  0.046226916            3 
   47000    1.2435062   -6.1442712    19.158778  0.033969464  0.046096092            5 
   48000    1.2873827    -6.121812    19.700252  0.034201825  0.045980045            4 
   49000    1.2433349   -6.1419522    20.224064  0.034394666  0.045902588            4 
   50000     1.250474    -6.162643    20.846946  0.034744909  0.045839545            4 
   51000    1.2353269   -6.1428126    21.393112  0.034956065  0.045782659            1 
   52000    1.2435735   -6.1474848     21.91566   0.03512125  0.045737902            4 
   53000    1.2448445    -6.172919    22.262295  0.035003608  0.045671854            2 
   54000    1.2485911   -6.1557199    22.713277  0.035051353  0.045565313            2 
   55000    1.2522793    -6.133791    23.518152  0.035633564  0.045493834            3 
   56000    1.2534005   -6.1693986    23.951939  0.035642767  0.045441575            2 
   57000    1.2506855   -6.1443397    24.671288  0.036069134  0.045407631            2 
   58000    1.2539066   -6.1355103     25.26175  0.036295617  0.045414106            2 
   59000    1.2501858   -6.1409513    25.644623  0.036221219  0.045386297            2 
   60000    1.2629303    -6.156041    26.135632  0.036299488  0.045345611            4 
   61000     1.226045   -6.1141837    26.709783  0.036488774  0.045300889            3 
   62000    1.2670566   -6.2050585    27.186914  0.036541551  0.045264514            2 
   63000    1.2526554   -6.1531311    27.698491  0.036638215  0.045222897            2 
   64000    1.2477968   -6.1229706    28.126158  0.036622601  0.045161434            3 
   65000    1.2081089   -6.1558175    28.636569  0.036713549  0.045112257            3 
   66000    1.2371627   -6.1567677    29.228684  0.036904903  0.045067405            3 
   67000    1.2163249   -6.1290431    29.910443  0.037202043  0.045044758            2 
   68000    1.2205844   -6.1799741    30.503517  0.037381761  0.045032866            2 
   69000    1.2228241   -6.1505629    31.160905  0.037633943  0.045037008           11 
   70000    1.2243931   -6.1430881    31.868197   0.03793833  0.045058579            2 
   71000    1.2210788   -6.1678608    32.209126  0.037804138  0.045092961            1 
   72000    1.2385665   -6.1669331    32.569444  0.037696115  0.045101358            2 
   73000    1.2406814   -6.1671946    33.227415  0.037930838  0.045093693            3 
   74000    1.2356475   -6.1850699    33.644308  0.037887733  0.045093629            3 
   75000    1.2270008   -6.1848232    34.129899   0.03792211  0.045083517            2 
   76000    1.2523837   -6.1527358    34.770943  0.038126034  0.045060462            2 
   77000    1.2226719   -6.1688397    35.311442  0.038215846  0.045049829            4 
   78000    1.2551342   -6.1343349    35.759311  0.038204392  0.045041345            4 
   79000    1.2318299   -6.1540757    36.420337  0.038418076  0.045028453            4 
   80000    1.2175278   -6.1784396    36.884165  0.038421005   0.04502252            2 
   81000    1.2346961   -6.2057256    37.263181  0.038336606  0.045005072            2 
   82000    1.2579053   -6.1619846    37.750967  0.038364804  0.044981824            2 
   83000    1.2599354   -6.1348103    38.161957  0.038315218  0.044950846            4 
   84000    1.2209829   -6.1381711    38.740462  0.038432998  0.044915528            2 
   85000    1.2149805   -6.1683473    39.206805  0.038438044  0.044880143            4 
   86000    1.2576878   -6.1574966    39.614274  0.038385924  0.044833772            2 
   87000    1.2369201   -6.1733653    40.031758  0.038344596   0.04478624            1 
   88000    1.2449866    -6.162185     40.53553  0.038385918  0.044726738            6 
   89000    1.2215057   -6.1456914    40.917941  0.038312678  0.044666086            3 
   90000    1.2309101   -6.1486382    41.272487  0.038215265  0.044595582            1 
   91000    1.2629499   -6.1984366    41.702999  0.038189559  0.044520304            1 
   92000    1.2168397   -6.1713059    42.036996  0.038076989  0.044441515            2 
   93000     1.242739   -6.2149062    42.644743  0.038212135  0.044370918            2 
   94000    1.2293814     -6.17737    43.230316  0.038324748  0.044300784            2 
   95000    1.2294491   -6.1810343    43.710353  0.038342415  0.044234276            2 
   96000    1.2341694   -6.1655245    44.280223  0.038437693  0.044174819            3 
   97000    1.2269208   -6.1374965    44.584933  0.038303207  0.044119371            4 
   98000    1.2353577    -6.173173    45.037057  0.038296817  0.044066064            6 
   99000    1.2341212   -6.1256669     45.53766  0.038331363  0.044005103            4 
  100000    1.2196276   -6.1684208    46.206171  0.038505143  0.043943575            4 
  101000    1.2539412   -6.1193865    46.745128  0.038568587  0.043885226            1 
  102000    1.2506902   -6.1412149    47.535966  0.038836573  0.043845338            2 
  103000    1.2324835   -6.1729213    48.088518  0.038906568  0.043811739            2 
  104000    1.2245963   -6.1595452    48.460723  0.038830707  0.043779725            2 
  105000    1.2332681   -6.1899651    48.963388  0.038859832  0.043754201            5 
  106000    1.2413301    -6.140687    49.599067  0.038992977  0.043728635            3 
  107000    1.2368617   -6.1666721    50.345991  0.039210273  0.043712114            1 
  108000    1.2314951   -6.1891926    50.599386  0.039042736  0.043695981            2 
  109000    1.2514565    -6.146046    51.129583  0.039089895  0.043672261            3 
  110000    1.2496634   -6.1946506    51.526974  0.039035586  0.043647427            4 
  111000    1.2506028   -6.1803145    52.019523  0.039053696  0.043624107            4 
  112000    1.2418706   -6.1556629    52.617742  0.039150106  0.043605279            2 
  113000    1.2282844   -6.1390318    53.335915  0.039333271  0.043591781            2 
  114000    1.2452262   -6.1774182    53.726117  0.039273477  0.043577575            2 
  115000    1.2342755   -6.1959012    54.246723   0.03930922  0.043560884            3 
  116000    1.2412262   -6.1694152    54.596946  0.039221944  0.043540231            3 
  117000    1.2500305   -6.1821008     55.11701  0.039257129  0.043519741            4 
  118000    1.2281584   -6.2003256    55.538542  0.039222134  0.043493907            2 
  119000      1.26238   -6.1625524    56.043447  0.039246111  0.043465987            4 
  120000    1.2253364   -6.1610093    56.567256  0.039282816  0.043437709            2 
  121000    1.2469129   -6.1740104    56.929592  0.039207708  0.043416439            2 
  122000     1.248389   -6.1851993     57.72396  0.039428934  0.043393152            2 
  123000    1.2404326   -6.1425161    58.164728  0.039406997  0.043375074            3 
  124000    1.2408514   -6.1842489    58.519032  0.039327306  0.043354649            8 
  125000    1.2325554   -6.1494005     59.13845  0.039425633  0.043336483            3 
  126000    1.2105639   -6.1716037     59.55938  0.039391124  0.043318634            2 
  127000    1.2436712   -6.1979208    60.410553  0.039639471  0.043303259            3 
  128000     1.233465   -6.1668013    61.114331  0.039787976  0.043295296            5 
  129000    1.2395174   -6.1746114    61.812901  0.039930814  0.043288856            4 
  130000    1.2427712   -6.1418932     61.97162  0.039725397  0.043283361            4 
  131000    1.2320249   -6.1641723    62.274122  0.039614581  0.043277048            3 
  132000    1.2300312   -6.1674835    62.933284  0.039730609  0.043270116            4 
  133000    1.2101101   -6.1990069    63.738438  0.039936364  0.043266141            2 
  134000    1.2073098   -6.1655687    64.221958  0.039939028    0.0432711            3 
  135000    1.2086439    -6.171656     64.95274  0.040094284  0.043279015            2 
  136000    1.2134887   -6.1831441    65.606202  0.040199878   0.04328994            2 
  137000    1.2238197   -6.1756268    66.241311  0.040292768  0.043304752            2 
  138000     1.237826   -6.1674828    66.890086  0.040392564  0.043318137            3 
  139000     1.219251   -6.1735916    67.292414  0.040343174  0.043334044            2 
  140000    1.2312701   -6.1733699    67.857477  0.040391355  0.043346306            2 
  141000    1.2180408   -6.1765562     68.37583  0.040411247  0.043357315            3 
  142000    1.2261096   -6.1631978    68.830284  0.040393359  0.043369288            4 
  143000    1.2260233   -6.1577794    69.259267  0.040360878  0.043379374            2 
  144000    1.2351944   -6.1900693    69.466972  0.040200794  0.043381595            4 
  145000    1.2432057   -6.1756696    69.747506  0.040084774  0.043377022            2 
  146000    1.2692422   -6.1900477    70.205396  0.040071573  0.043366907            3 
  147000    1.2140377   -6.1583208    70.882849  0.040183021  0.043358993            1 
  148000    1.2468188   -6.1487158    71.138198  0.040055291  0.043349133            3 
  149000    1.2166723   -6.1990539    71.471139  0.039972673  0.043334871            4 
  150000    1.2330924   -6.1985719     71.78164  0.039878689  0.043319071            6 
  151000    1.2282239    -6.160954    72.577363  0.040053732  0.043302911            3 
  152000    1.2509782   -6.1761792    73.061056  0.040055404  0.043288712            2 
  153000    1.2391573   -6.2320006    73.621353  0.040098776  0.043278588            5 
  154000    1.2288439   -6.1910419    74.428587  0.040275209  0.043267355            4 
  155000    1.2263606   -6.1462577    74.822289  0.040227037  0.043256135            4 
  156000    1.1921287   -6.1955104    75.254724  0.040200173  0.043247051            4 
  157000    1.2493232   -6.1312017    75.962196  0.040319637  0.043239314            2 
  158000    1.2152754   -6.1844003    76.468767  0.040331628  0.043233459            5 
  159000    1.2216555   -6.1811739    76.952316  0.040331402  0.043229246            2 
  160000    1.2307498   -6.1981632    77.056061  0.040133365  0.043219283            3 
  161000    1.2465732   -6.1374604    77.678827  0.040206432  0.043208431            2 
  162000    1.2526765   -6.1938639    77.709282   0.03997391  0.043197497            2 
  163000    1.2076683   -6.1956129    78.383388  0.040073307  0.043183095            1 
  164000    1.2380057   -6.2270056    78.762595  0.040021644  0.043165468            2 
  165000    1.1924644   -6.1849156    79.333394   0.04006737  0.043145679            3 
  166000    1.2103111   -6.1679892    79.771197  0.040045782  0.043125783            5 
  167000     1.224717   -6.1661673    80.592315  0.040215726  0.043108621            2 
  168000     1.193968   -6.2015067    80.824659  0.040091597  0.043092846            3 
  169000    1.2278514   -6.1982076    81.264197  0.040071103  0.043074593            1 
  170000    1.1949438   -6.1500098    81.865327  0.040130062  0.043058072            2 
  171000    1.1958147   -6.1755231    82.153864  0.040035996  0.043041239            2 
  172000    1.2411961   -6.1568102    82.778083   0.04010566  0.043025423            2 
  173000    1.2295865   -6.2003931    83.231233  0.040092116  0.043008733            2 
  174000    1.2416715   -6.1937421    84.081526   0.04026893  0.042996474            4 
  175000    1.2486408   -6.1564605    84.579529  0.040275966  0.042984922            3 
  176000    1.2119586   -6.1956658    84.806356  0.040154525  0.042971834            3 
  177000    1.2238717   -6.2238489    85.515458  0.040261515  0.042957184            5 
  178000    1.2261206   -6.1796302    86.307631  0.040406194  0.042944412            3 
  179000    1.2238019   -6.1797127    86.739378  0.040381461  0.042934961            1 
  180000    1.2364064   -6.1994779    87.036415  0.040294637  0.042925157            2 
  181000    1.1798571   -6.1515734     87.93365  0.040485106   0.04291725            1 
  182000    1.2344504   -6.1575748    88.595106  0.040565525   0.04291039            6 
  183000    1.2315637   -6.1683525    88.465437  0.040284807  0.042903036            3 
  184000    1.2291168   -6.1841667     88.98401  0.040300729  0.042892306            2 
  185000    1.2336642   -6.2064296    89.733141  0.040420334  0.042884623            5 
  186000    1.2088515   -6.1892218    90.307494  0.040460347  0.042877846            3 
  187000    1.2284582     -6.22057    90.742105  0.040437658  0.042871758            4 
  188000    1.1970432   -6.1237326    91.753564  0.040670906   0.04286767            2 
  189000    1.2098334    -6.182879    92.073088    0.0405966  0.042863478            2 
  190000    1.2383341   -6.1372187    92.478954  0.040560945  0.042858008            3 
  191000    1.2038571   -6.1769863    93.038882  0.040592881  0.042855925            2 
  192000    1.2106848   -6.1747355    93.906755   0.04075814  0.042854535            2 
  193000     1.260215   -6.1833166     94.17151  0.040661274  0.042853989            4 
  194000    1.2247677     -6.20157     94.77685  0.040711705  0.042854483            2 
  195000    1.2020085   -6.1943306    95.018185  0.040606062  0.042854961            1 
  196000    1.2621822   -6.2049581    95.403736  0.040562813   0.04284968            3 
  197000      1.21974   -6.1911717    96.237697  0.040709685  0.042846303            1 
  198000    1.2215137    -6.189441    96.607647  0.040659784  0.042843724            3 
  199000     1.215428   -6.1896742    97.485526  0.040823085  0.042841685            1 
  200000    1.2112026   -6.1985102    97.615832  0.040673263  0.042838946            1 
  201000    1.1972973   -6.1775696    97.867662  0.040575316   0.04283293            4 
  202000    1.2263861   -6.1646414     98.36249  0.040578585  0.042826798            2 
  203000    1.2050914   -6.2325548    99.035135  0.040654817  0.042821487            2 
  204000     1.220535   -6.1954469    99.923642  0.040818481  0.042817667            2 
  205000    1.1942185   -6.1817012    100.55392  0.040875576  0.042817545            4 
  206000    1.2411243   -6.2181237    100.41465  0.040620812   0.04281611            4 
  207000    1.2072585   -6.2331438     100.7711  0.040568074  0.042809946            2 
  208000    1.2388779    -6.218462    101.35986  0.040608918  0.042805298            5 
  209000    1.2274855   -6.1978738     102.1593  0.040733372  0.042798907            2 
  210000    1.2095221   -6.2209564    102.16593  0.040542036  0.042792245            2 
  211000    1.1997778   -6.2087961    102.33857  0.040418077  0.042782694            1 
  212000     1.208257   -6.2013974    102.57919  0.040322008  0.042769804            5 
  213000     1.185718   -6.1833329    103.50345  0.040494306  0.042756505            2 
  214000     1.215253   -6.2152833    103.84998  0.040440025  0.042743381            3 
  215000    1.2003796   -6.2346498    104.20697  0.040390298  0.042730244            2 
  216000    1.2362307   -6.1824181     104.2741  0.040229206    0.0427168            4 
  217000    1.2085854   -6.1781624    105.03417  0.040335703  0.042704778            3 
  218000    1.2200219   -6.1934428    105.78581     0.040438  0.042692368            5 
  219000    1.2114919   -6.2085079    106.40637  0.040489488  0.042679642            2 
  220000     1.201515   -6.1905171    107.18247  0.040599419  0.042669594            3 
  221000    1.2396457   -6.1930278    107.91938  0.040693583  0.042664467            1 
  222000     1.182926    -6.192684    108.51317   0.04073317  0.042660596            2 
  223000    1.2227347   -6.2327947    108.35368   0.04049091  0.042654983            3 
  224000    1.1805941   -6.1440456    109.73029  0.040822279  0.042647883            4 
  225000    1.2332771   -6.1949638     109.9406  0.040718742  0.042642552            1 
  226000    1.2089402    -6.193814    110.62884  0.040792346  0.042640491            3 
  227000    1.2260458   -6.2046918    110.80397  0.040676935  0.042638573            4 
  228000    1.2044222   -6.2200904    111.97111  0.040925114   0.04263797            1 
  229000    1.2044884   -6.1886505    113.20342  0.041194839  0.042639111            1 
  230000    1.2103276   -6.1844472    113.18397  0.041008684  0.042641191            2 
  231000    1.2040979   -6.1908668    114.08322  0.041155563  0.042645964            3 
  232000    1.2306003   -6.2142119    114.09655  0.040982955  0.042651797            2 
  233000    1.2112161   -6.2450356    114.54914  0.040968936  0.042654721            3 
  234000    1.2244774   -6.2091789    114.92073  0.040926186  0.042657058            2 
  235000    1.2123802   -6.1986283    115.58553  0.040987777  0.042658905            2 
  236000    1.2154874   -6.1992259    116.20333  0.041032248  0.042660053            2 
  237000    1.1720619   -6.2278309    116.74424  0.041049312   0.04266287            4 
  238000    1.2326882   -6.1990662    117.69124  0.041208416  0.042665736            3 
  239000    1.2081262   -6.1992653    117.92353   0.04111699  0.042670662            4 
  240000    1.2021506   -6.2163781    118.61392  0.041185389  0.042673554            3 
  241000    1.2372936   -6.1841883    118.27113  0.040895964  0.042675879            5 
  242000    1.2131788   -6.2074194    118.86102  0.040930102  0.042678154            4 
  243000    1.2128449   -6.2125861    119.61009   0.04101855  0.042679829            2 
  244000    1.2065474   -6.2185748     120.0005  0.040983777  0.042679687            3 
  245000    1.2008134   -6.2330865    120.56207  0.041007506   0.04267812            2 
  246000    1.2093534   -6.1754415    120.91436  0.040960149  0.042677572            4 
  247000    1.2283228   -6.1819995     121.3972  0.040957218  0.042676944            1 
  248000    1.2017005   -6.1704104    122.03631  0.041006823  0.042675484            3 
  249000    1.1885259   -6.2113712     122.2066   0.04089913  0.042675481            3 
  250000    1.2199013   -6.2292859    122.84705  0.040949017  0.042673273            3 
  251000    1.2197019   -6.1864545    123.70262  0.041069926   0.04267081            3 
  252000    1.1849608   -6.2270995    124.12235  0.041045752  0.042669138            3 
  253000    1.1904908   -6.1899703     124.3772  0.040967456  0.042666309            2 
  254000    1.1941985   -6.1484887    125.10236  0.041044083  0.042664891            1 
  255000    1.2121997   -6.2554004    125.70867  0.041081265  0.042663555            4 
  256000    1.2092441   -6.1922896     126.4377  0.041158107   0.04266273            3 
  257000    1.2216577   -6.2008616    126.54703  0.041033407  0.042663573            4 
  258000    1.2397249   -6.2239436      127.353   0.04113469   0.04266284            3 
  259000    1.1872087   -6.2004088    127.93088    0.0411618  0.042663886            3 
  260000    1.2056842   -6.1964849    128.64245  0.041231553  0.042667594            3 
  261000    1.2142535   -6.2180859    129.16235  0.041239576  0.042668972            3 
  262000    1.2159337   -6.1794185    129.59383  0.041219412  0.042670275            2 
  263000    1.2267151   -6.2046496     129.8394  0.041140494  0.042672732            3 
  264000    1.2157874   -6.2201402    130.88773  0.041315571  0.042674104            7 
  265000    1.2188742   -6.2196729    131.14207  0.041239645  0.042676189            2 
  266000    1.2043196   -6.2543791    131.75314  0.041276046  0.042677895            5 
  267000    1.1972794   -6.1926337    132.53197  0.041364535  0.042679542            1 
  268000    1.1815619   -6.2368454    132.65977   0.04124993  0.042680444            1 
  269000    1.1991824   -6.2368154    133.02664  0.041210234  0.042681243            2 
  270000    1.2027582   -6.2208817    133.15777  0.041098078  0.042681629            3 
  271000    1.2159622   -6.1916986    134.45936  0.041346667  0.042682939            3 
  272000    1.1864544   -6.2327375    134.43119  0.041186027  0.042684669            2 
  273000    1.1936372   -6.1827518    135.25102  0.041285415  0.042687139            2 
  274000    1.1991662   -6.2161892    136.09693  0.041392009  0.042691058            2 
  275000    1.1968219   -6.2272595    136.83208  0.041464265   0.04269713            3 
  276000    1.1977054   -6.2163402    137.28182  0.041449826  0.042703251            2 
  277000    1.2187511   -6.1664554    138.00238  0.041516963  0.042710497            3 
  278000    1.2237949    -6.223819    138.39171  0.041484327  0.042717063            2 
  279000    1.2364513   -6.1785388    139.31197  0.041610505  0.042722694            1 
  280000    1.2047265   -6.1832042    140.37945  0.041779599  0.042729546            2 
  281000    1.1962348   -6.2374584    139.96347  0.041507552  0.042736119            4 
  282000    1.2141872   -6.1984936    140.92263  0.041643804  0.042743116            3 
  283000    1.2420888   -6.2491806    141.61742  0.041701243  0.042749542            1 
  284000     1.212918   -6.2028604    141.61971   0.04155508  0.042755093            3 
  285000    1.2038537   -6.1773437    142.31992  0.041614013   0.04276019            4 
  286000    1.2142774   -6.2191258    142.49791   0.04152037  0.042767451            2 
  287000    1.1983531   -6.2004813    143.55546  0.041682771  0.042773686            3 
  288000     1.199798   -6.1735975     143.3955  0.041491754  0.042778974            3 
  289000    1.1804336   -6.1966642    144.43175  0.041646987   0.04278402            6 
  290000    1.2091565   -6.2257202    144.08388  0.041403413  0.042788234            2 
  291000    1.2017803   -6.2399069    144.83338  0.041475769  0.042789884            4 
  292000    1.2093869   -6.2084889    145.01579  0.041385783  0.042789458            4 
  293000    1.1951543   -6.1954035    145.38879  0.041350623  0.042789783            4 
  294000    1.1920047   -6.2425731    145.74022  0.041309587  0.042788102            3 
  295000    1.2005688   -6.2027625    146.05981  0.041259833  0.042785754            2 
  296000    1.2109143   -6.2219822    145.91832  0.041080609  0.042781966            2 
  297000    1.2009421   -6.2189788    146.83178  0.041198592  0.042778366            4 
  298000    1.2215885   -6.2151404    147.05866  0.041123786  0.042775259            2 
  299000    1.2176474   -6.2196617    148.47443  0.041380833  0.042773525            3 
  300000    1.2041036   -6.2381367    148.69797  0.041304991   0.04277228            1 
  301000    1.2167998   -6.1919099    148.93203  0.041232565  0.042769439            2 
  302000    1.2002765   -6.1747493    149.56183  0.041269821  0.042767977            3 
  303000    1.1817142   -6.2303795    150.17927   0.04130343   0.04276654            3 
  304000    1.2205141   -6.2163288    150.59795  0.041282334  0.042765879            2 
  305000    1.2060123   -6.1700023    151.86333  0.041492713  0.042764956            2 
  306000    1.1803468   -6.2062589    151.68747  0.041309223  0.042763234            2 
  307000    1.1915828   -6.2583156    151.52077  0.041129416  0.042761329            3 
  308000    1.1610645   -6.2318955    152.31661  0.041211204  0.042759332            4 
  309000    1.2216849   -6.2678845    153.11338  0.041292713  0.042756551            6 
  310000    1.2055965   -6.2261589    154.08194  0.041419877  0.042755224            2 
  311000     1.226715   -6.2736942     153.5626  0.041147534  0.042752989            2 
  312000    1.2149151   -6.2613927    154.68694  0.041315956  0.042750145            3 
  313000    1.1923141   -6.2082583    155.58963   0.04142429  0.042748918            2 
  314000    1.1911631    -6.219955    155.89483  0.041373363  0.042747652            2 
  315000    1.1821754   -6.2302879    156.31233  0.041352468  0.042746452            2 
  316000    1.2034009   -6.2117761    157.16261  0.041445836  0.042746286            2 
  317000     1.182333   -6.2004614    158.02983  0.041543069  0.042746934            2 
  318000    1.2165704    -6.220657    158.27442  0.041476525  0.042748259            3 
  319000    1.1660062   -6.2523184     158.4536  0.041393313  0.042749419            3 
  320000    1.1961823   -6.2150948    158.57376  0.041295251   0.04274887            2 
  321000    1.1586056   -6.1922446     159.4615  0.041397068   0.04274692            2 
  322000    1.2061294   -6.2042991    160.09798  0.041433225  0.042745171            4 
  323000    1.2046987   -6.2173334    160.40375  0.041383836  0.042743267            3 
  324000    1.1945902   -6.2157129    159.90273  0.041127244  0.042740459            1 
  325000    1.1985671   -6.2464961    160.91559  0.041260407  0.042737568            4 
  326000    1.1756331   -6.2471419    161.56147  0.041298944  0.042732927            2 
  327000    1.1943744   -6.2482591    161.39976  0.041131437  0.042728565            3 
  328000    1.2117737   -6.2462266    162.42319  0.041266055  0.042722604            5 
  329000    1.2286773   -6.1838253    163.43737  0.041397509  0.042719454            3 
  330000    1.2025129   -6.1649908    163.45924  0.041277586  0.042716087            1 
  331000    1.2122277   -6.1926824    164.05874  0.041303812  0.042712026            3 
  332000    1.2144741   -6.2255618     164.9563  0.041404693  0.042707545            2 
  333000    1.1894389    -6.238935    164.90141  0.041266618  0.042703442            2 
  334000    1.1980896   -6.2065081    165.52855  0.041299539  0.042699871            7 
  335000    1.1912478   -6.2182338    166.32993  0.041375605  0.042695506            3 
  336000    1.2251922   -6.2662682    166.16941  0.041212652  0.042691477            2 
  337000    1.1871832   -6.2614245    167.28285  0.041365689  0.042686053            5 
  338000    1.1830794    -6.216095     167.5601  0.041311661  0.042682685            2 
  339000    1.2187819   -6.2192494    167.87354  0.041266849  0.042679144            4 
  340000    1.1934485   -6.1961521    168.24439  0.041236371  0.042674591            2 
  341000    1.1405342   -6.2162826    169.18004  0.041344095  0.042670611            3 
  342000    1.1976585   -6.2185306    169.79222  0.041372374  0.042667471            7 
  343000    1.1860599   -6.2533238    169.93283  0.041285915  0.042664077            5 
  344000    1.1885647   -6.2419456    170.08232  0.041202112  0.042660402            3 
  345000    1.2006387   -6.1732981    171.00145  0.041304699  0.042655553            3 
  346000     1.209946   -6.2157605    170.84266  0.041147075   0.04264996            5 
  347000    1.1894552    -6.253559    171.39376  0.041160846  0.042643161            2 
  348000    1.2271774   -6.2464165    171.79589  0.041138863  0.042636501            2 
  349000    1.1954727   -6.2568321    172.08523  0.041090073  0.042630034            3 
  350000    1.2073349   -6.2271739    173.04047  0.041200112   0.04262228            5 
  351000    1.1902527   -6.2637776    172.97288  0.041066685  0.042614824            3 
  352000    1.1751705    -6.221931    173.32282  0.041032865    0.0426082            5 
  353000    1.2254722   -6.2210924    174.18882  0.041121062  0.042600424            2 
  354000    1.1988757   -6.2096619    174.49944  0.041078023  0.042592488            3 
  355000    1.1903376   -6.2546359    174.73408  0.041017388  0.042584049            3 
  356000    1.1883533   -6.2399864    174.94623  0.040951833  0.042576673            2 
  357000    1.1628607   -6.2562658    175.55984  0.040980354  0.042568824            2 
  358000    1.2000269   -6.2291519    176.32601   0.04104423  0.042559677            3 
  359000    1.2015897   -6.2055843    176.54236  0.040980121  0.042551466            2 
  360000    1.1756594   -6.2269597    177.24431  0.041028776  0.042543664            3 
  361000    1.2030039   -6.2201921    177.88096  0.041062086  0.042535387            2 
  362000    1.2249067   -6.2161874    178.61919  0.041118597  0.042528437            3 
  363000    1.1747766   -6.2441221    179.23253  0.041146128  0.042522239            1 
  364000    1.1800941   -6.1960177    180.08499  0.041228248  0.042517027            6 
  365000    1.2060504   -6.2512279    180.50034  0.041210122  0.042512088            4 
  366000     1.159921   -6.2540978    180.71318  0.041145988  0.042507518            2 
  367000    1.2182358   -6.1951592    182.05605  0.041338795  0.042503176            2 
  368000    1.1822901   -6.2542618    182.49092  0.041324937  0.042498375            2 
  369000    1.2197056   -6.2444751    182.68516  0.041256812  0.042494323            2 
  370000    1.1886968     -6.22425     183.1878  0.041258514  0.042490088            4 
  371000    1.2010297   -6.2284274    183.69193   0.04126054   0.04248645            2 
  372000    1.1971384   -6.2425044     183.8935  0.041194781   0.04248243            4 
  373000    1.2058337   -6.2648421    184.34327  0.041184823  0.042478731            4 
  374000    1.2028741   -6.2497738    184.60106  0.041132143    0.0424739            5 
  375000    1.1939888   -6.2289499    185.15287  0.041145081  0.042468654            3 
  376000    1.2086972   -6.2067974    186.96632   0.04143757  0.042464211            4 
  377000    1.1771239   -6.2137588    186.79873  0.041290612  0.042460569            4 
  378000    1.2125422   -6.2463049    187.22664  0.041275715  0.042456797            2 
  379000    1.2094964   -6.2733333    186.94588  0.041105075  0.042453868            2 
  380000    1.2015933   -6.2780571    188.00872  0.041229983   0.04244998            2 
  381000    1.1739737   -6.2238448    189.28485  0.041400885  0.042448269            2 
  382000    1.2139138   -6.2632772    188.97239  0.041224342  0.042445297            2 
  383000    1.1855238    -6.245961     189.8287  0.041303025  0.042441697            3 
  384000    1.1708931   -6.2487684     190.7004  0.041384636  0.042439124            2 
  385000    1.1614305   -6.2810506    192.03718   0.04156649  0.042436788            3 
  386000    1.1810029   -6.2488174    191.49707    0.0413422  0.042434902            3 
  387000    1.1959814   -6.2464243    192.18776  0.041384099  0.042432891            3 
  388000    1.1787923   -6.2467496    191.53731  0.041137738  0.042430179            1 
  389000    1.1758308   -6.2490665    192.49516   0.04123718  0.042426628            8 
  390000    1.1972471   -6.2431238    193.24828  0.041292368  0.042423941            4 
  391000    1.2039307   -6.2696916    193.21219  0.041179069  0.042420802            4 
  392000    1.1905223   -6.2546228    194.52212  0.041352491  0.042418318            4 
  393000    1.2071463   -6.2762487    194.57769  0.041259052  0.042415974            2 
  394000    1.2013482   -6.2389597    195.45441  0.041339766   0.04241441            4 
  395000    1.2223897   -6.2533921    196.21011  0.041394537  0.042412113            2 
  396000    1.2035959   -6.2433717    196.78193  0.041410338  0.042409633            3 
  397000    1.1726879   -6.2435052    195.91736   0.04112455  0.042406915            3 
  398000    1.1909908    -6.239572     197.5927  0.041372006  0.042403606            2 
  399000    1.1758275    -6.222114    197.64442  0.041279119  0.042400497            4 
  400000    1.1601653   -6.2651684    198.45726  0.041345263  0.042398521            2 
  401000    1.1810736   -6.2408883    198.90907  0.041336049  0.042396683            2 
  402000    1.1738302   -6.2696093    199.96518  0.041452151  0.042395707            2 
  403000    1.1882723    -6.254189    200.17902  0.041393511  0.042394364            3 
  404000    1.2085352    -6.289039    200.43681  0.041344227  0.042392825            3 
  405000    1.1792344   -6.2399038    200.97514   0.04135291  0.042392155            3 
  406000    1.1650178     -6.27112    201.36269  0.041330602  0.042391267            3 
  407000     1.205025   -6.2345608    202.43338  0.041448276  0.042391365            6 
  408000     1.201978   -6.2432955    202.99144  0.041460671  0.042390416            5 
  409000     1.187944   -6.2437038    202.96914  0.041354755  0.042389238            2 
  410000    1.1980467   -6.2258004    203.25998  0.041313004  0.042387814            1 
  411000    1.1962453   -6.3012626    204.39101   0.04144181  0.042386837            2 
  412000       1.1841   -6.2274108    205.19831  0.041504512  0.042385393            3 
  413000     1.180568   -6.2449102    205.13517  0.041391277  0.042384717            2 
  414000    1.1833921   -6.2387454    206.13567  0.041492688  0.042384134            5 
  415000    1.1855933   -6.2486533    206.22318  0.041410277  0.042382914            2 
  416000    1.1989214   -6.2329456    206.26373  0.041318855  0.042381028            4 
  417000    1.1810236   -6.2396588    206.81665  0.041330266  0.042378786            4 
  418000    1.1764843   -6.2127035    208.03285  0.041473854  0.042376922            4 
  419000    1.1893937   -6.2658297    208.22279  0.041412646  0.042374457            3 
  420000    1.1896794   -6.2403053     208.1231  0.041294265  0.042371162            4 
  421000    1.1971316   -6.2447018    209.00092  0.041369937   0.04236785            2 
  422000    1.1934946    -6.268355    209.32157  0.041335223  0.042366098            3 
  423000    1.1853561   -6.2420265    210.74185  0.041517306  0.042364226            2 
  424000    1.1890763   -6.2651642    210.13795  0.041300697  0.042361483            3 
  425000    1.1744687   -6.2282419    210.79491  0.041332336  0.042357993            6 
  426000    1.1781955   -6.2524525    210.78186  0.041232759  0.042353955            2 
  427000    1.1675733   -6.2565289    211.59776  0.041295425  0.042349438            5 
  428000     1.184958   -6.2669896    211.22551  0.041126462  0.042345362            4 
  429000    1.2082312   -6.2549045    212.38931  0.041256665  0.042340856            2 
  430000    1.2003281   -6.2534775    213.03192  0.041285256   0.04233681            4 
  431000    1.1523729   -6.2439093     213.7713  0.041332425  0.042333474            2 
  432000    1.1847814   -6.2716882    213.69099  0.041221257  0.042329502            2 
  433000     1.193586   -6.2837393     213.9049  0.041167226  0.042325363            2 
  434000    1.1760918    -6.220191    215.57246  0.041392561  0.042321582            2 
  435000     1.188583   -6.2526156    216.02465  0.041384032   0.04231868            3 
  436000    1.1767771   -6.2092038    216.41511  0.041363745  0.042315195            3 
  437000    1.1688639   -6.2307325    216.35799  0.041258198  0.042310386            2 
  438000    1.1952223    -6.242238    216.32862  0.041158414  0.042305014            3 
  439000    1.1781712   -6.2466636    216.45734  0.041089092   0.04229937            2 
  440000    1.2080721   -6.2862706    217.02143  0.041102543  0.042294485            4 
  441000    1.1598509   -6.2306806    217.22907  0.041048577  0.042289171            3 
  442000    1.1941275   -6.3109178    217.74926  0.041053781  0.042282873            6 
  443000    1.1731436   -6.2136584    218.56031  0.041113678   0.04227671            3 
  444000    1.1860609   -6.2829799    218.22469  0.040958087  0.042269396            3 
  445000     1.183588   -6.2625494     218.6927  0.040953689  0.042262036            2 
  446000    1.1715014   -6.2600887    220.32217  0.041166324  0.042255597            3 
  447000    1.2032085   -6.2533644    220.02986  0.041019736  0.042249851            5 
  448000    1.1901016   -6.2818507    220.97176  0.041103379  0.042243958            2 
  449000    1.1779096    -6.300045    221.72143   0.04115097  0.042238121            2 
  450000    1.1758013   -6.2781879    222.30954  0.041168434  0.042233273            2 
  451000    1.1902081   -6.2540366    222.47716  0.041108122  0.042228888            3 
  452000    1.1738482   -6.2674514    223.80601   0.04126217  0.042224663            4 
  453000     1.187725   -6.2427912     222.9199  0.041008076  0.042219292            4 
  454000    1.1783086    -6.285761     223.4852  0.041021512  0.042214043            3 
  455000    1.1473378   -6.2802846     224.2075  0.041063645  0.042208143            3 
  456000    1.2106989   -6.2457242     226.0448  0.041309356   0.04220285            3 
  457000    1.1793419    -6.266627    225.20161  0.041065209  0.042197254            2 
  458000    1.1677905   -6.2483651    226.85724   0.04127679  0.042192673            2 
  459000    1.1834126    -6.262136    227.05837  0.041223378  0.042188323            3 
  460000     1.166514   -6.2583724    227.46436  0.041207311  0.042184318            3 
  461000    1.1387529   -6.2657386    228.04213  0.041222366  0.042180683            4 
  462000    1.1669729   -6.2498415    229.03247  0.041311772    0.0421776            3 
  463000     1.207015   -6.2260694    229.25645   0.04126286   0.04217544            6 
  464000    1.1728477   -6.2572094    230.16034  0.041336268  0.042172814            5 
  465000    1.1963059   -6.2764966    229.37992  0.041107513  0.042169196            2 
  466000    1.1788689   -6.2724342    230.21719  0.041169025  0.042165347            5 
  467000     1.181273    -6.237729    230.49939  0.041131226  0.042160783            3 
  468000    1.1867018   -6.2929383    230.85682  0.041106984  0.042156012            2 
  469000    1.1923678   -6.2517273    231.63338  0.041157316  0.042152809            7 
  470000    1.1875455   -6.2786823     231.2902    0.0410089  0.042149215            3 
  471000    1.1781047   -6.2455824     232.3001  0.041100514  0.042144986            4 
  472000    1.2050439   -6.2808908    233.01481   0.04113962  0.042140593            3 
  473000    1.1862576    -6.297323    233.43114  0.041125994   0.04213591            3 
  474000    1.1644764   -6.2616914     232.6885  0.040908667  0.042130132            3 
  475000    1.1995346   -6.2691979     233.5945  0.040981491  0.042124215            2 
  476000    1.1824491   -6.2339635    234.24566  0.041009394  0.042118496            4 
  477000    1.1736259   -6.2539451    235.08247  0.041069614  0.042112634            5 
  478000    1.1620535   -6.2583055    235.03645  0.040975671  0.042106667            3 
  479000    1.1726895   -6.2779841    234.66842  0.040826099  0.042099407            9 
  480000    1.1692511   -6.2209868    235.39212  0.040866687  0.042092655            3 
  481000    1.1843989   -6.3239862    236.40286  0.040956837  0.042086858            4 
  482000    1.1418843   -6.2965988    237.21433  0.041012159  0.042080639            2 
  483000     1.177619   -6.2746135    237.90622  0.041046621  0.042074762            4 
  484000    1.1847709   -6.3068732    238.37244  0.041042088   0.04206845            4 
  485000    1.1781161    -6.279747    237.80237  0.040859514  0.042061574            2 
  486000    1.1845582   -6.2915723    238.78233  0.040943472  0.042054299            2 
  487000    1.1608104    -6.295561    238.37628  0.040789917  0.042046509            2 
  488000    1.1684075   -6.2671602    240.16706  0.041012135  0.042039349            5 
  489000    1.1957422   -6.2793316    239.97563  0.040895642  0.042033184            5 
  490000    1.1688404   -6.2222941    240.83861  0.040958948  0.042027557            4 
  491000    1.1917076   -6.2683111    241.42304  0.040974719   0.04202175            2 
  492000    1.1564335   -6.2584008    241.97487  0.040984903   0.04201594            2 
  493000    1.1896935   -6.2693285    241.80311  0.040872737  0.042010043            2 
  494000      1.16406   -6.2883338    242.70185  0.040941607  0.042004161            4 
  495000    1.1858177   -6.2764983    243.06713  0.040920393   0.04199844            2 
  496000    1.1980853   -6.2785379     244.1289   0.04101628  0.041992574            3 
  497000    1.1871257   -6.3010807    243.82507  0.040882809  0.041986759            2 
  498000    1.1861997   -6.3127048     244.5812  0.040927243  0.041980973            2 
  499000    1.1657649   -6.2748995    245.99556  0.041081422  0.041975335            2 
  500000    1.1773676   -6.2809675    245.74462  0.040957437  0.041970083            1 
  501000    1.1678343   -6.2516042    246.58017  0.041014665  0.041965068            3 
  502000    1.1663246   -6.3153526    245.61909  0.040773421  0.041959234            1 
  503000    1.1444827   -6.2847828    246.43467  0.040827481  0.041953301            1 
  504000    1.2128009   -6.2779709    247.56551   0.04093345  0.041947423            1 
  505000    1.1778033   -6.3231328    246.81586   0.04072869  0.041941956            3 
  506000    1.1586035   -6.2812988    248.10982  0.040861302  0.041936365            3 
  507000    1.1677985   -6.2847896    249.27645   0.04097246  0.041930902            4 
  508000    1.1878711    -6.271038    249.30482  0.040896461  0.041925417            3 
  509000    1.1688163   -6.2730613    250.37762  0.040991752  0.041919951            5 
  510000    1.1729862    -6.270983    250.50739   0.04093258  0.041915524            1 
  511000    1.1935136   -6.2833649    251.40568  0.040998969  0.041910565            4 
  512000    1.1615984   -6.2499568    251.84985  0.040991186  0.041905848            4 
  513000    1.1670349   -6.3015109    251.10165  0.040789741  0.041900451            4 
  514000    1.1870682   -6.2417125    252.35226  0.040913142  0.041895273            2 
  515000    1.1748702   -6.2722695    252.56262  0.040867738  0.041890393            2 
  516000    1.1817007   -6.2522599    252.85442  0.040835662  0.041883771            3 
  517000    1.1778603   -6.2463927    253.21936    0.0408155  0.041877087            4 
  518000    1.1509287   -6.2733426    253.93907  0.040852489  0.041870694            2 
  519000    1.1703106    -6.320216    253.82754  0.040755867  0.041864262            3 
  520000    1.1805042   -6.2930552    254.52207  0.040788793  0.041858155            4 
  521000    1.1823532   -6.3083152    255.42575  0.040855046  0.041851933            2 
  522000    1.1741504   -6.2970085    256.29819  0.040916058  0.041845057            5 
  523000    1.1864587   -6.2650103    256.07054  0.040801552  0.041838923            3 
  524000    1.1564281   -6.3055375      257.005  0.040872296  0.041832872            2 
  525000    1.1769808   -6.2694316    257.92821  0.040940985  0.041827607            2 
  526000    1.1753371   -6.2860938    257.49072  0.040793841  0.041822176            3 
  527000    1.1503154   -6.2994698    258.29598  0.040843766   0.04181602            4 
  528000    1.2087837   -6.2820803    257.50819  0.040642076  0.041810315           13 
  529000    1.1638693   -6.2950277    258.40742  0.040706903  0.041803616            3 
  530000    1.1688601   -6.2804383    259.13074  0.040743826  0.041796999            3 
  531000    1.1787541    -6.298579    260.36824  0.040861305   0.04179143            1 
  532000    1.1558021   -6.2816247    260.70987  0.040838013  0.041784657            3 
  533000     1.180083   -6.3080287    260.52005  0.040731715  0.041777233            2 
  534000    1.1743271   -6.3158591    259.81164  0.040544888  0.041769763            3 
  535000    1.1479709   -6.2858376    260.25936  0.040538841  0.041762387            7 
  536000    1.1618843   -6.2957166    260.80907  0.040548674  0.041754837            3 
  537000    1.1996357   -6.3109709    261.43321   0.04057002  0.041746746            2 
  538000    1.1511552   -6.2808562    261.14405  0.040449821  0.041738571            2 
  539000    1.1651925   -6.2972386    262.21127  0.040539775  0.041730241            2 
  540000    1.1689123   -6.3468724    261.59126  0.040369022  0.041722252            3 
  541000    1.1610172   -6.2538008    263.99149  0.040664123  0.041713977            6 
  542000    1.1869922   -6.2739731    263.00284  0.040437092  0.041705895            2 
  543000    1.1759036   -6.2853521    264.01933   0.04051862  0.041697792            5 
  544000    1.1444926   -6.2767153    264.72608  0.040552401  0.041689416            3 
  545000    1.1684687   -6.2781311    264.59777  0.040458375  0.041680706            4 
  546000    1.1574799   -6.3009844    264.49606  0.040368751  0.041671638            3 
  547000    1.1442018   -6.2969461    265.42547  0.040436543  0.041662684            2 
  548000    1.1809494   -6.2972531    265.97933  0.040446978  0.041654395            2 
  549000     1.157153   -6.3139513    266.15514  0.040399991  0.041645641            2 
  550000    1.1780464   -6.2849279    266.48965   0.04037722  0.041636651            3 
  551000    1.1553665   -6.2354825    267.68411   0.04048459  0.041627092            3 
  552000    1.1690143   -6.2807715    266.97706  0.040304508  0.041617788            3 
  553000    1.1472991   -6.2642542    267.36597  0.040290231  0.041608008            3 
  554000     1.156962   -6.2922376    268.26974   0.04035345  0.041598371            5 
  555000    1.1769303   -6.2718042      268.391  0.040298949  0.041588519            2 
  556000    1.1706604     -6.30851     268.5825  0.040255171  0.041578232            3 
  557000    1.1865571   -6.3278677    268.42075    0.0401587  0.041568135            4 
  558000    1.1554506   -6.2909053    270.31239  0.040369234  0.041558768            6 
  559000    1.1766781   -6.3015826    271.21753  0.040431951  0.041549806            2 
  560000    1.1413901   -6.2739069    271.06944  0.040337714  0.041540882            5 
  561000    1.1575282   -6.2990373     271.3574  0.040308586   0.04153195           10 
  562000    1.1806294   -6.2845772    271.85289  0.040310333  0.041522764            4 
  563000    1.1457372    -6.283438      272.543  0.040340882  0.041514064            3 
  564000    1.1540095   -6.2730838    272.27644  0.040229971  0.041505809            3 
  565000    1.1620949   -6.3505338    273.41418  0.040326575  0.041496762            3 
  566000    1.1310289   -6.2893848    274.10608  0.040357196  0.041487669            3 
  567000    1.1628362   -6.2628237    273.91774  0.040258339  0.041478394            3 
  568000    1.1905128   -6.2752263     274.8026  0.040317283  0.041469134            2 
  569000    1.1803885   -6.2535079    275.25443  0.040312599  0.041459963            2 
  570000    1.1564317   -6.2827081     276.1319  0.040370161  0.041450558            2 
  571000    1.1493163   -6.2917736    275.96221  0.040274695  0.041440657            5 
  572000    1.1656677   -6.2925489    275.63234  0.040156226  0.041430654            6 
  573000    1.1616057     -6.25478    276.48698  0.040210439  0.041421268            2 
  574000    1.1549282   -6.2785134     276.1671  0.040093946  0.041412005            8 
  575000    1.1687044   -6.2910299    277.31009  0.040189868  0.041402424            5 
  576000     1.164487   -6.3302242    277.47243   0.04014358  0.041393097            7 
  577000    1.1951768   -6.3140116    278.22095  0.040182113  0.041383719            3 
  578000    1.1753378   -6.3119307    278.93342  0.040215314  0.041374277            3 
  579000    1.1859063   -6.2883385    279.39374   0.04021211  0.041364884            5 
  580000    1.1749371      -6.3042    279.79269  0.040200099  0.041355468            4 
  581000     1.185472   -6.2786136    280.01947  0.040163435  0.041345404            5 
  582000    1.1582156   -6.3257407    279.03455  0.039953401  0.041335125            3 
  583000    1.1485607   -6.2998772    279.43095  0.039941531  0.041323995            8 
  584000    1.1475436    -6.296712     281.0783  0.040108205   0.04131345            3 
  585000      1.15557   -6.2990376    280.64812  0.039978364  0.041302205            2 
  586000    1.1530327   -6.2737473    281.23875  0.039994134  0.041290629            2 
  587000    1.1520726   -6.3060291    281.78786  0.040003956   0.04127939            6 
  588000     1.177429   -6.2783588     281.1338  0.039843226  0.041268292            3 
  589000    1.1440977   -6.2917015    281.52694  0.039831203  0.041257177            3 
  590000    1.1805052   -6.3032257    282.58615  0.039913298  0.041245908            8 
  591000    1.1721325    -6.310726    283.81445  0.040018957  0.041234752            3 
  592000    1.1542744   -6.3222394    282.42717  0.039756077  0.041223207            5 
  593000     1.190229   -6.2728798    282.80661  0.039742357  0.041211386            3 
  594000    1.1588497   -6.2930028    283.95186  0.039836119  0.041199416            5 
  595000    1.1463574   -6.2989831    284.75082  0.039881067  0.041187637            1 
  596000    1.1532117    -6.297443     285.4813  0.039916289  0.041176408            4 
  597000    1.1487604   -6.3511505    285.04169  0.039788064  0.041165032            2 
  598000    1.1559818   -6.2928852    286.87596   0.03997714  0.041153639            2 
  599000    1.1398421   -6.2950834    286.53729  0.039863284  0.041142547            4 
  600000    1.1536625   -6.3152503    286.25288  0.039757344  0.041130712            3 
  601000    1.1665257   -6.3007578    286.89755  0.039780581  0.041119713            2 
  602000     1.180019   -6.3039815     288.0615  0.039875623  0.041108751            3 
  603000    1.1662804   -6.3015229     287.7558  0.039767247  0.041097387            3 
  604000    1.1538926   -6.3075499    288.03523   0.03973996  0.041086113            2 
  605000    1.1700637   -6.2883224    289.55766  0.039883976  0.041075193            4 
  606000    1.1383859   -6.2807551    289.51379  0.039812127  0.041063947            4 
  607000    1.1645691   -6.2948371    290.49768  0.039881614  0.041052869            5 
  608000    1.1507105   -6.2860745     291.1499  0.039905414  0.041041765            2 
  609000     1.156536   -6.2818173    289.84386  0.039661174  0.041030929            1 
  610000    1.1917672   -6.3296596    291.50833  0.039823542  0.041019837            4 
  611000    1.1821007   -6.3247133    291.74317  0.039790394  0.041009245            2 
  612000    1.1667707   -6.3053912    292.74139    0.0398613  0.040999104            2 
  613000    1.1658658   -6.3043196    292.67661  0.039787467  0.040988917            2 
  614000    1.1655861   -6.3038688    293.26603  0.039802664  0.040979053            5 
  615000    1.1473435   -6.3162687    293.63528  0.039787979  0.040968848            2 
  616000    1.1403243   -6.3409386    294.02885   0.03977663  0.040958376            4 
  617000    1.1782069   -6.2982965    294.35179  0.039755779  0.040948597            5 
  618000     1.167956   -6.2927098    295.22432  0.039809104  0.040938953            6 
  619000    1.1432569   -6.3334906    295.51035    0.0397833  0.040929082            3 
  620000     1.153916   -6.3329572    296.44838  0.039845212  0.040919133            3 
  621000    1.1609496   -6.3222191    297.14823  0.039874964  0.040910263            5 
  622000    1.1688727    -6.286847    297.51249  0.039859658  0.040901809            2 
  623000    1.1548997   -6.3107949    299.05707  0.040002284  0.040893723            7 
  624000    1.1446381   -6.3229019     299.3491  0.039977177  0.040885336            7 
  625000    1.1691777   -6.2919476    299.85062  0.039980083  0.040876946            5 
  626000    1.1388923   -6.2609531    300.60594  0.040016765  0.040869186            1 
  627000    1.1545582   -6.3526522    300.35669  0.039919815  0.040860848            6 
  628000    1.1355796   -6.2965072    301.10365  0.039955367  0.040852933            6 
  629000    1.1624308   -6.3372761    301.79483  0.039983417  0.040845326            2 
  630000    1.1590795   -6.2984476    302.06113  0.039955176  0.040837962            2 
  631000    1.1726772   -6.3121293    301.62048  0.039833661  0.040830263            3 
  632000    1.1505353   -6.2995115    302.16892  0.039842948  0.040822729            3 
  633000    1.1575433   -6.2895299    303.63982  0.039973646  0.040815402            4 
  634000    1.1291964   -6.3280291     303.4151  0.039881059  0.040807941            4 
  635000     1.153747   -6.2706567    305.08478  0.040037373  0.040801267            2 
  636000    1.1474438    -6.333144    304.96567  0.039958815  0.040794371            2 
  637000    1.1588696   -6.3146698    305.96934  0.040027386  0.040787554            4 
  638000    1.1427554   -6.3254521    306.62952  0.040050878  0.040780632            2 
  639000    1.1203006   -6.2864004    307.50476  0.040102343  0.040773751            3 
  640000    1.1421382   -6.3072594    306.38103  0.039893363  0.040767077            3 
  641000    1.1615693    -6.328718    306.87743  0.039895661  0.040760079            4 
  642000    1.1659586   -6.3187351     306.9491  0.039842821  0.040752718            3 
  643000    1.1489273    -6.268309    308.88692  0.040032001  0.040745775            1 
  644000    1.1526632    -6.291164    308.42098  0.039909548  0.040739323            5 
  645000    1.1715847   -6.3346872    308.25356  0.039826042  0.040732509            4 
  646000    1.1920562   -6.3056774    310.07649  0.039999547  0.040725184            2 
  647000    1.1195487   -6.3303816    310.01955   0.03993039  0.040718041            3 
  648000    1.1276435   -6.3387262     310.9718  0.039991229  0.040710826            4 
  649000    1.1344425   -6.3339057    310.50715  0.039869948  0.040703537            3 
  650000    1.1634893   -6.3406964    310.48408  0.039805651  0.040696006            4 
  651000    1.1466861   -6.3063806    311.83358  0.039917252  0.040688741            4 
  652000    1.1233817   -6.3235753    311.91386  0.039866291  0.040681194            3 
  653000    1.1415278   -6.3020757    312.82555  0.039921586  0.040674202            4 
  654000    1.1496144   -6.3478685    312.84409  0.039862907  0.040667125            4 
  655000    1.1586092   -6.3109629    313.28522  0.039858171  0.040659913            4 
  656000    1.1423828   -6.3165528    313.32294  0.039802202  0.040652743            5 
  657000    1.1176979   -6.3166229     314.9475  0.039947679  0.040645332            4 
  658000    1.1483357   -6.3147896    315.08133  0.039903917  0.040638803            2 
  659000    1.1193899   -6.3231164    313.84812   0.03968742   0.04063166            1 
  660000    1.1231401   -6.3176813     315.7671  0.039869583   0.04062474            3 
  661000    1.1527373   -6.3318475    314.58224  0.039659889  0.040617575            3 
  662000     1.144743    -6.308433    316.53159  0.039845366  0.040610872            3 
  663000    1.1456457   -6.2939264    317.58976  0.039918271  0.040603968            4 
  664000    1.1873811      -6.3246    317.66687  0.039867831   0.04059681            4 
  665000     1.180007   -6.2965237    317.72699  0.039815412  0.040590085            3 
  666000    1.1543306   -6.3238481    318.39728    0.0398395  0.040583323            3 
  667000    1.1407337   -6.3198968    319.13124  0.039871469  0.040576386            2 
  668000    1.1484908   -6.3261822    319.44243  0.039850602  0.040570432            5 
  669000    1.1468753   -6.3225338    319.92538  0.039851194  0.040564129            3 
  670000     1.129184   -6.3081585     320.7911   0.03989939   0.04055831            1 
  671000    1.1525932   -6.3023455    321.04703  0.039871713  0.040552688            8 
  672000     1.143693   -6.3261826    321.39741   0.03985583  0.040546904            2 
  673000    1.1569271   -6.2978024    322.85126  0.039976629  0.040541241            3 
  674000    1.1312366   -6.3006524    323.17664  0.039957547  0.040535801            2 
  675000    1.1371233   -6.3396539    322.48362  0.039812793  0.040530009            2 
  676000     1.132493   -6.3383142     323.9238  0.039931435  0.040523604            3 
  677000    1.1447183   -6.3424981    322.79329  0.039733296  0.040516866            2 
  678000    1.1470017   -6.3274898    323.96413    0.0398186  0.040510331            2 
  679000    1.1172549   -6.3212466    326.11357  0.040023756  0.040504175            4 
  680000    1.1328251   -6.3254623     325.5185  0.039891973  0.040497669            2 
  681000    1.1264194   -6.3248954     326.0184  0.039894566  0.040491683            2 
  682000    1.1325031   -6.3235117    325.47019  0.039769085  0.040485557            6 
  683000     1.135403   -6.3279379    324.78312  0.039627028  0.040478689            5 
  684000    1.1633312   -6.2960182    326.59217  0.039789495  0.040471958            3 
  685000     1.143637   -6.3132204    326.55149  0.039726459  0.040465361            3 
  686000    1.1390133   -6.3459654    326.11163  0.039615115  0.040458639            2 
  687000    1.1358516   -6.3400505    327.15413  0.039683907  0.040451778            2 
  688000     1.166593   -6.3169866    327.89645   0.03971614  0.040445281            2 
  689000    1.1536158   -6.3209221    328.27234   0.03970396  0.040438797            2 
  690000    1.1348004   -6.3382292     328.9594  0.039729396  0.040432174            5 
  691000    1.1282122   -6.3321075    329.11395  0.039690539  0.040425207            2 
  692000    1.1435806   -6.3255814    330.03038  0.039743542  0.040417694            3 
  693000    1.1234238   -6.3364817     329.8738  0.039667364  0.040410427            4 
  694000    1.1370133   -6.3052396    329.36244  0.039548804   0.04040311            4 
  695000    1.1574592   -6.2883137    329.96737  0.039564433  0.040395703            4 
  696000    1.1474683   -6.3642464      329.834  0.039491618  0.040387874            5 
  697000    1.1385557   -6.3023355    331.46785  0.039630303  0.040380228            1 
  698000     1.153482   -6.3463494    330.28874  0.039432753  0.040372338            3 
  699000    1.1632439   -6.3387038    331.00552  0.039461793  0.040364243            5 
  700000    1.1379141   -6.3244086    332.14216  0.039540733  0.040356604            3 
  701000    1.1347414   -6.3273102    332.80125  0.039562679  0.040348826            3 
  702000     1.149232    -6.328129     333.7196  0.039615338  0.040341019            2 
  703000    1.1228194   -6.2839579    334.32611  0.039630881  0.040332926            3 
  704000     1.145884   -6.3309295    333.86923  0.039520506  0.040324866            2 
  705000    1.1340413   -6.3371477    334.17786  0.039500929  0.040316538            5 
  706000    1.1544416   -6.3537487    334.75144  0.039512682  0.040308243            2 
  707000    1.1343296   -6.2872014    335.32619  0.039524539  0.040300117            3 
  708000    1.1661083   -6.3400171    335.93141   0.03953995  0.040292564            3 
  709000    1.1410862   -6.3578695    335.33339  0.039413892  0.040284716            4 
  710000    1.1093547    -6.336855    335.88357  0.039422954  0.040276683            3 
  711000    1.1282257   -6.3378673     336.9381  0.039491104  0.040268301            3 
  712000    1.1030609   -6.3444208    336.52265  0.039387014  0.040259948            3 
  713000    1.1478915   -6.3437329    338.13165  0.039519828  0.040252129            6 
  714000    1.1634708    -6.310291    338.53506  0.039511561  0.040244466            2 
  715000    1.1414896   -6.3658687    337.90049  0.039382342  0.040236729            5 
  716000    1.1102048    -6.332433    339.29227  0.039489324  0.040229111            7 
  717000    1.1348399   -6.3353023    338.52839  0.039345466   0.04022116            2 
  718000    1.1306414   -6.2995014    340.26922  0.039492714  0.040212909            2 
  719000    1.1437054   -6.3169805    339.45993  0.039343988  0.040204469            3 
  720000    1.1267616   -6.3203253    341.35743  0.039508962  0.040196329            2 
  721000    1.1355731   -6.2911864    340.13377  0.039312733  0.040187981            4 
  722000    1.1476865   -6.3156444    340.01046  0.039244051  0.040179658            2 
  723000    1.1261157    -6.320425    341.56273  0.039368687  0.040171318            2 
  724000    1.1513231   -6.3399117    340.96355  0.039245344  0.040162713            3 
  725000    1.1355726   -6.3381294    342.56467  0.039375249  0.040154317            2 
  726000    1.1365042    -6.340753    341.60832   0.03921124  0.040145979            4 
  727000    1.1400154   -6.3471737    342.70925    0.0392835  0.040137689            6 
  728000    1.1461935   -6.3206814      343.742  0.039347757  0.040129232            2 
  729000    1.1316264   -6.3235859    343.04007  0.039213543  0.040120432            4 
  730000    1.1317649   -6.3597138    342.90059  0.039143902   0.04011206            3 
  731000    1.1494448   -6.3681733    343.19411  0.039123815  0.040103296            3 
  732000    1.1077752    -6.345201    344.93411  0.039268455  0.040094761            2 
  733000    1.1368672   -6.3901557    342.93508  0.038987617  0.040085749            2 
  734000    1.1464891   -6.3664365    344.12412  0.039069496  0.040076783            4 
  735000     1.123127     -6.33802    344.79982   0.03909295  0.040068287            3 
  736000    1.1413676   -6.3247539    346.41369  0.039222565  0.040059604            2 
  737000    1.1199515    -6.367078     346.3266  0.039159498  0.040051082            3 
  738000    1.1199782   -6.3718295    345.35349  0.038996555  0.040042125            2 
  739000    1.1302309     -6.31102    347.66996  0.039205002  0.040033303            3 
  740000    1.1490296    -6.383839    346.55889  0.039026902  0.040024142           10 
  741000    1.1177853   -6.3552523    347.83888  0.039118183  0.040014919            5 
  742000    1.1394739   -6.3667962     348.2062  0.039106716  0.040006165            3 
  743000     1.139056   -6.3587556    348.90264  0.039132194  0.039996993            5 
  744000    1.1642348   -6.3464148    349.69129  0.039167931  0.039988662            2 
  745000    1.1375942   -6.3163562    350.55303  0.039211748   0.03998043            7 
  746000    1.1058505   -6.3636355    350.54191  0.039157943   0.03997215            2 
  747000    1.1431628   -6.3144514    352.03189  0.039271741  0.039963989            3 
  748000    1.1511478   -6.3186517    352.46366  0.039267341  0.039956076            4 
  749000    1.1412964   -6.3349803    351.90023  0.039152229  0.039947915            3 
  750000    1.1315297    -6.365928      352.992  0.039221334  0.039939868            3 
  751000    1.1339587   -6.3282243    352.78238  0.039145847  0.039931983            7 
  752000    1.1175115   -6.3762773    352.78606    0.0390942   0.03992401            3 
  753000    1.1268087   -6.3358138     353.8124  0.039155865  0.039915806            2 
  754000    1.1394561   -6.3788587    353.26037  0.039042924  0.039907562            2 
  755000    1.1442797   -6.3507568    353.44428   0.03901151  0.039899033            8 
  756000    1.1106456   -6.3734064    354.31665  0.039056068  0.039890507            4 
  757000    1.1181741   -6.3524617    354.26178  0.038998435  0.039882081            2 
  758000    1.1169614   -6.3270602    354.85062  0.039011722  0.039872991            2 
  759000    1.1505334   -6.3474765    355.48063  0.039029494  0.039864122            3 
  760000     1.117833   -6.3593079    356.11572  0.039047776  0.039855084            2 
  761000    1.1295551   -6.3557418    354.91735  0.038865237  0.039845754            4 
  762000    1.1462219   -6.3637062    355.48196   0.03887598  0.039836979            5 
  763000     1.120746   -6.3066813     357.0707  0.038998547  0.039827905            4 
  764000    1.1130838   -6.3773922    356.69452  0.038906471  0.039819067            9 
  765000    1.1263595   -6.3385277    358.03992   0.03900217  0.039810173            3 
  766000    1.1498527   -6.3555248    357.40145  0.038881793  0.039800827            4 
  767000    1.1176323   -6.3584206    358.39019  0.038938526  0.039791758            3 
  768000    1.1419557   -6.3413883    358.19139  0.038866253  0.039782508            2 
  769000    1.1325309   -6.3181799    359.10216  0.038914409  0.039773599            3 
  770000    1.1451725   -6.3681394    359.86026  0.038945916  0.039764748            5 
  771000    1.1326438   -6.3376951    359.37144  0.038842568  0.039756128            4 
  772000    1.1516513   -6.3587615    360.79921  0.038946374  0.039747395            4 
  773000    1.1571639   -6.3366871    360.79997  0.038896073  0.039738954            4 
  774000    1.1451439   -6.3616064    361.27686  0.038897164  0.039730046            2 
  775000     1.110615   -6.3901932    360.51762  0.038765335  0.039720773            4 
  776000    1.1294056   -6.3353371    361.65941  0.038837995  0.039711397            1 
  777000    1.1089765   -6.3755649    362.19939  0.038845924   0.03970188            2 
  778000    1.1659176   -6.3409747    362.40442  0.038817954  0.039692478            4 
  779000    1.1076533   -6.3791698    362.08279  0.038733717  0.039683096            3 
  780000     1.143235   -6.3464058    362.53361  0.038732223  0.039673732            3 
  781000    1.1385408   -6.3772478    363.16905  0.038750432  0.039664492            4 
  782000    1.1394063   -6.3743387    362.86557  0.038668539  0.039655353            5 
  783000    1.1480365   -6.3608747     364.7168  0.038816177  0.039645943            4 
  784000    1.1262675    -6.366461    364.16541  0.038708058  0.039636748            3 
  785000    1.1353686   -6.3685118    365.12287   0.03876039  0.039627627            2 
  786000    1.1155621   -6.3376375    366.12505  0.038817329  0.039618663            4 
  787000    1.1378515   -6.3896633    364.14818  0.038558681  0.039609362            4 
  788000    1.1538925   -6.3501701    365.81656  0.038686185  0.039599803            1 
  789000    1.1292056   -6.3730396    365.54452   0.03860842  0.039590424            4 
  790000    1.1229433   -6.3547525     365.8335  0.038590032  0.039580837            5 
  791000    1.1373441   -6.3722717    367.57916  0.038725154  0.039571819            4 
  792000    1.1209092   -6.3761179    367.27593  0.038644353  0.039562955            4 
  793000    1.1405938   -6.3366972    367.90628  0.038661862  0.039553711            5 
  794000    1.1278996    -6.390626    368.28146  0.038652546   0.03954435            3 
  795000    1.1313538   -6.3657534    368.68996  0.038646746  0.039535258            4 
  796000    1.1141195   -6.3409373    369.33977  0.038666224  0.039526465            4 
  797000    1.1402314   -6.3797376    369.62365  0.038647392  0.039517282            3 
  798000    1.1228574   -6.3869823     368.6509  0.038497379  0.039507649            2 
  799000     1.139387   -6.3587906     370.3924   0.03863083  0.039498335            3 
  800000    1.1144193   -6.3577013    370.94977  0.038640601  0.039488969            7 
  801000    1.1293757   -6.3762194    368.95822  0.038385166  0.039479034            3 
  802000    1.1324452   -6.3635079    370.65902  0.038514029  0.039469295            5 
  803000    1.1216935   -6.3402797    371.86448  0.038591166  0.039459613            3 
  804000     1.109462       -6.376    371.63253  0.038519126  0.039450161            3 
  805000    1.1312559   -6.3914508     371.3575  0.038442806  0.039440807            3 
  806000    1.1288083   -6.3723373    372.72657  0.038536659  0.039431249            5 
  807000     1.108393   -6.3674727    373.08618  0.038526041  0.039421438            2 
  808000    1.1091011   -6.3860401    373.48491  0.038519483  0.039411938            2 
  809000    1.1228102   -6.3884031    373.54016   0.03847756  0.039402304            2 
  810000    1.1187132   -6.3351121    374.67537  0.038546848  0.039392758            2 
  811000     1.136766   -6.3484531    374.86911  0.038519226  0.039383508            3 
  812000    1.1296963    -6.372489    375.24086   0.03850994  0.039373666            2 
  813000    1.1028228   -6.3600511    373.48205  0.038282293  0.039363687            5 
  814000    1.1317579   -6.4002676    375.85448  0.038478141  0.039353685            4 
  815000    1.0999565   -6.3079966     376.1329  0.038459397  0.039343794            3 
  816000    1.1106184   -6.3844982    375.92754  0.038391293  0.039333895            7 
  817000    1.1327243   -6.3794956    376.96452  0.038450074  0.039323825            2 
  818000    1.1190716   -6.3440971    377.77904  0.038486047  0.039313619            3 
  819000     1.100377   -6.3956398    376.74128  0.038333464  0.039303462            2 
  820000    1.1425183   -6.3313251    377.49963  0.038363784  0.039293045            5 
  821000    1.1261447     -6.33917    377.75718  0.038343197  0.039282916            3 
  822000    1.1335887   -6.3930305    376.89661  0.038209307  0.039272668            5 
  823000    1.1112511   -6.3451438    378.72295  0.038347808  0.039262329            2 
  824000    1.1082071   -6.3921897    377.97888  0.038226019  0.039251917            2 
  825000    1.1156794   -6.3452377    380.05907  0.038389805  0.039241669            5 
  826000    1.1232961    -6.391523    379.17459  0.038254095  0.039231681            3 
  827000    1.1405401   -6.3806878     378.3102  0.038120738   0.03922176            2 
  828000    1.1198053   -6.3567412    380.29661  0.038274619  0.039211379            8 
  829000     1.125471   -6.3886315    380.71497  0.038270503   0.03920118            2 
  830000    1.1031721   -6.3656595    380.86623  0.038239581  0.039191377            3 
  831000    1.1293633   -6.3785113    381.00263  0.038207243  0.039181026            3 
  832000    1.1186268    -6.377342    380.84846   0.03814588  0.039170609            5 
  833000     1.123704   -6.3664002    382.38837  0.038254139  0.039160184            5 
  834000    1.1009162   -6.3542624    381.59634  0.038129131      0.03915            4 
  835000    1.1228707   -6.3442522    382.77414  0.038201012    0.0391396            5 
  836000    1.1173788   -6.3793159    382.77478  0.038155381   0.03912906            3 
  837000    1.1291158    -6.454713    382.99974  0.038132192  0.039118703            3 
  838000    1.1358611   -6.4055525    383.64547  0.038150902  0.039108326            2 
  839000    1.1170154   -6.3643655    384.74751   0.03821489  0.039098336            7 
  840000    1.1029345   -6.3753288    383.82618  0.038077994  0.039088015            5 
  841000    1.1477934    -6.397343    385.19663  0.038168513  0.039077745            4 
  842000    1.1400515   -6.3665714    383.44589   0.03794991  0.039067006            4 
  843000    1.0934803   -6.3817435    384.33834  0.037993114  0.039056307            4 
  844000     1.118247   -6.3843216    385.97337  0.038109535    0.0390453            3 
  845000    1.1188921   -6.3868839    384.84103  0.037952764  0.039034556            2 
  846000    1.1058996   -6.3957639    384.60043  0.037884204  0.039023683            3 
  847000     1.103079   -6.3581597    386.94469  0.038070119   0.03901268            3 
  848000    1.1052431    -6.383042    387.44812  0.038074697  0.039002217            4 
  849000    1.1285976   -6.3605439    387.37193  0.038022372  0.038991933            4 
  850000    1.1124569   -6.3440599    387.98324  0.038037572  0.038981418            5 
  851000    1.1072489   -6.3949366    387.76938  0.037971933  0.038970913            4 
  852000     1.126624   -6.3957145    388.66951  0.038015406   0.03896064            5 
  853000    1.1161836    -6.361282      389.312  0.038033607  0.038950532            2 
  854000    1.1155204   -6.4053021    389.17379  0.037975585  0.038940314            3 
  855000    1.1139769   -6.3491057    390.46152  0.038056678  0.038930302            2 
  856000    1.1376294   -6.4051485    390.32077  0.037998517  0.038920198            2 
  857000    1.1188846   -6.3857337    390.78986  0.037999792  0.038910351            2 
  858000    1.0900948   -6.3825903    391.46405  0.038020983  0.038900429            7 
  859000    1.1239884   -6.3329805      393.096   0.03813504  0.038890968            3 
  860000    1.1075097   -6.3827897     393.4845  0.038128343  0.038881076            5 
  861000     1.108762   -6.3750752    392.79091  0.038016929  0.038871684            2 
  862000    1.1044356   -6.4074448    393.16879  0.038009357  0.038861717            6 
  863000    1.1080194   -6.3674424    393.43225  0.037990754  0.038852248            5 
  864000    1.1166518   -6.3837644    394.15321   0.03801632  0.038842527            4 
  865000    1.1224208   -6.3768651    396.60383  0.038208461  0.038833288            5 
  866000     1.090312   -6.3359131    395.56184  0.038064072  0.038824381            2 
  867000    1.1125527   -6.3558287    396.91792  0.038150512  0.038815317            5 
  868000    1.1464448   -6.3751603    395.51232  0.037971613  0.038805874            2 
  869000    1.1121337   -6.3899702    396.15892  0.037989923   0.03879636            3 
  870000    1.1296923   -6.4321844    395.52194  0.037885244  0.038786447            3 
  871000    1.1120147   -6.3540721    395.95078  0.037882776  0.038776718            4 
  872000    1.1216683   -6.3793922    396.30568  0.037873249  0.038766913            2 
  873000    1.1198681   -6.3371753     397.9226  0.037984211  0.038757123            3 
  874000    1.1108682   -6.3867906     396.9806  0.037850935  0.038747501            5 
  875000    1.1040386   -6.3628749    398.34708  0.037937817  0.038738078            3 
  876000     1.101143   -6.4181357    397.36936  0.037801499  0.038728611            4 
  877000    1.1085763   -6.4290544    398.42428  0.037858635  0.038718599            4 
  878000    1.1055099    -6.396192    399.10203  0.037879843  0.038708757            4 
  879000    1.1115182   -6.3762484    399.30217  0.037855723  0.038698972            3 
  880000    1.1319953   -6.3690108    400.51361  0.037927425   0.03868936            3 
  881000     1.114991   -6.4193782    398.91385  0.037733054   0.03867967            4 
  882000     1.109395   -6.4109446    399.96983  0.037790045  0.038669846            4 
  883000    1.1277759   -6.4000576    400.20046  0.037769012  0.038660065            2 
  884000    1.1358398   -6.3559626    401.40764  0.037840087  0.038650332            3 
  885000    1.0987416   -6.4330311    401.74425  0.037829026   0.03864035            2 
  886000    1.0895323   -6.3638934    401.99548  0.037809958  0.038630381            3 
  887000    1.1120435   -6.3923504    401.84594  0.037753282  0.038620373            3 
  888000    1.0946202   -6.3597589    403.35547  0.037852427  0.038610458            3 
  889000    1.1066428   -6.4139935    402.20926  0.037702405   0.03860049            2 
  890000    1.1039439   -6.3833503    403.02376  0.037736307  0.038590555            4 
  891000    1.1109874   -6.4080262    402.51249  0.037646136  0.038580357            2 
  892000    1.1615277   -6.3926452     403.7815  0.037722487  0.038570239           10 
  893000    1.1254936   -6.4029329    403.69687  0.037672347  0.038560314            1 
  894000    1.1293295   -6.3971778    404.84937  0.037737637  0.038550568            4 
  895000    1.1158186   -6.4023204     405.2443  0.037732244  0.038540529            2 
  896000    1.0752774   -6.3881185    406.78317  0.037833256  0.038530969            2 
  897000    1.1228217   -6.4013645    405.53262  0.037674899   0.03852151            4 
  898000    1.1081443   -6.4118219    407.23627  0.037791042  0.038512001            3 
  899000     1.105878   -6.3992803    407.18957  0.037744677  0.038502618            9 
  900000     1.111199   -6.3634454     408.3791  0.037812879  0.038493436            1 
  901000    1.0802237   -6.3811171    408.37495  0.037770528  0.038483945            9 
  902000    1.1301702   -6.3708941    408.77309  0.037765437  0.038474951            5 
  903000    1.0999879   -6.4319205    407.89519  0.037642598   0.03846542            6 
  904000    1.1003862   -6.4181086    409.61874   0.03775984  0.038455705            5 
  905000    1.1117661   -6.4182318    409.13819  0.037673867  0.038445924            4 
  906000    1.1107599   -6.3764102    408.75725  0.037597246  0.038436038            4 
  907000    1.0975182   -6.3903758    409.90978  0.037661685  0.038426175            4 
  908000    1.1179924   -6.3892493    410.55645  0.037679557  0.038416814            3 
  909000    1.1119821   -6.4346277    409.45302  0.037536947  0.038407469            3 
  910000    1.1145016   -6.4164768    410.34754  0.037577614  0.038398116            3 
  911000    1.1261118   -6.4069551    411.73599  0.037663373  0.038388687            2 
  912000    1.1467082   -6.3898342    412.73813  0.037713645  0.038379303            2 
  913000    1.1037166    -6.389553     411.3992  0.037550128   0.03837018            2 
  914000    1.1163794   -6.3898612     412.7105  0.037628601   0.03836068            2 
  915000     1.103997   -6.3878442    411.75763  0.037500695  0.038350957            5 
  916000    1.1184434   -6.4253943    412.61123  0.037537412  0.038341004            1 
  917000    1.1156539   -6.4008757    414.47519  0.037665866  0.038331444            3 
  918000    1.0717252   -6.3914925    413.60264  0.037545628  0.038321784            3 
  919000    1.1105487   -6.3876756    414.62897  0.037597839  0.038312378           11 
  920000    1.1126024   -6.3870489    414.82158  0.037574418   0.03830305            4 
  921000    1.1178667   -6.3698271    414.59244  0.037512888  0.038293651            3 
  922000    1.1202747   -6.3858676    416.09726  0.037608212  0.038284185            4 
  923000     1.094626   -6.3672172    415.74277  0.037535462  0.038274817            2 
  924000     1.121874   -6.3810869    417.07763  0.037615226  0.038265366            4 
  925000    1.1158026   -6.3949775    416.81648  0.037551035  0.038255868            2 
  926000    1.1335184    -6.376372    416.27094  0.037461388  0.038246435            3 
  927000    1.0818959   -6.4080006    417.57545  0.037538246  0.038236469            3 
  928000    1.0956713   -6.4254991    415.23307  0.037287452   0.03822633            3 
  929000    1.0952204   -6.4182944    417.32316    0.0374348  0.038216007            3 
  930000    1.1006511   -6.3910622    416.93538  0.037359801  0.038206197            6 
  931000    1.1132488   -6.4052666    417.09585  0.037334036  0.038196167            4 
  932000    1.1153944   -6.4256893    418.88871  0.037454284  0.038186449            6 
  933000    1.0967278   -6.3871311    418.43221  0.037373367  0.038176649            2 
  934000    1.1073753   -6.4118724    419.87553  0.037462128  0.038166979            3 
  935000    1.1221842   -6.4261691    418.88172  0.037333487  0.038157327            2 
  936000    1.1050801    -6.407821    422.00049  0.037571268  0.038147794            3 
  937000    1.1050516   -6.4329392    420.14344  0.037366012  0.038138338            3 
  938000    1.1042101   -6.4022999    421.71244  0.037465568  0.038128837            1 
  939000    1.1109327    -6.409758    421.53382  0.037409818  0.038119023            1 
  940000    1.1161706   -6.4098028    422.79652  0.037481961  0.038109499            4 
  941000    1.0935249   -6.4147083    422.41637  0.037408463  0.038099981            6 
  942000    1.0973868   -6.4196627    422.60154  0.037385133  0.038090369            2 
  943000    1.0953046   -6.4091208    421.83708  0.037277932  0.038080696            4 
  944000    1.0855051   -6.4145341    423.27032  0.037364964   0.03807118            4 
  945000    1.1078373   -6.4183681    422.28663   0.03723868  0.038062024            5 
  946000     1.065905   -6.4067917    423.63207  0.037317836  0.038052361            4 
  947000    1.0857154    -6.379665     426.7783  0.037555289  0.038042906            4 
  948000     1.086465   -6.4206228    425.71319  0.037422045  0.038033738            7 
  949000    1.0893727   -6.3825037    424.63403  0.037287849  0.038024443            3 
  950000    1.1024169   -6.4057623    425.18703  0.037297108  0.038015405            2 
  951000    1.0982464   -6.4049149     427.0858  0.037424272   0.03800672            4 
  952000    1.0982402   -6.3925695    427.68739  0.037437622  0.037997885            2 
  953000    1.0871591   -6.3881348    426.42901  0.037288301  0.037989069            3 
  954000     1.104594   -6.4092238    427.78252  0.037367446  0.037980312            6 
  955000    1.0938815   -6.4201686    428.30874  0.037374236  0.037971674            3 
  956000    1.1100174   -6.4083935    429.39211  0.037429577  0.037963397            3 
  957000    1.1073216   -6.4094644    429.82613   0.03742826  0.037954878            6 
  958000    1.1211155   -6.4190882    430.84214  0.037477569  0.037946424            1 
  959000    1.0920865   -6.3954556    430.22665  0.037385006  0.037937965            3 
  960000    1.1042313   -6.4224139    429.64532  0.037295601  0.037929427            6 
  961000      1.11564   -6.3891825    430.90107  0.037365684  0.037920874            3 
  962000    1.1003954   -6.3707005    431.32391  0.037363471  0.037912222            2 
  963000     1.120514    -6.378625    430.83696  0.037282534  0.037903554            4 
  964000    1.1376914   -6.4034494     432.0456   0.03734834    0.0378952            6 
  965000    1.0905758   -6.3902372    432.21409  0.037324187  0.037886849            3 
  966000    1.0911077   -6.4140143    432.95514  0.037349477  0.037878424            3 
  967000    1.1162642   -6.3791077    433.88146  0.037390681  0.037870086            4 
  968000     1.108387   -6.4297252    433.10255  0.037284999  0.037861755            6 
  969000    1.1114942   -6.3970332    433.53256  0.037283501  0.037853529            2 
  970000    1.0817498   -6.4245344    433.26428  0.037222017   0.03784503            6 
  971000    1.0918511     -6.40986    434.02618  0.037249072  0.037836523            4 
  972000    1.1083602   -6.3901029    435.92357   0.03737342  0.037828231            4 
  973000    1.0934397   -6.4075846    436.98577  0.037425983  0.037820206            4 
  974000    1.0839393   -6.3954817    437.26669  0.037411592  0.037812193            4 
  975000    1.0831301   -6.3999566    436.67192  0.037322386  0.037804403            5 
  976000    1.1080125   -6.4034874    437.13725  0.037323877  0.037796572            7 
  977000    1.1242519   -6.4621759    436.51485  0.037232587   0.03778851            2 
  978000    1.0869925   -6.3904258    437.04514  0.037239702  0.037780298            6 
  979000    1.0969593   -6.4095838    437.98635   0.03728178  0.037771976            5 
  980000    1.0941145   -6.4046624     438.8787  0.037319617   0.03776354            4 
  981000    1.0971816   -6.4212949    437.90492  0.037198855  0.037755168            2 
  982000    1.0875952   -6.4135748     437.7394  0.037146928  0.037746799            6 
  983000    1.1243869   -6.4058214    438.18552  0.037146958  0.037738246            4 
  984000    1.1346202   -6.4238254    439.52417  0.037222576  0.037729661            3 
  985000    1.1095104   -6.4152238    439.10783  0.037149563   0.03772094            2 
  986000    1.1017585   -6.4120592    441.04087   0.03727526  0.037712492            5 
  987000    1.1225609   -6.4262601    439.67279  0.037121985  0.037703796            4 
  988000    1.0909254   -6.4126707    440.82419  0.037181527  0.037695197            4 
  989000    1.0732304   -6.4102286    439.85422  0.037062203  0.037686373            1 
  990000    1.0798869   -6.4518122    439.59045  0.037002563  0.037677565            4 
  991000    1.0760905   -6.4067376    442.46015  0.037206538  0.037668698            6 
  992000    1.0759331   -6.4224499    440.54903  0.037008487  0.037660051            2 
  993000    1.0966412   -6.3841329    442.79901  0.037160037   0.03765155            3 
  994000    1.0928519   -6.4125625     443.4657  0.037178546  0.037643054            2 
  995000    1.1054636   -6.4458668    441.98613  0.037017263  0.037634534            8 
  996000     1.107802   -6.4028012    441.82544  0.036966653  0.037625991            3 
  997000     1.089233   -6.3616716    443.71769  0.037087737  0.037617633            4 
  998000    1.0897137   -6.4243398    444.35076  0.037103437  0.037609164            3 
  999000    1.0986503   -6.4213251    442.49488  0.036911485  0.037600287            4 
 1000000    1.0960757   -6.4385232    444.47779  0.037039816  0.037591674            3 
 1001000    1.0744547   -6.4025803    444.22464  0.036981738  0.037582917            6 
 1002000    1.0970626   -6.4540009    443.59739  0.036892664  0.037574026            3 
 1003000    1.1090277   -6.4237658    443.95736  0.036885789  0.037565206            4 
 1004000    1.0779145   -6.4176978    445.42475  0.036970845  0.037556601            7 
 1005000    1.0794969   -6.4197203    446.62124   0.03703327  0.037547813            5 
 1006000    1.0734691   -6.4182086    446.37827  0.036976331   0.03753898            2 
 1007000    1.1127809   -6.4434972    445.56169  0.036872037  0.037530078            3 
 1008000    1.0695585   -6.4316754    447.03147  0.036956967  0.037521197            4 
 1009000    1.0878808   -6.4213262    447.61068  0.036968176  0.037512609            2 
 1010000    1.0854153   -6.4478225    446.64876  0.036852208  0.037503966            6 
 1011000    1.0934769   -6.4225503    449.75915  0.037072136  0.037495318            3 
 1012000    1.1166692   -6.4299221    449.01891  0.036974548  0.037486866            9 
 1013000    1.0923007   -6.3965399    449.00721  0.036937085  0.037478266            2 
 1014000    1.0811531    -6.407197    449.51594  0.036942467  0.037469704            2 
 1015000    1.0925728   -6.4214712    450.50531    0.0369873  0.037461109            2 
 1016000    1.0720271   -6.3724126    451.90254  0.037065497  0.037452548            6 
 1017000    1.0773873   -6.4433116    449.96322  0.036870143  0.037443996            7 
 1018000     1.075713   -6.4132209     450.8379  0.036905526  0.037435232            4 
 1019000    1.1068527   -6.4218505    450.88323  0.036873016  0.037426508            2 
 1020000    1.1010876   -6.4214662    451.48707  0.036886198  0.037417667            4 
 1021000    1.0972723   -6.4393636    450.27077  0.036750798  0.037408825            3 
 1022000    1.0816953   -6.4466169    450.66654  0.036747109  0.037399785            8 
 1023000    1.1011885   -6.4288785    452.24509  0.036839776  0.037390921            4 
 1024000    1.0784551     -6.39125    451.83915  0.036770764  0.037382079            2 
 1025000     1.096902   -6.3867117     452.3213   0.03677409  0.037373345            5 
 1026000    1.0790675   -6.4660416    450.88185  0.036621333  0.037364554            4 
 1027000    1.0778935   -6.4258913    452.33003  0.036703183  0.037355678            3 
 1028000    1.0909646   -6.4430205    453.17199  0.036735732  0.037346834            5 
 1029000     1.116019   -6.4337175    454.56021  0.036812456  0.037337725            4 
 1030000    1.1081559   -6.4220673    454.30907  0.036756397  0.037328814            1 
 1031000    1.0886251   -6.4312198    455.03542  0.036779455  0.037319913            3 
 1032000    1.0838477   -6.4029456    454.55531  0.036705047  0.037311375            5 
 1033000    1.0750984   -6.4207439    454.82625  0.036691372    0.0373028            4 
 1034000    1.0909042   -6.4531564     456.2433  0.036770092  0.037294234            7 
 1035000    1.0915323   -6.4137754    455.53895  0.036677854  0.037285692            3 
 1036000    1.0743345   -6.4027465    458.87144  0.036910508  0.037277525            3 
 1037000     1.076498   -6.4377718    457.78727  0.036787791  0.037269244            4 
 1038000    1.1073362   -6.4323865    458.89487  0.036841271  0.037261078            2 
 1039000     1.091487    -6.445275    458.35267  0.036762325   0.03725319            3 
 1040000    1.0693876   -6.4260095    460.25935  0.036879756  0.037245151            1 
 1041000      1.10864   -6.4168998    460.82734  0.036889797  0.037237243            3 
 1042000    1.1110259   -6.4174337     460.3369  0.036815171  0.037229508            3 
 1043000    1.0992811   -6.4484438    460.36441  0.036782072  0.037221438            2 
 1044000    1.0771269   -6.4200617    459.21539  0.036655124  0.037213457            4 
 1045000    1.0956749   -6.4072704    462.64486   0.03689353  0.037205392            2 
 1046000    1.0752767   -6.4503061    460.50558  0.036687825  0.037197433            3 
 1047000    1.1078678   -6.4297925     460.6039  0.036660609  0.037189217            5 
 1048000    1.1006362   -6.4629074    460.54796   0.03662118  0.037181027            4 
 1049000    1.0818001    -6.461938    461.78285   0.03668437  0.037172813            2 
 1050000     1.082702   -6.4494101    461.91597  0.036659998  0.037164486            6 
 1051000    1.0512975   -6.4448387    461.36243  0.036581226  0.037156216            5 
 1052000    1.0838541   -6.4384189    463.42822  0.036710093   0.03714799            7 
 1053000    1.1038433   -6.4645538    463.95915  0.036717248  0.037139785            4 
 1054000    1.0878848   -6.4669883    463.18712  0.036621372  0.037131412            4 
 1055000     1.076972    -6.383456    464.25427  0.036670954  0.037123042            3 
 1056000    1.0775083   -6.4233125    465.65939  0.036747111  0.037114997            3 
 1057000    1.1021875   -6.4337033    464.66083  0.036633619  0.037106805            3 
 1058000    1.0673374    -6.421328      464.299  0.036570494  0.037098585            3 
 1059000    1.0735664    -6.451882    466.14465  0.036681197  0.037090389            2 
 1060000    1.0948185   -6.4547113    464.42566  0.036511451  0.037081923            7 
 1061000    1.1005612   -6.4233655    466.47941  0.036638345   0.03707338            3 
 1062000    1.0681112   -6.4373117    467.21724  0.036661742  0.037065013            4 
 1063000    1.0720728   -6.4102076    468.98815  0.036766082  0.037056558            5 
 1064000    1.0842862   -6.4100642    465.83678   0.03648471  0.037048051            4 
 1065000    1.0851175   -6.4106455    467.13478  0.036552017  0.037039494            5 
 1066000    1.0804696   -6.4661206    467.64623   0.03655771  0.037030724            3 
 1067000    1.0845858    -6.429478    466.67204  0.036447364  0.037022119            6 
 1068000    1.0758103   -6.4450435    467.94148  0.036512288  0.037013813            4 
 1069000    1.0844635    -6.465754    468.56721  0.036526911  0.037005519            6 
 1070000    1.0931413   -6.4521178    468.73049   0.03650549  0.036997311            3 
 1071000    1.0759694   -6.4187526    467.14185  0.036347794  0.036989106            3 
 1072000    1.0718396   -6.4960592    469.04522  0.036461848  0.036980777            4 
 1073000    1.0925876   -6.4369548    469.65222   0.03647501  0.036972438            9 
 1074000    1.0721928   -6.4416778    470.35165  0.036495317  0.036964286            3 
 1075000    1.0640631    -6.456866    470.93088   0.03650627   0.03695591            4 
 1076000     1.084441   -6.4324501    472.63402  0.036604245  0.036947518            5 
 1077000      1.10697     -6.45658    470.94356  0.036439459  0.036939312            4 
 1078000    1.0606537   -6.4699648    471.46129  0.036445678  0.036930967            5 
 1079000    1.0748277   -6.4410833    473.77692  0.036590742  0.036922924            9 
 1080000    1.0758106   -6.4458419    472.28511  0.036441752  0.036914817            4 
 1081000    1.0719896   -6.4156071    474.72011  0.036595753  0.036906744            3 
 1082000    1.0742101   -6.4325912    473.77938  0.036489478  0.036899144            2 
 1083000    1.0853696   -6.4163985     475.9848  0.036625485  0.036891546            4 
 1084000    1.0921323   -6.4564318     475.7404  0.036572909  0.036884102            6 
 1085000    1.0522665   -6.4565529    475.43752  0.036515939  0.036876646            3 
 1086000    1.0823605   -6.4779914    476.05964  0.036530052  0.036869284            5 
 1087000    1.0563476   -6.4283688    476.79481  0.036552807  0.036861772            3 
 1088000    1.0917826    -6.462953     477.4905  0.036572495  0.036854377            4 
 1089000    1.0854791   -6.4600045    476.88774  0.036492787   0.03684706            3 
 1090000    1.0815649    -6.464105    478.73136  0.036600257  0.036839787            3 
 1091000    1.0558272   -6.4610332    477.90338  0.036503467  0.036832475            7 
 1092000    1.0850556   -6.4541352    479.20239  0.036569169  0.036824872            4 
 1093000    1.0797456   -6.4409563    478.89032  0.036511918  0.036817411            2 
 1094000    1.0829229   -6.4441783    481.17105  0.036652274   0.03681007            8 
 1095000    1.0445472   -6.4430432    479.96064  0.036526685  0.036802637            2 
 1096000    1.0558792   -6.4220499    479.07893  0.036426318  0.036795083            2 
 1097000    1.0948992   -6.4438081     479.4861  0.036424043  0.036787251            4 
 1098000     1.069759   -6.4584705    480.87684  0.036496421  0.036779403            3 
 1099000    1.0684508   -6.4656162    480.36205  0.036424177  0.036771819            4 
 1100000    1.0829682   -6.4664033    481.34091  0.036465221  0.036763956            4 
 1101000    1.0615155   -6.4625567    479.94898  0.036326747  0.036756107            3 
 1102000    1.0782183   -6.4554843    480.61774  0.036344354   0.03674845            5 
 1103000    1.0885542   -6.4639508    482.06607  0.036420827   0.03674088            4 
 1104000    1.0663727   -6.4696948    481.42521  0.036339463  0.036733114            6 
 1105000    1.0985743   -6.4284638    482.16793  0.036362589  0.036725227            6 
 1106000    1.0972739   -6.4828951    481.67943  0.036292905  0.036717611            3 
 1107000    1.0681895   -6.4518078    482.84821  0.036348104   0.03670989            3 
 1108000    1.0705705   -6.4875068    482.87348  0.036317199  0.036702118            4 
 1109000    1.0889965   -6.4405313     484.2349  0.036386753  0.036694462            7 
 1110000     1.064337   -6.4800445    483.64387    0.0363096  0.036686715            6 
 1111000    1.0769601   -6.4397138    484.85914  0.036368072  0.036679009            4 
 1112000    1.0895619   -6.4512707    485.32749  0.036370465  0.036671446            8 
 1113000    1.0684337   -6.4443991    486.08024  0.036394148  0.036663949            3 
 1114000     1.068563    -6.444374    485.47302  0.036316055  0.036656542           10 
 1115000    1.0834254   -6.4389345    486.30424  0.036345609  0.036649068            4 
 1116000    1.0745403   -6.4474507    487.32107  0.036388969  0.036641783            3 
 1117000    1.0992197   -6.4539289    487.19128  0.036346708  0.036634444            7 
 1118000    1.0867984   -6.4479048     487.2256  0.036316756  0.036627208            3 
 1119000    1.0616002   -6.4486321    488.90596   0.03640944  0.036620045            4 
 1120000    1.0865645   -6.4533409    486.58858  0.036204507  0.036612397            5 
 1121000    1.1046886    -6.446458    487.87572  0.036267895  0.036604803            3 
 1122000    1.0931671   -6.4645872    488.08017  0.036250755  0.036597197            4 
 1123000    1.0736549    -6.422034    487.85728  0.036201935  0.036589318            3 
 1124000    1.0887594   -6.4642465    487.55852  0.036147577  0.036581519            3 
 1125000    1.0699199   -6.3879283    489.66833  0.036271728  0.036573771            2 
 1126000    1.0661468   -6.4404078    488.59743   0.03616026  0.036565786            6 
 1127000    1.0755682   -6.4689531    489.50727  0.036195451  0.036557816            3 
 1128000    1.0687506   -6.4622457    489.67389  0.036175672  0.036549758            4 
 1129000    1.0874519   -6.4391879    487.66668  0.035995474    0.0365415            3 
 1130000    1.0770578   -6.4400565    488.94987   0.03605825  0.036533228            7 
 1131000    1.0775837   -6.4845732    489.72015  0.036083124  0.036524953            5 
 1132000    1.0634783   -6.4528948    489.74984  0.036053434   0.03651675            4 
 1133000    1.0625592   -6.4517368     490.2244  0.036056517  0.036508578            3 
 1134000    1.0640519   -6.4838301    491.43216  0.036113474  0.036500494            3 
 1135000    1.0662078   -6.4924981    491.16297  0.036061892  0.036492363            5 
 1136000    1.0585991   -6.4733428    490.79977  0.036003504  0.036483985            4 
 1137000    1.0770718   -6.4950503    491.47458  0.036021298  0.036475716            8 
 1138000    1.0581873   -6.4677266    491.51138  0.035992339  0.036467638            2 
 1139000    1.0583087    -6.498252    492.55359  0.036036991  0.036459497            1 
 1140000    1.0661561    -6.460353    494.46841  0.036145352  0.036451306            2 
 1141000    1.0817636   -6.4345113    493.97684  0.036077771   0.03644326            3 
 1142000     1.071291   -6.4294401    495.56136  0.036161804  0.036435174            5 
 1143000    1.0927631   -6.4251587     494.9728  0.036087256  0.036427018            5 
 1144000    1.0595446   -6.4365585     494.5277  0.036023288  0.036419018            4 
 1145000    1.0787531   -6.4723651    495.48568  0.036061548  0.036410849            4 
 1146000    1.0933298   -6.5191483    494.25291  0.035940438  0.036402725            6 
 1147000    1.0544947   -6.4760257    495.62077  0.036008484  0.036394447            5 
 1148000    1.0617888   -6.4772724    494.40772  0.035889062  0.036386234            4 
 1149000    1.0688651   -6.4698205    495.87904  0.035964537  0.036377989            6 
 1150000    1.0690849   -6.4890328    495.66767  0.035917947  0.036369994            4 
 1151000    1.0552888   -6.4854872     496.7893  0.035967948  0.036361873            4 
 1152000    1.0451739   -6.4697051    496.24966   0.03589769  0.036353633            4 
 1153000    1.0647178   -6.4697157     497.6228  0.035965799   0.03634557            2 
 1154000     1.062794     -6.48346    497.03328  0.035892062  0.036337369            3 
 1155000     1.042235   -6.4304281    498.20021  0.035945181  0.036329346            3 
 1156000    1.0604026   -6.4571872    499.29248  0.035992826  0.036321103            2 
 1157000    1.0819319   -6.4253703    498.30896  0.035890879   0.03631279            4 
 1158000    1.0595029   -6.4507183    498.43868   0.03586922  0.036304895            2 
 1159000    1.0596068    -6.467675    498.93646  0.035874062  0.036296765            5 
 1160000    1.0631367   -6.4343101    501.41977  0.036021536  0.036288692            1 
 1161000    1.0662552   -6.4411984     500.5679  0.035929364  0.036280683            4 
 1162000    1.0749877   -6.4871695    499.82801  0.035845382  0.036272708            9 
 1163000    1.0493079   -6.4463844    501.11252  0.035906601  0.036264569            4 
 1164000    1.0674158   -6.5011067    500.23553  0.035812968  0.036256467            2 
 1165000    1.0522495   -6.4908068     501.2014  0.035851316  0.036248284            7 
 1166000     1.052077   -6.4780365    501.52704  0.035843842   0.03624014            4 
 1167000    1.0584187   -6.4603572    500.71075  0.035754838  0.036232053            3 
 1168000    1.0408848    -6.500744    502.81239  0.035874172  0.036223743            3 
 1169000     1.067691   -6.4564317    503.15585  0.035867968  0.036215555            6 
 1170000    1.0442805   -6.4759994    503.69256  0.035875539  0.036207339            2 
 1171000    1.0680901   -6.4616327     502.9651  0.035793133   0.03619917            4 
 1172000    1.0317159   -6.5065045    501.15141  0.035633633  0.036190735            3 
 1173000    1.0655982   -6.4892237    502.57224  0.035704194  0.036182579            5 
 1174000    1.0684147   -6.4546861    504.71438  0.035825836  0.036174558            2 
 1175000     1.065676   -6.4647725    504.29385  0.035765521  0.036166338            3 
 1176000    1.0675223    -6.457901    504.56174  0.035754092  0.036158062            4 
 1177000    1.0384965   -6.4638949    504.78796  0.035739731  0.036149902            4 
 1178000     1.065202   -6.4477675    505.99043  0.035794456  0.036141849            6 
 1179000    1.0797502   -6.4998525    505.38327  0.035721181  0.036133624            4 
 1180000    1.0685219   -6.4918146    506.30541  0.035756032  0.036125417            5 
 1181000    1.0489789   -6.4657156    506.08316  0.035710073  0.036117382            3 
 1182000    1.0650186   -6.4420187    507.19797  0.035758458  0.036109519            2 
 1183000    1.0660227   -6.4995999    507.40049  0.035742497   0.03610169            3 
 1184000    1.0681537   -6.4674388    507.41881  0.035713599  0.036093696            3 
 1185000    1.0604333   -6.4459443    508.34705  0.035748738  0.036085559            4 
 1186000    1.0719658   -6.4053639    508.81383  0.035751393  0.036077624            3 
 1187000    1.0618761   -6.4836096    509.25585  0.035752306  0.036069623            4 
 1188000    1.0559127   -6.4915442    508.74281  0.035686224  0.036061671            3 
 1189000    1.0790881   -6.4778941    509.75919  0.035727445  0.036053642            4 
 1190000    1.0575337   -6.4403328    509.67141  0.035691275  0.036045762            9 
 1191000    1.0642133    -6.488673    510.67235  0.035731343  0.036037774            3 
 1192000    1.0699353   -6.4420453    510.78414  0.035709182  0.036029794            3 
 1193000    1.0539616    -6.458817    510.24758   0.03564177  0.036021735            2 
 1194000    1.0508179   -6.4886104    509.26175  0.035543115  0.036013677            6 
 1195000    1.0436758   -6.5126967    511.28353   0.03565436  0.036005693            5 
 1196000    1.0846296   -6.4517929    510.70492  0.035584233  0.035997608            3 
 1197000    1.0635076   -6.4408443    510.66467  0.035551704   0.03598952            3 
 1198000    1.0586347   -6.4739764    511.76767  0.035598753  0.035981347            3 
 1199000    1.0536026   -6.4729471     511.4357   0.03554599  0.035972982            4 
 1200000    1.0899072   -6.4684448    511.94525  0.035551753  0.035964732            7 
 1201000    1.0415686   -6.4977378     513.2405  0.035612024  0.035956539            4 
 1202000    1.0552462   -6.4895707     511.9553  0.035493296  0.035948391            4 
 1203000     1.038805   -6.4724167    513.06569   0.03554071  0.035940105            3 
 1204000    1.0560601    -6.458698    514.55477  0.035614256  0.035932018            4 
 1205000    1.0300401   -6.4683238    513.39553  0.035504532   0.03592395            3 
 1206000    1.0747228   -6.4672349    514.47012  0.035549345  0.035915738            3 
 1207000     1.039894   -6.4811579    515.13265  0.035565634  0.035907554            8 
 1208000    1.0809675   -6.4540885    514.82411  0.035514908  0.035899632            3 
 1209000    1.0559174   -6.5041964    515.32828  0.035520284  0.035891677            3 
 1210000    1.0359046   -6.4764552    515.67058  0.035514503  0.035883638            4 
 1211000    1.0354451   -6.4722023     514.7611  0.035422592  0.035875734            3 
 1212000    1.0725114   -6.4956418    516.48697   0.03551203  0.035867507            4 
 1213000    1.0770447   -6.4856361    516.20087  0.035463099  0.035859032            1 
 1214000     1.050019   -6.4982137     515.4914  0.035385186  0.035850723            3 
 1215000    1.0486626   -6.4963485    517.16444  0.035470812  0.035842434            4 
 1216000    1.0290196    -6.496509    516.83756  0.035419241  0.035834149            3 
 1217000    1.0555878   -6.4626923    516.88297  0.035393247  0.035825704            5 
 1218000    1.0643694   -6.5134319    516.35726   0.03532822  0.035817361            8 
 1219000    1.0523405   -6.4795481    519.65824  0.035524901  0.035809035            5 
 1220000    1.0557007   -6.5062195    516.96869  0.035312069  0.035800651            3 
 1221000    1.0744211   -6.4643848    518.33555  0.035376437  0.035792513            4 
 1222000    1.0668273   -6.4806362    518.91832  0.035387228    0.0357843            8 
 1223000     1.064229   -6.4928771    518.79159  0.035349659  0.035775976            5 
 1224000    1.0556443    -6.470339    520.50649  0.035437533  0.035767798            4 
 1225000    1.0450264   -6.5245595    519.34939   0.03532989  0.035759719            2 
 1226000    1.0408503   -6.4945472    521.47488  0.035445546  0.035751672            5 
 1227000    1.0425299   -6.4910432    521.91913   0.03544683  0.035743748            8 
 1228000    1.0375011   -6.4669416    521.86102  0.035414021  0.035735827            3 
 1229000    1.0460243   -6.5042104    522.54959  0.035431895  0.035727936            4 
 1230000    1.0530398   -6.5150701    523.46996  0.035465444  0.035720049            6 
 1231000    1.0278798    -6.481835    524.29116  0.035492226  0.035712273            4 
 1232000    1.0453404   -6.5104101    522.33771  0.035331285  0.035704369            6 
 1233000    1.0572212   -6.5221858     522.8584  0.035337821  0.035696276            2 
 1234000     1.043688   -6.5022781    522.28626  0.035270547  0.035688336            1 
 1235000    1.0851338   -6.4770691    525.35031  0.035448739  0.035680581            4 
 1236000    1.0486542   -6.4711646    523.74242  0.035311652  0.035672694            7 
 1237000     1.060247   -6.5090779    525.78506  0.035420712  0.035664839            2 
 1238000    1.0558055   -6.4594641    525.54503  0.035375945  0.035656955            3 
 1239000    1.0379637   -6.4956468    524.49165  0.035276544  0.035649051            5 
 1240000    1.0383264   -6.5023067    525.30408  0.035302694  0.035641031            3 
 1241000     1.052817   -6.5014016    524.25936  0.035204093  0.035633047            4 
 1242000    1.0402343    -6.491501     525.9946  0.035292176  0.035625045            4 
 1243000    1.0582691   -6.5237231    525.81692  0.035251872  0.035617021            5 
 1244000    1.0408704   -6.5021178    526.01214  0.035236611  0.035608966            2 
 1245000     1.059776   -6.4578829    528.44603   0.03537122  0.035601267            6 
 1246000    1.0594617   -6.4477602     529.0885  0.035385801  0.035593441            4 
 1247000    1.0678856   -6.5089597    526.09402  0.035157312  0.035585715            7 
 1248000    1.0616146   -6.4913876    527.01488   0.03519063   0.03557776            5 
 1249000    1.0358833   -6.4815754    526.95786  0.035158651  0.035569816            6 
 1250000    1.0705628   -6.4869169     529.8848  0.035325653  0.035561987            4 
 1251000    1.0501727   -6.4737327    529.86964  0.035296406  0.035554221            4 
 1252000    1.0556025   -6.5212422    530.72615  0.035325223  0.035546605            4 
 1253000    1.0610138    -6.539099    528.94582  0.035178626  0.035538847            3 
 1254000    1.0507858   -6.5260004    530.61697  0.035261628  0.035531257            4 
 1255000    1.0418418   -6.5121908    529.55594  0.035163077  0.035523578            4 
 1256000    1.0466304   -6.4892096    532.01327   0.03529812   0.03551609            5 
 1257000    1.0614123   -6.4970763    531.85872  0.035259793  0.035508422            5 
 1258000    1.0530724   -6.4716204    533.27118   0.03532533  0.035500965            6 
 1259000    1.0368022   -6.5213936    532.23985  0.035229008  0.035493435            2 
 1260000    1.0537304   -6.4946261     532.8493  0.035241356  0.035485878            5 
 1261000    1.0889912   -6.4971641    533.69268  0.035269144  0.035478422            3 
 1262000    1.0418559   -6.5046661     534.4818  0.035293304  0.035471092            5 
 1263000    1.0363495   -6.5121223    533.80414  0.035220648  0.035463738            6 
 1264000    1.0743746   -6.4949325    534.43715  0.035234516  0.035456154            2 
 1265000    1.0531383   -6.4843488     535.4369  0.035272523  0.035448707            6 
 1266000     1.040393   -6.4638533    533.02438  0.035085859   0.03544117            5 
 1267000    1.0235013     -6.47904    534.95623   0.03518523  0.035433487            5 
 1268000    1.0646234   -6.5352333    534.65779  0.035137867  0.035425872           11 
 1269000    1.0576814   -6.4662658    534.28153  0.035085469  0.035418246            4 
 1270000    1.0729594   -6.5163086    536.32732  0.035192082  0.035410746            3 
 1271000    1.0547167    -6.494211    536.72516  0.035190477  0.035403163            3 
 1272000    1.0769235   -6.4906587    538.10034  0.035252905  0.035395717            4 
 1273000     1.031136   -6.4628513    537.21939  0.035167543  0.035388325            3 
 1274000    1.0116436   -6.4917617    534.13052  0.034937894  0.035380646            7 
 1275000    1.0580296   -6.4924993    537.12659  0.035106313  0.035372917            4 
 1276000    1.0564493   -6.5110942     539.4227  0.035228755  0.035365309            6 
 1277000    1.0492402   -6.5002237    539.14275  0.035182899   0.03535792            4 
 1278000    1.0607653    -6.510843    539.37386  0.035170439  0.035350317            4 
 1279000    1.0600878   -6.4723602    540.17472  0.035195121  0.035342851            5 
 1280000    1.0564597   -6.4800346    540.28879  0.035175051  0.035335569            6 
 1281000    1.0349341    -6.475983    540.81853  0.035182054  0.035328241            4 
 1282000    1.0207936   -6.4940664    540.78951  0.035152725  0.035320845            3 
 1283000    1.0567715   -6.4827266    539.24423  0.035024957  0.035313388            5 
 1284000    1.0361323    -6.505116    540.36168  0.035070203  0.035305883            4 
 1285000    1.0194086   -6.5167656    539.58231  0.034992368  0.035298341            4 
 1286000    1.0572705   -6.5190199    539.82766  0.034981056  0.035290774            3 
 1287000     1.030816    -6.483244    541.11528   0.03503725  0.035283191            4 
 1288000    1.0589193   -6.5071686    540.95293  0.034999543  0.035275458            6 
 1289000    1.0581385   -6.5266357    540.26042   0.03492762  0.035267804            2 
 1290000    1.0829741   -6.4987784    541.73911  0.034996067  0.035260326            8 
 1291000    1.0372201   -6.4768117    543.10105  0.035056871  0.035252807            5 
 1292000    1.0571022   -6.5360405    541.88146  0.034951074  0.035245224            3 
 1293000    1.0623516   -6.5018271    544.17596  0.035071923  0.035237446            2 
 1294000    1.0378928   -6.5260811    542.73482   0.03495201  0.035229958            4 
 1295000    1.0431531   -6.5062028    541.97181  0.034875921  0.035222339            2 
 1296000    1.0559443   -6.5106356    544.32518  0.035000333  0.035214734            5 
 1297000    1.0494628   -6.5116977     544.1846  0.034964315   0.03520758            5 
 1298000    1.0462048   -6.4906842    544.24499  0.034941255  0.035200383            4 
 1299000    1.0437362   -6.4732699    547.09318  0.035097074  0.035193127            7 
 1300000    1.0575943   -6.5218589    546.23722  0.035015206  0.035185818            6 
 1301000    1.0252926   -6.5273421    546.37021  0.034996811  0.035178401            2 
 1302000    1.0549918    -6.467892    547.61605  0.035049671  0.035170949            4 
 1303000    1.0462075   -6.4721646    546.35586  0.034942176  0.035163427            2 
 1304000    1.0404227   -6.5519035    546.87115  0.034948309  0.035155942            3 
 1305000    1.0536233   -6.5267809     546.7921  0.034916482  0.035148322            7 
 1306000    1.0295993   -6.4775798    545.47176  0.034805498  0.035140509            3 
 1307000    1.0319988   -6.5316984    544.66536  0.034727452  0.035132564            4 
 1308000    1.0517385   -6.5222762    547.25706   0.03486602  0.035124701            6 
 1309000    1.0273735   -6.5082179    547.62453  0.034862779  0.035117003            4 
 1310000    1.0422394   -6.5495729    547.56315  0.034832261  0.035109272            4 
 1311000    1.0286431   -6.4999743     548.4745  0.034863622  0.035101486            4 
 1312000     1.044854   -6.5440134     547.8474  0.034797218  0.035093833            3 
 1313000    1.0463212     -6.52654    548.72643  0.034826506  0.035086202            4 
 1314000     1.057358   -6.4999155    550.95138  0.034941107  0.035078693            4 
 1315000    1.0604963   -6.4787982    550.57644  0.034890776   0.03507127            5 
 1316000     1.045375   -6.5250269    550.00806  0.034828271    0.0350636            2 
 1317000    1.0642239   -6.4960742    550.13305  0.034809735  0.035055994            5 
 1318000    1.0200815   -6.5145999    550.47585  0.034804998  0.035048528            7 
 1319000    1.0464861   -6.5190152    551.37096  0.034835163  0.035041114            5 
 1320000    1.0268549   -6.5136166    551.96178  0.034846072  0.035033625            5 
 1321000    1.0587136   -6.5118508    552.02568  0.034823724  0.035026107            2 
 1322000    1.0478778   -6.5131845     552.7811  0.034845001  0.035018608            3 
 1323000    1.0376712   -6.4952975    552.06638  0.034773644  0.035011285            3 
 1324000    1.0491323    -6.498684    555.65246   0.03497309  0.035003876            7 
 1325000    1.0465637     -6.54503    552.66223  0.034758631  0.034996692            5 
 1326000    1.0389821   -6.5083997    554.51592  0.034848914  0.034989488            2 
 1327000    1.0398895   -6.5147247    553.94522  0.034786813  0.034982242            4 
 1328000    1.0256437   -6.5409719    554.67074  0.034806146  0.034974996            3 
 1329000     1.042138   -6.5168735    556.09382  0.034869189   0.03496771            2 
 1330000     1.037833   -6.5100356    553.11316  0.034656213  0.034960653            4 
 1331000     1.033534   -6.5741401     555.2823  0.034765984  0.034953305            6 
 1332000    1.0379415   -6.4780474     557.8406  0.034899938  0.034946257            4 
 1333000     1.034771   -6.5312782    555.82613   0.03474782   0.03493918            5 
 1334000    1.0438481   -6.5084292    556.64897  0.034773174  0.034932093            6 
 1335000    1.0493745   -6.5325408     558.5369  0.034864975  0.034925014            8 
 1336000    1.0473363   -6.5406301    557.12149  0.034750592   0.03491795            5 
 1337000    1.0448945   -6.4890763    557.68153  0.034759507  0.034910984           11 
 1338000     1.029327    -6.472481    560.58576  0.034914409  0.034904165            8 
 1339000     1.045421   -6.5001027    558.90841  0.034783944  0.034897265            2 
 1340000     1.023402   -6.5352193    558.86751  0.034755442  0.034890383            4 
 1341000    1.0212617   -6.5126073    559.21375  0.034751041  0.034883499            5 
 1342000    1.0419086   -6.5400401    559.42629  0.034738344  0.034876555            4 
 1343000    1.0249743   -6.4903039    560.41905  0.034774078  0.034869437            9 
 1344000    1.0656152   -6.5516257    561.09158  0.034789904  0.034862462            7 
 1345000    1.0570524   -6.5167507    563.32293  0.034902288  0.034855534            2 
 1346000    1.0500367   -6.5007138    563.15385   0.03486589   0.03484863            5 
 1347000    1.0356297   -6.5116154    561.06195  0.034710588  0.034842018            3 
 1348000    1.0385856    -6.548845    564.09453  0.034872313  0.034835328            3 
 1349000    1.0333896   -6.5245893    561.72015  0.034699787  0.034828479            7 
 1350000    1.0368454   -6.5399989    562.91952  0.034748119  0.034821415            2 
 1351000     1.036224   -6.5143345    562.32519  0.034685738  0.034814598            6 
 1352000    1.0318043   -6.5530383    564.07439  0.034767899  0.034807859            4 
 1353000    1.0409356   -6.5202192    563.89789  0.034731331  0.034801037            6 
 1354000    1.0385863   -6.4863837    564.79215  0.034760718  0.034794189            5 
 1355000    1.0229524   -6.5390201    564.37438  0.034709371  0.034787434            6 
 1356000    1.0285246    -6.506427    564.26902    0.0346773  0.034780611            8 
 1357000    1.0389413   -6.5131768    564.54511    0.0346687   0.03477375            3 
 1358000    1.0389938   -6.5406308    566.34798  0.034753803  0.034766965            9 
 1359000    1.0293461   -6.5402406    564.79267  0.034632859  0.034759915            4 
 1360000     1.040233   -6.4939182    565.23128   0.03463427  0.034752908            5 
 1361000    1.0446624   -6.5357235    565.09314  0.034600363   0.03474576            3 
 1362000    1.0185714   -6.5201059    565.10982   0.03457598  0.034738638            4 
 1363000    1.0489162   -6.5398904     566.4489  0.034632483  0.034731407            7 
 1364000    1.0258767    -6.528521    566.00724   0.03458011  0.034724185            4 
 1365000    1.0164615   -6.5625959     566.0382  0.034556667  0.034717059            2 
 1366000    1.0126958   -6.5300286     564.9399  0.034464367  0.034709852            5 
 1367000    1.0248382    -6.516602    567.67876  0.034606118  0.034702772            4 
 1368000    1.0338601   -6.5049423    567.02655  0.034541091  0.034695704            6 
 1369000    1.0344415   -6.5186645    567.62444  0.034552255  0.034688449            4 
 1370000    1.0122994    -6.511095     568.6329  0.034588376  0.034681404            4 
 1371000     1.032708   -6.5222713    567.26777  0.034480171  0.034674168            6 
 1372000    1.0299231   -6.5369966    569.00609  0.034560622  0.034667062            4 
 1373000    1.0711031   -6.5407971    568.29638  0.034492376  0.034659839            4 
 1374000    1.0213724   -6.5068008    570.15979  0.034580288  0.034652568            2 
 1375000    1.0259176   -6.5085837    567.37521  0.034386376  0.034645444            3 
 1376000     1.033329   -6.5147228    569.31444   0.03447883  0.034638149            4 
 1377000     1.023732   -6.5469857      569.308  0.034453401  0.034630844            4 
 1378000    1.0228099   -6.5521222    569.93948  0.034466587  0.034623505            3 
 1379000    1.0137348   -6.5610433     568.8392  0.034375102  0.034616041            3 
 1380000    1.0160221   -6.5617007    570.05951  0.034423883  0.034608667            4 
 1381000    1.0282577   -6.5425088    570.17918  0.034406178   0.03460132            4 
 1382000    1.0267857   -6.5555484    571.08114  0.034435669    0.0345939            3 
 1383000    1.0425601   -6.5185454    571.19169  0.034417431  0.034586445            8 
 1384000    1.0410954   -6.5658929    571.33069  0.034400933  0.034579072            3 
 1385000    1.0454531   -6.5627572    571.84251   0.03440689  0.034571458            3 
 1386000    1.0184896   -6.5556701    571.52452  0.034362946  0.034564002            8 
 1387000    1.0444072   -6.5230089    571.51952  0.034337871  0.034556612            4 
 1388000    1.0447263   -6.5499661    571.60832  0.034318463  0.034549147            7 
 1389000    1.0253933   -6.4836535     572.0102  0.034317867  0.034541797            4 
 1390000    1.0390117   -6.5162204     572.5133   0.03432334  0.034534633            3 
 1391000    1.0077378   -6.5767294    572.24973  0.034282874  0.034527346            4 
 1392000    1.0305171   -6.5143761    573.76245  0.034348806  0.034520094            2 
 1393000    1.0213124   -6.5325623    573.47858  0.034307166  0.034512777            4 
 1394000    1.0429501   -6.5164679     576.1874  0.034444488  0.034505599            4 
 1395000    1.0185613   -6.5418626    574.18234   0.03430002  0.034498459            7 
 1396000    1.0174496   -6.5466073    576.27371  0.034400293  0.034491308            5 
 1397000    1.0551567   -6.5362113    575.58091  0.034334342  0.034484236            5 
 1398000    1.0313914   -6.5358404    577.51441  0.034425036   0.03447711            6 
 1399000    1.0429187   -6.5406856    576.93068  0.034365659  0.034469913            6 
 1400000    1.0158666    -6.551451     575.3898  0.034249393  0.034462771            5 
 1401000    1.0128278   -6.5185016    577.96668  0.034378222  0.034455629            5 
 1402000    1.0330549   -6.5387914    579.07292  0.034419456  0.034448573            4 
 1403000    1.0075277   -6.5697262    578.56046  0.034364484  0.034441441            8 
 1404000    1.0052634   -6.5040785    579.89535   0.03441924  0.034434451            5 
 1405000     1.032887   -6.5065565    578.72313  0.034325215    0.0344273            2 
 1406000    1.0327208   -6.5607687    577.74686  0.034242938   0.03442025            4 
 1407000    1.0308288   -6.5278175    580.69821  0.034393402  0.034413105            2 
 1408000    1.0294752   -6.5453595    580.52015  0.034358437  0.034405959            5 
 1409000    1.0156573   -6.5331565    578.35754  0.034206147  0.034398926            3 
 1410000    1.0187529   -6.5548129    580.42424  0.034304033  0.034391776            5 
 1411000    1.0015973   -6.5571457    579.89897  0.034248699  0.034384472            7 
 1412000    1.0270568   -6.5497543    580.79788  0.034277495  0.034377236            4 
 1413000    1.0177029   -6.5733046    577.85064   0.03407942  0.034369974            4 
 1414000    1.0383122   -6.5223396    579.70605  0.034164666  0.034362532            5 
 1415000    1.0335472   -6.5546704    580.91032  0.034211444  0.034354969            4 
 1416000    1.0527551   -6.5467427    582.09716  0.034257131  0.034347461            5 
 1417000   0.99841022   -6.5862352     580.6405  0.034147289  0.034339989           11 
 1418000    1.0036203    -6.539763    579.15601  0.034035967  0.034332578            4 
 1419000    1.0270195   -6.5370274    582.32987  0.034198371  0.034325052            4 
 1420000    1.0432945   -6.5444208    583.40827  0.034237574  0.034317708            5 
 1421000    1.0139372   -6.5618247    580.93014  0.034068153  0.034310375            2 
 1422000     1.027171   -6.5391704    580.76847   0.03403472  0.034302905            4 
 1423000   0.99875868   -6.5648145    580.41999  0.033990395  0.034295473            2 
 1424000    1.0249809   -6.5436538    583.71645  0.034159436  0.034288185            8 
 1425000    1.0239948   -6.5401007    582.79893  0.034081809  0.034280827            4 
 1426000    1.0147753   -6.5304585    583.55182  0.034101906  0.034273386            4 
 1427000    1.0117599   -6.5256647    583.93722  0.034100515  0.034266085            4 
 1428000    1.0491868   -6.5580849    584.74816  0.034123959  0.034258638            6 
 1429000    1.0664256   -6.5411293    583.89752  0.034050473  0.034251239            3 
 1430000    1.0073662    -6.552748    583.39248  0.033997231  0.034243699            3 
 1431000    1.0379702   -6.5400176    584.62653  0.034045337  0.034236175            8 
 1432000      1.01134   -6.5714555     582.2898  0.033885579  0.034228503            8 
 1433000    1.0204092   -6.5856907    584.38533  0.033983794  0.034220812            3 
 1434000     1.021811   -6.5452917    584.30427  0.033955385   0.03421318            6 
 1435000    1.0204269   -6.5625116      585.685  0.034011905   0.03420553            3 
 1436000    1.0209178   -6.5469585    585.02111  0.033949693  0.034197931            8 
 1437000    1.0213018   -6.5488712     585.7418  0.033967861  0.034190325            6 
 1438000    1.0324351   -6.5580476    583.99363  0.033842932  0.034182549            7 
 1439000    1.0312153     -6.52293    586.99537  0.033993246  0.034174893            3 
 1440000     1.024047   -6.5530133    586.28432  0.033928491  0.034167353            9 
 1441000    1.0015503    -6.510945    588.12703   0.03401151  0.034159868            3 
 1442000    1.0065989   -6.5423571     586.8369  0.033913367  0.034152313            6 
 1443000    1.0331949   -6.5334695    587.83219  0.033947343   0.03414497            5 
 1444000    1.0298295   -6.5693055    589.18873   0.03400212  0.034137632            3 
 1445000    1.0390752   -6.5231134    588.12023  0.033916968  0.034129991            3 
 1446000    1.0132875    -6.539103    587.86154  0.033878604  0.034122418            5 
 1447000    1.0168828   -6.5305584     588.1538  0.033872023  0.034114796            6 
 1448000    1.0038467   -6.5513284    588.96994  0.033895599  0.034107085            4 
 1449000    1.0028285   -6.5222272    590.68224  0.033970683  0.034099481            2 
 1450000    1.0134722   -6.5653719    589.67928  0.033889614   0.03409189            3 
 1451000    1.0308804   -6.5335463    591.39187  0.033964615  0.034084442            3 
 1452000    1.0222087   -6.5536024       590.55  0.033892906  0.034076984            2 
 1453000    1.0435961   -6.5588724    590.00006   0.03383804  0.034069488            4 
 1454000    1.0195548   -6.5729637    589.46607  0.033784163  0.034061834            3 
 1455000    1.0033489   -6.5609716    591.74919  0.033891706  0.034054318            4 
 1456000    1.0398719   -6.5502097    591.65404  0.033862983  0.034046772            4 
 1457000    1.0168443   -6.5468699    591.06982  0.033806327  0.034039242            3 
 1458000    1.0043569    -6.556814    589.91045  0.033716875   0.03403171            4 
 1459000    1.0176469   -6.5343707    591.48913  0.033783935  0.034024034            3 
 1460000    1.0405722    -6.570609    588.96917  0.033616962  0.034016309            3 
 1461000    1.0085947   -6.5458479    592.33952  0.033786192  0.034008565            5 
 1462000    1.0058873   -6.5680177    590.28695  0.033646087  0.034000672            2 
 1463000    1.0173849   -6.5545599     591.3338  0.033682718  0.033992844            3 
 1464000    1.0286723   -6.5667152     591.2757  0.033656404  0.033984999            5 
 1465000   0.99716069   -6.5572887    591.58728  0.033651154  0.033977154            3 
 1466000    1.0035448   -6.5631007    592.38445  0.033673513  0.033969207            4 
 1467000    1.0288797    -6.574318    592.50388  0.033657344  0.033961136            5 
 1468000    1.0126537   -6.5724288    592.89417  0.033656572  0.033953243            4 
 1469000     1.000876   -6.5558083    592.59467  0.033616671  0.033945239            5 
 1470000    1.0092158   -6.5528069    592.50459  0.033588696  0.033937492            3 
 1471000    1.0114918   -6.5395222    594.02889  0.033652215  0.033929471            4 
 1472000    1.0104359   -6.5516461    594.66648  0.033665449  0.033921638            8 
 1473000    1.0451903   -6.5686063    594.44123   0.03362985  0.033913778            5 
 1474000    1.0097758   -6.5237973    594.83213  0.033629134  0.033906061            3 
 1475000    1.0130518   -6.5332563    594.71181  0.033599537  0.033898437            2 
 1476000    1.0010676   -6.5838597    595.19131  0.033603845  0.033890662            3 
 1477000    1.0364233   -6.5673912    596.98304  0.033682185  0.033883022            6 
 1478000    1.0159308    -6.593083    595.82227  0.033593948  0.033875254            4 
 1479000    1.0065968   -6.5458354    595.66373  0.033562302  0.033867385            5 
 1480000    1.0226167   -6.5524121    597.12694  0.033622012  0.033859647            4 
 1481000    1.0049202   -6.5307135    597.17679  0.033602115  0.033851996            4 
 1482000    1.0088543    -6.543038    596.38145  0.033534719  0.033844334            4 
 1483000    1.0447697   -6.5629588    597.17668  0.033556792  0.033836571            3 
 1484000    1.0109091   -6.5795646    597.33969  0.033543334  0.033828718            3 
 1485000    1.0157828   -6.5766744    600.23694   0.03368333   0.03382094            4 
 1486000    1.0087038   -6.5548565    598.04121  0.033537529   0.03381333            5 
 1487000    1.0153548   -6.5992468    598.60113  0.033546353  0.033805554            4 
 1488000    1.0021848   -6.5607474    599.46514  0.033572197  0.033797666            6 
 1489000    1.0192343   -6.5503127    598.17458  0.033477422  0.033789904            5 
 1490000    1.0128533   -6.6235527    597.70264  0.033428559  0.033782063           16 
 1491000   0.99349587   -6.5647908    599.98751  0.033533843  0.033774167            4 
 1492000   0.99005868   -6.5651685    599.10238  0.033461929  0.033766366            4 
 1493000    1.0221009   -6.5467813    599.96595  0.033487718  0.033758547            4 
 1494000    1.0257651   -6.5525761    599.08883  0.033416378  0.033750643            5 
 1495000    1.0239253   -6.5850838    599.68385  0.033427193  0.033742699            5 
 1496000     1.015836   -6.5943214    599.93581  0.033418884   0.03373483            5 
 1497000    1.0226732    -6.589007    598.84748  0.033335976  0.033727007            5 
 1498000   0.99799715   -6.5685429      602.608   0.03352292  0.033719115            6 
 1499000    1.0015164   -6.5512968    602.35108  0.033486273  0.033711297            2 
 1500000     1.008022   -6.5595529     601.0429  0.033391272   0.03370354            6 
 1501000     1.043201   -6.5661039    604.44601  0.033557962   0.03369574            4 
 1502000    1.0300022   -6.5320015     601.2224  0.033356768   0.03368799            4 
 1503000    1.0112847   -6.5691023    604.33322  0.033507054  0.033680302            5 
 1504000    1.0283547   -6.5577198    602.56034  0.033386544  0.033672513           11 
 1505000   0.99583598   -6.5660677    603.11099   0.03339485  0.033664736            6 
 1506000    1.0175057   -6.5556951    602.46423  0.033336888  0.033656816            6 
 1507000    1.0088975    -6.576328    603.12866  0.033351508  0.033648967            6 
 1508000    1.0165884   -6.6198728    605.04578  0.033435333  0.033641099            8 
 1509000    1.0070919   -6.5908101    604.20825  0.033366924  0.033633383            4 
 1510000    1.0045782   -6.5668447    602.67541  0.033260232  0.033625581            4 
 1511000    1.0063938   -6.5664895     605.2317  0.033379202  0.033617915            6 
 1512000    1.0139524   -6.5782724    605.84656  0.033391014  0.033610159            6 
 1513000     1.015339   -6.5862204    606.40883  0.033399914  0.033602508            3 
 1514000    1.0159205   -6.5326359    606.79889  0.033399323  0.033594991           11 
 1515000   0.98987862   -6.5955736    606.30809   0.03335028   0.03358755            5 
 1516000    1.0089984   -6.5642745      608.378  0.033442062  0.033579964            3 
 1517000     0.995488   -6.5884744    608.00461  0.033399506  0.033572409            4 
 1518000    1.0171919   -6.5753955    609.30158  0.033448703  0.033565034            4 
 1519000    1.0234261   -6.5809984    609.74557  0.033451041  0.033557631            3 
 1520000   0.99525533   -6.5861545    610.10589  0.033448788  0.033550024            4 
 1521000    1.0034234    -6.588548    607.55289  0.033286921  0.033542582            8 
 1522000    1.0110174   -6.5794127    609.64181  0.033379424  0.033535071            7 
 1523000    1.0194173   -6.5958926    609.71089  0.033361287  0.033527661           10 
 1524000    1.0191598   -6.5776466     609.0517  0.033303352  0.033520237            3 
 1525000    1.0003302   -6.5853289    609.70118  0.033317004  0.033512629            3 
 1526000    1.0188778   -6.5457865    610.84554  0.033357664   0.03350502            5 
 1527000    1.0048849   -6.5422441    609.69803  0.033273195  0.033497366            4 
 1528000    1.0144064   -6.5636654    609.25983  0.033227521   0.03348965            3 
 1529000     1.024788   -6.5839155    609.90356  0.033240874   0.03348188            1 
 1530000    1.0160643    -6.556972    611.50171  0.033306193   0.03347424            3 
 1531000    1.0046779    -6.596781     611.3496  0.033276159  0.033466557            5 
 1532000    1.0093819   -6.5906405    612.02827  0.033291355  0.033458888            5 
 1533000    1.0076031   -6.5632745    610.63521  0.033193912  0.033451108            4 
 1534000   0.97720738   -6.5903164    611.43245  0.033215583   0.03344338            3 
 1535000    0.9906952   -6.5820614    612.65003  0.033260045  0.033435686            4 
 1536000    1.0102657   -6.6055844    610.59123  0.033126694   0.03342789            5 
 1537000   0.99373034   -6.5958326    613.29394  0.033251677   0.03342023            2 
 1538000   0.99539146   -6.5661871    613.30644  0.033230735  0.033412595            4 
 1539000    1.0091962   -6.5207462    614.17006  0.033255906  0.033405072            7 
 1540000    1.0006122   -6.5913148    612.91206  0.033166237  0.033397461            5 
 1541000   0.97748606   -6.5643349    613.91242  0.033198811  0.033389802            8 
 1542000    0.9815867   -6.6009063    612.11554  0.033080174  0.033382141            7 
 1543000     1.009226   -6.5905884    615.02767  0.033216012  0.033374413            5 
 1544000   0.99705709   -6.5684692    613.24394  0.033098226  0.033366681            3 
 1545000    1.0409018   -6.5759074    613.88815  0.033111551  0.033359002            5 
 1546000   0.99719929    -6.630821    612.52199  0.033016494  0.033351221            4 
 1547000    1.0241782    -6.572958    614.28803  0.033090284  0.033343424            2 
 1548000   0.99084624   -6.5489408    616.73697  0.033200741  0.033335652            4 
 1549000   0.99470959   -6.5860542    615.81969  0.033129959  0.033327936            4 
 1550000     1.015754   -6.5948883    615.86937  0.033111256  0.033320201            5 
 1551000   0.99771307   -6.5597838    616.93063  0.033146928  0.033312476            6 
 1552000    0.9894015   -6.5395476    619.06641  0.033240249  0.033304914            4 
 1553000   0.99821941   -6.5989024    614.30943  0.032963588  0.033297182            4 
 1554000   0.99946179   -6.5669692    617.38172  0.033107128   0.03328964            4 
 1555000   0.99909141   -6.6197648    617.78158  0.033107266  0.033281896            6 
 1556000   0.98546303   -6.5846793    616.55455  0.033020273  0.033274038            5 
 1557000     1.003209   -6.5470805    617.66197  0.033058337   0.03326622            6 
 1558000    1.0058093   -6.5967409     618.2689  0.033069582  0.033258412            4 
 1559000   0.96467888   -6.6013788    616.79524  0.032969598  0.033250621            3 
 1560000    1.0060886   -6.5802142    618.23751  0.033025508  0.033242672            4 
 1561000   0.99873659   -6.5915993    618.23327  0.033004125  0.033234902            7 
 1562000   0.98808173   -6.5998837    617.99611  0.032970343  0.033227005            7 
 1563000    1.0130081   -6.5854079    618.22488  0.032961446   0.03321921            4 
 1564000   0.98087249   -6.5917735    618.48317  0.032954133  0.033211389            6 
 1565000    1.0007815   -6.5621306    620.06373  0.033017238  0.033203626           14 
 1566000   0.99589521    -6.586331    620.92578  0.033042028   0.03319594            3 
 1567000   0.99227034   -6.6003664    621.26556  0.033039011  0.033188311            4 
 1568000   0.98799675   -6.5996974    620.71817  0.032988848  0.033180767           11 
 1569000    1.0067733   -6.6246991    621.57471  0.033013316  0.033173172            7 
 1570000    1.0046007   -6.5794431     621.7491  0.033001545  0.033165657            4 
 1571000    1.0121072   -6.5882983    620.01852   0.03288874  0.033158254            5 
 1572000    0.9871948   -6.6427478    621.32837  0.032937255  0.033150734           10 
 1573000    1.0377731   -6.5962605    621.50019  0.032925418  0.033143146            6 
 1574000    1.0124294   -6.6013563    623.20831  0.032994934  0.033135714            5 
 1575000    1.0131555   -6.6193884    622.50996  0.032937035  0.033128134            9 
 1576000   0.98188282   -6.6065659    622.36231  0.032908328  0.033120574           11 
 1577000   0.98124853   -6.6018776    623.09955  0.032926419  0.033113138            7 
 1578000   0.98713797   -6.5946776    626.35946  0.033077707  0.033105662            3 
 1579000   0.99672095   -6.5710574    623.73503  0.032918252  0.033098161            3 
 1580000   0.98517248   -6.5965641    624.07455  0.032915325  0.033090677            3 
 1581000   0.99758047   -6.6120467    624.39769  0.032911538  0.033083151            3 
 1582000    1.0140318   -6.5862353    624.25594  0.032883267  0.033075663            3 
 1583000   0.97814488   -6.6155011    624.38735  0.032869412  0.033068219            7 
 1584000   0.99404037   -6.5938013    626.38223   0.03295361  0.033060753           10 
 1585000   0.99470952    -6.542781    625.64054  0.032893824   0.03305328            3 
 1586000    1.0113504   -6.6065463    626.15897  0.032900324  0.033045905            4 
 1587000    1.0012432   -6.5993005     624.9969  0.032818573  0.033038367            3 
 1588000    1.0296458   -6.6259561      625.234  0.032810349  0.033030751            5 
 1589000   0.98913511    -6.611618    623.58355  0.032703144  0.033023001            4 
 1590000   0.98664537   -6.5945307    625.91531  0.032804786  0.033015261            4 
 1591000    1.0144765   -6.6219558    625.40605  0.032757493  0.033007567            3 
 1592000    1.0385596   -6.6080874    626.96027  0.032818272  0.032999815            3 
 1593000   0.98356391   -6.6070824    628.33484  0.032869577  0.032992032            4 
 1594000    0.9818392    -6.636773    627.56109  0.032808505  0.032984371            4 
 1595000    1.0013347    -6.590988    626.99411  0.032758313   0.03297658            6 
 1596000   0.98399833    -6.607696     627.1991  0.032748491  0.032968836            3 
 1597000   0.98779399   -6.6008104    627.27532  0.032731962  0.032961166            3 
 1598000   0.98945913   -6.5556122    626.24355  0.032657674  0.032953508            5 
 1599000   0.98336606   -6.5760995    628.17409  0.032737862  0.032945901            3 
 1600000   0.95880511   -6.6165522    628.36584  0.032727387  0.032938192           14 
 1601000    1.0003844   -6.6096143    628.49157   0.03271349   0.03293042            3 
 1602000   0.99214929   -6.6060345    627.59193  0.032646272  0.032922671            5 
 1603000   0.98068849   -6.5734479    629.17232  0.032708064  0.032914981            3 
 1604000    1.0058042   -6.6270544    628.20461  0.032637396  0.032907224            8 
 1605000    1.0004023   -6.6009247    629.43793  0.032681097  0.032899438            4 
 1606000    1.0097853   -6.6166755    629.40126  0.032658845  0.032891675            3 
 1607000     0.978128    -6.608022    630.28645  0.032684425  0.032884138            7 
 1608000   0.98006458   -6.5963428    629.75445  0.032636528  0.032876488            3 
 1609000    1.0282087   -6.5988957    630.71027  0.032665748  0.032868875            6 
 1610000    1.0210584   -6.6052253    630.81743  0.032651005  0.032861317            3 
 1611000    1.0135725   -6.6121493    633.36269  0.032762398   0.03285379            4 
 1612000    1.0147488   -6.6133225    631.39737  0.032640476  0.032846315            3 
 1613000   0.99780031    -6.595949    633.63133  0.032735654  0.032838884            4 
 1614000    1.0124981   -6.6156173    632.62835  0.032663587  0.032831418            5 
 1615000   0.98483071   -6.6289856    632.52849  0.032638209   0.03282372            6 
 1616000   0.98158081   -6.6335343    631.46464  0.032563152  0.032816058            3 
 1617000   0.97600679   -6.6314478     631.7098  0.032555648  0.032808467            5 
 1618000   0.99780682   -6.6171203    632.05471  0.032553291  0.032800737            3 
 1619000    1.0177701   -6.6026663    633.42828  0.032603885  0.032793089            7 
 1620000   0.99312453   -6.6019834    634.89442  0.032659178  0.032785481            6 
 1621000    1.0082931   -6.5981632    633.19417  0.032551623  0.032777887            6 
 1622000   0.98016786    -6.603348    635.48911  0.032649461  0.032770359            5 
 1623000   0.98577789    -6.587782    633.91338  0.032548438  0.032762705            4 
 1624000   0.97967078   -6.6305142    635.94677  0.032632737  0.032755278            7 
 1625000    1.0222211   -6.6069097    633.24079  0.032473887  0.032747698            4 
 1626000   0.98538222   -6.6302331    634.69731  0.032528562  0.032740161            3 
 1627000    1.0069127   -6.6652421    635.58826  0.032554203  0.032732573            6 
 1628000   0.96349557   -6.5978464    635.83543  0.032546859  0.032725079            6 
 1629000   0.97457888    -6.603365    637.22116  0.032597768  0.032717645            8 
 1630000   0.99741061   -6.5949358    638.56034  0.032646234  0.032710205            7 
 1631000   0.98631023   -6.6170808    638.24697  0.032610207  0.032702784            3 
 1632000   0.97948879    -6.593591    637.97733  0.032576457  0.032695436            5 
 1633000   0.98352358   -6.6339806    637.84126  0.032549564  0.032687992            5 
 1634000   0.99242573    -6.648091    637.47884  0.032511161  0.032680476            5 
 1635000   0.99850894    -6.633292    637.13906  0.032473958  0.032673013            3 
 1636000   0.99523508   -6.6117742    640.33524  0.032616913  0.032665572            9 
 1637000   0.99538785    -6.639024    639.10924  0.032534578  0.032658248            1 
 1638000   0.97241069   -6.6189989    638.91539  0.032504853  0.032650846            4 
 1639000   0.98538329   -6.5864125    639.68567  0.032524185  0.032643487            5 
 1640000   0.99219804   -6.6308111    640.28445  0.032534779  0.032636208            3 
 1641000    1.0106165   -6.5749987    641.16355  0.032559595  0.032629077            4 
 1642000    0.9688731   -6.6332059    639.59881  0.032460354  0.032621838            8 
 1643000   0.99385629   -6.6250307     641.6482  0.032544542  0.032614623            3 
 1644000    0.9975543   -6.5887013    640.88028  0.032485821  0.032607415            2 
 1645000   0.98918128   -6.6134211    642.20089  0.032532973  0.032600244            4 
 1646000   0.96953149      -6.6338    641.15583  0.032460299   0.03259301            6 
 1647000   0.95012389   -6.6085337    643.62265  0.032565404  0.032585733            9 
 1648000   0.98525051   -6.5817568    643.28546  0.032528593  0.032578628            9 
 1649000   0.96941157   -6.6235478    642.05731  0.032446802  0.032571539            6 
 1650000   0.98136118   -6.5983766    642.12139  0.032430373  0.032564355            4 
 1651000   0.99635429   -6.6114227    643.37507  0.032474009  0.032557082            8 
 1652000   0.97042423    -6.622738    642.77316  0.032423989  0.032549829           14 
 1653000    1.0067713   -6.6134073    643.25928  0.032428881  0.032542592            3 
 1654000   0.96709582   -6.6284109    645.02766  0.032498371  0.032535386            3 
 1655000   0.99704213   -6.6001572    646.96019  0.032576042  0.032528251            3 
 1656000   0.99806907   -6.6203754    645.81985  0.032498986  0.032521167            6 
 1657000   0.99008029   -6.6160625     646.5023  0.032513694  0.032514172            7 
 1658000   0.98888193   -6.6314098    645.38109   0.03243773  0.032506998            5 
 1659000    1.0028069   -6.6547311    645.36413  0.032417326   0.03249981            3 
 1660000   0.99291136   -6.5878293    647.78182  0.032519168  0.032492686            3 
 1661000   0.98710243   -6.5932899    647.24714  0.032472765  0.032485514            5 
 1662000   0.97348419   -6.6260928    645.02652  0.032341883  0.032478304            4 
 1663000   0.97681273   -6.6449996    648.38664  0.032490812  0.032471165            4 
 1664000   0.98396235   -6.5844637    648.28754  0.032466323  0.032464164            4 
 1665000   0.99169324   -6.6081668    647.48869  0.032406841  0.032457047            3 
 1666000   0.98520599   -6.6278719    647.86845  0.032406385  0.032449912            4 
 1667000   0.95458466   -6.6376268    646.98439  0.032342751  0.032442774            5 
 1668000   0.99320265   -6.6090009    648.79821  0.032413979  0.032435614            3 
 1669000   0.99657583   -6.6338398    649.18846  0.032414043  0.032428584            4 
 1670000    1.0082291   -6.6326049    648.22425  0.032346519  0.032421544            4 
 1671000   0.98363048   -6.5885561    650.94748   0.03246297  0.032414505            6 
 1672000   0.99022003   -6.6037324    651.50458  0.032471321  0.032407488            4 
 1673000   0.98005151   -6.6485565    648.30314  0.032292446  0.032400465            7 
 1674000    1.0005886   -6.5984231    649.92006  0.032353647  0.032393409            8 
 1675000   0.98665467     -6.64252    651.18969  0.032397497  0.032386518            3 
 1676000    0.9823015   -6.6095386    650.75058  0.032356333  0.032379469            5 
 1677000   0.97470601    -6.631909    651.29249  0.032363968  0.032372528            5 
 1678000   0.98015585   -6.6164827    649.98787   0.03227989  0.032365544            6 
 1679000   0.98223902   -6.6551584    651.08026  0.032314883  0.032358408            4 
 1680000   0.95944001   -6.6896644    650.59994  0.032271822  0.032351241            3 
 1681000   0.96292458    -6.656492    650.50001  0.032247671  0.032344077            8 
 1682000   0.98698468    -6.622032    652.27511  0.032316444  0.032336924            5 
 1683000   0.96966222   -6.6156177    652.01509  0.032284368  0.032329822            2 
 1684000   0.97254979   -6.6549286    651.57648  0.032243492  0.032322719            3 
 1685000    0.9692248   -6.6138952    652.65674  0.032277781  0.032315596            9 
 1686000   0.98359025    -6.647877    654.48427  0.032348965  0.032308575            3 
 1687000    1.0255947   -6.5984082    652.44023   0.03222882  0.032301506            5 
 1688000   0.97734603   -6.6450657    652.39254  0.032207372  0.032294356            5 
 1689000    1.0058448   -6.6120744    654.51616  0.032293081    0.0322873            8 
 1690000   0.96632975   -6.6573834      652.297  0.032164546  0.032280264            7 
 1691000   0.96813495   -6.6476725    652.63641  0.032162252  0.032273143            4 
 1692000    1.0013756   -6.6010763    653.87787  0.032204387  0.032266105            5 
 1693000   0.98181862   -6.6181216    653.69792  0.032176507  0.032259008            4 
 1694000    0.9772325   -6.6443924    652.72633  0.032109717  0.032251833            6 
 1695000   0.99453871   -6.6435065    655.18523  0.032211663  0.032244756            4 
 1696000   0.97498386    -6.645232    653.19619  0.032094938  0.032237644            4 
 1697000     1.010972   -6.6362027    657.22371  0.032273802  0.032230694            5 
 1698000   0.98000439   -6.6486365    656.18895  0.032204012  0.032223672            3 
 1699000   0.96817929   -6.6602786    654.98786  0.032126146  0.032216649            8 
 1700000   0.97342165   -6.6347183    654.74108  0.032095151   0.03220951            7 
 1701000   0.97722362   -6.6174855    656.19999  0.032147756  0.032202395            5 
 1702000    0.9798047   -6.6262394    656.83452  0.032159936  0.032195213            6 
 1703000   0.96601786   -6.6081471    658.54123  0.032224566  0.032188142            4 
 1704000   0.99350057    -6.603705    657.68944  0.032163998  0.032181101           10 
 1705000    0.9741509   -6.6737225    657.08295  0.032115491  0.032174004            8 
 1706000    1.0095642   -6.6312216    657.57731  0.032120814   0.03216695            9 
 1707000     0.955236   -6.6805587    656.87529  0.032067725  0.032159715           13 
 1708000   0.95984603   -6.6333989    658.59622  0.032132915  0.032152561           13 
 1709000   0.98593379   -6.6360677    658.24078  0.032096781  0.032145407            3 
 1710000   0.98748502   -6.6121947    658.94357   0.03211226  0.032138378            4 
 1711000   0.95238529     -6.64974    658.27989  0.032061168  0.032131299            4 
 1712000   0.97321816   -6.6573561    658.40865  0.032048708  0.032124088            3 
 1713000   0.99928529   -6.6041003    658.84279  0.032051118  0.032116916            6 
 1714000    0.9730817   -6.6471565    659.47949  0.032063375  0.032109723            4 
 1715000   0.96452621   -6.6352608    661.00837  0.032118969  0.032102708            6 
 1716000    0.9885082   -6.6378601    659.76376   0.03203981  0.032095621            4 
 1717000   0.96427581   -6.5893575    659.04386  0.031986209  0.032088535            6 
 1718000    0.9824317   -6.6373395    659.14596  0.031972544  0.032081457            5 
 1719000   0.96142547   -6.6066143    662.33873  0.032108722  0.032074322            5 
 1720000   0.95951344   -6.6438375     660.7708  0.032014089  0.032067272            2 
 1721000   0.97336332   -6.6129396    661.86939  0.032048683  0.032060222            3 
 1722000   0.98748819   -6.6103053    663.03985  0.032086714  0.032053176            4 
 1723000   0.98355501   -6.6287178     660.9572  0.031967363  0.032046114            4 
 1724000   0.96667928    -6.659419    662.90464  0.032042954  0.032039054            5 
 1725000   0.99991439   -6.6569231    661.29067  0.031946409  0.032031866            4 
 1726000   0.95737619   -6.6520082    661.69338  0.031947344  0.032024744            6 
 1727000   0.97168809   -6.6183972    662.34746  0.031960406  0.032017716            7 
 1728000     1.001274   -6.6169368    663.12145  0.031979237  0.032010642            3 
 1729000   0.94533412   -6.6498147    661.81866   0.03189795  0.032003461            6 
 1730000   0.97226569   -6.6270631    662.33558  0.031904412  0.031996381            5 
 1731000   0.97968506   -6.6405486     664.7656  0.032002965  0.031989239            3 
 1732000   0.96448787   -6.6610881    662.99487  0.031899291  0.031982112            5 
 1733000   0.96061749   -6.6181734    664.72496  0.031964078  0.031975019            4 
 1734000   0.96208604   -6.6451391    663.60668  0.031891901  0.031967799            5 
 1735000   0.98648247   -6.6540878    663.58694  0.031872571  0.031960581            4 
 1736000   0.98310822   -6.6296472    663.80531  0.031864694  0.031953357            6 
 1737000   0.97241295   -6.6445831    665.08189  0.031907594  0.031946108            4 
 1738000   0.99370733    -6.640489    665.47251  0.031907965  0.031938843            8 
 1739000    0.9733111   -6.6630933    663.31919  0.031786428  0.031931621            6 
 1740000    0.9662378   -6.6107812    664.32133  0.031816156  0.031924269            3 
 1741000   0.97771505   -6.6539553    665.85023  0.031871062  0.031916913            8 
 1742000   0.96878612   -6.6341368    663.37694   0.03173445  0.031909471           14 
 1743000   0.97900225   -6.6447225    664.93848  0.031790901  0.031902232            4 
 1744000   0.95850865   -6.6561035    664.84695  0.031768298  0.031894964            5 
 1745000   0.98511445     -6.65866    664.84438   0.03174997  0.031887586            5 
 1746000   0.97521073   -6.6807825    666.04175  0.031788934  0.031880205            3 
 1747000    0.9797431   -6.6815147    665.48135  0.031744006  0.031872806            3 
 1748000   0.98710478   -6.6524645    666.63862  0.031781017  0.031865498            6 
 1749000   0.97233946   -6.6307372     668.4522  0.031849257  0.031858238            7 
 1750000   0.97749192   -6.6598213    668.38723  0.031827963   0.03185092            4 
 1751000    0.9872227   -6.6676794    666.05645   0.03169886  0.031843609            6 
 1752000   0.96084962   -6.6409857    666.90876  0.031721307  0.031836347           11 
 1753000   0.97562824   -6.6395773    667.90894  0.031750758  0.031829143            5 
 1754000   0.97533329   -6.6465513    668.63558  0.031767179  0.031821896            4 
 1755000    0.9671673    -6.602425    668.40097  0.031737938  0.031814629            4 
 1756000   0.96696019   -6.6654437    668.89582  0.031743347  0.031807296            8 
 1757000     0.969907   -6.6298871    669.14952  0.031737314  0.031800032            3 
 1758000   0.98662292   -6.6585413    668.34183  0.031680974  0.031792743            4 
 1759000   0.98644675   -6.6774621    669.18846  0.031703073  0.031785319            5 
 1760000   0.95305183   -6.6652375    667.89342  0.031623742   0.03177783            4 
 1761000   0.94741576   -6.6377678    667.81843  0.031602235  0.031770368            3 
 1762000   0.98185706   -6.6545202    668.97962  0.031639218  0.031762891            4 
 1763000   0.96498685   -6.6547236    669.52234  0.031646925  0.031755453            6 
 1764000   0.99659008    -6.644175    669.05439  0.031606878  0.031748063            8 
 1765000   0.98561123   -6.6749298      668.616  0.031568272  0.031740551            5 
 1766000   0.93501659   -6.6846468    668.21064  0.031531269  0.031732978            6 
 1767000   0.96266805   -6.6605915    670.73818  0.031632625  0.031725399            4 
 1768000   0.93988104   -6.6499221    672.27408  0.031687127  0.031717948            5 
 1769000   0.96383102   -6.6613762    668.78508  0.031504856  0.031710447            5 
 1770000   0.97720869   -6.6460887    670.00597  0.031544537  0.031702926            5 
 1771000   0.97390275   -6.6368624    670.69814  0.031559295  0.031695429            5 
 1772000   0.97870216   -6.6249941    670.86915  0.031549527  0.031687875            6 
 1773000   0.96280142    -6.651215    669.64115  0.031474015  0.031680361            6 
 1774000   0.98191053   -6.6681307     670.9686   0.03151863  0.031672827            3 
 1775000   0.98437548   -6.6601822    670.17117  0.031463435  0.031665284            5 
 1776000   0.97001962   -6.6873484    671.57739  0.031511702  0.031657649            6 
 1777000   0.96331955   -6.6394027    672.68473  0.031545898  0.031650156            7 
 1778000   0.96016028   -6.6251965    672.17842  0.031504425  0.031642796            6 
 1779000   0.97384904   -6.6187648    675.73141  0.031653148  0.031635609            5 
 1780000    0.9504039   -6.6093558    674.59733  0.031582272  0.031628343            7 
 1781000   0.97008705   -6.6546193    673.89914  0.031531871  0.031620972            4 
 1782000   0.97792064   -6.6485324    672.80019  0.031462785  0.031613513            4 
 1783000   0.97154466   -6.6636583    673.71974  0.031488117  0.031606046            7 
 1784000   0.95744655   -6.6873446    675.42977  0.031550344  0.031598661            4 
 1785000   0.98334193   -6.6491289    675.65556   0.03154321  0.031591333            4 
 1786000   0.97174009   -6.6822783    673.41794  0.031421143  0.031584074            4 
 1787000   0.96463098   -6.6920108    674.63493  0.031460312  0.031576763            7 
 1788000    0.9607708   -6.6357212     676.6515  0.031536703  0.031569587            6 
 1789000   0.96754023   -6.6656972    677.68341  0.031567142  0.031562372            6 
 1790000   0.98718204   -6.6466863    676.59736  0.031498946  0.031555155            2 
 1791000   0.96297707   -6.6759773    676.91488  0.031496132  0.031547946            7 
 1792000   0.94667806   -6.6900426     676.8149  0.031473907  0.031540636            4 
 1793000   0.96926252   -6.6465839    676.19915  0.031427735   0.03153331            2 
 1794000   0.96928415   -6.6192645    678.87834  0.031534669  0.031526079            4 
 1795000   0.97821866   -6.6406177     677.6853  0.031461713  0.031518844            9 
 1796000   0.96816618   -6.6808252    678.44373  0.031479386   0.03151164            3 
 1797000   0.98473822   -6.6693791    676.78661  0.031385022  0.031504301            4 
 1798000   0.96070831   -6.6463864    676.64464  0.031360986   0.03149697            7 
 1799000   0.96090551   -6.6708023     675.6925  0.031299449  0.031489571            4 
 1800000   0.97696289   -6.7055478    677.57588  0.031369254  0.031482138            2 
 1801000   0.97898286   -6.6679967    678.90084  0.031413143   0.03147475            8 
 1802000   0.95085456   -6.6752897    676.58411  0.031288573  0.031467384            5 
 1803000   0.95644455   -6.6401455    679.08761   0.03138693  0.031460029            7 
 1804000   0.94415112   -6.6403177    679.92299   0.03140812  0.031452766            4 
 1805000    0.9681598   -6.6656541    678.13329  0.031308093   0.03144543           12 
 1806000   0.95704836   -6.6638851    676.86224  0.031232108  0.031437974            8 
 1807000   0.98258925    -6.637961    680.33238  0.031374856  0.031430556            6 
 1808000   0.96734256   -6.6928071    677.01131   0.03120443  0.031423134            4 
 1809000   0.95428243   -6.6400676    679.64233  0.031308381   0.03141569            4 
 1810000   0.97444497   -6.6779182    680.00244  0.031307663  0.031408342            7 
 1811000   0.95310185   -6.6377373    679.80406  0.031281247   0.03140103            5 
 1812000   0.95670799   -6.6647246    680.09155  0.031277205  0.031393598            3 
 1813000   0.95387949   -6.6316361    682.24213  0.031358804  0.031386304            3 
 1814000    0.9645272   -6.6935469    681.16307  0.031291945  0.031379165            5 
 1815000   0.96631204   -6.6454158    682.14051  0.031319583  0.031371945            8 
 1816000   0.96230154   -6.6546631    682.02137  0.031296869  0.031364734            3 
 1817000   0.96509067   -6.6561864    681.12501  0.031238534  0.031357435            7 
 1818000   0.97128895   -6.6484806    681.60694  0.031243443  0.031350102            4 
 1819000   0.95250756   -6.6448357    683.62759  0.031318838  0.031342768            2 
 1820000   0.94098704   -6.6518303    681.75867  0.031216057  0.031335472            6 
 1821000   0.95469506   -6.6808742     683.8723  0.031295639  0.031328186           14 
 1822000   0.95841726   -6.6490977    683.79426  0.031274893  0.031320981            7 
 1823000   0.94818587   -6.7041932     680.0855  0.031088202  0.031313638            8 
 1824000   0.96894588   -6.6895993    680.64797  0.031096855  0.031306248            4 
 1825000   0.95295228   -6.6585198    685.77648  0.031313994   0.03129887            5 
 1826000   0.97027111   -6.6618395    683.03636  0.031171794  0.031291542            8 
 1827000   0.97355684    -6.685053    685.10615   0.03124914  0.031284137            4 
 1828000   0.97513378   -6.6433776    683.69792  0.031167848  0.031276831            4 
 1829000   0.94480145    -6.723849    684.56622  0.031190369  0.031269541            6 
 1830000    0.9537232   -6.6645373    685.69758  0.031224844  0.031262205            2 
 1831000   0.95946681   -6.6724879    683.57673  0.031111266  0.031254839            3 
 1832000   0.96684547   -6.6579203    684.92579  0.031155649  0.031247416            5 
 1833000   0.97928802   -6.6731918    684.36626  0.031113214  0.031240127            5 
 1834000   0.96399257   -6.6994182     686.6248  0.031198873   0.03123269            4 
 1835000    0.9527299    -6.676704     684.8463  0.031101103  0.031225326            5 
 1836000   0.97312876   -6.6755056     684.5535  0.031070874  0.031217967            6 
 1837000    0.9479611   -6.6803769     685.4613  0.031095141  0.031210659            5 
 1838000   0.98296807   -6.6336182    686.09479  0.031106946  0.031203263            6 
 1839000   0.97664074   -6.6684762     685.8506  0.031078965  0.031195964            3 
 1840000   0.99228085   -6.6817661    684.72156   0.03101094  0.031188603            6 
 1841000   0.96711544   -6.6866105    686.89693  0.031092564  0.031181177            5 
 1842000   0.93315005   -6.6633736    687.73227  0.031113476  0.031173845            3 
 1843000   0.94638595   -6.7270928    686.50611  0.031041152  0.031166553            3 
 1844000   0.96087837   -6.6459281    689.49198  0.031159254  0.031159325            4 
 1845000   0.93380745   -6.6965286    687.56077  0.031055138  0.031152175            2 
 1846000   0.97505336   -6.6732702    688.15972  0.031065354   0.03114493            3 
 1847000      0.94729   -6.6810981    688.20579  0.031050613  0.031137587            4 
 1848000   0.95556911   -6.6805808    688.36672  0.031041068  0.031130379            5 
 1849000   0.98275402   -6.6830313     688.3502  0.031023535  0.031123171            9 
 1850000   0.94583329   -6.6876479    689.82409  0.031073157  0.031115934            4 
 1851000   0.94082863   -6.6672279    688.28453  0.030987058  0.031108692            4 
 1852000   0.93542789   -6.6641824    689.68183    0.0310332  0.031101426            6 
 1853000   0.96755582   -6.6935028    690.96431  0.031074128  0.031094289            3 
 1854000   0.96685837   -6.7098176    689.61884  0.030996891  0.031087053            4 
 1855000   0.97254265   -6.7162712    689.58418  0.030978624  0.031079877            9 
 1856000   0.95217429   -6.6836225    692.10682  0.031075199   0.03107277            4 
 1857000   0.94954787   -6.6525477    693.48436  0.031120282  0.031065614            5 
 1858000   0.95831422   -6.7156338     691.6493  0.031021228  0.031058424            6 
 1859000   0.94648511   -6.6789446    690.80855  0.030966853  0.031051207            3 
 1860000   0.96264467   -6.6696138    693.13916  0.031054622  0.031044144            7 
 1861000   0.94199581   -6.6957451     694.1408  0.031082787   0.03103705            3 
 1862000   0.95680108   -6.6582928    692.84508  0.031008104  0.031029959            3 
 1863000   0.97360811   -6.7192747    692.07037  0.030956807  0.031022874            4 
 1864000    0.9611439   -6.6368282    693.75959  0.031015718  0.031015699            6 
 1865000   0.96869708   -6.6681207    693.41926  0.030983881   0.03100856            6 
 1866000   0.94677369   -6.6847621    694.88261  0.031032628  0.031001445            6 
 1867000   0.98219986   -6.6937415    692.82044  0.030923962   0.03099429            5 
 1868000   0.96182228   -6.6654576    693.40214  0.030933357  0.030987121            4 
 1869000   0.93974755   -6.6887922    691.99076  0.030853877  0.030979964           12 
 1870000   0.94312484   -6.6868667    693.98785  0.030926375  0.030972751            5 
 1871000   0.94912994   -6.7080813    694.33425  0.030925274  0.030965556            3 
 1872000   0.97146957    -6.707032    695.81356  0.030974606  0.030958347            4 
 1873000   0.96041769   -6.7047163    693.82587  0.030869633  0.030951112            6 
 1874000   0.95787378   -6.6734824    694.63577  0.030889175  0.030943856            2 
 1875000   0.93142238   -6.6625766    696.17229  0.030940991  0.030936699            5 
 1876000   0.93107996   -6.6932299    693.95465  0.030825988  0.030929431            7 
 1877000   0.95153356   -6.6873182    697.58978  0.030970954  0.030922182            4 
 1878000   0.95024429   -6.6743869     696.6426  0.030912433  0.030914966            5 
 1879000   0.94630214   -6.6924514    694.49742  0.030800843  0.030907693            7 
 1880000   0.97908633   -6.7113005    696.43213  0.030870219  0.030900418            9 
 1881000   0.92959191   -6.6925867     694.7872  0.030780932  0.030893174            5 
 1882000   0.94838295     -6.66221    695.01704  0.030774754  0.030885979            9 
 1883000   0.95853126   -6.6928172    695.33407  0.030772441  0.030878683            5 
 1884000    0.9534482   -6.6621874    697.22171  0.030839601  0.030871331            4 
 1885000   0.94340858   -6.6914338    696.89688  0.030808881  0.030864103            6 
 1886000    0.9440048   -6.6877162    696.94296  0.030794581   0.03085684            3 
 1887000   0.94308208   -6.6465636    698.74314  0.030857761  0.030849521            4 
 1888000   0.95382397   -6.6828742    696.14164  0.030726591  0.030842225            5 
 1889000   0.97446635    -6.731341    696.81464  0.030740014  0.030834918            4 
 1890000   0.92792664   -6.6601251    698.69432  0.030806628   0.03082758            3 
 1891000   0.90881632   -6.7007067    698.77832  0.030794038  0.030820358            8 
 1892000   0.95412952   -6.6859775    698.91523  0.030783793  0.030813166            5 
 1893000   0.96309599   -6.6764806    697.85792  0.030720986  0.030805912            8 
 1894000    0.9174842   -6.6713305    700.47481  0.030819905  0.030798719            4 
 1895000   0.92717961   -6.6686145      698.849  0.030732146  0.030791476            6 
 1896000   0.94863061   -6.6780724    700.45063  0.030786332  0.030784269            9 
 1897000   0.96920905   -6.6969899    698.82626  0.030698746  0.030777059            7 
 1898000   0.96196415   -6.6972449    699.69496  0.030720713  0.030769862            6 
 1899000   0.93583282   -6.7177003    701.13894  0.030767901  0.030762673            5 
 1900000   0.96033002   -6.7069776    700.75254  0.030734761   0.03075553            4 
 1901000   0.96636318   -6.6821799    699.59679  0.030667929   0.03074824            3 
 1902000   0.94264633    -6.698086     701.3687  0.030729438  0.030740953            8 
 1903000   0.94770367   -6.7157773    701.11571  0.030702212  0.030733628            7 
 1904000    0.9556149   -6.7097526    700.43241   0.03065618  0.030726386            7 
 1905000   0.94277833   -6.6753686    702.79066  0.030743248  0.030719202            5 
 1906000   0.94519459   -6.6928669    698.81625  0.030553351  0.030712011           12 
 1907000   0.94057461   -6.7058606    700.41725  0.030607291  0.030704726            7 
 1908000   0.94952153   -6.7247648    701.26111  0.030628106  0.030697377           10 
 1909000   0.93522132   -6.7256904    702.18609   0.03065244  0.030690131            5 
 1910000   0.94719683   -6.7116153    701.49052  0.030606044  0.030682889            3 
 1911000   0.94365085   -6.6820408    703.40152  0.030673361  0.030675605            4 
 1912000   0.94120115   -6.6850307    703.66061  0.030668611  0.030668422            4 
 1913000   0.94528065   -6.6711595      703.131  0.030629508  0.030661277            8 
 1914000   0.94095046   -6.6938417    702.60166  0.030590459  0.030654126            3 
 1915000   0.96717609   -6.7046877    701.14893  0.030511268  0.030646921            3 
 1916000   0.94025549   -6.6764742    704.22337  0.030629061  0.030639711            4 
 1917000   0.93329385   -6.6943508    701.59156  0.030498677  0.030632455            3 
 1918000   0.95036157   -6.6650658    703.38289  0.030560605  0.030625268            6 
 1919000   0.96003828    -6.672917    702.73536  0.030516561  0.030618038            4 
 1920000   0.93369959   -6.6811184    702.35088  0.030483979  0.030610838            4 
 1921000   0.92639845   -6.7077778    703.22558  0.030506055  0.030603498            7 
 1922000   0.95253268   -6.7183046       703.15  0.030486906  0.030596107            6 
 1923000    0.9439077   -6.6619906    702.30407  0.030434394  0.030588777            7 
 1924000   0.95059165   -6.6789139    704.62077  0.030518918  0.030581499            4 
 1925000   0.95357232   -6.6566074    704.31823  0.030489967  0.030574206            4 
 1926000   0.94197388   -6.6764988    702.70396   0.03040429  0.030566823            6 
 1927000    0.9547587    -6.696062    705.19345  0.030496171  0.030559385            4 
 1928000   0.93150434   -6.6812695    704.21574  0.030438094  0.030551959            5 
 1929000   0.95669178   -6.6836105    704.13921  0.030419009  0.030544465           13 
 1930000   0.94091877   -6.6997809    704.64974  0.030425291  0.030536972            7 
 1931000   0.92330576   -6.7188013     705.3525  0.030439863  0.030529436            5 
 1932000   0.93537357   -6.6824832    706.22877  0.030461903  0.030521917            4 
 1933000   0.94631263   -6.7034698    703.95707   0.03034821  0.030514359            4 
 1934000   0.92496888   -6.7144807    705.08114  0.030380952   0.03050675            7 
 1935000   0.93939344    -6.706013    705.26454   0.03037315  0.030499175            5 
 1936000   0.94993293   -6.7027652    702.89651  0.030255532   0.03049164            4 
 1937000   0.95419231   -6.7026781    705.69585  0.030360345  0.030484078            4 
 1938000   0.92887212   -6.7259006    706.22053   0.03036724  0.030476528            3 
 1939000   0.94061178   -6.7180426    703.70476  0.030243457  0.030469002            3 
 1940000   0.95088329   -6.6762276    705.16626  0.030290647  0.030461426            6 
 1941000   0.93497211   -6.7141247     704.2779  0.030236901  0.030453761           11 
 1942000   0.92017505   -6.6877932     705.6866   0.03028178  0.030446218            5 
 1943000    0.9489951   -6.7008777    707.60131  0.030348315  0.030438672            7 
 1944000   0.93326791    -6.694504    706.47209  0.030284298   0.03043122            5 
 1945000    0.9538742   -6.7241804    707.16348  0.030298349  0.030423653            7 
 1946000   0.94383088   -6.6885008    706.87838  0.030270571  0.030416114            5 
 1947000   0.94586444   -6.6836581     707.5785   0.03028499  0.030408639            6 
 1948000   0.96751013   -6.7456266    706.21692  0.030211196  0.030401096            5 
 1949000   0.92634929   -6.7170699    708.14446  0.030278111  0.030393501            5 
 1950000   0.92591298   -6.7120462    707.30866  0.030226866  0.030385899            7 
 1951000   0.94840829   -6.6941621    705.53434  0.030135586  0.030378317            6 
 1952000    0.9383722   -6.7024558    708.41944  0.030243316  0.030370767            4 
 1953000   0.92544357   -6.6911506    707.17255  0.030174627  0.030363282            8 
 1954000   0.92675873   -6.6772592    709.46546  0.030256971   0.03035581            8 
 1955000   0.93694597   -6.7276164    707.98233  0.030178275  0.030348311            7 
 1956000   0.92370833   -6.7175256    708.81336  0.030198252  0.030340837            8 
 1957000   0.94242335   -6.6840827    710.95301  0.030273932  0.030333465            4 
 1958000   0.95245116   -6.7199774    711.31861   0.03027403   0.03032607            6 
 1959000   0.91450102   -6.7195235    710.15681  0.030209155  0.030318687            3 
 1960000   0.93507558    -6.744264    708.48967   0.03012286  0.030311253            4 
 1961000   0.95125546    -6.701765    712.00641  0.030256944  0.030303768            5 
 1962000    0.9533595   -6.7482398    711.50597  0.030220267  0.030296335            5 
 1963000   0.95353875    -6.721325    711.54037  0.030206333  0.030288841            5 
 1964000   0.93623051   -6.7064979    708.65489  0.030068521  0.030281397            9 
 1965000   0.94382734   -6.7002934    712.53413  0.030217732  0.030273992            2 
 1966000   0.95474221   -6.7437374     709.4353  0.030071011  0.030266553            7 
 1967000   0.95274207   -6.7116787    711.82441   0.03015694  0.030259059            4 
 1968000   0.93858787   -6.7490125    709.41817  0.030039726  0.030251552            4 
 1969000   0.94402189   -6.7270631    711.27866   0.03010321  0.030244033            6 
 1970000   0.93797258   -6.7504207     710.6797  0.030062593  0.030236406            7 
 1971000   0.92759922   -6.6994265     712.4184  0.030120852  0.030228826            6 
 1972000   0.91291629   -6.7257863    710.23953  0.030013503  0.030221255            4 
 1973000   0.94348683   -6.7048883    711.04755  0.030032419  0.030213666            6 
 1974000   0.92962709   -6.7333047    710.57672  0.029997328  0.030206064            3 
 1975000   0.95048763   -6.6900432    711.70387  0.030029699   0.03019841            6 
 1976000   0.93155511   -6.6907106    711.95281     0.030025  0.030190717            8 
 1977000   0.95355818   -6.6990606    711.30946  0.029982695  0.030183011            4 
 1978000   0.93088129   -6.7209823    711.30822  0.029967485  0.030175348           14 
 1979000   0.92892955   -6.7199929    710.74423  0.029928593   0.03016765            5 
 1980000   0.92899407   -6.6826606    713.52293  0.030030426  0.030159904            3 
 1981000    0.9327927   -6.7390819    711.44452  0.029927836  0.030152216            5 
 1982000   0.95111171    -6.754314    710.89637  0.029889689   0.03014447           10 
 1983000   0.95386419   -6.6960141     713.4608  0.029982384  0.030136764            4 
 1984000   0.93362149   -6.7090995    710.81498   0.02985614  0.030129073            6 
 1985000    0.9393953    -6.710979    712.87095  0.029927412  0.030121404            6 
 1986000   0.95330418   -6.7372701    713.59319  0.029942648    0.0301137            4 
 1987000   0.94560667   -6.7411701    712.23598  0.029870659  0.030105906           11 
 1988000   0.91510128   -6.6979412    712.53927  0.029868346  0.030098218            3 
 1989000   0.92629954   -6.7099415    714.24563  0.029924821  0.030090579           14 
 1990000   0.92210846   -6.7270937    711.67337  0.029802067  0.030082834            7 
 1991000   0.92080746   -6.7321645    712.52026  0.029822545  0.030075047            6 
 1992000   0.96185951   -6.7297357    711.75903  0.029775729  0.030067277            4 
 1993000   0.92553124   -6.7144144    713.50924  0.029833971  0.030059477            8 
 1994000   0.94031756   -6.7548842    713.02765  0.029798882   0.03005169            4 
 1995000    0.9287581    -6.705131        714.4   0.02984127  0.030043928            6 
 1996000   0.93558619   -6.7287177    711.56526  0.029707968    0.0300362           12 
 1997000   0.92789933   -6.7362599    715.45465  0.029855393  0.030028477            5 
 1998000   0.94102013   -6.7222046    715.36103  0.029836546  0.030020766            5 
 1999000   0.93241477   -6.7258167    715.13301  0.029812115  0.030013011            8 
 2000000   0.92473691   -6.7240049     715.5124  0.029813017  0.030005303            5 
 2001000   0.93519259   -6.7186075    716.27841  0.029830019  0.029997667            5 
 2002000   0.93467295   -6.7213997    716.09484  0.029807477  0.029990052            5 
 2003000   0.92929353   -6.7462832    716.36439  0.029803811  0.029982341            5 
 2004000   0.93387879   -6.7380504    714.73831   0.02972132  0.029974617            4 
 2005000   0.90698999   -6.7022599    715.48961  0.029737723  0.029966864            3 
 2006000   0.92468806   -6.6970748    715.63401  0.029728897  0.029959148            6 
 2007000   0.95982049   -6.7564986    716.01767  0.029730014  0.029951351            7 
 2008000   0.91985861   -6.7154663     717.9276  0.029794472  0.029943649            3 
 2009000   0.92634891   -6.7309003    716.03897  0.029701301  0.029935885            4 
 2010000   0.92518703   -6.7297223    715.67582  0.029671468  0.029928129            7 
 2011000   0.91719682   -6.7284584    716.53443  0.029692294  0.029920378            4 
 2012000   0.92764865   -6.7142858     718.9112  0.029775977  0.029912606            4 
 2013000   0.93080931   -6.7310695    716.70958  0.029670044  0.029904871            4 
 2014000   0.92749456   -6.7342151    718.31742   0.02972184  0.029897203            4 
 2015000   0.92060227   -6.7251576    717.82262  0.029686626  0.029889532           11 
 2016000   0.92770861   -6.7303593    719.09375  0.029724444  0.029881921            7 
 2017000   0.93393825   -6.7322282    717.81009  0.029656672  0.029874325            3 
 2018000   0.93968054   -6.6889943    722.21005  0.029823672  0.029866768            6 
 2019000   0.94380786   -6.7456204    718.14074  0.029640942  0.029859137           21 
 2020000   0.92642619   -6.7207366    718.36847  0.029635663   0.02985147            4 
 2021000   0.93311803   -6.7165883    719.84151  0.029681738  0.029843786            5 
 2022000   0.93230313   -6.7407281    720.17329  0.029680732  0.029836134            8 
 2023000   0.93495265   -6.7468753     720.2655  0.029669859  0.029828492           14 
 2024000   0.92294132   -6.7272225    719.35074  0.029617537  0.029820804            6 
 2025000    0.8979234    -6.753256    718.91391  0.029584934  0.029813137            6 
 2026000   0.90290303   -6.7416499    719.24137  0.029583801  0.029805444            5 
 2027000   0.93769719   -6.7218926    720.64181  0.029626781  0.029797735            8 
 2028000   0.92790703   -6.7166086    720.46286  0.029604819  0.029790022            8 
 2029000       0.9367   -6.7265668    719.46286  0.029549156  0.029782296            5 
 2030000   0.92564948   -6.7409508    720.59252  0.029580974  0.029774542            2 
 2031000   0.92099104   -6.7155891     721.1216  0.029588118  0.029766812            6 
 2032000   0.90686463   -6.7301849    720.15396  0.029533873  0.029759079            4 
 2033000   0.92311697   -6.7413251    718.70978  0.029460149  0.029751322            4 
 2034000   0.93170596   -6.7173595    720.16836  0.029505423  0.029743529            6 
 2035000    0.9477586    -6.736477    720.94524  0.029522737  0.029735743            6 
 2036000   0.91293951   -6.7475113    720.76876  0.029501013  0.029727925           15 
 2037000   0.93597976   -6.7226266    720.69031  0.029483321  0.029720172            5 
 2038000   0.91798142   -6.7544168    719.74397  0.029430159  0.029712348            3 
 2039000   0.92271628   -6.7065506    720.42889  0.029443718  0.029704518            5 
 2040000   0.93047755   -6.7587795    719.89938  0.029407654   0.02969674            5 
 2041000   0.93712086   -6.7432038    719.53556  0.029378391  0.029688995            5 
 2042000   0.92642923   -6.7445653    721.56602  0.029446867   0.02968124           11 
 2043000   0.93439869   -6.7278469    723.82041  0.029524409  0.029673466            8 
 2044000   0.94203089   -6.7251309    723.02074  0.029477362  0.029665793            7 
 2045000   0.92308728   -6.7285812    722.99304  0.029461819  0.029658135            2 
 2046000   0.91213467   -6.7162734    722.30375  0.029419345  0.029650384            4 
 2047000   0.91153759   -6.7388963    723.14565  0.029439246   0.02964265            6 
 2048000   0.94668276   -6.7150505    723.31013  0.029431564  0.029634932            3 
 2049000    0.9223509   -6.7610192    720.65918  0.029309386  0.029627102            3 
 2050000   0.93985572   -6.7138288    723.86658  0.029425471  0.029619279            4 
 2051000   0.92337863   -6.7360433    723.91884  0.029413247  0.029611498            3 
 2052000     0.922051   -6.7649922    721.09273  0.029284143  0.029603668            8 
 2053000   0.94182828   -6.7392933    723.48492   0.02936698  0.029595781            6 
 2054000   0.91919163   -6.7353943    724.76725  0.029404708  0.029587898            3 
 2055000   0.92226167   -6.7382963    723.21904  0.029327617  0.029579924            7 
 2056000   0.93731653   -6.7293007    723.00282  0.029304589  0.029572059            5 
 2057000   0.91758315   -6.7440523    723.98758  0.029330237  0.029564159            5 
 2058000   0.92999209   -6.7209115    725.99263  0.029397175  0.029556273            5 
 2059000   0.90486989   -6.7465203     723.2582  0.029272227  0.029548467            5 
 2060000   0.92281995   -6.7831162    723.52556  0.029268834  0.029540625            8 
 2061000   0.94040971   -6.7350722     724.5071  0.029294319  0.029532662            5 
 2062000   0.90620513   -6.7612865    723.43727  0.029236876  0.029524718            3 
 2063000   0.93259836   -6.7571152    727.25112  0.029376762  0.029516825            6 
 2064000   0.91686897   -6.7662925    724.55594  0.029253712  0.029508965            6 
 2065000     0.914115   -6.7536294    724.18078  0.029224406   0.02950115            3 
 2066000    0.9136442   -6.7308872    727.04633  0.029325844  0.029493381            7 
 2067000    0.9161908   -6.7841229    723.67885  0.029175893  0.029485526            5 
 2068000   0.91682751   -6.7545182    725.67936  0.029242398   0.02947764            4 
 2069000   0.89469878   -6.7513931    724.93378  0.029198235  0.029469765            6 
 2070000   0.90680666   -6.7384278    726.62142   0.02925207  0.029461971            9 
 2071000   0.91946285   -6.7468773    726.00371   0.02921309   0.02945424            4 
 2072000   0.92063799   -6.7412007    726.31314  0.029211436  0.029446482            4 
 2073000   0.93701489   -6.7502883    726.92631  0.029221993  0.029438729            3 
 2074000   0.91338142    -6.728028    728.17697  0.029258155  0.029430926            5 
 2075000   0.91780457   -6.7339443    729.68506  0.029304621  0.029423196           10 
 2076000   0.91643594   -6.7465093    727.28198  0.029194042  0.029415373            2 
 2077000   0.91376003   -6.8017382    727.03233   0.02916997  0.029407546            5 
 2078000   0.91322667    -6.729168    727.01637  0.029155292  0.029399788            6 
 2079000   0.90267477    -6.773774    726.13104  0.029105782   0.02939193            4 
 2080000    0.9173156   -6.7211589    728.81994  0.029199517  0.029384149            6 
 2081000   0.92706861   -6.7331371    726.75557  0.029102818  0.029376341            9 
 2082000   0.91509821   -6.7091672    730.05346   0.02922084  0.029368645            6 
 2083000   0.91191357   -6.7571953    727.77651  0.029115719  0.029360901            7 
 2084000    0.9114249   -6.7683934    729.17379  0.029157621   0.02935318            7 
 2085000   0.92980788    -6.744893    728.97939  0.029135867  0.029345478            5 
 2086000   0.89186894   -6.7760959    728.04718  0.029084659  0.029337725            7 
 2087000   0.92178192   -6.8045627    729.11957  0.029113543  0.029329942            7 
 2088000   0.91651125   -6.7328711    732.36711  0.029229211    0.0293222            7 
 2089000   0.91145682   -6.7820555     731.6558  0.029186844   0.02931457            4 
 2090000    0.9272649   -6.7417541    733.53501  0.029247807  0.029306967            5 
 2091000   0.90297931   -6.7555383    730.17433  0.029099886  0.029299348            5 
 2092000   0.92193857   -6.7387399    731.65923  0.029145126   0.02929176            6 
 2093000    0.9173237    -6.735124    732.19563  0.029152557  0.029284111            7 
 2094000   0.91238377   -6.7432978    729.94908  0.029049231   0.02927646            3 
 2095000   0.90882806   -6.7744547    730.48912  0.029056847  0.029268697            8 
 2096000   0.91451079   -6.7171075    732.55729   0.02912521  0.029260893            3 
 2097000   0.89715761     -6.74628    731.85087  0.029083249  0.029253197           15 
 2098000   0.90818512   -6.7496145    731.90924  0.029071705  0.029245433            7 
 2099000   0.91836283   -6.7655648    731.81389  0.029054069  0.029237637           11 
 2100000   0.89138923   -6.7549737    731.78467  0.029039074  0.029229805            5 
 2101000   0.91988618   -6.7639243    731.86448  0.029028418  0.029222074            5 
 2102000   0.93197236   -6.7393517    732.28558  0.029031303  0.029214287            5 
 2103000   0.91079388   -6.7620079    730.94349  0.028964316  0.029206563            6 
 2104000   0.90562738   -6.7718353    732.34176  0.029005932  0.029198819            2 
 2105000   0.91380779   -6.7786624    730.57025  0.028922021  0.029191094            5 
 2106000   0.91873393   -6.8061786    732.11471  0.028969401  0.029183384            5 
 2107000    0.9199441   -6.7456688    733.93224  0.029027537  0.029175668           14 
 2108000   0.90359652   -6.7510892    733.52971  0.028997854  0.029167969            4 
 2109000   0.90859878   -6.7466841    732.99496  0.028962975  0.029160269            4 
 2110000   0.91105372   -6.7729433    732.91254  0.028945993  0.029152512            6 
 2111000   0.91413127    -6.738221    735.52568  0.029035437  0.029144814            5 
 2112000    0.9223344   -6.7588951    735.75403  0.029030699  0.029137124            3 
 2113000   0.88101661   -6.7442005    735.99666  0.029026528  0.029129523            3 
 2114000   0.90397503   -6.7845808    732.67691  0.028881934  0.029121774            3 
 2115000   0.89035151   -6.7361797    735.79682  0.028991206  0.029114026            8 
 2116000   0.92445732   -6.7424558    735.78654  0.028977101  0.029106374            6 
 2117000   0.92792767    -6.800544    734.00003  0.028893089   0.02909868            4 
 2118000    0.8972747   -6.7325432      733.404  0.028855996   0.02909092            6 
 2119000   0.92263387   -6.7862937    733.47277  0.028845083  0.029083148            3 
 2120000   0.90320186   -6.7840443    736.49921  0.028950441  0.029075378            6 
 2121000    0.9096448   -6.7447253    734.64394  0.028863898   0.02906767           11 
 2122000   0.92403331   -6.7943021     733.4085  0.028801779  0.029059947            9 
 2123000    0.8991531   -6.7439892    734.27444  0.028822203  0.029052174            5 
 2124000   0.89944689   -6.7360167    737.41104  0.028931695  0.029044458           10 
 2125000   0.91918018   -6.7578032    735.98543  0.028862174  0.029036783            3 
 2126000   0.89940723   -6.7894296    734.94573  0.028807845  0.029029058           12 
 2127000   0.91950452   -6.7437506    734.50674  0.028777102  0.029021283            8 
 2128000   0.90593883   -6.7721028    736.63384  0.028846877  0.029013548           17 
 2129000   0.90971274   -6.7502518    736.66759  0.028834648  0.029005795            6 
 2130000   0.91949442    -6.752833    736.82159  0.028827136  0.028998103            6 
 2131000    0.9047773   -6.7646792    738.09118  0.028863256  0.028990436            5 
 2132000   0.91464397    -6.781241    737.38867  0.028822259  0.028982749            7 
 2133000   0.90165206   -6.7536774    737.46258  0.028811634  0.028975095            5 
 2134000   0.91865843      -6.7625    737.79581  0.028811146  0.028967491            7 
 2135000   0.90345125   -6.7791072    738.40484  0.028821422  0.028959877           10 
 2136000   0.90138111   -6.7579729    738.07226  0.028794954   0.02895226           10 
 2137000   0.90381333   -6.7456798    738.74715  0.028807797  0.028944674           12 
 2138000   0.90549612   -6.7756219    738.15574  0.028771272  0.028937063            9 
 2139000   0.89617807   -6.7100067    740.87838  0.028863892  0.028929413            5 
 2140000   0.91718347   -6.7514871      738.797  0.028769353  0.028921737            6 
 2141000    0.8846754   -6.7982265    737.71267  0.028713711  0.028914057            6 
 2142000    0.9114503   -6.7859502    738.63742  0.028736283  0.028906319            8 
 2143000   0.88991523   -6.7960175    736.47321  0.028638716  0.028898586           10 
 2144000   0.90982553   -6.7802232    737.72356  0.028673957  0.028890848            4 
 2145000   0.92794584   -6.7397017    741.45506  0.028805558  0.028883209            3 
 2146000   0.90934505   -6.7872759    739.10367  0.028700826  0.028875589            4 
 2147000   0.91538795   -6.7699503    740.26331  0.028732468  0.028867918            5 
 2148000   0.91528787   -6.7452629    737.79521   0.02862334  0.028860271            3 
 2149000   0.92632412   -6.7600293     740.2241  0.028704207  0.028852625            3 
 2150000   0.91424902    -6.795509    742.75329  0.028788887  0.028844912            9 
 2151000   0.90452832   -6.7612255    740.94494  0.028705445  0.028837195            8 
 2152000   0.91693106   -6.8039911    739.15784  0.028622903   0.02882943           13 
 2153000   0.90601302    -6.783674    739.80033  0.028634476  0.028821667            6 
 2154000   0.91378897   -6.7651268    738.29989  0.028563134  0.028813971            5 
 2155000   0.90963885   -6.7692697    742.06581  0.028695507  0.028806314            5 
 2156000   0.91286992   -6.7851941    741.17271  0.028647677  0.028798645            5 
 2157000   0.91283777   -6.7798115    741.81219  0.028659102   0.02879099            7 
 2158000   0.91417247   -6.7647339    742.85428  0.028686063  0.028783367            6 
 2159000   0.91462819   -6.7777206     739.9155  0.028559345  0.028775787            9 
 2160000   0.92033179    -6.751345    741.82001  0.028619599  0.028768194            6 
 2161000   0.92400906   -6.7785805    740.89551  0.028570705  0.028760623           11 
 2162000   0.89788944   -6.8042899    740.41354  0.028538912  0.028752873            5 
 2163000   0.91725306   -6.7780646    741.96871  0.028585634  0.028745161            7 
 2164000   0.89784207   -6.7689345    741.69846  0.028562017  0.028737485           10 
 2165000   0.89169182   -6.7470941    740.99186  0.028521626  0.028729852            6 
 2166000    0.9259143   -6.8018239    743.07312  0.028588532  0.028722194            2 
 2167000   0.90668426   -6.7744226    742.65386  0.028559216  0.028714571            9 
 2168000   0.90567031   -6.7816745    742.26958  0.028531272  0.028706986           10 
 2169000   0.89974441     -6.76595    743.18885  0.028553437  0.028699371            4 
 2170000   0.90061546   -6.7897359    744.21091  0.028579528  0.028691788            5 
 2171000   0.90824502   -6.8255318    741.84949  0.028475721  0.028684224            9 
 2172000    0.9110399   -6.8035592    745.94917  0.028619904  0.028676695            6 
 2173000   0.90163179   -6.7047704    745.17599  0.028577082  0.028669239            4 
 2174000    0.9042424   -6.7815681    745.68237  0.028583348   0.02866176            3 
 2175000   0.91920744   -6.7929585    744.76076  0.028534895  0.028654264            6 
 2176000   0.87999418   -6.7849889    746.50692  0.028588653  0.028646757            7 
 2177000   0.91219216   -6.8025479    744.47317  0.028497671  0.028639229           11 
 2178000   0.90402645   -6.7602833    745.41948  0.028520794  0.028631732            5 
 2179000   0.91315974   -6.7593068    745.00994  0.028492043  0.028624173            5 
 2180000   0.90515886   -6.7827974     745.4595  0.028496158  0.028616644            7 
 2181000   0.88822162   -6.7616068    744.85019  0.028459811  0.028609074            5 
 2182000   0.90725444   -6.7642369    744.89107   0.02844833  0.028601529            5 
 2183000   0.91345036   -6.8025517    745.49867  0.028458493  0.028593951            5 
 2184000   0.91182062    -6.782295    744.67014  0.028413848  0.028586343            6 
 2185000   0.90679542   -6.7634423    745.88762  0.028447278  0.028578761            8 
 2186000   0.90583469   -6.7750784    746.50013  0.028457614  0.028571193            6 
 2187000    0.9275894   -6.7856209    744.63591  0.028373568   0.02856355            8 
 2188000   0.90900875   -6.7916882    746.03733  0.028413975  0.028555881            5 
 2189000    0.8989638   -6.7942224    744.24041  0.028332588  0.028548228            6 
 2190000   0.90348736   -6.7983634    746.75103  0.028415184  0.028540602            7 
 2191000    0.9118069   -6.7857689    745.69084  0.028361891   0.02853287            4 
 2192000   0.92092217   -6.8060174    743.59162  0.028269146  0.028525179            9 
 2193000   0.91211884   -6.7582036    748.62314  0.028447452  0.028517584            8 
 2194000   0.90250299   -6.7433392    748.41417  0.028426549  0.028510018            8 
 2195000   0.90199727   -6.7458317    747.06396  0.028362337  0.028502493            4 
 2196000   0.90866807    -6.792294    746.33376  0.028321712  0.028494844           10 
 2197000   0.91113162   -6.7783013    745.74209  0.028286379  0.028487142            4 
 2198000   0.91425713    -6.796115    745.88529  0.028278939   0.02847952            6 
 2199000   0.89827321   -6.7616052    747.26016  0.028318181  0.028471891            6 
 2200000   0.88863925   -6.8041442    745.45204   0.02823682  0.028464204            8 
 2201000   0.87557822   -6.8011184    747.32418  0.028294873  0.028456518            6 
 2202000   0.90952635   -6.8001537     748.4949  0.028326328   0.02844885           12 
 2203000   0.90838988     -6.78611    747.29126   0.02826794  0.028441193            7 
 2204000   0.89917545   -6.7852489    747.22487  0.028252604  0.028433423            5 
 2205000   0.89434943   -6.8101873    748.38813  0.028283754   0.02842572            5 
 2206000   0.90436848   -6.8300943     748.0548  0.028258341  0.028418028            7 
 2207000   0.91286135   -6.7972683    748.46758  0.028261123  0.028410368            5 
 2208000   0.89438871   -6.8055532    746.60277  0.028177943  0.028402686            9 
 2209000   0.87807918   -6.7894175    749.70795  0.028282328  0.028395017            3 
 2210000   0.90123191   -6.7957084    750.76443  0.028309368  0.028387427            5 
 2211000   0.90374905   -6.7779449    749.76182  0.028258775  0.028379862            4 
 2212000   0.91310754   -6.7864839    751.19759   0.02830009  0.028372298            6 
 2213000    0.9008887   -6.8013711    749.94693  0.028240207  0.028364691            6 
 2214000   0.87624266   -6.7881052    749.29193  0.028202798  0.028357078            4 
 2215000   0.87897271   -6.7795838     750.6291  0.028240372  0.028349517           11 
 2216000   0.88264551   -6.7870114     750.6087  0.028226862  0.028341874            4 
 2217000   0.89378181   -6.7821681    748.95384  0.028151926  0.028334196            4 
 2218000   0.89236448   -6.7930617    750.38435   0.02819298  0.028326523            6 
 2219000   0.89693146   -6.7623025     750.3856  0.028180321  0.028318922            6 
 2220000   0.88327764   -6.7732866    751.45226  0.028207667  0.028311362            7 
 2221000    0.8940188     -6.83178    749.26355  0.028112845  0.028303793            7 
 2222000   0.89865929   -6.8005139    749.58066  0.028112086  0.028296187            7 
 2223000   0.90067848   -6.8139956    748.48809  0.028058483  0.028288538            6 
 2224000   0.89707684   -6.7998222    750.16981  0.028108881  0.028280821            7 
 2225000   0.89246784   -6.8440065    751.13653  0.028132454  0.028273082            7 
 2226000   0.89687994   -6.8075069    752.25625  0.028161734   0.02826541            8 
 2227000   0.90277985   -6.7870917    753.24498  0.028186087  0.028257794            5 
 2228000   0.89189206   -6.8136629    750.90961  0.028086087  0.028250148            8 
 2229000   0.88986255   -6.8312137    750.80925  0.028069734  0.028242485            8 
 2230000   0.89153143   -6.7977421     751.5077  0.028083248  0.028234806            5 
 2231000   0.88722965   -6.7581238    752.38069  0.028103268  0.028227166            8 
 2232000   0.88021235      -6.8091    754.55207  0.028171747  0.028219551            9 
 2233000   0.88757691   -6.7797775    753.79343  0.028130819  0.028211954            4 
 2234000   0.90288793   -6.7743721      752.027  0.028052335  0.028204435            6 
 2235000   0.88997781   -6.7670674    751.83077  0.028032467   0.02819689            4 
 2236000   0.88324452   -6.7997227    754.86546   0.02813303  0.028189388            5 
 2237000   0.86849688   -6.8329566    752.55867  0.028034521   0.02818188            3 
 2238000    0.9037191   -6.8069397    754.06212  0.028077976  0.028174367            6 
 2239000   0.89104931   -6.8046934    755.44345  0.028116847  0.028166931            9 
 2240000   0.89138964   -6.8114456     754.0002  0.028050603  0.028159497           12 
 2241000   0.90286124   -6.8041118    755.35308  0.028088393  0.028152052            3 
 2242000   0.89601488    -6.780568    756.95323  0.028135341  0.028144644            4 
 2243000   0.89413739   -6.7959642    757.67748  0.028149706  0.028137301            6 
 2244000   0.90840049   -6.8040528    758.53574  0.028169034  0.028129988            6 
 2245000   0.89642183   -6.8017285    757.67457   0.02812452  0.028122729            5 
 2246000   0.89024883   -6.8073794    758.12153  0.028128582  0.028115498            5 
 2247000   0.89662614   -6.8114333    757.60503  0.028096908  0.028108214           13 
 2248000   0.88808343   -6.8431957    757.49074  0.028080173  0.028100911            9 
 2249000   0.87864205   -6.8156295    759.54834  0.028143928  0.028093717           10 
 2250000   0.91577465   -6.8154522    761.25877  0.028194769  0.028086556            7 
 2251000   0.90869334    -6.835382    759.98063  0.028134926  0.028079317            4 
 2252000   0.88072239   -6.8312901    756.92014  0.028009182  0.028072058            8 
 2253000    0.8767075   -6.8194972    758.68475  0.028062019  0.028064778            4 
 2254000   0.89569222   -6.8146767    759.59118  0.028083081  0.028057617            7 
 2255000   0.91053999   -6.8461625    758.41309  0.028027091  0.028050476            7 
 2256000   0.89955603   -6.7946655    761.64708  0.028134127  0.028043376            4 
 2257000   0.86001151    -6.789075    761.66268  0.028122238  0.028036282            5 
 2258000   0.87136857   -6.8138124    762.30789  0.028133595   0.02802914            5 
 2259000   0.89036583    -6.800299    760.28396  0.028046479  0.028022047            9 
 2260000   0.88307937   -6.8123496    761.24841  0.028069632  0.028014907            9 
 2261000   0.89124138   -6.8000039    760.76934   0.02803956  0.028007857            4 
 2262000   0.88782557   -6.7806135    761.54025  0.028055565  0.028000789            4 
 2263000   0.89555765   -6.8555987    761.66782  0.028047865  0.027993639            4 
 2264000   0.87286609   -6.8062458    764.55294  0.028141672  0.027986531            6 
 2265000   0.88087231   -6.8595274    760.50424  0.027980288  0.027979434            9 
 2266000   0.88123663   -6.8218481    762.67638  0.028047822  0.027972284           10 
 2267000   0.88776133    -6.789916    764.09389  0.028087557  0.027965183            6 
 2268000   0.90077463   -6.8066151    762.87687  0.028030455  0.027958089            4 
 2269000   0.89403091   -6.8108472    762.27505  0.027995998  0.027950927            4 
 2270000   0.86995863   -6.8081714    762.66976  0.027998156  0.027943871            5 
 2271000   0.90440593   -6.8330423    760.55859  0.027908359  0.027936747            6 
 2272000   0.88388939   -6.8452397     762.0786  0.027951826  0.027929596            6 
 2273000   0.88810841   -6.8018396    762.79443  0.027965773  0.027922459            4 
 2274000   0.90005096   -6.8206965    763.65127  0.027984875  0.027915373            5 
 2275000   0.88859641   -6.8096525    763.03489  0.027949996  0.027908249           14 
 2276000   0.89125663   -6.8098744    762.32212  0.027911618  0.027901153            5 
 2277000   0.88749255   -6.7775694    763.39141  0.027938494  0.027894041            6 
 2278000   0.89338707   -6.8057397    763.87643  0.027943972  0.027886948            7 
 2279000   0.87146172   -6.7954503    764.40635  0.027951088  0.027879811           13 
 2280000   0.89811079    -6.840408    764.46377  0.027940927  0.027872698            5 
 2281000    0.8887086   -6.7936111    764.88437  0.027944044  0.027865509            7 
 2282000   0.87316968   -6.8351686    763.39972  0.027877583  0.027858271            4 
 2283000   0.86511644   -6.8586467    763.69381  0.027876106  0.027851011            7 
 2284000   0.88232662   -6.8339211    763.79586  0.027867625  0.027843823           12 
 2285000    0.8831741   -6.7883599    764.59188   0.02788446   0.02783663            7 
 2286000   0.87896613   -6.8265391    763.02756  0.027815236  0.027829439            3 
 2287000   0.86615458   -6.8048292    763.30443  0.027813163  0.027822267            6 
 2288000   0.87302695   -6.8308925    764.93343  0.027860338  0.027815058            6 
 2289000   0.88424044   -6.8092135    763.94953  0.027812346  0.027807869            6 
 2290000   0.86937407    -6.815481    766.06734  0.027877269  0.027800767            9 
 2291000   0.89081848   -6.7975993    766.04241  0.027864193  0.027793606            9 
 2292000   0.88545826   -6.7933442    766.33908  0.027862823   0.02778643            6 
 2293000    0.8896871   -6.8081582    764.18979  0.027772561  0.027779239            6 
 2294000   0.87760564   -6.8073616    765.12443  0.027794407  0.027772079            7 
 2295000   0.86500554   -6.8327042    765.04533  0.027779424  0.027764898            5 
 2296000   0.89496046   -6.8293806    766.66759  0.027826205  0.027757784            7 
 2297000   0.88242062   -6.7912034    765.20122  0.027760892  0.027750633            5 
 2298000   0.85863739   -6.8031923    763.68021  0.027693654  0.027743419           14 
 2299000   0.88191424   -6.8199413    764.50489  0.027711501  0.027736208            4 
 2300000   0.88882309   -6.8078998    766.46031  0.027770301  0.027729038            5 
 2301000   0.90100266   -6.8303982    765.92484   0.02773884  0.027721832            6 
 2302000   0.89123459   -6.8222041    766.01647  0.027730107  0.027714597            9 
 2303000   0.89016078   -6.8130528    766.79862  0.027746368  0.027707359           16 
 2304000   0.86975397   -6.8221278    765.26257  0.027678768  0.027700146            5 
 2305000   0.88919268   -6.8091789    767.22797  0.027737815  0.027692969            5 
 2306000   0.90543339   -6.8438859    764.91591  0.027642234  0.027685727            5 
 2307000   0.87876507   -6.8443954    764.84194  0.027627581  0.027678466            7 
 2308000   0.87730174   -6.8333168    765.65303  0.027644895  0.027671085           14 
 2309000   0.86605376     -6.84009    764.09599  0.027576728  0.027663745            8 
 2310000   0.86833827   -6.8354768    766.88826  0.027665522  0.027656471           10 
 2311000   0.88025867   -6.8458545    765.69571  0.027610548  0.027649114            5 
 2312000   0.87494962     -6.84782    764.78449  0.027565762  0.027641684            7 
 2313000    0.8769424   -6.8488171    765.48026  0.027578911  0.027634295            6 
 2314000   0.88616131   -6.8503423     765.9008  0.027582138  0.027626918            6 
 2315000   0.88361281   -6.7929691    765.69907  0.027562961  0.027619547            4 
 2316000   0.89560749   -6.8231305    765.00005  0.027525908  0.027612253            5 
 2317000   0.89501678   -6.8235975     764.6613  0.027501845  0.027604908           11 
 2318000   0.87442272   -6.8265136    765.50264  0.027520227  0.027597555            8 
 2319000   0.89170895   -6.8212098    766.99243  0.027561896  0.027590234            8 
 2320000   0.89815076   -6.8220573    768.91143  0.027618945  0.027582948            6 
 2321000    0.8720883   -6.8546693    767.45727  0.027554835  0.027575656            4 
 2322000    0.8952452   -6.8635169     766.3349  0.027502688  0.027568346            9 
 2323000   0.86747669   -6.8428725     767.5405  0.027534097  0.027561024            9 
 2324000    0.8750791   -6.8519752    766.81452  0.027496218  0.027553666            7 
 2325000   0.87600207   -6.8356048    768.48723  0.027544345   0.02754633           18 
 2326000   0.89582868   -6.8320474    768.16193  0.027520849  0.027538972            4 
 2327000   0.87115741   -6.8410374    768.04565  0.027504858   0.02753164            6 
 2328000    0.8817358   -6.8651416    768.61716  0.027513501  0.027524334            5 
 2329000   0.86561845   -6.8308955    769.43302  0.027530879   0.02751703            6 
 2330000   0.88800316    -6.846969    767.14527  0.027437241  0.027509738            5 
 2331000   0.86279692    -6.840239    767.25446  0.027429374   0.02750244            5 
 2332000   0.88011044   -6.8457278    770.80186  0.027544378  0.027495154            6 
 2333000   0.88769835   -6.8228039    768.77202  0.027460067  0.027487862            9 
 2334000   0.87633933    -6.847028    768.80687  0.027449545  0.027480546            6 
 2335000   0.89402435   -6.8149397    769.06799  0.027447109  0.027473205            6 
 2336000   0.89617108   -6.8252586    768.95286  0.027431252   0.02746589           13 
 2337000   0.86713445   -6.8231873    770.17609  0.027463133  0.027458612           12 
 2338000   0.88258034   -6.8497637    769.38751  0.027423279   0.02745131            5 
 2339000   0.87645355   -6.8217109    769.29934  0.027408413  0.027444001            5 
 2340000   0.90327083   -6.8290008    767.73354  0.027340938   0.02743675           10 
 2341000   0.87246501   -6.8643867     770.2153  0.027417603  0.027429481            8 
 2342000   0.87283761   -6.8452776    772.36852  0.027482512   0.02742223            6 
 2343000   0.86900297   -6.8533094     769.4871  0.027368299  0.027414965            8 
 2344000   0.89523534   -6.8467385    769.03259  0.027340465   0.02740775            6 
 2345000   0.87303594   -6.8431767    772.05279  0.027436133  0.027400488           17 
 2346000   0.87812624   -6.8571436    772.35639  0.027435223   0.02739328           12 
 2347000   0.86803269   -6.8524561    770.57869  0.027360413  0.027386032            7 
 2348000   0.86639517   -6.8467461    771.77984  0.027391391   0.02737876           15 
 2349000   0.87760126    -6.858219    771.17964  0.027358438  0.027371478            6 
 2350000   0.84748418   -6.8365988    772.98429   0.02741079  0.027364194           12 
 2351000   0.87882925   -6.8693547    773.09618  0.027403097  0.027356949            9 
 2352000   0.87845813   -6.8154609    772.04829  0.027354319  0.027349686            5 
 2353000   0.86457674   -6.8457942    772.17817  0.027347293  0.027342378            8 
 2354000   0.86877955   -6.8619285    771.94036  0.027327257  0.027335002           10 
 2355000   0.87279223   -6.8537776    771.17987  0.027288743   0.02732769            5 
 2356000   0.85815894   -6.8627533    770.37905  0.027248834  0.027320318           15 
 2357000   0.88092595   -6.8393026    771.16751   0.02726515  0.027313026            6 
 2358000   0.88384367   -6.8561961    770.03547   0.02721358  0.027305647            6 
 2359000   0.87847276   -6.8300743    772.62371  0.027293476  0.027298354            6 
 2360000   0.86688118   -6.8238478    771.86524  0.027255128  0.027291072            6 
 2361000   0.87150125   -6.8285294    772.50447  0.027266147  0.027283757            6 
 2362000   0.87174269   -6.8320423    772.10968  0.027240675  0.027276466            7 
 2363000   0.87714601   -6.8251291     772.8517  0.027255314   0.02726915            4 
 2364000   0.87610384   -6.8294233    772.66671  0.027237264   0.02726185            6 
 2365000   0.87258522   -6.8166482    772.16962  0.027208232    0.0272545            3 
 2366000   0.86144088   -6.8463801    772.62317  0.027212707   0.02724718           15 
 2367000   0.87406155   -6.8726733    771.34535  0.027156223  0.027239835           12 
 2368000   0.86989692   -6.8657523    772.22076  0.027175562  0.027232451            4 
 2369000   0.86732474   -6.8053436     771.6025  0.027142342  0.027225076            6 
 2370000   0.87731996   -6.8238498    773.55912  0.027199688   0.02721771           24 
 2371000   0.87754055   -6.8423026    772.17645  0.027139619  0.027210423            8 
 2372000   0.86453742   -6.8535769    774.21027   0.02719963  0.027203067            6 
 2373000   0.89918489    -6.843419    773.60734  0.027166995   0.02719575            5 
 2374000    0.8592854   -6.8179515    775.30588  0.027215174  0.027188431            5 
 2375000   0.84724543   -6.8632987    771.77525  0.027079833  0.027181061            4 
 2376000   0.86097853   -6.8718381    773.22224  0.027119186  0.027173666            6 
 2377000   0.86315339   -6.8301238    772.55084  0.027084239  0.027166318            8 
 2378000   0.85784393   -6.8589148    775.36058  0.027171313  0.027159026           10 
 2379000   0.87679055   -6.8168811     775.0912  0.027150455   0.02715167            9 
 2380000   0.85900634   -6.8453056    772.37949    0.0270441  0.027144316            8 
 2381000   0.84372042   -6.8087542    773.83437  0.027083661  0.027136957            9 
 2382000   0.86974576   -6.8733654    772.86836  0.027038496  0.027129593            5 
 2383000   0.87155424   -6.8535702    775.12797  0.027106168   0.02712226            3 
 2384000   0.88241786   -6.8407743     775.2662  0.027099629  0.027114948            8 
 2385000   0.83717837   -6.8561301    774.70988  0.027068829  0.027107624            6 
 2386000    0.8770061     -6.86054    775.05379  0.027069495  0.027100292            8 
 2387000   0.84694733   -6.8665034    774.92931  0.027053809  0.027092934            8 
 2388000   0.85087146   -6.8620433    775.05611  0.027046905  0.027085604            5 
 2389000   0.86104099   -6.8344431    775.31163  0.027044497  0.027078273            4 
 2390000   0.85634617    -6.850631    774.28471  0.026997375  0.027070966           17 
 2391000   0.86450595   -6.8447793    776.13548  0.027050588  0.027063626            9 
 2392000   0.86827818   -6.8315733    777.70406  0.027093926   0.02705633           14 
 2393000    0.8716416   -6.8532279    776.70629  0.027047858  0.027049043            5 
 2394000   0.88325109   -6.8694791    775.06099  0.026979288  0.027041729            4 
 2395000   0.89046128   -6.8579149    775.66326  0.026988979  0.027034466            4 
 2396000   0.85235905   -6.8470523    776.25223  0.026998199   0.02702716            4 
 2397000    0.8631847   -6.8292226    777.58902  0.027033411  0.027019837            6 
 2398000   0.86157176   -6.8897541    775.91035  0.026963801  0.027012458            9 
 2399000   0.85734585   -6.8595068      777.731  0.027015805  0.027005087            4 
 2400000     0.865034    -6.861904    775.87981  0.026940271  0.026997648           11 
 2401000   0.86314842   -6.8653682    775.93516  0.026930972   0.02699024           20 
 2402000   0.85762544   -6.8554892    775.64483  0.026909687   0.02698282            6 
 2403000   0.85653985   -6.8474619    776.18244  0.026917133  0.026975406            5 
 2404000   0.88663096   -6.8432755    776.46728   0.02691581   0.02696801            6 
 2405000   0.87054386   -6.8302918    775.44541   0.02686921  0.026960609            4 
 2406000   0.86490445   -6.8262221    776.74514   0.02690306   0.02695322            6 
 2407000   0.89540235   -6.8490918    775.99127  0.026865783  0.026945867           10 
 2408000   0.85643077   -6.8270864    777.13528  0.026894216  0.026938466            7 
 2409000   0.88866508   -6.8371964    777.17467  0.026884415  0.026931032           11 
 2410000   0.88448843    -6.862742    775.67788  0.026821504  0.026923619           10 
 2411000    0.8636698   -6.8526699    778.88611  0.026921267  0.026916224           12 
 2412000   0.86421493    -6.867201    779.06237  0.026916196  0.026908884            4 
 2413000   0.87807914   -6.8709141    776.78377  0.026826349  0.026901488            6 
 2414000   0.86284198   -6.8451256    779.07077  0.026894185  0.026894134            4 
 2415000   0.85153885   -6.8456118    779.14627  0.026885654  0.026886877            2 
 2416000   0.87581559   -6.8444432    778.59666  0.026855569  0.026879607            7 
 2417000   0.86174575   -6.8620041    779.71711  0.026883089  0.026872308            5 
 2418000   0.86772939   -6.8406358    778.59011   0.02683313  0.026865025            5 
 2419000   0.87654832   -6.8513651     778.7205  0.026826529  0.026857711           21 
 2420000   0.88471664   -6.8711975    778.76589  0.026817007  0.026850377            5 
 2421000   0.87635177   -6.8681662    781.00148  0.026882882  0.026843024            9 
 2422000   0.86653592   -6.8234777     781.5315  0.026890019  0.026835691            4 
 2423000   0.87939139   -6.8282993    780.75653  0.026852267   0.02682841            7 
 2424000   0.88197339   -6.9023384    778.41965  0.026760851  0.026821105            7 
 2425000   0.88361241   -6.8673714    779.06418  0.026771965  0.026813763           17 
 2426000   0.87934541   -6.8759574    779.99585  0.026792932  0.026806408           11 
 2427000    0.8727326   -6.8710507    780.32013  0.026793027  0.026799062           10 
 2428000   0.86281291   -6.8558223    780.63401  0.026792765   0.02679172            6 
 2429000   0.83455227   -6.8484126    779.36395  0.026738162  0.026784408            7 
 2430000   0.87011056   -6.8351471     779.0418  0.026716111  0.026777162            5 
 2431000   0.86743196   -6.8635401     781.7569  0.026798193  0.026769867           10 
 2432000    0.8838888   -6.8578385    779.39118  0.026706112  0.026762559            6 
 2433000   0.86589763   -6.8583342    783.60714  0.026839538  0.026755257            5 
 2434000   0.85040868    -6.849655    781.37475   0.02675208  0.026747992            7 
 2435000   0.85978512   -6.8727213    779.34421  0.026671602  0.026740703            4 
 2436000   0.87249343     -6.87853    779.30969  0.026659472  0.026733417           10 
 2437000   0.85691153   -6.8687323    780.63167  0.026693738  0.026726125            9 
 2438000   0.88743371   -6.8634776    781.93437  0.026727317  0.026718854            5 
 2439000   0.86606068   -6.8619626    782.96735  0.026751652  0.026711644           14 
 2440000   0.88339265   -6.8417491    781.88288   0.02670365  0.026704409            4 
 2441000   0.88564475   -6.8721899    780.83925  0.026657082    0.0266972            7 
 2442000   0.85246158   -6.8703743    783.60865  0.026740672  0.026689926            6 
 2443000   0.87774349   -6.8526442    780.29069  0.026616547   0.02668263            6 
 2444000   0.87156695   -6.8619542    780.64602  0.026617772  0.026675326            5 
 2445000   0.85034907   -6.8716646     780.6301  0.026606343   0.02666803           15 
 2446000   0.83607273    -6.874424    782.03269  0.026643251  0.026660732            6 
 2447000   0.83070501   -6.8796548    782.18538  0.026637562  0.026653358           12 
 2448000   0.87306169   -6.8680374    783.11806  0.026658431  0.026646065           10 
 2449000   0.84526531   -6.8584232    782.01226  0.026609918  0.026638777            5 
 2450000   0.88520525   -6.8577081    783.55524  0.026651539  0.026631514            8 
 2451000   0.86372929    -6.840023    781.89854  0.026584338  0.026624281            8 
 2452000   0.87546337   -6.8688498    782.22294  0.026584521   0.02661705            6 
 2453000   0.87671195   -6.8720811    784.27172  0.026643284  0.026609795            5 
 2454000   0.86255181   -6.8359073    782.40423  0.026569011  0.026602511            5 
 2455000   0.86094916   -6.8735322    782.09124  0.026547564  0.026595234            7 
 2456000    0.8453429   -6.8799484    782.24335  0.026541916  0.026587897            3 
 2457000   0.84741464   -6.8476967    782.04545  0.026524402  0.026580558            5 
 2458000   0.87246306   -6.8580725    785.42893   0.02662832  0.026573311            3 
 2459000    0.8681846   -6.8460368     785.4777  0.026619144  0.026566035           12 
 2460000   0.85024129   -6.8880286    782.74015  0.026515588  0.026558743            6 
 2461000   0.83738347   -6.8544593    782.46473  0.026495487  0.026551473            7 
 2462000   0.85183301   -6.8844872    781.68914  0.026458474  0.026544156            8 
 2463000   0.86497151   -6.8651642     783.3666  0.026504486  0.026536831           11 
 2464000   0.85741306   -6.8335916    784.50969  0.026532389  0.026529528            5 
 2465000   0.85555598   -6.8493845    784.08824  0.026507378  0.026522278            9 
 2466000   0.85641316   -6.8603105    782.72006  0.026450394   0.02651498            6 
 2467000   0.86261205   -6.8824801    783.99663  0.026482794  0.026507623            7 
 2468000   0.86169681   -6.8666232    784.69141  0.026495523  0.026500253            3 
 2469000   0.84786302   -6.8681982    785.01496  0.026495712  0.026492935            5 
 2470000    0.8603333   -6.8789036    785.60313  0.026504829  0.026485636            4 
 2471000   0.87384378   -6.8918196    784.54852  0.026458536  0.026478346            4 
 2472000   0.87365087   -6.8722864    783.72905  0.026420208  0.026471063            7 
 2473000   0.86123609   -6.8315615    786.76887  0.026511958  0.026463806            6 
 2474000   0.84819551   -6.8429068    784.20192  0.026414778   0.02645656            7 
 2475000   0.86494547   -6.8614637    786.48225  0.026480884  0.026449313            8 
 2476000   0.85575114   -6.8950208    784.55381  0.026405284  0.026442025            7 
 2477000   0.85907443   -6.8956986    785.92329  0.026440697   0.02643474           10 
 2478000   0.86691846   -6.8825835    784.13198  0.026369787  0.026427432            7 
 2479000   0.85935473   -6.8648701    786.19158  0.026428384  0.026420186           10 
 2480000   0.87746559   -6.8552943     786.5212  0.026428804  0.026412882           11 
 2481000   0.86284791   -6.8694404    785.03312  0.026368169  0.026405603            6 
 2482000   0.85466173   -6.8565633    786.47505  0.026405958  0.026398327            9 
 2483000   0.85295787   -6.8763008    787.41569  0.026426892  0.026391056            8 
 2484000   0.85323376   -6.8726057    787.96828  0.026434792  0.026383774            4 
 2485000   0.83902882   -6.8811741    785.87393  0.026353921  0.026376554            6 
 2486000   0.85208809   -6.8940688    785.69429  0.026337298  0.026369248           10 
 2487000   0.85106717   -6.8555343    786.31669  0.026347564  0.026361973            5 
 2488000   0.84354522   -6.8651821    787.71832   0.02638392  0.026354701            7 
 2489000   0.85304878   -6.9094501    787.14469  0.026354114  0.026347458            9 
 2490000   0.85901929   -6.8802083    786.54718  0.026323533  0.026340184            5 
 2491000   0.84726402    -6.872993    787.47388  0.026343968  0.026332907            7 
 2492000   0.84353958   -6.8685143    788.84281  0.026379174  0.026325678            6 
 2493000   0.86300154   -6.8868184    789.38954  0.026386868   0.02631845            8 
 2494000   0.85505888   -6.9104252    786.66724  0.026285326  0.026311162            8 
 2495000   0.85191973   -6.9037605    786.96555  0.026284754  0.026303835            6 
 2496000   0.85529109   -6.9013107    786.85191   0.02627043  0.026296506            9 
 2497000   0.84491143   -6.9014006    787.53711  0.026282776  0.026289181            5 
 2498000   0.85923426   -6.8831526    787.70805  0.026277957  0.026281914            6 
 2499000   0.85824552   -6.8760478    788.58595  0.026296717  0.026274619            8 
 2500000   0.84890539   -6.9009885    788.42893  0.026280964  0.026267326            5 
 2501000   0.83937082   -6.8772071    789.27101  0.026298514  0.026260083            9 
 2502000   0.84579669   -6.9129257    787.88495  0.026241838  0.026252858            5 
 2503000   0.85907483   -6.8935601    788.05378  0.026236975  0.026245564            8 
 2504000   0.85415809   -6.8792437    790.82681  0.026318784  0.026238339            9 
 2505000   0.85431737   -6.8717032    789.28009  0.026256823  0.026231132            8 
 2506000   0.84019002   -6.8805564    788.70462  0.026227209  0.026223868            6 
 2507000   0.84769055   -6.8819539    789.68493  0.026249333  0.026216607            7 
 2508000   0.86565589   -6.8671215    790.64902    0.0262709  0.026209382            5 
 2509000   0.85094272   -6.9034283    789.13969  0.026210299  0.026202166           11 
 2510000   0.85262776   -6.8948695    790.23878  0.026236347  0.026194952            8 
 2511000    0.8573306   -6.9067285    789.78939  0.026210985  0.026187718            4 
 2512000     0.849919   -6.8999814     790.0991  0.026210825  0.026180494            5 
 2513000   0.85609774   -6.8908869    790.96633  0.026229153  0.026173295            5 
 2514000   0.82757912      -6.8681    791.48948  0.026236061   0.02616609            5 
 2515000   0.85362606   -6.8723065    790.78108  0.026202156  0.026158886            5 
 2516000   0.84838764   -6.8820942    791.58825  0.026218477  0.026151699            6 
 2517000   0.85852939   -6.9104753     789.5361  0.026140117   0.02614444            8 
 2518000   0.82334144   -6.8804597     791.2619  0.026186851   0.02613716            7 
 2519000   0.85979966   -6.9118212    791.48472  0.026183827  0.026129912            9 
 2520000   0.85174135   -6.8740513    789.85621  0.026119584  0.026122648           13 
 2521000   0.85170323   -6.8933808     791.6431   0.02616829  0.026115392            8 
 2522000   0.84173365   -6.8947754    790.81498  0.026130551  0.026108149           12 
 2523000   0.84888025   -6.8639885    791.46615  0.026141701  0.026100921            6 
 2524000   0.84294292   -6.8731299    794.06025  0.026216992  0.026093741            5 
 2525000   0.83789601   -6.9348058    791.32747  0.026116418  0.026086544            5 
 2526000   0.83625081   -6.8746156    792.32845  0.026139102  0.026079365            4 
 2527000   0.83884146   -6.8846667     790.4505  0.026066828  0.026072197           10 
 2528000   0.85835112   -6.8688519     790.8933  0.026071113  0.026065008            4 
 2529000   0.85759285    -6.878518    789.40229  0.026011674  0.026057738            5 
 2530000   0.82932186   -6.8695028    790.46386  0.026036359  0.026050427            8 
 2531000   0.82106191   -6.9010395    790.00665  0.026011018    0.0260431            7 
 2532000   0.84542821   -6.9131325    792.87582  0.026095176  0.026035802           13 
 2533000    0.8551926   -6.9090014    790.11593  0.025994076  0.026028509            6 
 2534000   0.84027167   -6.9272143     790.9917  0.026012618  0.026021147            5 
 2535000   0.83996247   -6.8793364    791.22576  0.026010051  0.026013867           10 
 2536000   0.87194525   -6.9133107    791.85649  0.026020521  0.026006626            7 
 2537000      0.85487    -6.902087    789.00484  0.025916596  0.025999317            9 
 2538000   0.84896999   -6.9135398    790.31843  0.025949515  0.025992019            6 
 2539000   0.86526826   -6.9055535    793.04326  0.026028727  0.025984689           13 
 2540000   0.85060713   -6.8898576    792.51026  0.026000993  0.025977414           14 
 2541000   0.84836362   -6.8912675    793.29776  0.026016587  0.025970181           14 
 2542000   0.85217373   -6.8910338    792.56823  0.025982436  0.025962935           15 
 2543000   0.84855229   -6.8973393     793.7027  0.026009395  0.025955675           13 
 2544000    0.8439707   -6.8874416    793.78301  0.026001802   0.02594846           11 
 2545000   0.84575908   -6.8535432    793.16698  0.025971414  0.025941258            3 
 2546000    0.8282681   -6.9169649    793.15726  0.025960895  0.025934081            7 
 2547000   0.84867538   -6.9162745    794.02574  0.025979117  0.025926848            9 
 2548000   0.84018327   -6.9308002    792.91771  0.025932683  0.025919603            6 
 2549000   0.84849052   -6.9269558    791.86824  0.025888199  0.025912354            8 
 2550000   0.83698989   -6.8884658    793.67896  0.025937221  0.025905117           13 
 2551000   0.82181535   -6.8850219    794.42283  0.025951353  0.025897877            9 
 2552000   0.84752747   -6.9077747    793.08807  0.025897599  0.025890614           11 
 2553000   0.85296026   -6.9083258    791.88906  0.025848318  0.025883317           13 
 2554000   0.84884149    -6.883616    791.94743  0.025840102     0.025876           11 
 2555000   0.84998315   -6.9056881    792.86983  0.025860073  0.025868725            6 
 2556000   0.85077244   -6.9389517    793.97707  0.025886055  0.025861513            7 
 2557000   0.84094426   -6.9192295    794.05581  0.025878497  0.025854204            5 
 2558000   0.85448298    -6.906456    792.66332  0.025823017  0.025846893           10 
 2559000   0.84464237   -6.8916088    794.11055  0.025860054  0.025839634            8 
 2560000   0.85272228   -6.9046763    795.48607  0.025894729   0.02583237            9 
 2561000   0.84255959   -6.8928093       793.92  0.025833659  0.025825109            9 
 2562000   0.84069145   -6.9157064    792.65292  0.025782362   0.02581782            8 
 2563000   0.85238206   -6.9255853    795.60204  0.025868189  0.025810569            5 
 2564000   0.83999641   -6.8941899    797.01718  0.025904095  0.025803341            9 
 2565000   0.84626023   -6.8773195    795.34757  0.025839752  0.025796103            8 
 2566000   0.83953757   -6.8891124    794.75435  0.025810417  0.025788946           11 
 2567000   0.84578204   -6.9185515    794.07268  0.025778233  0.025781733            7 
 2568000   0.84217402   -6.8803537     793.7396  0.025757386  0.025774482            8 
 2569000   0.83177795   -6.8728866    796.10933  0.025824229  0.025767256           17 
 2570000   0.85952721    -6.890042    795.27334  0.025787073  0.025760045            7 
 2571000   0.86741453   -6.9083961    795.96752  0.025799544  0.025752865            7 
 2572000   0.84236806   -6.9179954    795.69931  0.025780822   0.02574565            7 
 2573000   0.85874906   -6.9115589    796.49477  0.025796566  0.025738486            7 
 2574000   0.83522033    -6.902863    796.22126  0.025777689  0.025731307            6 
 2575000   0.84421012   -6.9193847    797.02552  0.025793706  0.025724139            2 
 2576000   0.82679897   -6.9000469    796.17818  0.025756282  0.025716972            7 
 2577000   0.84502932   -6.8627843    797.54948  0.025790631  0.025709788           11 
 2578000   0.86106847   -6.9137441    796.06936  0.025732783  0.025702589            9 
 2579000   0.83014294   -6.9221087    796.04218  0.025721926  0.025695382           20 
 2580000   0.81944753   -6.9031343    796.71233  0.025733602  0.025688166            3 
 2581000   0.83129462   -6.9379701    798.70258  0.025787892   0.02568097            7 
 2582000   0.84104971   -6.9463225    795.29305  0.025667862  0.025673769           10 
 2583000   0.83884708   -6.9329976    795.60764  0.025668075  0.025666568            8 
 2584000   0.81978312   -6.9015536    797.56327   0.02572121   0.02565941            8 
 2585000    0.8428598   -6.9099447    795.21774  0.025635646  0.025652256           13 
 2586000   0.83221413   -6.9162002    796.19119  0.025657102  0.025645064            9 
 2587000   0.82690914   -6.8913434    797.27683  0.025682155  0.025637925            9 
 2588000   0.84467037   -6.8991006    797.64238  0.025684002   0.02563076            9 
 2589000   0.84069909   -6.8848596    797.41689  0.025666824  0.025623623            7 
 2590000   0.81662567   -6.9242013    796.99269  0.025643265  0.025616484            9 
 2591000   0.84268588   -6.9462528     797.0735  0.025635968   0.02560935            8 
 2592000   0.85649403   -6.8909194    799.24109  0.025695766  0.025602216            6 
 2593000   0.85302491   -6.9240554    797.92782   0.02564365  0.025595086            7 
 2594000   0.83404623   -6.9014755    800.52305  0.025717137  0.025587966            6 
 2595000   0.83917224   -6.9180334    798.34337  0.025637231  0.025580843            5 
 2596000   0.82879194   -6.9341048    797.79483  0.025609747  0.025573693            8 
 2597000   0.83273633   -6.8934528    797.15287  0.025579286  0.025566503            5 
 2598000   0.85661122   -6.9214014    798.37949  0.025608785  0.025559327            8 
 2599000   0.84970156   -6.9252918     798.3242  0.025597159  0.025552156            9 
 2600000   0.83386225   -6.9545946    798.86129  0.025604529  0.025544989           10 
 2601000   0.82905401   -6.9100039    797.09776  0.025538183  0.025537812            8 
 2602000   0.85044852   -6.9411404    797.34967  0.025536436  0.025530609            9 
 2603000   0.83477376   -6.8992287    796.88949  0.025511893  0.025523422            6 
 2604000   0.84122174   -6.9109654    798.81945  0.025563859  0.025516228            9 
 2605000   0.83707843   -6.9419636    796.57161  0.025482137     0.025509           11 
 2606000   0.81643393   -6.9380685     798.1212  0.025521911  0.025501781            3 
 2607000   0.82291473   -6.9236405    797.70268  0.025498743  0.025494558            8 
 2608000   0.82708693   -6.9137741    797.68234  0.025488316  0.025487327            5 
 2609000   0.83580884   -6.9063141    798.11868  0.025492484  0.025480109            5 
 2610000   0.84573507   -6.9334695    797.37079  0.025458837  0.025472891            8 
 2611000    0.8404966   -6.9042677     800.0773  0.025535469  0.025465698            7 
 2612000   0.83256243   -6.8988433     798.7354   0.02548288  0.025458527            7 
 2613000   0.81879917   -6.9561742    796.47613  0.025401076  0.025451349            7 
 2614000   0.84446467   -6.9105895    799.38378  0.025484053  0.025444136            4 
 2615000   0.84182657   -6.9210411    799.05676  0.025463887  0.025436953            5 
 2616000   0.82641328   -6.9162144    799.82923   0.02547876  0.025429729           10 
 2617000   0.82600738   -6.9447615    798.73156  0.025434071  0.025422543           14 
 2618000   0.84030643   -6.9181484    800.44934  0.025479034  0.025415358            6 
 2619000   0.81983347   -6.9047741    798.31682  0.025401451  0.025408164            5 
 2620000   0.84573808   -6.9180774    797.90654  0.025378707   0.02540099           12 
 2621000   0.83517946   -6.9069218    799.51812  0.025420263  0.025393794            6 
 2622000   0.82760187   -6.9242474    798.91736  0.025391475  0.025386597           11 
 2623000   0.86314881   -6.8871751    800.65386  0.025436963  0.025379431            7 
 2624000   0.81636792   -6.9466995     799.6818  0.025396398  0.025372216            9 
 2625000   0.82999707   -6.9423506    797.99992  0.025333331  0.025364972            9 
 2626000   0.82240576   -6.9289906    800.18163  0.025392918  0.025357739            7 
 2627000    0.8350637   -6.9483496    798.64566  0.025334528  0.025350445            7 
 2628000   0.81668797   -6.9319973    799.58311  0.025354614  0.025343237            7 
 2629000   0.84239536   -6.8945367    800.64028   0.02537848  0.025336009            8 
 2630000   0.83998222     -6.93334     798.4018  0.025297902  0.025328757           11 
 2631000   0.82594119   -6.9363322    799.46928  0.025322098  0.025321511            8 
 2632000    0.8131565   -6.9395988    799.03386  0.025298691  0.025314298            5 
 2633000   0.82456776   -6.9236103    800.47903  0.025334822  0.025307095           13 
 2634000    0.8388366   -6.9384711    798.96362  0.025277259  0.025299862           16 
 2635000   0.85131722   -6.8835639    802.09052  0.025366557  0.025292661           11 
 2636000   0.84491055   -6.8943615    799.91537  0.025288169  0.025285458           12 
 2637000   0.82741283   -6.9121954     801.1224  0.025316723  0.025278302           14 
 2638000   0.82640895   -6.9454816    802.19533   0.02534102  0.025271147            9 
 2639000   0.82798749   -6.9600839    800.89373  0.025290316  0.025263961            7 
 2640000   0.82332482   -6.9439274    801.84914  0.025310895  0.025256784            8 
 2641000   0.84184024   -6.9487947    801.73994  0.025297865  0.025249602           17 
 2642000   0.81657377   -6.9481037    803.34843  0.025339024  0.025242406            5 
 2643000   0.82306219   -6.9455563    803.09255  0.025321369  0.025235237           10 
 2644000   0.83101886   -6.9148354    802.62473  0.025297048  0.025228124           10 
 2645000   0.81989832    -6.938764    803.43155  0.025312903  0.025221016           15 
 2646000   0.84580577   -6.9354854    801.12588  0.025230722  0.025213881           28 
 2647000   0.83528864   -6.8950414    802.55794  0.025266275  0.025206783           11 
 2648000   0.82147564   -6.9474198    801.93662  0.025237179  0.025199682            8 
 2649000   0.81634225   -6.9461512    803.81346  0.025286695   0.02519261            5 
 2650000   0.82645847   -6.9312509    803.95925  0.025281737  0.025185532            4 
 2651000   0.84080594    -6.914232    804.30176  0.025282967  0.025178481            6 
 2652000   0.81952506   -6.9678297    804.77662  0.025288355  0.025171389            9 
 2653000     0.814836   -6.9363197    803.33073  0.025233406  0.025164287            6 
 2654000   0.86529983   -6.9499846    803.57749  0.025231647  0.025157197           19 
 2655000   0.83475696   -6.9141061    804.04769  0.025236902  0.025150105            7 
 2656000   0.82889191   -6.9467072    804.83149  0.025251992  0.025143041            7 
 2657000   0.83212001   -6.9444077    802.40733  0.025166458  0.025135974           11 
 2658000   0.81792808   -6.9673065    805.09432  0.025241231  0.025128907            8 
 2659000   0.82998132   -6.9300961      804.353  0.025208506  0.025121828            7 
 2660000   0.82460589   -6.9247931    803.82835  0.025182593  0.025114808           18 
 2661000   0.84088979   -6.9239118    804.58745  0.025196901   0.02510776           11 
 2662000   0.81530291   -6.9329717    805.69264  0.025222034  0.025100715           10 
 2663000   0.82475497   -6.9342419    803.39081  0.025140531   0.02509366            5 
 2664000   0.82797276   -6.9211064    805.04304  0.025182778  0.025086604            5 
 2665000   0.83781437   -6.9558085    805.64753  0.025192231  0.025079542            6 
 2666000   0.81947131   -6.9131339    805.86118  0.025189459  0.025072471            5 
 2667000   0.80441431   -6.9361333    805.90794  0.025181475  0.025065417            9 
 2668000   0.82947365   -6.9005809    807.78029  0.025230519  0.025058416            8 
 2669000   0.84014687    -6.917275    806.81643  0.025190971  0.025051463            6 
 2670000   0.82358555   -6.9227655    806.48564  0.025171212  0.025044481            7 
 2671000   0.82279747   -6.9371367    805.21682  0.025122202  0.025037443            8 
 2672000   0.82514235   -6.9542869    807.67287  0.025189398  0.025030435            6 
 2673000   0.84339518   -6.9340212     807.0214  0.025159665  0.025023398            5 
 2674000   0.82299444   -6.9485477    804.86789  0.025083143  0.025016369           14 
 2675000   0.80805715   -6.9312119    805.58615  0.025096142  0.025009348           17 
 2676000   0.82381743   -6.9399225    807.63988  0.025150719  0.025002392           14 
 2677000   0.81479328   -6.9203019     808.1987  0.025158719  0.024995437            9 
 2678000   0.84530353   -6.9511886    806.31983  0.025090859  0.024988415            8 
 2679000   0.82289598   -6.9365669    806.65197  0.025091824  0.024981356           11 
 2680000   0.82341051   -6.9302425    808.13231  0.025128492  0.024974298            6 
 2681000   0.80992284   -6.9541236     807.1178  0.025087585  0.024967314            8 
 2682000   0.81567469   -6.9513185    807.07217  0.025076814  0.024960352           11 
 2683000   0.82760862   -6.9218314    806.15206  0.025038889  0.024953386            6 
 2684000   0.83072468   -6.9597742    805.49228  0.025009075  0.024946388            9 
 2685000    0.8331665   -6.9588494    807.44257  0.025060291  0.024939375           26 
 2686000   0.82522399   -6.9463274    808.08161  0.025070787  0.024932411            6 
 2687000   0.82512037   -6.9708005    808.14219  0.025063335  0.024925445            6 
 2688000   0.82386679   -6.9235598    806.93256   0.02501651  0.024918466            9 
 2689000   0.80497565    -6.986781    804.89457  0.024944049  0.024911458            6 
 2690000   0.82321744   -6.9371751    810.37983  0.025104704  0.024904495            6 
 2691000   0.80475365   -6.9162333    810.15079  0.025088281  0.024897548           13 
 2692000   0.83731945   -6.9360299    810.18636  0.025080063  0.024890644            9 
 2693000   0.80488328   -6.9419579    808.41196  0.025015842  0.024883746            9 
 2694000   0.83819934   -6.9743437    809.49109  0.025039937  0.024876864            8 
 2695000   0.83680009   -6.9453833    810.25628  0.025054307  0.024869968            3 
 2696000   0.82610274   -6.9162747    809.98077  0.025036498  0.024863083           13 
 2697000   0.82637933   -6.9477076    811.04158  0.025059992  0.024856227           16 
 2698000    0.8189015   -6.9434804    809.45299  0.025001637  0.024849357            7 
 2699000   0.81627062     -6.93583    808.78196  0.024971655  0.024842467           16 
 2700000   0.81284722    -6.965637      810.291  0.025008981  0.024835602            8 
 2701000    0.8227421    -6.947517    811.10082  0.025024708  0.024828726           14 
 2702000   0.82165359   -6.9439235    810.83891  0.025007368  0.024821927            7 
 2703000   0.82623004    -6.942547    813.40505   0.02507723  0.024815071           13 
 2704000   0.80712623   -6.9665156    809.95882  0.024961749  0.024808182           15 
 2705000   0.82335891   -6.9751666    809.50069  0.024938407   0.02480129           20 
 2706000   0.80903961    -6.952595    808.82592  0.024908411  0.024794407           19 
 2707000   0.81024219   -6.9654407    810.67276  0.024956063  0.024787496           11 
 2708000    0.8132045   -6.9357686    812.41181  0.025000363   0.02478064            7 
 2709000   0.82029812   -6.9762897    812.22081  0.024985259  0.024773736           14 
 2710000   0.82949708   -6.9416834    810.48947    0.0249228  0.024766823            7 
 2711000   0.80527912   -6.9444077    814.21745  0.025028201  0.024759932            6 
 2712000   0.82470986   -6.9472736    809.97058  0.024888476  0.024753031           10 
 2713000   0.82507267   -6.9528656    810.14366  0.024884619  0.024746102           10 
 2714000   0.82103308    -6.962892    808.74036  0.024832362   0.02473916           12 
 2715000   0.82448953   -6.9731514    810.03475  0.024862945   0.02473218           17 
 2716000   0.82533318   -6.9676162    809.20887  0.024828451   0.02472522            9 
 2717000   0.81798392    -6.973962    810.91272  0.024871571  0.024718269           36 
 2718000   0.80894113   -6.9459444    812.20149  0.024901934   0.02471139           15 
 2719000   0.79582766   -6.9395637    811.28934   0.02486482    0.0247045            6 
 2720000     0.815449   -6.9434352    812.80379  0.024902077  0.024697611           15 
 2721000    0.8236688   -6.9571061    811.34181  0.024848151  0.024690752            8 
 2722000   0.82826428   -6.9461761    810.31257  0.024807512  0.024683854           10 
 2723000   0.81435458   -6.9674826     810.8153  0.024813787   0.02467692           14 
 2724000   0.82388662   -6.9817322    811.91536  0.024838331  0.024669976            5 
 2725000   0.80812231   -6.9419592    812.54256  0.024848396  0.024663068            7 
 2726000    0.8296722   -6.9482739    813.51761  0.024869088  0.024656155           11 
 2727000   0.81115305   -6.9398312    811.47194  0.024797456  0.024649236            8 
 2728000   0.81845919   -6.9487426    811.25086  0.024781612  0.024642346            8 
 2729000   0.81159391    -6.941987    811.02477  0.024765628  0.024635478            9 
 2730000   0.80860321   -6.9356438    812.13184  0.024790349  0.024628624            5 
 2731000   0.79772912   -6.9329788    811.84391  0.024772486  0.024621767           10 
 2732000   0.83416415   -6.9570245    812.11155  0.024771582  0.024614879            7 
 2733000   0.82298781   -6.9759118    810.73509  0.024720548  0.024607981            9 
 2734000   0.80412795   -6.9601739    812.11877  0.024753681  0.024601111           13 
 2735000   0.80511076   -6.9527718    812.58517  0.024758841  0.024594216           12 
 2736000   0.81266415   -6.9643154    813.16229   0.02476737  0.024587342           20 
 2737000   0.80886031   -6.9665785     811.6002   0.02471076  0.024580503           12 
 2738000   0.80230646   -6.9532574    812.47713  0.024728425  0.024573579           19 
 2739000   0.81373423   -6.9608868    812.83608  0.024730318    0.0245667            5 
 2740000   0.81464797   -6.9585369    814.68412  0.024777498  0.024559859            4 
 2741000   0.81259703   -6.9612331    813.94159  0.024745883  0.024553006            8 
 2742000   0.81021371   -6.9390002    813.49344  0.024723239  0.024546104            9 
 2743000   0.80860121   -6.9658193    812.22401   0.02467566  0.024539223            7 
 2744000   0.81701923   -6.9905552    812.91464  0.024687641  0.024532334            9 
 2745000   0.82876039   -6.9961151    813.42109  0.024694022  0.024525421           10 
 2746000   0.81131635   -6.9704467    813.19348  0.024678122  0.024518515           11 
 2747000   0.80698506   -6.9567371    813.35917  0.024674165  0.024511643            4 
 2748000   0.82308386   -6.9991759    812.82939   0.02464912  0.024504774            4 
 2749000   0.81840921   -6.9786398     813.2768  0.024653717  0.024497867            8 
 2750000   0.80750246   -6.9366368    813.17352  0.024641622  0.024490979           15 
 2751000   0.82889661   -6.9333704    815.03258  0.024688979  0.024484134           25 
 2752000   0.81462454   -6.9865772    814.61037  0.024667223  0.024477296           12 
 2753000   0.82317418   -7.0042192    812.63188  0.024598374  0.024470446            8 
 2754000   0.80519937   -6.9654828    816.59337  0.024709313  0.024463554            4 
 2755000   0.81805186   -6.9740673    813.32316  0.024601426  0.024456713            5 
 2756000   0.80985355   -6.9574706    813.09227  0.024585519  0.024449828            9 
 2757000   0.81899587   -6.9540207    814.22466  0.024610829  0.024442939            5 
 2758000   0.79912792   -6.9562725    817.23842  0.024692967  0.024436122            4 
 2759000   0.79091308   -6.9710268    815.06064  0.024618238  0.024429305           11 
 2760000   0.81738361   -6.9699196    815.46759  0.024621606  0.024422532            9 
 2761000   0.81583066   -6.9707862    816.67683  0.024649186   0.02441568           14 
 2762000   0.79397929   -6.9545639    817.33793  0.024660208  0.024408908            7 
 2763000   0.79231434   -6.9877762    817.20442  0.024647256  0.024402136           10 
 2764000   0.80869336    -6.951133    816.82272  0.024626831  0.024395381            6 
 2765000   0.81250369   -6.9679731    815.34136  0.024573278  0.024388635           17 
 2766000   0.82352943   -6.9556337    817.29941  0.024623385  0.024381845            3 
 2767000   0.80312288   -6.9871012    815.61582  0.024563782  0.024375042            9 
 2768000   0.81279342   -6.9702447    813.52596  0.024491991   0.02436823           10 
 2769000   0.79687533   -6.9833833    816.43996  0.024570843  0.024361426            9 
 2770000   0.81008811   -6.9660391    816.42298  0.024561461  0.024354618           13 
 2771000   0.80465132   -6.9843876    815.82087   0.02453449  0.024347776            6 
 2772000   0.78871892   -6.9557607    815.99867  0.024530984  0.024340977            9 
 2773000   0.81154128   -6.9773338    816.36542   0.02453316  0.024334162            7 
 2774000   0.81060097   -6.9571343    815.42902  0.024496185  0.024327322            9 
 2775000   0.80187457   -6.9750583      814.614  0.024462883  0.024320471            8 
 2776000   0.81099492   -6.9505727    815.31347  0.024475068  0.024313633            8 
 2777000   0.81077513   -6.9773281    817.60244  0.024534943  0.024306826           15 
 2778000   0.78963997    -6.983562    818.30098  0.024547066   0.02430003           11 
 2779000   0.80330726   -6.9874541    816.66295  0.024489113  0.024293235            8 
 2780000   0.80242902   -6.9707311    816.16673   0.02446543  0.024286453           12 
 2781000   0.80983774   -6.9435734    818.35758  0.024522282  0.024279675            6 
 2782000   0.80843111   -6.9442137    818.90511  0.024529868  0.024272897           16 
 2783000   0.80091236   -6.9672934    818.32658   0.02450373  0.024266167            6 
 2784000   0.79040358    -7.008554    820.00539   0.02454518  0.024259424            7 
 2785000   0.79991401    -6.946886     818.5187  0.024491882  0.024252711            8 
 2786000    0.8123057   -6.9914582    818.42907   0.02448041  0.024246001           13 
 2787000   0.80051895   -6.9734738    819.39463  0.024500497  0.024239265           20 
 2788000   0.79766939   -6.9679682    817.44281   0.02443337  0.024232533           22 
 2789000   0.81542186   -6.9989083     818.5253  0.024456953  0.024225792           12 
 2790000   0.81834372   -6.9728956     821.4664  0.024536033  0.024219053            8 
 2791000   0.80762388   -7.0147725     817.2879  0.024402481  0.024212305            8 
 2792000    0.8090887   -6.9527621    817.28773  0.024393736  0.024205563            6 
 2793000   0.78341718   -6.9578582    820.49301  0.024480636  0.024198834            7 
 2794000   0.79536714   -6.9652391    819.50968  0.024442546  0.024192101            7 
 2795000   0.80180491   -6.9892026     822.1641  0.024512943  0.024185407            8 
 2796000   0.80353708   -6.9569166    819.39003  0.024421496  0.024178713            9 
 2797000   0.80365836    -6.971803    820.28133   0.02443932   0.02417201            5 
 2798000   0.79215672   -6.9932241    820.10042  0.024425197  0.024165262           10 
 2799000   0.79535997   -6.9926212    821.53399  0.024459152  0.024158531            5 
 2800000   0.82276869   -6.9731562    821.13016  0.024438398  0.024151822            7 
 2801000   0.80650936   -6.9458759    822.31527  0.024464931   0.02414514           15 
 2802000   0.81380733   -6.9838129     819.3016  0.024366571   0.02413848           16 
 2803000   0.79299788   -6.9731662    819.86715  0.024374692  0.024131779            6 
 2804000   0.81019158   -6.9826562    818.26216    0.0243183  0.024125097           10 
 2805000   0.79709249   -6.9971505    820.23307  0.024368184   0.02411841           16 
 2806000   0.80762636   -6.9406156    819.65591  0.024342359  0.024111736           15 
 2807000   0.81227131   -6.9605202    821.90016  0.024400313  0.024105066            7 
 2808000   0.79898995   -6.9834563    821.64949  0.024384185  0.024098372            6 
 2809000   0.81408733   -6.9645339    820.68686  0.024346946   0.02409168           16 
 2810000    0.8181494    -7.003488    821.68579  0.024367906  0.024085015            4 
 2811000    0.7959537   -7.0020162    821.01025  0.024339211  0.024078328            5 
 2812000   0.81404539   -7.0092303    822.51781  0.024375231  0.024071687           11 
 2813000   0.80332804   -7.0071164    821.06818  0.024323622   0.02406503            8 
 2814000   0.79793563   -6.9733883    821.04854  0.024314396  0.024058368            9 
 2815000   0.79637151   -7.0052331    821.94114  0.024332183  0.024051759           11 
 2816000   0.80217034   -7.0028438    822.21845  0.024331749  0.024045097            8 
 2817000   0.79414673   -7.0101078    824.53638  0.024391681  0.024038469           13 
 2818000   0.80540323   -6.9586525    824.00824  0.024367407  0.024031861            6 
 2819000   0.81589773   -6.9560473    823.22272  0.024335542   0.02402527           11 
 2820000    0.7900206   -6.9792714    823.66635  0.024340022  0.024018687            6 
 2821000   0.81493682    -6.986465    822.98899  0.024311385   0.02401208            8 
 2822000   0.80418077    -6.999634    821.10359  0.024247094  0.024005481           11 
 2823000   0.81599207    -6.988219     822.2478  0.024272281  0.023998955           19 
 2824000   0.77823628    -6.989503    824.35418  0.024325843  0.023992423           10 
 2825000   0.79831944   -6.9856085    824.11266  0.024310108  0.023985865            6 
 2826000   0.80151144   -6.9830507     822.6057  0.024257068  0.023979342            7 
 2827000   0.79416745   -6.9902291    824.99134  0.024318811  0.023972822           14 
 2828000   0.79021782   -6.9857129    824.11136  0.024284281  0.023966272           16 
 2829000   0.79769124   -6.9982788     822.1695  0.024218496  0.023959707            7 
 2830000   0.78679041   -6.9969424    824.32727  0.024273477  0.023953139           11 
 2831000   0.79956318   -6.9849847     824.9826  0.024284193  0.023946545           16 
 2832000   0.79880728   -6.9872109    823.82893   0.02424167  0.023939968           15 
 2833000   0.79808887    -6.995983    824.24551  0.024245367  0.023933379           16 
 2834000   0.79938932   -6.9962824    823.78017  0.024223129  0.023926808            6 
 2835000   0.78220582   -6.9701801    824.23026  0.024227815  0.023920224           10 
 2836000     0.826977   -6.9760166    823.78241  0.024206112  0.023913652           26 
 2837000   0.80801035   -6.9946563     823.9688  0.024203055   0.02390706           22 
 2838000   0.78866817   -6.9948509    823.21411  0.024172366   0.02390047           14 
 2839000   0.79543864   -6.9871139    825.41592  0.024228482  0.023893882            8 
 2840000   0.80983327   -6.9763692     825.2014  0.024213656  0.023887306            6 
 2841000    0.7971607   -6.9698819    826.52876  0.024244068  0.023880734           10 
 2842000   0.81343431   -6.9943032    823.92389  0.024159157  0.023874172            9 
 2843000   0.81151095   -6.9837897    827.51367  0.024255882  0.023867583            5 
 2844000   0.79563053   -7.0210138    824.81446  0.024168262  0.023860981           10 
 2845000   0.79452665   -7.0272643    823.52892  0.024122113  0.023854335           10 
 2846000   0.79143584   -7.0185122    824.25469  0.024134888   0.02384772           15 
 2847000   0.79075246   -7.0062026     824.4471  0.024132043  0.023841119           10 
 2848000   0.78767848   -6.9900918    824.90578   0.02413699  0.023834575            9 
 2849000   0.78030867   -6.9602411    826.63208  0.024179013  0.023828022           10 
 2850000   0.79592105   -6.9833589     826.0143  0.024152465  0.023821497            9 
 2851000   0.79138016   -7.0071375    825.90553  0.024140814  0.023814926            9 
 2852000   0.78792035   -6.9805183    826.99401  0.024164154  0.023808329            9 
 2853000     0.814124   -6.9927197    825.60485  0.024115108  0.023801757            6 
 2854000   0.80530323   -7.0027982    824.61155  0.024077656  0.023795165           13 
 2855000   0.79950017   -6.9835772    824.92761  0.024078448  0.023788566            6 
 2856000   0.80699533   -7.0100239    825.12372  0.024075739  0.023781978           14 
 2857000   0.80554713   -7.0114709     825.7143  0.024084538  0.023775364           13 
 2858000    0.7857169   -7.0168217      824.963  0.024054205  0.023768755           13 
 2859000   0.80384896   -7.0068892    824.08831  0.024020296  0.023762144           25 
 2860000   0.78998929   -7.0140186    825.45737  0.024051788  0.023755533           20 
 2861000   0.81019642   -6.9904163    823.36868  0.023982543  0.023748913            8 
 2862000   0.79365011   -6.9973388    827.75286  0.024101819   0.02374233           10 
 2863000   0.79910996   -7.0245384    825.24242  0.024020329  0.023735762           16 
 2864000   0.79986954    -7.014038    824.66254  0.023995069  0.023729175           18 
 2865000   0.79715306   -6.9934131    825.42191  0.024008781  0.023722564           41 
 2866000   0.79956345   -7.0181627    826.03702   0.02401829  0.023715996            9 
 2867000   0.80595465   -6.9992061    825.63655  0.023998272  0.023709384           15 
 2868000   0.78553378   -7.0003499    826.45998   0.02401383  0.023702817           12 
 2869000   0.79197223   -7.0015995    826.73812  0.024013539  0.023696256           11 
 2870000   0.79885258   -7.0208318    826.35178  0.023993954  0.023689687            8 
 2871000   0.78846193   -7.0048603    826.27506   0.02398337  0.023683086           14 
 2872000   0.79002867   -7.0187848    827.11766  0.023999468   0.02367645           25 
 2873000   0.78303896   -7.0238803    825.31939  0.023938954  0.023669836           13 
 2874000   0.79066428   -6.9951175    828.78865  0.024031218  0.023663223            7 
 2875000   0.77394235   -6.9910196     826.3172  0.023951223  0.023656647           10 
 2876000    0.7982929   -6.9905758    824.29622  0.023884337  0.023650083            8 
 2877000   0.80708968   -7.0025094    825.69355  0.023916509   0.02364351            9 
 2878000   0.79476995   -7.0201738    825.75544  0.023909991  0.023636926            7 
 2879000   0.80315749   -7.0217495    827.46499  0.023951169   0.02363034            7 
 2880000   0.79065789   -7.0058812    826.73958  0.023921863  0.023623793            6 
 2881000   0.79268903   -6.9841752    827.62716  0.023939233  0.023617232           11 
 2882000   0.80279197   -7.0130894    829.75781  0.023992534  0.023610691           14 
 2883000   0.79700806   -7.0100884    828.06406  0.023935254  0.023604132           22 
 2884000   0.79735596   -7.0449927    826.15997  0.023871936  0.023597553            6 
 2885000   0.79893629   -7.0238327    826.96683  0.023886968  0.023590961           15 
 2886000   0.79867346   -7.0026783    826.11655  0.023854139   0.02358437           10 
 2887000   0.79622181    -6.983241    828.38209  0.023911271  0.023577789           12 
 2888000   0.80889141   -7.0037159    828.90653  0.023918125  0.023571245           12 
 2889000   0.78628787   -7.0220038    825.66614  0.023816376  0.023564692           14 
 2890000   0.78547019    -7.012958    827.72372  0.023867466  0.023558133            5 
 2891000   0.79595813   -7.0116848    828.12817  0.023870869  0.023551606            9 
 2892000   0.78813936   -7.0105911    827.80294  0.023853243  0.023545065            8 
 2893000   0.78395035    -7.029511    827.35318  0.023832042  0.023538498            7 
 2894000   0.78568079   -7.0230527    825.67561  0.023775501  0.023531908            8 
 2895000   0.80304114   -7.0211524    827.33323  0.023815004  0.023525334           12 
 2896000    0.7997391   -7.0308762    827.61761  0.023814963  0.023518779           12 
 2897000   0.78867544   -7.0357602    826.49133  0.023774345  0.023512239           13 
 2898000   0.79475365   -7.0435363     827.3541  0.023790951  0.023505671           15 
 2899000   0.78651715   -7.0069096    827.88694  0.023798061  0.023499113           14 
 2900000   0.79910505   -7.0006849    828.75288  0.023814738  0.023492579           12 
 2901000    0.7814284   -6.9908621    827.04619  0.023757503  0.023486044            5 
 2902000   0.78218644   -7.0127445    827.46266  0.023761276  0.023479476           10 
 2903000   0.78305348   -6.9854565    829.48372  0.023811107  0.023472918           13 
 2904000   0.79537131   -7.0348416    828.52254  0.023775325  0.023466377            6 
 2905000   0.78770765    -7.024293    827.16431  0.023728179   0.02345983           17 
 2906000   0.79147496   -7.0251156      827.218  0.023721553  0.023453255            9 
 2907000   0.79905599   -7.0208351    828.09847  0.023738633  0.023446714           10 
 2908000   0.77771155   -6.9974395    830.19419  0.023790526  0.023440181            8 
 2909000   0.78983239   -7.0084514    829.13987  0.023752145  0.023433653            9 
 2910000   0.78713897   -7.0042094     828.6295  0.023729367  0.023427158            7 
 2911000   0.78363105   -7.0221853    829.40665  0.023743463  0.023420637           13 
 2912000   0.77371752   -7.0042351    828.39205  0.023706274  0.023414126            6 
 2913000   0.80014125   -6.9995018    831.22708  0.023779239  0.023407621           12 
 2914000   0.79588649    -7.018713    830.39485  0.023747279  0.023401121           10 
 2915000   0.78989079   -7.0090772    830.77003  0.023749858  0.023394635            7 
 2916000   0.76869788   -7.0240293    830.25442  0.023726978   0.02338812           17 
 2917000   0.78787369   -7.0409178    829.16125  0.023687614  0.023381597            9 
 2918000   0.79182747   -7.0149115    829.71478  0.023695304   0.02337509           10 
 2919000   0.79544722   -7.0146179    830.72395  0.023715997  0.023368575            6 
 2920000   0.79185871   -7.0337448    830.42752  0.023699415  0.023362068            6 
 2921000   0.78487944   -7.0258859    830.60853  0.023696466  0.023355581            7 
 2922000   0.78581605   -7.0147554    828.98548  0.023642068  0.023349044            6 
 2923000   0.77700818    -7.038237    829.88361  0.023659585  0.023342526            7 
 2924000   0.80003933   -7.0116871    832.86771   0.02373654   0.02333606           10 
 2925000   0.77919191    -7.024905    831.20682  0.023681106  0.023329545            9 
 2926000   0.79417193   -7.0459178    831.64101  0.023685378  0.023323015            8 
 2927000   0.79027028   -7.0169392    831.51261  0.023673631  0.023316513            5 
 2928000   0.79183438   -7.0183212    830.15565  0.023626925  0.023310022           17 
 2929000   0.78661167   -7.0086265    832.95583  0.023698527   0.02330352            9 
 2930000   0.78325873   -7.0116376    832.12184  0.023666719  0.023297031           11 
 2931000   0.78864258   -7.0398635    832.20897  0.023661122  0.023290515            5 
 2932000    0.7841779   -7.0416002    829.41064  0.023573517  0.023283969           11 
 2933000   0.76137534   -7.0097075    832.82549  0.023662504  0.023277462            9 
 2934000   0.80514894   -7.0108402    829.27867    0.0235537  0.023270955            7 
 2935000   0.78423992   -7.0496599    830.48431  0.023579906  0.023264438            6 
 2936000   0.78819664   -7.0348238    831.43316  0.023598807  0.023257906            5 
 2937000   0.79100281   -7.0421071    832.69323  0.023626524  0.023251368           16 
 2938000   0.77749323   -7.0432588    831.71494  0.023590735  0.023244809            7 
 2939000   0.78119184    -7.049283    832.20345  0.023596559  0.023238284            7 
 2940000   0.77043355   -7.0273271     832.0111  0.023583081  0.023231765           11 
 2941000   0.76580828   -7.0542403    832.20236  0.023580482  0.023225229           18 
 2942000   0.79381939   -7.0338371    828.49449   0.02346744  0.023218688            6 
 2943000   0.76928208   -7.0156495    831.28186  0.023538392  0.023212185            7 
 2944000    0.7873969   -7.0332232    832.52734  0.023565652  0.023205668           13 
 2945000   0.77853103    -7.033159    830.76087  0.023507665  0.023199135           11 
 2946000   0.77402979    -7.016389    830.65257  0.023496622  0.023192597            6 
 2947000   0.77384596   -7.0408509    832.05191  0.023528218  0.023186086            7 
 2948000   0.78304703   -7.0713338    831.18058  0.023495606  0.023179537            9 
 2949000   0.78237132   -7.0091296    833.13279  0.023542805  0.023173003            3 
 2950000   0.77493724    -7.049669     832.5125  0.023517302  0.023166473           11 
 2951000   0.78813694   -7.0411319    831.55679  0.023482345   0.02315995            6 
 2952000   0.77607657   -7.0069463    833.14464  0.023519214  0.023153414           13 
 2953000   0.77823023   -7.0243057    830.93977  0.023449028  0.023146911           12 
 2954000    0.7935696    -7.019354    832.51495  0.023485527  0.023140391            7 
 2955000   0.78268437   -7.0277468    830.63559  0.023424579  0.023133876           18 
 2956000   0.78641365   -7.0322914    832.27894  0.023462983  0.023127387           11 
 2957000    0.7774463   -7.0378709    831.42572  0.023431003  0.023120891           12 
 2958000   0.78782432   -7.0024537    832.19193  0.023444668  0.023114388            7 
 2959000    0.7694683   -7.0278014    832.60729  0.023448442  0.023107893           16 
 2960000     0.789439   -7.0455179    833.59586  0.023468352  0.023101409           13 
 2961000   0.79836381    -7.015275     834.3365   0.02348127  0.023094911            8 
 2962000   0.79680728   -7.0117295    833.18303  0.023440891  0.023088446           21 
 2963000   0.78116514   -7.0193005    832.39493  0.023410815  0.023081951            7 
 2964000   0.78351169   -7.0282676    832.64879  0.023410054  0.023075454            9 
 2965000   0.77374259   -7.0643358     830.8796  0.023352434   0.02306895           11 
 2966000   0.77503728   -7.0476509    831.95109  0.023374665   0.02306242           24 
 2967000   0.78530701    -7.038599    831.39152  0.023351071  0.023055892            9 
 2968000   0.76624116   -7.0524348    832.88389  0.023385105  0.023049382           17 
 2969000   0.76834957   -7.0460415    833.35025  0.023390318  0.023042866           18 
 2970000   0.77621075   -7.0230893    834.94112   0.02342708  0.023036366            7 
 2971000   0.77585463   -7.0336473    832.81298  0.023359502  0.023029896           15 
 2972000   0.77200309   -7.0565906    831.11268  0.023303967  0.023023395            6 
 2973000   0.77981698   -7.0288167     832.3669  0.023331284  0.023016891            8 
 2974000   0.78517234   -7.0409315    833.50473  0.023355322  0.023010403           11 
 2975000   0.78364555   -7.0261292    831.42989  0.023289353  0.023003935           12 
 2976000    0.7663407   -7.0338123    832.40172   0.02330874  0.022997452            7 
 2977000    0.7851306   -7.0474333    832.23327  0.023296195  0.022990974           44 
 2978000   0.77537516   -7.0654128    833.07844  0.023312023  0.022984459           24 
 2979000   0.77561966   -7.0663018    833.06977  0.023303955  0.022977941           34 
 2980000   0.77255009   -7.0636128    832.96577  0.023293226  0.022971405           20 
 2981000   0.77614665   -7.0516298    833.39057  0.023297288  0.022964909           13 
 2982000   0.78092355   -7.0517862     834.5714  0.023322474  0.022958427           13 
 2983000   0.78439407   -7.0454128    833.62691   0.02328827  0.022951965           12 
 2984000   0.75833347   -7.0195011    832.26026    0.0232423  0.022945482           12 
 2985000   0.79554456   -7.0317407    834.13026  0.023286719  0.022939032            7 
 2986000   0.78102152   -7.0314931    834.84425  0.023298846  0.022932587           12 
 2987000   0.77794448   -7.0102914    836.48155  0.023336724   0.02292615            6 
 2988000   0.78310611    -7.061899    834.33182   0.02326896  0.022919719            9 
 2989000   0.78090367   -7.0402096    834.95574   0.02327857  0.022913304            6 
 2990000    0.7576539   -7.0430521    835.04467  0.023273263  0.022906843           10 
 2991000    0.7716423   -7.0379946      835.948   0.02329065  0.022900368           14 
 2992000   0.76862035    -7.044919    832.73182  0.023193288  0.022893921           12 
 2993000   0.77131367   -7.0514049    833.91917  0.023218598  0.022887442            8 
 2994000    0.7546181   -7.0408023    834.03597  0.023214094  0.022880991           17 
 2995000    0.7874599   -7.0588058     834.6438  0.023223255  0.022874506           16 
 2996000   0.79312382   -7.0723081    833.54484  0.023184937   0.02286803            5 
 2997000   0.77036378   -7.0890806    833.47397   0.02317523  0.022861534            7 
 2998000   0.76313491   -7.0464658    834.89035   0.02320687  0.022855083           11 
 2999000    0.7722266   -7.0450761    835.95848  0.023228812  0.022848662           10 
 3000000   0.78710325   -7.0423253    834.70118  0.023186144  0.022842249           10 
 3001000   0.78029273   -7.0448083    835.36415  0.023196828  0.022835812            6 
 3002000   0.76980054   -7.0362266    835.70703  0.023198618   0.02282939            9 
 3003000   0.77452382   -7.0792163    835.56371  0.023186916  0.022822966           11 
 3004000   0.76437799   -7.0280556    836.47372  0.023204442  0.022816551            5 
 3005000   0.76563254   -7.0457504    836.48554  0.023197048  0.022810124           14 
 3006000   0.77927782   -7.0456119    835.56524  0.023163818   0.02280371            7 
 3007000   0.77377175   -7.0538634    834.77614  0.023134246  0.022797264           14 
 3008000   0.77403357    -7.043554    834.68722  0.023124092  0.022790806           14 
 3009000   0.75973811   -7.0884002     835.2062   0.02313078  0.022784352           21 
 3010000   0.75421516   -7.0413843    835.62611  0.023134721  0.022777896            7 
 3011000   0.76050198   -7.0609058    834.13941  0.023085891  0.022771472            8 
 3012000   0.77461683   -7.0499582    835.21614  0.023108016  0.022765038           13 
 3013000   0.76690402   -7.0391313    835.65732  0.023112549  0.022758599           13 
 3014000   0.74826706   -7.0508089    834.92756  0.023084704  0.022752168           13 
 3015000   0.78095652   -7.0710989    835.82841  0.023101946  0.022745692           14 
 3016000   0.77340325   -7.0820324    835.62727  0.023088729  0.022739226            6 
 3017000   0.77261121   -7.0380662    835.62091    0.0230809  0.022732755            4 
 3018000   0.76632961   -7.0473544    835.13406  0.023059809  0.022726296           12 
 3019000   0.76174357   -7.0671992     835.2848  0.023056332  0.022719837            8 
 3020000   0.77072523   -7.0488237    836.88061  0.023092732  0.022713374           11 
 3021000   0.76069543   -7.0484493    832.64233  0.022968176  0.022706903            7 
 3022000    0.7705236   -7.0721117    837.16637  0.023085329  0.022700419            9 
 3023000   0.78611102   -7.0697904    835.97263  0.023044785  0.022693956           12 
 3024000   0.78171998   -7.0473229    835.36606  0.023020449   0.02268749            7 
 3025000   0.77184407   -7.0709814    834.37825  0.022985627  0.022681045           10 
 3026000   0.77963649   -7.0404027    836.31275  0.023031305  0.022674603            4 
 3027000   0.76411304   -7.0606851    835.08831  0.022989988  0.022668137           11 
 3028000    0.7773891   -7.0529231    834.11089  0.022955496  0.022661684           33 
 3029000    0.7696569   -7.0781989    837.41582  0.023038842  0.022655225           25 
 3030000    0.7659841   -7.0535181     837.1095  0.023022814  0.022648761            8 
 3031000   0.77582077   -7.0410379    837.80152  0.023034244  0.022642358           18 
 3032000   0.76992079   -7.0584536    836.13747  0.022980911  0.022635931           14 
 3033000   0.77450243   -7.0539653    839.75436   0.02307271  0.022629547            8 
 3034000   0.77532476   -7.0577988    836.63278  0.022979366  0.022623176            8 
 3035000   0.76625844   -7.0488835    836.32045  0.022963219  0.022616792           12 
 3036000   0.75726494   -7.0677524    837.28577  0.022982152  0.022610368           12 
 3037000   0.78473689   -7.0424629    836.54168  0.022954167  0.022603942           19 
 3038000   0.76143093    -7.080604    835.84392  0.022927472  0.022597504           33 
 3039000   0.76111326   -7.0674274    836.28916  0.022932137  0.022591075            9 
 3040000   0.76837891   -7.0691858    838.17628  0.022976324  0.022584649           12 
 3041000   0.76955172   -7.0718971    835.66957  0.022900076  0.022578221            7 
 3042000   0.76527433   -7.0835336    835.78194  0.022895626  0.022571819           25 
 3043000   0.76712306    -7.086636    838.02915  0.022949643  0.022565411           24 
 3044000   0.77538373    -7.051986    837.45635  0.022926422  0.022559003            6 
 3045000   0.76868463   -7.0668986    836.45343  0.022891446  0.022552628           19 
 3046000    0.7640516   -7.0730846    836.98911  0.022898586  0.022546242            9 
 3047000   0.76158566   -7.0496133    837.89514   0.02291585  0.022539886           10 
 3048000   0.76011586   -7.0579424     837.7669  0.022904825  0.022533526           14 
 3049000   0.77147358   -7.0827797    837.76251  0.022897193  0.022527148            7 
 3050000   0.75810661   -7.0670161    837.78208  0.022890221  0.022520797           14 
 3051000   0.75034465   -7.0614155    837.19573  0.022866703  0.022514433            6 
 3052000    0.7790438   -7.0810567    837.33593  0.022863039  0.022508053            5 
 3053000    0.7734297   -7.0305797    837.83295  0.022869117  0.022501671           11 
 3054000   0.76942793   -7.0640328    838.94669  0.022892018   0.02249527            7 
 3055000   0.77593068   -7.0673338    838.23485  0.022865108  0.022488884            7 
 3056000   0.77073219   -7.0635979    837.79304  0.022845578  0.022482502            8 
 3057000   0.75331446   -7.0597232    839.15559  0.022875248   0.02247614           10 
 3058000   0.75232821   -7.0529381    839.37965  0.022873873  0.022469763           10 
 3059000   0.76806965   -7.0444423    837.77932  0.022822799  0.022463424           12 
 3060000   0.76216822   -7.0546588    838.60391  0.022837797   0.02245705           14 
 3061000   0.78315861   -7.0656679    836.68477  0.022778089  0.022450681           13 
 3062000    0.7611966   -7.0647285    840.16725  0.022865427  0.022444316           10 
 3063000   0.75861438   -7.0966583    839.07947  0.022828367  0.022437927           14 
 3064000   0.76456307    -7.074047    838.52525  0.022805843  0.022431519           14 
 3065000   0.74934489   -7.0508125    838.60235  0.022800499  0.022425143            6 
 3066000   0.76370779   -7.0840546    837.18738  0.022754604  0.022418716            6 
 3067000   0.76590609   -7.0773422    838.81078  0.022791294  0.022412295            8 
 3068000   0.75745917   -7.0887821    838.55002  0.022776782  0.022405895            8 
 3069000   0.75819355   -7.0743103    839.00591   0.02278174  0.022399499            4 
 3070000   0.76744535   -7.0874227    840.10709   0.02280421  0.022393127            7 
 3071000   0.75438278   -7.0706582    839.39365  0.022777424  0.022386753           14 
 3072000   0.76088931   -7.0880075    840.50479  0.022800152  0.022380382           10 
 3073000   0.74865256   -7.0885053    839.66771  0.022770032  0.022374025           23 
 3074000   0.75572147   -7.0814405    840.01131   0.02277194  0.022367662           31 
 3075000   0.77276727   -7.0904758    840.03235  0.022765104  0.022361293           24 
 3076000    0.7393556   -7.0873713    837.88462  0.022699518  0.022354914           24 
 3077000   0.76445512   -7.0847915    839.70519  0.022741447  0.022348534           20 
 3078000   0.75003891    -7.105628     836.6764  0.022652058  0.022342109           31 
 3079000   0.75217304   -7.0834286    837.75817  0.022673979  0.022335695           19 
 3080000   0.75177004   -7.0781357    839.32254  0.022708943  0.022329284           14 
 3081000   0.76272793    -7.086867    838.11365  0.022668875  0.022322902           16 
 3082000   0.77596955   -7.1003703    838.28935  0.022666271  0.022316518           18 
 3083000   0.75490014   -7.0734617     840.2736  0.022712553  0.022310121           16 
 3084000   0.75062098   -7.1090304    840.38398  0.022708171  0.022303721           22 
 3085000   0.78015235   -7.1078545    838.86314  0.022659728  0.022297326           10 
 3086000    0.7900284   -7.1137129     836.9851  0.022601672  0.022290919           17 
 3087000   0.78209647   -7.0858881    838.30969  0.022630107  0.022284506           14 
 3088000    0.7590011   -7.0807116    837.88124  0.022611217  0.022278068           19 
 3089000    0.7473609   -7.0862278    839.92055  0.022658912  0.022271655            7 
 3090000   0.77606354   -7.0779219    840.61214   0.02267023  0.022265259            8 
 3091000   0.75241781   -7.0689904    839.77279  0.022640267  0.022258858            8 
 3092000   0.75729227   -7.0509399    840.18589  0.022644079  0.022252424            8 
 3093000   0.75529882   -7.0925497    837.82172  0.022573061  0.022245985            9 
 3094000   0.75056019   -7.0681164    840.27036  0.022631716  0.022239528           12 
 3095000   0.75009492   -7.0874055    837.35548   0.02254592  0.022233089           10 
 3096000   0.75147776   -7.0980137    838.95366  0.022581655  0.022226614           37 
 3097000   0.74225491   -7.0845308    838.16152  0.022553049  0.022220136           12 
 3098000   0.76077244   -7.0854717    838.23559  0.022547762  0.022213637           11 
 3099000    0.7485434   -7.0687458    837.78026  0.022528242  0.022207171           12 
 3100000   0.77524749   -7.0874355    839.47758  0.022566602  0.022200723           16 
 3101000   0.75936087   -7.0733272    837.72128  0.022512127   0.02219429            6 
 3102000   0.76797394   -7.0956208    838.24902  0.022519047  0.022187829            6 
 3103000   0.76287058      -7.0848     836.0626  0.022453072  0.022181351            5 
 3104000    0.7334441   -7.1120269    839.04215  0.022525831  0.022174904           11 
 3105000   0.73955048   -7.0996998    838.18939   0.02249569  0.022168434            5 
 3106000   0.75681174   -7.0888172    838.92209  0.022508105  0.022161951           12 
 3107000   0.74859237    -7.108989    837.97699  0.022475512  0.022155463           25 
 3108000   0.76351932   -7.0858312    838.78084  0.022489834  0.022148991           14 
 3109000   0.74872881   -7.0673119    839.52159  0.022502455  0.022142534            7 
 3110000   0.75633109   -7.0981162     839.2126   0.02248694  0.022136087           13 
 3111000   0.76216986   -7.1081593    838.21171  0.022452901  0.022129646           19 
 3112000   0.76225523   -7.1066696     838.7302   0.02245957    0.0221232           12 
 3113000   0.75706699   -7.0888233    839.94677  0.022484923  0.022116763           18 
 3114000   0.76282715    -7.084332    840.37238  0.022489092  0.022110329           16 
 3115000    0.7646687   -7.0984787    840.50749  0.022485487  0.022103877           19 
 3116000   0.74118594   -7.0849622    840.55562  0.022479558  0.022097465           11 
 3117000   0.74337108   -7.0796247    839.24254   0.02243724  0.022091065           12 
 3118000   0.74336203   -7.1066422    838.68698  0.022415196  0.022084619           18 
 3119000   0.74463734   -7.0684988    838.68982  0.022408085  0.022078184            5 
 3120000   0.75240475   -7.0816086    839.69997  0.022427884  0.022071743            5 
 3121000   0.75032298   -7.0724483    839.26036   0.02240896  0.022065328            9 
 3122000   0.75435058   -7.0985935    842.41351  0.022485947  0.022058921            8 
 3123000   0.74013461   -7.0846068    839.99485  0.022414208  0.022052535           32 
 3124000   0.74503594   -7.0976497     840.5721  0.022422431  0.022046125           15 
 3125000   0.76652387   -7.0822422    839.60851   0.02238956  0.022039725           10 
 3126000   0.76773311   -7.0916333     838.7668   0.02235996   0.02203329           24 
 3127000   0.76242043   -7.0627354    840.35845  0.022395226  0.022026877           11 
 3128000   0.75377448   -7.0749051    841.10896  0.022408061  0.022020464           18 
 3129000   0.74029838   -7.0773938    838.64203  0.022335199  0.022014035           15 
 3130000   0.74121715   -7.1036699    840.20829  0.022369763  0.022007583           17 
 3131000   0.75786209   -7.0949008    839.40286  0.022341181  0.022001133           24 
 3132000   0.75864161    -7.087543     839.4838  0.022336202  0.021994698           11 
 3133000   0.75007422   -7.0597005    840.74271  0.022362557  0.021988285           14 
 3134000   0.73407671   -7.0822541    840.52801  0.022349713  0.021981876           17 
 3135000   0.75376899   -7.0934308    840.04655  0.022329786   0.02197544           16 
 3136000    0.7532647   -7.0932908    839.58684   0.02231045  0.021969028            7 
 3137000   0.74934922    -7.093922    840.19439  0.022319477  0.021962618           12 
 3138000   0.77233163   -7.0856035    839.73304  0.022300113  0.021956192            9 
 3139000   0.74096478   -7.1107266    841.14083  0.022330382  0.021949751           13 
 3140000    0.7464995   -7.0788672    840.27234  0.022300221  0.021943312           13 
 3141000   0.75390281   -7.0895904    838.98336  0.022258924   0.02193687           11 
 3142000   0.74873019   -7.0948793    840.00152  0.022278844  0.021930407            8 
 3143000   0.73954202   -7.1132048    839.67044  0.022262977  0.021923915           14 
 3144000   0.74809202   -7.1106351    838.76892  0.022232001  0.021917431           52 
 3145000   0.74156931   -7.1330448     839.7069  0.022249785   0.02191095           12 
 3146000   0.74661774   -7.1129137    841.19589  0.022282154  0.021904475           13 
 3147000   0.73366429   -7.1308766    840.54321  0.022257791  0.021897998           11 
 3148000   0.73956892   -7.0972148    839.59889  0.022225722  0.021891529           19 
 3149000   0.75289515   -7.1031737    841.79932  0.022276895  0.021885097           12 
 3150000   0.73891384   -7.1170603    839.00014  0.022195771  0.021878635            9 
 3151000   0.74564703   -7.1177274    840.51089  0.022228681  0.021872178            9 
 3152000   0.74946554   -7.0990099    840.02757  0.022208851  0.021865772           14 
 3153000   0.75398478    -7.100708    839.77028  0.022195007  0.021859325           19 
 3154000   0.75920031   -7.1055308    841.08048  0.022222587  0.021852893           22 
 3155000   0.74856303   -7.1092594    841.16774  0.022217848  0.021846468           13 
 3156000   0.75730912   -7.1261685    841.56143  0.022221204  0.021840033           27 
 3157000   0.73843225   -7.0936451    841.25921  0.022206188  0.021833608           19 
 3158000   0.74748977   -7.0967067    839.44116  0.022151181  0.021827201           39 
 3159000   0.74074119   -7.0929964     839.3569  0.022141946  0.021820792           30 
 3160000   0.74889972   -7.0988792    840.53754  0.022166074  0.021814393           15 
 3161000   0.74158755   -7.0871008    842.16657  0.022202008  0.021808005           24 
 3162000   0.75001178   -7.1042583    842.30256  0.022198571  0.021801628           18 
 3163000   0.76166729   -7.1030635    841.84231  0.022179426  0.021795258           17 
 3164000    0.7402404   -7.0858303    843.77345  0.022223279  0.021788862           14 
 3165000   0.73578456   -7.0803319     841.4819  0.022155922  0.021782491           22 
 3166000   0.74423751   -7.0810754    842.22412   0.02216846  0.021776133           12 
 3167000   0.74787437   -7.0852764    842.85771  0.022178132  0.021769787           14 
 3168000   0.73164812   -7.0980304    841.82371  0.022143932  0.021763405           18 
 3169000   0.73600012   -7.1239408    841.85574  0.022137786     0.021757           11 
 3170000   0.72189557   -7.1124779    840.84352  0.022104193   0.02175057           10 
 3171000   0.74079803   -7.1127463    841.38977  0.022111578  0.021744152           10 
 3172000   0.73897976   -7.1096534    841.78837  0.022115079  0.021737775           13 
 3173000   0.74822939   -7.0713983    843.45055  0.022151764  0.021731387           12 
 3174000   0.73577174   -7.0870867    841.54338  0.022094712  0.021725006           12 
 3175000   0.75226889   -7.1044193    841.88841  0.022096809  0.021718598           11 
 3176000   0.75702488   -7.1056292    841.72248  0.022085497  0.021712197           17 
 3177000   0.74535345   -7.1193842    842.11313  0.022088793  0.021705827           26 
 3178000   0.74324002   -7.1141062    841.35149   0.02206187   0.02169945           31 
 3179000   0.73395776   -7.0811682    843.12837  0.022101509  0.021693089           26 
 3180000   0.74212069   -7.1066321    843.17157  0.022095691  0.021686728           63 
 3181000   0.75588026    -7.084681    844.43832   0.02212193  0.021680346           28 
 3182000   0.73663497   -7.0753396    843.01671  0.022077747  0.021673981           25 
 3183000   0.73872794   -7.1177464    840.97882  0.022017458  0.021667606           37 
 3184000   0.74044079    -7.103395       842.99   0.02206318  0.021661226           24 
 3185000   0.73504855   -7.1346239    841.45875  0.022016189  0.021654874           15 
 3186000   0.73856244   -7.1044885    840.74171  0.021990524  0.021648469           15 
 3187000   0.73790611   -7.1217743    843.00487  0.022042801   0.02164209            6 
 3188000   0.74330488   -7.1285261    841.13501  0.021987009  0.021635702           16 
 3189000   0.73741192   -7.1243645    841.98185  0.022002243  0.021629294            8 
 3190000   0.73745559   -7.1570193    841.47387  0.021982076  0.021622884           11 
 3191000   0.72777843   -7.1119291    842.98887  0.022014752  0.021616495           14 
 3192000   0.72409892   -7.1071372    842.15769  0.021986155  0.021610105           16 
 3193000   0.75899799   -7.1410949    842.77967  0.021995502  0.021603701           13 
 3194000   0.73904024    -7.112315    842.75813  0.021988054  0.021597289           16 
 3195000   0.73555989   -7.1192648    842.40303   0.02197191  0.021590876           13 
 3196000   0.75346244   -7.1178924    841.00035  0.021928461  0.021584485           18 
 3197000   0.75263134   -7.1313544    841.74815  0.021941094  0.021578084           10 
 3198000   0.74423073   -7.1458299    840.67332  0.021906226  0.021571692            8 
 3199000   0.74117803   -7.1313456    839.76208   0.02187564  0.021565264           10 
 3200000   0.73696249   -7.1173071    839.96657   0.02187413  0.021558835           11 
 3201000   0.73180422   -7.1272396    841.52278   0.02190781  0.021552418           16 
 3202000   0.71920271   -7.1399382     843.7502  0.021958937  0.021546034           10 
 3203000   0.75179016   -7.1514625    842.53003  0.021920336  0.021539656           24 
 3204000   0.74342695   -7.1116717    840.62047  0.021863828  0.021533248            8 
 3205000   0.73813356   -7.1124102     841.9655  0.021891979  0.021526879           13 
 3206000   0.74412522   -7.1121497    842.38276  0.021895996  0.021520512           10 
 3207000   0.73927062   -7.1114997    842.69996  0.021897411  0.021514164           19 
 3208000   0.73590582   -7.1113603    844.18145  0.021929069   0.02150781           17 
 3209000   0.72274409   -7.1024773    842.72929  0.021884525  0.021501461           24 
 3210000   0.73722368   -7.1697331    842.96539  0.021883837   0.02149511           13 
 3211000   0.75429774    -7.124494    843.09931  0.021880497  0.021488768            8 
 3212000   0.73705484   -7.1238954    842.52359  0.021858748  0.021482419           17 
 3213000   0.73361035   -7.1211479    843.36009  0.021873641   0.02147605           10 
 3214000   0.74352887   -7.1196699    842.54108  0.021845599  0.021469683           17 
 3215000   0.72962031   -7.1457596    843.43858  0.021862068  0.021463351           40 
 3216000   0.74296302   -7.1244443    843.24346  0.021850214  0.021456994           25 
 3217000   0.73026516    -7.098415    842.83167  0.021832755   0.02145062            8 
 3218000   0.75013997   -7.1402891    842.61509  0.021820362  0.021444259            5 
 3219000   0.71331551   -7.1273939     842.6938  0.021815621  0.021437896           10 
 3220000   0.72527458   -7.0922334    842.29127  0.021798428  0.021431546           17 
 3221000   0.74427987   -7.1133763    843.90824  0.021833495  0.021425189            9 
 3222000   0.74258873   -7.1455922     842.6352  0.021793793   0.02141883           10 
 3223000   0.72650488   -7.1288317     843.2351  0.021802542  0.021412497           27 
 3224000   0.73745994   -7.1600478    842.02142  0.021764408  0.021406162           12 
 3225000   0.74402016   -7.1236274     842.8808  0.021779866  0.021399818           38 
 3226000   0.73192416   -7.1226153    844.22605  0.021807864  0.021393464           34 
 3227000     0.745837   -7.1483206    843.09557  0.021771913  0.021387105           13 
 3228000    0.7434786   -7.1435199    841.62173   0.02172712  0.021380734           26 
 3229000   0.72261707   -7.1416648    843.13447  0.021759432  0.021374383           23 
 3230000   0.75262935   -7.1441334    844.82796  0.021796387  0.021368033           10 
 3231000   0.75012493   -7.1694919    842.61585  0.021732587  0.021361674           31 
 3232000   0.72138384   -7.1092553    842.31702  0.021718158  0.021355319           29 
 3233000   0.73368987   -7.1488082    844.70351  0.021772954  0.021348988           24 
 3234000   0.72570793    -7.150492    843.36407  0.021731707  0.021342669           25 
 3235000    0.7180189   -7.1332158     842.1463  0.021693619  0.021336366           14 
 3236000   0.73163067   -7.1448435    844.50198  0.021747579  0.021330029           16 
 3237000   0.73518934   -7.1397347     843.6028  0.021717712  0.021323697           14 
 3238000    0.7446564   -7.1355609    844.01703  0.021721665  0.021317389           15 
 3239000   0.74139957     -7.12815    844.84906  0.021736366   0.02131107           22 
 3240000   0.74538872   -7.1141284    844.71869  0.021726304  0.021304748           39 
 3241000   0.74025986    -7.126702    844.84403  0.021722823  0.021298449           21 
 3242000   0.73408781   -7.1659294    844.74694  0.021713627  0.021292152           13 
 3243000   0.73528524    -7.162412    844.01824  0.021688206  0.021285846           30 
 3244000   0.72682261   -7.1299425    844.35392  0.021690144  0.021279523           14 
 3245000   0.72614703   -7.1483502    844.14776  0.021678165  0.021273215           16 
 3246000   0.72628498   -7.1391404    843.80677  0.021662733   0.02126691           16 
 3247000   0.73856818   -7.1442494    844.68702  0.021678653  0.021260623           23 
 3248000   0.74134442   -7.1388592    844.72023   0.02167283  0.021254313           30 
 3249000   0.75453194   -7.1397577    844.30865  0.021655603  0.021248035           17 
 3250000   0.71766255   -7.1151465     844.3516  0.021650041   0.02124175           22 
 3251000   0.74134394   -7.1121405    844.88744  0.021657117  0.021235475           15 
 3252000   0.73357086   -7.1316934    845.30686  0.021661205  0.021229195           16 
 3253000   0.73890764   -7.1325489    845.09669  0.021649162  0.021222893           14 
 3254000   0.73250625   -7.1507783    843.34864  0.021597742  0.021216602            9 
 3255000   0.73454181   -7.1198476    842.67733   0.02157392  0.021210291           12 
 3256000    0.7271708   -7.1221291    846.22369  0.021658059  0.021203996            8 
 3257000   0.71235191   -7.1503693    841.97793  0.021542778  0.021197727            7 
 3258000   0.72659782   -7.1336112    845.02419  0.021614083   0.02119145            7 
 3259000   0.74025551   -7.1693341    843.88439  0.021578306  0.021185154            8 
 3260000   0.72390178    -7.145604    843.36364  0.021558375  0.021178856           16 
 3261000   0.71453352   -7.1258649    845.82961  0.021614781  0.021172562           19 
 3262000   0.72236967   -7.1275532    845.86014  0.021608935  0.021166275            8 
 3263000   0.73132323   -7.1531009    843.31772  0.021537382  0.021159982           16 
 3264000   0.71868392   -7.1261116    844.53057  0.021561748  0.021153698           11 
 3265000   0.73329078   -7.1110891    846.24478  0.021598897  0.021147433           12 
 3266000    0.7327513   -7.1645635    844.81791  0.021555876   0.02114119            8 
 3267000    0.7249613    -7.139904    848.21899  0.021636032  0.021134922           12 
 3268000   0.72931994   -7.1458061    845.22409  0.021553042  0.021128665           18 
 3269000   0.70988514   -7.1488968    846.00239  0.021566289  0.021122391           29 
 3270000   0.75150216   -7.1433209    845.57768  0.021548871  0.021116161           10 
 3271000   0.74512732   -7.1403837    845.94909  0.021551745   0.02110994           19 
 3272000   0.73328847   -7.1476137    845.13549  0.021524437  0.021103712           10 
 3273000    0.7353174   -7.1398862    846.74991  0.021558965   0.02109746           25 
 3274000   0.71511311   -7.1290758    846.69132  0.021550889  0.021091194           24 
 3275000    0.7456972    -7.147131    843.97399  0.021475165  0.021084942           16 
 3276000   0.72542363   -7.1456432    844.99014  0.021494458  0.021078695           38 
 3277000   0.71852108   -7.1316717    845.87878  0.021510497  0.021072417           24 
 3278000   0.72627989   -7.1342966    844.14581  0.021459879  0.021066155           40 
 3279000   0.71791672   -7.1326384    845.25228  0.021481455  0.021059901           24 
 3280000   0.73020299   -7.1561754     843.6002  0.021432932  0.021053627           20 
 3281000   0.71634578   -7.1438684    845.23014  0.021467798  0.021047341            8 
 3282000   0.73043786   -7.1458653    845.77263  0.021475031  0.021041069            8 
 3283000   0.71867619   -7.1504159    846.01295   0.02147459  0.021034785           16 
 3284000   0.73062075   -7.1556798    844.69136  0.021434515  0.021028479           14 
 3285000   0.72596202   -7.1343377    845.01002  0.021436074  0.021022178           10 
 3286000   0.72616822   -7.1586534    846.21729  0.021460167  0.021015892           10 
 3287000    0.7164403   -7.1418888    844.03667  0.021398354  0.021009613            6 
 3288000   0.72329831   -7.1334277    846.06738  0.021443314   0.02100334           10 
 3289000    0.7302111   -7.1281628    844.22042  0.021389997  0.020997065           19 
 3290000   0.71797783   -7.1359222    847.26085  0.021460508  0.020990783           11 
 3291000   0.73617978   -7.1574741    845.85734  0.021418448  0.020984508            9 
 3292000    0.7285031   -7.1388862    847.43002  0.021451752  0.020978267            9 
 3293000   0.71235549   -7.1209105    845.69837  0.021401416  0.020972025           11 
 3294000   0.71792203   -7.1563886    843.96974  0.021351188  0.020965755           31 
 3295000    0.7016777   -7.1429933    844.94718  0.021369428  0.020959475           20 
 3296000   0.72380987   -7.1587873    844.41593  0.021349513   0.02095319           13 
 3297000   0.71668927   -7.1639455    844.74639   0.02135139    0.0209469           25 
 3298000   0.71940791   -7.1743295    845.34067  0.021359932  0.020940608           17 
 3299000   0.71325099   -7.1908462     844.3074  0.021327357  0.020934323           24 
 3300000   0.71091023   -7.1730547    844.11834   0.02131612  0.020928029           37 
 3301000   0.72509389   -7.1655506    844.75402   0.02132571  0.020921757           23 
 3302000   0.72658162    -7.195455    845.33054  0.021333801  0.020915479           21 
 3303000    0.7185981   -7.1366014    845.71364  0.021337008  0.020909208           35 
 3304000    0.7140004   -7.1391828     845.5688  0.021326897  0.020902954           15 
 3305000   0.72730864    -7.132868    845.07932  0.021308102  0.020896698           14 
 3306000   0.72164881   -7.1281917    845.80841  0.021320035  0.020890465           16 
 3307000   0.73341623   -7.1568334     845.0866  0.021295399  0.020884224           16 
 3308000   0.70289681   -7.1351024    846.67642  0.021329011  0.020877983           18 
 3309000   0.72522064   -7.1675469    846.52622  0.021318783  0.020871738           21 
 3310000   0.72049859    -7.160953    846.76052  0.021318241  0.020865469           25 
 3311000   0.72240131   -7.1600722    844.87223  0.021264276  0.020859222           42 
 3312000   0.71460315   -7.1520677    845.31544  0.021269008  0.020852984           31 
 3313000   0.73162245   -7.1501635    846.76542   0.02129906  0.020846755           18 
 3314000   0.73442223   -7.1492163    846.87414  0.021295367  0.020840562           19 
 3315000     0.735233   -7.1437995    848.18717   0.02132195  0.020834368           34 
 3316000   0.73405281   -7.1521613    849.29792  0.021343434  0.020828199           16 
 3317000   0.70276343   -7.1496292    849.86053  0.021351134  0.020822004           17 
 3318000   0.71870708   -7.1722021    845.90532  0.021245362  0.020815821            6 
 3319000    0.7174764   -7.1428775    847.48342  0.021278583   0.02080963           16 
 3320000   0.74224105   -7.1752293    847.35248  0.021268888  0.020803424           15 
 3321000    0.7251605   -7.1552974    846.68529  0.021245742  0.020797217           39 
 3322000   0.71882226   -7.1625135    849.20634  0.021302587   0.02079103           15 
 3323000    0.7348401   -7.1557122    847.27749  0.021247805   0.02078484           23 
 3324000   0.72631734   -7.1374554    846.78936  0.021229176  0.020778635           21 
 3325000   0.70128179   -7.1314495     847.8159  0.021248519  0.020772468           24 
 3326000   0.72400656   -7.1693261    848.98163  0.021271338  0.020766286           43 
 3327000   0.72675286   -7.1284758     847.2965  0.021222736   0.02076009           13 
 3328000   0.71170186   -7.1589152    848.68239  0.021251061  0.020753896           16 
 3329000   0.70261028   -7.1375773    845.84017   0.02117353   0.02074771           16 
 3330000   0.71920274   -7.1646042    847.90538  0.021218853  0.020741522           31 
 3331000   0.72008692   -7.1873145    848.13189   0.02121815  0.020735338           13 
 3332000   0.70373649   -7.1493232    846.88011  0.021180475  0.020729148           10 
 3333000   0.72212923   -7.1654288     845.5614  0.021141149  0.020722937           10 
 3334000    0.7098645   -7.1577192    846.80526  0.021165898  0.020716729           13 
 3335000   0.69850538    -7.202346    843.42443  0.021075073  0.020710525           10 
 3336000   0.70625497   -7.1566196    846.82198  0.021153627  0.020704298           22 
 3337000   0.71338115   -7.1977256    847.56032  0.021165726  0.020698099            8 
 3338000   0.72096921    -7.191238    848.58638     0.021185  0.020691894           20 
 3339000   0.73448393   -7.1748206     848.8181  0.021184439  0.020685683           19 
 3340000   0.71267824   -7.1684148    846.46633  0.021119419    0.0206795           11 
 3341000   0.72310018   -7.1735425    846.59625  0.021116339  0.020673288           23 
 3342000   0.72226077   -7.1529193    848.02017  0.021145526  0.020667076           17 
 3343000   0.70616846   -7.1552948    849.55231  0.021177393  0.020660888           13 
 3344000   0.69740558    -7.179188    846.86482  0.021104087  0.020654719           25 
 3345000   0.71034216    -7.168542    844.67246   0.02104316  0.020648526           12 
 3346000   0.71873682   -7.1641519    847.67527  0.021111657  0.020642343           14 
 3347000    0.7213667   -7.1831107    847.78589  0.021108104  0.020636175           32 
 3348000   0.72907989   -7.1788047    847.67357  0.021099004   0.02063001            9 
 3349000   0.71655517    -7.171087    845.37941  0.021035618  0.020623828           13 
 3350000   0.72723866   -7.1720929    848.69593  0.021111839  0.020617659           19 
 3351000   0.70711935   -7.1504591    848.54715  0.021101839   0.02061151           26 
 3352000   0.72278038   -7.1684439    849.07648  0.021108703   0.02060534           14 
 3353000   0.71769193   -7.1600487    849.80099  0.021120414  0.020599197            9 
 3354000   0.71952543   -7.1598507    849.74051  0.021112614  0.020593037           23 
 3355000   0.71503777   -7.1607373    848.89071  0.021085214  0.020586902           15 
 3356000   0.71493709   -7.1860997    847.62793  0.021047575  0.020580742           11 
 3357000   0.72045137   -7.1548246    848.07195  0.021052327  0.020574592           12 
 3358000   0.69610046   -7.1869888    846.97063  0.021018727  0.020568414           38 
 3359000   0.71162835   -7.1709283    847.79697   0.02103297  0.020562257           17 
 3360000   0.70502498   -7.1913727    849.10211   0.02105908  0.020556125           22 
 3361000   0.71131144   -7.1910075    848.46413  0.021036996  0.020549958           34 
 3362000   0.71767612   -7.1756463    847.53197  0.021007634  0.020543796           41 
 3363000   0.71857669   -7.1651512    849.36732  0.021046866  0.020537661           37 
 3364000   0.70626166   -7.1731671    847.98602  0.021006392  0.020531534           25 
 3365000   0.71013254   -7.1841913    846.98075  0.020975254  0.020525399           12 
 3366000   0.70611218   -7.1556486    848.62852  0.021009817   0.02051929            9 
 3367000   0.73440449   -7.1701536    850.03479  0.021038382  0.020513183           17 
 3368000   0.70139813   -7.1789282    847.99205  0.020981593   0.02050707           13 
 3369000   0.70128996   -7.1848815    847.75903  0.020969601  0.020500957           20 
 3370000    0.7169259   -7.1720048    849.04923  0.020995283   0.02049485           20 
 3371000   0.73295966   -7.1382553    849.73955   0.02100612  0.020488761           17 
 3372000    0.7151327   -7.1754673    847.78826  0.020951667  0.020482659           21 
 3373000   0.70026399   -7.1355974    850.58871  0.021014644  0.020476562           27 
 3374000   0.69901022   -7.1793431    849.44671  0.020980209  0.020470471           12 
 3375000   0.69443176   -7.1946853    849.93103  0.020985951  0.020464352           18 
 3376000   0.71452798   -7.1741673    847.58514  0.020921829  0.020458243           13 
 3377000   0.72776633   -7.1896882    850.08492   0.02097732  0.020452142           18 
 3378000   0.70534427   -7.1747296    848.95732  0.020943293  0.020446019           11 
 3379000   0.72077614    -7.163585    848.25709  0.020919826  0.020439919           11 
 3380000   0.70465024   -7.1800417    849.67738  0.020948653   0.02043381            7 
 3381000   0.71572416   -7.2037257    848.67277  0.020917696   0.02042769           12 
 3382000   0.71779047   -7.1683897    849.39454  0.020929296  0.020421581           18 
 3383000   0.69761543   -7.1687789    849.71759  0.020931067   0.02041548           14 
 3384000   0.70792543   -7.2008198     847.6335  0.020873559  0.020409363           11 
 3385000   0.72147679   -7.1936526    848.90089  0.020898594  0.020403251           16 
 3386000   0.72925645   -7.1936394    849.31991  0.020902735  0.020397133           12 
 3387000   0.70034124   -7.2059628    848.86626  0.020885401  0.020391027           12 
 3388000   0.70305231   -7.1737756    849.04902  0.020883732  0.020384915           26 
 3389000   0.71175303   -7.1764226    850.38648  0.020910457  0.020378799           10 
 3390000   0.69792853   -7.2016526    848.61247   0.02086068  0.020372717           27 
 3391000   0.70946515   -7.2053653    849.93983  0.020887148  0.020366632           13 
 3392000   0.71573931   -7.1899341    849.78242  0.020877123  0.020360549           19 
 3393000   0.71495666   -7.1787798    847.92988  0.020825471  0.020354463            8 
 3394000   0.68702877   -7.1873163    849.50722  0.020858064  0.020348395           11 
 3395000   0.72328837   -7.1779711    850.47687  0.020875721  0.020342339           27 
 3396000    0.7069403   -7.2004365    848.66265  0.020825055  0.020336266           19 
 3397000   0.69632966   -7.1757349    849.35142  0.020835821  0.020330143           34 
 3398000   0.70361647   -7.1956313    849.78844  0.020840407  0.020324042           10 
 3399000   0.71998843   -7.1897531    849.11472  0.020817758  0.020317958           13 
 3400000    0.7167921   -7.2067888    849.32784  0.020816859  0.020311866           51 
 3401000   0.70792657   -7.1928316    850.22385  0.020832693  0.020305778           23 
 3402000    0.6937836   -7.1719929    849.42859  0.020807089   0.02029969           15 
 3403000   0.70380556   -7.1877834    848.59747  0.020780622  0.020293597           21 
 3404000   0.69478386   -7.1991449    849.24226  0.020790302  0.020287491           14 
 3405000   0.69880409   -7.1899077    849.86188  0.020799361  0.020281408           12 
 3406000   0.69831227   -7.2126984    850.03416  0.020797469  0.020275341           18 
 3407000   0.70039158   -7.1839658    849.69124  0.020782977  0.020269287           45 
 3408000   0.69109613   -7.1914762    852.18321  0.020837813  0.020263233           27 
 3409000   0.70159416    -7.177859    852.21251  0.020832417  0.020257188           78 
 3410000   0.71636218    -7.187974    851.48407  0.020808506  0.020251165           43 
 3411000   0.71001048   -7.1708019    852.07713  0.020816895  0.020245139           19 
 3412000      0.71484   -7.1555483    852.03013  0.020809646  0.020239128           33 
 3413000   0.70725689   -7.2074556    850.79858  0.020773478  0.020233106           26 
 3414000    0.7070938   -7.2088147    848.75206   0.02071744  0.020227064           26 
 3415000   0.71175393   -7.1860535    851.24638   0.02077224  0.020221024           31 
 3416000   0.69242366   -7.2005013    849.36657  0.020720301  0.020214973           14 
 3417000   0.71257052   -7.1970966    850.15564  0.020733481  0.020208953           22 
 3418000   0.71888204    -7.184914    852.15205  0.020776088  0.020202946           27 
 3419000   0.70791995   -7.1645046    851.14717  0.020745519  0.020196943           23 
 3420000   0.69327268   -7.1802035    850.98614   0.02073553  0.020190939           10 
 3421000   0.70296826   -7.2101442     851.6857  0.020746509   0.02018492           17 
 3422000   0.70875444    -7.191682    851.31283  0.020731366  0.020178892           25 
 3423000   0.69778209   -7.1929121      850.878  0.020714724  0.020172839           12 
 3424000   0.71387271    -7.178405    850.85233  0.020708049  0.020166794           29 
 3425000   0.69084589   -7.1915638    851.38787  0.020715033  0.020160787           17 
 3426000   0.71010019   -7.2254607    849.46073  0.020662112   0.02015475           11 
 3427000   0.70673482   -7.2064655    849.36462  0.020653745  0.020148711           21 
 3428000   0.71329536   -7.2218587     850.3424   0.02067149  0.020142663           24 
 3429000   0.71001717   -7.2173557    851.67816  0.020697924  0.020136621           15 
 3430000   0.69362386   -7.1878487    851.23446  0.020681109  0.020130587           37 
 3431000   0.70354607   -7.2058306    851.96235  0.020692761  0.020124575           36 
 3432000   0.71165777   -7.1930138    849.43407  0.020625342  0.020118548           14 
 3433000   0.69352317   -7.2099339    849.93429  0.020631476  0.020112531           25 
 3434000   0.71282659    -7.190399     851.0096  0.020651563  0.020106514           24 
 3435000    0.6948133   -7.2010219    853.59886  0.020708366  0.020100504           22 
 3436000   0.69555405   -7.1871912    851.42368  0.020649585  0.020094519           36 
 3437000   0.71053197   -7.1705542    852.09817   0.02065993   0.02008855           39 
 3438000    0.7033365   -7.1790653    853.84507  0.020696264  0.020082602           57 
 3439000   0.70608823    -7.182606    852.61218  0.020660371  0.020076654           59 
 3440000   0.68896191    -7.185476    853.20995  0.020668846  0.020070712           35 
 3441000   0.70967377   -7.1721531     852.9794  0.020657256  0.020064786           23 
 3442000    0.7003739   -7.1630099    852.31894  0.020635264  0.020058867           26 
 3443000   0.70050206   -7.1944133    852.56392    0.0206352   0.02005294           40 
 3444000   0.70266676   -7.2121253    852.91442  0.020637689  0.020046994           45 
 3445000   0.70091278   -7.1863627    852.95892  0.020632775  0.020041034           39 
 3446000   0.70009242   -7.1974692     852.8378  0.020623859  0.020035081           55 
 3447000   0.69555162   -7.2412401    853.23724  0.020627532  0.020029129           52 
 3448000   0.69749248   -7.1753379     851.8085  0.020587019  0.020023163           15 
 3449000   0.71454196   -7.2163647    853.77475  0.020628558  0.020017212           10 
 3450000   0.68961565   -7.2063399    852.59431  0.020594065  0.020011262           11 
 3451000   0.67629372   -7.1873931    854.73704   0.02063984  0.020005327           16 
 3452000   0.69747842   -7.1776544    851.45204  0.020554559  0.019999388           10 
 3453000   0.70443732   -7.1910373    851.85917  0.020558432  0.019993464           20 
 3454000   0.68864816   -7.2059249    852.66358  0.020571887  0.019987531           18 
 3455000   0.70305874   -7.1972765    855.08682   0.02062438    0.0199816           13 
 3456000   0.70032056   -7.1888174    851.84851  0.020540329  0.019975681           12 
 3457000   0.70772271   -7.1790972    854.52068  0.020598802  0.019969769           42 
 3458000   0.70046013   -7.1790348    852.37915  0.020541236  0.019963852           32 
 3459000   0.68146248    -7.192565    854.20476   0.02057928  0.019957941           24 
 3460000   0.69279037   -7.1846108    854.52567  0.020581061  0.019952024           16 
 3461000   0.67575725   -7.1856474    854.07815   0.02056434  0.019946105           28 
 3462000   0.70469648   -7.2130847    852.58233  0.020522394   0.01994018           15 
 3463000   0.70261991   -7.2081859    853.06683  0.020528127  0.019934273           20 
 3464000   0.69356376   -7.2041511    852.10994  0.020499181  0.019928353           17 
 3465000   0.70265976   -7.1818399    853.85812  0.020535308  0.019922448           22 
 3466000   0.68960585   -7.1944182    853.35739  0.020517344  0.019916534           28 
 3467000    0.6948244   -7.1909002    853.54234  0.020515872   0.01991061           35 
 3468000   0.71256351   -7.2238732    852.60296  0.020487384   0.01990467           46 
 3469000   0.70595825   -7.1853284    853.70452   0.02050794  0.019898746           17 
 3470000   0.70038571    -7.228014    854.06799  0.020510759  0.019892812           23 
 3471000   0.68802063   -7.2059824    853.31617  0.020486799  0.019886866            8 
 3472000   0.69532087   -7.2081727    852.73713  0.020467001   0.01988094           25 
 3473000   0.70034177   -7.2227921    852.78646  0.020462291  0.019875005           39 
 3474000   0.69439611   -7.2214653    854.66164  0.020501383  0.019869081          106 
 3475000   0.68884157   -7.2056753    852.66676  0.020447644  0.019863156           52 
 3476000   0.69871299   -7.2049436    851.29123  0.020408785  0.019857204           64 
 3477000    0.7036079   -7.2260431    853.20445  0.020448769  0.019851246           66 
 3478000   0.68747661   -7.2021612    853.40903  0.020447792  0.019845314           33 
 3479000   0.70632562   -7.1966243    852.28396  0.020414965  0.019839403           61 
 3480000   0.68484365   -7.2071469    853.88008   0.02044732  0.019833488           32 
 3481000    0.6875913   -7.2102311    852.75967  0.020414624  0.019827584           34 
 3482000   0.68586578   -7.2102327    853.05784  0.020415897  0.019821694           37 
 3483000   0.69549253   -7.2246414    853.03839   0.02040957  0.019815791           57 
 3484000   0.69659032   -7.2145499    853.44859  0.020413524   0.01980989           47 
 3485000   0.68829015   -7.2217703    852.39819  0.020382549  0.019803976           23 
 3486000   0.68559911   -7.2241367    852.20052  0.020371977  0.019798065           39 
 3487000   0.70169803   -7.2371228    854.54525  0.020422169  0.019792152           44 
 3488000   0.68939863   -7.2383732    853.02897  0.020380088   0.01978623           39 
 3489000   0.70109083   -7.2121751    852.04039  0.020350635  0.019780307           72 
 3490000   0.69809956    -7.201242    853.02189   0.02036824   0.01977441           38 
 3491000   0.70942389   -7.2263563    851.33347  0.020322101    0.0197685           67 
 3492000    0.7058016   -7.2139944    851.09502  0.020310591  0.019762576           42 
 3493000   0.67913138   -7.2332839    852.06159  0.020327836  0.019756644           57 
 3494000    0.6855158   -7.2017557    853.52985  0.020357037  0.019750706           58 
 3495000   0.69294297   -7.2179316    853.77379  0.020357029  0.019744794           72 
 3496000   0.70140688   -7.2345302    853.57813  0.020346542  0.019738894           34 
 3497000   0.67691105   -7.2275438    851.85594  0.020299684  0.019732993           32 
 3498000   0.68132979   -7.2226685    851.50527  0.020285527  0.019727102           20 
 3499000   0.69324083   -7.1753099    853.13921  0.020318644  0.019721219           26 
 3500000   0.69988739   -7.1980813    852.61879  0.020300447  0.019715342           34 
 3501000     0.691261   -7.2055632    853.07562  0.020305523   0.01970947           18 
 3502000   0.69098853   -7.2011521    852.58921   0.02028815  0.019703581           22 
 3503000   0.69475938   -7.2365642    852.96401  0.020291274  0.019697663            8 
 3504000    0.6885448   -7.2092606    852.65562  0.020278149  0.019691744            7 
 3505000   0.68622366   -7.2085037    852.39393  0.020266142  0.019685852           14 
 3506000   0.68958184   -7.2270434    852.48715  0.020262577  0.019679951           12 
 3507000   0.68245786   -7.2341305    853.62067  0.020283734  0.019674049           22 
 3508000   0.69924905   -7.2106313    851.78921  0.020234445  0.019668139           26 
 3509000   0.70309462   -7.2172312    853.22221  0.020262711  0.019662237           18 
 3510000   0.68689317   -7.2177396     853.7774  0.020270119  0.019656337           22 
 3511000   0.70462566   -7.2179082    853.24627  0.020251739  0.019650452           14 
 3512000   0.69534035   -7.2053368    852.94752  0.020238884  0.019644578           17 
 3513000   0.69955833   -7.2525104    854.15617  0.020261794  0.019638695           16 
 3514000    0.6938871   -7.2152003    854.50062  0.020264196  0.019632812            9 
 3515000   0.68783665   -7.2006541    854.61886  0.020261234  0.019626947            7 
 3516000   0.68796812   -7.2149491    853.60171  0.020231364  0.019621085            9 
 3517000   0.68914252    -7.206274    855.27197  0.020265187  0.019615234            7 
 3518000   0.70672281   -7.2200574     852.5934  0.020195978   0.01960937           13 
 3519000   0.67468893   -7.2100635    853.73698   0.02021732  0.019603488           11 
 3520000   0.68174221   -7.2212157    852.94503  0.020192827  0.019597611           12 
 3521000   0.67914457   -7.2132112    853.44732   0.02019898  0.019591739           28 
 3522000   0.68019237   -7.2240723     855.9517  0.020252501  0.019585877           23 
 3523000   0.67776428   -7.2372735    853.49286  0.020188591  0.019579996           27 
 3524000   0.68650264   -7.2249509    852.70966  0.020164341  0.019574111           13 
 3525000   0.69686023   -7.2442133    852.82821  0.020161423  0.019568207           13 
 3526000   0.68553713   -7.2484736    853.76565  0.020177861  0.019562298           25 
 3527000   0.69276404   -7.2426224    853.16533  0.020157956  0.019556401           20 
 3528000   0.68116563   -7.2217647    853.08756  0.020150405  0.019550485           12 
 3529000   0.70748899   -7.2350274    852.76764  0.020137141   0.01954459            7 
 3530000   0.69527546   -7.2355806    853.94417  0.020159211  0.019538684            9 
 3531000   0.69835246   -7.2274029    854.04474  0.020155875  0.019532795           11 
 3532000    0.6840947   -7.2220771    853.66477  0.020141203  0.019526909           10 
 3533000    0.6886385   -7.2323284    852.13143  0.020099335  0.019521023           20 
 3534000   0.67709149   -7.2332168    853.30464  0.020121313  0.019515153           18 
 3535000    0.6972592   -7.2348445    853.69795  0.020124893  0.019509289           25 
 3536000    0.6908089   -7.2426637    850.92946  0.020053956  0.019503397           16 
 3537000   0.68789033   -7.2344421    852.93788  0.020095606  0.019497512           15 
 3538000   0.69091054   -7.2349873    853.16161  0.020095195   0.01949162           20 
 3539000    0.7052946   -7.2585212    853.75512  0.020103492  0.019485724           40 
 3540000   0.68874126   -7.2390678    852.52355  0.020068822  0.019479841           27 
 3541000   0.66899302   -7.2496148    854.61232  0.020112311  0.019473949           29 
 3542000   0.69358826   -7.2319469    854.42088  0.020102129  0.019468083           24 
 3543000   0.69050767   -7.2589069     852.9055  0.020060813  0.019462204           14 
 3544000   0.70118028   -7.2210056    853.06266  0.020058847   0.01945633           15 
 3545000   0.68685517   -7.2347517      853.643  0.020066831  0.019450471           18 
 3546000   0.69077928   -7.2466342    854.21326  0.020074574   0.01944463           14 
 3547000   0.67394068   -7.2286729    854.76899  0.020081971  0.019438788           32 
 3548000   0.67587113   -7.2224303    855.20598  0.020086574  0.019432948           19 
 3549000   0.68788066   -7.2121774    854.38331  0.020061597  0.019427115           16 
 3550000   0.68276166   -7.2119885      854.873  0.020067441  0.019421275           30 
 3551000   0.70220848   -7.2238328    854.09808  0.020043605  0.019415429           16 
 3552000   0.69567488   -7.2276885    853.04744  0.020013313  0.019409571           18 
 3553000   0.68310801    -7.230536    854.49824  0.020041707  0.019403726           20 
 3554000   0.70375385    -7.269905    853.51231   0.02001295  0.019397889           11 
 3555000   0.66648976   -7.2389232    854.55148   0.02003168  0.019392047           10 
 3556000   0.66769742    -7.253263    851.91169  0.019964185  0.019386182           22 
 3557000   0.69303846   -7.2434047    853.51849  0.019996216  0.019380326           23 
 3558000   0.69201928   -7.2599789    852.70047  0.019971437   0.01937446           22 
 3559000   0.69358924    -7.271458    852.73452  0.019966623  0.019368576           29 
 3560000   0.67974203   -7.2691147    854.35502  0.019998947   0.01936269           27 
 3561000    0.6886283   -7.2510448    853.36932  0.019970264  0.019356821           19 
 3562000   0.67714025   -7.2506457    854.02139  0.019979913  0.019350955           30 
 3563000   0.68404594   -7.2471359    853.73332  0.019967568  0.019345092           22 
 3564000   0.67855297    -7.230925    854.66253  0.019983692  0.019339242           21 
 3565000   0.66594561   -7.2421963    852.42384  0.019925756  0.019333397           22 
 3566000   0.69166811   -7.2468078      852.036  0.019911105  0.019327551           24 
 3567000   0.68786021   -7.2388922    853.47309  0.019939097  0.019321696           36 
 3568000   0.68795773   -7.2459719    852.67738  0.019914924  0.019315842           31 
 3569000   0.68499729   -7.2487207    853.74673  0.019934312  0.019309975           37 
 3570000   0.68849672   -7.2576181    854.57774  0.019948126  0.019304114           25 
 3571000   0.67939333   -7.2611153    853.89257  0.019926551  0.019298251           25 
 3572000   0.66966163   -7.2477823    853.77921  0.019918328  0.019292394           32 
 3573000   0.68300699   -7.2769338    854.98261   0.01994082  0.019286553           24 
 3574000    0.6774425    -7.274924    853.91671  0.019910388  0.019280712           21 
 3575000   0.67632179   -7.2660792    852.80066  0.019878803  0.019274874           27 
 3576000   0.68852841   -7.2507624    853.85619  0.019897842  0.019269035           31 
 3577000   0.67221387   -7.2133441    853.26024  0.019878395  0.019263202           29 
 3578000   0.68242077   -7.2516438    856.38692  0.019945661  0.019257386           29 
 3579000   0.68001068   -7.2428055    854.25057  0.019890346  0.019251574           32 
 3580000   0.66879609    -7.248293    855.41057  0.019911792  0.019245759           30 
 3581000    0.6588815   -7.2619188    855.76572  0.019914496  0.019239957           27 
 3582000   0.67272492   -7.2379566    853.70167  0.019860917  0.019234145           13 
 3583000   0.68497485   -7.2284008    854.35661  0.019870607  0.019228321           19 
 3584000   0.66923694   -7.2498579    852.98452  0.019833159  0.019222501           15 
 3585000   0.69268955   -7.2572467    853.21575  0.019833002  0.019216684           16 
 3586000   0.68137763   -7.2783778    853.95013  0.019844537  0.019210855           64 
 3587000    0.6767679   -7.2485361    854.71118  0.019856686  0.019205033           70 
 3588000   0.68900116   -7.2761144    855.13246  0.019860936  0.019199212           83 
 3589000   0.66324654   -7.2538118    853.33616  0.019813694  0.019193382           90 
 3590000   0.67665348   -7.2541728    852.26574  0.019783327  0.019187556           53 
 3591000   0.67853081   -7.2431699    853.97786   0.01981755  0.019181742           61 
 3592000   0.67616402   -7.2241805     854.8527  0.019832329   0.01917593           64 
 3593000   0.67107765   -7.2606261    854.19915  0.019811651  0.019170134           92 
 3594000   0.68034927   -7.2468702    854.24677  0.019807243  0.019164324           57 
 3595000   0.66998003   -7.2617404    854.53817  0.019808488  0.019158515          131 
 3596000   0.68734587   -7.2476363    853.95074  0.019789366  0.019152722          138 
 3597000   0.68771291   -7.2545674    854.72114  0.019801713  0.019146933           73 
 3598000   0.67493432   -7.2705867    854.32107  0.019786943  0.019141142           61 
 3599000   0.69217417   -7.2638613    855.66207  0.019812496  0.019135359           40 
 3600000   0.66481614   -7.2535299    855.90693   0.01981266  0.019129578           57 
 3601000   0.66757013   -7.2742557    853.69752  0.019756029  0.019123796           45 
 3602000    0.6774731   -7.2433693    855.73427  0.019797665  0.019118007           35 
 3603000   0.66113984   -7.2715125     854.2582   0.01975803  0.019112233           59 
 3604000   0.66665434   -7.2454577    854.25318  0.019752432  0.019106459           29 
 3605000   0.67081742   -7.2255921    854.42961  0.019751031  0.019100695           19 
 3606000   0.67411084    -7.236701     855.8316  0.019777953  0.019094934           35 
 3607000   0.66069998   -7.2562969    856.10296  0.019778739  0.019089169           34 
 3608000   0.65780566   -7.2632333    854.68993  0.019740621   0.01908341           39 
 3609000    0.6735955   -7.2769248     855.2029  0.019746996  0.019077637           18 
 3610000   0.66888218    -7.279634    855.32928  0.019744443  0.019071867           20 
 3611000   0.65957575   -7.2295466    856.18986  0.019758836  0.019066127           21 
 3612000   0.67362135   -7.2523194    855.29468  0.019732712  0.019060386           21 
 3613000   0.67280496   -7.2803443    853.32918  0.019681917  0.019054637           17 
 3614000   0.66986967   -7.2636754    854.74244  0.019709058  0.019048885           15 
 3615000   0.67112313   -7.2507744    853.45921  0.019674025  0.019043125           22 
 3616000   0.67087518   -7.2831274    853.54556  0.019670574   0.01903737           33 
 3617000   0.67257938   -7.2747872    853.42317  0.019662316  0.019031615           21 
 3618000   0.67074165    -7.263472    854.08869   0.01967221  0.019025861           36 
 3619000   0.66769722   -7.2408384    853.78502  0.019659782  0.019020108           49 
 3620000   0.67761289   -7.2497336    856.51467  0.019717188  0.019014368           56 
 3621000   0.68175118   -7.2369429    856.77112  0.019717645  0.019008635           30 
 3622000   0.66334026   -7.2652879    854.47426  0.019659356  0.019002897           38 
 3623000   0.66782108   -7.2529558    853.60488  0.019633933  0.018997152           19 
 3624000   0.68434362   -7.2525383    855.03735  0.019661455  0.018991414           14 
 3625000   0.65857193    -7.235705     855.5051  0.019666784  0.018985683           20 
 3626000   0.68003546   -7.2443681    854.56916   0.01963985  0.018979947           36 
 3627000   0.67551746   -7.2504521     855.7985   0.01966268  0.018974212           31 
 3628000   0.66032701   -7.2703026     856.2457  0.019667533  0.018968499           54 
 3629000   0.67729134   -7.2695186    856.44968  0.019666797  0.018962787           37 
 3630000   0.69007987   -7.2499771    855.81361  0.019646777  0.018957076           24 
 3631000   0.67729762   -7.2609363    856.01467  0.019645981  0.018951358           49 
 3632000   0.68258094   -7.2673939    854.30172  0.019601269  0.018945635           62 
 3633000   0.67073666   -7.2379042    855.95741  0.019633852  0.018939918           20 
 3634000   0.68049347   -7.2396197    855.55776  0.019619285  0.018934215           17 
 3635000   0.69773734   -7.2399309    854.53058  0.019590339  0.018928506           10 
 3636000   0.67151198   -7.2633586     856.2939  0.019625364  0.018922801           17 
 3637000   0.66286349   -7.2407804    856.00573  0.019613366  0.018917095           21 
 3638000   0.66804378   -7.2494908    854.60323  0.019575848  0.018911379           19 
 3639000   0.68779224   -7.2486163    856.84838  0.019621883  0.018905683           59 
 3640000    0.6590927   -7.2688478    857.59395  0.019633561  0.018899989           60 
 3641000   0.66823558   -7.2665071    856.79953  0.019609986  0.018894297           44 
 3642000   0.66859041   -7.2606856    855.68915  0.019579195  0.018888611           43 
 3643000   0.67015497   -7.2547364    856.24517   0.01958654  0.018882935           29 
 3644000   0.68074986   -7.2569499    856.86825  0.019595414  0.018877251           29 
 3645000   0.68128194   -7.2633555    855.38662  0.019556164  0.018871552           23 
 3646000   0.67156492   -7.2808454    854.99307  0.019541805  0.018865845           16 
 3647000   0.66471281   -7.2546546    855.82507  0.019555458  0.018860134           32 
 3648000   0.68022499   -7.2759749    856.71934  0.019570526  0.018854428           72 
 3649000   0.69401029   -7.2875876    854.22351  0.019508165  0.018848718           15 
 3650000   0.66369689   -7.2492817    856.13746  0.019546517     0.018843           20 
 3651000   0.68182428    -7.275082    856.04051  0.019538951  0.018837285           20 
 3652000   0.64876128   -7.2639856    854.40217  0.019496216  0.018831567           44 
 3653000   0.66324203   -7.2567092    855.93318  0.019525805  0.018825846           32 
 3654000   0.67211281   -7.2908367    857.55662  0.019557485  0.018820136           29 
 3655000    0.6802566   -7.2761801    855.55814  0.019506569   0.01881442           31 
 3656000   0.66292974   -7.2740164     854.5488  0.019478228  0.018808702           36 
 3657000   0.67241665   -7.2921679    852.83404  0.019433827  0.018802987           27 
 3658000   0.67443728   -7.2706681    856.23437  0.019505977   0.01879728           22 
 3659000   0.66921888   -7.2915695    856.95843  0.019517137   0.01879158           23 
 3660000   0.66928859   -7.2815963    855.45162  0.019477496  0.018785883           30 
 3661000   0.66698003   -7.2850813     854.6907  0.019454855  0.018780202           13 
 3662000   0.66795614   -7.2782899    855.35891  0.019464749  0.018774508           31 
 3663000    0.6838344   -7.2852347    854.34603  0.019436392  0.018768816           33 
 3664000   0.66561639   -7.2773833    856.29139  0.019475332  0.018763131           38 
 3665000   0.65507569   -7.2663065    857.20751  0.019490848  0.018757457           32 
 3666000   0.66762224   -7.2779112    857.24869  0.019486468  0.018751777           35 
 3667000   0.67285599   -7.3029618    856.32499  0.019460163  0.018746107           29 
 3668000   0.65793848   -7.2760383    856.69468  0.019463256  0.018740464           23 
 3669000   0.65753809   -7.2418777    856.97036  0.019464213  0.018734796           35 
 3670000   0.66679002   -7.2272884    855.28638  0.019420672  0.018729141           28 
 3671000   0.65362402   -7.2835357    856.23626  0.019436944  0.018723494           60 
 3672000   0.65445247   -7.2677893    856.69674  0.019442101  0.018717842           16 
 3673000   0.67275816   -7.2810871    856.79645   0.01943907  0.018712195           15 
 3674000   0.67187154   -7.2716269    856.41894  0.019425216  0.018706523           24 
 3675000   0.65355082   -7.2504275    854.53192  0.019377141  0.018700855           18 
 3676000    0.6562949   -7.2688276    855.99923  0.019405133  0.018695205           17 
 3677000   0.67012737   -7.2361815    857.24983  0.019428198   0.01868957           19 
 3678000   0.66916477   -7.2429005    857.09614  0.019419434  0.018683939           32 
 3679000   0.65815224   -7.2666412     857.1899  0.019416279  0.018678315           20 
 3680000   0.65322694   -7.2934447    856.53218  0.019396109  0.018672679           24 
 3681000   0.66366113   -7.2991623    857.92564  0.019422386  0.018667032           20 
 3682000   0.66085766   -7.2845509    856.76272  0.019390791  0.018661394           26 
 3683000   0.67560719   -7.2891205    855.44676  0.019355751  0.018655755           25 
 3684000   0.66204615   -7.2882955    857.04247  0.019386592  0.018650099           39 
 3685000   0.65972039   -7.2864609    856.50208  0.019369111  0.018644448           22 
 3686000   0.66516769   -7.2989254    857.51512  0.019386759  0.018638811           18 
 3687000   0.66186702   -7.2830915    858.15381  0.019395936   0.01863315           12 
 3688000   0.66726691   -7.3033561    857.37413   0.01937306  0.018627488           31 
 3689000   0.65017463   -7.2651436    855.80358   0.01933233  0.018621829           22 
 3690000   0.65519536   -7.2749668    855.89604  0.019329179  0.018616186           30 
 3691000   0.67295133   -7.3034713    857.57618  0.019361875  0.018610539           35 
 3692000   0.65799301   -7.2907804    856.18751  0.019325287  0.018604902           29 
 3693000    0.6683479   -7.2484984     857.8043  0.019356537  0.018599275           52 
 3694000   0.65526681    -7.267667    855.07358  0.019289695  0.018593663           35 
 3695000   0.67039487   -7.2741024     857.4749  0.019338631  0.018588039           28 
 3696000   0.65312429   -7.2754981    856.02397  0.019300685  0.018582416           36 
 3697000   0.65729458   -7.2583302    857.58776  0.019330713  0.018576806           29 
 3698000    0.6521393   -7.2770178     858.3274  0.019342153  0.018571184           23 
 3699000   0.65711025   -7.2946662    858.16276  0.019333215  0.018565579           21 
 3700000   0.66726874   -7.2845952    856.14212   0.01928248  0.018559973           23 
 3701000   0.67878842   -7.2646634    857.68928  0.019312107  0.018554377           25 
 3702000   0.64952456   -7.2798431    856.51454  0.019280446  0.018548784           25 
 3703000   0.65472045   -7.2774175    857.44141  0.019296098  0.018543188           20 
 3704000   0.64798857   -7.2756516    855.69589  0.019251617  0.018537585           24 
 3705000   0.66101299   -7.2983616     856.6959  0.019268914  0.018531981           19 
 3706000    0.6725569   -7.2706856    855.23555  0.019230877  0.018526389           18 
 3707000   0.66123528   -7.2968863    855.37404  0.019228802  0.018520774           39 
 3708000   0.64978406    -7.262347    857.45367  0.019270354  0.018515158           39 
 3709000   0.66326859   -7.2907581    856.39707  0.019241419  0.018509557           23 
 3710000   0.64233233    -7.289482    856.05236   0.01922849   0.01850394           26 
 3711000   0.64844389   -7.3032908    857.15556  0.019248081  0.018498329           23 
 3712000   0.65134716   -7.2885283     857.7078  0.019255294  0.018492712           55 
 3713000   0.64866802   -7.2740466    857.81555  0.019252526  0.018487125           36 
 3714000   0.64447273   -7.2795467    856.67569  0.019221767  0.018481525           38 
 3715000   0.64246583   -7.2770996    857.23656  0.019229174  0.018475912           21 
 3716000   0.64193518   -7.2754405    856.64373  0.019210704  0.018470295           21 
 3717000    0.6632561   -7.3022766    857.50935  0.019224943   0.01846467           30 
 3718000   0.64909991   -7.2907359     855.7559  0.019180471  0.018459044           21 
 3719000   0.64957403   -7.2992921    856.71923    0.0191969  0.018453413           73 
 3720000   0.62757291   -7.2679262    856.99063  0.019197819   0.01844779           25 
 3721000   0.65215065   -7.2778599    856.34372  0.019178172  0.018442176           70 
 3722000   0.65924674   -7.3045939    854.80368  0.019138538  0.018436546           59 
 3723000   0.65219443     -7.31561    856.82679  0.019178682  0.018430898           60 
 3724000   0.64738234   -7.2925169     856.0787  0.019156791   0.01842528           29 
 3725000   0.65067012   -7.2970488    856.16289  0.019153532  0.018419665           32 
 3726000   0.65514704   -7.2932199    855.08245  0.019124227  0.018414037           45 
 3727000   0.64780152    -7.296746    854.30973  0.019101818  0.018408407           38 
 3728000   0.66191656   -7.2860108    855.19344  0.019116449  0.018402777           43 
 3729000   0.66028154   -7.2870359    854.69228  0.019100122  0.018397168           25 
 3730000   0.65619116   -7.2917673    856.14829  0.019127531  0.018391563           30 
 3731000   0.66211031   -7.2893315    856.81304  0.019137252  0.018385956           41 
 3732000    0.6571621   -7.2855327    856.56285  0.019126537  0.018380344           30 
 3733000   0.65041945   -7.2795374     855.7779  0.019103891  0.018374729           50 
 3734000   0.65662621   -7.3054294    855.93636  0.019102311  0.018369106           30 
 3735000   0.65426038   -7.2848782    857.46765  0.019131362    0.0183635           12 
 3736000   0.66191026   -7.3095636    856.69223  0.019108945    0.0183579           33 
 3737000   0.65685216   -7.3111635    855.62481  0.019080029  0.018352296           22 
 3738000   0.65831106   -7.2966776    856.38666  0.019091909  0.018346691           18 
 3739000   0.64630715   -7.2957135     855.2793  0.019062122  0.018341083           19 
 3740000   0.65189755   -7.2939869    855.68282  0.019066016  0.018335472           21 
 3741000   0.65010953   -7.2905497     855.5573  0.019058124  0.018329869           23 
 3742000   0.65132771   -7.3017014    855.88707  0.019060375  0.018324263           31 
 3743000   0.63355825   -7.3029733    858.20056   0.01910679  0.018318672           19 
 3744000   0.66082731   -7.3070905    856.43862  0.019062469  0.018313088           26 
 3745000   0.65374582   -7.3079924    858.04239  0.019093066    0.0183075           39 
 3746000   0.66812128    -7.305198    856.92785  0.019063175  0.018301908           36 
 3747000   0.65781396   -7.3205539     855.9906  0.019037243   0.01829631           31 
 3748000   0.64232707   -7.2943991    857.13599   0.01905763  0.018290718           47 
 3749000   0.66895819    -7.282184    856.50576  0.019038538  0.018285148           28 
 3750000   0.65992255   -7.3206312    855.81815  0.019018181  0.018279562           46 
 3751000   0.64812925   -7.3159086    855.73058  0.019011165  0.018273981           63 
 3752000   0.65433538   -7.2888983    857.54672  0.019046436   0.01826841           35 
 3753000   0.64644357   -7.2919217     857.5919  0.019042364  0.018262847           33 
 3754000   0.65603513   -7.3278518    855.52945  0.018991508  0.018257264           35 
 3755000   0.65992583   -7.2977314    857.70579  0.019034749  0.018251686           26 
 3756000   0.66149494   -7.3056215    856.13698  0.018994874  0.018246107           37 
 3757000   0.65280854   -7.3028705    856.75596  0.019003548  0.018240533           47 
 3758000   0.63757328   -7.3012708    856.25727  0.018987433  0.018234972           17 
 3759000   0.65217558   -7.3183662    855.28231  0.018960768  0.018229405           36 
 3760000   0.64978664   -7.2994337    855.45293  0.018959506  0.018223834           44 
 3761000    0.6385927   -7.3088255    856.43709  0.018976272   0.01821827           44 
 3762000   0.64965981   -7.3103562    855.18061  0.018943395  0.018212698           46 
 3763000   0.65533525   -7.3170412    856.62207  0.018970282  0.018207125           54 
 3764000   0.65197238   -7.3282504    855.46156  0.018939549  0.018201551           89 
 3765000   0.66426306   -7.3271258       855.57  0.018936919   0.01819598           43 
 3766000   0.65490708   -7.3307857    856.32417  0.018948579   0.01819042           91 
 3767000   0.64482828   -7.3159917    857.29203  0.018964959  0.018184858          139 
 3768000   0.65164388   -7.3284963    855.91545  0.018929482  0.018179286          146 
 3769000   0.64997116   -7.3316805    856.16469   0.01892997  0.018173715          132 
 3770000   0.64890788    -7.341725    855.78022  0.018916451  0.018168143           99 
 3771000   0.66031047   -7.3246615    856.38074  0.018924705  0.018162571          145 
 3772000   0.65683413    -7.333666    856.35654  0.018919153  0.018157008          122 
 3773000   0.64886696   -7.3348383    855.63032  0.018898099  0.018151433          159 
 3774000   0.64302924   -7.3313638    854.26766  0.018863003  0.018145859          134 
 3775000   0.66250811   -7.3234697    854.82114  0.018870224  0.018140292           87 
 3776000   0.64418279   -7.2907343    854.97719   0.01886867  0.018134728           79 
 3777000   0.64296133   -7.3353272    855.71732  0.018880004  0.018129179           72 
 3778000   0.66731815   -7.3341677    858.02302  0.018925865  0.018123637           84 
 3779000   0.63933873    -7.315695    857.56878   0.01891084  0.018118093           94 
 3780000   0.64445911   -7.3185403    856.90747  0.018891258  0.018112553           57 
 3781000   0.64178007    -7.326215    856.71203  0.018881954  0.018107026           55 
 3782000    0.6462865   -7.3122929    858.38808  0.018913892  0.018101493           65 
 3783000   0.66482122   -7.2933424    856.72639  0.018872288  0.018095964           62 
 3784000   0.64494145   -7.3173238    858.03376  0.018896092   0.01809043          145 
 3785000    0.6316929   -7.3333908    856.87681  0.018865628  0.018084888           66 
 3786000   0.66092779   -7.3000448    858.02062  0.018885821  0.018079355           75 
 3787000   0.64064871   -7.3035073    857.31364  0.018865277  0.018073805           85 
 3788000   0.64235757   -7.3146885    857.05986  0.018854714  0.018068266           89 
 3789000   0.65207184   -7.3221721     856.0577  0.018827696  0.018062733           76 
 3790000   0.64440809   -7.3090194    856.34704  0.018829091  0.018057191           86 
 3791000   0.64769176   -7.3174235    857.28069  0.018844647  0.018051657           62 
 3792000   0.65124328   -7.3316287    857.29944   0.01884009  0.018046119          109 
 3793000   0.63435318   -7.3105262    856.81804  0.018824546  0.018040589          119 
 3794000   0.65921043   -7.3056024    856.91847   0.01882179   0.01803507          132 
 3795000    0.6420829   -7.3204019    855.73666   0.01879088  0.018029545          133 
 3796000   0.65502106    -7.329342    854.49547  0.018758682  0.018024012           94 
 3797000   0.64375048   -7.3027252     856.3077  0.018793515  0.018018469           68 
 3798000   0.64385637   -7.3247779    855.99395  0.018781682  0.018012929           71 
 3799000   0.64862647   -7.3369579     855.2964  0.018761437  0.018007389           75 
 3800000   0.65726058   -7.3244387    854.69812   0.01874338  0.018001842           58 
 3801000   0.64961988    -7.323042    856.93481  0.018787486  0.017996292           57 
 3802000   0.64823881   -7.3510392    856.62904  0.018775843  0.017990757           78 
 3803000   0.64616593   -7.3309603    855.27445  0.018741223  0.017985213          103 
 3804000   0.63915183   -7.3411619    855.49672  0.018741165  0.017979687          154 
 3805000   0.64213486    -7.313454    854.39421  0.018712094  0.017974162          101 
 3806000   0.64181539   -7.3178292    856.19009  0.018746499  0.017968632          109 
 3807000   0.64058411   -7.3311326    855.27793  0.018721608  0.017963113           98 
 3808000   0.64946938   -7.3369311    857.93688  0.018774879  0.017957608          110 
 3809000   0.63023435    -7.330814    856.91416  0.018747575    0.0179521          100 
 3810000   0.64527416    -7.331069    856.03028  0.018723322  0.017946592           69 
 3811000   0.64200095   -7.2837144    856.76958  0.018734575  0.017941083          107 
 3812000   0.64124419   -7.3409784    855.99135  0.018712648  0.017935586          199 
 3813000   0.64665403   -7.3400795    856.00693   0.01870808  0.017930075           73 
 3814000    0.6292837   -7.3319499    856.89509  0.018722581  0.017924566          114 
 3815000   0.64689616   -7.3251109    856.08273  0.018699929  0.017919057           80 
 3816000   0.63811304   -7.3284095    855.78796  0.018688591  0.017913569           67 
 3817000   0.64477724   -7.3401888     855.8211  0.018684418   0.01790807           75 
 3818000   0.63925877   -7.3203295    856.89639  0.018702994   0.01790257          152 
 3819000   0.64669232   -7.3036435    858.11661  0.018724723  0.017897084           68 
 3820000   0.64686044   -7.3108325    857.27068  0.018701367  0.017891595           73 
 3821000   0.63891761   -7.3174269    858.53214  0.018723985   0.01788612           95 
 3822000   0.64355313    -7.329954     857.8575  0.018704376  0.017880654           57 
 3823000   0.63959681   -7.3185539    857.42099  0.018689968  0.017875186           70 
 3824000   0.64000861   -7.3419455    858.35163  0.018705361  0.017869715           50 
 3825000   0.64662263   -7.3515716    856.60701  0.018662462  0.017864243          107 
 3826000   0.62942608   -7.3261025    858.06436  0.018689327   0.01785878           36 
 3827000   0.65685765   -7.3128915    856.00358  0.018639569  0.017853326           41 
 3828000   0.65626242   -7.3112193    857.66553   0.01867088  0.017847875          112 
 3829000   0.65319328   -7.3470745     858.3897  0.018681764  0.017842421           86 
 3830000   0.64129418   -7.3180733    857.58663  0.018659413  0.017836963           43 
 3831000   0.64153876   -7.3193796    857.14863  0.018645015   0.01783152           47 
 3832000   0.63113898   -7.3304688    856.67961   0.01862995  0.017826072           41 
 3833000   0.64119788   -7.3188464    856.69587  0.018625443  0.017820626           55 
 3834000   0.63936214   -7.3255789     857.5168  0.018638428  0.017815177          102 
 3835000   0.63428352   -7.3388029    856.66381  0.018615033  0.017809722           26 
 3836000   0.64049762   -7.3270479    855.65481   0.01858826  0.017804257           93 
 3837000   0.64064374   -7.3500556    857.47513  0.018622951  0.017798785           57 
 3838000    0.6366705   -7.3639173    856.97339  0.018607204  0.017793326           55 
 3839000   0.64816886   -7.3236482     858.3132   0.01863144  0.017787869           42 
 3840000    0.6384887   -7.3540219    857.13194  0.018600954  0.017782411           35 
 3841000   0.63048287   -7.3138781     856.6165  0.018584928  0.017776952           37 
 3842000   0.65318068   -7.3423803    857.58697   0.01860114  0.017771496           30 
 3843000   0.63318004   -7.3300051    854.83994  0.018536732  0.017766039           44 
 3844000    0.6334361   -7.3495648    856.49218  0.018567729  0.017760587           49 
 3845000    0.6371513   -7.3407216    857.88703   0.01859313  0.017755127           45 
 3846000   0.63856933   -7.3621296    855.73568  0.018541681  0.017749665           25 
 3847000   0.63782698   -7.3263229    855.90451  0.018540519   0.01774421           54 
 3848000   0.63644117   -7.3469897    856.38601  0.018546128  0.017738748           39 
 3849000   0.62678547   -7.3444485    856.99527  0.018554501  0.017733294           37 
 3850000   0.63250928   -7.3505318    856.18623   0.01853217  0.017727831           54 
 3851000   0.64940155     -7.34015    855.84329  0.018519936   0.01772237           21 
 3852000   0.63276727   -7.3503314    856.33127  0.018525685  0.017716911           31 
 3853000   0.64756212   -7.3586577    857.23133  0.018540344  0.017711462           38 
 3854000   0.64691305   -7.3300651    856.31551  0.018515731  0.017706017           26 
 3855000   0.64064601   -7.3401792    858.53514  0.018558909  0.017700585           30 
 3856000   0.63350411   -7.3483583    858.01716  0.018542902  0.017695151           21 
 3857000   0.62909854   -7.3242855     857.8391  0.018534247   0.01768972           46 
 3858000   0.63379518   -7.3589293    856.70053   0.01850485  0.017684289           42 
 3859000    0.6300784     -7.33709    858.51403  0.018539216  0.017678855           30 
 3860000   0.61540612   -7.3240791    857.23198  0.018506735  0.017673432           51 
 3861000   0.62576527   -7.3419112    857.32394  0.018503927     0.017668           52 
 3862000   0.64076356   -7.3481195    858.27187   0.01851959  0.017662555           36 
 3863000   0.62458802   -7.3421298     856.0303   0.01846644  0.017657111           41 
 3864000    0.6381262   -7.3456332    857.31569  0.018489382  0.017651671           53 
 3865000    0.6403302   -7.3369817    857.00202  0.018477836   0.01764624           37 
 3866000   0.62201761   -7.3520374    856.35109  0.018459025  0.017640816           45 
 3867000   0.63186199   -7.3165416    855.61037  0.018438289  0.017635392          112 
 3868000   0.63592453   -7.3508774    856.59527  0.018454741  0.017629964           31 
 3869000   0.63226052   -7.3416695    856.71627  0.018452578  0.017624539           32 
 3870000   0.63580841   -7.3557932    856.35825    0.0184401  0.017619115           27 
 3871000   0.62765245   -7.3644839    857.57232  0.018461472  0.017613692           40 
 3872000   0.61686184   -7.3524511    857.63102  0.018457968   0.01760827           33 
 3873000   0.61505152    -7.357042    857.20146  0.018443959  0.017602866           37 
 3874000   0.62263181   -7.3250265    856.83827  0.018431386  0.017597458           46 
 3875000   0.62613337   -7.3529074    856.45266  0.018418337  0.017592053           25 
 3876000   0.62444117    -7.357422    856.70959  0.018419109  0.017586641           74 
 3877000   0.63190614   -7.3572016    857.16001  0.018424039  0.017581216           31 
 3878000    0.6600681   -7.3681013    857.68145  0.018430494  0.017575796           31 
 3879000   0.63063967   -7.3720395    856.46048  0.018399512  0.017570385           48 
 3880000   0.62910896   -7.3584479    857.00109  0.018406381  0.017564976           24 
 3881000   0.64438022   -7.3535118    855.30857  0.018365296  0.017559567           43 
 3882000   0.62793284   -7.3650333    856.38199  0.018383608   0.01755415           51 
 3883000   0.62319213    -7.377395    856.90791   0.01839016  0.017548737           30 
 3884000   0.62911973   -7.3462201    857.26256  0.018393035  0.017543323           38 
 3885000   0.63953219   -7.3478081    856.90933  0.018380724   0.01753791           48 
 3886000   0.63750224    -7.343301    857.11662  0.018380439  0.017532511           33 
 3887000   0.63161105   -7.3609512    856.19128  0.018355872  0.017527122           30 
 3888000   0.62159947   -7.3439214    857.27747  0.018374431  0.017521714           46 
 3889000   0.62357808   -7.3494029    856.51299  0.018353325  0.017516318           28 
 3890000   0.61740992   -7.3612145    856.11172  0.018340011  0.017510929           44 
 3891000    0.6258006    -7.373555    855.41962  0.018320475  0.017505536           74 
 3892000   0.63068164   -7.3641064    856.62042  0.018341479  0.017500129           76 
 3893000   0.61477137   -7.3934729     856.5673   0.01833563  0.017494736           61 
 3894000   0.62826402   -7.3812839    855.52273  0.018308567  0.017489345          119 
 3895000   0.63034026   -7.3812353     854.9989  0.018292659  0.017483954          156 
 3896000   0.63842662   -7.3500656    858.59981  0.018364986  0.017478561          102 
 3897000   0.64217593   -7.3419236    857.04501  0.018327025  0.017473175           51 
 3898000   0.62660728   -7.3532324    855.75147   0.01829467  0.017467791          120 
 3899000   0.62495944   -7.3621926    857.52463  0.018327875  0.017462404           56 
 3900000   0.63346159   -7.3688178    856.67377  0.018304995  0.017457023           52 
 3901000   0.63731034   -7.3744536    858.75633   0.01834479  0.017451637           60 
 3902000   0.62215531   -7.3582147    856.95577  0.018301635   0.01744625           45 
 3903000    0.6367574   -7.3664747    857.47655  0.018308065  0.017440861          142 
 3904000   0.62730546   -7.3534741    856.16386  0.018275356  0.017435473           54 
 3905000   0.62938286    -7.377274    856.83807  0.018285063  0.017430087          148 
 3906000   0.62263202   -7.3779597    856.27586  0.018268388  0.017424701           58 
 3907000   0.62020931   -7.3619109    855.89797  0.018255652  0.017419315           50 
 3908000   0.62018491    -7.382291    858.45907  0.018305593  0.017413937           75 
 3909000   0.61597607   -7.3667529    856.52309  0.018259638  0.017408564           51 
 3910000   0.64251278    -7.377043    855.72834  0.018238029  0.017403189           68 
 3911000   0.64812421   -7.3606343    855.48517  0.018228185  0.017397821           75 
 3912000   0.62835838   -7.3609829    857.00499  0.018255901  0.017392448          120 
 3913000   0.63204836   -7.3697605    856.92936  0.018249624  0.017387067           88 
 3914000   0.62263439   -7.3924633    856.00764  0.018225337  0.017381694          100 
 3915000   0.61460204   -7.3697757    856.30273  0.018226963  0.017376331           81 
 3916000   0.63663034   -7.3571821    856.57228  0.018228045  0.017370968           68 
 3917000   0.62224354   -7.3868202     856.4871  0.018221579  0.017365591           76 
 3918000   0.62425599   -7.3851174     855.8746  0.018203901  0.017360218          106 
 3919000     0.617684   -7.3560971    854.20071  0.018163662  0.017354834           82 
 3920000   0.63099761   -7.3713449    856.10637   0.01819954  0.017349453           77 
 3921000   0.61850849   -7.3756761    857.74353  0.018229693  0.017344078          150 
 3922000   0.62004233   -7.3736433    856.30775  0.018194538  0.017338709           90 
 3923000   0.63806872   -7.3911084    854.88291  0.018159634  0.017333336          132 
 3924000    0.6273746   -7.3852467     854.8319  0.018153923  0.017327946           82 
 3925000   0.62485373   -7.3729487    854.85496  0.018149787  0.017322568           91 
 3926000   0.62426031   -7.3807218    856.77447  0.018185908  0.017317208           90 
 3927000   0.61959239   -7.3754277    857.02077  0.018186503   0.01731184          120 
 3928000   0.63025597    -7.374321    856.89401  0.018179184  0.017306485          156 
 3929000   0.60377432   -7.3660476    856.50852  0.018166381  0.017301138          156 
 3930000   0.62560511   -7.3728252    855.44491  0.018139205  0.017295793           55 
 3931000   0.61498707   -7.3574657    856.88151  0.018165045  0.017290458           55 
 3932000   0.62332387   -7.3824443    856.60684  0.018154604  0.017285131          112 
 3933000   0.62142894   -7.3417057    857.02074  0.018158758  0.017279789           37 
 3934000   0.63484808   -7.3498215     854.8712  0.018108609  0.017274458           73 
 3935000    0.6191282   -7.3697761    855.20378   0.01811105  0.017269114           76 
 3936000   0.62961221    -7.373189    855.81778  0.018119448  0.017263768           78 
 3937000   0.61430462   -7.3817488    857.01223  0.018140128  0.017258429          119 
 3938000   0.61579239   -7.3636847    856.08201  0.018115837   0.01725309           67 
 3939000   0.61621753   -7.3719055    855.88648  0.018107102  0.017247747           69 
 3940000   0.61549046   -7.3968631    857.43191  0.018135193  0.017242422           79 
 3941000   0.62965449   -7.3822214    856.75262  0.018116227  0.017237083          103 
 3942000    0.6150019   -7.3668158    856.41811   0.01810456  0.017231749           48 
 3943000   0.61355942   -7.3819194    855.54508  0.018081517  0.017226406           63 
 3944000   0.62022344   -7.3683623    858.13647  0.018131687  0.017221065           63 
 3945000   0.61978019    -7.391364    856.57854  0.018094181  0.017215737           49 
 3946000   0.62841466   -7.3798631    855.00039  0.018056268  0.017210396           61 
 3947000   0.62432599   -7.3595053    856.25138  0.018078105  0.017205061           66 
 3948000   0.61610226   -7.3780899    855.68326  0.018061535   0.01719973           66 
 3949000   0.61241311   -7.3922604    856.07609  0.018065251  0.017194412           57 
 3950000    0.6191913   -7.3852219    856.73608  0.018074601  0.017189095           61 
 3951000   0.61364217   -7.3789854     858.1572       0.0181  0.017183766           51 
 3952000   0.62816444   -7.3924035    855.75654  0.018044799  0.017178435           83 
 3953000     0.628598   -7.3733805    856.20391  0.018049665  0.017173117           52 
 3954000   0.62533816   -7.3837441    855.83059  0.018037232  0.017167798           47 
 3955000   0.60387376   -7.3931591    856.18473  0.018040133  0.017162474           47 
 3956000   0.61944963   -7.3981754    855.73661  0.018026133  0.017157151           34 
 3957000   0.62129884   -7.3918042     854.8677  0.018003279   0.01715182           49 
 3958000   0.60037598   -7.3801441    856.88466  0.018041196  0.017146502           45 
 3959000   0.62929245   -7.3759617    855.17095  0.018000567  0.017141184           45 
 3960000   0.62000261    -7.406298    856.26471  0.018019038  0.017135859           63 
 3961000   0.61884942   -7.3961546    857.57626  0.018042082  0.017130534           59 
 3962000   0.60982395   -7.3744648    855.67571  0.017997554  0.017125211           84 
 3963000   0.62667786   -7.4165783    856.36358  0.018007477  0.017119894          154 
 3964000   0.61643716   -7.3956296    857.05238  0.018017415  0.017114572          155 
 3965000   0.60790032   -7.3909026    856.02398  0.017991256  0.017109259           95 
 3966000   0.62248651    -7.376491    856.27971  0.017992093  0.017103961           56 
 3967000   0.61970419   -7.3883578    855.74902   0.01797641  0.017098651           79 
 3968000   0.61683872   -7.4067617    855.04013  0.017956992  0.017093343           81 
 3969000   0.61587406   -7.4092508    856.49038  0.017982917  0.017088028          168 
 3970000    0.6136295   -7.4030176     856.3927  0.017976337  0.017082723          112 
 3971000   0.62206688   -7.3945083    854.67931  0.017935854  0.017077405          110 
 3972000   0.60951258   -7.3936602    855.73446  0.017953476  0.017072086          112 
 3973000   0.60925828   -7.3785368    855.70904  0.017948423  0.017066771           61 
 3974000   0.61843701   -7.3717126    856.41318  0.017958673  0.017061462           84 
 3975000   0.61180684   -7.3953545      856.507  0.017956122  0.017056155           67 
 3976000   0.59949889   -7.4186747    855.66949  0.017934052  0.017050856           99 
 3977000   0.61232028   -7.4047061    854.95987  0.017914673   0.01704555          201 
 3978000   0.61858075   -7.4248425     854.2142  0.017894549  0.017040244          184 
 3979000   0.61303286   -7.3847516    855.63095  0.017919723  0.017034941          204 
 3980000   0.60563998   -7.3692587    854.31038  0.017887571   0.01702963          147 
 3981000   0.62335884   -7.4065771      855.671  0.017911559  0.017024328           95 
 3982000   0.61170557   -7.3769961    856.98509  0.017934562  0.017019033          111 
 3983000   0.62214915   -7.3935372    857.22286  0.017935033  0.017013746          100 
 3984000   0.61097564    -7.385894    856.41203  0.017913572  0.017008452           95 
 3985000   0.61413149   -7.4042948    857.20694  0.017925699  0.017003171          157 
 3986000   0.60730444   -7.3901002    854.95781  0.017874181  0.016997886           94 
 3987000   0.61244892   -7.4190783    857.20259  0.017916616    0.0169926          104 
 3988000   0.59940196    -7.408314    854.85074  0.017862979  0.016987313          107 
 3989000   0.61750192   -7.4027155    857.17123  0.017906978   0.01698202          119 
 3990000   0.62089561   -7.3965441    855.69094  0.017871574   0.01697672          107 
 3991000   0.62835484   -7.4017195    853.98431  0.017831461  0.016971421          121 
 3992000   0.62683156   -7.4031119    855.42161  0.017856998  0.016966123          173 
 3993000   0.61584576   -7.4048598    855.76798  0.017859754  0.016960814          118 
 3994000   0.62661507    -7.410596    856.86238  0.017878117  0.016955514          160 
 3995000   0.60903712   -7.4147726    857.01885  0.017876905  0.016950214          232 
 3996000   0.60762365   -7.3890387    856.05937  0.017852423  0.016944929          144 
 3997000   0.59916385   -7.3950601    855.05203  0.017826954  0.016939648          127 
 3998000   0.60257765   -7.4138156    855.50646  0.017831967  0.016934357          210 
 3999000   0.60971702   -7.4128091    855.35572  0.017824367  0.016929056          141 
 4000000    0.6074738    -7.408697    855.14241  0.017815467  0.016923754          164 
 4001000   0.61571046   -7.3985322    854.50613  0.017797762   0.01691846           93 
 4002000   0.60649827   -7.4028654    854.51922  0.017793587  0.016913175          108 
 4003000   0.60910543   -7.4311987    855.10732  0.017801385  0.016907891          223 
 4004000   0.60785724   -7.4091692    854.11906  0.017776371  0.016902605          233 
 4005000   0.60639588   -7.4124777    855.21231   0.01779468  0.016897329          298 
 4006000   0.59259154   -7.3994011    854.49646  0.017775346  0.016892048          278 
 4007000   0.61680767   -7.4107958    853.93979  0.017759333  0.016886775          197 
 4008000   0.61441465   -7.4138933     855.1412  0.017779882  0.016881499          249 
 4009000   0.60343745   -7.4157123    854.95763  0.017771631  0.016876225          315 
 4010000   0.61595323   -7.4154839    855.71498  0.017782938  0.016870955          225 
 4011000   0.60779947   -7.4015007    853.93566  0.017741537  0.016865686          311 
 4012000   0.60842491   -7.3965989    854.53555  0.017749575  0.016860417          340 
 4013000   0.60638772   -7.3972601    854.04711  0.017735009  0.016855138          385 
 4014000   0.61704987   -7.4016065    854.50011  0.017739996   0.01684986          349 
 4015000   0.61645692    -7.418255    853.92568  0.017723655  0.016844577          227 
 4016000     0.606237   -7.4278573    854.77157  0.017736794  0.016839291          243 
 4017000    0.6022631   -7.4237932    855.33746  0.017744118  0.016834021          240 
 4018000   0.60602059   -7.3914646    855.22078  0.017737282   0.01682875          242 
 4019000   0.60282891    -7.391875    854.82506  0.017724663  0.016823481          240 
 4020000   0.61993893    -7.405873    854.98864  0.017723645   0.01681821          227 
 4021000   0.59489494   -7.4068626    854.48174  0.017708732   0.01681294          265 
 4022000   0.60916771   -7.4149002    853.61426  0.017686356  0.016807679          351 
 4023000   0.60387329   -7.4037435    854.88533  0.017708288  0.016802409          387 
 4024000   0.62813331   -7.4213921    855.13895   0.01770914  0.016797152          435 
 4025000   0.60070838   -7.4009178    856.15636  0.017725804  0.016791894          387 
 4026000   0.60886087   -7.4168577    854.39325  0.017684908   0.01678663          352 
 4027000   0.60600989   -7.4052338    854.83421  0.017689641  0.016781369          327 
 4028000   0.60906082   -7.3999918    854.00068  0.017668005  0.016776094          342 
 4029000   0.62138374    -7.432635    853.03908  0.017643731  0.016770819          313 
 4030000   0.60403532   -7.4134008    854.58196  0.017671256  0.016765548          494 
 4031000   0.59298278   -7.4152497    854.80117  0.017671404  0.016760276          387 
 4032000   0.60110166   -7.4421109     854.5257  0.017661328  0.016755008          353 
 4033000   0.59607418   -7.4217139    855.97011  0.017686795  0.016749743          327 
 4034000   0.60438428   -7.4328887      855.245  0.017667431  0.016744483          403 
 4035000   0.60963114   -7.4201469    854.86205  0.017655143  0.016739222          463 
 4036000   0.60203795   -7.4095213    854.88779    0.0176513  0.016733965          477 
 4037000   0.60965734   -7.4203929     853.5476  0.017619263  0.016728714          343 
 4038000    0.6063286   -7.4096329    852.54149  0.017594137   0.01672347          293 
 4039000   0.60943783   -7.3981367    854.68306  0.017633966  0.016718215          365 
 4040000   0.61448411   -7.4390678    855.05816  0.017637338  0.016712963          485 
 4041000   0.60664128   -7.4024711    854.84273  0.017628531   0.01670772          353 
 4042000   0.59781149   -7.4294599    854.56453  0.017618434  0.016702482          363 
 4043000   0.59848345   -7.4231754    854.87076  0.017620388  0.016697244          464 
 4044000   0.61899538   -7.4139812      854.477  0.017607917  0.016692015          311 
 4045000   0.61585623   -7.3845013    854.86954  0.017611651  0.016686784          408 
 4046000   0.60052921   -7.4135526    854.53412   0.01760039  0.016681556          461 
 4047000   0.60293672   -7.4367887      854.195  0.017589058  0.016676331          310 
 4048000   0.61171445   -7.4047338    853.93107  0.017579279  0.016671106          401 
 4049000   0.60878767   -7.4371736    852.84732  0.017552633  0.016665867          373 
 4050000   0.60768747   -7.4240241    852.70285  0.017545326  0.016660638          404 
 4051000   0.59424142   -7.4425237    854.78221   0.01758377    0.0166554          381 
 4052000    0.6028332   -7.4122146    853.55127  0.017554115  0.016650173          396 
 4053000   0.60240127   -7.4273726    854.01134  0.017559243  0.016644953          452 
 4054000   0.60539827   -7.4214254    852.45708  0.017522963  0.016639723          403 
 4055000   0.60486589   -7.4185959    854.85207   0.01756786  0.016634499          466 
 4056000   0.60859544   -7.4453023    853.88859  0.017543733  0.016629287          334 
 4057000   0.61116162   -7.4233305    855.50126  0.017572534   0.01662407          413 
 4058000   0.60514378   -7.4148721    855.35914  0.017565285  0.016618856          366 
 4059000   0.59421865   -7.4233649    854.93597   0.01755227  0.016613649          344 
 4060000   0.60514948   -7.4429634    856.36346  0.017577247  0.016608445          287 
 4061000   0.60022203   -7.4392983    854.08191    0.0175261   0.01660324          423 
 4062000   0.60487612   -7.4180407    853.31122  0.017505975  0.016598037          447 
 4063000   0.60679273   -7.4252216    854.74265  0.017531025  0.016592846          411 
 4064000   0.60742084   -7.4152545    854.82933  0.017528489  0.016587645          411 
 4065000   0.59903325   -7.4314651    856.43728   0.01755714  0.016582446          353 
 4066000   0.59220428   -7.3990288    854.22552  0.017507491  0.016577258          416 
 4067000   0.60628955     -7.41332    853.97746  0.017498104  0.016572075          350 
 4068000   0.59402019   -7.4154382    854.37238  0.017501892  0.016566887          371 
 4069000   0.61551839   -7.3861723    854.34778  0.017497087    0.0165617          318 
 4070000   0.61193293   -7.4167739    853.20339  0.017469357  0.016556511          263 
 4071000    0.5830821   -7.4351766     854.0209    0.0174818  0.016551322          342 
 4072000   0.60814954   -7.4160377    853.90255  0.017475085  0.016546142          328 
 4073000   0.58744873   -7.4193297    855.25613  0.017498489   0.01654096          267 
 4074000    0.5854514   -7.4151165    854.80693  0.017485005  0.016535774          296 
 4075000   0.58419419   -7.4150876    855.22873   0.01748934  0.016530595          245 
 4076000   0.59212041   -7.4324319    855.08415  0.017482093  0.016525418          301 
 4077000   0.59000167   -7.4313623    855.08207  0.017477763  0.016520241          408 
 4078000    0.5922275   -7.4433926    854.69074   0.01746548  0.016515065          369 
 4079000   0.58860087   -7.4193388     853.0931  0.017428559  0.016509879          393 
 4080000   0.59278024   -7.4320874    853.12733  0.017424986  0.016504703          392 
 4081000   0.59045162   -7.4353639     854.5631  0.017450035  0.016499521          478 
 4082000   0.59913046   -7.4403603    853.97817  0.017433819  0.016494341          499 
 4083000   0.59894471   -7.4238786    855.65211  0.017463714  0.016489168          431 
 4084000   0.59740963   -7.4324162    854.32738  0.017432406  0.016484007          503 
 4085000   0.58944297   -7.4434338    856.31534  0.017468693  0.016478844          328 
 4086000   0.59386862   -7.4148462     854.6718  0.017430898  0.016473675          381 
 4087000   0.60473721   -7.4472296    855.02954  0.017433928  0.016468511          215 
 4088000   0.59605662   -7.4510788    855.07389  0.017430567  0.016463346          449 
 4089000   0.59728447   -7.4520997     853.5475  0.017395196  0.016458184          354 
 4090000   0.59705686   -7.4318025    853.25149  0.017384912   0.01645302          398 
 4091000   0.60751296   -7.4495671    853.40529  0.017383796  0.016447855          379 
 4092000    0.5936151    -7.444653    854.01468  0.017391958  0.016442687          335 
 4093000   0.60500869    -7.448995    856.05914  0.017429333  0.016437521          232 
 4094000   0.60660703   -7.4310851    855.55485  0.017414811  0.016432363          244 
 4095000   0.58413406      -7.4542    855.51433  0.017409734  0.016427199          298 
 4096000   0.58867695   -7.4290441    853.62814  0.017367109  0.016422029          234 
 4097000   0.60212992    -7.444393    852.81855  0.017346403  0.016416866          193 
 4098000   0.59974206   -7.4377752    853.16562  0.017349228  0.016411705          291 
 4099000   0.58836346   -7.4389753    852.51886  0.017331846  0.016406546          305 
 4100000   0.60114949    -7.428079    855.08719  0.017379821  0.016401393          328 
 4101000   0.59484265   -7.4394401     853.2733  0.017338724  0.016396237          390 
 4102000   0.59683346   -7.4265475       853.19  0.017332805  0.016391081          408 
 4103000   0.59834478   -7.4450497     854.0211  0.017345461  0.016385927          247 
 4104000   0.58490748   -7.4338676    854.03099  0.017341435  0.016380778          245 
 4105000   0.60253506   -7.4448283    854.38685  0.017344435  0.016375637          239 
 4106000   0.59682273   -7.4364465    854.09707  0.017334329  0.016370492          278 
 4107000   0.59324079   -7.4305989    853.17514  0.017311402  0.016365349          213 
 4108000   0.59222923   -7.4337034    855.17414  0.017347739  0.016360216          217 
 4109000   0.59016878   -7.4347257    853.69142  0.017313446  0.016355086          327 
 4110000   0.59860459   -7.4198308    854.43118  0.017324233  0.016349957          334 
 4111000   0.59120229    -7.468553    854.16202  0.017314563  0.016344832          228 
 4112000   0.59566715    -7.448947    853.73591  0.017301717  0.016339709          168 
 4113000   0.59045117   -7.4522016    854.55209  0.017314047  0.016334582          334 
 4114000   0.59419209   -7.4443754    852.71367  0.017272599  0.016329467          364 
 4115000   0.58721851   -7.4339527    854.17773   0.01729805  0.016324347          204 
 4116000   0.60060315   -7.4274392    852.78893   0.01726573  0.016319227          248 
 4117000   0.59334355   -7.4497329    854.84187   0.01730309   0.01631411          198 
 4118000   0.59336482   -7.4441909    856.62893  0.017335052  0.016308996          176 
 4119000   0.58654064   -7.4487366    854.31562  0.017284042  0.016303883          128 
 4120000   0.59610403   -7.4538636    856.16781   0.01731731  0.016298772          327 
 4121000   0.60737387   -7.4492353    853.83856  0.017266007  0.016293668          148 
 4122000   0.59179348   -7.4503218    853.94254   0.01726392  0.016288557          194 
 4123000   0.58697812   -7.4413456    855.18338  0.017284812   0.01628344          304 
 4124000   0.59959165   -7.4495315      856.077  0.017298678  0.016278332          398 
 4125000   0.59303364   -7.4683713    854.25015  0.017257579  0.016273218          357 
 4126000   0.58550433    -7.451868    856.37191   0.01729625  0.016268112          354 
 4127000   0.59437923   -7.4514563    852.82044  0.017220347  0.016263003          466 
 4128000   0.59615046   -7.4602241    854.12535  0.017242518    0.0162579          246 
 4129000   0.58625568   -7.4695733    854.84491  0.017252864  0.016252804          400 
 4130000   0.58809727   -7.4563431    854.73021  0.017246372  0.016247702          373 
 4131000   0.60015375   -7.4623886    854.12621  0.017230013  0.016242604          147 
 4132000   0.59439614   -7.4628978    854.55533  0.017234498   0.01623752          338 
 4133000   0.58693905   -7.4579867    853.48508  0.017208748  0.016232426          177 
 4134000   0.59442463   -7.4545523    853.62112  0.017207328  0.016227333          200 
 4135000   0.58342249   -7.4421133    854.82275  0.017227383  0.016222242          256 
 4136000   0.58887483   -7.4588046    854.36156  0.017213926  0.016217148          310 
 4137000   0.58944672   -7.4536142    853.53341  0.017193083   0.01621205          344 
 4138000   0.59566245   -7.4600787    854.19653  0.017202282  0.016206964          232 
 4139000   0.59587612   -7.4447617    853.77117  0.017189562  0.016201877          180 
 4140000   0.58143412   -7.4477358    853.75559  0.017185096  0.016196791          110 
 4141000   0.57305591   -7.4616009    854.76298  0.017201219  0.016191701          385 
 4142000   0.60451342   -7.4573747    854.44596  0.017190688  0.016186627          310 
 4143000   0.59814205   -7.4415338    853.73346  0.017172207  0.016181545          318 
 4144000   0.58873622   -7.4643313    852.65868   0.01714645   0.01617646          238 
 4145000   0.60699027   -7.4659811    853.60856  0.017161411  0.016171371          197 
 4146000   0.59233942   -7.4424048    855.24039  0.017190071  0.016166298          326 
 4147000   0.59050008   -7.4390349    855.77972  0.017196763  0.016161221          189 
 4148000   0.58587808   -7.4573193    853.56006  0.017148024  0.016156144          373 
 4149000   0.59669864   -7.4545917    855.23852  0.017177603  0.016151068          184 
 4150000   0.59349698   -7.4599103    854.58072  0.017160255  0.016145996          370 
 4151000   0.58639188   -7.4671437    853.94787  0.017143417  0.016140927          147 
 4152000   0.59478869   -7.4650466     853.9477  0.017139284  0.016135856          276 
 4153000   0.60288064   -7.4481826    854.38667  0.017143966   0.01613079          378 
 4154000   0.58334064   -7.4496772    852.66823  0.017105365  0.016125722          476 
 4155000      0.58384   -7.4797753    853.74937  0.017122932  0.016120648          220 
 4156000    0.5808985   -7.4595731     854.8298  0.017140476  0.016115582          257 
 4157000   0.58773367   -7.4584382    853.56994  0.017111096  0.016110513          258 
 4158000   0.59223384      -7.4604    854.75808  0.017130794  0.016105452          369 
 4159000   0.58457872   -7.4496007    854.64116  0.017124332  0.016100388          250 
 4160000   0.58635737   -7.4728318    853.46514  0.017096657  0.016095327          286 
 4161000   0.58399649   -7.4792744    853.52043  0.017093656  0.016090255          176 
 4162000   0.58143708   -7.4435725    855.41275  0.017127438  0.016085195          317 
 4163000   0.57999367   -7.4429934    855.41479  0.017123364  0.016080148          384 
 4164000   0.58626024    -7.457586    854.30021  0.017096946  0.016075098          254 
 4165000   0.58511514    -7.421835    851.98932  0.017046605  0.016070055          281 
 4166000   0.58611861   -7.4585576    854.80011  0.017098738  0.016065012          213 
 4167000   0.57360361   -7.4806383    853.73204  0.017073275  0.016059965          413 
 4168000   0.58119904   -7.4493625    852.84429  0.017051429  0.016054919          420 
 4169000   0.59042278   -7.4552803    854.12661  0.017072971  0.016049875          188 
 4170000   0.57735578   -7.4673459    852.57795  0.017037929  0.016044822          254 
 4171000   0.57508272   -7.4549514     854.3639  0.017069526  0.016039775          196 
 4172000   0.57127363   -7.4650971    853.77173  0.017053606  0.016034737          236 
 4173000   0.59140159   -7.4518483    853.07703  0.017035646    0.0160297          267 
 4174000   0.58384096   -7.4550913    853.89135  0.017047823  0.016024662          385 
 4175000   0.57764216   -7.4725655    854.63604  0.017058604  0.016019625          399 
 4176000   0.57897061   -7.4648506    855.27264  0.017067222  0.016014585          431 
 4177000   0.56986726   -7.4782495    853.74668  0.017032692   0.01600955          310 
 4178000   0.58112858   -7.4679112    853.93489   0.01703237   0.01600451          143 
 4179000   0.57367156   -7.4628029    853.84734  0.017026548  0.015999468          242 
 4180000   0.58831303   -7.4611928    852.70419  0.016999685  0.015994419          327 
 4181000   0.58582186   -7.4728227    851.61344  0.016973879  0.015989375          354 
 4182000   0.59258363   -7.4513643    852.70456  0.016991562  0.015984338          500 
 4183000    0.5990126   -7.4701261    853.79881    0.0170093    0.0159793          450 
 4184000   0.57933209   -7.4714612    853.14896  0.016992291  0.015974255          350 
 4185000   0.58310197   -7.4946983    852.13177  0.016967976  0.015969222          350 
 4186000    0.5841734   -7.4512018    853.13304  0.016983856  0.015964181          442 
 4187000   0.57424639   -7.4707802    852.26352  0.016962493  0.015959152          476 
 4188000   0.57380581   -7.4859627    853.07393  0.016974569  0.015954129          138 
 4189000   0.59048603   -7.4596172    855.16554  0.017012126  0.015949107          363 
 4190000   0.58156857   -7.4669503    854.25724  0.016990001  0.015944087          485 
 4191000   0.58309385   -7.4782981    854.54243  0.016991617  0.015939064          485 
 4192000   0.58633698   -7.4672363    852.11714  0.016939351   0.01593404          425 
 4193000   0.59272539   -7.4804249    852.40916  0.016941115   0.01592902          522 
 4194000   0.57237532   -7.4799693    853.31396  0.016955054  0.015923992          530 
 4195000   0.58831698   -7.4728496    851.56205  0.016916211  0.015918974          534 
 4196000   0.58197497   -7.4433399    853.23458  0.016945396  0.015913957          449 
 4197000   0.58444609   -7.4864961    852.65307  0.016929812  0.015908943          610 
 4198000   0.59557649   -7.4763475    854.30174  0.016958507  0.015903925          464 
 4199000   0.58240547   -7.4519802      853.993  0.016948341  0.015898916          406 
 4200000   0.57964273   -7.4579047     852.8867  0.016922355  0.015893909          326 
 4201000   0.58565046   -7.4712313    852.76146  0.016915843  0.015888897          403 
 4202000   0.58242854   -7.4576136    853.48001  0.016926067  0.015883889          560 
 4203000   0.57261665   -7.4810763    852.72785  0.016907127  0.015878878          604 
 4204000   0.56157612   -7.4873957     851.8348  0.016885403   0.01587387          646 
 4205000   0.58369809    -7.477785    853.08104  0.016906085  0.015868859          596 
 4206000   0.58591055   -7.4852589    853.68213  0.016913975  0.015863855          604 
 4207000   0.58585398   -7.4665679    853.19428  0.016900291  0.015858856          566 
 4208000   0.59621045    -7.482739    852.13476  0.016875292  0.015853858          495 
 4209000   0.58883962   -7.4749895    853.40512  0.016896435  0.015848861          383 
 4210000   0.57651601   -7.4732306    852.33697  0.016871278   0.01584386          592 
 4211000   0.58164888   -7.4523127    853.00648  0.016880521  0.015838866          554 
 4212000   0.58367864   -7.4770859    853.95382  0.016895256  0.015833876          476 
 4213000   0.57720567    -7.467714    852.57846  0.016864041  0.015828887          540 
 4214000    0.5780678   -7.4679836     853.4705   0.01687768  0.015823893          142 
 4215000   0.57379921   -7.4689121     854.0087  0.016884316  0.015818913          531 
 4216000   0.57139399   -7.4753242    853.08917  0.016862136  0.015813931          504 
 4217000    0.5774182   -7.4825028    851.97852  0.016836189  0.015808946          661 
 4218000   0.57323786    -7.478539    852.95119  0.016851414   0.01580396          632 
 4219000   0.57561597   -7.4868037    851.66358  0.016821988  0.015798971          551 
 4220000   0.57914209   -7.4651552     852.9281  0.016842972   0.01579399          606 
 4221000   0.57474018   -7.4624581    852.56014  0.016831717  0.015789013          567 
 4222000   0.58905205   -7.4763226    852.28358  0.016822272  0.015784042          318 
 4223000   0.57652058   -7.5016421    853.45067  0.016841319  0.015779068          313 
 4224000   0.57734711   -7.4862536    851.84897  0.016805732  0.015774091          305 
 4225000   0.56696979   -7.5010296    852.99043  0.016824269  0.015769115          343 
 4226000   0.57917797   -7.4825851    850.63104  0.016773762  0.015764138          387 
 4227000    0.5682262   -7.4891583      853.065  0.016817779  0.015759156          413 
 4228000   0.56536417    -7.477461    852.51425  0.016802946  0.015754182          662 
 4229000   0.57240202   -7.4880991    853.08352   0.01681019   0.01574921          585 
 4230000   0.56860908    -7.501398    851.78867  0.016780707  0.015744237          299 
 4231000   0.57329412   -7.4934716    854.27018  0.016825616  0.015739257          559 
 4232000    0.5871413   -7.5040241    852.36864  0.016784197  0.015734281          409 
 4233000   0.57684788   -7.4860228    853.38957   0.01680033  0.015729306          582 
 4234000    0.5859661   -7.4887525    852.90324   0.01678679  0.015724337          244 
 4235000   0.57063347   -7.4935607    852.77344  0.016780272  0.015719366          546 
 4236000   0.57456788   -7.4981411    852.54257  0.016771769  0.015714394          475 
 4237000   0.57386676   -7.4802772    851.87255  0.016754633  0.015709425          367 
 4238000   0.56980911   -7.4952122     853.4213  0.016781133   0.01570447          326 
 4239000   0.57142566      -7.4837     852.9342  0.016767599  0.015699507          419 
 4240000   0.56722675   -7.5086691    853.58352  0.016776406  0.015694541          549 
 4241000   0.57406597   -7.4965735    852.56299  0.016752397  0.015689573          571 
 4242000   0.58986599   -7.4844693    851.86756  0.016734786  0.015684611          602 
 4243000    0.5705637   -7.4894881    851.49311  0.016723488  0.015679641          584 
 4244000   0.56502802   -7.5046196    852.99051   0.01674895   0.01567468          324 
 4245000   0.57689493   -7.4965785    852.12897  0.016728091  0.015669718          598 
 4246000   0.57101297    -7.492273    851.01496  0.016702288  0.015664755          528 
 4247000   0.57347196   -7.5025607     851.0641  0.016699319  0.015659791          612 
 4248000   0.57502201    -7.492546    851.69106  0.016707687   0.01565483          600 
 4249000     0.575098   -7.4952478    851.41015  0.016698246  0.015649876          647 
 4250000   0.57172963   -7.4852707    852.85754  0.016722697  0.015644918          628 
 4251000   0.56531982   -7.4996184    851.43748  0.016690925  0.015639964          632 
 4252000   0.57009004   -7.5017502    851.14899  0.016681346  0.015635009          520 
 4253000   0.59077359   -7.5032281    850.82724  0.016671119  0.015630053          349 
 4254000   0.57625634   -7.5004266    850.85912  0.016667825  0.015625101          516 
 4255000   0.56301994   -7.4912119    850.59967  0.016658826   0.01562015          616 
 4256000   0.55920901   -7.4927599     852.9542  0.016701014  0.015615194          587 
 4257000   0.58876592   -7.5042954    853.07181  0.016699393  0.015610247          609 
 4258000   0.58202565   -7.5096948    850.95607  0.016654064  0.015605297          584 
 4259000   0.57321206   -7.5267029    851.61012  0.016662951  0.015600348          612 
 4260000    0.5722324    -7.504559    852.42819  0.016675043  0.015595403          657 
 4261000   0.56316453   -7.4972381    852.15751  0.016665836  0.015590458          560 
 4262000   0.57332745   -7.5012948    851.73372  0.016653639   0.01558552          667 
 4263000    0.5604837   -7.5145416    852.87129   0.01667197  0.015580582          643 
 4264000    0.5677339   -7.5042865    851.23264  0.016636035  0.015575641          284 
 4265000   0.56243572   -7.4915063    852.98615  0.016666396  0.015570704          525 
 4266000   0.56895863    -7.511087    851.83846   0.01664007  0.015565776          564 
 4267000   0.57450101   -7.5046827     851.6888  0.016633247  0.015560842          672 
 4268000   0.56825819   -7.5028882    850.44847  0.016605133  0.015555902          633 
 4269000   0.57072891   -7.5066693    851.31496  0.016618157  0.015550963          666 
 4270000   0.56432843   -7.5314377    852.28898  0.016633274  0.015546026          570 
 4271000   0.56966203   -7.4862477     851.6705  0.016617313   0.01554109          638 
 4272000   0.56530638    -7.510928    850.15632  0.016583886  0.015536161          634 
 4273000   0.57560119    -7.509877    851.05604  0.016597551  0.015531229          728 
 4274000   0.58500742   -7.5108834    851.28896  0.016598209  0.015526302          706 
 4275000   0.57376334   -7.4668174    850.90367  0.016586816  0.015521386          554 
 4276000   0.57090213   -7.5092604    850.96054  0.016584045   0.01551646          671 
 4277000   0.57235334   -7.5040861    851.54269  0.016591511  0.015511533          763 
 4278000   0.56825166   -7.4912509    850.80805  0.016573322  0.015506601          708 
 4279000   0.55236384   -7.5042153    850.96295  0.016572465  0.015501675          740 
 4280000   0.56795893   -7.5172137    852.76002  0.016603583  0.015496754          728 
 4281000   0.57355067   -7.5001111    850.73788  0.016560342  0.015491831          731 
 4282000   0.57194111   -7.5061192    850.94288  0.016560464  0.015486916          718 
 4283000   0.56105975   -7.5015486    851.38288  0.016565158  0.015482003          736 
 4284000   0.57393022    -7.517299    851.37175  0.016561075  0.015477094          732 
 4285000   0.57777357   -7.5197366    851.36983  0.016557173  0.015472184          800 
 4286000   0.58034186   -7.5026061    852.55386  0.016576331  0.015467281          717 
 4287000   0.56899677   -7.5035586    851.92689  0.016560277  0.015462375          698 
 4288000   0.56473774   -7.4978767    851.00581  0.016538515  0.015457477          676 
 4289000   0.57440965   -7.5230659    852.82266  0.016569959  0.015452589          673 
 4290000   0.55699328   -7.5038942    849.61072  0.016503705  0.015447699          683 
 4291000   0.57259235   -7.4990723     850.6981  0.016520976  0.015442806          763 
 4292000   0.56587619   -7.5077446    850.20637  0.016507579  0.015437912          545 
 4293000   0.58022666   -7.5093975    852.20151  0.016542463  0.015433029          773 
 4294000   0.57997228   -7.4965673    852.27179  0.016539974   0.01542814          348 
 4295000   0.55817482   -7.5157222      850.799  0.016507548  0.015423254          676 
 4296000   0.57858786   -7.5371117    850.30034  0.016494032  0.015418372          811 
 4297000   0.57112645   -7.4981165     851.8978  0.016521174  0.015413483          766 
 4298000   0.57789028   -7.5179638    851.10369  0.016501933  0.015408598          704 
 4299000    0.5690579   -7.5267733    851.10029  0.016498028  0.015403716          735 
 4300000   0.55985163   -7.5188129    851.00445  0.016492334  0.015398844          762 
 4301000   0.56988699   -7.5012723    852.10661  0.016509854   0.01539397          736 
 4302000   0.56412632   -7.5064793    851.38394  0.016492018  0.015389098          728 
 4303000   0.56618925   -7.5228368    853.34712  0.016526205  0.015384224          750 
 4304000   0.56550522   -7.5082413    850.65925  0.016470323  0.015379359          539 
 4305000    0.5535888   -7.4916544    852.58141  0.016503705  0.015374492          689 
 4306000   0.55911574   -7.5042662     851.7695   0.01648416  0.015369629          738 
 4307000   0.56336824   -7.5085276    852.62099  0.016496807  0.015364769          722 
 4308000   0.55470368   -7.5186541    852.35651  0.016487862  0.015359905          720 
 4309000   0.55085021   -7.5218445    852.08222  0.016478731  0.015355046          652 
 4310000   0.56390012   -7.5292583    850.81867  0.016450477  0.015350189          732 
 4311000   0.55549761   -7.5098729    851.17735  0.016453595  0.015345324          713 
 4312000    0.5685271   -7.5116607    850.68071  0.016440181  0.015340458          705 
 4313000   0.54786266   -7.5038951    851.53643  0.016452903  0.015335598          758 
 4314000   0.55506976   -7.5094338    852.78201   0.01647315  0.015330735          742 
 4315000   0.57012057   -7.5298557    852.12987  0.016456738  0.015325873          806 
 4316000   0.56177276   -7.5312057    852.16214  0.016453548  0.015321014          536 
 4317000   0.54793117     -7.53685    851.85717  0.016443849  0.015316155          765 
 4318000   0.55977308    -7.514824    850.74404  0.016418559    0.0153113          672 
 4319000   0.56246755   -7.5360197    852.26628  0.016444128  0.015306445          776 
 4320000   0.56995201   -7.5138464    851.54484  0.016426405  0.015301595          756 
 4321000   0.56749341   -7.5253753    849.81598  0.016389261  0.015296751          700 
 4322000   0.56386711   -7.5310904    851.51639  0.016418255    0.0152919          749 
 4323000   0.56391031   -7.5382075    851.46001   0.01641337  0.015287056          727 
 4324000   0.53810069   -7.5071686    851.95158  0.016419048  0.015282213          676 
 4325000   0.56232647     -7.53162    851.36975  0.016404041  0.015277367          767 
 4326000   0.56000996   -7.5175743    850.92327  0.016391649  0.015272527          758 
 4327000   0.56661739   -7.5169682    851.10985  0.016391454  0.015267687          503 
 4328000   0.56757186   -7.5242051    852.91254  0.016422376   0.01526285          720 
 4329000   0.55565388   -7.5253585    850.79411  0.016377803  0.015258012          705 
 4330000   0.55995191   -7.5173213     850.9855  0.016377704  0.015253172          757 
 4331000    0.5558117    -7.536649    851.89649  0.016391451  0.015248336          777 
 4332000   0.55905072    -7.513776    851.55655  0.016381128  0.015243502          622 
 4333000   0.56370882   -7.5210889    852.44692  0.016394471  0.015238678          685 
 4334000   0.55649667    -7.520337    852.27114  0.016387309  0.015233854          685 
 4335000   0.56427633   -7.5146539    850.61555  0.016351702  0.015229031          691 
 4336000   0.55464505   -7.5035831    851.35437   0.01636213  0.015224212          499 
 4337000   0.55538779    -7.526689    850.23895  0.016336925   0.01521939          712 
 4338000   0.55963789   -7.5334494    851.77328  0.016362634   0.01521457          383 
 4339000   0.56130605   -7.5129797    850.11698  0.016327053   0.01520975          550 
 4340000    0.5741701   -7.5195983    851.09017  0.016341977  0.015204928          762 
 4341000     0.546027     -7.51524    850.68174  0.016330372  0.015200105          733 
 4342000   0.56007952   -7.5466618    851.95315  0.016351012  0.015195287          704 
 4343000   0.55842278   -7.5262642    851.20367  0.016332867   0.01519047          680 
 4344000   0.55591903   -7.5266387    850.67203  0.016318908  0.015185656          581 
 4345000   0.55350355    -7.519406    849.88189  0.016299998  0.015180843          730 
 4346000   0.56960976   -7.5222031    850.32968  0.016304834  0.015176026          709 
 4347000   0.55297086   -7.5398032    850.38907  0.016302221  0.015171214          581 
 4348000   0.55556808   -7.5226909    849.72703  0.016285783  0.015166394          687 
 4349000   0.56872128   -7.5431327    851.29805  0.016312142  0.015161581          776 
 4350000   0.54330013   -7.5147977     851.3872    0.0163101  0.015156769          703 
 4351000   0.55640838   -7.5382191     850.4024  0.016287489  0.015151956          590 
 4352000   0.54948755   -7.5213484    850.29203  0.016281633  0.015147147          780 
 4353000   0.55087509   -7.5462353    850.13522  0.016274891   0.01514234          777 
 4354000   0.54330544   -7.5452445    850.98242  0.016287368  0.015137534          710 
 4355000   0.56075695   -7.5212919    850.25036   0.01626962  0.015132732          771 
 4356000   0.55051066   -7.5421112    851.31027  0.016286162   0.01512793          775 
 4357000   0.55959259   -7.5206864     851.1181  0.016278749  0.015123133          709 
 4358000   0.56651235   -7.5243119    851.19147  0.016276416   0.01511833          782 
 4359000   0.56098785   -7.5616278    851.59704  0.016280436   0.01511353          619 
 4360000   0.55884839   -7.5249677    848.94604  0.016226033  0.015108732          808 
 4361000   0.55447304   -7.5390718     850.2889  0.016247973  0.015103929          692 
 4362000   0.55635666   -7.5383395     850.1471  0.016241539  0.015099131          531 
 4363000   0.55275264   -7.5438397     849.1652  0.016219062  0.015094328          722 
 4364000   0.54852286   -7.5303029     849.6694  0.016224973  0.015089534          518 
 4365000   0.54771344   -7.5436157    850.38073  0.016234836  0.015084741          756 
 4366000   0.54373478   -7.5554479    850.19677  0.016227607  0.015079945          562 
 4367000   0.57175839    -7.539493    848.80046  0.016197246   0.01507515          578 
 4368000   0.55746418    -7.553815    850.86662  0.016232956  0.015070363          789 
 4369000   0.55221645   -7.5388323    850.81336  0.016228225  0.015065577          531 
 4370000   0.55299843   -7.5410978    849.82294  0.016205624  0.015060789          817 
 4371000   0.56516015   -7.5514005    850.38322  0.016212599  0.015055999          825 
 4372000   0.54465253   -7.5482964    849.72109   0.01619627   0.01505121          530 
 4373000   0.56395152   -7.5413766    849.63422  0.016190911  0.015046423          743 
 4374000   0.55598426   -7.5261483    849.08156   0.01617668   0.01504164          760 
 4375000   0.55867239   -7.5341611    850.58126  0.016201548   0.01503686          706 
 4376000   0.55041397    -7.551088    849.72896  0.016181615  0.015032081          769 
 4377000   0.56307943   -7.5354745    850.24834  0.016187806  0.015027303          745 
 4378000   0.56438197   -7.5232362    849.77258  0.016175053   0.01502253          798 
 4379000   0.54926034   -7.5419489    849.85627  0.016172952  0.015017756          734 
 4380000   0.54118792   -7.5444847     850.8759  0.016188659  0.015012986          724 
 4381000   0.55086426   -7.5445881    848.97823  0.016148867  0.015008219          690 
 4382000   0.54762499      -7.5241    848.79521  0.016141701  0.015003452          732 
 4383000   0.55333272   -7.5568866    850.58474  0.016172042  0.014998684          800 
 4384000   0.54638543   -7.5395223    849.82663  0.016153943  0.014993923          748 
 4385000   0.55737697   -7.5408343    851.09535   0.01617437  0.014989157          753 
 4386000   0.54659836     -7.53461    850.88691  0.016166722  0.014984393          766 
 4387000   0.55541347   -7.5483951    849.90014  0.016144293  0.014979633          803 
 4388000   0.54971936   -7.5473341    849.73249   0.01613743   0.01497487          754 
 4389000   0.54222449   -7.5374767    850.76979  0.016153448  0.014970109          802 
 4390000   0.54785352   -7.5395585    850.20818  0.016139108  0.014965341          737 
 4391000   0.54064483   -7.5410266    849.97206  0.016130951  0.014960581          799 
 4392000   0.54702967   -7.5648339    849.38395  0.016116119  0.014955823          751 
 4393000   0.54044766   -7.5462274    849.64437  0.016117391  0.014951064          815 
 4394000   0.55884975   -7.5510131    850.58292  0.016131522  0.014946311          758 
 4395000   0.54322931   -7.5259155    850.56625  0.016127536   0.01494156          779 
 4396000   0.55452166   -7.5403485    851.24658  0.016136764  0.014936813          771 
 4397000   0.54324601    -7.541704    850.08469  0.016111074  0.014932066          736 
 4398000   0.54995032   -7.5355718    849.35192  0.016093526  0.014927329          803 
 4399000   0.54040713   -7.5573222    848.83573  0.016080089  0.014922586          748 
 4400000   0.54436931   -7.5505766    849.30949  0.016085407  0.014917848          721 
 4401000   0.54351486   -7.5613479    850.81711  0.016110299  0.014913106          786 
 4402000   0.53410424   -7.5610989    850.67438  0.016103937  0.014908366          805 
 4403000   0.54365974   -7.5426102    849.32672  0.016074773   0.01490363          771 
 4404000   0.55260887   -7.5590415     848.7875   0.01606092  0.014898893          767 
 4405000   0.55609018   -7.5446291    848.12636  0.016044766  0.014894151          785 
 4406000   0.52940701   -7.5613138    849.97415  0.016076073  0.014889415          783 
 4407000   0.54222235   -7.5411683    849.74619  0.016068115  0.014884676          681 
 4408000   0.55103264   -7.5400826    851.19964  0.016091947  0.014879942          584 
 4409000   0.53804387   -7.5512509    849.15761  0.016049701  0.014875206          775 
 4410000   0.54960692   -7.5535403    849.36014  0.016049889  0.014870472          823 
 4411000   0.54696393    -7.559489    850.30293  0.016064062  0.014865741          758 
 4412000   0.54236783   -7.5637636    849.80868  0.016051086  0.014861014          799 
 4413000   0.55153711   -7.5582359     849.4124  0.016039965  0.014856291          766 
 4414000   0.55664438   -7.5617197    849.32644  0.016034708  0.014851573          829 
 4415000   0.53847592   -7.5548088    850.48734  0.016052989  0.014846851          844 
 4416000     0.539372   -7.5377434    849.09357  0.016023052  0.014842133          789 
 4417000   0.53872944    -7.558007    849.12267  0.016019973   0.01483741          814 
 4418000   0.54334079   -7.5601733    849.54853   0.01602438  0.014832694          771 
 4419000   0.55017574   -7.5433842    849.71206  0.016023838  0.014827974          819 
 4420000   0.54269024   -7.5564793    849.65344  0.016019107   0.01482326          756 
 4421000   0.52857372   -7.5443207    848.79746  0.015999349  0.014818544          780 
 4422000   0.54579367   -7.5738271    849.81538  0.016014914  0.014813831          775 
 4423000    0.5470602   -7.5661518    849.48919  0.016005147  0.014809118          761 
 4424000   0.54060983    -7.574225    848.47889  0.015982499  0.014804404          789 
 4425000   0.54379492   -7.5635826    849.79487   0.01600367  0.014799689          770 
 4426000   0.54135471   -7.5504085    849.42405  0.015993072  0.014794983          689 
 4427000   0.52964754   -7.5512582    848.91768  0.015979928   0.01479028          725 
 4428000   0.55533643   -7.5689155    849.25437  0.015982655  0.014785573          708 
 4429000   0.54174711   -7.5506341     849.6681  0.015986831  0.014780873          760 
 4430000   0.55130365    -7.530261    848.92923  0.015969323  0.014776173          691 
 4431000   0.54069499   -7.5685821    849.71399  0.015980478  0.014771472          873 
 4432000   0.53009943   -7.5758535    847.85615   0.01594194  0.014766769          805 
 4433000   0.54346526    -7.575173    848.86521  0.015957313  0.014762066          708 
 4434000   0.54553399   -7.5511476     848.6719  0.015950081  0.014757366          795 
 4435000   0.54905578   -7.5752855    849.46353  0.015961359  0.014752671          816 
 4436000   0.53538336   -7.5761166    849.44904  0.015957489  0.014747977          818 
 4437000   0.54789926   -7.5811004    849.05275  0.015946449   0.01474328          842 
 4438000   0.53870792   -7.5602324    848.74392  0.015937057  0.014738584          842 
 4439000   0.53420914   -7.5599709    848.12397  0.015921829  0.014733894          835 
 4440000   0.54229652   -7.5551255    846.98858  0.015896933  0.014729202          877 
 4441000   0.54326874   -7.5769434    849.71867  0.015944582   0.01472452          849 
 4442000   0.53374916    -7.566975    849.05301  0.015928505  0.014719837          764 
 4443000   0.53487735    -7.558099    849.59068  0.015935004  0.014715159          847 
 4444000   0.54399496   -7.5742726    849.50789  0.015929866  0.014710476          860 
 4445000   0.53300407   -7.5669733    848.97942  0.015916375  0.014705793          880 
 4446000   0.54063485   -7.5747567    850.04575  0.015932781  0.014701112          849 
 4447000   0.53092376   -7.5674723    848.92946   0.01590828  0.014696431          834 
 4448000   0.53679078   -7.5760011    848.84371  0.015903097  0.014691754          951 
 4449000   0.52400446   -7.5615851    847.60196  0.015876264  0.014687076          918 
 4450000   0.53541816    -7.590321    849.19157  0.015902464  0.014682405          909 
 4451000    0.5392075   -7.5630036    847.49965  0.015867214  0.014677728          888 
 4452000   0.53904749   -7.5820685    849.46098  0.015900363  0.014673056          910 
 4453000   0.54871729   -7.5790199    848.54481  0.015879647  0.014668389          893 
 4454000   0.53486829   -7.5584608    848.81968  0.015881224  0.014663726          896 
 4455000   0.56074709   -7.5726633     849.2017  0.015884806  0.014659061          917 
 4456000   0.52731295   -7.5849502    849.19147  0.015881049  0.014654401          888 
 4457000   0.53594228   -7.5564199    848.34197  0.015861603  0.014649742          883 
 4458000   0.53687478   -7.5744721    847.78918  0.015847712  0.014645077          899 
 4459000   0.54755671   -7.5741272    848.47612  0.015856995  0.014640413          839 
 4460000   0.53431832   -7.5708398    849.90338  0.015880108  0.014635759          847 
 4461000   0.52734832   -7.5731179    848.13421  0.015843499    0.0146311          811 
 4462000   0.54485792   -7.5701145    847.65071  0.015830919   0.01462645          902 
 4463000   0.55002258    -7.575067    847.65989  0.015827543  0.014621795          913 
 4464000   0.53994761   -7.5773066    848.71722  0.015843735   0.01461714          853 
 4465000   0.52953701   -7.5949369    847.83422  0.015823707  0.014612493          856 
 4466000   0.53538632   -7.5667349     849.7303  0.015855544  0.014607844          926 
 4467000   0.53910908   -7.5566927    849.55796  0.015848779  0.014603195          798 
 4468000   0.53803595   -7.5660797    849.18657  0.015838305  0.014598555          862 
 4469000   0.54600587   -7.5700774    846.85742  0.015791329  0.014593911          914 
 4470000    0.5449734   -7.5774036    849.16516   0.01583082  0.014589269          846 
 4471000   0.53629407   -7.5843176    848.18871  0.015809079  0.014584631          922 
 4472000   0.52739426   -7.5657031    847.74945  0.015797358  0.014579993          919 
 4473000   0.54382905   -7.5683453    849.80652  0.015832151  0.014575352          934 
 4474000    0.5333164   -7.5774124    849.16768  0.015816713  0.014570718          871 
 4475000   0.53019246   -7.5828911    848.75847  0.015805558  0.014566086          889 
 4476000   0.52757407   -7.5627262    849.16802  0.015809652  0.014561455          929 
 4477000   0.54017752   -7.5751357    851.16099  0.015843217  0.014556824          913 
 4478000   0.52760247   -7.5828756    849.06911   0.01580075    0.0145522          900 
 4479000   0.53394607   -7.5871633    849.20139  0.015799684  0.014547578          879 
 4480000   0.53960004   -7.5750487    849.70684  0.015805559  0.014542961          808 
 4481000    0.5235621   -7.5750144     849.6321  0.015800642  0.014538345          864 
 4482000   0.52751448    -7.574628    849.31117  0.015791149  0.014533734          923 
 4483000   0.52714625   -7.5814279    849.21857  0.015785905  0.014529117          918 
 4484000   0.52414291   -7.5768807    849.39709  0.015785703  0.014524498          930 
 4485000   0.53419592   -7.5861263    847.53171  0.015747523  0.014519885          919 
 4486000    0.5311067   -7.5678558      848.734  0.015766347  0.014515269          925 
 4487000   0.53420144   -7.5771618    848.10855  0.015751217  0.014510658          924 
 4488000   0.53578822   -7.5654418    849.94307  0.015781771  0.014506054          818 
 4489000   0.52355979   -7.5671468    847.52932  0.015733447  0.014501451          835 
 4490000   0.53095962   -7.5622813    849.85612  0.015773128  0.014496845          863 
 4491000   0.52372591   -7.5735478    849.48293  0.015762691  0.014492247          884 
 4492000   0.53363905   -7.5616298    847.52441  0.015722848  0.014487642          895 
 4493000   0.53935446   -7.5911209    849.01033  0.015746909  0.014483042          898 
 4494000   0.52734966   -7.5779606    847.73358   0.01571973  0.014478443          935 
 4495000    0.5314127   -7.5810084    848.61441  0.015732562  0.014473842          909 
 4496000   0.53627333   -7.5923934     849.7612  0.015750319  0.014469247          881 
 4497000   0.51773769   -7.5905087    848.62825  0.015725822  0.014464652          816 
 4498000   0.53368945   -7.5911648    846.97124  0.015691627  0.014460056          936 
 4499000    0.5367335   -7.5784619    850.02912  0.015744779  0.014455467          910 
 4500000   0.53033244   -7.5772539    848.09479  0.015705459  0.014450876          957 
 4501000    0.5357976   -7.5782059    847.61888  0.015693159   0.01444629          923 
 4502000   0.53529002   -7.5774339    847.37146  0.015685093  0.014441702          917 
 4503000   0.52876984   -7.5949598    847.54716  0.015684861  0.014437116          877 
 4504000   0.52704982   -7.5914003    847.45988  0.015679764  0.014432519          920 
 4505000    0.5405122   -7.5922781    847.94372  0.015685233  0.014427929          877 
 4506000   0.52155571   -7.5730054    848.14387  0.015685454  0.014423344          908 
 4507000   0.54204612   -7.5868592    849.83519  0.015713246   0.01441876          857 
 4508000   0.53163825   -7.5859749    849.21438  0.015698284   0.01441418          905 
 4509000   0.53734997    -7.585824    847.74906  0.015667721  0.014409599          902 
 4510000   0.53761615   -7.5629545    848.21911  0.015672933  0.014405026          898 
 4511000   0.51451542    -7.576486    847.97241  0.015664901  0.014400453          850 
 4512000   0.52056375   -7.5832903    849.14385  0.015683065  0.014395876          876 
 4513000   0.52550582   -7.5944738    848.43727  0.015666542  0.014391305          915 
 4514000   0.52697076   -7.5865152    848.10196  0.015656881  0.014386742          889 
 4515000   0.52563879   -7.5749326    849.66447  0.015682253  0.014382174          902 
 4516000   0.52440567   -7.5959474    848.75867  0.015662066  0.014377613          868 
 4517000   0.52422512   -7.5915425    847.76995  0.015640358  0.014373046          879 
 4518000    0.5288661   -7.5830861    848.11882  0.015643331  0.014368482          873 
 4519000   0.52738268   -7.5789642    848.15974  0.015640624  0.014363921          838 
 4520000   0.54155208   -7.6013542    848.39456  0.015641493  0.014359362          855 
 4521000   0.52085417   -7.5783024      848.349  0.015637193  0.014354804          832 
 4522000   0.53851698   -7.5954604    847.07528  0.015610262   0.01435025          858 
 4523000   0.52361871   -7.5897342    848.19223   0.01562739  0.014345696          862 
 4524000    0.5121827   -7.5707929    848.31406   0.01562618  0.014341145          824 
 4525000   0.54303917   -7.5900253    849.60539  0.015646508  0.014336595          824 
 4526000    0.5265329   -7.5894875    847.15651  0.015597962  0.014332046          907 
 4527000   0.52474392   -7.5909991    848.10925  0.015612054  0.014327498          882 
 4528000   0.52155492    -7.592344    848.28471  0.015611836  0.014322948          872 
 4529000   0.52981854   -7.5919281    847.52341  0.015594381  0.014318402          868 
 4530000   0.51878694   -7.5878242    848.10307  0.015601602  0.014313855          916 
 4531000   0.52237921   -7.5971139    849.41728  0.015622329  0.014309311          911 
 4532000   0.52577942   -7.6120781    847.74951  0.015588215  0.014304769          837 
 4533000   0.51669378   -7.6033567     848.3189  0.015595244  0.014300227          870 
 4534000   0.52774036   -7.5949801    848.50997  0.015595316  0.014295685          880 
 4535000   0.51648922   -7.5947684    847.69371  0.015576878  0.014291144          842 
 4536000   0.53272688   -7.6036096     847.3225  0.015566624  0.014286609          926 
 4537000   0.53568743   -7.5905739    848.16271  0.015578626  0.014282072          823 
 4538000   0.51947374   -7.6005572    848.15584  0.015575067  0.014277542          900 
 4539000    0.5274495   -7.5966932    847.86683  0.015566329  0.014273006          904 
 4540000   0.52972983   -7.6045585    848.52671  0.015575013   0.01426848          836 
 4541000   0.53243418   -7.6065614    848.18824  0.015565372  0.014263948          898 
 4542000   0.53085581   -7.5875179    847.88914  0.015556457  0.014259418          916 
 4543000   0.51585192   -7.5917465    846.61667  0.015529692  0.014254892          888 
 4544000   0.52153585   -7.6018231    848.75232   0.01556544  0.014250368          892 
 4545000   0.53896321   -7.5865908    849.45685  0.015574933  0.014245846          947 
 4546000    0.5247656   -7.6060235    849.82166  0.015578194  0.014241328          869 
 4547000   0.52189332   -7.6103809    847.25717  0.015527769  0.014236808          881 
 4548000   0.53010224   -7.6042902    847.94507  0.015536959  0.014232288          900 
 4549000   0.52923537   -7.6051776    847.73425  0.015529681  0.014227767          876 
 4550000   0.51578994   -7.5855433    847.31773   0.01551864  0.014223255          837 
 4551000    0.5182502   -7.6056811    847.76009   0.01552333   0.01421874          836 
 4552000   0.52472216   -7.5915091    848.25175  0.015528921  0.014214229          880 
 4553000   0.52799095    -7.591064      848.823  0.015535965  0.014209724          843 
 4554000   0.53297264   -7.5967477    846.80408   0.01549561  0.014205222          851 
 4555000    0.5192977   -7.6070219    847.46411  0.015504283  0.014200715          849 
 4556000   0.52335236   -7.5967717     848.2469  0.015515198  0.014196214          807 
 4557000   0.53134022   -7.6142021    847.16704  0.015492046  0.014191711          850 
 4558000   0.52246571   -7.5968125    847.22172  0.015489647   0.01418721          856 
 4559000   0.51781973   -7.5846804    847.97485  0.015500015  0.014182714          835 
 4560000   0.53426102   -7.6139101    847.77242  0.015492917  0.014178215          829 
 4561000   0.51879383   -7.5900668    847.95521   0.01549286  0.014173723          861 
 4562000   0.51185665   -7.5941829    848.17883  0.015493549  0.014169234          825 
 4563000   0.52747548   -7.5944465    848.27993     0.015492  0.014164745          798 
 4564000   0.52688355   -7.5818076    847.80898  0.015480006  0.014160257          846 
 4565000   0.51536635    -7.590995    847.92764  0.015478781  0.014155768          856 
 4566000    0.5189237   -7.6062286    848.17083   0.01547983  0.014151281          805 
 4567000   0.51936883   -7.6053009     847.5553  0.015465209  0.014146794          858 
 4568000   0.51439968   -7.6004543    849.45829  0.015496539   0.01414231          816 
 4569000   0.53318462   -7.6030897    848.87468  0.015482503  0.014137832          891 
 4570000   0.51368373   -7.6028118    848.55997  0.015473376  0.014133358          874 
 4571000   0.51834526    -7.599638    848.64009  0.015471452  0.014128879          833 
 4572000   0.50955159   -7.6242326    848.60621  0.015467451    0.0141244          924 
 4573000   0.51873078   -7.6004177    847.51338  0.015444154  0.014119921          895 
 4574000   0.51144268   -7.5948527    848.70059  0.015462407  0.014115451          889 
 4575000   0.51170379   -7.6041814    849.79272   0.01547892   0.01411098          871 
 4576000   0.51965866   -7.5957968    847.80882  0.015439409  0.014106514          865 
 4577000   0.51369875   -7.6157851    847.79422   0.01543577  0.014102047          913 
 4578000    0.5175589   -7.6112408    848.31494  0.015441877  0.014097582          870 
 4579000   0.52317198   -7.5963307    848.74361  0.015446306  0.014093119          941 
 4580000   0.51551319   -7.6225947     848.2326  0.015433635  0.014088659          890 
 4581000   0.51095971   -7.6146145    848.16868  0.015429104  0.014084195          853 
 4582000   0.52206403   -7.5947355    848.49314  0.015431637  0.014079733          883 
 4583000   0.51459207   -7.6234039    848.33114  0.015425324  0.014075277          927 
 4584000   0.50981643   -7.5836829     847.8527  0.015413262  0.014070822          850 
 4585000   0.52713246   -7.6119708    846.97329  0.015393917  0.014066366          959 
 4586000   0.52137646   -7.6025118    848.25631  0.015413874  0.014061918          905 
 4587000   0.52991766   -7.5885706     848.2227  0.015409903  0.014057466          873 
 4588000   0.51470945   -7.5919986    848.68043  0.015414858  0.014053022          932 
 4589000    0.5193342   -7.5932794    848.96063  0.015416587  0.014048574          960 
 4590000   0.52130978   -7.6060794    847.21143  0.015381471  0.014044129          949 
 4591000   0.52013208    -7.611774    846.83029  0.015371203  0.014039684          891 
 4592000   0.51903175   -7.6182056    847.18373  0.015374269   0.01403524          951 
 4593000   0.50703532   -7.6085558    847.60217  0.015378514  0.014030797          892 
 4594000   0.52020978    -7.604907    846.95974  0.015363513  0.014026355          950 
 4595000   0.53735421   -7.6119922    846.85411  0.015358254  0.014021917          830 
 4596000   0.51910957   -7.5952319     847.5452  0.015367443  0.014017481          854 
 4597000   0.50813158   -7.5963628    846.77956  0.015350221  0.014013043          958 
 4598000   0.52072173   -7.6065019    847.81397  0.015365629  0.014008611          935 
 4599000   0.51726297   -7.6052909    847.78282  0.015361724  0.014004182          890 
 4600000   0.51028694   -7.5926776    846.35748  0.015332563  0.013999753          878 
 4601000    0.5173215   -7.6026978    847.20402  0.015344563  0.013995327          910 
 4602000   0.51681556   -7.6043124    848.72165   0.01536871  0.013990898          912 
 4603000   0.51970553     -7.60064     848.2441  0.015356726  0.013986474          868 
 4604000   0.52569681   -7.6116373    848.31035  0.015354589  0.013982046          852 
 4605000   0.50806995   -7.6099855    846.45286  0.015317641  0.013977627          915 
 4606000   0.51716751   -7.6161575    847.95673  0.015341524   0.01397321          833 
 4607000   0.51053011   -7.6047971    847.44898   0.01532901   0.01396879          895 
 4608000   0.51575058   -7.6222203    848.19618  0.015339196  0.013964372          926 
 4609000   0.50875488   -7.6165408    848.56056  0.015342456  0.013959955          869 
 4610000   0.50314027   -7.6003955    848.15017   0.01533171  0.013955545          902 
 4611000   0.51059868    -7.611722    846.49561  0.015298482  0.013951133          908 
 4612000   0.52547718   -7.6133536    846.81147  0.015300872  0.013946721          881 
 4613000   0.51487497   -7.6200303    846.57298  0.015293247  0.013942314          992 
 4614000   0.51320224   -7.6061676    849.15737  0.015336609  0.013937911          888 
 4615000   0.50406006    -7.606278    847.60288  0.015305216  0.013933505          950 
 4616000   0.50764942   -7.5987634    847.03122   0.01529158  0.013929099          951 
 4617000   0.51753183   -7.5990341    847.94694  0.015304796  0.013924697          881 
 4618000    0.5172624   -7.6148711    848.81608  0.015317166  0.013920294          936 
 4619000   0.50675277   -7.6242092    847.29446  0.015286398   0.01391589          932 
 4620000   0.51552242   -7.6163664    848.17151  0.015298909  0.013911487          902 
 4621000   0.51475343    -7.619222    847.43204  0.015282263  0.013907084          954 
 4622000   0.51299003    -7.602305    847.24245  0.015275538  0.013902684          920 
 4623000   0.51331675   -7.6086732    846.84958  0.015265152  0.013898282          912 
 4624000   0.51167786   -7.6235628    846.31713  0.015252255  0.013893884         1004 
 4625000   0.51184801   -7.6137791    846.87077  0.015258933   0.01388949          940 
 4626000   0.51074375   -7.6155416    848.04504  0.015276788    0.0138851          970 
 4627000   0.51246971   -7.6104963    846.61563  0.015247742  0.013880712          973 
 4628000   0.51194869   -7.6258629    848.50424  0.015278454  0.013876323          922 
 4629000   0.50890252    -7.608784    846.81342  0.015244715  0.013871936          896 
 4630000    0.5140049   -7.6159267    847.02355  0.015245204  0.013867551          825 
 4631000   0.50489265   -7.6128678    848.13822   0.01526197  0.013863166          895 
 4632000   0.51302641    -7.596759    847.35903  0.015244657  0.013858785          952 
 4633000   0.51883894   -7.6176587    847.98158  0.015252565  0.013854407          997 
 4634000    0.4984614   -7.6135116    847.43067  0.015239366  0.013850034          921 
 4635000    0.5157829   -7.6077722    847.19714  0.015231879  0.013845657          919 
 4636000   0.51488975   -7.6341995    847.31284  0.015230674  0.013841283          994 
 4637000   0.51145787   -7.6145149    846.98655  0.015221525  0.013836914          963 
 4638000   0.51304637   -7.6215467    846.29977  0.015205904  0.013832544          921 
 4639000   0.49556185    -7.612271    845.93061  0.015195994  0.013828174          932 
 4640000   0.48928092   -7.6387855     845.5302  0.015185528  0.013823805          945 
 4641000   0.51314489    -7.623069     847.2596  0.015213309  0.013819434          947 
 4642000   0.50972803   -7.6070765    846.82827  0.015202288  0.013815071          977 
 4643000   0.50417344   -7.6192032    847.53134  0.015211633   0.01381071          960 
 4644000   0.50348927   -7.6284025    847.69092  0.015211221  0.013806352         1005 
 4645000   0.50766842   -7.6173269    846.10816  0.015179551  0.013801992          947 
 4646000   0.50760233   -7.6296363    848.95192  0.015227291  0.013797632          954 
 4647000   0.51310654    -7.626574    846.61028  0.015182022  0.013793276          942 
 4648000   0.51707875   -7.6165542    848.09892  0.015205445  0.013788921          969 
 4649000   0.51663163    -7.611885    846.75157  0.015178023  0.013784567          954 
 4650000   0.50974646   -7.6284087    846.92325  0.015177836  0.013780208          957 
 4651000   0.50845414    -7.613446    847.46451  0.015184271  0.013775853          884 
 4652000   0.50586455   -7.6189591    846.54861    0.0151646  0.013771503          918 
 4653000   0.50583148   -7.6104056     845.5761  0.015143923  0.013767155          936 
 4654000   0.51028643   -7.6292355    847.87874    0.0151819  0.013762809          918 
 4655000   0.51039564   -7.6253196    847.41976  0.015170422  0.013758464          906 
 4656000   0.50812137   -7.6232497    847.16961  0.015162686  0.013754118          903 
 4657000   0.51803131   -7.6179964    846.02514  0.015138951  0.013749776          909 
 4658000   0.50579156   -7.6288351    847.63422  0.015164488  0.013745435          888 
 4659000   0.49721824   -7.6304148    846.48739   0.01514072  0.013741096          931 
 4660000   0.50433182   -7.6256306    847.12048  0.015148793  0.013736758          939 
 4661000   0.52346057   -7.6138589    845.79569  0.015121857  0.013732423          955 
 4662000   0.50458168   -7.6297425    847.26495  0.015144876  0.013728084          944 
 4663000   0.51164988   -7.6283815    847.41589  0.015144326  0.013723753          923 
 4664000   0.49860102   -7.6354236    847.67234  0.015145661  0.013719421          955 
 4665000   0.49646477   -7.6340307    847.27663  0.015135345  0.013715089          910 
 4666000   0.50200665    -7.626441    846.70199  0.015121839  0.013710755          941 
 4667000   0.49605625    -7.620018    846.95071   0.01512304  0.013706421          879 
 4668000   0.49837499   -7.6198228    847.89146  0.015136594  0.013702091          868 
 4669000   0.49834733   -7.6205135    847.01733  0.015117751   0.01369776          936 
 4670000   0.50309989   -7.6284414    846.85501  0.015111617  0.013693431          900 
 4671000   0.51137323   -7.6314186    846.58198  0.015103511  0.013689108          920 
 4672000    0.4970098   -7.6417893    846.78798  0.015103952  0.013684786          884 
 4673000   0.51584922   -7.6321421    847.95544  0.015121539  0.013680465          969 
 4674000   0.50211418   -7.6270927     846.5269  0.015092834  0.013676146          941 
 4675000   0.50525421    -7.639297       846.52  0.015089483   0.01367183          885 
 4676000   0.50062882    -7.636572     846.9593  0.015094085  0.013667514          947 
 4677000   0.50088297   -7.6343461    846.10215  0.015075585  0.013663201          898 
 4678000   0.51167855   -7.6210961     846.8592  0.015085849  0.013658891          918 
 4679000   0.49976283   -7.6261505    846.48812  0.015076016  0.013654571          904 
 4680000   0.50465597   -7.6110581    847.10647  0.015083805  0.013650262          898 
 4681000   0.50839269   -7.6300027    845.65145  0.015054679  0.013645955          950 
 4682000   0.50350089    -7.621739     845.7282   0.01505283  0.013641645          886 
 4683000   0.50264459   -7.6396313    847.21702  0.015076109  0.013637336          912 
 4684000   0.49465607   -7.6403153    847.51203  0.015078139  0.013633033          849 
 4685000   0.51216904   -7.6294025       846.52  0.015057275  0.013628727          946 
 4686000    0.4950213   -7.6475084    846.40036  0.015051934  0.013624426          932 
 4687000   0.50580983   -7.6459359    845.88464  0.015039553  0.013620122          939 
 4688000   0.49641947     -7.63894    845.90419  0.015036693   0.01361582          906 
 4689000   0.50734457   -7.6520788    847.53654  0.015062496   0.01361152          874 
 4690000   0.51448741   -7.6421186    846.27779  0.015036919  0.013607218          929 
 4691000   0.50347399   -7.6549092    848.59956  0.015074958  0.013602923          779 
 4692000   0.49327622   -7.6379308    846.15201  0.015028275  0.013598625          936 
 4693000   0.50299105    -7.640332    845.51458  0.015013754  0.013594326          938 
 4694000   0.50412944   -7.6370442    848.08664  0.015056218  0.013590031          944 
 4695000   0.49548676   -7.6266671     846.8453  0.015030978  0.013585738          899 
 4696000    0.5028105   -7.6458728    844.87987    0.0149929  0.013581445          921 
 4697000   0.49375165   -7.6460012    846.05141  0.015010493  0.013577154          894 
 4698000   0.49637357   -7.6502274    846.01123  0.015006585  0.013572867          918 
 4699000   0.50137938   -7.6439562    847.05865  0.015021967  0.013568579          906 
 4700000   0.48729969   -7.6517942    847.06868  0.015018948  0.013564296          896 
 4701000   0.48914555    -7.646567    846.11575  0.014998861  0.013560013          876 
 4702000   0.50069838   -7.6421812    846.67156  0.015005522  0.013555731          946 
 4703000   0.49948895   -7.6377109    845.98368  0.014990142   0.01355145          853 
 4704000   0.49479428   -7.6617261    845.11481  0.014971563   0.01354717          922 
 4705000   0.49971089   -7.6327798    845.80607  0.014980625  0.013542891          866 
 4706000   0.49853198   -7.6520432    846.22124  0.014984793  0.013538615          887 
 4707000   0.50122904   -7.6512784    846.45775  0.014985797  0.013534343          880 
 4708000   0.49071677   -7.6417183    845.90713  0.014972868  0.013530071          830 
 4709000   0.49839943   -7.6553432    845.88144  0.014969233  0.013525803          894 
 4710000    0.5016455   -7.6426056    845.21646   0.01495429  0.013521535          908 
 4711000   0.50586018   -7.6379342    845.94305  0.014963968  0.013517269          925 
 4712000   0.50180367   -7.6354784    845.27139  0.014948914  0.013513001          908 
 4713000   0.49730124   -7.6533034    847.05865  0.014977344  0.013508743          830 
 4714000   0.47864884   -7.6324802     845.5253   0.01494706  0.013504479          873 
 4715000   0.49490166   -7.6401993    846.86569   0.01496758  0.013500221          885 
 4716000   0.49442772   -7.6469389    846.92218  0.014965405  0.013495966          829 
 4717000   0.49786564   -7.6433932    847.36655  0.014970083  0.013491708          869 
 4718000   0.49273081   -7.6649727    845.71733   0.01493778  0.013487449          890 
 4719000   0.50172649   -7.6362863    847.66116  0.014968941  0.013483197          922 
 4720000   0.49644721   -7.6533677    846.46912  0.014944723  0.013478948          887 
 4721000   0.50314362   -7.6358025    845.56485  0.014925596  0.013474695          819 
 4722000   0.49134636   -7.6583219     846.3813  0.014936843  0.013470445          844 
 4723000   0.49557528   -7.6374863    846.57052  0.014937019  0.013466196          906 
 4724000   0.49149863   -7.6539709    846.53278  0.014933192   0.01346195          921 
 4725000   0.49275888   -7.6533962    846.12861  0.014922903  0.013457706          830 
 4726000   0.48370138   -7.6382018    846.83912  0.014932274  0.013453461          934 
 4727000   0.49909843   -7.6653433    845.93017  0.014913091  0.013449213          897 
 4728000   0.49316398   -7.6509984    846.62178  0.014922127  0.013444969          871 
 4729000   0.50748392   -7.6545516    846.66311    0.0149197  0.013440729          919 
 4730000   0.49187501   -7.6530491    846.70153  0.014917222  0.013436489          863 
 4731000   0.48740965   -7.6470105    845.37039  0.014890622  0.013432254          890 
 4732000    0.5024091    -7.638487    845.01589  0.014881232   0.01342802          883 
 4733000   0.49350791   -7.6368647    846.03694  0.014896066  0.013423789          892 
 4734000   0.49501281    -7.649475    844.77904  0.014870776  0.013419558          892 
 4735000   0.49287926   -7.6533652    845.71356  0.014884082  0.013415329          880 
 4736000   0.49940386    -7.661152    845.22449  0.014872334    0.0134111          867 
 4737000   0.48751459   -7.6504849    845.55628  0.014875031  0.013406875          887 
 4738000   0.49277085   -7.6342988    845.28202  0.014867068   0.01340265          887 
 4739000   0.50089052   -7.6512599    846.26649  0.014881242  0.013398427          842 
 4740000   0.49178352   -7.6668467    845.51535  0.014864897    0.0133942          852 
 4741000   0.49716408   -7.6464832    845.81432  0.014867017  0.013389979          824 
 4742000   0.48950171   -7.6574685    847.12897  0.014886985   0.01338576          835 
 4743000    0.4975582   -7.6548757    845.76426  0.014859868  0.013381541          832 
 4744000   0.49208944   -7.6613169    846.67967  0.014872816  0.013377326          871 
 4745000   0.49798564   -7.6700623     846.5438  0.014867295  0.013373111          849 
 4746000   0.49852194   -7.6488125    845.71653  0.014849637  0.013368899          757 
 4747000   0.48356038   -7.6440139    847.61865    0.0148799  0.013364686          863 
 4748000   0.48847849   -7.6407478    845.92816  0.014847096  0.013360476          897 
 4749000   0.48756895   -7.6601979    845.60829  0.014838357  0.013356269          808 
 4750000   0.48862397   -7.6599002    845.77521  0.014838162  0.013352061          851 
 4751000   0.48668248   -7.6675673    846.41069  0.014846185  0.013347854          836 
 4752000   0.48777003   -7.6587259    845.59058  0.014828679  0.013343652          860 
 4753000   0.47969142    -7.654186    846.70118  0.014845031   0.01333945          841 
 4754000    0.4857103   -7.6415021    845.71698  0.014824656  0.013335248          850 
 4755000   0.49795741   -7.6418744    844.86038  0.014806526  0.013331048          863 
 4756000   0.50430292   -7.6413764     846.1518  0.014826041  0.013326856          886 
 4757000   0.48473627   -7.6829966    846.99531  0.014837701  0.013322659          886 
 4758000   0.49292453   -7.6523689    845.60476  0.014810228  0.013318467          845 
 4759000   0.49063513   -7.6467709     843.8298  0.014776035  0.013314271          860 
 4760000   0.48954679   -7.6490213    844.12908   0.01477817  0.013310083          852 
 4761000   0.49636573   -7.6566338    845.00904  0.014790468  0.013305893          845 
 4762000   0.48396999   -7.6501031    845.71057  0.014799639    0.0133017          879 
 4763000   0.49469356   -7.6585208    845.39737  0.014791052  0.013297514          879 
 4764000   0.48684821   -7.6388343    846.12535  0.014800681  0.013293333          843 
 4765000   0.49499689   -7.6665572     844.3482  0.014766495   0.01328915          885 
 4766000   0.48056826   -7.6639732    845.77957  0.014788424  0.013284971          845 
 4767000   0.47900205   -7.6466002    845.70314  0.014783986   0.01328079          905 
 4768000   0.48706932   -7.6645181    845.70059  0.014780841  0.013276613          878 
 4769000   0.48870862   -7.6604112    845.45101   0.01477338  0.013272437          876 
 4770000   0.48957588   -7.6474866    847.81449  0.014811574  0.013268261          823 
 4771000   0.49135208    -7.657603    845.42448  0.014766724  0.013264086          855 
 4772000   0.48705687    -7.670677     845.9202  0.014772286  0.013259914          863 
 4773000   0.48160158   -7.6559452    845.99193  0.014770444  0.013255738          905 
 4774000    0.4894451   -7.6574258     844.4068   0.01473968  0.013251568          919 
 4775000   0.47353821    -7.663917    845.43181  0.014754482  0.013247395          897 
 4776000   0.47615086   -7.6541066    844.91049  0.014742296  0.013243227          852 
 4777000   0.47888985    -7.638785    845.05722   0.01474177  0.013239062          909 
 4778000   0.48848337   -7.6639524    844.90253  0.014735987  0.013234899          894 
 4779000   0.49187223   -7.6638121    847.17223  0.014772481  0.013230737          877 
 4780000   0.49190859   -7.6463536    846.03771  0.014749611  0.013226577          853 
 4781000   0.49078026   -7.6730203    846.56689   0.01475575  0.013222419          875 
 4782000    0.4839232   -7.6664378    844.98582  0.014725112  0.013218263          886 
 4783000   0.48126326   -7.6499076     844.4176  0.014712133  0.013214105          920 
 4784000   0.49117089   -7.6679052    844.67664   0.01471357  0.013209949          899 
 4785000    0.4852744   -7.6565632    845.75215  0.014729226  0.013205794          925 
 4786000   0.50208519   -7.6777128    846.33589  0.014736312  0.013201642          916 
 4787000   0.48807876   -7.6481112    845.00179   0.01471001  0.013197489          896 
 4788000    0.4814506   -7.6701985    845.35984  0.014713169  0.013193337          906 
 4789000   0.49027301   -7.6625078    844.71214  0.014698826  0.013189187          910 
 4790000   0.48583232   -7.6600199    844.66161  0.014694878  0.013185041          928 
 4791000   0.48068735    -7.664248     844.6981  0.014692446  0.013180897          865 
 4792000   0.48925321   -7.6636636    844.74366  0.014690172  0.013176755          894 
 4793000   0.48921454    -7.666662    845.95103  0.014708099  0.013172615          886 
 4794000   0.49049267   -7.6664446    845.42714  0.014695924  0.013168478          927 
 4795000   0.49196986   -7.6666148    844.76892   0.01468142  0.013164337          909 
 4796000    0.4859357      -7.6701    845.37921  0.014688963  0.013160198          898 
 4797000   0.48315007   -7.6544224    844.61296   0.01467259  0.013156061          944 
 4798000   0.48262092   -7.6726594    845.18326  0.014679437  0.013151924          871 
 4799000   0.48063094   -7.6635354    845.34008  0.014679101  0.013147794          919 
 4800000   0.47629215   -7.6669537    846.37026  0.014693928  0.013143661          929 
 4801000   0.48182802   -7.6339795    845.58052   0.01467716  0.013139529          922 
 4802000   0.49310833   -7.6729784    845.07457  0.014665323  0.013135399          883 
 4803000   0.48884491   -7.6693081    846.23434  0.014682392  0.013131274          914 
 4804000    0.4867692   -7.6578507    845.60685  0.014668451  0.013127149          895 
 4805000   0.48429073   -7.6548704    844.98356  0.014654588  0.013123025          969 
 4806000   0.49087479   -7.6578059    843.89602  0.014632682  0.013118901          914 
 4807000   0.47631475   -7.6546081      845.771  0.014662142  0.013114778          920 
 4808000   0.48810911   -7.6539935    843.87305  0.014626197   0.01311066          882 
 4809000   0.48923412   -7.6652702    845.56062  0.014652399  0.013106542          893 
 4810000   0.48481045   -7.6756824    845.72869  0.014652264  0.013102424          890 
 4811000   0.47614252   -7.6728013    845.38076  0.014643192  0.013098313          915 
 4812000   0.47623152   -7.6498049    845.45908  0.014641505  0.013094203          892 
 4813000   0.47062743   -7.6728531      845.485  0.014638912   0.01309009          885 
 4814000   0.49324164   -7.6721912    846.31681   0.01465027  0.013085979          891 
 4815000   0.47501827   -7.6744128    843.96534  0.014606531  0.013081867          899 
 4816000   0.47331841     -7.66723    844.21657  0.014607845   0.01307776          900 
 4817000   0.48558939   -7.6680512    845.64611  0.014629543  0.013073658          890 
 4818000   0.49658458   -7.6718901    844.16194  0.014600836  0.013069554          917 
 4819000   0.47974502    -7.672232     844.9929  0.014612176   0.01306545          944 
 4820000   0.48415278   -7.6636929    845.75409  0.014622304  0.013061346          913 
 4821000   0.48320427   -7.6850918    846.13359  0.014625831  0.013057245          878 
 4822000   0.47812822   -7.6759029    845.80879  0.014617185  0.013053147          893 
 4823000   0.48314267   -7.6523407    845.84915  0.014614852   0.01304905          911 
 4824000   0.48612317   -7.6651444    845.46692  0.014605219  0.013044955          819 
 4825000   0.47704861   -7.6569556    845.45915  0.014602058  0.013040862          871 
 4826000   0.47513632   -7.6603356    844.28426  0.014578745   0.01303677          905 
 4827000   0.48616539   -7.6761368    844.30993  0.014576168  0.013032679          924 
 4828000   0.49006515   -7.6819162    844.93876  0.014584002  0.013028587          918 
 4829000   0.47879919   -7.6775567    844.40464  0.014571765    0.0130245          922 
 4830000   0.48159582   -7.6643021    845.57603  0.014588958  0.013020414          909 
 4831000   0.48489153   -7.6590137    845.39895  0.014582884  0.013016331          894 
 4832000   0.48725575    -7.668194    845.29292  0.014578037  0.013012255          880 
 4833000   0.48013908   -7.6711835     845.4974  0.014578547  0.013008177          901 
 4834000   0.47844588   -7.6627252     843.8063  0.014546378  0.013004098          953 
 4835000   0.47898643   -7.6885093    845.05113  0.014564825  0.013000025          885 
 4836000   0.49399618   -7.6464092     845.9645  0.014577552  0.012995954          890 
 4837000   0.47616289   -7.6796818    846.07183  0.014576387  0.012991885          934 
 4838000   0.47859887   -7.6727268    843.98697  0.014537463  0.012987814          999 
 4839000   0.48649033    -7.651303    843.76264  0.014530596  0.012983744          894 
 4840000   0.47994527    -7.667563    845.97668  0.014565714  0.012979675          932 
 4841000   0.47743155   -7.6840507    844.61604  0.014539283  0.012975607          885 
 4842000   0.47092323   -7.6757883    845.87083  0.014557876  0.012971541          908 
 4843000   0.48659671   -7.6791292    846.13173  0.014559359  0.012967478          877 
 4844000   0.46418762    -7.675077    845.18486  0.014540064  0.012963418          874 
 4845000   0.47471879   -7.6727046    844.20003  0.014520124  0.012959357          930 
 4846000   0.48263828   -7.6679954    845.43718  0.014538403  0.012955299          915 
 4847000   0.47694793   -7.6495508    845.49733  0.014536437  0.012951243          915 
 4848000   0.46847805    -7.687703    844.59703  0.014517963  0.012947188          875 
 4849000   0.48402359   -7.6638431    844.30612   0.01450997  0.012943134          914 
 4850000   0.47292279   -7.6790811    844.59171  0.014511885  0.012939082          907 
 4851000   0.49155271   -7.6691518    847.05699  0.014551244  0.012935032          887 
 4852000   0.47874275   -7.6659689    844.46146  0.014503666  0.012930987          884 
 4853000   0.47793149    -7.678492    844.64259  0.014503788   0.01292694          891 
 4854000   0.49013605   -7.6620113    845.63513   0.01451784  0.012922892          862 
 4855000   0.48086223   -7.6682246    846.00011  0.014521114  0.012918849          862 
 4856000   0.47822939   -7.6820219    843.97571  0.014483383  0.012914807          873 
 4857000    0.4792474   -7.6924547     844.3752  0.014487256  0.012910763          852 
 4858000   0.47204135   -7.6630853    845.66161   0.01450634  0.012906722          939 
 4859000   0.47352218   -7.6678542    843.82736  0.014471897   0.01290268          966 
 4860000   0.47340503   -7.6865048    845.28747  0.014493955  0.012898641          894 
 4861000   0.46864502   -7.6638321    845.67937  0.014497692  0.012894602          899 
 4862000   0.46969762    -7.672494    844.45437  0.014473714  0.012890569          944 
 4863000   0.47525437   -7.6654432    844.04306  0.014463689  0.012886533          951 
 4864000   0.46588025   -7.6583223    844.21346  0.014463635  0.012882501          891 
 4865000   0.47589886   -7.6740372    844.13077  0.014459246  0.012878473          919 
 4866000   0.47663676   -7.6774396    845.66608  0.014482567  0.012874445          939 
 4867000   0.45993526   -7.6818078    845.36784  0.014474485  0.012870416          917 
 4868000   0.47056155   -7.6613617     844.6254  0.014458802  0.012866391          915 
 4869000   0.46814615   -7.6731974    844.90402  0.014460601  0.012862362          922 
 4870000   0.47311924   -7.6862822    844.30029  0.014447301   0.01285834          897 
 4871000   0.48177081   -7.6669418    844.51992  0.014448093  0.012854322          943 
 4872000   0.47122079   -7.6639512    844.89898  0.014451611  0.012850303          928 
 4873000   0.47723912   -7.6791131    844.53627  0.014442442  0.012846287          886 
 4874000    0.4650563   -7.6611194     843.7778  0.014426511  0.012842267          857 
 4875000   0.47355445   -7.6779017    843.70046   0.01442223  0.012838254          992 
 4876000   0.46915171   -7.6745259     844.9126  0.014439988  0.012834241          854 
 4877000   0.47174264   -7.6707801     844.4941  0.014429877  0.012830229          913 
 4878000   0.48146152   -7.6645078    844.66809  0.014429891  0.012826222          925 
 4879000   0.46500014   -7.6699257    844.10255  0.014417274  0.012822219          944 
 4880000   0.46978834   -7.6644988    843.95287  0.014411764  0.012818213          946 
 4881000   0.47393046   -7.6813865    845.11568  0.014428664  0.012814208          918 
 4882000   0.47717053   -7.6751627    844.54345   0.01441594  0.012810203          887 
 4883000   0.48121025   -7.6763306    844.78208  0.014417061  0.012806197          945 
 4884000   0.47426317   -7.6809101    843.25341  0.014388026  0.012802195          958 
 4885000   0.46953154   -7.6892616    844.32554   0.01440337  0.012798194          920 
 4886000   0.47612792   -7.6832532    844.69103  0.014406656  0.012794194          998 
 4887000   0.47573372   -7.6694856    844.01703  0.014392214  0.012790194          918 
 4888000   0.47088936   -7.6713236     844.1221  0.014391061  0.012786197          893 
 4889000   0.47176703   -7.6875862    845.28843  0.014407998  0.012782202          894 
 4890000   0.46331429   -7.6837358    845.36896  0.014406424  0.012778209          898 
 4891000   0.46004249    -7.672994    844.94448  0.014396246  0.012774215          914 
 4892000   0.47283057   -7.7017824    845.43235  0.014401614  0.012770219          954 
 4893000   0.46211731   -7.6591105    843.40568  0.014364154  0.012766228          968 
 4894000   0.46730042    -7.673134    844.35749  0.014377426   0.01276224          986 
 4895000   0.46569482   -7.6819535    845.96491  0.014401854  0.012758251          911 
 4896000   0.46613219    -7.686451    844.74901  0.014378217  0.012754267          931 
 4897000   0.47535884   -7.6850804    845.10745  0.014381381  0.012750286          877 
 4898000   0.47125425   -7.6820585    844.30863  0.014364853  0.012746302          905 
 4899000   0.46629374   -7.6827297    843.61957    0.0143502  0.012742323          924 
 4900000   0.46774216   -7.6752143     842.9156  0.014335299  0.012738345          933 
 4901000   0.46973356   -7.6888147    845.39577  0.014374546  0.012734367          948 
 4902000   0.45943046   -7.6656669    843.75245  0.014343677  0.012730392          906 
 4903000   0.47161031   -7.6829544    844.57591  0.014354747   0.01272642          794 
 4904000    0.4723743   -7.6771773    844.43328  0.014349396  0.012722448          905 
 4905000   0.46333382   -7.6839064    845.11993  0.014358137  0.012718479          876 
 4906000    0.4714982   -7.6973378    843.58649  0.014329163  0.012714507          965 
 4907000   0.47236421   -7.6935747    844.29432  0.014338264   0.01271054          915 
 4908000   0.45076039   -7.6864411    844.56411  0.014339923  0.012706573          889 
 4909000   0.47256293   -7.6842648     844.1751  0.014330398  0.012702605          929 
 4910000   0.46854631   -7.6957797    843.07711  0.014308844  0.012698643          946 
 4911000   0.45074063   -7.6825373    844.66766   0.01433292  0.012694682          942 
 4912000   0.47336301   -7.6866606    844.53526  0.014327756  0.012690721          923 
 4913000    0.4641101   -7.6860615    844.61978  0.014326273  0.012686759          910 
 4914000   0.45786359   -7.6911284    843.64353  0.014306803    0.0126828          825 
 4915000   0.45868305   -7.6771572     843.7677  0.014305997   0.01267884          907 
 4916000   0.46687176   -7.6874012    844.50446  0.014315576  0.012674884          940 
 4917000   0.46851635   -7.6973627    843.29354  0.014292142  0.012670932          902 
 4918000   0.45963874   -7.6749891    842.69239   0.01427905  0.012666977          834 
 4919000   0.47415493   -7.6877748    844.83018  0.014312363  0.012663026          883 
 4920000   0.46200445    -7.687341     844.8482   0.01430976  0.012659075          862 
 4921000   0.47040021   -7.6891697    844.87438  0.014307295  0.012655126          784 
 4922000    0.4666554    -7.687231     844.1219  0.014291648  0.012651178          910 
 4923000   0.46580061   -7.6788348    842.72608  0.014265117  0.012647234          903 
 4924000   0.47046603   -7.6920052    844.30027  0.014288862  0.012643288          933 
 4925000   0.46590988   -7.6902718    843.78799  0.014277293  0.012639344          877 
 4926000   0.45452279   -7.6942111    844.10243  0.014279714  0.012635403          915 
 4927000   0.46598051   -7.6978844    845.06671  0.014293125  0.012631465          934 
 4928000   0.45981495   -7.6860687    845.06142  0.014290135  0.012627526          894 
 4929000   0.46208486   -7.7002098    845.15679  0.014288848  0.012623591          857 
 4930000      0.46946    -7.690601    844.12316  0.014268478  0.012619654          888 
 4931000   0.46391928   -7.6873053    843.91392  0.014262048  0.012615718          926 
 4932000    0.4718243   -7.6980296     843.2807  0.014248457  0.012611783          890 
 4933000   0.46069874   -7.6893395    844.21856  0.014261412  0.012607853          906 
 4934000   0.45916524   -7.6942773    844.49374  0.014263169  0.012603922          879 
 4935000   0.45464113   -7.6967177    844.93064  0.014267657  0.012599992          870 
 4936000   0.46218576   -7.6969721    845.10412  0.014267695  0.012596063          950 
 4937000   0.45812356   -7.7025436    843.89632  0.014244418  0.012592139          911 
 4938000   0.47179701   -7.6873394    843.81858  0.014240222  0.012588213          875 
 4939000   0.46694799   -7.6876325    843.92391  0.014239116  0.012584292          904 
 4940000   0.45699986   -7.6897985    844.57277  0.014247179  0.012580372          924 
 4941000   0.45024895   -7.6946813    842.77581  0.014213989  0.012576457          945 
 4942000   0.45898627    -7.698867    844.65759  0.014242843  0.012572543          926 
 4943000   0.46816507   -7.6904747    843.72598  0.014224256  0.012568629          895 
 4944000   0.45573819   -7.7037203    844.04046   0.01422668  0.012564714          918 
 4945000   0.46145698   -7.6996627    843.64485  0.014217136  0.012560801          896 
 4946000   0.46324092   -7.6880512    844.54462  0.014229421  0.012556893          925 
 4947000   0.45606431   -7.7001676    844.37454   0.01422368  0.012552987          902 
 4948000   0.44573714   -7.6909948    843.77674  0.014210737  0.012549077          929 
 4949000   0.45826741   -7.6871113    844.96827  0.014227929   0.01254517          919 
 4950000   0.45961818   -7.6959853    844.14372  0.014211174  0.012541268          876 
 4951000   0.45842016   -7.7076102    844.46013  0.014213629  0.012537366          839 
 4952000   0.45971491   -7.7014386    843.79112  0.014199501  0.012533464          913 
 4953000    0.4700569   -7.6903598    844.01021   0.01420032  0.012529561          878 
 4954000    0.4640964   -7.7080479    843.72463   0.01419265  0.012525665          885 
 4955000   0.45575687   -7.6808726    843.50076   0.01418602  0.012521763          898 
 4956000   0.46093837   -7.7069948     845.4327  0.014215643  0.012517865          888 
 4957000    0.4508965   -7.6960237    843.04219  0.014172587  0.012513967          889 
 4958000   0.45855599   -7.6976855    843.54478  0.014178176  0.012510072          901 
 4959000   0.46576641   -7.7058934    844.25787    0.0141873  0.012506176          904 
 4960000   0.45638912   -7.7026188     843.3267  0.014168795  0.012502284          904 
 4961000   0.45753802   -7.7017141    843.75222  0.014173087  0.012498391          887 
 4962000   0.45767518   -7.6953003    844.79156  0.014187686  0.012494498          918 
 4963000   0.46137448   -7.7024646    843.85514  0.014169104  0.012490611          900 
 4964000   0.46008431   -7.7142482    844.74535  0.014181194  0.012486725          858 
 4965000    0.4552166   -7.7055733    843.51738  0.014157727  0.012482842          904 
 4966000   0.45142364   -7.6940558    843.21244  0.014149759   0.01247896          869 
 4967000   0.45744484   -7.6929025    842.65733  0.014137597  0.012475074          890 
 4968000   0.45421229   -7.7027234    843.92109   0.01415595  0.012471196          872 
 4969000   0.46377747     -7.71206    843.01456  0.014137898  0.012467314          886 
 4970000    0.4489001   -7.6852485    843.93238  0.014150442  0.012463435          944 
 4971000   0.45583122   -7.6809547    842.79827  0.014128584  0.012459557          933 
 4972000   0.45566393   -7.7108846    844.63971  0.014156606   0.01245568          899 
 4973000   0.46005221   -7.7100394    843.78829  0.014139491  0.012451804          952 
 4974000   0.45318357    -7.708494    843.10064  0.014125128  0.012447932          942 
 4975000   0.45053147   -7.6994011     842.7914  0.014117109  0.012444058          964 
 4976000    0.4489363   -7.6894863    843.41585   0.01412473  0.012440185          973 
 4977000   0.46232594   -7.7187337    843.55899  0.014124288  0.012436317          905 
 4978000   0.46122775   -7.6887534    843.44583  0.014119556  0.012432451          920 
 4979000   0.45003122   -7.6902749    844.10073  0.014127682  0.012428583          914 
 4980000   0.44429725   -7.6965881    841.66304  0.014084054   0.01242472          878 
 4981000   0.46823238   -7.6987006    843.02106  0.014103946  0.012420851          917 
 4982000   0.44665008   -7.6904233    844.39432  0.014124085  0.012416988          929 
 4983000   0.45952834   -7.6951618    842.75004  0.014093753  0.012413128          897 
 4984000   0.46512286    -7.718062    844.40519  0.014118599  0.012409267          895 
 4985000   0.45265972   -7.6994071    843.14784  0.014094748  0.012405407          977 
 4986000   0.45436903   -7.7033518     844.9585  0.014122184  0.012401552          885 
 4987000   0.44554747   -7.6961837    843.27155  0.014091163  0.012397697          946 
 4988000   0.45191156   -7.7202091    843.88958  0.014098663  0.012393843          880 
 4989000   0.44661832   -7.7232128    843.33084  0.014086504   0.01238999          897 
 4990000   0.45497731   -7.7013386    843.32036  0.014083506   0.01238614          927 
 4991000   0.45605651   -7.7234365    843.44399  0.014082749  0.012382291          936 
 4992000    0.4599112   -7.7093353    843.32233  0.014077897  0.012378441          917 
 4993000   0.44414706   -7.7037361    842.61656  0.014063298  0.012374596          955 
 4994000   0.44862294   -7.7096639    842.83971  0.014064206  0.012370748          936 
 4995000   0.45022382   -7.7096581    843.44721  0.014071525  0.012366905          903 
 4996000   0.45044743   -7.7105029    844.17919  0.014080918  0.012363065          858 
 4997000   0.44810509   -7.7034676    843.10811  0.014060238  0.012359227          926 
 4998000   0.46009686   -7.7122922    842.70017  0.014050623  0.012355385          912 
 4999000   0.45294141   -7.7097573    842.97534  0.014052399  0.012351549          916 
 5000000   0.45278857   -7.7130315    842.98054  0.014049676  0.012347713          938 
 5001000    0.4472943   -7.6962914    842.62035  0.014040864  0.012343879          928 
 5002000   0.44561956   -7.7064387    843.97809  0.014060677  0.012340045          935 
 5003000   0.44844837   -7.6954008    842.96786   0.01404104  0.012336212          935 
 5004000   0.45230654   -7.7148389    843.51581  0.014047359   0.01233238          944 
 5005000   0.43947586   -7.6942165    842.60958  0.014029464  0.012328552          848 
 5006000   0.45063028   -7.7139868    842.92055  0.014031838  0.012324724          901 
 5007000   0.44897845    -7.713573    843.52459  0.014039088  0.012320898          928 
 5008000   0.45111247   -7.7081973    843.60871  0.014037685  0.012317072          911 
 5009000   0.44735497   -7.7023653    843.34161  0.014030439  0.012313246          926 
 5010000   0.45578386   -7.7217333    843.25215   0.01402615  0.012309423          883 
 5011000   0.44373234   -7.7100272    842.83581  0.014016427  0.012305604          909 
 5012000   0.45383432   -7.7157894    841.87072  0.013997584  0.012301782          948 
Loop time of 10786.2 on 48 procs for 5000000 steps with 4000 atoms

Performance: 80102.220 tau/day, 463.555 timesteps/s
99.4% CPU use with 48 MPI tasks x no OpenMP threads

MPI task timing breakdown:
Section |  min time  |  avg time  |  max time  |%varavg| %total
---------------------------------------------------------------
Pair    | 704.3      | 727.2      | 752.96     |  42.2 |  6.74
Neigh   | 67.847     | 68.746     | 71.96      |   7.8 |  0.64
Comm    | 577.06     | 621.53     | 656.86     |  64.6 |  5.76
Output  | 14.211     | 14.215     | 14.308     |   0.4 |  0.13
Modify  | 9184.2     | 9231.8     | 9274.2     |  24.1 | 85.59
Other   |            | 122.7      |            |       |  1.14

Nlocal:        83.3333 ave          90 max          73 min
Histogram: 1 1 3 1 6 11 6 8 9 2
Nghost:        1794.04 ave        1821 max        1772 min
Histogram: 1 4 13 4 6 4 11 3 1 1
Neighs:        11022.2 ave       12412 max        9582 min
Histogram: 1 2 4 9 7 9 5 7 2 2
FullNghs:      22044.6 ave       24182 max       19229 min
Histogram: 1 1 4 2 9 12 6 5 6 2

Total # of neighbors = 1058140
Ave neighs/atom = 264.53500
Neighbor list builds = 269608
Dangerous builds = 0

#clear
#
#next RN
#
#jump SELF
Total wall time: 2:59:49
