
units lj                  # Use reduced LJ style units
atom_style atomic         # Uncharged point particles
atom_modify map hash      # Needed for indexing of clusters etc
                          # Used to be able to find where atoms are in relation to each other.

lattice fcc 1.0 spacing 1 1 1
Lattice spacing in x,y,z = 1.5874011 1.5874011 1.5874011
region box block 0 10 0 10 0 10 units lattice
create_box 2 box
Created orthogonal box = (0.0000000 0.0000000 0.0000000) to (15.874011 15.874011 15.874011)
  3 by 4 by 4 MPI processor grid
create_atoms 1 box
Created 4000 atoms
  using lattice units in orthogonal box = (0.0000000 0.0000000 0.0000000) to (15.874011 15.874011 15.874011)
  create_atoms CPU = 0.021 seconds
set type 1 type/fraction 2 0.39 78393
Setting atom values ...
  1580 settings made for type/fraction
mass 1 1.0
mass 2 1.0
pair_style lj/cut  3.5
pair_modify tail  yes
pair_coeff 1  1  1.0  1.0   # Intearaction between 1 and 1 set with epsilon = 1 and sigma = 1
pair_coeff 1  2  1.5  0.8
pair_coeff 2  2  0.5  0.88

write_data data.0
System init for write_data ...
Neighbor list info ...
  update every 1 steps, delay 10 steps, check yes
  max neighbors/atom: 2000, page size: 100000
  master list distance cutoff = 3.8
  ghost atom cutoff = 3.8
  binsize = 1.9, bins = 9 9 9
  1 neighbor lists, perpetual/occasional/extra = 1 0 0
  (1) pair lj/cut, perpetual
      attributes: half, newton on
      pair build: half/bin/atomonly/newton
      stencil: half/bin/3d
      bin: standard
WARNING: Not all mixed pair coeffs generated from mixing. Use write_data with 'pair ij' option to store all pair coeffs. (../write_data.cpp:312)


#############################
#   M E L T   S Y S T E M   #
#############################

velocity all create 2.4 9580093 mom yes dist gaussian # Assign velocities
                                                    # Temperature 2.4, random number seed, zero linear momentum
                                                                                # Gaussian distribution

timestep 0.002   # simulation timestep
thermo 1000       # output thermodynamic data every 1000 steps bf 100

# Define a fix  in this case with index 1 applied to all
# particles in the simulation. This fix is for simulations
# in the anisotropic NPT ensemble. Note that we use the MTK
# correction.
fix 1 all npt temp 2.4 2.4 0.1 iso 5.68 5.68 0.5 mtk yes tchain 5 pchain 5 # Use NPT ensemble
                                                                         # Set temperature and pressure and damping
                                                                         # Numbers of thermostats in chain and in barostat
run 10000          # run for 10000 steps
Per MPI rank memory allocation (min/avg/max) = 3.642 | 3.644 | 3.648 Mbytes
Step Temp E_pair E_mol TotEng Press Volume 
       0          2.4   -5.9084669            0   -2.3093669   -4.1681406         4000 
    1000    2.3764219   -5.0393244            0   -1.4755828    5.6564112    3906.3267 
    2000     2.429783   -5.0316382            0   -1.3878749    5.4170985    3930.1081 
    3000    2.4193168   -4.9682115            0   -1.3401435    5.8145169     3932.345 
    4000    2.4148891   -5.0466632            0   -1.4252352      6.08211    3864.8771 
    5000     2.346559    -5.048072            0   -1.5291135    5.5036186    3914.2054 
    6000    2.3980221    -5.012442            0    -1.416308    5.4270909    3939.1539 
    7000    2.4048169   -5.0625402            0   -1.4562167    5.2905444    3932.1171 
    8000    2.4334282   -4.9971117            0   -1.3478819    6.1231259    3895.4743 
    9000    2.3865593   -5.0771572            0   -1.4982132    5.6496573    3901.3978 
   10000    2.3338553   -4.9706822            0   -1.4707744      5.96369    3903.4589 
Loop time of 2.47306 on 48 procs for 10000 steps with 4000 atoms

Performance: 698728.294 tau/day, 4043.567 timesteps/s
99.6% CPU use with 48 MPI tasks x no OpenMP threads

MPI task timing breakdown:
Section |  min time  |  avg time  |  max time  |%varavg| %total
---------------------------------------------------------------
Pair    | 1.1141     | 1.1639     | 1.2399     |   2.5 | 47.06
Neigh   | 0.20833    | 0.21507    | 0.22106    |   0.7 |  8.70
Comm    | 0.75997    | 0.84561    | 0.91754    |   3.3 | 34.19
Output  | 0.00023887 | 0.00024517 | 0.00038231 |   0.0 |  0.01
Modify  | 0.21515    | 0.23285    | 0.25903    |   2.3 |  9.42
Other   |            | 0.01539    |            |       |  0.62

Nlocal:        83.3333 ave          96 max          76 min
Histogram: 7 4 7 8 7 5 4 4 1 1
Nghost:        1669.50 ave        1688 max        1644 min
Histogram: 1 1 4 6 4 7 9 6 7 3
Neighs:        9777.12 ave       11540 max        8472 min
Histogram: 6 4 5 9 7 5 5 3 3 1

Total # of neighbors = 469302
Ave neighs/atom = 117.32550
Neighbor list builds = 906
Dangerous builds = 232

# Equilibrate just above the melting temperature to avoid step fn in T

fix 1 all npt temp 1.25 1.25 0.1 iso 5.68 5.68 0.5 mtk yes tchain 5 pchain 5
run 2000
Per MPI rank memory allocation (min/avg/max) = 3.643 | 3.645 | 3.649 Mbytes
Step Temp E_pair E_mol TotEng Press Volume 
   10000    2.3338553   -4.9706822            0   -1.4707744      5.96369    3903.4589 
   11000    1.2226141   -7.0064175            0   -5.1729548    5.6762597    3108.7532 
   12000     1.271218   -7.1444381            0   -5.2380878    5.4872467    3081.9177 
Loop time of 0.594703 on 48 procs for 2000 steps with 4000 atoms

Performance: 581130.195 tau/day, 3363.022 timesteps/s
99.6% CPU use with 48 MPI tasks x no OpenMP threads

MPI task timing breakdown:
Section |  min time  |  avg time  |  max time  |%varavg| %total
---------------------------------------------------------------
Pair    | 0.26311    | 0.28743    | 0.31347    |   2.1 | 48.33
Neigh   | 0.037626   | 0.040719   | 0.043282   |   0.6 |  6.85
Comm    | 0.19135    | 0.21638    | 0.24244    |   2.6 | 36.39
Output  | 5.139e-05  | 5.2717e-05 | 6.9259e-05 |   0.0 |  0.01
Modify  | 0.041226   | 0.045392   | 0.049937   |   1.0 |  7.63
Other   |            | 0.004724   |            |       |  0.79

Nlocal:        83.3333 ave          91 max          76 min
Histogram: 1 3 6 5 10 4 11 3 3 2
Nghost:        1961.94 ave        1984 max        1946 min
Histogram: 4 7 10 4 8 2 4 5 0 4
Neighs:        12395.9 ave       14093 max       10998 min
Histogram: 2 7 4 5 10 7 5 6 1 1

Total # of neighbors = 595005
Ave neighs/atom = 148.75125
Neighbor list builds = 142
Dangerous builds = 11

#############################
# L I N E A R  Q U E N C H  #
#############################

# Define solid atoms. This closely follows ten Wolde  Ruiz-Montero and Frenkel  Faraday Discuss  1996  104  93-110
# Compute components of the per-atom q6 vector
compute q6 all orientorder/atom degrees 1 6 components 6 nnn NULL cutoff 1.3 # compute the Q6 parameter.
                                                                             # Use all neighbours within 1.3 unit cell.

# get number of connections
compute coord_number all coord/atom orientorder q6 0.5

# An atom is solid if it has 8 or more connections (of a possible 14)
variable is_solid atom c_coord_number>=8
group solid dynamic all var is_solid    # Must be dynamic to update
dynamic group solid defined

# do clustering
compute cluster solid cluster/atom 1.3 # Create a cluster where all atoms within are solid and max 1.3 units from another member

# define chunks one chunk per cluster
compute clus_chunks solid chunk/atom c_cluster nchunk every compress yes  # Says which atoms are in which chunk

# count the size of each chunk
compute size_chunks solid property/chunk clus_chunks count


# Find the maximum entry in the vector of chunk sizes
variable max_n equal max(c_size_chunks)


# Thermo style which includes this variable
# thermo_style custom step temp pe vol v_max_n

thermo ${N}  # Print the thermo information every 100 steps
thermo 1000  

# Reset the npt fix at a lower temperature (below freezing)
fix 1  all npt temp  ${temp} ${temp}  0.1  iso  5.68  5.68  0.5  mtk yes tchain  5  pchain  5
fix 1  all npt temp  0.45 ${temp}  0.1  iso  5.68  5.68  0.5  mtk yes tchain  5  pchain  5
fix 1  all npt temp  0.45 0.45  0.1  iso  5.68  5.68  0.5  mtk yes tchain  5  pchain  5

dump dmp2 all dcd ${N} traj.dcd
dump dmp2 all dcd 1000 traj.dcd


compute msd all msd com yes
variable twopoint equal c_msd[4]/6/(step*dt+1.0e-6)
fix 9 all vector 10 c_msd[4]
variable fit equal slope(f_9)/6/(10*dt)
thermo_style custom step temp pe c_msd[4] v_twopoint v_fit v_max_n

fix 1 all npt temp 1.25 ${temp} 0.1 iso 5.68 5.68 0.5 mtk yes tchain 5 pchain 5
fix 1 all npt temp 1.25 0.45 0.1 iso 5.68 5.68 0.5 mtk yes tchain 5 pchain 5
run 500000 # 5000000  # Run for this many steps
Neighbor list info ...
  update every 1 steps, delay 10 steps, check yes
  max neighbors/atom: 2000, page size: 100000
  master list distance cutoff = 3.8
  ghost atom cutoff = 3.8
  binsize = 1.9, bins = 8 8 8
  4 neighbor lists, perpetual/occasional/extra = 1 3 0
  (1) pair lj/cut, perpetual
      attributes: half, newton on
      pair build: half/bin/atomonly/newton
      stencil: half/bin/3d
      bin: standard
  (2) compute orientorder/atom, occasional
      attributes: full, newton on
      pair build: full/bin/atomonly
      stencil: full/bin/3d
      bin: standard
  (3) compute coord/atom, occasional
      attributes: full, newton on
      pair build: full/bin/atomonly
      stencil: full/bin/3d
      bin: standard
  (4) compute cluster/atom, occasional
      attributes: full, newton on
      pair build: full/bin/atomonly
      stencil: full/bin/3d
      bin: standard
Per MPI rank memory allocation (min/avg/max) = 9.826 | 9.830 | 9.833 Mbytes
Step Temp PotEng c_msd[4] v_twopoint v_fit v_max_n 
   12000     1.271218   -7.1444381 9.8587892e-31 6.8463811e-33 8.3333333e+20            1 
   13000    1.2342546   -7.0758777   0.45699285 0.0029294413  0.036891013            1 
   14000    1.2613302   -7.1128791   0.87997661 0.0052379558  0.035966223            1 
   15000    1.2359085   -7.1308384    1.3336942 0.0074094119  0.035777201            1 
   16000    1.2843253   -7.0754762    1.7894817 0.0093202166   0.03654082            1 
   17000    1.2246803   -7.1272559    2.2406681  0.010983667  0.037258464            1 
   18000      1.24491   -7.0748948    2.6168342  0.012114973  0.036789711            1 
   19000    1.2369497   -7.1033358    3.0512388  0.013382626  0.036328617            1 
   20000    1.2773227    -7.109339    3.4439335  0.014349722  0.036036088            1 
   21000    1.2257336   -7.0991064    3.8234853   0.01517256  0.035776299            2 
   22000    1.2352711   -7.0890903     4.257449    0.0161267  0.035333669            1 
   23000    1.2436907   -7.1357435    4.6497041  0.016846754  0.035061474            2 
   24000    1.2281394   -7.1194169    5.1325936  0.017821505  0.035048904            1 
   25000    1.2186002   -7.1119161    5.6508018  0.018836005  0.035266691            1 
   26000    1.2393724   -7.1059861    6.1170905  0.019606059  0.035502046            1 
   27000    1.2276489   -7.1442482    6.5535232  0.020226923  0.035751928            1 
   28000     1.221312   -7.1380441    6.9646638  0.020728166  0.035865622            2 
   29000    1.2308601    -7.182342    7.2910928  0.020951416  0.035857899            2 
   30000    1.2331954   -7.1658176    7.6637324  0.021288145  0.035737241            1 
   31000    1.2279131   -7.1599133    7.9852613  0.021465756  0.035525379            1 
   32000    1.2156994   -7.1992034    8.3212292  0.021669867  0.035282213            1 
   33000    1.2252243   -7.2254687    8.6310937  0.021795691  0.034994137            1 
   34000    1.2150203   -7.2035343    8.9651502  0.021973407  0.034690617            3 
   35000    1.1907184    -7.146658    9.3746688   0.02232064  0.034382372            1 
   36000    1.2013206   -7.1537176    9.7383127   0.02254239  0.034139841            3 
   37000    1.2215414   -7.1912849    10.034088  0.022599298  0.033893211            1 
   38000    1.1917836   -7.1752137    10.377263  0.022757155  0.033645121            1 
   39000    1.1997583   -7.1503108    10.646721  0.022749404  0.033373585            1 
   40000    1.1994136   -7.1737532    11.135931  0.023199857  0.033139822            1 
   41000    1.1844659   -7.1851454    11.476825  0.023326879  0.032968163            1 
   42000    1.1959048    -7.191086     11.86336  0.023538413  0.032825516            1 
   43000    1.2099735   -7.1986882    12.231479  0.023704417    0.0327022            2 
   44000    1.1823119   -7.2212661    12.613844  0.023889855  0.032590517            1 
   45000    1.1970164   -7.2208029    12.949468  0.023980496  0.032491615            2 
   46000    1.2103411   -7.2179784    13.262897  0.024026987  0.032375395            2 
   47000    1.2026639   -7.1955049    13.609707  0.024130686  0.032237252            5 
   48000    1.1751415   -7.2555354     13.89627  0.024125469  0.032106762            1 
   49000    1.2022299   -7.2041466     14.34532  0.024396802  0.031977952            1 
   50000    1.2032537   -7.2276379    14.695637  0.024492728  0.031880358            2 
   51000    1.1833328   -7.2359695    15.051982  0.024594742  0.031781284            2 
   52000    1.1910288   -7.2270517    15.475067  0.024799786  0.031703762            2 
   53000    1.1943771   -7.2500112     15.68949   0.02466901  0.031627808            1 
   54000    1.1976373   -7.2556359    15.969119  0.024643702  0.031524722            1 
   55000    1.1844454   -7.2474189    16.269289  0.024650438  0.031406178            2 
   56000    1.1933043   -7.2477938    16.795175  0.024992819  0.031312533            1 
   57000    1.1943074   -7.2387765    17.184775  0.025123939  0.031244649            2 
   58000    1.1727313   -7.2466272    17.479395  0.025114072  0.031185146            4 
   59000    1.1615078   -7.2630524    17.735411  0.025050015  0.031114845            2 
   60000    1.1881161   -7.3038395    18.046007  0.025063898  0.031034435            2 
   61000    1.1747024   -7.2771044     18.40516  0.025143661  0.030957438            1 
   62000    1.1883049   -7.2758547    18.819206  0.025294632   0.03088238            1 
   63000    1.1632996   -7.2625921    19.049656  0.025197958  0.030806017            2 
   64000    1.1576778   -7.2955334    19.395214  0.025254184  0.030732298            2 
   65000    1.1655635   -7.3140462    19.834234  0.025428505  0.030659574            4 
   66000    1.1507466   -7.2725419    20.324664  0.025662455  0.030609662            3 
   67000    1.1717831   -7.2467917    20.774491  0.025838919  0.030580489            3 
   68000    1.1711735   -7.2693165    21.009957  0.025747497  0.030562275            1 
   69000    1.1360811   -7.2698079    21.311655  0.025738713  0.030529277            2 
   70000    1.1766982   -7.2967969     21.69014  0.025821595  0.030487608            2 
   71000    1.1416751   -7.3112464    21.892821  0.025695799  0.030439378            3 
   72000    1.1367315   -7.2760318    22.323459  0.025837336  0.030401982            2 
   73000    1.1701581   -7.3260415    22.543187  0.025734232  0.030360116            3 
   74000    1.1290917   -7.3451967    22.881631  0.025767603  0.030304322            2 
   75000    1.1454249   -7.2895997    23.291782  0.025879758   0.03025167            3 
   76000    1.1165723     -7.28052    23.528285  0.025798558  0.030195717            2 
   77000    1.1451227   -7.3053248    23.838557  0.025799303  0.030138579            2 
   78000    1.1409783   -7.3977419      23.9683  0.025607158  0.030073976            3 
   79000    1.1275155   -7.3396143    24.446887  0.025787855  0.030005854            1 
   80000     1.177967   -7.3313634    24.694427  0.025723361  0.029945192            1 
   81000    1.1889096   -7.3372238    25.033031  0.025754147  0.029885047            3 
   82000    1.1537144   -7.3468206    25.287729  0.025698912  0.029823402            2 
   83000    1.1563323   -7.3495221    25.580651  0.025683384  0.029760652            1 
   84000    1.1495548    -7.337756    25.960059  0.025754027  0.029697189            4 
   85000    1.1555361   -7.3646243    26.159455  0.025646525  0.029632881            4 
   86000    1.1451845   -7.3729661     26.34456  0.025527674  0.029561715            3 
   87000    1.0960471   -7.3546255    26.682082   0.02555755  0.029487716            1 
   88000    1.1031845   -7.3531961    27.045176  0.025610962  0.029419286            1 
   89000    1.1423765   -7.4196472    27.279095  0.025542224  0.029352839            1 
   90000    1.1176723   -7.3729315    27.710439  0.025657814    0.0292866            2 
   91000     1.157318   -7.3834478    28.046803  0.025683885  0.029226839            1 
   92000    1.1271578   -7.3938436    28.229443  0.025570148  0.029167143            1 
   93000    1.0787007   -7.4061443    28.468117  0.025509066  0.029104489            1 
   94000    1.1037177   -7.4385952    28.842104  0.025569241    0.0290409            2 
   95000    1.1301381    -7.399782    29.033644  0.025468108  0.028973325            2 
   96000    1.1234506   -7.3829203    29.263653  0.025402476  0.028903736            1 
   97000    1.1332455   -7.3662572    29.612022  0.025439881  0.028832162            1 
   98000    1.1207134   -7.4101796    29.860062  0.025391209  0.028760699            2 
   99000     1.080272   -7.4144308     30.09255  0.025330429  0.028690311            4 
  100000    1.1287595   -7.4490071    30.389827  0.025324855  0.028619319            2 
  101000    1.1066349   -7.4537253    30.652283  0.025290662  0.028550634            1 
  102000    1.1210033   -7.4438371    30.927572  0.025267624  0.028483468            2 
  103000    1.0974108   -7.4769282    31.083971  0.025148844  0.028412967            4 
  104000    1.0675497   -7.4244658    31.422129  0.025177988  0.028343191            1 
  105000    1.1108837   -7.4705123    31.631347  0.025104243   0.02827434            1 
  106000     1.103861   -7.4648604    32.080317  0.025220375  0.028203061            1 
  107000    1.0966634    -7.443119    32.479867  0.025295846  0.028137475            1 
  108000    1.0935785   -7.4497367     32.59276  0.025148734  0.028076619            2 
  109000    1.1181754   -7.4837078    32.795639  0.025073118  0.028009826            1 
  110000     1.076299   -7.4498916    32.963433  0.024972298  0.027934815            2 
  111000    1.0731496   -7.4492429    33.241055  0.024955747  0.027859975            1 
  112000    1.0892051   -7.4191052    33.551987  0.024964276  0.027785317            4 
  113000    1.0782648   -7.4716369    33.719121  0.024866608  0.027714781            1 
  114000     1.085145    -7.490739    33.951519  0.024818361  0.027644353            4 
  115000    1.1047844   -7.4980139    34.365527  0.024902556  0.027578398            1 
  116000    1.0696797   -7.4671818    34.746481  0.024961553  0.027515609            1 
  117000    1.0846372   -7.5007376    34.938217   0.02488477   0.02745558            2 
  118000    1.0783639   -7.5017669    35.198542  0.024857727  0.027394776            2 
  119000    1.0976561   -7.5011759    35.466418  0.024836427  0.027334762            3 
  120000    1.0825758   -7.5223534    35.633139  0.024745235  0.027271848            3 
  121000     1.108121    -7.488785    35.942967  0.024754109  0.027207132            2 
  122000    1.0721016   -7.5045435     36.32378  0.024811325  0.027148184            3 
  123000    1.0940833   -7.4897494    36.571779  0.024777628  0.027091106            2 
  124000    1.0565339   -7.4940612    36.752899  0.024699529  0.027033092            1 
  125000    1.0571329   -7.5242177     36.88475  0.024589833  0.026971072            1 
  126000    1.0734663   -7.5265058    37.082334  0.024525353  0.026905171            3 
  127000    1.0627504   -7.5152161    37.573926  0.024654807  0.026847263            1 
  128000    1.0516267    -7.498908     37.66888   0.02452401  0.026787003            1 
  129000    1.0761642   -7.5465401    37.792199  0.024413565  0.026724274            3 
  130000    1.0837842   -7.5803053    38.164529  0.024464441  0.026665032            2 
  131000     1.056756   -7.5746072    38.529608  0.024509928   0.02661033            3 
  132000    1.0480904   -7.5258312      38.6784  0.024418182  0.026552656            2 
  133000    1.0462695   -7.5281067    38.889784  0.024367033   0.02649552            3 
  134000    1.0593253   -7.5464093    39.228103  0.024395586  0.026439487            1 
  135000     1.075847   -7.5709824     39.37783  0.024307303  0.026381658            1 
  136000    1.0301552   -7.5770785    39.553854   0.02423643  0.026323842            3 
  137000    1.0435621   -7.5790185    39.759509  0.024184616  0.026264468            6 
  138000    1.0393399    -7.564577    40.051316  0.024185577   0.02620506            2 
  139000    1.0319744   -7.5545815     40.21939  0.024112344  0.026147569            2 
  140000    1.0565764   -7.5518466    40.454408  0.024080004  0.026089608            2 
  141000    1.0016106   -7.5585122     40.76478  0.024092659  0.026031392            4 
  142000    1.0221261   -7.6072824    40.833498  0.023963321  0.025973106            2 
  143000    1.0365106    -7.570891    41.097107  0.023949363  0.025914746            1 
  144000    1.0293296   -7.6043571     41.35826  0.023934178  0.025855252            2 
  145000    1.0284192   -7.5642974    41.958717  0.024114205   0.02579937            3 
  146000    1.0188373   -7.5901315    42.019847  0.023983931  0.025747694            1 
  147000    1.0188632   -7.6131813    42.268261  0.023961599  0.025695697            1 
  148000    1.0282685   -7.5804325    42.538086  0.023951625  0.025645449            2 
  149000    1.0519685   -7.5834626    42.733801  0.023900336  0.025590992            3 
  150000    1.0317908   -7.6088018     42.85553  0.023808628  0.025536884            2 
  151000    1.0162644    -7.662748    43.163101  0.023820696  0.025484786            1 
  152000    1.0416968   -7.6651168    43.120767  0.023640771  0.025430738            2 
  153000    1.0542033   -7.6253815    43.505637  0.023695881  0.025375737            1 
  154000     1.006045   -7.6395016    43.619154  0.023603438  0.025320379            3 
  155000    1.0123175   -7.5899461    43.792777  0.023544504  0.025264007            2 
  156000    1.0227929   -7.6122274    44.028775  0.023519645   0.02520699            1 
  157000    1.0024884   -7.6357642     44.26986  0.023497802  0.025149209            2 
  158000    1.0052465   -7.6391304    44.317276  0.023374091  0.025091259            3 
  159000    1.0167566   -7.6466408    44.557696   0.02335309  0.025031843            1 
  160000    1.0199369   -7.6343812    44.609915  0.023234331  0.024972402            2 
  161000    1.0268591   -7.6262106    44.881695  0.023230691  0.024911673            1 
  162000     1.001179   -7.6471158    44.880201  0.023086523  0.024849031            2 
  163000    1.0004087   -7.6805108    45.121299  0.023068149  0.024786889            2 
  164000   0.98955513   -7.6649278    45.356305  0.023046903  0.024725284            3 
  165000   0.98819525   -7.6790249    45.337658  0.022897807  0.024658892            4 
  166000    1.0181974   -7.6239371    45.594589   0.02288885  0.024591181            2 
  167000    1.0120276   -7.7338861    45.360003  0.022634732   0.02452234            1 
  168000    1.0189473   -7.6995846    45.679603  0.022658533  0.024452419            2 
  169000   0.99905764    -7.652509    45.865688  0.022616217  0.024383361            2 
  170000   0.99201293   -7.6953378     46.07203  0.022584328  0.024314879            1 
  171000   0.99703405   -7.6860036    46.222768  0.022525715  0.024246782            3 
  172000    0.9805085   -7.7399281    46.219263  0.022393054  0.024178472            1 
  173000   0.98895278   -7.6867605    46.624378  0.022458756  0.024111808            2 
  174000   0.99281189   -7.7219309     46.67036  0.022351705  0.024042682            1 
  175000   0.99383947    -7.741458    46.897553  0.022332168   0.02397646            4 
  176000   0.99364038   -7.7266389    47.212521  0.022354413  0.023911762            1 
  177000   0.96775235   -7.6843286    47.409359  0.022320791  0.023848761            1 
  178000   0.99821496   -7.7709046     47.45506  0.022216789  0.023786502            1 
  179000   0.98446913   -7.6863215    47.624254   0.02217144  0.023721235            2 
  180000   0.99252268   -7.7548984    47.890472  0.022171515  0.023657251            5 
  181000   0.98690334   -7.7001377    48.388787  0.022278447  0.023597125            2 
  182000   0.97536418   -7.7283184    48.435517  0.022177434  0.023538257            2 
  183000   0.97714875   -7.7327461    48.606852  0.022134268  0.023477409            1 
  184000   0.97237169    -7.771562    48.734672  0.022071862  0.023417165            3 
  185000   0.97944845   -7.7654606    48.647423  0.021913253  0.023354474            1 
  186000   0.97524586    -7.725239    48.835525  0.021879715  0.023291586            1 
  187000   0.99167084   -7.7386207    48.995973  0.021834212  0.023226897            3 
  188000   0.98049194   -7.7649719    48.981665  0.021711731  0.023161222            3 
  189000   0.96065838   -7.7512958    49.265237  0.021721886  0.023096963            1 
  190000   0.98066587   -7.8369477    49.234236  0.021593963  0.023033033            1 
  191000   0.95417149   -7.7671204     49.64691  0.021660955  0.022969461            2 
  192000   0.96079694   -7.7415423     49.67507   0.02156036  0.022906656            1 
  193000   0.97422259   -7.7742102    49.753339  0.021482444  0.022844261            2 
  194000   0.96097731    -7.797324    49.805772  0.021394232  0.022779201            3 
  195000   0.96273897   -7.8120924    49.869249  0.021311645  0.022714679            4 
  196000   0.95353639   -7.7912167    49.948023  0.021236404  0.022649503            2 
  197000   0.96636623   -7.7833204    50.254311  0.021258169  0.022583971            2 
  198000   0.95397759   -7.7816051    50.485621  0.021248157  0.022520367            3 
  199000   0.95516226   -7.8283394    50.573269  0.021178086  0.022457454            2 
  200000   0.95635597   -7.7843922    50.956256  0.021231773  0.022395857            2 
  201000   0.96356314   -7.8224774    51.079279  0.021177147  0.022334791            3 
  202000   0.96088389   -7.8198807    51.142444  0.021098368  0.022273718            6 
  203000   0.92556072   -7.8243225    51.169198  0.021005418  0.022212959            2 
  204000   0.92139878    -7.823422    51.468997  0.021024917  0.022152416            2 
  205000   0.93104465   -7.8459487     51.38771  0.020889313  0.022090177            4 
  206000   0.94030231   -7.8471535    51.538001  0.020848706  0.022027374            5 
  207000   0.92958168   -7.8329963    51.736481  0.020827891  0.021965905            2 
  208000   0.93711658   -7.8568359    51.954338  0.020815039  0.021904086            3 
  209000   0.94590873   -7.8626531     51.97438  0.020723437  0.021842952            1 
  210000   0.93314577   -7.8153552    52.375017  0.020783737  0.021781959            1 
  211000   0.93844429   -7.8582042    52.286753  0.020650376  0.021721098            2 
  212000    0.9302268    -7.870348    52.281762  0.020551007   0.02166033            2 
  213000   0.92383419    -7.857308    52.568378  0.020566658  0.021598685            2 
  214000   0.90871212   -7.8765753    52.720638  0.020529844  0.021537967            4 
  215000   0.93109508   -7.8694566    52.669657  0.020414596  0.021477525            2 
  216000   0.93989285   -7.8945137    52.626416  0.020303401  0.021415975            1 
  217000   0.91086655   -7.9033234    52.717067  0.020244649  0.021352861            1 
  218000   0.92680883   -7.9242074    52.944413   0.02023869  0.021290295            2 
  219000   0.92503973   -7.9128174    53.037381  0.020181652  0.021228914            2 
  220000   0.91591661   -7.8828477    53.150208  0.020132654  0.021166987            5 
  221000   0.91869976   -7.9089791    53.318742  0.020105106  0.021104981            4 
  222000   0.89131694    -7.883876    53.549286  0.020101083  0.021044128            1 
  223000   0.91805871   -7.8941703    53.376705  0.019946452  0.020982374            3 
  224000   0.90121145   -7.9068292    53.451558  0.019885252   0.02092077            2 
  225000   0.91668712   -7.9196839    53.511593  0.019819109  0.020859167            2 
  226000   0.90801496   -7.9241997    53.660902  0.019786468  0.020796165            2 
  227000   0.88971136   -7.8712584    53.746003  0.019730544  0.020733825            2 
  228000    0.9044888   -7.9353233    53.728609  0.019637649  0.020671172            4 
  229000   0.90164457   -7.8791297    54.123825  0.019695715  0.020608742            1 
  230000   0.90254413    -7.914675    54.085389  0.019596155  0.020546459            1 
  231000    0.9022866   -7.9462124    54.028142  0.019490672  0.020483859            2 
  232000   0.91519632   -7.9304991    54.290484  0.019500892  0.020420416            4 
  233000   0.90414255   -7.9200056    54.048687  0.019330718  0.020357004            2 
  234000   0.90183788   -7.9775297     54.01362   0.01923562  0.020292647            2 
  235000   0.89639139   -7.9197709    54.120329  0.019191606  0.020227839            2 
  236000    0.9081047   -7.9380778    54.343679  0.019189152  0.020162555            7 
  237000   0.88171171   -7.9381645    54.323284  0.019101014  0.020097767            1 
  238000   0.89627514   -7.9654748     54.31651  0.019018386  0.020034319            4 
  239000   0.88804203   -7.9563126    54.491041  0.018999666  0.019969787            2 
  240000   0.87715903   -7.9976897    54.647468  0.018974815  0.019906319            3 
  241000   0.87107552   -7.9703407    54.873575  0.018974265   0.01984439            4 
  242000   0.89701907   -8.0086637    54.921046  0.018912206  0.019782809            2 
  243000   0.88237117   -7.9820344    55.068149  0.018884825  0.019720979            1 
  244000   0.88841424   -8.0245444     54.93259   0.01876113  0.019659414            3 
  245000   0.87263415   -8.0238953    55.122632  0.018749194   0.01959775            6 
  246000   0.86385684   -8.0131141    55.231106  0.018709724  0.019537124            2 
  247000   0.87135432   -8.0222287    55.359076  0.018677151  0.019475809            3 
  248000   0.87095579   -8.0084092    55.445152  0.018630763  0.019415693            1 
  249000   0.88294571   -7.9779229    55.687823  0.018637156  0.019355692            2 
  250000   0.86922138   -8.0182247    55.725564  0.018575188  0.019295832            1 
  251000   0.88317168   -8.0091006    55.941175  0.018572767  0.019236436           10 
  252000   0.87674881   -8.0388676    55.895343   0.01848391  0.019177397            3 
  253000   0.86457527   -8.0270414    56.024513  0.018453397  0.019119036            3 
  254000   0.88037403   -8.0181444    55.945196  0.018354723  0.019060576            1 
  255000   0.85284161   -8.0371854    56.007185  0.018303002  0.019001308            1 
  256000   0.86476892   -8.0452919    56.096387  0.018260543  0.018942049            2 
  257000   0.84390971   -8.0350884    56.279715  0.018248935   0.01888319            3 
  258000   0.85040642   -8.0605175    56.331214  0.018194837  0.018824943            2 
  259000   0.85036358   -8.0598612    56.440599  0.018159781  0.018766941            2 
  260000   0.84359947   -8.0940523    56.300511  0.018045036  0.018708065            1 
  261000   0.84477863   -8.0686974    56.346261  0.017990505  0.018649069            5 
  262000   0.84388934   -8.0553508    56.623339  0.018009968  0.018590382            4 
  263000    0.8672038   -8.0716374    56.399939  0.017870703   0.01853135            7 
  264000    0.8564031   -8.0963233    56.363818  0.017791609   0.01847137            4 
  265000   0.84450568   -8.0812575    56.454201  0.017752893   0.01841194            5 
  266000   0.83657272    -8.041609    56.664193   0.01775194  0.018352819            4 
  267000    0.8486603   -8.0624545    56.717415  0.017702064  0.018293674            3 
  268000   0.83970227   -8.0793188    56.741649  0.017643547   0.01823483            2 
  269000   0.84763629   -8.0967493    56.700982   0.01756536  0.018176273            2 
  270000    0.8369921   -8.1163606    56.605886  0.017470952  0.018117394            2 
  271000   0.82918472   -8.0834607     56.84901  0.017481245  0.018058433            5 
  272000   0.84217131   -8.0969534    56.910597  0.017435845  0.017999634            4 
  273000   0.81428971   -8.1238966    56.997462  0.017398493  0.017940896            1 
  274000   0.82891921    -8.125998    57.068856  0.017356708  0.017882644            4 
  275000   0.81744786   -8.1123414    57.096627  0.017302008  0.017824782            2 
  276000    0.8296122   -8.1134175    57.013471  0.017214212  0.017766097            4 
  277000    0.8244374   -8.1293605     57.01984  0.017153983   0.01770771            5 
  278000    0.8182455   -8.1225969    57.197823   0.01714563   0.01764961            2 
  279000   0.80828583   -8.1116073    57.275568  0.017107398  0.017591467            3 
  280000   0.82833667   -8.1048127     57.27152  0.017045095  0.017533328            5 
  281000   0.80999001    -8.152799    57.128018  0.016941879  0.017475316            1 
  282000   0.82930358   -8.1634016     57.16482  0.016892677  0.017417197            1 
  283000   0.81651385   -8.2036359    57.186129  0.016839261  0.017359425            2 
  284000   0.82281028   -8.1824784    57.419655   0.01684849  0.017302237            2 
  285000   0.80916958   -8.1768011    57.509731  0.016815711  0.017245629            1 
  286000   0.82703688   -8.1412753    57.570561  0.016774639   0.01718922            2 
  287000   0.80227426   -8.1648859    57.539025  0.016707034  0.017132786            2 
  288000   0.80227701   -8.1912394     57.65204  0.016681725  0.017076529            1 
  289000   0.81180954   -8.1873721    57.599833  0.016608948  0.017020553            2 
  290000   0.77650617   -8.1839911    57.706001  0.016582184  0.016964567            3 
  291000   0.78852532   -8.2032108    57.674665  0.016516227  0.016909035            3 
  292000   0.81193507   -8.2182715    57.701904  0.016467438  0.016853134            2 
  293000   0.80005102   -8.2016627    57.747147  0.016424103  0.016797476            6 
  294000   0.80030753   -8.2121438    57.833791  0.016392798  0.016741893            4 
  295000   0.80662766   -8.2083074    57.875919   0.01634913  0.016686809           10 
  296000   0.78517254   -8.2164215     57.80629  0.016274293  0.016632085            3 
  297000   0.77696086   -8.2163885    57.859277  0.016234365  0.016577002            3 
  298000   0.80028556   -8.2262522    57.956829  0.016207167  0.016522065            2 
  299000   0.78157195   -8.2831412    57.993538  0.016163193  0.016466613            2 
  300000   0.77420072   -8.2312098     57.93119  0.016091997  0.016411333            4 
  301000   0.78899642   -8.2427106    57.955178  0.016045177  0.016356283            2 
  302000    0.7840834   -8.2430051    57.914644  0.015980862  0.016301471            2 
  303000   0.80220206   -8.2501049     57.99017  0.015948892  0.016246864            1 
  304000   0.79276132   -8.2535877    58.091842  0.015924299  0.016192786            1 
  305000   0.79220658   -8.2377455    58.170958  0.015893704  0.016138936            2 
  306000   0.77843549   -8.2724626    58.102179  0.015823033  0.016085144            4 
  307000   0.77767042    -8.242332    58.273805  0.015818079  0.016031808            4 
  308000   0.76957838   -8.2765186    58.197948  0.015746198  0.015978224            2 
  309000   0.76202337   -8.2674491    58.142038  0.015680161  0.015924508            1 
  310000    0.7824846   -8.2950583    58.205116  0.015646536  0.015870598            5 
  311000   0.77366419   -8.2743229    58.177754  0.015588894  0.015816568            5 
  312000   0.78415966   -8.3051069    58.149034  0.015531259  0.015762764            2 
  313000   0.78143737   -8.3300545     58.16035  0.015484651  0.015709127            3 
  314000   0.77247545   -8.2906248    58.344951  0.015484329   0.01565568            2 
  315000   0.78560607   -8.3348536    58.259038  0.015412444  0.015602865            3 
  316000   0.75918885   -8.3374651    58.208648  0.015350382   0.01554971            3 
  317000   0.75161881   -8.3422337    58.275402  0.015319506  0.015496696            1 
  318000   0.76155682   -8.3355238    58.303293  0.015278641  0.015443772            3 
  319000   0.75750801   -8.3388316    58.315097  0.015233829  0.015391115            3 
  320000   0.76997685   -8.3436086    58.216241  0.015160479  0.015338366            5 
  321000   0.74813745   -8.3282011    58.448232  0.015173477  0.015285848            3 
  322000   0.75145308   -8.3560266    58.334839  0.015097008  0.015233322            4 
  323000   0.76088068   -8.3340394    58.471122  0.015085429  0.015180911            2 
  324000   0.73327552   -8.3641525    58.322244  0.015000577  0.015128318            3 
  325000   0.75168505    -8.344154    58.293712  0.014947106  0.015075664            3 
  326000   0.74898485    -8.359791    58.379147  0.014923095   0.01502334            2 
  327000   0.74577753   -8.3502165     58.28606  0.014853736  0.014971182            1 
  328000   0.72889627   -8.3813906    58.294393  0.014810567  0.014919142            2 
  329000   0.75016989   -8.3386376     58.57416  0.014836413  0.014867449            2 
  330000   0.72024056   -8.3848626    58.399836  0.014747433  0.014816077            3 
  331000   0.74973292   -8.3694961     58.44085  0.014713205  0.014764892            2 
  332000   0.74242199   -8.3786252    58.404769  0.014659832  0.014713677            3 
  333000    0.7444011   -8.3877633    58.467097  0.014631406  0.014662577            6 
  334000   0.71874891   -8.4032933    58.398534  0.014570493  0.014611753            3 
  335000   0.72401695   -8.3818727    58.515803   0.01455617  0.014561051            2 
  336000   0.72276284   -8.3900854    58.344927  0.014470468  0.014510357            2 
  337000   0.74456239   -8.3689324    58.539101  0.014475544   0.01445983            2 
  338000   0.70900222    -8.401483    58.645032  0.014458834  0.014409689            3 
  339000   0.73291361   -8.4062168    58.571573  0.014398125  0.014359973            8 
  340000   0.74018687   -8.4268493    58.661448  0.014377806  0.014310439            3 
  341000   0.73192235   -8.4395756     58.57124  0.014313597   0.01426078            1 
  342000   0.73877913   -8.4431976    58.679601  0.014298148   0.01421124            2 
  343000   0.71409993   -8.4481026    58.582172  0.014232792  0.014161788            3 
  344000   0.71792646   -8.4029488    58.612601  0.014198789  0.014112732            2 
  345000   0.70651024   -8.4537932    58.533159  0.014138444    0.0140636            7 
  346000   0.73468282   -8.4253805    58.630317  0.014120982  0.014014611            1 
  347000   0.70392241    -8.446238    58.709356  0.014099269  0.013965762            4 
  348000   0.72194789   -8.4516016    58.666927  0.014048594  0.013917203            2 
  349000   0.70263026   -8.4483821    58.529586  0.013975546  0.013868736            6 
  350000   0.71221928    -8.458743    58.559787  0.013942806  0.013820409            4 
  351000   0.71221979   -8.4943967    58.563867  0.013904052  0.013772043            4 
  352000   0.71610439   -8.4855127      58.4528  0.013838258  0.013723688            1 
  353000   0.69949175   -8.4663788    58.573954  0.013827657  0.013675579            4 
  354000      0.68799      -8.4927    58.662049  0.013809333   0.01362763            5 
  355000   0.71557202   -8.4897683    58.531493  0.013739787  0.013579706            2 
  356000   0.70244719   -8.4832665    58.574807  0.013711331  0.013532183            2 
  357000   0.69295811   -8.5000698    58.625452  0.013684746  0.013484817            2 
  358000   0.69954975    -8.495009    58.693773  0.013662424  0.013437643            2 
  359000   0.70005116   -8.4848849    58.517262  0.013583394  0.013390676            2 
  360000   0.68526144   -8.4966862    58.706524  0.013589473  0.013343746            2 
  361000   0.69473035   -8.4807433    58.644374  0.013537483  0.013297232            3 
  362000   0.69236231   -8.4872257    58.713237  0.013515938   0.01325081            1 
  363000   0.67872725   -8.5023918    58.658358  0.013466106  0.013204577            5 
  364000    0.6888101   -8.5237272    58.585958  0.013412536   0.01315841            3 
  365000    0.6733854   -8.5210902    58.575533  0.013373409  0.013112385            2 
  366000    0.6852225   -8.5195815    58.722502  0.013370333  0.013066515            2 
  367000   0.68320558   -8.5260899    58.707726  0.013330546  0.013020746            3 
  368000   0.67561252   -8.5221841    58.787841  0.013312464  0.012975076            4 
  369000   0.68168543   -8.5389848    58.754754  0.013268915  0.012929614            2 
  370000   0.66090143   -8.5313142    58.630367  0.013205038  0.012884305            3 
  371000   0.66609212   -8.5343951    58.591142  0.013160634  0.012838956            4 
  372000   0.68377757   -8.5644392     58.62246  0.013132272  0.012793846            2 
  373000   0.66732195   -8.5473047    58.570942  0.013085555  0.012748849            4 
  374000   0.66667741   -8.5525288    58.760187  0.013092733   0.01270393            1 
  375000    0.6619044     -8.55679    58.616698  0.013025933  0.012659248            1 
  376000   0.67519822   -8.5668856    58.660137  0.013000917  0.012614697            1 
  377000   0.65955452   -8.5564673    58.644327  0.012962937  0.012570388            4 
  378000   0.66297415   -8.5778633    58.614595  0.012922089   0.01252618            2 
  379000   0.66098228   -8.5693737    58.574119  0.012879094  0.012481958            2 
  380000   0.65988687   -8.5648013    58.529364  0.012835387  0.012437894            3 
  381000   0.67051913   -8.5965028    58.559593   0.01280831  0.012394043            3 
  382000   0.65458485   -8.6194488    58.533256  0.012769035  0.012350255            2 
  383000   0.63628371   -8.5919902    58.543801   0.01273799  0.012306745            2 
  384000   0.64989118   -8.5891372     58.58211  0.012713131  0.012263345            2 
  385000   0.66147244   -8.5963973     58.60731  0.012685565  0.012220295           12 
  386000   0.65231282   -8.5925883    58.679146  0.012668209  0.012177485            2 
  387000   0.64837856   -8.6054019      58.6314  0.012625194  0.012134737            2 
  388000   0.65484955   -8.5910142    58.740562    0.0126161  0.012092181            6 
  389000   0.65746677   -8.6311678    58.578547   0.01254896  0.012049677            2 
  390000   0.63815243   -8.5907839    58.607766  0.012523027  0.012007433            2 
  391000   0.63979282   -8.6215454    58.577813  0.012484615  0.011965443            3 
  392000   0.62378286   -8.6071671     58.58803  0.012454938  0.011923506            2 
  393000   0.63421964   -8.6245321    58.654467  0.012437334  0.011881672            4 
  394000   0.65111132   -8.6110455    58.650078  0.012404839  0.011840039            3 
  395000   0.63505417   -8.6408378    58.591523  0.012361081  0.011798504            7 
  396000   0.64151927   -8.6319987    58.501393  0.012310899  0.011757068            3 
  397000   0.65116601   -8.6481447    58.733997  0.012328715  0.011715807            2 
  398000   0.64627977   -8.6269542    58.621254  0.012274132  0.011674638            2 
  399000   0.61773708   -8.6226293    58.617076  0.012242497  0.011633686            2 
  400000   0.61442225   -8.6475164    58.487286  0.012184851  0.011592965            4 
  401000   0.63643274   -8.6584359     58.62789  0.012183685  0.011552356            3 
  402000   0.61791673   -8.6643721    58.555227  0.012138314  0.011511891            2 
  403000   0.62822443   -8.6598247    58.551183  0.012107358  0.011471634            4 
  404000   0.63493838   -8.6451329    58.525565  0.012072105  0.011431521            3 
  405000   0.62585389   -8.6570762    58.568867  0.012051207  0.011391493            2 
  406000   0.60481468   -8.6770292    58.543406  0.012016298  0.011351643            2 
  407000   0.62737088   -8.6709899    58.494974  0.011976858  0.011311923            2 
  408000   0.61628825   -8.6608084    58.440924  0.011936463  0.011272286            3 
  409000   0.60932351   -8.6834112    58.500817  0.011919482  0.011232864            2 
  410000   0.60381745   -8.6649192    58.506625  0.011891591  0.011193476            5 
  411000   0.60049312   -8.6813754    58.449203  0.011851014  0.011154266            2 
  412000   0.59270257     -8.69525    58.446953  0.011821795  0.011115208            3 
  413000   0.59851841    -8.677055     58.51031  0.011805954  0.011076279            3 
  414000   0.62001287   -8.6906626    58.340009  0.011743158  0.011037585            8 
  415000   0.60729422   -8.6904553    58.446598  0.011736265  0.010998931            3 
  416000   0.60391183   -8.6912427    58.276916  0.011674062  0.010960414            2 
  417000   0.59861005   -8.7068134    58.398839  0.011670431  0.010922026            6 
  418000   0.60164716    -8.709773    58.367417  0.011636247  0.010883807           11 
  419000   0.60470401   -8.7065582    58.442087  0.011623327  0.010845794            5 
  420000     0.598699   -8.7099263    58.422768  0.011591819  0.010807988            5 
  421000   0.59512199   -8.7174073    58.481801   0.01157597  0.010770309            2 
  422000   0.58161061   -8.7101481    58.401734  0.011532728  0.010732856            6 
  423000   0.58711439   -8.7197764    58.325387  0.011490423  0.010695486            3 
  424000   0.58999214     -8.73503    58.311552  0.011460604  0.010658218            1 
  425000   0.58952302   -8.7309564    58.437672  0.011458367  0.010621133            3 
  426000    0.5789072    -8.713366    58.443198  0.011432551  0.010584266            2 
  427000   0.58241056   -8.7274049    58.468766  0.011410766  0.010547569            1 
  428000   0.59070035     -8.72276    58.361417  0.011363204  0.010510951            2 
  429000    0.5713288   -8.7224143    58.362634  0.011336953  0.010474501            4 
  430000   0.58571028   -8.7257653     58.26853  0.011292351  0.010438109            4 
  431000   0.57826158   -8.7325768    58.335452   0.01127909  0.010401962            6 
  432000   0.57268695   -8.7353788    58.291061  0.011244418  0.010365855            4 
  433000   0.56309172   -8.7464491    58.421436   0.01124354  0.010329975            2 
  434000   0.58320296   -8.7581842    58.273897  0.011189304   0.01029425            3 
  435000   0.56736973   -8.7743896    58.286596  0.011166015   0.01025876            5 
  436000   0.57462279   -8.7439753    58.355122  0.011153502  0.010223344            3 
  437000   0.57355121   -8.7579588      58.3109  0.011119546  0.010188095            3 
  438000   0.56366032   -8.7616255    58.331419  0.011098063  0.010152973            2 
  439000   0.55987997   -8.7477285    58.318001  0.011070236  0.010117949            2 
  440000   0.57144542   -8.7605089    58.290668  0.011039899  0.010083085            3 
  441000   0.55371562   -8.7661263    58.317984  0.011020027  0.010048332            3 
  442000   0.56034817   -8.7812675    58.225747  0.010977705  0.010013702            4 
  443000   0.57083763    -8.771782     58.27765  0.010962688 0.0099791386            3 
  444000   0.55950481   -8.7858452    58.315137  0.010945033 0.0099448325            3 
  445000   0.55453895   -8.7734372    58.339908  0.010925076 0.0099106551            1 
  446000   0.55610303   -8.8020296    58.273001  0.010888079 0.0098765948            3 
  447000   0.55116959   -8.7667457    58.229785  0.010855665 0.0098426847            3 
  448000   0.55331372    -8.788212    58.385603  0.010860417 0.0098088507            4 
  449000   0.54122624   -8.8031491    58.217035  0.010804943 0.0097752123            1 
  450000   0.53575067   -8.7691426     58.25652  0.010788244 0.0097416084            1 
  451000   0.55797663   -8.7947943     58.13046  0.010741031 0.0097081871            4 
  452000   0.54403953   -8.8116064    58.153087  0.010721439  0.009674954            4 
  453000     0.558302   -8.8155922    58.228075  0.010711566 0.0096419072            3 
  454000   0.52903166   -8.7959722     58.19649  0.010682175 0.0096088776            4 
  455000   0.54381012   -8.8115542    58.148074   0.01064983 0.0095760253            2 
  456000    0.5329467   -8.8242873    58.178376  0.010632013 0.0095431996            4 
  457000   0.52475044   -8.8155512    58.099545  0.010594374  0.009510487            2 
  458000   0.53769358   -8.8259389    58.152976  0.010580964 0.0094779967            2 
  459000    0.5358589   -8.8219347    58.117225  0.010551421 0.0094456156            3 
  460000   0.54744684   -8.8178991     58.19003  0.010541672  0.009413378            3 
  461000   0.53521094   -8.8261642     58.20973  0.010522366 0.0093813019            2 
  462000   0.53179825    -8.840838    58.175124  0.010493349 0.0093492738            1 
  463000   0.52440892   -8.8303057    58.066126  0.010451067 0.0093173812            2 
  464000   0.51846759   -8.8431638    58.056755   0.01042686 0.0092855545            2 
  465000   0.52738267   -8.8511013    58.077255   0.01040811 0.0092538922            3 
  466000   0.51606354   -8.8257977    58.021205  0.010375752 0.0092223604            3 
  467000   0.52346485   -8.8555262    58.012991  0.010352068 0.0091910141            3 
  468000   0.52732686   -8.8535268    58.079001  0.010341702 0.0091597839            2 
  469000   0.51738695    -8.861335    58.093538  0.010322235 0.0091287692            1 
  470000   0.52092104   -8.8465698     58.14392  0.010309206 0.0090978436            3 
  471000   0.51746429   -8.8678788    58.015345  0.010264569  0.009067024            2 
  472000   0.51658559   -8.8494906    58.084791  0.010255083  0.009036262            4 
  473000   0.50298094   -8.8493242    58.077173   0.01023206 0.0090056879            2 
  474000   0.51308598   -8.8714898    58.029928  0.010202167 0.0089752748            3 
  475000    0.5060987   -8.8704488     57.93525  0.010164079 0.0089449356            2 
  476000    0.5063113    -8.858465    58.086504  0.010169206 0.0089147953            2 
  477000   0.51062124   -8.8570202    58.034011  0.010138716 0.0088847339            2 
  478000   0.51161525   -8.8708401    58.021544  0.010115332 0.0088548007            3 
  479000   0.50001836   -8.8858613    58.061144  0.010101104 0.0088250346            5 
  480000   0.48636473   -8.8937897     57.95315  0.010061311 0.0087953573            3 
  481000   0.50382278   -8.8886846    57.996965  0.010047984 0.0087658061            4 
  482000   0.49824544   -8.8847861    58.040992   0.01003475 0.0087363706            6 
  483000   0.49793686   -8.8992236    58.019801  0.010010318  0.008707097            5 
  484000   0.49450092   -8.8958755    57.952571 0.0099780597 0.0086779186            2 
  485000   0.48745036   -8.8887304    58.084508  0.009980156 0.0086488797            3 
  486000   0.48081765   -8.9131227    57.969596 0.0099399171 0.0086199337            5 
  487000   0.50372952   -8.9039692    57.935366 0.0099136492 0.0085911003            2 
  488000   0.48631987   -8.9036536    58.006429 0.0099054694 0.0085623947            3 
  489000   0.48791813   -8.9129201      57.8658 0.0098612474 0.0085338099            5 
  490000    0.4852775   -8.9004184     57.85341 0.0098390154 0.0085053043            4 
  491000   0.48294494    -8.927119    57.944406 0.0098344205 0.0084768817            5 
  492000   0.48202006   -8.9220825    57.791551 0.0097885418 0.0084485832            3 
  493000   0.48703768   -8.9109865    58.005299 0.0098048173 0.0084204062            2 
  494000   0.48525247    -8.904837    57.849234 0.0097586427 0.0083924226            2 
  495000   0.47335644    -8.916474    57.932561 0.0097529564 0.0083645508            3 
  496000   0.47945603   -8.9220303    57.870123 0.0097228029   0.00833679            1 
  497000   0.47716678   -8.9372105    57.918811 0.0097114036 0.0083091333            3 
  498000   0.47317786   -8.9416696    57.862049 0.0096824045 0.0082815901            2 
  499000    0.4718462   -8.9278942    57.795438 0.0096518767 0.0082541813            3 
  500000   0.46200408    -8.933649    57.817235 0.0096362058 0.0082268435            5 
  501000   0.46534596   -8.9459874    57.890587 0.0096291728 0.0081996331            5 
  502000   0.48104127    -8.926046    57.859169 0.0096047756 0.0081725505            3 
  503000   0.46835079   -8.9419781    57.872335  0.009587862 0.0081456076            3 
  504000   0.45118797   -8.9389141    57.795397 0.0095561173 0.0081187047            2 
  505000   0.45944035   -8.9477221    57.840005 0.0095445553 0.0080919896            2 
  506000   0.45931189   -8.9359481    57.811516 0.0095210007 0.0080653457            4 
  507000   0.46045773   -8.9505074    57.873592 0.0095124247 0.0080388082            3 
  508000   0.46306818   -8.9431146    57.731137 0.0094703308 0.0080124079            1 
  509000   0.45366111    -8.954203    57.800393 0.0094630637 0.0079861289            2 
  510000   0.45773733    -8.960386    57.822911 0.0094481881 0.0079599206            2 
  511000   0.45293063   -8.9643961    57.764546 0.0094201803 0.0079338243            3 
  512000   0.44986726   -8.9605075    57.693046 0.0093901442 0.0079077991            2 
Loop time of 1232.81 on 48 procs for 500000 steps with 4000 atoms

Performance: 70083.800 tau/day, 405.578 timesteps/s
99.4% CPU use with 48 MPI tasks x no OpenMP threads

MPI task timing breakdown:
Section |  min time  |  avg time  |  max time  |%varavg| %total
---------------------------------------------------------------
Pair    | 80.984     | 86.443     | 92.038     |  27.2 |  7.01
Neigh   | 8.1006     | 8.4862     | 8.8195     |   6.6 |  0.69
Comm    | 76.864     | 83.808     | 89.756     |  32.1 |  6.80
Output  | 1.5466     | 1.5474     | 1.5716     |   0.3 |  0.13
Modify  | 1038       | 1041.2     | 1043.7     |   4.4 | 84.46
Other   |            | 11.35      |            |       |  0.92

Nlocal:        83.3333 ave          92 max          75 min
Histogram: 1 4 6 7 8 8 2 6 3 3
Nghost:        2183.29 ave        2200 max        2163 min
Histogram: 2 3 3 4 7 10 4 4 7 4
Neighs:        14490.9 ave       16809 max       13095 min
Histogram: 5 10 7 5 7 5 3 3 2 1
FullNghs:      28980.5 ave       32257 max       25891 min
Histogram: 1 3 6 12 6 6 5 5 0 4

Total # of neighbors = 1391064
Ave neighs/atom = 347.76600
Neighbor list builds = 26706
Dangerous builds = 0

#clear
#
#next RN
#
#jump SELF
Total wall time: 0:20:36
